# vtk DataFile Version 4.1
vtk output
ASCII
DATASET UNSTRUCTURED_GRID
POINTS 949 float
-50.4035 -3.55271e-15 -3.85 -50.4035 -3.55271e-15 3.85 -38.605 -4.93315 -3.85 
-38.605 -4.93315 3.85 -31.9679 4.59652 -3.85 -31.9679 4.59652 3.85 
-21 0.45642 -3.85 -21 0.45642 -2.65 -21 0.45642 2.65 
-21 0.45642 3.85 -12.4448 15.4062 -3.85 -18 31.0321 -3.85 
-38.8249 32.9799 -3.85 -55 18.4356 -3.85 -36.5644 23.0321 -3.85 
-12.4448 15.4062 3.85 -18 31.0321 3.85 -38.8249 32.9799 3.85 
-55 18.4356 3.85 -36.5644 23.0321 3.85 -12.4448 15.4062 -2.65 
-1.86303e-15 9.03214 -2.65 -1.86303e-15 9.03214 2.65 -12.4448 15.4062 2.65 
-18 31.0321 -2.65 -18 31.0321 2.65 -5.41091e-15 25.0321 -2.65 
140 25.0321 -2.65 175 25.0321 -2.65 175 9.03214 -2.65 
140 9.03214 -2.65 140 9.03214 2.65 -5.41091e-15 25.0321 2.65 
140 25.0321 2.65 175 25.0321 2.65 175 9.03214 2.65 
-50.4035 -3.55271e-15 0 -38.605 -4.93315 0 -44.2479 -3.31518 -3.85 
-47.4226 -1.83752 -3.85 -41.4661 -4.26252 -3.85 -44.2479 -3.31518 3.85 
-47.4226 -1.83752 3.85 -41.4661 -4.26252 3.85 -31.9679 4.59652 3.10862e-15 
-31.9679 4.59652 -1.925 -31.9679 4.59652 1.925 -42.5535 1.95721 -3.85 
-46.4785 0.978607 -3.85 -37.2607 3.27687 -3.85 -42.5535 1.95721 3.85 
-46.4785 0.978607 3.85 -37.2607 3.27687 3.85 -21 0.45642 -3.25 
-21 0.45642 0 -21 0.45642 3.25 -29.1454 -4.38463 -3.85 
-33.8422 -5.22719 -3.85 -24.7819 -2.45346 -3.85 -29.1454 -4.38463 3.85 
-33.8422 -5.22719 3.85 -24.7819 -2.45346 3.85 -15.2356 8.15215 -3.85 
-17.8238 4.08407 -3.85 -13.6167 11.6932 -3.85 -12.1603 21.2193 -3.85 
-14.1099 26.7032 -3.85 -12.0179 18.2989 -3.85 -12.8666 24.0567 -3.85 
-15.843 29.0581 -3.85 -23.8189 34.053 -3.85 -31.4169 34.9819 -3.85 
-20.7848 32.7826 -3.85 -27.5731 34.8843 -3.85 -35.2178 34.3395 -3.85 
-46.7998 27.7988 -3.85 -42.9669 30.6272 -3.85 -51.2663 23.4381 -3.85 
-47.15 20.3928 -3.85 -51.075 19.4142 -3.85 -41.8572 21.7125 -3.85 
-28.5567 8.19815 -3.85 -27.2961 12.9959 -3.85 -28.4962 17.8092 -3.85 
-31.8616 21.4535 -3.85 -30.0354 6.18246 -3.85 -27.6242 10.5176 -3.85 
-27.5929 15.4781 -3.85 -29.9493 19.8433 -3.85 -34.1136 22.5391 -3.85 
-15.2356 8.15215 3.85 -17.8238 4.08407 3.85 -13.6167 11.6932 3.85 
-12.1603 21.2193 3.85 -14.1099 26.7032 3.85 -12.0179 18.2989 3.85 
-12.8666 24.0567 3.85 -15.843 29.0581 3.85 -23.8189 34.053 3.85 
-31.4169 34.9819 3.85 -20.7848 32.7826 3.85 -27.5731 34.8843 3.85 
-35.2178 34.3395 3.85 -46.7998 27.7988 3.85 -42.9669 30.6272 3.85 
-51.2663 23.4381 3.85 -47.15 20.3928 3.85 -51.075 19.4142 3.85 
-41.8572 21.7125 3.85 -28.5567 8.19815 3.85 -27.2961 12.9959 3.85 
-28.4962 17.8092 3.85 -31.8616 21.4535 3.85 -30.0354 6.18246 3.85 
-27.6242 10.5176 3.85 -27.5929 15.4781 3.85 -29.9493 19.8433 3.85 
-34.1136 22.5391 3.85 -36.5644 23.0321 3.10862e-15 -36.5644 23.0321 -1.925 
-36.5644 23.0321 1.925 -12.4448 15.4062 -3.25 -15.2356 8.15215 -2.65 
-17.8238 4.08407 -2.65 -13.6167 11.6932 -2.65 -1.86303e-15 9.03214 0 
-12.5871 6.26381 -2.65 -6.44398 8.33188 -2.65 -17.0428 3.72109 -2.65 
-12.5871 6.26381 2.65 -6.44398 8.33188 2.65 -17.0428 3.72109 2.65 
-15.2356 8.15215 2.65 -17.8238 4.08407 2.65 -13.6167 11.6932 2.65 
-12.4448 15.4062 3.25 -18 31.0321 -3.25 -12.1603 21.2193 -2.65 
-14.1099 26.7032 -2.65 -12.0179 18.2989 -2.65 -12.8666 24.0567 -2.65 
-15.843 29.0581 -2.65 -18 31.0321 0 -18 31.0321 3.25 
-38.8249 32.9799 0 -55 18.4356 0 -12.1603 21.2193 2.65 
-14.1099 26.7032 2.65 -12.0179 18.2989 2.65 -12.8666 24.0567 2.65 
-15.843 29.0581 2.65 -10.8599 27.0668 -2.65 -14.5655 28.8053 -2.65 
-5.52443 25.5452 -2.65 16.2336 25.0321 -2.65 36.6109 25.0321 -2.65 
57.2887 25.0321 -2.65 77.9665 25.0321 -2.65 98.6444 25.0321 -2.65 
119.322 25.0321 -2.65 8.1168 25.0321 -2.65 26.4223 25.0321 -2.65 
46.9498 25.0321 -2.65 67.6276 25.0321 -2.65 88.3055 25.0321 -2.65 
108.983 25.0321 -2.65 129.661 25.0321 -2.65 157.5 25.0321 -2.65 
148.75 25.0321 -2.65 166.25 25.0321 -2.65 175 17.0321 -2.65 
157.5 9.03214 -2.65 148.75 9.03214 -2.65 166.25 9.03214 -2.65 
16.2336 9.03214 -2.65 36.6109 9.03214 -2.65 57.2887 9.03214 -2.65 
77.9665 9.03214 -2.65 98.6444 9.03214 -2.65 119.322 9.03214 -2.65 
8.1168 9.03214 -2.65 26.4223 9.03214 -2.65 46.9498 9.03214 -2.65 
67.6276 9.03214 -2.65 88.3055 9.03214 -2.65 108.983 9.03214 -2.65 
129.661 9.03214 -2.65 140 9.03214 0 16.2336 9.03214 2.65 
36.6109 9.03214 2.65 57.2887 9.03214 2.65 77.9665 9.03214 2.65 
98.6444 9.03214 2.65 119.322 9.03214 2.65 8.1168 9.03214 2.65 
26.4223 9.03214 2.65 46.9498 9.03214 2.65 67.6276 9.03214 2.65 
88.3055 9.03214 2.65 108.983 9.03214 2.65 129.661 9.03214 2.65 
-10.8599 27.0668 2.65 -14.5655 28.8053 2.65 -5.52443 25.5452 2.65 
16.2336 25.0321 2.65 36.6109 25.0321 2.65 57.2887 25.0321 2.65 
77.9665 25.0321 2.65 98.6444 25.0321 2.65 119.322 25.0321 2.65 
8.1168 25.0321 2.65 26.4223 25.0321 2.65 46.9498 25.0321 2.65 
67.6276 25.0321 2.65 88.3055 25.0321 2.65 108.983 25.0321 2.65 
129.661 25.0321 2.65 157.5 25.0321 2.65 148.75 25.0321 2.65 
166.25 25.0321 2.65 175 17.0321 2.65 157.5 9.03214 2.65 
148.75 9.03214 2.65 166.25 9.03214 2.65 -5.41091e-15 25.0321 0 
140 25.0321 0 175 25.0321 0 175 9.03214 0 
-47.4226 -1.83752 0 -48.9399 -0.962292 -1.925 -48.9399 -0.962292 1.925 
-45.8568 -2.62271 -1.925 -45.8568 -2.62271 1.925 -41.4661 -4.26252 0 
-44.2479 -3.31518 0 -37.2939 3.2686 4.44089e-16 -46.4785 0.978607 4.44089e-16 
-48.441 0.489304 1.925 -48.441 0.489304 -1.925 -44.516 1.46791 -1.925 
-44.516 1.46791 1.925 -34.6309 3.93256 -1.925 -34.6309 3.93256 1.77636e-15 
-39.9237 2.61291 -1.925 -34.6309 3.93256 1.925 -39.9237 2.61291 1.925 
-42.5535 1.95721 0 -24.3476 -2.18783 -0.975449 -27.8167 -3.92622 1.47595 
-33.1414 -5.17417 2.66298 -33.1414 -5.17417 -1.18702 -28.4771 -4.1671 -1.18702 
-28.4771 -4.1671 2.66298 -22.6031 -0.955218 -2.41272 -22.6031 -0.955218 -1.81272 
-26.6738 -3.44516 -2.41272 -22.6031 -0.955218 0.837276 -24.1841 -2.08379 2.06298 
-24.1841 -2.08379 2.66298 -26.0399 -3.14136 0.250252 -24.1863 25.1654 -3.85 
-20.4368 17.327 -3.85 -30.3776 28.1762 -3.85 -22.4249 8.60135 -3.85 
-36.2454 0.329607 -3.85 -18.7494 22.3318 -3.85 -24.1405 20.3083 -3.85 
-27.4917 2.86094 -3.85 -40.8048 27.2992 -3.85 -35.6302 28.201 -3.85 
-17.913 13.4265 -3.85 -27.7609 22.7654 -3.85 -16.3409 17.9422 -3.85 
-22.6555 13.6867 -3.85 -20.7802 28.1616 -3.85 -25.8166 29.6842 -3.85 
-31.8552 -0.302156 -3.85 -24.9375 16.5539 -3.85 -43.4007 -0.678982 -3.85 
-35.2301 -2.61765 -3.85 -30.5003 -2.3434 -3.85 -40.5793 -1.48797 -3.85 
-39.3995 1.14341 -3.85 -37.4252 -2.30177 -3.85 -34.0503 0.0137258 -3.85 
-34.1066 2.46306 -3.85 -28.0242 5.52955 -3.85 -29.7298 3.72873 -3.85 
-31.9115 2.14718 -3.85 -29.6735 1.27939 -3.85 -28.3186 -0.761846 -3.85 
-24.2458 1.65868 -3.85 -21.7125 4.52889 -3.85 -18.8303 8.37675 -3.85 
-24.9583 5.73115 -3.85 -14.3928 16.6742 -3.85 -14.2506 19.5808 -3.85 
-16.5743 10.7893 -3.85 -15.1789 14.4163 -3.85 -17.1269 15.6843 -3.85 
-17.445 27.4324 -3.85 -19.3901 29.5969 -3.85 -22.2995 31.1073 -3.85 
-33.5235 31.5915 -3.85 -37.2276 30.5904 -3.85 -39.8149 30.1395 -3.85 
-43.8023 27.549 -3.85 -38.2175 27.7501 -3.85 -46.9749 24.0958 -3.85 
-36.0973 25.6166 -3.85 -33.7459 24.8273 -3.85 -43.9774 23.846 -3.85 
-38.6846 25.1657 -3.85 -15.4548 21.7756 -3.85 -16.4296 24.5175 -3.85 
-17.5451 20.137 -3.85 -19.7648 25.2467 -3.85 -24.8177 31.8686 -3.85 
-28.6167 32.333 -3.85 -23.2984 28.9229 -3.85 -30.8973 31.5791 -3.85 
-33.0039 28.1886 -3.85 -28.0971 28.9302 -3.85 -24.8605 10.7986 -3.85 
-25.4908 8.39975 -3.85 -26.7168 17.1816 -3.85 -26.1168 14.7749 -3.85 
-24.9758 13.3413 -3.85 -22.5402 11.144 -3.85 -23.7965 15.1203 -3.85 
-29.8113 22.1095 -3.85 -28.1285 20.2873 -3.85 -26.3183 19.0587 -3.85 
-25.9507 21.5368 -3.85 -24.539 18.4311 -3.85 -31.1196 24.8149 -3.85 
-29.0692 25.4708 -3.85 -20.169 11.0139 -3.85 -27.282 26.6708 -3.85 
-25.9736 23.9654 -3.85 -25.0014 27.4248 -3.85 -21.4678 23.7486 -3.85 
-21.4449 21.32 -3.85 -24.1634 22.7368 -3.85 -22.4832 26.6635 -3.85 
-19.5931 19.8294 -3.85 -22.2886 18.8177 -3.85 -18.3888 17.6346 -3.85 
-22.6871 16.9405 -3.85 -19.1749 15.3767 -3.85 -20.2843 13.5566 -3.85 
-21.5461 15.5068 -3.85 -24.1863 25.1654 3.85 -20.4368 17.327 3.85 
-30.3776 28.1762 3.85 -22.4249 8.60135 3.85 -36.2454 0.329607 3.85 
-18.7494 22.3318 3.85 -24.1405 20.3083 3.85 -27.4917 2.86094 3.85 
-40.8048 27.2992 3.85 -35.6302 28.201 3.85 -17.913 13.4265 3.85 
-27.7609 22.7654 3.85 -16.3409 17.9422 3.85 -22.6555 13.6867 3.85 
-20.7802 28.1616 3.85 -25.8166 29.6842 3.85 -31.8552 -0.302156 3.85 
-24.9375 16.5539 3.85 -43.4007 -0.678982 3.85 -30.5003 -2.3434 3.85 
-35.2301 -2.61765 3.85 -40.5793 -1.48797 3.85 -37.4252 -2.30177 3.85 
-39.3995 1.14341 3.85 -34.0503 0.0137258 3.85 -34.1066 2.46306 3.85 
-29.7298 3.72873 3.85 -28.0242 5.52955 3.85 -31.9115 2.14718 3.85 
-29.6735 1.27939 3.85 -24.2458 1.65868 3.85 -28.3186 -0.761846 3.85 
-18.8303 8.37675 3.85 -21.7125 4.52889 3.85 -24.9583 5.73115 3.85 
-14.2506 19.5808 3.85 -14.3928 16.6742 3.85 -15.1789 14.4163 3.85 
-16.5743 10.7893 3.85 -17.1269 15.6843 3.85 -19.3901 29.5969 3.85 
-17.445 27.4324 3.85 -22.2995 31.1073 3.85 -37.2276 30.5904 3.85 
-33.5235 31.5915 3.85 -43.8023 27.549 3.85 -39.8149 30.1395 3.85 
-38.2175 27.7501 3.85 -46.9749 24.0958 3.85 -33.7459 24.8273 3.85 
-36.0973 25.6166 3.85 -38.6846 25.1657 3.85 -43.9774 23.846 3.85 
-16.4296 24.5175 3.85 -15.4548 21.7756 3.85 -17.5451 20.137 3.85 
-19.7648 25.2467 3.85 -28.6167 32.333 3.85 -24.8177 31.8686 3.85 
-23.2984 28.9229 3.85 -33.0039 28.1886 3.85 -30.8973 31.5791 3.85 
-28.0971 28.9302 3.85 -25.4908 8.39975 3.85 -24.8605 10.7986 3.85 
-26.1168 14.7749 3.85 -26.7168 17.1816 3.85 -22.5402 11.144 3.85 
-24.9758 13.3413 3.85 -23.7965 15.1203 3.85 -28.1285 20.2873 3.85 
-29.8113 22.1095 3.85 -25.9507 21.5368 3.85 -26.3183 19.0587 3.85 
-24.539 18.4311 3.85 -31.1196 24.8149 3.85 -29.0692 25.4708 3.85 
-20.169 11.0139 3.85 -25.9736 23.9654 3.85 -27.282 26.6708 3.85 
-25.0014 27.4248 3.85 -24.1634 22.7368 3.85 -21.4449 21.32 3.85 
-21.4678 23.7486 3.85 -22.4832 26.6635 3.85 -22.2886 18.8177 3.85 
-19.5931 19.8294 3.85 -18.3888 17.6346 3.85 -22.6871 16.9405 3.85 
-19.1749 15.3767 3.85 -21.5461 15.5068 3.85 -20.2843 13.5566 3.85 
-29.625 19.4743 4.44089e-16 -27.5929 15.4781 4.44089e-16 -27.511 10.9957 4.44089e-16 
-33.3653 22.2541 -1.77636e-15 -29.5085 6.78536 -2.22045e-15 -30.6475 5.58903 4.44089e-16 
-30.6475 5.58903 -1.925 -29.0025 7.47145 -1.925 -30.6475 5.58903 1.925 
-29.0025 7.47145 1.925 -32.5964 21.8859 -1.925 -34.9326 22.7757 -1.925 
-34.9326 22.7757 4.44089e-16 -34.9326 22.7757 1.925 -32.5964 21.8859 1.925 
-27.9288 9.55767 -1.925 -27.3531 11.9904 -1.925 -28.2611 8.77255 -8.88178e-16 
-27.3666 14.2463 -1.925 -27.9714 16.672 -1.925 -27.2975 13.2416 4.44089e-16 
-29.0186 18.6702 -1.925 -30.669 20.5479 -1.925 -28.3821 17.5916 4.44089e-16 
-31.331 21.0851 -4.44089e-16 -27.3531 11.9904 1.925 -27.9288 9.55767 1.925 
-27.9714 16.672 1.925 -27.3666 14.2463 1.925 -30.669 20.5479 1.925 
-29.0186 18.6702 1.925 -17.8238 4.08407 -3.25 -15.2356 8.15215 -3.25 
-13.6167 11.6932 -3.25 -17.0428 3.72109 0 -12.5871 6.26381 0 
-6.44398 8.33188 0 -17.8238 4.08407 3.25 -15.2356 8.15215 3.25 
-13.6167 11.6932 3.25 -12.0179 18.2989 -3.25 -12.1603 21.2193 -3.25 
-15.843 29.0581 -3.25 -14.1099 26.7032 -3.25 -12.8666 24.0567 -3.25 
-21.769 33.2599 -0.228061 -27.3105 34.8505 -0.0398665 -34.1464 34.5976 -0.00434842 
-19.8233 32.2494 -1.43903 -19.8233 32.2494 -2.03903 -22.783 33.6846 -2.03903 
-36.5359 33.934 1.92283 -36.5359 33.934 -1.92717 -32.7883 34.8368 -1.92717 
-20.7848 32.7826 3.25 -32.7883 34.8368 1.92283 -19.8233 32.2494 1.21097 
-22.783 33.6846 1.81097 -29.3603 35.0219 -1.94493 -25.5468 34.5301 -1.94493 
-24.4821 34.2559 -0.133964 -30.7394 35.0185 -0.0221075 -29.3603 35.0219 1.90507 
-25.5468 34.5301 1.90507 -42.9669 30.6272 0 -46.7998 27.7988 0 
-51.2663 23.4381 0 -41.8904 21.7042 4.44089e-16 -51.075 19.4142 0 
-53.0375 18.9249 -1.925 -53.0375 18.9249 1.925 -49.1125 19.9035 -1.925 
-39.2274 22.3682 1.77636e-15 -39.2274 22.3682 -1.925 -44.5202 21.0485 -1.925 
-49.1125 19.9035 1.925 -39.2274 22.3682 1.925 -44.5202 21.0485 1.925 
-47.15 20.3928 0 -12.0179 18.2989 3.25 -15.843 29.0581 3.25 
-12.1603 21.2193 3.25 -14.1099 26.7032 3.25 -12.8666 24.0567 3.25 
6.78831 16.804 -2.65 -9.03398 10.7302 -2.65 -3.37118 16.3995 -2.65 
129.661 17.0321 -2.65 67.6276 17.0321 -2.65 46.9498 17.0321 -2.65 
88.3055 17.0321 -2.65 108.983 17.0321 -2.65 26.4223 17.0321 -2.65 
-7.12991 21.1297 -2.65 148.75 17.0321 -2.65 166.25 17.0321 -2.65 
-13.9114 7.20798 -2.65 -9.64512 21.1745 -2.65 -9.78737 18.268 -2.65 
-10.7394 13.0682 -2.65 -12.1348 9.44116 -2.65 -7.90801 15.9028 -2.65 
-6.20258 13.5648 -2.65 -5.25055 18.7646 -2.65 -10.8106 8.49698 -2.65 
-4.51699 9.88115 -2.65 3.39416 12.9181 -2.65 11.511 12.9181 -2.65 
-1.68559 12.7158 -2.65 1.70857 16.6017 -2.65 -12.4849 26.885 -2.65 
-3.56496 23.0809 -2.65 -8.99491 24.0982 -2.65 11.511 20.9181 -2.65 
3.39416 20.9181 -2.65 -1.68559 20.7158 -2.65 140 17.0321 -2.65 
134.831 13.0321 -2.65 134.831 21.0321 -2.65 144.375 21.0321 -2.65 
144.375 13.0321 -2.65 153.125 21.0321 -2.65 124.492 21.0321 -2.65 
170.625 13.0321 -2.65 170.625 21.0321 -2.65 161.875 21.0321 -2.65 
161.875 13.0321 -2.65 153.125 13.0321 -2.65 124.492 13.0321 -2.65 
-11.5101 24.143 -2.65 157.5 17.0321 -2.65 31.5166 21.0321 -2.65 
21.3279 21.0321 -2.65 16.2336 17.0321 -2.65 21.3279 13.0321 -2.65 
52.1193 21.0321 -2.65 41.7804 21.0321 -2.65 36.6109 17.0321 -2.65 
41.7804 13.0321 -2.65 31.5166 13.0321 -2.65 72.7971 21.0321 -2.65 
62.4582 21.0321 -2.65 57.2887 17.0321 -2.65 62.4582 13.0321 -2.65 
52.1193 13.0321 -2.65 93.4749 21.0321 -2.65 83.136 21.0321 -2.65 
77.9665 17.0321 -2.65 72.7971 13.0321 -2.65 83.136 13.0321 -2.65 
114.153 21.0321 -2.65 103.814 21.0321 -2.65 98.6444 17.0321 -2.65 
93.4749 13.0321 -2.65 103.814 13.0321 -2.65 119.322 17.0321 -2.65 
114.153 13.0321 -2.65 8.1168 9.03214 0 16.2336 9.03214 0 
129.661 9.03214 0 119.322 9.03214 0 26.4223 9.03214 0 
46.9498 9.03214 0 57.2887 9.03214 0 36.6109 9.03214 0 
67.6276 9.03214 0 77.9665 9.03214 0 88.3055 9.03214 0 
98.6444 9.03214 0 108.983 9.03214 0 6.78831 16.804 2.65 
-9.03398 10.7302 2.65 -3.37118 16.3995 2.65 129.661 17.0321 2.65 
67.6276 17.0321 2.65 88.3055 17.0321 2.65 108.983 17.0321 2.65 
46.9498 17.0321 2.65 26.4223 17.0321 2.65 -7.12991 21.1297 2.65 
148.75 17.0321 2.65 166.25 17.0321 2.65 -13.9114 7.20798 2.65 
-4.51699 9.88115 2.65 -10.8106 8.49698 2.65 11.511 12.9181 2.65 
3.39416 12.9181 2.65 1.70857 16.6017 2.65 -1.68559 12.7158 2.65 
-6.20258 13.5648 2.65 -9.78737 18.268 2.65 -9.64512 21.1745 2.65 
-12.1348 9.44116 2.65 -10.7394 13.0682 2.65 -7.90801 15.9028 2.65 
-5.25055 18.7646 2.65 -12.4849 26.885 2.65 134.831 21.0321 2.65 
134.831 13.0321 2.65 140 17.0321 2.65 144.375 13.0321 2.65 
144.375 21.0321 2.65 124.492 13.0321 2.65 153.125 13.0321 2.65 
-8.99491 24.0982 2.65 -3.56496 23.0809 2.65 3.39416 20.9181 2.65 
11.511 20.9181 2.65 -1.68559 20.7158 2.65 153.125 21.0321 2.65 
124.492 21.0321 2.65 170.625 21.0321 2.65 170.625 13.0321 2.65 
161.875 21.0321 2.65 161.875 13.0321 2.65 -11.5101 24.143 2.65 
31.5166 13.0321 2.65 21.3279 13.0321 2.65 16.2336 17.0321 2.65 
21.3279 21.0321 2.65 52.1193 13.0321 2.65 41.7804 13.0321 2.65 
41.7804 21.0321 2.65 36.6109 17.0321 2.65 31.5166 21.0321 2.65 
72.7971 13.0321 2.65 62.4582 13.0321 2.65 62.4582 21.0321 2.65 
57.2887 17.0321 2.65 52.1193 21.0321 2.65 93.4749 13.0321 2.65 
83.136 13.0321 2.65 72.7971 21.0321 2.65 77.9665 17.0321 2.65 
83.136 21.0321 2.65 114.153 13.0321 2.65 103.814 13.0321 2.65 
93.4749 21.0321 2.65 98.6444 17.0321 2.65 103.814 21.0321 2.65 
119.322 17.0321 2.65 114.153 21.0321 2.65 157.5 17.0321 2.65 
-14.5655 28.8053 0 -10.8599 27.0668 0 -5.52443 25.5452 0 
8.1168 25.0321 0 16.2336 25.0321 0 129.661 25.0321 0 
119.322 25.0321 0 36.6109 25.0321 0 26.4223 25.0321 0 
57.2887 25.0321 0 46.9498 25.0321 0 67.6276 25.0321 0 
98.6444 25.0321 0 88.3055 25.0321 0 77.9665 25.0321 0 
108.983 25.0321 0 148.75 25.0321 0 166.25 25.0321 0 
157.5 25.0321 0 175 17.0321 0 166.25 9.03214 0 
157.5 9.03214 0 148.75 9.03214 0 -48.9374 23.6065 -1.925 
-48.9374 23.6065 1.925 -24.9375 16.5539 0 -22.6871 16.9405 0 
-21.5461 15.5068 0 -23.7965 15.1203 0 -26.2652 16.016 1.925 
-26.2652 16.016 -1.925 -25.1242 14.5824 1.925 -24.539 18.4311 0 
-22.6555 13.6867 0 -20.4368 17.327 0 -25.1242 14.5824 -1.925 
-22.2886 18.8177 0 -25.8667 17.8932 -1.925 -24.1405 20.3083 0 
-19.5931 19.8294 0 -20.2843 13.5566 0 -18.3888 17.6346 0 
-17.5451 20.137 0 -16.3409 17.9422 0 -25.0833 12.3412 -1.925 
-25.0833 12.3412 1.925 -21.4449 21.32 0 -19.1749 15.3767 0 
-25.8667 17.8932 1.925 -15.4548 21.7756 -3.25 -14.2506 19.5808 -3.25 
-14.2506 19.5808 0.6 -17.1269 15.6843 0 -30.5631 22.5097 -1.925 
-31.8715 25.2152 -1.925 -30.5631 22.5097 1.925 -29.0692 25.4708 0 
-27.7609 22.7654 0 -17.445 27.4324 -3.25 -16.4296 24.5175 -3.25 
-14.1099 26.7032 0 -16.4296 24.5175 -0.6 -17.445 27.4324 -0.6 
-22.5402 11.144 0 -12.1603 21.2193 0 -14.2506 19.5808 3.25 
-15.4548 21.7756 -0.6 -18.7494 22.3318 0 -26.8827 19.8913 -1.925 
-26.8827 19.8913 1.925 -21.4678 23.7486 0 -24.1634 22.7368 0 
-25.9736 23.9654 0 -13.1351 23.9612 0 -24.968 9.79853 -1.925 
-28.6929 21.1199 1.925 -25.9507 21.5368 0 -17.913 13.4265 0 
-17.445 27.4324 3.25 -19.7648 25.2467 0 -16.4296 24.5175 3.25 
-31.8715 25.2152 1.925 -30.3776 28.1762 0 -20.7802 28.1616 0 
-15.4548 21.7756 3.25 -28.6929 21.1199 -1.925 -24.1863 25.1654 0 
-27.282 26.6708 0 -27.2812 18.0141 -1.925 -27.2812 18.0141 1.925 
-24.9583 5.73115 0 -27.4917 2.86094 0 -28.5001 4.82315 1.925 
-28.5001 4.82315 -1.925 -25.9667 7.69336 -1.925 -20.169 11.0139 0 
-36.7696 1.7991 1.925 -36.7696 1.7991 -1.925 -22.4249 8.60135 0 
-25.9667 7.69336 1.925 -22.4832 26.6635 0 -28.0971 28.9302 0 
-25.0014 27.4248 0 -24.968 9.79853 1.925 -34.4978 25.2276 -1.925 
-33.0039 28.1886 0 -32.262 31.3869 -1.92717 -28.8441 31.5134 -1.94493 
-28.8441 31.5134 1.90507 -32.262 31.3869 1.92283 -37.4252 -2.30177 0 
-36.2454 0.329607 0 -34.0503 0.0137258 0 -25.8166 29.6842 0 
-15.1789 14.4163 -0.6 -14.3928 16.6742 3.25 -14.3928 16.6742 -0.6 
-12.4849 26.885 0 -16.0549 28.8676 0 -34.8883 31.3993 -1.92717 
-34.4978 25.2276 1.925 -35.6302 28.201 0 -23.7928 31.472 -2.03903 
-21.2746 30.7107 -2.03903 -21.2746 30.7107 1.81097 -23.2984 28.9229 0 
-12.3026 18.3128 0 -19.3901 29.5969 -0.6 -35.2301 -2.61765 0 
-31.8552 -0.302156 0 -36.0973 25.6166 -1.925 -36.0973 25.6166 1.925 
-18.8303 8.37675 -0.6 -16.5743 10.7893 3.25 -16.5743 10.7893 -0.6 
-26.5636 32.2673 1.90507 -24.2458 1.65868 -0.6 -21.7125 4.52889 -0.6 
-24.2458 1.65868 3.25 -15.1789 14.4163 3.25 -37.9494 -0.832273 1.925 
-23.7928 31.472 1.81097 -34.8883 31.3993 1.92283 -19.3901 29.5969 3.25 
-21.7125 4.52889 3.25 -29.7298 3.72873 -1.925 -31.9115 2.14718 -1.925 
-29.6735 1.27939 0 -29.7298 3.72873 1.925 -26.5636 32.2673 -1.94493 
-9.64512 21.1745 0 124.492 21.0321 0 134.831 21.0321 0 
129.661 17.0321 0 72.7971 21.0321 0 62.4582 21.0321 0 
67.6276 17.0321 0 93.4749 21.0321 0 83.136 21.0321 0 
88.3055 17.0321 0 134.831 13.0321 0 124.492 13.0321 0 
-31.9115 2.14718 1.925 -25.9197 0.336554 -2.41272 41.7804 21.0321 0 
52.1193 21.0321 0 46.9498 17.0321 0 26.4223 17.0321 0 
31.5166 13.0321 0 21.3279 13.0321 0 108.983 17.0321 0 
114.153 13.0321 0 103.814 13.0321 0 93.4749 13.0321 0 
83.136 13.0321 0 72.7971 13.0321 0 62.4582 13.0321 0 
41.7804 13.0321 0 52.1193 13.0321 0 114.153 21.0321 0 
103.814 21.0321 0 -18.8303 8.37675 3.25 -34.5745 1.48322 1.925 
21.3279 21.0321 0 31.5166 21.0321 0 -19.3901 29.5969 -3.25 
-4.51699 9.88115 0 -9.03398 10.7302 0 -10.8106 8.49698 0 
-25.9197 0.336554 1.43728 161.875 21.0321 0 166.25 17.0321 0 
170.625 21.0321 0 -45.3632 -1.16829 1.925 -45.3632 -1.16829 -1.925 
-46.9506 -0.429458 2.22045e-16 -15.1789 14.4163 -3.25 -14.3928 16.6742 -3.25 
-12.4448 15.4062 0 -39.8149 30.1395 0 -40.8048 27.2992 0 
-43.8023 27.549 0 -41.3476 24.5017 -1.925 -41.3476 24.5017 1.925 
-18.8303 8.37675 -3.25 -16.5743 10.7893 -3.25 -15.2356 8.15215 0 
161.875 13.0321 0 170.625 13.0321 0 -38.6846 25.1657 -1.925 
-38.2175 27.7501 0 -24.2458 1.65868 -3.25 -21.7125 4.52889 -3.25 
-9.78737 18.268 0 -7.12991 21.1297 0 -5.25055 18.7646 0 
-29.836 -2.11419 -1.18702 -37.2276 30.5904 0 -18.1178 4.30429 0 
-43.4007 -0.678982 0 -7.90801 15.9028 0 -38.6846 25.1657 1.925 
153.125 21.0321 0 144.375 21.0321 0 148.75 17.0321 0 
153.125 13.0321 0 144.375 13.0321 0 -37.9494 -0.832273 -1.925 
-13.8402 11.7792 0 -3.37118 16.3995 0 -10.7394 13.0682 0 
-6.20258 13.5648 0 -40.5793 -1.48797 0 157.5 17.0321 0 
-8.99491 24.0982 0 -3.56496 23.0809 0 -46.9749 24.0958 0 
-11.5101 24.143 0 -27.6542 -0.53264 2.66298 -27.6542 -0.53264 -1.18702 
3.39416 12.9181 0 6.78831 16.804 0 11.511 12.9181 0 
3.39416 20.9181 0 11.511 20.9181 0 -28.1014 -1.24499 -2.41272 
-29.836 -2.11419 2.66298 -44.3451 24.7515 1.925 -1.68559 20.7158 0 
1.70857 16.6017 0 -12.1348 9.44116 0 -13.9114 7.20798 0 
16.2336 17.0321 0 36.6109 17.0321 0 57.2887 17.0321 0 
77.9665 17.0321 0 98.6444 17.0321 0 -1.68559 12.7158 0 
-34.1066 2.46306 -1.925 -44.3451 24.7515 -1.925 140 17.0321 0 
119.322 17.0321 0 
CELLS 415 4565
10 512 18 75 103 514 510 710 711 105 509 
10 18 75 13 512 510 77 145 514 710 513 
10 369 261 277 365 713 348 712 421 714 715 
10 369 277 445 365 712 717 716 421 715 718 
10 369 261 266 277 713 346 719 712 348 334 
10 277 261 273 365 348 351 329 715 714 720 
10 353 261 369 365 721 713 440 442 714 421 
10 273 445 277 365 722 717 329 720 718 715 
10 261 353 369 358 721 440 713 723 437 426 
10 445 266 277 369 724 334 717 716 719 712 
10 266 261 369 358 346 713 719 725 723 426 
10 261 357 353 358 726 438 721 723 434 437 
10 273 261 270 365 351 349 350 720 714 727 
10 261 364 353 357 728 439 721 726 407 438 
10 261 265 272 364 345 315 347 728 729 730 
10 446 445 273 365 464 722 731 732 718 720 
10 265 261 266 358 345 346 342 733 723 725 
10 261 365 353 362 714 442 721 734 443 441 
10 369 445 266 358 716 724 719 426 735 725 
10 137 272 265 364 737 315 736 738 730 729 
10 364 261 353 362 728 721 439 391 734 441 
10 270 261 272 364 349 347 299 739 728 730 
10 447 262 271 363 741 336 740 742 743 744 
10 138 265 274 147 746 316 745 747 748 749 
10 365 263 270 273 750 337 727 720 328 350 
10 137 364 265 146 738 729 736 751 752 753 
10 357 261 265 358 726 345 754 434 723 733 
10 266 445 444 358 724 467 755 725 735 756 
10 266 352 265 358 758 757 342 725 433 733 
10 260 271 262 363 339 336 338 759 744 743 
10 138 137 265 147 140 736 746 747 760 748 
10 364 261 265 357 728 345 729 407 726 754 
10 265 147 137 146 748 760 736 753 149 751 
10 446 273 263 365 731 328 761 732 720 750 
10 358 444 266 363 756 755 725 424 762 763 
10 365 261 270 362 714 349 727 443 734 764 
10 265 366 147 357 766 765 748 754 408 767 
10 354 262 447 363 769 741 768 428 743 742 
10 147 265 274 366 748 316 749 765 766 770 
10 357 265 364 146 754 729 407 771 753 752 
10 266 444 271 363 755 772 333 763 762 744 
10 364 270 261 362 739 349 728 391 764 734 
10 447 271 444 363 740 772 468 742 744 762 
10 262 352 260 363 774 773 338 743 430 759 
10 262 354 352 363 769 431 774 743 428 430 
10 83 444 277 445 465 775 325 463 467 717 
10 444 369 445 111 776 716 467 474 418 471 
10 357 265 352 358 754 757 435 434 733 433 
10 357 147 265 146 767 748 754 771 149 753 
10 260 265 266 352 341 342 343 773 757 758 
10 359 267 263 448 778 294 777 779 780 781 
10 270 263 365 362 337 750 727 764 782 443 
10 358 266 352 363 725 758 433 424 763 430 
10 444 266 277 445 755 334 775 467 724 717 
10 369 444 445 358 776 467 716 426 756 735 
10 50 5 235 356 52 244 245 375 377 783 
10 264 47 4 235 282 49 285 784 243 241 
10 271 260 266 363 339 343 333 744 759 763 
10 359 263 355 448 777 785 386 779 781 786 
10 352 366 265 357 436 766 757 435 408 754 
10 260 265 366 274 341 766 787 344 316 770 
10 366 265 260 352 766 341 787 436 757 773 
10 277 83 266 444 325 332 334 775 465 755 
10 358 369 444 111 426 776 756 425 418 474 
10 352 266 260 363 758 343 773 430 763 759 
10 352 262 367 354 774 788 432 431 769 414 
10 262 367 260 352 788 789 338 774 432 773 
10 362 263 365 355 782 750 443 429 785 419 
10 446 355 263 448 790 785 761 461 786 781 
10 447 269 262 354 791 321 741 768 792 769 
10 490 262 491 354 794 793 505 795 769 796 
10 356 264 3 368 798 797 374 376 799 372 
10 262 275 260 367 322 340 338 788 800 789 
10 270 364 272 23 739 730 299 801 802 803 
10 446 109 355 448 470 415 790 461 453 786 
10 446 263 81 448 761 324 459 461 781 451 
10 446 365 263 355 732 750 761 790 419 785 
10 151 25 147 138 687 150 804 554 805 747 
10 491 262 269 354 793 321 806 796 769 792 
10 354 447 269 361 768 791 792 412 807 808 
10 489 274 275 366 810 319 809 811 770 812 
10 364 137 272 23 738 737 730 802 813 803 
10 110 445 446 365 472 464 469 420 718 732 
10 446 82 273 445 460 327 731 464 462 722 
10 138 274 25 147 745 814 805 747 749 150 
10 260 275 274 366 340 319 344 787 812 770 
10 3 264 276 368 797 284 815 372 799 816 
10 367 366 260 352 411 787 789 432 436 773 
10 269 447 118 361 791 456 817 808 807 818 
10 263 362 270 132 782 764 337 819 820 821 
10 367 262 490 354 788 794 822 414 769 795 
10 267 263 8 359 294 824 823 778 777 825 
10 23 270 364 362 801 739 802 826 764 391 
10 235 264 3 356 784 797 827 783 798 374 
10 146 137 364 23 751 738 752 148 813 802 
10 366 275 489 367 812 809 811 411 800 828 
10 354 269 491 361 792 806 796 412 808 829 
10 359 355 109 448 386 415 379 779 786 453 
10 263 267 81 448 294 286 324 781 780 451 
10 147 274 25 366 749 814 150 765 770 830 
10 355 8 263 359 831 824 785 386 825 777 
10 276 44 267 359 833 832 289 834 835 778 
10 366 260 275 367 787 340 812 411 789 800 
10 490 354 491 99 795 796 505 506 413 499 
10 262 491 71 490 793 497 320 794 505 502 
10 490 275 262 367 836 322 794 822 800 788 
10 151 24 25 138 152 142 687 554 141 805 
10 623 137 146 23 837 751 635 634 813 148 
10 209 33 531 617 216 839 838 654 641 840 
10 156 618 157 532 842 841 163 585 843 584 
10 157 619 158 534 845 844 164 590 846 589 
10 31 617 193 531 642 646 200 847 840 848 
10 44 359 276 368 835 834 833 849 381 816 
10 267 6 56 247 291 58 290 850 253 255 
10 205 206 533 621 212 852 851 666 673 853 
10 536 175 174 622 583 181 578 854 855 856 
10 620 179 535 178 858 600 857 859 185 598 
10 619 191 178 534 675 611 860 846 861 597 
10 191 190 532 618 197 863 862 669 670 843 
10 533 189 621 190 864 665 853 865 196 664 
10 620 535 159 208 857 594 866 683 867 702 
10 263 355 362 132 785 429 782 819 868 820 
10 264 356 235 368 798 783 784 799 376 869 
10 622 205 154 536 668 695 870 854 871 576 
10 263 132 8 355 819 133 824 785 868 831 
10 277 273 82 445 329 327 326 717 722 462 
10 445 110 369 365 472 417 716 718 420 421 
10 84 262 271 447 335 336 330 454 741 740 
10 363 447 354 112 742 768 428 423 458 427 
10 25 274 138 24 814 745 805 142 872 141 
10 615 129 21 529 628 480 873 874 875 549 
10 266 83 271 444 332 331 333 755 465 772 
10 444 363 358 111 762 424 756 474 422 425 
10 8 247 267 359 256 850 823 825 876 778 
10 217 625 34 539 657 655 219 877 878 879 
10 41 38 236 228 234 881 880 232 231 882 
10 272 20 270 23 884 883 299 803 885 801 
10 270 23 132 362 801 134 821 764 826 820 
10 360 268 17 103 887 886 398 397 888 104 
10 268 14 78 511 312 80 311 889 517 518 
10 360 19 511 106 403 520 890 404 108 521 
10 270 122 263 132 892 891 337 821 893 819 
10 267 359 44 448 778 835 832 780 779 449 
10 171 625 539 29 894 878 570 173 895 567 
10 2 276 3 264 279 815 37 283 284 797 
10 269 118 268 361 817 896 307 808 818 897 
10 267 7 8 263 898 54 823 294 899 824 
10 623 137 20 537 837 139 900 901 541 542 
10 271 444 84 447 772 466 330 740 468 454 
10 363 444 447 112 762 468 742 423 473 458 
10 623 20 530 537 900 545 902 901 542 547 
10 103 512 18 106 711 514 105 400 519 107 
10 75 78 13 512 308 79 77 710 515 513 
10 2 56 248 276 57 251 250 279 280 903 
10 17 491 269 361 495 806 904 395 829 808 
10 20 272 137 23 884 737 139 885 803 813 
10 489 275 490 367 809 836 504 828 800 822 
10 84 269 262 447 310 321 335 454 791 741 
10 447 361 354 112 807 412 768 458 401 427 
10 3 50 235 356 373 245 827 374 375 783 
10 7 263 122 132 899 891 123 905 819 893 
10 273 446 263 82 731 761 328 327 460 323 
10 365 446 110 355 732 469 420 419 790 416 
10 38 236 47 41 881 239 278 234 880 906 
10 21 126 529 129 127 548 549 480 479 875 
10 147 25 151 201 150 687 804 640 202 688 
10 357 94 147 146 405 526 767 771 527 149 
10 623 23 20 137 634 885 900 837 813 139 
10 8 132 263 7 133 819 824 54 905 899 
10 20 623 616 23 900 639 907 885 634 638 
10 66 137 265 138 488 736 314 487 140 746 
10 268 17 269 361 886 904 307 897 395 808 
10 236 0 1 228 238 36 237 882 229 230 
10 360 268 118 361 887 896 908 399 897 818 
10 538 33 217 624 910 218 909 911 645 653 
10 221 624 31 538 647 644 222 912 911 913 
10 94 147 366 357 526 765 393 405 767 408 
10 361 491 354 99 829 796 412 396 499 413 
10 269 71 262 491 303 320 321 806 497 793 
10 265 274 66 138 316 300 314 746 745 487 
10 31 531 179 30 847 572 603 187 561 186 
10 179 531 31 193 572 847 603 604 848 200 
10 159 531 33 27 566 839 692 166 562 225 
10 206 618 157 156 671 841 698 696 842 163 
10 175 533 176 189 582 588 182 608 864 606 
10 192 620 179 193 680 858 613 199 679 604 
10 157 619 208 158 845 681 700 164 844 699 
10 206 207 157 618 213 701 698 671 676 841 
10 157 207 208 619 701 214 700 845 678 681 
10 156 533 155 206 579 580 162 696 852 697 
10 159 208 535 158 702 867 594 165 699 595 
10 620 208 159 209 683 702 866 685 215 693 
10 33 531 159 209 839 566 692 216 838 693 
10 264 2 47 235 283 281 282 784 914 243 
10 154 205 622 204 695 668 870 691 211 663 
10 533 206 205 155 852 212 851 580 697 694 
10 12 268 103 17 305 888 508 144 886 104 
10 174 622 189 188 856 660 605 602 661 195 
10 179 620 192 178 858 680 613 185 859 612 
10 189 533 176 190 864 588 606 196 865 607 
10 177 532 190 176 592 863 609 183 587 607 
10 178 534 191 177 597 861 611 184 593 610 
10 178 191 619 192 611 675 860 612 198 674 
10 190 532 177 191 863 592 609 197 862 610 
10 354 490 367 99 795 822 414 413 506 409 
10 3 2 248 276 37 250 249 815 279 903 
10 189 622 174 175 660 856 605 608 855 181 
10 34 29 539 625 706 567 879 655 895 878 
10 71 275 262 490 318 322 320 502 836 794 
10 23 270 122 20 801 892 915 885 883 124 
10 50 47 236 41 246 239 240 370 906 880 
10 530 20 623 616 545 900 902 916 907 639 
10 20 23 616 615 885 638 907 917 637 633 
10 154 536 205 155 576 871 695 161 575 694 
10 2 264 3 235 283 797 37 914 784 827 
10 529 20 616 615 543 907 918 874 917 633 
10 65 137 265 66 485 736 313 68 488 314 
10 94 357 93 146 405 406 96 527 771 525 
10 1 41 236 228 42 880 237 230 232 882 
10 137 138 151 147 140 554 573 760 747 804 
10 47 3 38 41 919 233 278 906 43 234 
10 538 217 221 624 909 686 912 911 653 647 
10 539 217 625 171 877 657 878 570 920 894 
10 122 270 23 132 892 801 915 893 821 134 
10 235 3 47 50 827 919 243 245 373 246 
10 360 17 268 361 398 886 887 399 395 897 
10 137 65 265 272 485 313 736 737 296 315 
10 357 364 93 146 407 387 406 771 752 525 
10 28 539 217 34 568 877 704 226 879 219 
10 221 625 29 35 658 895 707 223 656 227 
10 263 446 81 82 761 459 324 323 460 86 
10 355 446 110 109 790 469 416 415 470 114 
10 25 274 489 366 814 810 500 830 770 811 
10 511 268 118 360 889 896 516 890 887 908 
10 151 26 537 623 153 555 556 921 922 901 
10 78 512 103 106 515 711 923 522 519 400 
10 7 267 8 247 898 823 54 254 850 256 
10 616 20 529 530 907 543 918 916 545 546 
10 137 146 201 623 751 659 924 837 635 648 
10 29 625 221 171 895 658 707 173 894 708 
10 28 167 217 539 169 705 704 568 569 877 
10 359 247 267 248 876 850 778 925 259 926 
10 21 129 615 22 480 628 873 125 130 627 
10 614 528 21 188 928 550 927 629 929 601 
10 50 3 47 41 373 919 246 370 43 906 
10 3 47 2 235 919 281 37 827 243 914 
10 614 154 26 528 931 160 930 928 557 558 
10 137 147 201 146 760 640 924 751 149 659 
10 276 359 267 248 834 778 289 903 925 926 
10 367 490 489 98 822 504 828 410 507 501 
10 99 490 367 98 506 822 409 101 507 410 
10 70 275 71 490 317 318 73 503 836 502 
10 277 82 83 445 326 87 325 717 462 463 
10 445 111 369 110 471 418 716 472 115 417 
10 151 537 137 623 556 541 573 921 901 837 
10 6 62 122 263 63 476 475 292 293 891 
10 276 267 56 247 289 290 280 932 850 255 
10 276 368 359 248 816 381 834 903 933 925 
10 268 360 511 103 887 890 889 888 397 934 
10 11 274 138 66 301 745 486 69 300 487 
10 274 489 24 25 810 492 872 814 500 142 
10 490 70 275 489 503 317 836 504 494 809 
10 8 355 90 9 831 384 481 55 385 91 
10 90 355 8 132 384 831 481 482 868 133 
10 269 17 12 491 904 144 304 806 495 496 
10 31 538 171 221 913 571 709 222 912 708 
10 217 33 538 167 218 910 909 705 703 565 
10 0 236 38 228 238 881 39 229 882 231 
10 11 274 70 489 301 302 72 493 810 494 
10 361 17 491 99 395 495 829 396 102 499 
10 78 103 511 106 923 934 518 522 400 521 
10 367 489 366 98 828 811 411 410 501 394 
10 32 614 530 616 650 936 935 652 631 916 
10 34 35 29 625 220 227 706 655 656 895 
10 269 12 17 268 304 144 904 307 305 886 
10 23 20 122 615 885 124 915 637 917 937 
10 267 247 276 248 850 932 289 926 259 903 
10 22 614 21 188 630 927 125 194 629 601 
10 204 614 26 32 651 930 690 210 650 224 
10 122 20 529 615 124 543 544 937 917 874 
10 129 7 122 132 478 123 938 626 905 893 
10 209 193 617 531 684 646 654 838 848 840 
10 528 614 154 188 928 931 557 929 629 939 
10 539 29 34 28 567 706 879 568 170 226 
10 12 75 103 268 76 509 508 305 306 888 
10 205 175 536 622 940 583 871 668 855 854 
10 24 274 11 489 872 301 136 492 810 493 
10 50 236 1 41 240 237 51 370 880 42 
10 615 122 23 132 937 915 637 636 893 134 
10 33 624 538 31 645 911 910 643 644 913 
10 190 156 532 618 941 585 863 670 842 843 
10 619 178 158 534 860 596 844 846 597 589 
10 361 447 19 112 807 457 402 401 458 117 
10 269 84 14 447 310 89 309 791 454 455 
10 622 154 174 536 870 577 856 854 576 578 
10 6 263 122 7 292 891 475 53 899 123 
10 7 132 129 8 905 626 478 54 133 131 
10 167 33 538 27 703 910 565 168 225 563 
10 31 30 171 538 187 172 709 913 564 571 
10 167 217 539 171 705 877 569 574 920 570 
10 221 217 538 171 686 909 912 708 920 571 
10 217 167 538 171 705 565 909 920 574 571 
10 625 217 221 171 657 686 658 894 920 708 
10 189 205 533 621 667 851 864 665 666 853 
10 275 70 274 489 317 302 319 809 494 810 
10 201 623 26 151 648 922 689 688 921 153 
10 447 19 118 361 457 120 456 807 402 818 
10 14 118 269 447 119 817 309 455 456 791 
10 38 2 3 47 40 37 233 278 281 919 
10 138 274 11 24 745 301 486 141 872 136 
10 103 512 78 75 711 515 923 509 710 308 
10 59 9 359 248 61 382 383 252 258 925 
10 157 191 619 534 942 675 845 590 861 846 
10 208 620 535 178 683 857 867 943 859 598 
10 191 157 618 532 942 841 669 862 584 843 
10 179 159 620 535 599 866 858 600 594 857 
10 206 190 533 621 672 865 852 673 664 853 
10 33 31 531 617 643 847 839 641 642 840 
10 271 83 84 444 331 88 330 772 465 466 
10 444 112 363 111 473 423 762 474 116 422 
10 355 9 8 359 385 55 831 386 382 825 
10 623 530 26 537 902 559 922 901 547 555 
10 614 21 530 616 927 552 936 631 944 916 
10 528 530 26 614 553 559 558 928 936 930 
10 359 8 247 248 825 256 876 925 257 259 
10 529 616 21 615 918 944 549 874 633 873 
10 235 4 264 44 241 285 784 242 45 945 
10 10 65 137 272 67 485 484 295 296 737 
10 32 530 623 616 935 902 649 652 916 639 
10 269 12 71 491 304 74 303 806 496 497 
10 267 6 7 263 291 53 898 294 292 899 
10 21 528 174 188 550 551 180 601 929 602 
10 26 614 204 154 930 651 690 160 931 691 
10 0 47 38 236 48 278 39 238 239 881 
10 122 7 129 126 123 478 938 540 128 479 
10 75 511 78 103 946 518 308 509 934 923 
10 530 21 529 616 552 549 546 916 944 918 
10 511 103 360 106 934 397 890 521 400 404 
10 132 23 15 362 134 135 483 820 826 389 
10 122 270 10 20 892 298 477 124 883 121 
10 137 201 151 623 924 688 573 837 648 921 
10 25 366 94 147 830 393 524 150 765 526 
10 276 247 56 248 932 255 280 903 259 251 
10 366 489 25 98 811 500 830 394 501 498 
10 19 511 118 360 520 516 120 403 890 908 
10 118 14 268 511 119 312 896 516 517 889 
10 528 21 530 614 550 552 553 928 927 936 
10 10 270 122 62 298 892 477 64 297 476 
10 132 362 15 90 820 389 483 482 390 92 
10 511 75 268 103 946 306 889 934 509 888 
10 264 4 276 44 285 288 284 945 45 833 
10 94 366 25 16 393 830 524 97 392 143 
10 622 154 204 188 870 691 663 661 939 662 
10 201 147 137 151 640 760 924 688 804 573 
10 146 364 93 23 752 387 525 148 802 523 
10 154 614 204 188 931 651 691 939 629 662 
10 174 154 622 188 577 870 856 602 939 661 
10 531 31 27 30 847 947 562 561 187 560 
10 193 620 159 209 679 866 948 684 685 693 
10 159 193 209 531 948 684 693 566 848 838 
10 26 623 201 32 922 648 689 224 649 203 
10 26 614 530 32 930 936 559 224 650 935 
10 366 25 16 98 830 143 392 394 498 100 
10 533 205 189 175 851 667 864 582 940 608 
10 175 155 533 205 581 580 582 940 694 851 
10 622 205 175 189 668 940 855 660 667 608 
10 155 175 536 205 581 583 575 694 940 871 
10 154 174 528 188 577 551 557 939 602 929 
10 207 191 619 157 677 675 678 701 942 845 
10 158 178 619 208 596 860 844 699 943 681 
10 208 178 535 158 943 598 867 699 596 595 
10 190 176 532 156 607 587 863 941 586 585 
10 191 207 618 157 677 676 669 942 701 841 
10 156 176 533 190 586 588 579 941 607 865 
10 156 190 206 618 941 672 696 842 670 671 
10 33 27 531 31 225 562 839 643 947 847 
10 193 531 159 179 848 566 948 604 572 599 
10 533 190 206 156 865 672 852 579 941 696 
10 620 159 179 193 866 599 858 679 948 604 
10 90 362 355 132 390 429 384 482 820 868 
10 62 122 263 270 476 891 293 297 892 337 
10 538 27 31 30 563 947 913 564 560 187 
10 268 78 75 511 311 308 306 889 518 946 
10 191 534 157 177 861 590 942 610 593 591 
10 208 192 620 178 682 680 683 943 612 859 
10 157 532 191 177 584 862 942 591 592 610 
10 192 208 619 178 682 681 674 612 943 860 
10 33 31 538 27 643 913 910 225 947 563 
10 359 9 8 248 382 55 825 925 258 257 
10 137 20 10 272 139 121 484 737 884 295 
10 268 269 14 118 307 309 312 896 817 119 
10 360 118 19 361 908 120 403 399 818 402 
10 21 616 614 22 944 631 927 125 632 630 
10 4 267 276 44 287 289 288 45 832 833 
10 359 44 5 368 835 46 378 381 849 380 
10 15 93 364 23 95 387 388 135 523 802 
10 359 5 44 448 378 46 835 779 452 449 
10 44 4 267 448 45 287 832 449 450 780 
10 615 616 21 22 633 944 873 627 632 125 
10 270 10 20 272 298 121 883 299 295 884 
10 23 364 15 362 802 388 135 826 391 389 
10 81 267 4 448 286 287 85 451 780 450 
10 5 359 109 448 378 379 113 452 779 453 
10 267 7 6 247 898 53 291 850 254 253 
10 26 530 623 32 559 902 922 224 935 649 
10 615 529 122 129 874 544 937 628 875 938 
10 615 129 122 132 628 938 937 636 626 893 
10 359 368 59 248 381 371 383 925 933 252 
10 122 529 126 129 544 548 540 938 875 479 
10 248 368 3 276 933 372 249 903 816 815 
10 248 3 368 59 249 372 933 252 60 371 
10 368 5 235 44 380 244 869 849 46 242 
10 368 235 5 356 869 244 380 376 783 377 
10 264 368 44 276 799 849 945 284 816 833 
10 368 264 44 235 799 945 849 869 784 242 

CELL_TYPES 415
24
24
24
24
24
24
24
24
24
24
24
24
24
24
24
24
24
24
24
24
24
24
24
24
24
24
24
24
24
24
24
24
24
24
24
24
24
24
24
24
24
24
24
24
24
24
24
24
24
24
24
24
24
24
24
24
24
24
24
24
24
24
24
24
24
24
24
24
24
24
24
24
24
24
24
24
24
24
24
24
24
24
24
24
24
24
24
24
24
24
24
24
24
24
24
24
24
24
24
24
24
24
24
24
24
24
24
24
24
24
24
24
24
24
24
24
24
24
24
24
24
24
24
24
24
24
24
24
24
24
24
24
24
24
24
24
24
24
24
24
24
24
24
24
24
24
24
24
24
24
24
24
24
24
24
24
24
24
24
24
24
24
24
24
24
24
24
24
24
24
24
24
24
24
24
24
24
24
24
24
24
24
24
24
24
24
24
24
24
24
24
24
24
24
24
24
24
24
24
24
24
24
24
24
24
24
24
24
24
24
24
24
24
24
24
24
24
24
24
24
24
24
24
24
24
24
24
24
24
24
24
24
24
24
24
24
24
24
24
24
24
24
24
24
24
24
24
24
24
24
24
24
24
24
24
24
24
24
24
24
24
24
24
24
24
24
24
24
24
24
24
24
24
24
24
24
24
24
24
24
24
24
24
24
24
24
24
24
24
24
24
24
24
24
24
24
24
24
24
24
24
24
24
24
24
24
24
24
24
24
24
24
24
24
24
24
24
24
24
24
24
24
24
24
24
24
24
24
24
24
24
24
24
24
24
24
24
24
24
24
24
24
24
24
24
24
24
24
24
24
24
24
24
24
24
24
24
24
24
24
24
24
24
24
24
24
24
24
24
24
24
24
24
24
24
24
24
24
24
24
24
24
24
24
24
24
24
24
24
24
24
24
24
24
24
24
24
24
24
24
24
24
24
24
24
24
24
24
24
24
24
24
24
24
24

POINT_DATA 949
FIELD FieldData 24
Displacement 3 949 double
0 0 0 0 0 0 -5.48976e-06 -1.02445e-06 -6.17456e-07 
-5.57959e-06 -1.05229e-06 6.42077e-07 0 0 0 0 0 0 
-1.04656e-05 -1.78576e-05 -1.01106e-06 -1.0385e-05 -1.7866e-05 -6.85298e-07 -1.07381e-05 -1.79496e-05 7.64763e-07 
-1.07368e-05 -1.79347e-05 1.07929e-06 4.03134e-06 -3.49307e-05 -2.20558e-07 3.36478e-05 -2.69386e-05 2.7293e-07 
3.45461e-05 8.47968e-06 -5.05642e-07 -1.29425e-05 6.41469e-05 4.06914e-07 0 0 0 
3.96897e-06 -3.44119e-05 2.6581e-07 3.39537e-05 -2.68417e-05 -1.65767e-06 3.46153e-05 8.72395e-06 3.26491e-07 
-1.27978e-05 6.41809e-05 3.86491e-07 0 0 0 2.92787e-06 -3.42919e-05 -3.69184e-07 
-0.00024627 -0.000241435 -5.81604e-05 -0.000250386 -0.000231692 5.92236e-05 2.99271e-06 -3.40123e-05 3.65214e-07 
3.36097e-05 -2.69516e-05 3.14603e-08 3.37808e-05 -2.68561e-05 -1.427e-06 0.000238281 -0.0002413 5.06154e-05 
0.000200964 -0.0145368 -0.000104188 -5.00531e-05 -0.018777 -0.000131064 -0.00198973 -0.0186587 -0.000129056 
-0.00172591 -0.0144202 -0.000103066 -0.00172179 -0.0144201 -0.000102208 0.000245201 -0.000238324 -5.25868e-05 
0.00020538 -0.0145367 -0.000105015 -4.59808e-05 -0.0187768 -0.000130999 -0.00198569 -0.0186585 -0.00012906 
0 0 0 -5.51417e-06 -1.17857e-06 2.71853e-08 -2.31847e-06 3.48555e-08 -4.8598e-07 
-9.8339e-07 1.09395e-07 -2.99051e-07 -3.76676e-06 -2.49974e-07 -5.78149e-07 -2.33234e-06 4.13642e-08 4.58074e-07 
-9.8866e-07 1.12189e-07 2.94067e-07 -3.81631e-06 -2.88415e-07 5.61117e-07 0 0 0 
0 0 0 0 0 0 0 0 0 
0 0 0 0 0 0 0 0 0 
0 0 0 0 0 0 -1.04071e-05 -1.78519e-05 -8.5578e-07 
-1.06161e-05 -1.8002e-05 3.44778e-08 -1.07148e-05 -1.79295e-05 9.25099e-07 -1.03226e-05 -8.45173e-06 -5.6889e-07 
-8.45519e-06 -3.91599e-06 -5.65823e-07 -1.06099e-05 -1.35297e-05 -5.61188e-07 -1.02668e-05 -8.37854e-06 7.19669e-07 
-8.454e-06 -3.84514e-06 6.94351e-07 -1.07133e-05 -1.34751e-05 6.72956e-07 -1.0241e-05 -2.83292e-05 -1.08851e-06 
-1.15809e-05 -2.29266e-05 -1.50708e-06 -5.73439e-06 -3.19452e-05 -6.33481e-07 2.37849e-05 -3.67384e-05 1.45962e-07 
3.27423e-05 -3.3374e-05 6.99439e-07 1.40259e-05 -3.64426e-05 -2.65777e-07 2.97619e-05 -3.57562e-05 3.81857e-07 
3.33553e-05 -3.01774e-05 6.44145e-07 3.49221e-05 -1.98131e-05 -3.58875e-07 3.65487e-05 -8.80929e-06 -5.43781e-07 
3.41605e-05 -2.35875e-05 -1.77739e-07 3.58564e-05 -1.48302e-05 -4.78862e-07 3.64737e-05 -1.01964e-06 -6.07963e-07 
1.88191e-05 3.62953e-05 1.21129e-07 2.83736e-05 2.26956e-05 -9.91783e-08 3.95758e-06 5.14994e-05 2.8722e-07 
-6.40125e-06 3.74996e-05 2.36616e-07 -9.66651e-06 5.08743e-05 3.3099e-07 -2.33524e-06 1.97427e-05 -7.77785e-08 
-3.25886e-06 -8.22519e-06 -6.37441e-07 1.23485e-06 -8.85671e-06 -1.13152e-08 9.97082e-06 -8.2689e-06 -4.23726e-07 
1.13592e-05 -6.40989e-06 1.2502e-06 -2.18952e-06 -5.9017e-06 -1.26428e-06 -1.95064e-06 -8.79952e-06 -1.14577e-07 
5.86327e-06 -8.52607e-06 -3.5049e-07 1.17594e-05 -7.64038e-06 1.56463e-07 7.43637e-06 -4.24805e-06 2.3728e-06 
-1.06935e-05 -2.82027e-05 1.48761e-06 -1.16402e-05 -2.29689e-05 1.5582e-06 -5.60211e-06 -3.16831e-05 9.92381e-07 
2.35696e-05 -3.61898e-05 -1.1958e-06 3.32859e-05 -3.29864e-05 -2.14009e-06 1.41834e-05 -3.59623e-05 -3.48527e-07 
2.99637e-05 -3.52424e-05 -1.77184e-06 3.39327e-05 -2.99911e-05 -2.1304e-06 3.51599e-05 -1.96324e-05 -6.98116e-07 
3.67464e-05 -8.67689e-06 -4.13059e-08 3.43993e-05 -2.33509e-05 -1.01824e-06 3.60802e-05 -1.46638e-05 -3.45045e-07 
3.66443e-05 -8.89467e-07 2.40074e-07 1.90186e-05 3.63874e-05 2.35278e-07 2.85885e-05 2.25551e-05 3.21812e-07 
4.12328e-06 5.15732e-05 3.0303e-07 -6.24023e-06 3.75531e-05 2.01688e-07 -9.50626e-06 5.09357e-05 3.04729e-07 
-2.20119e-06 1.98172e-05 3.28371e-07 -3.30792e-06 -8.09789e-06 5.27516e-07 1.26588e-06 -8.74258e-06 -8.68513e-08 
1.01025e-05 -8.11481e-06 3.17377e-07 1.15206e-05 -6.25272e-06 -1.32472e-06 -2.22797e-06 -5.79778e-06 1.19091e-06 
-1.96507e-06 -8.70175e-06 1.68924e-08 5.94141e-06 -8.39709e-06 2.51917e-07 1.19266e-05 -7.47635e-06 -2.52921e-07 
7.52406e-06 -4.18405e-06 -2.45759e-06 0 0 0 0 0 0 
0 0 0 3.6287e-06 -3.47272e-05 -2.72536e-07 -1.12372e-05 -2.88249e-05 -7.53172e-07 
-1.21062e-05 -2.32643e-05 -1.16733e-06 -7.48182e-06 -3.21341e-05 -6.04295e-07 -0.000248536 -0.000242994 1.12582e-06 
-1.85589e-05 -3.81503e-05 -3.64721e-07 -6.52286e-05 -8.21241e-05 -2.01823e-05 -1.3249e-05 -2.49329e-05 -1.43465e-06 
-2.02522e-05 -3.79837e-05 5.68993e-07 -5.64129e-05 -7.97864e-05 2.1718e-05 -1.35986e-05 -2.52797e-05 1.24796e-06 
-1.18539e-05 -2.8728e-05 1.14593e-06 -1.21219e-05 -2.32752e-05 1.19474e-06 -7.18239e-06 -3.18974e-05 9.81045e-07 
3.6379e-06 -3.43251e-05 3.00904e-07 3.35952e-05 -2.69274e-05 1.6891e-07 2.52943e-05 -3.6725e-05 9.99762e-08 
3.38982e-05 -3.38936e-05 3.60179e-07 1.47501e-05 -3.59095e-05 -1.72562e-07 3.14627e-05 -3.61393e-05 2.92335e-07 
3.38782e-05 -3.04535e-05 3.50227e-07 3.37596e-05 -2.70714e-05 -6.70274e-07 3.38357e-05 -2.68287e-05 -1.54596e-06 
3.44947e-05 8.82828e-06 -7.62076e-08 -1.28726e-05 6.41752e-05 4.01339e-07 2.5053e-05 -3.6311e-05 -1.20586e-06 
3.4561e-05 -3.35467e-05 -1.85643e-06 1.47652e-05 -3.56378e-05 -3.70874e-07 3.16346e-05 -3.56298e-05 -1.68788e-06 
3.44238e-05 -3.03461e-05 -1.82139e-06 4.11426e-05 -4.41735e-05 3.17647e-07 3.54257e-05 -3.34653e-05 4.57408e-07 
8.72192e-05 -8.96282e-05 2.27482e-05 0.000605728 -0.00126763 -5.20135e-06 0.000625586 -0.00307576 -2.29822e-05 
0.000593565 -0.00511668 -3.88643e-05 0.000532183 -0.00731665 -5.5592e-05 0.000444335 -0.00964208 -7.19977e-05 
0.000332525 -0.0120598 -8.80413e-05 0.000524828 -0.000661008 2.19589e-05 0.00062547 -0.00214168 -1.39659e-05 
0.000613651 -0.00407422 -3.09411e-05 0.000566357 -0.00619886 -4.71615e-05 0.000491318 -0.00846585 -6.39982e-05 
0.000391217 -0.0108414 -7.97793e-05 0.000269182 -0.0132929 -9.61373e-05 7.80885e-05 -0.016655 -0.000117755 
0.0001407 -0.0155948 -0.000111024 1.43631e-05 -0.017716 -0.000124416 -0.00101988 -0.0187177 -0.000130079 
-0.00185972 -0.0165369 -0.00011605 -0.00179363 -0.0154771 -0.000109597 -0.00192503 -0.0175977 -0.000122516 
-0.000695619 -0.0012148 -1.44474e-05 -0.000874195 -0.00300526 -2.73173e-05 -0.00104356 -0.00503275 -4.20813e-05 
-0.00121569 -0.00722093 -5.75558e-05 -0.00138877 -0.00953678 -7.27021e-05 -0.0015602 -0.0119474 -8.75274e-05 
-0.000558092 -0.00062779 -3.43561e-05 -0.000789482 -0.002079 -2.1511e-05 -0.000958722 -0.00399666 -3.45736e-05 
-0.00112935 -0.00610872 -4.98512e-05 -0.00130229 -0.00836482 -6.53166e-05 -0.00147482 -0.0107322 -8.01713e-05 
-0.00164401 -0.0131781 -9.52601e-05 -0.00172387 -0.0144202 -0.000102638 -0.000692262 -0.00121368 -3.47598e-06 
-0.00087089 -0.00300505 -2.13603e-05 -0.00103942 -0.00503253 -3.73075e-05 -0.00121144 -0.00722069 -5.37732e-05 
-0.00138482 -0.00953643 -6.99047e-05 -0.00155591 -0.0119472 -8.5746e-05 -0.000557608 -0.00062398 2.83207e-05 
-0.000785186 -0.00207855 -1.22021e-05 -0.000954585 -0.00399658 -2.9276e-05 -0.00112508 -0.00610869 -4.55537e-05 
-0.00129823 -0.00836477 -6.2017e-05 -0.00147094 -0.010732 -7.78655e-05 -0.00163971 -0.0131778 -9.39421e-05 
4.26504e-05 -4.34529e-05 -2.11702e-06 3.61212e-05 -3.30383e-05 -2.1796e-06 8.06635e-05 -8.73508e-05 -2.25742e-05 
0.00060932 -0.00126941 -1.54387e-05 0.00062935 -0.00307565 -2.89134e-05 0.000597863 -0.00511662 -4.36046e-05 
0.000536411 -0.00731651 -5.93852e-05 0.000448112 -0.00964184 -7.47759e-05 0.000336795 -0.0120595 -8.98674e-05 
0.000529213 -0.000656082 -3.5456e-05 0.000629057 -0.00214145 -2.31369e-05 0.000617516 -0.00407398 -3.62382e-05 
0.000570671 -0.00619889 -5.14205e-05 0.000495537 -0.0084655 -6.72942e-05 0.000395226 -0.0108413 -8.20914e-05 
0.000273201 -0.0132926 -9.74756e-05 8.21238e-05 -0.0166549 -0.000117908 0.000144671 -0.0155946 -0.000111446 
1.83451e-05 -0.0177158 -0.000124432 -0.0010158 -0.0187176 -0.000130051 -0.00185584 -0.0165368 -0.000115856 
-0.00178946 -0.015477 -0.000109107 -0.00192102 -0.0175975 -0.00012245 0.000241366 -0.000244251 -7.57584e-07 
0.00020318 -0.0145368 -0.000104601 -4.80082e-05 -0.0187769 -0.00013103 -0.00198771 -0.0186586 -0.000129057 
-9.48801e-07 5.67673e-09 -1.09174e-09 -4.05037e-07 1.96216e-08 -5.276e-08 -4.06481e-07 2.08517e-08 5.16257e-08 
-1.58195e-06 -3.14893e-09 -1.87346e-07 -1.58989e-06 1.69702e-09 1.80072e-07 -3.77271e-06 -4.04542e-07 -1.06958e-08 
-2.29779e-06 -8.65404e-08 3.50512e-09 0 0 0 0 0 0 
0 0 0 0 0 0 0 0 0 
0 0 0 0 0 0 0 0 0 
0 0 0 0 0 0 0 0 0 
0 0 0 -1.05899e-05 -1.39601e-05 -8.64944e-08 -1.05072e-05 -1.00109e-05 3.07598e-07 
-8.75887e-06 -4.42263e-06 5.0527e-07 -8.74655e-06 -4.52643e-06 -1.28619e-07 -1.04072e-05 -9.24728e-06 -1.35597e-07 
-1.04042e-05 -9.19469e-06 5.18074e-07 -1.04905e-05 -1.59514e-05 -4.75997e-07 -1.04678e-05 -1.59495e-05 -3.58008e-07 
-1.0585e-05 -1.13107e-05 -3.10923e-07 -1.05971e-05 -1.59975e-05 2.34508e-07 -1.06525e-05 -1.4129e-05 3.95483e-07 
-1.06793e-05 -1.41216e-05 4.97658e-07 -1.06043e-05 -1.20153e-05 1.26862e-07 2.2152e-05 -1.65662e-05 1.59153e-07 
9.64558e-06 -1.88039e-05 -2.34551e-07 2.29253e-05 -1.03492e-05 4.42779e-07 -5.33087e-06 -1.56176e-05 -7.9125e-07 
-2.9327e-06 -8.94163e-07 -2.00055e-07 2.14062e-05 -2.3121e-05 2.44006e-07 1.443e-05 -1.43087e-05 -5.03722e-08 
-6.18159e-06 -9.7703e-06 -7.82245e-07 1.77233e-05 1.5594e-05 1.66565e-07 2.14798e-05 -8.16773e-07 4.9659e-07 
2.73398e-07 -2.26105e-05 -8.01503e-07 1.57204e-05 -1.08176e-05 2.20144e-07 1.19293e-05 -2.59299e-05 -1.68459e-07 
2.20722e-06 -1.52203e-05 -4.33724e-07 2.92858e-05 -2.26617e-05 1.63969e-07 2.82116e-05 -1.64908e-05 2.54041e-08 
-6.00659e-06 -4.45429e-06 -3.32788e-07 7.78928e-06 -1.23777e-05 -2.8553e-07 -1.35984e-06 5.68645e-08 -2.95147e-07 
-5.77043e-06 -2.26833e-06 -4.42354e-07 -8.22597e-06 -6.58663e-06 -4.66163e-07 -2.57036e-06 -1.56083e-07 -3.88931e-07 
-1.15731e-06 -7.88149e-08 -1.66899e-07 -4.39039e-06 -1.05984e-06 -4.12402e-07 -4.33903e-06 -2.22318e-06 -2.41667e-07 
-1.81649e-06 -7.71942e-07 1.76927e-09 -3.90438e-06 -8.65463e-06 -9.48163e-07 -3.82257e-06 -6.84628e-06 -7.5491e-07 
-4.05259e-06 -3.01174e-06 -1.50751e-07 -6.08214e-06 -7.09171e-06 -5.43603e-07 -8.18019e-06 -9.18615e-06 -5.66653e-07 
-8.71763e-06 -1.41815e-05 -8.40236e-07 -9.24987e-06 -1.72174e-05 -1.0362e-06 -7.89421e-06 -2.137e-05 -1.22529e-06 
-5.90984e-06 -1.25304e-05 -8.1018e-07 8.51198e-06 -2.95969e-05 -3.22383e-07 1.75871e-05 -3.07223e-05 2.36759e-07 
-6.01723e-06 -2.54664e-05 -1.19301e-06 1.41253e-06 -2.80247e-05 -9.38941e-07 5.61134e-06 -2.40742e-05 -5.21471e-07 
3.1004e-05 -2.73963e-05 5.70685e-07 3.1969e-05 -2.50796e-05 2.21523e-07 3.19275e-05 -2.14615e-05 -7.585e-08 
3.00373e-05 -5.06369e-06 -8.04058e-08 2.79223e-05 3.77102e-06 -2.47192e-08 2.66764e-05 1.18645e-05 -1.15026e-07 
1.81664e-05 2.58296e-05 7.74722e-08 1.9795e-05 6.65091e-06 3.03194e-07 6.15372e-06 3.69322e-05 2.0332e-07 
1.29886e-05 -1.49799e-06 1.08033e-06 1.27955e-05 -5.30793e-06 1.50966e-06 5.23068e-06 2.67575e-05 5.27777e-08 
1.03393e-05 8.81047e-06 2.00493e-07 2.29428e-05 -2.90657e-05 4.62537e-07 2.80521e-05 -2.82936e-05 7.13515e-07 
1.73114e-05 -2.43141e-05 5.12671e-08 2.60119e-05 -2.29415e-05 2.05804e-07 3.19429e-05 -1.83164e-05 -1.69361e-07 
3.1725e-05 -1.32298e-05 -2.02634e-07 2.85381e-05 -1.95066e-05 7.58977e-08 3.00322e-05 -9.8035e-06 -6.08107e-08 
2.19498e-05 -6.28607e-06 5.83273e-07 2.5661e-05 -1.33897e-05 2.12483e-07 -2.0394e-06 -1.2129e-05 -3.82687e-07 
-4.09868e-06 -1.13008e-05 -6.12969e-07 8.95967e-06 -1.01148e-05 -3.48842e-07 4.50604e-06 -1.06503e-05 -2.77896e-07 
1.81655e-06 -1.20865e-05 -2.37542e-07 -2.1312e-06 -1.53317e-05 -5.95938e-07 5.02616e-06 -1.3779e-05 -3.41508e-07 
1.34046e-05 -8.43702e-06 7.24737e-07 1.28129e-05 -9.30316e-06 -1.66878e-09 1.17808e-05 -1.09708e-05 -1.68554e-07 
1.536e-05 -1.23892e-05 6.5862e-08 1.11942e-05 -1.32455e-05 -1.79922e-07 1.53516e-05 -8.3803e-06 9.68965e-07 
1.84715e-05 -1.08011e-05 4.09412e-07 -3.30679e-06 -1.89129e-05 -8.12192e-07 2.21906e-05 -1.35061e-05 2.86649e-07 
1.88252e-05 -1.36145e-05 1.96056e-07 2.51268e-05 -1.66767e-05 1.1922e-07 2.19439e-05 -1.961e-05 1.67848e-07 
1.76231e-05 -1.85122e-05 6.33207e-08 1.83107e-05 -1.5329e-05 7.60824e-08 2.5901e-05 -1.96461e-05 1.52683e-07 
1.55193e-05 -2.07741e-05 7.51376e-09 1.24019e-05 -1.6418e-05 -1.43772e-07 1.0679e-05 -2.21408e-05 -2.1972e-07 
8.63394e-06 -1.54976e-05 -2.61134e-07 5.18891e-06 -2.05174e-05 -4.98637e-07 1.4096e-06 -1.86848e-05 -5.86985e-07 
5.67519e-06 -1.69233e-05 -3.51926e-07 2.24275e-05 -1.63388e-05 -7.6985e-07 9.7249e-06 -1.85688e-05 -7.56021e-08 
2.31134e-05 -1.01346e-05 -8.28675e-07 -5.33835e-06 -1.5587e-05 6.97044e-07 -2.90447e-06 -8.73133e-07 2.5127e-07 
2.17472e-05 -2.28359e-05 -9.18667e-07 1.45971e-05 -1.41391e-05 -3.23278e-07 -6.01754e-06 -9.88572e-06 7.9581e-07 
1.78946e-05 1.55757e-05 -5.57091e-08 2.1803e-05 -7.85519e-07 -6.26064e-07 2.42381e-07 -2.24663e-05 6.56417e-07 
1.59939e-05 -1.06521e-05 -5.80061e-07 1.2002e-05 -2.55984e-05 -2.82247e-07 2.23011e-06 -1.50747e-05 3.03386e-07 
2.95612e-05 -2.24869e-05 -1.1469e-06 2.84455e-05 -1.63078e-05 -7.54322e-07 -6.07823e-06 -4.50803e-06 4.38291e-07 
7.87005e-06 -1.22313e-05 9.69387e-08 -1.35203e-06 4.26208e-08 2.95522e-07 -8.22297e-06 -6.54118e-06 6.10991e-07 
-5.77228e-06 -2.2366e-06 5.12963e-07 -2.58124e-06 -1.91746e-07 3.95369e-07 -4.41515e-06 -1.06736e-06 4.54392e-07 
-1.15185e-06 -7.65365e-08 1.74145e-07 -4.29515e-06 -2.17358e-06 3.18686e-07 -1.88409e-06 -7.5289e-07 6.42573e-08 
-3.69395e-06 -6.70336e-06 7.48467e-07 -3.93798e-06 -8.58218e-06 8.89025e-07 -3.89718e-06 -2.69709e-06 1.14144e-07 
-6.16743e-06 -6.84991e-06 5.78755e-07 -8.68665e-06 -1.41097e-05 8.96399e-07 -8.22302e-06 -9.10191e-06 6.50788e-07 
-8.09166e-06 -2.13922e-05 1.2752e-06 -9.12299e-06 -1.71262e-05 1.02855e-06 -6.1498e-06 -1.24454e-05 7.84418e-07 
1.76514e-05 -3.01998e-05 -9.49087e-07 8.37572e-06 -2.93144e-05 1.04865e-07 1.48574e-06 -2.77643e-05 8.36951e-07 
-6.01992e-06 -2.53121e-05 1.34969e-06 5.67672e-06 -2.38597e-05 2.51702e-07 3.22264e-05 -2.48857e-05 -1.41646e-06 
3.15239e-05 -2.72368e-05 -1.83113e-06 3.21812e-05 -2.12665e-05 -9.25665e-07 2.81495e-05 3.96789e-06 -1.43015e-07 
3.02384e-05 -4.98337e-06 -2.85402e-07 1.83046e-05 2.58335e-05 1.65089e-07 2.69206e-05 1.19345e-05 8.90833e-08 
1.99911e-05 7.0507e-06 -2.94544e-07 6.2966e-06 3.69989e-05 1.90122e-07 1.29586e-05 -5.25337e-06 -1.68103e-06 
1.31263e-05 -1.43258e-06 -1.12953e-06 1.04996e-05 8.90084e-06 -1.2695e-07 5.3631e-06 2.67934e-05 2.39042e-07 
2.8304e-05 -2.78694e-05 -1.86383e-06 2.30082e-05 -2.85823e-05 -1.43757e-06 1.74296e-05 -2.40018e-05 -6.67653e-07 
2.63501e-05 -2.26659e-05 -1.10854e-06 3.19498e-05 -1.30613e-05 -4.46211e-07 3.21837e-05 -1.81379e-05 -7.13174e-07 
2.88006e-05 -1.93353e-05 -9.26062e-07 2.21231e-05 -6.38562e-06 -8.59364e-07 3.02159e-05 -9.63834e-06 -4.17951e-07 
2.58834e-05 -1.32064e-05 -7.70472e-07 -4.12821e-06 -1.12122e-05 5.32674e-07 -2.04934e-06 -1.20525e-05 3.02381e-07 
4.57299e-06 -1.05287e-05 1.53156e-07 9.06512e-06 -9.96922e-06 1.92742e-07 -2.17514e-06 -1.52363e-05 5.18247e-07 
1.84853e-06 -1.1968e-05 1.26435e-07 5.12236e-06 -1.36096e-05 1.80985e-07 1.2987e-05 -9.13502e-06 -1.97752e-07 
1.36108e-05 -8.27557e-06 -9.35458e-07 1.56062e-05 -1.21933e-05 -4.25386e-07 1.19216e-05 -1.08149e-05 -6.11994e-08 
1.13183e-05 -1.30898e-05 -9.9282e-08 1.54991e-05 -8.22411e-06 -1.23573e-06 1.86251e-05 -1.06736e-05 -7.82291e-07 
-3.37376e-06 -1.87876e-05 7.28026e-07 1.9127e-05 -1.34216e-05 -6.71327e-07 2.22884e-05 -1.33787e-05 -7.84601e-07 
2.52986e-05 -1.65045e-05 -7.84425e-07 1.86268e-05 -1.51176e-05 -5.70618e-07 1.78138e-05 -1.82463e-05 -5.94e-07 
2.22999e-05 -1.93631e-05 -8.52976e-07 2.61106e-05 -1.94259e-05 -9.47392e-07 1.25425e-05 -1.62107e-05 -2.26237e-07 
1.56727e-05 -2.04895e-05 -4.93488e-07 1.07729e-05 -2.18705e-05 -1.59202e-07 8.70334e-06 -1.53015e-05 1.41148e-09 
5.19935e-06 -2.03096e-05 2.57371e-07 5.71944e-06 -1.67394e-05 1.47321e-07 1.42283e-06 -1.85285e-05 4.67128e-07 
1.17681e-05 -7.89458e-06 -6.4896e-08 5.99609e-06 -8.69663e-06 -5.61159e-08 -1.34383e-06 -8.92213e-06 -4.66525e-08 
9.12645e-06 -5.02232e-06 -2.48236e-09 -2.64984e-06 -6.82831e-06 -4.49719e-08 -1.38304e-06 -4.0652e-06 -3.96344e-08 
-1.64056e-06 -4.13375e-06 -4.38763e-07 -3.08128e-06 -7.76149e-06 -4.45408e-07 -1.65737e-06 -4.02425e-06 3.71779e-07 
-3.10783e-06 -7.67976e-06 3.37788e-07 1.06398e-05 -5.78948e-06 7.27439e-07 5.59774e-06 -2.05776e-06 7.27854e-07 
4.88643e-06 -2.72353e-06 -2.05879e-08 5.58654e-06 -2.05281e-06 -7.42886e-07 1.06993e-05 -5.72026e-06 -7.81465e-07 
-2.65029e-06 -8.78006e-06 -2.22289e-07 -1.21902e-07 -8.95102e-06 -5.09492e-08 -2.93233e-06 -8.24915e-06 -4.75231e-08 
3.61066e-06 -8.73021e-06 -1.10018e-07 7.97018e-06 -8.49588e-06 -2.02659e-07 1.92421e-06 -8.97204e-06 -4.49341e-08 
1.09995e-05 -8.2025e-06 -1.70654e-07 1.22295e-05 -7.3542e-06 3.05402e-07 9.48328e-06 -8.39834e-06 -6.55395e-08 
1.18128e-05 -6.70062e-06 -4.65523e-08 -1.14561e-07 -8.88385e-06 -4.0566e-08 -2.65245e-06 -8.71858e-06 1.18585e-07 
8.00951e-06 -8.41546e-06 9.49802e-08 3.64485e-06 -8.65588e-06 1.36194e-08 1.22946e-05 -7.28043e-06 -4.0247e-07 
1.10709e-05 -8.119e-06 5.5538e-08 -1.1742e-05 -2.30422e-05 -1.33852e-06 -1.05808e-05 -2.85075e-05 -9.23217e-07 
-6.25701e-06 -3.20614e-05 -5.68372e-07 -1.357e-05 -2.52424e-05 -1.22203e-07 -1.83984e-05 -3.83799e-05 4.49085e-07 
-5.81218e-05 -8.19807e-05 -4.62425e-06 -1.17e-05 -2.30426e-05 1.38024e-06 -1.10816e-05 -2.8397e-05 1.31977e-06 
-6.06021e-06 -3.18256e-05 9.36182e-07 1.43193e-05 -3.63576e-05 -2.3802e-07 2.43021e-05 -3.67586e-05 1.15567e-07 
3.35083e-05 -3.02622e-05 5.02947e-07 3.31261e-05 -3.3565e-05 5.34772e-07 3.0266e-05 -3.58477e-05 3.00511e-07 
3.44005e-05 -2.21887e-05 -5.62184e-07 3.58231e-05 -1.49784e-05 -4.26197e-07 3.66798e-05 -3.06173e-06 -2.20828e-07 
3.39043e-05 -2.46222e-05 -3.69055e-07 3.38663e-05 -2.46124e-05 -2.7738e-07 3.46476e-05 -2.09834e-05 -4.23751e-07 
3.60874e-05 2.53391e-06 6.06248e-08 3.59918e-05 2.4757e-06 -3.56993e-07 3.66702e-05 -6.00297e-06 -3.98559e-07 
3.43605e-05 -2.3344e-05 -9.59466e-07 3.67785e-05 -5.95324e-06 -1.14006e-07 3.39683e-05 -2.45359e-05 -8.63264e-07 
3.47587e-05 -2.0872e-05 -6.69683e-07 3.62299e-05 -1.19934e-05 -4.47809e-07 3.5357e-05 -1.74546e-05 -4.43993e-07 
3.51214e-05 -1.87556e-05 -5.00472e-07 3.65228e-05 -9.64906e-06 -3.18625e-07 3.63395e-05 -1.19112e-05 -2.67351e-07 
3.54649e-05 -1.73674e-05 -5.06765e-07 2.84628e-05 2.27589e-05 8.44901e-08 1.89131e-05 3.63693e-05 1.59833e-07 
4.03253e-06 5.15597e-05 2.91617e-07 -2.07899e-06 1.98501e-05 1.25216e-07 -9.59273e-06 5.09147e-05 3.21883e-07 
-1.1269e-05 5.75424e-05 3.69186e-07 -1.11958e-05 5.75668e-05 3.52605e-07 -7.99316e-06 4.42236e-05 2.82326e-07 
-8.31662e-07 1.03293e-05 6.5673e-08 -6.68641e-07 1.02953e-05 8.4231e-09 -4.19726e-06 2.86991e-05 1.25459e-07 
-7.91567e-06 4.42647e-05 2.67801e-07 -6.20624e-07 1.0331e-05 1.29541e-07 -4.08368e-06 2.87172e-05 2.23909e-07 
-6.30885e-06 3.75804e-05 2.42788e-07 1.42686e-05 -3.59371e-05 -3.24293e-07 3.39825e-05 -3.00906e-05 -1.98282e-06 
2.40866e-05 -3.62915e-05 -1.18758e-06 3.3709e-05 -3.32032e-05 -2.00157e-06 3.0438e-05 -3.53604e-05 -1.69342e-06 
-3.03618e-05 -0.000498037 -6.28821e-06 -2.29282e-05 -4.54292e-05 -5.72521e-06 4.55274e-07 -8.25642e-05 -5.18554e-06 
-0.000687294 -0.0132345 -9.56994e-05 -0.000281071 -0.00615064 -4.85281e-05 -0.000172114 -0.00403145 -3.27828e-05 
-0.000405161 -0.00841288 -6.46005e-05 -0.000541654 -0.0107851 -8.00086e-05 -8.143e-05 -0.0021035 -1.80016e-05 
3.81453e-05 -5.48241e-05 3.73259e-06 -0.000826414 -0.0155355 -0.00011027 -0.000955348 -0.0176567 -0.000123479 
-1.4754e-05 -3.32656e-05 -7.14189e-07 3.07359e-05 -4.443e-05 1.44203e-06 1.67977e-05 -4.21161e-05 5.82666e-07 
-9.46691e-06 -3.90283e-05 -2.34792e-06 -1.59004e-05 -3.72642e-05 -1.87628e-06 1.60698e-06 -4.84972e-05 -1.64978e-06 
-1.96983e-05 -5.95058e-05 -5.67354e-06 2.58166e-05 -6.55898e-05 8.0763e-07 -2.06455e-05 -4.10761e-05 -2.58861e-06 
-8.40698e-05 -9.9567e-05 -3.06407e-05 -0.000210939 -0.000310176 -3.37112e-05 -0.000347525 -0.000845022 -1.05174e-05 
-9.11985e-05 -0.000135063 -3.2293e-05 -1.93269e-05 -0.000214401 -7.31594e-06 3.73741e-05 -3.87586e-05 4.44818e-07 
9.38906e-05 -0.000103639 2.39166e-05 4.29603e-05 -4.88389e-05 2.78976e-06 0.000271581 -0.000869056 -4.14219e-06 
0.000186979 -0.000314591 2.1201e-05 8.19474e-05 -0.000124015 2.2017e-05 -0.000762228 -0.0144778 -0.00010362 
-0.00120474 -0.0138262 -9.94298e-05 -0.000244675 -0.0138841 -9.9918e-05 -0.000311683 -0.0150357 -0.000107281 
-0.00127703 -0.0149771 -0.00010662 -0.000374642 -0.0160949 -0.000113999 -0.000174586 -0.0126455 -9.18694e-05 
-0.00147248 -0.0181577 -0.00012627 -0.000502761 -0.0182169 -0.000127264 -0.000438405 -0.0171558 -0.000120648 
-0.00140774 -0.0170967 -0.000119745 -0.00134256 -0.016036 -0.000113183 -0.00112601 -0.0125887 -9.15938e-05 
3.50664e-05 -4.06251e-05 4.09565e-07 -0.000890857 -0.0165957 -0.000116905 0.000262884 -0.00258088 -2.03352e-05 
0.000277025 -0.00167564 -1.19937e-05 -4.45152e-05 -0.00123432 -1.03293e-05 -0.000401525 -0.00164681 -1.61629e-05 
0.000203348 -0.00456706 -3.57614e-05 0.000236417 -0.00354758 -2.79224e-05 -0.000124163 -0.00303598 -2.51254e-05 
-0.000531684 -0.00351055 -2.99085e-05 -0.000466966 -0.00254759 -2.27208e-05 0.000119593 -0.00672796 -5.20161e-05 
0.000164201 -0.00562886 -4.37198e-05 -0.000224467 -0.00507111 -4.04948e-05 -0.000669114 -0.00558532 -4.52229e-05 
-0.00059908 -0.0045267 -3.74489e-05 1.50596e-05 -0.00902317 -6.82618e-05 6.97392e-05 -0.00786106 -6.01594e-05 
-0.000341327 -0.00726593 -5.65762e-05 -0.000741298 -0.0066815 -5.31083e-05 -0.000815725 -0.00781187 -6.10381e-05 
-0.000107642 -0.0114195 -8.39103e-05 -4.41021e-05 -0.0102109 -7.60217e-05 -0.000472094 -0.00958728 -7.23382e-05 
-0.000891534 -0.00897161 -6.87449e-05 -0.000969015 -0.0101573 -7.63522e-05 -0.000613511 -0.0120022 -8.78276e-05 
-0.00104721 -0.0113641 -8.38581e-05 -0.000562093 -0.000630695 -4.85817e-06 -0.000694532 -0.00121557 -8.88384e-06 
-0.00164195 -0.0131781 -9.46185e-05 -0.00155809 -0.0119474 -8.66305e-05 -0.000787534 -0.00207962 -1.69199e-05 
-0.000956804 -0.00399703 -3.18872e-05 -0.00104155 -0.00503303 -3.96926e-05 -0.000872663 -0.0030057 -2.43205e-05 
-0.00112734 -0.00610905 -4.76863e-05 -0.00121362 -0.00722113 -5.56649e-05 -0.0013003 -0.00836506 -6.36517e-05 
-0.00138684 -0.00953683 -7.13043e-05 -0.00147299 -0.0107323 -7.90021e-05 -3.10705e-05 -0.000499774 -4.04672e-06 
-2.03756e-05 -4.44416e-05 2.90974e-06 4.86581e-07 -8.30656e-05 3.19445e-06 -0.000683186 -0.0132343 -9.57021e-05 
-0.000276933 -0.00615052 -4.8503e-05 -0.000401082 -0.00841267 -6.46128e-05 -0.00053764 -0.0107849 -8.00189e-05 
-0.000168128 -0.00403129 -3.27458e-05 -7.73178e-05 -0.00210357 -1.79592e-05 3.69288e-05 -5.54734e-05 -3.35549e-06 
-0.000822358 -0.0155354 -0.000110249 -0.000951305 -0.0176566 -0.000123458 -1.59085e-05 -3.31966e-05 1.05702e-06 
-8.46364e-05 -0.000102229 2.79806e-05 -2.04005e-05 -4.07337e-05 2.11423e-06 -0.00034489 -0.000844907 -3.58372e-06 
-0.000206372 -0.000309498 2.75283e-05 -1.75638e-05 -0.000215754 2.03716e-06 -9.20239e-05 -0.000131453 3.00251e-05 
-1.7e-05 -6.00965e-05 2.45116e-06 1.68054e-05 -4.18827e-05 -1.29971e-06 3.03965e-05 -4.44324e-05 -2.12758e-06 
-1.58423e-05 -3.68651e-05 1.93996e-06 -8.65336e-06 -3.85734e-05 1.49149e-06 1.64343e-06 -4.99243e-05 5.04993e-07 
2.61967e-05 -6.66928e-05 -5.48156e-07 3.83898e-05 -3.81609e-05 -2.17912e-06 -0.000240578 -0.0138839 -0.000100425 
-0.00120056 -0.013826 -9.89071e-05 -0.000758277 -0.0144776 -0.000103605 -0.0012729 -0.014977 -0.000106275 
-0.000307605 -0.0150355 -0.000107583 -0.00112188 -0.0125884 -9.07859e-05 -0.00133855 -0.0160359 -0.000113032 
4.18787e-05 -4.86308e-05 -2.61102e-06 9.23748e-05 -0.000104852 -2.49872e-05 0.000189513 -0.000315514 -2.76876e-05 
0.000275077 -0.000869595 -9.60744e-06 8.58815e-05 -0.000123903 -2.27057e-05 -0.000370563 -0.0160948 -0.000114102 
-0.000170446 -0.0126452 -9.27063e-05 -0.000498697 -0.0182167 -0.000127221 -0.00146845 -0.0181575 -0.000126256 
-0.000434381 -0.0171556 -0.000120685 -0.00140373 -0.0170965 -0.000119657 3.50768e-05 -4.00499e-05 -2.17194e-06 
-0.000463355 -0.00254733 -1.96791e-05 -0.000397541 -0.00164646 -1.10542e-05 -4.04332e-05 -0.00123395 -1.04782e-05 
0.000281228 -0.00167586 -1.6912e-05 -0.000595064 -0.00452655 -3.4957e-05 -0.000527778 -0.00351042 -2.70781e-05 
0.000240366 -0.00354741 -3.07313e-05 -0.000120104 -0.00303584 -2.51372e-05 0.000266502 -0.0025808 -2.33694e-05 
-0.000737175 -0.00668134 -5.11443e-05 -0.000664916 -0.00558521 -4.2911e-05 0.000168337 -0.00562878 -4.60249e-05 
-0.000220542 -0.00507098 -4.05031e-05 0.000207305 -0.00456693 -3.82381e-05 -0.000887652 -0.00897136 -6.72485e-05 
-0.000811463 -0.00781173 -5.9224e-05 0.000123826 -0.00672786 -5.39848e-05 -0.000337315 -0.00726577 -5.65779e-05 
7.39406e-05 -0.00786086 -6.19729e-05 -0.00104324 -0.0113639 -8.28625e-05 -0.000964961 -0.0101571 -7.50234e-05 
1.90607e-05 -0.00902293 -6.97346e-05 -0.000467967 -0.00958708 -7.23642e-05 -4.02922e-05 -0.0102107 -7.73361e-05 
-0.000609568 -0.012002 -8.77895e-05 -0.000103398 -0.0114193 -8.49273e-05 -0.000886742 -0.0165955 -0.000116867 
3.58501e-05 -3.34927e-05 -8.03761e-07 4.04184e-05 -4.48906e-05 -1.67286e-06 7.97479e-05 -9.11882e-05 1.78018e-06 
0.000528379 -0.000663337 -5.53776e-06 0.000607958 -0.00127008 -1.04169e-05 0.000271259 -0.0132929 -9.67903e-05 
0.00033467 -0.0120598 -8.89597e-05 0.000627482 -0.00307625 -2.59496e-05 0.000627455 -0.00214232 -1.85231e-05 
0.000595697 -0.00511704 -4.1227e-05 0.000615648 -0.00407455 -3.35539e-05 0.000568564 -0.00619923 -4.93087e-05 
0.000446226 -0.0096422 -7.33941e-05 0.000493481 -0.00846596 -6.56341e-05 0.000534279 -0.00731689 -5.74892e-05 
0.000393197 -0.0108415 -8.09521e-05 0.000142745 -0.0155947 -0.000111249 1.6375e-05 -0.0177159 -0.000124426 
8.0118e-05 -0.016655 -0.000117832 -0.00101784 -0.0187176 -0.000130061 -0.00192305 -0.0175976 -0.000122478 
-0.0018578 -0.0165369 -0.000115957 -0.00179161 -0.0154771 -0.000109345 4.55271e-06 4.3631e-05 2.46325e-07 
4.63594e-06 4.36749e-05 2.41284e-07 7.80227e-06 -1.24409e-05 -1.02279e-07 8.6304e-06 -1.55633e-05 -1.28484e-07 
5.70747e-06 -1.70053e-05 -9.84887e-08 5.08647e-06 -1.3837e-05 -8.45026e-08 6.86234e-06 -1.04958e-05 5.94153e-08 
6.83792e-06 -1.05631e-05 -1.99246e-07 4.19727e-06 -1.19198e-05 6.26187e-08 1.12159e-05 -1.33146e-05 -1.32882e-07 
2.29733e-06 -1.52926e-05 -6.96127e-08 9.6697e-06 -1.88901e-05 -1.54045e-07 4.1646e-06 -1.19982e-05 -1.9288e-07 
1.2438e-05 -1.64915e-05 -1.83961e-07 1.00874e-05 -1.14038e-05 -1.63432e-07 1.44707e-05 -1.43711e-05 -1.84042e-07 
1.55878e-05 -2.08453e-05 -2.7024e-07 1.46023e-06 -1.87936e-05 -5.92086e-08 1.07187e-05 -2.22308e-05 -1.84994e-07 
1.7379e-05 -2.44133e-05 -3.34677e-07 1.19963e-05 -2.59935e-05 -2.03231e-07 2.88051e-07 -1.19337e-05 -1.62504e-07 
2.98559e-07 -1.18712e-05 7.09102e-08 1.76627e-05 -1.8554e-05 -2.6501e-07 5.19622e-06 -2.06299e-05 -8.02706e-08 
1.01403e-05 -1.13263e-05 -4.15373e-08 2.30072e-05 -2.90845e-05 3.65099e-07 1.77476e-05 -3.08101e-05 1.97448e-07 
1.79849e-05 -3.07196e-05 -4.24208e-07 5.64109e-06 -2.4177e-05 -7.92078e-08 1.31474e-05 -7.93727e-06 4.69977e-07 
1.55661e-05 -7.58388e-06 5.09294e-07 1.3171e-05 -7.86972e-06 -6.55473e-07 1.87874e-05 -1.07057e-05 -1.74406e-07 
1.59913e-05 -1.08209e-05 -1.48435e-07 3.11106e-05 -2.74251e-05 4.41375e-07 2.79244e-05 -2.83175e-05 5.06605e-07 
3.44783e-05 -3.4228e-05 -8.64596e-07 2.81482e-05 -2.8309e-05 -3.56647e-07 3.137e-05 -2.75328e-05 -4.03976e-07 
-2.03186e-06 -1.5428e-05 -2.39467e-08 2.55619e-05 -3.66895e-05 -3.52963e-07 1.77523e-05 -3.04107e-05 -8.84289e-07 
2.32312e-05 -2.91333e-05 -3.08659e-07 2.15515e-05 -2.31862e-05 -4.09163e-07 1.28623e-05 -1.07059e-05 -9.49438e-08 
1.29201e-05 -1.0616e-05 -1.40348e-07 2.21007e-05 -1.96012e-05 -3.39837e-07 1.84445e-05 -1.53251e-05 -2.35269e-07 
1.90167e-05 -1.35887e-05 -2.11087e-07 3.14345e-05 -3.56175e-05 -7.03128e-07 -2.99643e-06 -1.20868e-05 -2.47942e-07 
1.35364e-05 -9.11249e-06 -2.72449e-07 1.5484e-05 -1.24359e-05 -1.6421e-07 2.35707e-07 -2.27584e-05 -2.09705e-08 
3.15638e-05 -2.72879e-05 -1.69699e-06 2.60439e-05 -2.28736e-05 -4.62888e-07 2.81292e-05 -2.79463e-05 -1.67365e-06 
1.5777e-05 -7.46767e-06 -7.45503e-07 2.30352e-05 -1.00983e-05 -2.00115e-07 2.93302e-05 -2.25999e-05 -4.83232e-07 
2.30261e-05 -2.86772e-05 -1.36183e-06 1.34367e-05 -9.17822e-06 6.82564e-08 2.23055e-05 -1.64932e-05 -2.98113e-07 
2.22772e-05 -1.3384e-05 -2.44799e-07 1.01547e-05 -9.70988e-06 -1.68192e-07 1.02094e-05 -9.63126e-06 4.95628e-09 
-5.97081e-06 -1.25365e-05 -8.91668e-10 -6.04141e-06 -9.8131e-06 -1.2747e-09 -3.95138e-06 -8.1848e-06 4.47841e-07 
-3.95611e-06 -8.20937e-06 -5.18698e-07 -4.208e-06 -1.09311e-05 -3.9927e-07 -3.32111e-06 -1.90611e-05 -4.69428e-09 
-1.43569e-06 -4.12665e-07 5.37305e-08 -1.4375e-06 -4.10741e-07 -2.99487e-08 -5.21132e-06 -1.57479e-05 6.41243e-09 
-4.18857e-06 -1.08796e-05 3.2369e-07 2.59677e-05 -1.95673e-05 -3.93128e-07 2.57886e-05 -1.31807e-05 -2.53415e-07 
2.5199e-05 -1.65732e-05 -3.25727e-07 -3.0019e-06 -1.20376e-05 1.70906e-07 1.30836e-05 -4.05972e-06 7.95709e-07 
2.18876e-05 -6.12138e-06 -1.78201e-07 2.95431e-05 -7.28256e-06 -1.00336e-07 3.02458e-05 -1.26911e-05 -1.91131e-07 
3.03665e-05 -1.25887e-05 -4.10143e-07 2.96421e-05 -7.21282e-06 -2.94314e-07 -4.37591e-06 -1.19876e-06 3.06197e-08 
-2.8638e-06 -9.56605e-07 1.63362e-08 -4.30752e-06 -2.33303e-06 2.02388e-08 2.8296e-05 -1.63258e-05 -3.54073e-07 
1.24102e-06 -2.80701e-05 -1.74948e-07 8.18698e-06 -2.94294e-05 1.14787e-07 8.24653e-06 -2.97337e-05 -2.1775e-07 
3.71702e-05 -3.91366e-05 -1.16432e-06 3.40624e-05 -3.0297e-05 -7.32003e-07 2.97063e-05 -1.81954e-06 -1.13235e-07 
1.30565e-05 -4.08837e-06 -9.5178e-07 2.14665e-05 -4.99321e-07 -7.12557e-08 3.1757e-05 -1.94678e-05 -2.81269e-07 
3.19448e-05 -2.2671e-05 -2.55967e-07 3.20578e-05 -2.25415e-05 -7.79226e-07 2.86113e-05 -1.9396e-05 -4.11676e-07 
1.46225e-05 -3.5036e-05 -2.40003e-07 3.19044e-05 -2.50151e-05 -4.20155e-07 -5.73708e-06 -2.37619e-06 3.46925e-08 
-5.96444e-06 -4.56169e-06 3.75361e-08 1.28615e-05 -7.11159e-07 4.38933e-07 1.28457e-05 -6.59426e-07 -4.7736e-07 
-8.08448e-06 -2.16006e-05 -2.52255e-07 -6.07547e-06 -2.54114e-05 1.20185e-06 -6.40192e-06 -2.57374e-05 -2.21218e-07 
3.21486e-05 -1.58488e-05 -4.77137e-07 -8.73306e-06 -1.40907e-05 -1.48734e-07 -9.01097e-06 -1.72155e-05 -1.37862e-07 
-8.67759e-06 -1.40805e-05 7.63298e-07 1.63133e-06 -2.78102e-05 7.10025e-07 -3.07933e-06 -6.78587e-07 1.66867e-07 
3.18807e-05 -1.93631e-05 -6.21151e-07 2.9781e-05 -1.76375e-06 -1.69754e-07 3.20755e-05 -2.48429e-05 -1.29878e-06 
-9.03733e-06 -1.71329e-05 8.79709e-07 -3.79539e-06 -6.48972e-06 -3.40699e-07 -3.83656e-06 -2.89853e-06 -7.96144e-08 
-6.02411e-06 -7.03574e-06 3.17789e-08 -3.69969e-06 -6.28418e-06 2.79038e-07 3.205e-05 -1.59354e-05 -2.99047e-07 
2.99383e-05 -4.51645e-05 -5.01297e-07 -0.000172469 -0.0126455 -9.23065e-05 -0.000242612 -0.0138841 -0.000100151 
-0.000685257 -0.0132345 -9.57005e-05 0.000121648 -0.00672825 -5.30095e-05 0.000166257 -0.00562919 -4.48651e-05 
-0.00027904 -0.00615093 -4.8516e-05 1.71089e-05 -0.0090233 -6.9021e-05 7.17734e-05 -0.00786123 -6.10549e-05 
-0.000403161 -0.00841305 -6.46118e-05 -0.00120264 -0.0138262 -9.91928e-05 -0.00112399 -0.0125887 -9.11728e-05 
-3.7576e-06 -2.85476e-06 9.84743e-08 -8.57635e-06 -1.21104e-05 -4.30792e-07 0.00023838 -0.00354799 -2.9362e-05 
0.000205306 -0.00456742 -3.69756e-05 -0.000170163 -0.0040318 -3.27573e-05 -7.94373e-05 -0.00210417 -1.80181e-05 
-0.000465246 -0.00254811 -2.11932e-05 -0.00039963 -0.00164749 -1.35893e-05 -0.000539657 -0.0107852 -8.00062e-05 
-0.00104528 -0.0113642 -8.33389e-05 -0.000967031 -0.0101574 -7.57033e-05 -0.00088966 -0.00897175 -6.7981e-05 
-0.000813649 -0.00781206 -6.0126e-05 -0.000739306 -0.00668175 -5.21404e-05 -0.000667027 -0.00558562 -4.40605e-05 
-0.000529828 -0.00351093 -2.84536e-05 -0.000597152 -0.00452702 -3.62284e-05 -0.000105508 -0.0114196 -8.44331e-05 
-4.21979e-05 -0.010211 -7.66784e-05 -8.04235e-06 -2.14217e-05 1.10548e-06 -2.62583e-06 -1.19425e-06 7.63846e-08 
0.0002792 -0.00167655 -1.45675e-05 0.000264598 -0.00258151 -2.18677e-05 3.18662e-05 -2.5009e-05 1.30867e-07 
-7.95803e-05 -0.000106429 -3.19587e-06 -1.95721e-05 -4.64342e-05 3.89229e-09 -1.85476e-05 -4.19468e-05 1.11557e-06 
-8.57825e-06 -1.20679e-05 2.80041e-07 -0.000436399 -0.0171557 -0.000120669 -0.000953327 -0.0176566 -0.000123468 
-0.000500715 -0.0182168 -0.000127241 -1.1338e-06 1.59397e-08 1.16032e-07 -1.12771e-06 6.63981e-09 -1.2237e-07 
-5.33253e-07 1.47078e-08 -1.01729e-09 1.51051e-06 -2.79824e-05 -8.06096e-07 8.24485e-06 -2.96688e-05 -3.67678e-07 
2.7873e-06 -3.43913e-05 -8.46008e-08 2.67053e-05 1.20992e-05 6.27637e-09 1.76693e-05 1.56337e-05 5.22867e-08 
1.81445e-05 2.59173e-05 1.11922e-07 7.72413e-06 1.79091e-05 8.28717e-08 7.77348e-06 1.79508e-05 1.00745e-07 
-7.93588e-06 -2.14289e-05 -1.07256e-06 -6.0749e-06 -2.55091e-05 -1.03478e-06 -1.19577e-05 -2.91728e-05 3.91615e-09 
-0.00140574 -0.0170966 -0.000119701 -0.00147046 -0.0181576 -0.000126264 1.02948e-05 8.73391e-06 2.1752e-07 
1.97556e-05 7.00203e-06 1.09682e-08 -8.72515e-06 -1.41606e-05 -7.1111e-07 -9.09025e-06 -1.71721e-05 -8.7366e-07 
1.62385e-05 -4.28065e-05 -2.15412e-07 3.5946e-05 -5.73209e-05 7.2448e-09 2.57934e-05 -6.9794e-05 -3.84352e-07 
-8.34748e-06 -7.37389e-06 -1.05378e-07 2.78749e-05 4.18074e-06 -5.53018e-08 -1.19409e-05 -2.29862e-05 -2.89759e-08 
-1.32604e-06 -3.80398e-08 1.08761e-08 2.23344e-06 -5.09609e-05 -4.30987e-07 1.04443e-05 8.75594e-06 -1.18606e-07 
-0.000372577 -0.0160949 -0.000114037 -0.00030962 -0.0150357 -0.000107452 -0.000824393 -0.0155355 -0.000110259 
-0.0013406 -0.016036 -0.000113123 -0.00127496 -0.0149771 -0.000106423 -3.07997e-06 -6.99758e-07 -1.38102e-07 
-7.28788e-06 -3.1794e-05 -7.42511e-08 4.54872e-07 -8.77765e-05 -1.04376e-06 -8.54372e-06 -3.9692e-05 -3.49066e-07 
-1.6827e-05 -6.24715e-05 -9.54882e-07 -2.58462e-06 -3.14574e-07 1.63981e-08 -0.000888804 -0.0165956 -0.000116892 
3.99954e-05 -4.96106e-05 -1.06462e-06 8.77566e-05 -0.000108657 3.23615e-06 6.25503e-06 3.69832e-05 1.9786e-07 
3.47357e-05 -4.06648e-05 -5.85182e-07 -8.35374e-06 -9.96027e-06 4.76317e-07 -8.31712e-06 -9.94992e-06 -1.6788e-07 
-0.000209611 -0.000317789 -3.88014e-06 -3.0993e-05 -0.000502953 -4.81439e-06 -0.000346611 -0.000847563 -6.73683e-06 
0.000188745 -0.000321019 -1.85284e-06 0.000273636 -0.000871561 -6.94542e-06 -8.58193e-06 -9.48078e-06 -3.32195e-07 
-8.38276e-06 -7.34394e-06 4.48336e-07 8.49922e-06 2.7993e-05 1.81659e-07 8.26875e-05 -0.000130077 -8.03431e-07 
-1.88751e-05 -0.000223122 -3.20684e-06 -1.49034e-05 -3.74746e-05 4.25911e-07 -1.50847e-05 -3.35463e-05 -5.46773e-09 
-4.24905e-05 -0.00123482 -1.04765e-05 -0.00012216 -0.00303636 -2.50968e-05 -0.00022256 -0.00507145 -4.04852e-05 
-0.000339343 -0.00726616 -5.65736e-05 -0.000470048 -0.00958742 -7.23672e-05 -8.90891e-05 -0.000140322 -1.91449e-06 
-1.78581e-06 -8.13152e-07 4.3064e-09 8.43973e-06 2.79836e-05 1.02633e-07 -0.00076028 -0.0144778 -0.000103613 
-0.000611542 -0.0120023 -8.78076e-05 
Major%20Principal%20Stress%20Vector 3 949 double
-0.6338897889 -0.76701654768 -0.33484590047 -0.55707202888 -0.67123654036 0.29340711797 -0.41912628402 -2.3587040078 0.4885959324 
-0.97631713152 -4.5626849598 1.2285415438 -19.875915814 107.16693119 -2.3994708227 -16.906970958 107.84013619 7.1972518772 
4.5889114977 -5.9495860761 4.934689841 -6.0154548248 2.6085433737 28.175418158 5.1009606894 -5.6728083808 8.9692689947 
0.77386243063 -1.1074957489 1.2861832886 -21.682031192 -31.674513537 -0.4470359978 -82.291606986 58.472482588 3.311519207 
-1.6110776147 2.9903727015 -0.79823580737 0.016620535989 0.00034627334613 0.016126271296 -383.24920953 -186.6025715 -101.65260491 
-31.170733464 -41.177856174 3.0188118565 105.71705511 -66.922438552 -0.29677119252 -1.8819600948 3.4010724748 1.0901031127 
0.63084715954 1.1805156849 -0.10251764257 -381.47643245 -194.59512329 105.30069433 33.022896042 48.733205504 -5.6598247957 
1.8642787645 39.886429646 3.7299571253 1.8496132327 41.29780501 20.509748287 -25.365233444 -40.894883418 3.8887816582 
105.39042434 -81.12405152 16.238427948 120.27675909 -87.739108936 -19.39114766 662.42597871 -45.74125249 8.1656240565 
105.88873859 -30.750378658 0.55901357426 -0.001740863856 -0.014012784886 0.46899424281 0.17331741258 0.29338838072 -0.12138046029 
-0.0021771053941 2.4962671088 -0.29483060755 -0.0337358871 2.3881843571 -0.10432427926 672.95411508 -39.162877972 -4.7402514413 
104.33469781 -24.340430967 0.95213531266 -1.0551390913 0.11937103399 0.10060988963 -0.82762108897 -0.23327566257 0.13090404083 
1.6463797621 1.8773459195 0.0038020813804 -0.39289340358 -2.0481356388 0.72031654367 -0.14161434841 -0.18826919909 5.2136350934 
0.66688623457 1.282705293 1.830746406 -0.93553545017 -3.2277863025 3.8829614549 -0.26998179756 -0.72397395497 4.3602146788 
-0.59017683526 -1.1187947353 1.6024257273 -0.23376324006 -0.83839419714 4.421409624 -18.352179729 144.63727891 -1.1881863975 
-17.110929136 143.06094731 0.64563748491 -26.04458865 131.89438377 -2.4341876447 12.916141549 15.622808752 1.9178372769 
-3.0217576547 -3.6310824028 -1.1927020639 40.953041451 69.533181688 2.3589531526 -9.5116885259 -11.183365112 1.8727469669 
-3.6565513548 -4.4630955519 1.4944963032 41.546012342 69.189731187 -3.9419646031 2.5277972263 -3.5575168172 4.996449341 
13.947787226 -14.189740319 7.9031102649 1.1876277577 -1.4600695366 2.6541106284 1.0143879141 -2.5091066947 -1.9061863161 
0.022590357651 -0.94798303794 -1.4011492215 2.1385509873 -3.3433961642 -2.6475869221 -2.1946403059 5.0718245296 -0.023838490154 
0.03793382053 -1.1732575273 1.2160800569 -4.469123793 7.7226228016 -2.1749428541 7.4641225599 -12.381737521 5.5625783357 
1.883738845 -2.5838150233 0.60946331348 2.4130103553 -2.0776101115 -4.8850262302 105.51810232 13.462012347 19.268055285 
-171.22570493 93.323907949 -25.529580277 -27.178027301 -14.231763252 -3.6603897745 -133.73104002 39.681949513 -24.829881006 
-134.3385316 87.413476692 -2.8907759908 25.265319938 -8.9945389703 -1.00065796 0.29059351586 3.3894436345 -0.26787804283 
53.556082671 -33.195241103 0.81726898206 0.77416240594 4.5142403439 -0.19561426686 0.021224455668 -0.158859159 -1.4489468849 
3.5278474528 -0.099724695263 -0.29309183891 -7.4262793775 9.4826571468 -1.8541789499 0.25155962265 0.17612604369 0.092213107142 
-1.3321592629 -0.97984665526 2.9117700057 1.7724221947 -2.9537451813 -0.66220638063 5.7404768412 23.329243832 1.5337514165 
-7.8329666706 14.08200455 11.059158229 -21.403869403 -22.607702753 6.9757875129 -1.4453542685 -0.68113190042 -4.6238100222 
226.55088001 -41.02777683 -26.176943181 -1.5038400419 2.5207556597 0.14365048706 3.5279530788 -24.822289105 -5.4224725803 
-6.4243621582 -4.4677507014 5.5550470766 60.187167749 -3.84481899 -0.094189776153 665.66200143 95.879868112 37.909195142 
-0.55965417241 2.1002647333 4.6270117617 -0.80637235868 1.1196091434 -0.49103189946 -1.1540297115 1.8463126146 -2.1718390193 
103.6677008 6.8532863754 -36.99790523 -166.28070885 78.095178384 29.897357145 -51.644556497 -21.537675524 25.250886063 
128.37286318 -28.042926249 -24.668383064 -142.8187394 83.554969952 16.25246415 25.096150042 -8.400872708 0.32395308869 
0.47524675454 3.8170887419 -0.066420889766 -57.129775771 35.086721659 1.8694648041 0.885828332 4.3951662902 -0.34432597811 
-0.013922674824 0.03432746852 0.1680747816 0.66860989979 -0.13333317365 2.2584766054 -3.9953459601 5.266118572 -1.8238446688 
1.3372030236 1.4971109154 0.2517859423 0.41136277642 1.659909565 3.8490710556 -2.6118436788 3.7566794641 -1.0393199028 
6.1748988948 25.990466633 -1.5711042672 5.3841280777 -10.65833538 10.884828478 -22.957731567 -24.842417278 -7.6453382851 
1.1261463736 0.48551088919 -4.4115395211 229.89977121 -39.904989033 27.911802344 1.8215438356 -3.0092659943 0.43981139854 
2.7250686796 -24.011851938 4.1383582493 -8.1635036504 -5.8389118005 -6.4729345397 59.598558553 -3.496633224 0.61625716322 
671.37275234 99.625240172 -35.519376929 302.37073555 208.17086789 -2.3314978299 -328.01928335 -194.19046276 -43.967191299 
-320.74041622 -198.69015104 49.039324025 23.585607382 43.631443606 9.0910245052 2.9153617254 -7.0893123602 2.0352380345 
-1.4927371569 -0.10195596569 11.097051119 -0.167469872 44.898887592 -15.982503985 2.6121871636 66.778082578 39.322713496 
13.363156088 -33.02475215 31.427769429 -3.0643079172 30.838187356 1.8813851962 1.9917484978 -2.6003789032 20.241143221 
-28.22044362 53.231772834 4.1215718283 -5.8756941964 7.0027976503 -31.514841345 1.8734611619 -3.633056867 -6.0022565756 
0.064417739348 0.72499363927 1.6449415476 1.2283146485 -0.74028685249 5.1124046887 -3.0293937519 -2.8876342979 -12.656121571 
-19.544938027 -34.506531746 6.6475252676 -97.004968929 69.338370197 -9.714228268 280.61925545 37.181192592 58.706080631 
306.70868593 -115.35419221 69.313690205 124.40158364 73.580572704 20.408292432 349.94012787 -52.43258058 91.957889796 
-211.19728664 108.45897293 -40.805932369 111.83793837 -90.712152091 -0.19293907929 -110.55416358 69.271193688 8.7546675896 
-0.93569115289 1.7660723028 0.70775160024 0.24107769677 0.79642173691 0.0183892051 -287.03804598 -35.467683234 83.362951068 
-320.06282276 101.36340099 45.790651625 -132.23175433 -77.208978362 53.298690287 -335.43434874 31.431556826 76.842788068 
-219.10542175 110.81477838 36.029646541 492.3708935 -188.51023432 -0.2502344508 317.44510894 -157.60487283 17.022570327 
671.10311006 -79.768120047 72.567671479 901.89355494 -81.732237903 -2.9598678491 -714.6757626 79.399337838 3.233854645 
588.07961287 -79.331240665 -0.091223850051 -472.39084858 67.648880533 0.77112859756 356.91964262 -55.405057604 -0.33810627238 
229.17390537 -43.438683676 -0.4568656669 617.44321744 -36.338408217 -38.477913591 -670.69941814 56.872374165 4.6388663323 
-658.02553137 74.31063171 0.050487744341 -533.92423991 67.555395035 -0.86219180815 -412.58796885 56.160726698 -0.71564746882 
-285.39223127 42.678612274 1.2515127499 -164.04045727 29.00806032 0.010302721736 25.115061617 -7.0151255232 -1.0927357629 
63.311532414 -14.176897931 -0.24295027032 8.9987138519 -2.2624741638 -0.27389391881 0.23030827106 -0.072264813056 0.45027741559 
-0.55538568841 3.3637665917 -0.13083956255 0.0080765628453 -0.88049117808 1.1280081844 -0.10390315991 0.8846340719 -0.043651020233 
-0.027123758944 -0.36295347818 -1.4498721597 0.12057206482 1.727829691 5.173467059 0.018855940031 0.19709874872 0.56089624822 
0.0012065025662 0.029898803463 -0.43607504048 0.0080872563197 0.1163372869 -0.003764641317 0.0054697422647 0.10304118036 -0.34723974591 
-0.99062451585 -13.711484094 -12.442334779 0.22576864394 2.2888489512 0.91923661041 -0.0053750185334 -0.062773790213 0.094648832301 
-0.07160190246 -0.84624034133 1.8056546941 -0.078156331139 -0.92364975 1.7683876539 -0.16786984366 -1.9081516544 1.8998103753 
0.22156790853 3.0982586495 1.1517274189 -0.0014956667685 2.3913568567 -0.19980739758 -0.1512813306 2.2702873995 37.466368226 
-0.31154522848 -3.7804612931 3.9715259834 0.022508109818 0.29867529631 0.30231678405 0.08114134107 1.0640247641 0.02142316759 
-0.15294750832 -1.9196290781 -0.27372812441 0.16460751237 4.3148310985 0.034455772632 -0.71288993415 -2.6035949745 23.989951342 
-0.66289771942 -6.113071621 -9.7407576523 -0.14842284347 -1.7746252576 0.99735092756 0.0011451642766 0.013578932636 -0.013928302128 
-0.21560978551 -2.3486779173 1.2647143152 -0.23431859129 -2.733510352 1.5746114171 0.037649031965 0.53832748475 0.62502587184 
-576.15744173 209.12344013 -3.768235999 -389.98931162 174.12041967 -22.486494545 -638.19517263 111.00782716 72.296510221 
773.30756062 -73.031065949 5.8550627043 724.28857512 -82.329539911 -0.12510379014 602.13129056 -73.758977892 0.80320011575 
-472.2317239 66.219397953 -0.10167506566 344.27008665 -55.819660831 -0.46102862277 218.69150489 -39.709662819 0.54710688013 
564.95732318 -44.025795644 22.589062204 -655.12134749 54.431651778 17.98271107 -658.86888921 73.547581551 2.3369602126 
-532.94085907 65.638438365 -0.44527879216 -408.4677707 55.815253524 0.10753686395 -290.10613453 43.096828485 -0.83052856223 
-166.01702557 29.000658412 1.1172583627 26.207288743 -9.1354778817 0.20549499083 58.584469351 -13.393834343 -0.65774256992 
9.6491745937 -2.7270114538 -0.47394210318 1.1171575561 -0.23017336262 0.28225911974 0.058256464213 -0.62537589595 -0.37283251929 
-0.0082846318906 -1.4957182897 0.31927102892 -0.14454681461 1.129046561 -0.22044881994 560.32260139 -32.920611394 7.1936028351 
105.02916861 -26.699181412 4.3951032922 -0.0010692307065 -0.0001972145236 -0.0059403909472 -0.4886681083 -0.33106425672 0.15506960151 
-0.14832697379 -0.29197246712 -0.00048474617239 0.051523381164 0.083204685364 0.021002569688 -0.01179739048 -0.018967865359 0.0048055627776 
0.29104472146 0.63745326824 0.80974701205 -0.23063376873 -0.49532168815 0.26749530619 -0.40132480919 -1.375403989 1.777258665 
-0.19817649722 -0.44543376994 0.81332562327 34.760647326 56.286146336 -0.6407546928 7.6429624931 9.5944973028 0.048846738583 
3.6204892448 4.3422174387 -0.63008183238 3.7712086857 4.5493171771 0.68122508049 10.402043295 13.277234213 1.5546277407 
-8.7625509221 -11.042865422 1.5963955524 58.934842135 116.58362451 -3.2080400895 70.240616423 151.98170937 -6.1963982676 
24.500868088 35.108879532 0.59951353235 64.216145341 140.70937047 9.6277263673 22.713044336 32.084255579 -1.4266397921 
13.175566132 16.678444231 -0.84897572569 1.1656555064 -1.8733190665 3.8107656573 -2.3130276267 4.6713972195 1.0962909454 
0.010139084678 0.04320888019 -1.841766755 -0.0026373505156 -0.14035430233 -1.6962652793 0.88481812863 -2.1072541739 -0.89360729118 
-2.0319495368 4.3387331631 0.94559690998 1.7785735823 -2.7517646894 10.428981318 0.26468749341 -1.8705287745 14.300538869 
0.17291701409 -0.26819619971 1.041231825 -1.1043253823 1.6349703933 9.0608647677 3.427923918 -5.7664040426 -4.8660699552 
2.920419881 -4.7136313089 -4.9572151088 2.9891783724 -5.3501467957 2.775793971 151.46611921 15.116222666 1.0444383706 
44.661810545 29.768661264 0.22718504083 141.55195792 64.792410093 -0.91268946292 -0.77166552381 3.0159833001 5.4433170598 
10.227894401 34.83240622 3.6721543787 152.86704465 25.881739924 -4.6612869313 72.163602994 9.8793099517 1.2713694481 
0.98710471154 -4.0948668691 7.0859865154 51.524842249 -3.5127234307 -0.016111591942 -24.434005732 -86.947135661 3.8300168824 
2.4119311856 5.6661613944 19.732854051 132.60194038 6.1575424655 -4.4069288602 77.451950069 45.180022159 -5.8560554403 
6.2042662369 7.1697761191 -0.78960787681 140.82608866 -5.2882990271 -0.13017840456 99.104670863 18.729432884 -0.4330156725 
-12.580201319 43.127140218 3.178257968 18.895722238 15.751128814 0.25955231885 4.4097509929 6.8986414019 1.5652096322 
0.2575415952 28.327486396 0.19828799037 -5.1036129097 15.215785425 2.2806636111 2.7966366746 6.0964692442 -0.16023837416 
7.7630477466 14.036035862 2.879276522 3.4326792283 14.441982309 1.4294952961 -0.12728787521 31.86099224 3.101358292 
38.474479229 119.95553342 3.6619175203 2.6107955972 5.0458785959 27.814328488 -9.5667142436 27.089806668 2.4251769191 
-22.274597503 147.09860248 11.291577259 -0.35725023242 0.79222645145 0.44986331329 -4.1101978185 9.6667600023 -0.20439464821 
-4.255710286 8.0089418656 -0.11326458043 0.44071698613 0.76953015205 6.8272422958 0.085765628282 0.6777309686 4.0639204769 
-3.8243754659 13.852875005 -0.24949827951 44.166954951 34.654284301 -12.897592822 87.769337614 32.978567103 -12.720820469 
0.4510000304 1.7282029084 8.1932779646 -21.802440303 -35.759808424 -30.132142851 29.533275073 29.370407133 0.19734142451 
154.03625642 -43.664391452 -6.1426757944 107.3530914 -21.408966041 -10.622514165 90.41742876 -10.678291284 0.56744982642 
10.07313951 27.606593579 -0.78250632072 -4.372962465 16.386286545 -1.2660759747 -14.714991853 12.682870798 -1.5753560041 
17.013875628 0.72780857421 0.71220820368 55.67768172 -31.777202937 0.97867558585 0.020972336861 0.96403762084 0.86547953371 
276.26691917 188.33045636 63.600691002 87.504991887 39.949076787 -22.792177836 29.698140998 4.0072993485 -6.8097459375 
-8.7492749669 -6.8670530877 -5.2911048554 139.23624758 20.859841918 -19.612408978 162.81214298 -14.837654559 -28.077505779 
104.99381061 36.48036491 -10.197237169 156.47322746 8.1432918664 -6.8516982745 61.123112793 6.9361713373 -0.41249499871 
29.009689848 11.683785638 0.5519385657 118.7131035 5.5196231043 0.23169998116 41.420520039 32.581626691 -3.0981449824 
-100.75966064 -83.709227093 4.3616683493 112.49061354 38.437886421 -4.3159216807 -0.14319061227 0.64410299807 -4.1160207382 
-7.1005446964 12.894131162 2.0122296911 4.5168955172 2.8061974255 0.017604449211 16.826328639 17.516452684 -4.0716461361 
11.512868705 11.762616424 -1.7585439441 -0.023182955002 0.50240411537 3.3141949225 15.994987328 15.755943781 -0.027737795975 
155.84352598 -13.181595766 -8.2067479824 51.131173894 4.4752606478 -4.3937055595 33.911241478 5.5259017702 6.4387753696 
103.5730889 6.4086838998 0.8042856525 39.551044494 12.83507961 1.2737558911 206.38033614 39.166229532 10.071576511 
168.34974103 37.499152826 5.1660487936 0.036925921928 1.2122330703 4.8658153301 146.70796583 34.986718999 -1.1357107437 
154.27547943 9.4400971183 3.2358920154 -127.85183601 -16.611613854 0.17169348144 144.52120061 17.899327348 3.3335476402 
108.56235548 19.008176762 3.6909085785 109.39622562 12.162731506 1.2162612114 153.25322735 3.8090855218 0.28271329801 
92.267256833 30.730342514 2.0059601229 53.847758878 22.041634133 0.45850907016 56.72232618 37.184081981 2.7789752677 
33.580620469 24.811286534 0.1275741087 11.972869505 13.846137243 0.40663349682 2.103703879 3.4178085219 -1.0205387475 
22.791538362 19.66467306 0.68047598264 153.70421632 12.86129647 -0.78779171314 48.331956312 34.372425857 0.096102585271 
142.80373252 72.668324792 -0.39562781721 1.5311165009 -5.6432352965 2.1617766788 11.022611904 34.71466909 -5.4122764418 
150.8541987 30.609662087 17.098444069 76.462912624 12.939316313 -1.4579080054 -0.14433029131 0.6155551819 7.7988090487 
65.724326966 2.8800388311 1.6231866735 15.162812017 88.351050694 4.4800008856 -5.3764291172 -10.790981153 15.211482864 
139.32455672 6.8050368533 4.8945217018 79.066779896 50.81553089 1.1492473396 7.5279086391 9.381988854 1.4370432281 
150.76173331 -9.1125651207 3.2824933125 101.37444192 19.503902045 0.84287447838 -12.487385884 60.285290185 -1.8917736223 
19.868326411 16.499701402 0.15044832431 -3.9860956656 -6.3213208944 2.0775659749 -4.6188564185 15.704147463 1.1867704369 
0.36284277946 25.330345871 -1.0639224527 3.0722191955 6.7553803018 -1.4787292379 4.8637134449 17.893196229 -2.8868046702 
8.0384150201 14.804800302 -2.5685182378 1.3500540312 53.484434165 -5.8446702209 -38.608240891 -117.96982705 -10.519392712 
-8.731317778 21.214530082 -4.8219750352 -0.97905934405 -8.8459677994 29.600657838 -6.7692049213 148.72418797 4.8172108059 
-1.751848824 3.9129725045 -1.7163886946 0.12101248865 -0.24970930423 0.054341303572 -5.7762257532 12.493228685 -0.64700717814 
-0.71367287047 -0.1371474291 8.2166064692 0.4215137173 -0.96534850545 1.0637036442 -5.7692799781 19.882915755 2.8501532679 
90.747056233 33.403860937 0.37754386325 60.764602783 52.327612043 2.041736619 23.226142602 35.775680448 -29.458282591 
-0.55102663083 -1.3850322746 8.3437233917 30.529295234 32.125237358 -5.0519748957 -132.05762494 32.867816083 -6.702161069 
157.66472313 -36.515219314 3.6534560542 91.65799318 -9.8069335622 1.3711557344 10.116304875 -21.621405202 -1.9844342504 
7.7252072113 32.522220052 2.1853965422 14.770587469 0.54377366054 0.66332674007 -11.994911354 9.8181559175 1.574405742 
63.219661901 -36.069920319 -2.0452425164 0.0040661962402 -1.6371410039 0.99087148201 85.603694658 36.779557871 25.121352514 
278.36928168 191.1983497 -62.174171587 -13.215939064 -11.473054893 6.9816726412 31.388807744 3.8615124282 7.2374787559 
155.3249119 -6.6483106383 28.296101799 123.06818574 22.722632091 17.645521678 106.72189986 41.98479684 8.2298740786 
159.111538 7.9256652017 18.150005495 30.858090147 12.367726323 0.040586961985 62.28895753 7.0326566181 0.64226725384 
122.39388956 6.6361527338 -1.6097388034 99.400569232 85.559023329 3.6281651863 46.180729057 35.570188563 1.0020183164 
112.69970973 39.408906481 3.1010288197 -5.2767057803 9.5843744766 -0.49030635278 0.1954092947 -0.89327289565 -4.0378999788 
18.837489578 19.419144471 4.4499800139 5.4054167409 3.543002239 0.79623421927 -0.0053164927216 -0.13392205296 0.80739853984 
14.281304958 15.294375904 2.0716438743 15.532906214 15.897831759 1.5474605771 52.988975828 5.7967770705 4.3190812076 
162.77340534 -13.513784889 10.397597002 102.90345342 8.65410829 3.3686737248 33.96667899 6.4745451611 -5.5492641959 
40.832237594 14.766953877 -0.90681916469 209.39792919 43.055862428 -15.015255015 166.61057945 36.64261897 -5.0197002215 
1.1567701982 4.8234800728 -8.9602237465 155.27050815 9.2623097842 0.62511523522 151.89571521 35.977270056 -0.32476103488 
132.69288816 17.438136608 -0.33378333162 110.74984966 13.916735983 -0.13742920043 112.96908155 24.046543967 -1.2602096301 
150.19722957 18.975692857 -1.0206840521 155.45931995 2.3836211877 -2.2573459768 56.732656407 25.155043486 -0.35109809967 
94.348421086 35.207702165 -2.0904351995 59.631242663 40.629688341 -2.4946896833 35.284308254 26.850012246 0.81860660823 
16.351431718 19.274176254 0.47364445683 24.49642109 22.3666846 1.9349023888 3.175600085 5.2883885811 2.1992797502 
-1.9220095668 -0.33808678462 0.016244783973 -0.092580483984 -0.069236732711 -0.00074938574142 1.6861359042 -27.231036373 -3.1238274233 
-420.75032211 24.675236667 0.89202618369 5.0347863954 -6.9727172532 -2.2596365247 26.193957705 -43.117471444 -2.9946555245 
5.1540946617 -8.364060611 -0.10137639981 -1.8691963051 3.9519568566 6.9779672766 4.4804312389 -7.2449924873 -0.10770960831 
0.59387518869 -1.6828033817 4.3028510314 298.52141367 -42.642372269 -35.758434521 840.59891933 118.12942881 48.229824825 
867.82136169 162.97501138 -3.0597026651 839.79994063 117.44385512 -49.678752299 -300.62782581 41.305880169 -35.509966489 
10.578028483 -28.710655743 -12.966701199 -15.273099532 -26.941439019 4.9118070106 -10.656801229 13.866167493 1.0717836496 
-11.972044674 -10.181675676 4.0427526036 -0.38685320115 -0.16985865867 -0.038023761803 13.691829456 16.921697856 2.1038841962 
8.208182949 3.6765837673 5.7137278589 83.403696312 -25.746209785 -8.7608539205 -6.6799414746 -3.6451381009 -0.12348122006 
176.58595351 -60.299538163 -1.359080908 -15.722422803 -28.379089096 -7.5069374284 9.9101427038 -25.836195281 10.422595996 
-1.5616604253 -0.68817036756 0.11592466647 -11.759834072 -10.272954612 -5.033072331 85.999867271 -25.586391893 9.0994265963 
6.3598911668 2.9809359143 -8.7174712296 2.1564451458 -1.3354161345 -4.3162715912 -1.9482441519 -2.2887199075 10.358584144 
16.099490083 1.6867544864 -24.685673118 -1.7151728213 2.3904854378 3.4307170907 24.682394 -45.405794903 21.435918148 
10.19818557 -25.404948765 72.550342135 0.2451136356 -0.17873247907 0.72132936695 5.6277747207 1.4094781538 16.373119783 
15.227714007 3.1178512641 23.328342814 81.543176124 37.340436305 70.901872435 -162.20432106 -21.038457724 -83.166553165 
-162.89225928 101.63763304 -54.140493445 -217.80345412 107.97632203 -78.218628728 190.1727006 -38.274065884 105.93914924 
-44.236379329 25.618108924 -0.11994363726 -0.019146055753 0.013587478614 0.38749256081 -1.0954350887 6.4752370021 -0.38889661378 
70.650944756 -49.245649001 8.8665652324 61.660482448 -44.364155352 4.441164895 -34.530293478 17.78157901 0.23300980531 
0.3039419 -0.68602337844 -4.9038204123 -0.073090653549 0.07409358709 -3.0046039039 -0.31641819243 3.8919800864 0.15988303249 
-54.579037599 31.387226545 6.0938449717 -0.14490581429 2.8657830041 -0.75785196409 65.281868108 -40.551204105 -5.2847156163 
-34.382340732 16.7849313 0.23874406651 0.066903518899 0.73850606372 -0.16409086601 -9.6665876536 2.8557283512 0.70487965863 
-18.345007053 8.5128916286 0.47210620535 -0.14255854166 5.5241503759 -0.61176139168 0.061953903494 0.56243275854 0.044232799741 
-9.8442328468 2.60373006 -0.029260354954 -0.8307456311 1.2288641903 -0.33159506641 1.179420853 0.2607852715 1.7380248324 
1.1173981645 1.2854003057 0.024318548267 0.025702709199 0.0571532895 0.55962427804 -0.99556358424 1.437413891 0.18726754901 
-0.6717676457 0.91270921487 0.11414520645 0.36939823694 -0.86791704376 0.015088436323 2.1534563136 -3.2567184027 -0.59345207685 
0.25459750978 1.783609559 0.033914666055 3.8648620159 25.351118237 5.5472743912 -0.73142413602 -1.047564841 3.1750331786 
-3.12647286 4.5022838364 -0.89351357 4.4338674773 30.956776647 -6.3175783733 -1.718783141 -2.2186668773 -6.3895479769 
3.1616291211 -4.0606054701 1.1312013176 -51.346968502 -40.97031323 30.385637834 -161.02288126 97.717954458 35.592437237 
159.45393986 18.568496228 -89.008973378 -220.26797433 89.001735675 90.065602176 191.74512533 -26.083665686 -106.36387715 
-1.03555845 20.123640698 39.656650772 -2.2576924797 -1.4230379864 110.3823048 -51.594879113 -58.071184017 -8.6943659539 
-11.102512761 14.139443928 0.79223357323 -11.112431853 13.540593302 0.31182981857 -11.205175475 13.185602116 -0.38878702095 
12.979250586 -14.58864802 -0.1210364967 -10.735783543 14.11029415 0.42752445398 45.164771589 -31.855955036 1.4230217644 
680.22302418 18.983895838 6.6655819199 -8.7100969623 9.4903723341 0.075345976509 -2.5838667674 2.4412920715 -0.31270469287 
-15.597255612 46.743949741 -16.82235323 539.4700856 59.784595705 -19.017304591 -289.2095523 -107.98277018 47.046037367 
-0.80706792437 -13.546321556 26.973347421 7.524576127 -27.028880934 103.04891751 -92.896564398 -168.33750701 119.67335252 
8.7581688054 26.764919419 -105.59271844 375.26846348 91.924231754 20.265505109 -6.2439216219 -1.7123818183 97.269321631 
2.5642519656 -24.284452874 -25.549634573 0.66900382725 43.817776664 17.611763992 0.35644999167 1.1331187442 5.7256800202 
0.0907267052 9.195121051 9.3206858404 -4.2495292992 61.828796176 60.80117313 -487.79660441 159.82981888 -14.5184108 
673.45863988 -36.572905806 38.326811395 628.63378086 -94.154678439 28.089699119 565.89548361 -62.324304635 -18.436828064 
638.9715916 -80.82696287 -19.655386133 596.86035578 -21.983059804 29.943821362 -12.489100093 15.054765342 2.0017344311 
-0.081209123669 0.59883246866 -0.09077127116 62.913640368 -26.205285704 -0.53867796125 44.930235726 -18.733628697 -0.29442617654 
-0.73729872136 5.4095981213 -1.1355748748 15.685893145 -9.4080417039 -0.66022478879 103.30248262 -27.855457886 -1.1628216765 
-1.3281584886 1.418767533 -0.37817739171 0.1452866668 -0.10524659839 0.48145889277 10.355166754 -4.5346190566 -0.219287405 
-1.8191542681 4.7878444226 -0.34647976662 -0.98957732125 2.0896051542 -0.1172685976 -0.043135753631 8.6087548796 0.801372398 
451.2640731 -69.164472527 -18.694942053 -6.2721992778 6.4218590853 -1.111698296 412.71704915 -56.805047605 -6.6003930272 
-470.14431288 59.843672387 1.201065711 60.375168654 -38.054375558 -5.9324220416 0.58455811595 18.541099766 1.3572363799 
-308.37530236 50.280138671 1.4980499813 -355.04793464 47.911374288 0.57584122945 -13.41180852 17.179359178 -3.9316571477 
-0.37251819426 -9.1943657831 5.20922616 -0.030477209669 -0.9809791823 1.6501449202 -249.22062565 46.346886876 2.4626759333 
284.39853692 -47.74335755 -1.2607403476 -12.400543798 15.994093181 1.9951071871 0.32328091525 6.2289327881 0.35393304683 
0.0005369533456 0.14036564281 -1.2053709857 185.18038106 -37.971544186 0.55818295715 222.5788019 -42.835255262 -2.3023248326 
-13.35368642 16.905914579 1.7210696664 0.033973620028 0.7531343097 -2.4734738234 0.27999066787 6.7467938724 0.30729826744 
118.06038883 -31.662322692 0.69365299568 163.98149763 -34.300322406 -1.0629593319 13.31316956 -16.698647026 1.6785808831 
0.0045704835294 0.14445169147 -0.43698423129 0.12792312534 9.2729338239 1.207953395 -13.269277553 17.053863937 -0.30571733963 
0.0017013783433 -0.063888692521 0.34788039196 2.029903088 19.235370308 -26.288895221 -0.018275385176 0.28977944825 6.7829601574 
0.034992166321 0.44504812434 0.071784795978 -0.079732876972 -1.386579993 -0.0065655990852 -0.63987613221 -6.3981887996 5.4991125158 
0.1962329693 2.1313612357 0.74754218348 0.12102790726 1.4881712932 1.2887644891 0.024166722885 0.3599601445 0.56949414834 
-0.0090377980901 -0.13106978785 0.65868161123 -0.1577045646 -1.9173588405 -1.2519415411 0.0044033745025 0.041953726002 0.49489916275 
0.074241761817 1.0168947909 1.0793253749 -0.035094734067 -0.36980774983 0.25525455439 47.414544759 -15.912328798 1.3304357193 
-1.0561230478 3.5221979944 -29.333785958 3.2609728166 9.8208529881 27.98648927 -12.126313801 15.640083947 0.10490998606 
-10.868048853 12.981925344 0.4266166093 -9.7725648713 13.076637498 0.20469882785 11.146345819 -13.407918826 -0.28527346161 
-11.772424153 14.752176392 0.18249767594 -10.393639558 16.50833433 -2.8818398795 596.62640669 -107.59908774 -11.018690487 
-9.8684110001 10.780963279 0.14003235294 -2.5890376629 2.0948907572 -0.22231358961 -5.5040778523 21.665128518 12.844891778 
1.9422540975 -10.694505179 34.005279156 -6.7450695498 16.456343801 -3.4097310251 0.86951640943 32.713559064 36.627029812 
-0.0040372546463 -22.895404161 8.3475209007 2.2232627471 -41.997510623 51.787030385 -0.48486638447 1.7300510952 -21.181528104 
0.098287559725 -0.098070165553 1.5786641204 266.1802532 80.82875792 -4.5339698766 505.33507475 19.380321547 -34.63683026 
0.77315565287 -9.8604858014 -17.730702188 -1.7728017883 -4.8033223822 -29.339850081 40.249725479 65.729891838 1.8559030566 
332.86646244 43.029546798 -23.608231336 569.41094117 -156.72870693 48.338911333 -63.624379161 25.834785132 -0.21416820373 
-0.057820013092 0.32582355733 0.81713278385 -11.362929299 13.916623219 0.57036043856 -1.7278260429 9.2156615019 -0.022109965042 
42.975350221 -16.937753306 0.47394377305 -0.37319483161 8.2666855783 0.088966195453 -0.70544287204 1.7460749102 0.14799827944 
540.44028325 -161.70193489 -39.34547365 -617.82923737 77.255839607 40.729663943 645.29149848 -51.747697624 -1.1503254429 
586.41541095 -43.55286388 24.963222354 659.9975325 46.463518024 -52.558142011 20.323528714 -12.117543449 0.057099440249 
102.96093514 -27.87307382 -0.23081950091 -1.2610069764 0.59292871002 -0.076163235437 -1.5002888212 1.1654269697 0.32486452183 
8.9300175196 -4.5061262778 0.99696310586 -0.74588034245 2.2764696758 0.045279228136 541.55301605 -62.127790795 -18.625596928 
0.016410451902 0.25026520807 11.318908946 0.76066844982 18.653214532 18.137682696 14.970492848 -24.147574459 -25.836722938 
493.30811523 -65.171874696 -12.956694269 0.0001080062879 0.00071103694263 0.17172472568 0.55133581561 10.741276142 -1.4510062454 
352.62131698 -52.005677919 -0.070873796423 18.941434059 -19.819304177 2.3896472453 -416.64250725 56.394636504 -4.5690434006 
-0.038437075865 -1.3320971194 -3.7403551068 0.29882449008 6.9280050052 -1.4665701905 290.6077192 -44.364710939 0.069163432483 
14.642015293 -16.592485764 -1.6460277774 307.48941126 -48.745655435 -0.31647210285 0.0065626346259 -0.14072019377 -2.4058808962 
0.27775343815 6.973488092 -2.8435943422 244.11551441 -42.585547295 1.2729694587 14.361873012 -16.992288116 -1.9503987713 
226.26381912 -40.422052 1.3957961183 0.10699941651 -4.0696306092 0.10205240102 0.18879043924 6.2764236952 -0.18592386501 
-182.07615673 38.604284159 0.36466421626 -13.92663644 17.01563529 -1.8986793682 -165.53936985 35.728769991 -0.87584500676 
-13.183904949 16.684933899 1.1940100663 121.97103144 -30.213635816 1.0460591674 -5.0677017314 5.4811588201 -0.69014470354 
-280.36737584 160.36919855 21.191486488 466.14874361 -199.18253031 10.91008572 563.13112372 -117.29997395 -44.937314891 
609.57531531 -45.637001991 20.372917669 816.5700705 -67.48860276 -4.2785235656 -168.88034383 27.86216717 0.72153038588 
-225.25619021 41.421459271 -1.6930858141 -713.92398118 79.021523057 3.0971128648 -698.83260175 53.112160284 -2.0454279489 
-593.09950957 75.660900869 -3.1181304507 -659.49629236 71.717371072 1.1029462807 -534.46734701 64.459245659 -1.5240333653 
-349.0044995 55.167772801 2.1588658375 -408.57391067 54.148800097 -0.81028969374 -472.57588487 66.199526874 0.0085738032346 
-287.96908419 42.704233985 0.23866264106 57.206897557 -11.512177493 -0.91545771317 8.3539537443 -2.0147732635 -0.81377404751 
26.541294946 -8.1365460826 -0.66311315948 -0.012887971902 0.0025854652041 0.034820762459 -0.069633369849 0.74440450791 -0.0033206755653 
-0.32265339099 2.3967057248 0.71072761211 -0.0231718465 -1.1076391327 0.027332651112 0.11929972733 0.13744143739 0.017913242026 
-0.54336980243 -0.79118588864 -0.21958540675 -19.813015357 -15.140497524 0.15884649515 -32.835211811 -23.889390713 -0.011343761982 
20.417901706 17.954188651 -0.089376964641 14.562498869 14.338925572 0.45793360524 8.6725666302 6.9759420427 -0.47487423759 
7.9364196532 6.3969802134 0.36748668342 7.6659545948 7.6390174054 2.7664792746 35.239214626 14.055213631 0.1953289187 
4.9610951631 6.0119604093 0.27517243704 46.420643633 31.704935351 -0.0081676237635 6.7445630982 6.2731858653 -2.3924836789 
57.878134026 23.824377169 -0.11298806541 20.047988488 8.0372078223 0.15670243764 71.13551732 11.975822768 -0.53471914488 
94.385122684 33.334062443 -1.217051299 -0.29995626161 -0.50133509736 1.9888164128 58.716270318 38.457747819 -1.3172005927 
104.1159636 37.067968825 0.73409209102 76.36607826 47.942727153 1.8288445157 3.5724689193 5.3076699957 -1.6319522509 
4.245366676 6.1981359386 3.1065719554 107.59522917 21.11883647 0.56873738276 12.692969908 14.802374263 0.76498221497 
22.8781375 9.3548604933 -0.61333175073 186.54415127 30.868717964 29.591533709 -138.74780327 -47.482129261 -34.421075768 
163.90435455 56.855436993 0.26952046925 22.113653529 24.249204711 -2.5882079443 214.93723076 -13.981927417 -12.694255348 
233.454688 53.67965223 -8.4132674618 218.31096387 -8.4195032198 11.439802941 151.48663832 31.836424992 -0.62278899604 
127.33973027 7.6433383127 0.76349896424 181.04178461 -48.708396813 33.494993059 207.64201284 -19.525337974 17.069687602 
305.16234273 -108.84224176 -0.031878120883 233.21075669 -18.028792302 -0.24218201855 209.53840044 -46.497640607 -1.3380270253 
-0.0036679977975 -0.028502328072 1.5915770064 304.55467487 34.30582276 -8.054495216 -138.64422678 -45.627562299 26.37900444 
200.04001702 32.30137756 0.82163242876 149.90678425 26.54077393 -1.9878723204 47.292056818 4.7407830355 0.92462370279 
47.598515633 5.8086666404 -0.9279400551 144.74939434 16.600359934 0.70287086377 111.66457859 12.641433453 -0.42682959138 
145.73977639 10.295879641 0.078594957319 336.95639889 -43.907519523 -1.945953473 1.9814453766 -5.6371168912 -4.2930880115 
68.71286451 3.0364666341 4.5255880834 100.91841788 9.1449616322 0.36677471164 1.0035449953 2.2994509307 3.2703844082 
-197.79126231 38.697568932 23.443721534 154.64901925 5.9212680325 -0.01305356157 208.83208478 -8.2894275899 -15.715480137 
230.0709445 57.924140327 5.3083864313 134.77727797 63.293404604 0.46212369107 144.83839673 -10.142032351 -0.33544015282 
-173.65426693 -33.235400654 32.993718926 63.634808958 2.6760726121 -4.805273304 149.56334784 13.50067057 0.32105967958 
147.3299361 31.987183352 -1.0865808314 3.7015165571 1.935821984 -0.34690891705 3.2660660014 1.780156982 0.53253889034 
-4.2391157012 13.463178039 1.6408956853 1.1494228373 -4.1391722365 4.0388910877 -1.6681663858 3.4422595363 11.053481567 
1.1651417185 -1.0087173896 14.526543385 -8.7948838685 16.065683371 3.3835465817 0.0025028869181 -0.0059159272754 0.11611153856 
21.34046381 45.545580712 -4.736543841 20.73691189 46.513316249 2.713263293 0.40021730048 -1.2377217217 1.3199826554 
-6.737214353 12.249878709 -2.21213527 149.73626088 3.4493390946 -0.28054319525 110.46109367 34.919870027 -0.024981302117 
129.62214047 17.45094904 0.51743920199 -2.7781995153 7.7863116013 0.31950225264 173.85540753 48.846141346 -11.312780741 
110.51202277 90.109647561 -1.2710828082 27.098563215 26.815726905 -1.6629104878 54.021678617 28.060410423 -1.6601349825 
54.210762367 28.01361155 0.97528294756 36.447957231 33.644337335 1.3563748955 -4.7479391877 -18.270415205 -0.27759243316 
12.41374576 40.104218519 -0.31636857298 0.86400316346 46.868641005 0.85494137116 99.115120373 18.002798738 0.32657902286 
9.6090732878 22.300836056 1.7559265332 -50.835965243 -48.484528358 2.7977189214 47.13851556 48.150325467 6.0268249916 
-383.06964566 162.9893484 27.547250408 238.10015566 -111.70919922 8.0786531787 2.2270156939 25.811982234 -1.6007739582 
166.60620373 39.828269118 11.857012882 17.101114502 78.448287654 -0.63657273483 70.448127132 0.17311476895 -0.34853425627 
97.872182061 -16.148811858 1.7371561894 95.159940284 -17.606776624 -2.1835013527 116.46605332 4.3184218654 -0.1990906422 
124.34833557 75.192949938 7.4960506441 -135.91501369 35.628460976 1.4188673965 0.86385918652 29.496271458 0.49842151725 
-12.051616267 53.101809186 -1.3475879654 206.061938 192.48812036 13.447321912 178.2645474 179.62665836 -11.728223313 
-0.82504534572 3.3291166803 14.590270874 -1.5415989752 -2.4563079248 -9.7094782691 -0.18226842086 2.9398082521 11.136807839 
44.122338861 8.6199673145 -0.2511996378 -4.5146870821 8.9631644141 0.16244346792 -0.26556597343 0.72814262903 4.0742766215 
1.977929827 -4.0968111363 -1.8793242963 -10.522681119 -27.16411996 15.516959178 10.307839773 26.898644626 -0.9022662456 
70.79264953 0.44053422557 -0.23596643169 0.19346439946 28.883409186 1.6486020984 -133.96621177 35.081426039 5.2445415637 
-0.43347105493 0.99442154619 5.6297534498 -6.0219693133 20.101235794 0.86013604815 -23.27781162 142.4052308 5.2885692529 
-2.8957562756 6.1916464525 1.5223542676 -7.9183227318 24.531369696 -0.81744833496 45.109890482 9.3250938588 0.34024902366 
419.61240426 -5.6702799048 15.81142627 103.09470353 -26.930887763 0.34865691133 61.317198907 -23.254944087 -0.55435721525 
-11.259568077 14.515172546 0.39406381848 -244.21276773 42.820967176 -0.36334134637 287.82287837 -46.522872422 -0.15771781479 
-10.310620214 12.823502816 0.46728639245 184.08428116 -37.062813228 -0.15244357645 226.48234797 -40.301587001 0.6506289623 
11.603368787 -14.210255215 -0.55647057988 0.095419303849 -0.65881177189 0.0082874240354 -0.35025051467 9.0331684518 0.72804244099 
-8.2772042925 156.52449947 -3.2373303641 -3.1479031376 6.570243374 -1.3395819859 350.2058435 -50.81956236 0.5123279939 
307.67015422 -46.624356966 -0.37416295465 -10.440096535 12.995328426 0.092917054949 -21.070017278 25.113870872 -6.9455962369 
0.069190093291 1.655745377 7.5180372545 1.134394622 21.79730123 -15.721661341 11.486348525 -14.069449073 -0.64774252467 
0.0062552647291 -0.0063482830228 -2.3878144467 0.1375906306 7.4267733683 0.70857276398 -0.015782784416 -1.0973370132 -3.2163456344 
0.25977099532 6.245039753 0.50259792062 -0.0063250153414 -0.15916906611 -2.0839434703 0.31172410372 6.0399216688 0.16994851469 
0.50361863465 8.7717008066 -0.01119472309 0.00951383364 0.07075986575 -3.0849774694 -124.45908889 32.827740792 -0.12059290612 
163.85147872 -34.729734337 -1.5657630431 0.42229254174 -0.054268857292 4.2145647013 3.4679680981 35.778906487 -1.8308365324 
-480.63306601 62.223030451 -9.9785720156 417.15711341 -54.824523833 -2.2302183357 -119.81952026 28.772679626 -6.6242325816 
-0.6656436239 10.261169703 -5.7768874376 -0.0030257916737 -0.90167286918 76.627300619 1.9972054838 -6.261093467 115.17018128 
-0.2479688491 0.54642283166 1.7201424445 9.8928822198 -4.5529749152 -0.35829303433 -2.6757492927 2.2643851391 -0.16281329248 
-0.76352364078 0.40195647955 -0.078653799153 2.8420121425 4.7567821528 -0.14440404969 2.7268925289 4.6303371997 0.15098221691 
2.4889155949 3.7680661232 0.026353661294 -9.7071951582 -23.406765248 -10.371411918 46.552899111 40.34179675 -6.964705845 
33.008270398 51.77400449 1.3014155648 -16.84153311 14.995853004 -0.13260306741 58.810167144 0.11794673454 0.36409772007 
11.609166608 0.25174375371 0.32852024938 27.885728928 8.523195766 -2.5918582019 33.212390256 8.737780852 4.272651431 
-0.20661635007 -0.58433104331 2.4386097666 -0.19556991587 -0.63869901757 1.591812383 -3.6249719808 9.2351887679 0.0050851085522 
-1.1210207679 3.2095232378 0.10240351166 -1.638659284 1.1755571346 0.033284938263 35.975208339 24.424574298 1.8285422741 
58.330549531 -25.984165836 -1.9852977299 -7.2709746605 13.104951374 0.78670936699 -0.085153590775 -0.31874494104 9.8952057736 
250.61294969 40.729764989 22.3097375 626.06001367 -76.43037999 10.025803639 444.11133679 -23.042531466 19.405073816 
-5.6149246504 16.125927559 0.26217349862 4.1970148572 -14.047273829 -0.89749624738 0.25869458835 -0.24407769389 5.7922297432 
5.8139008467 9.4189631503 1.7796086734 31.044696126 63.626542375 46.522135203 34.748797779 28.298952713 -3.0702994313 
20.429381855 -11.856338906 0.25118109292 43.937667591 -16.268446692 0.058103719442 -9.3225447184 10.088383246 0.28843397077 
-0.62467447696 1.5214313496 0.34759999493 -1.1618070905 7.5755505342 0.036789509866 9.9161686369 25.970021316 0.85699578032 
1.4377863779 -16.313409063 23.514124712 0.31172009786 5.9583734765 28.669077258 1.1663244745 -22.016920952 -43.707761689 
1.4383812549 16.752981072 75.171086324 3.5733016968 8.1244312874 1.4289355456 -5.1653350335 5.7903802511 -0.27991366166 
520.3733827 -152.17459063 7.9310504281 621.10279512 -85.836878257 -22.975385149 0.90311316437 -1.9432193288 -1.9111015348 
422.92880082 -72.729271938 37.095783243 -3.5036791035 7.735938666 1.390457439 -4.902369088 11.423746947 -1.6138082836 
-0.0037246210936 6.3435905002 -4.0552425677 -3.6235383609 4.8211526672 1.3886301718 -1.0285068069 -21.37464269 51.295296904 
599.1820526 -41.865861199 10.759211691 606.63190048 -27.326747198 -0.56693771074 -3.0833913565 6.8199083799 0.42596768793 
-5.2867509478 15.998332711 0.54670877078 0.73485669817 -0.13523547903 4.0209507955 619.9544963 -41.101964232 23.393715827 
-8.7022667446 3.2624526011 1.4498641574 -2.1582923069 8.2782356252 1.3057055653 -24.492391996 63.356169183 7.0781347511 
-20.552574818 20.247645609 -4.2179855353 -17.539629087 19.975781689 0.59153196667 -14.597638829 17.185571978 0.93293663535 
-14.057079846 16.871060554 0.4563229281 13.937238525 -17.709852676 0.78873711712 0.26671122495 31.240725008 -21.038232771 
40.942045646 144.5883188 -1.2747195422 -2.4467044618 -0.69873777726 2.8051893759 -12.657469132 15.416921659 1.2708898547 
-13.082293396 16.846639183 0.86475665834 
Intermediate%20Principal%20Stress%20Vector 3 949 double
3.8186207093 1.3699562455 -10.367048784 -3.8313403833 -1.3628482321 -10.392134022 0.068690792342 0.27198200464 1.3719212881 
0.066334014383 0.32410504698 1.2564103068 2.1532709245 0.038573625576 -16.11372565 -1.9958117079 0.44972036315 -11.426727478 
-0.73977661735 0.94407411426 1.8261775148 -9.0748428706 9.3812864327 -2.8060204625 2.0339778518 -3.0030202802 -3.0560795639 
-0.27554784216 0.41267541402 0.52113287082 -1.6197933106 1.0479842858 4.3084150868 0.014995711222 0.022999502971 -0.033464055517 
0.39633493182 -0.62617313092 -3.1457087623 0.17687301956 -0.09590300051 -0.18023482806 -46.810796868 30.225570782 121.00065389 
-0.080143476358 0.044238031845 -0.22409598871 0.033514208956 0.051963595021 0.22068510028 -0.61848978887 1.182480287 -4.7570493077 
0.30005504577 -0.15223898517 0.093333822635 -47.981118693 28.801639789 -120.59756508 2.5347097891 -8.7343591083 -60.417039723 
1.034928212 4.5535135493 -49.210429597 -0.018951870529 -1.1578242367 2.3330687693 -2.3330482734 -0.0067938470856 -15.289145265 
6.3467425393 8.1760621676 -0.34551379604 2.2784339044 3.2883513276 -0.74644212842 -0.99330365845 8.2941563719 127.04175967 
0.0036066000692 0.00086871018912 -0.63537842553 -2.1288486141 -0.039440632726 -0.0090805138329 -0.042583748862 -0.038948822223 -0.15494781457 
-0.0036617182151 -0.061937121319 -0.52438119672 -0.0021143613936 0.019732746507 0.45240443282 0.46365008601 -2.75607645 88.592582954 
-0.00037075828081 0.00064501257317 0.057116710698 0.014477126453 0.0017666916175 0.1497317043 -0.053389953854 0.24723743786 0.10303597426 
0.018603976001 0.0045243432655 -10.289881525 -0.0059629977211 -0.028637101522 -0.084678730794 0.020604771042 0.047426995383 0.0022723058766 
1.3116860382 2.0618126409 -1.9224089908 -0.25521445891 -0.87089532084 -0.78543817563 0.18230748995 0.41182809435 0.079668673143 
1.4253448777 2.211091727 2.0687157328 0.95070736294 3.2596163792 0.66835786367 0.11181912162 -0.054389240073 -8.3478790236 
0.79359633918 0.14148275908 -10.317689068 -1.5506421161 -0.71335095605 -22.061219816 1.6464027849 0.29733482065 -13.51020588 
5.9521481429 1.4253510404 -19.419364647 -0.080054319651 -0.019910565754 1.9766873504 -3.5484373391 -0.30601227739 -19.849920147 
-5.8865319182 -1.4047902993 -18.597650284 -0.011676904057 -0.002907401289 -0.17409875096 1.8639161504 -2.2677528764 -2.557650483 
-2.2939374712 1.8776612317 7.4197214864 0.6233474906 -0.97880549604 -0.81738449272 -0.29620732594 0.62717531868 -0.98317719867 
0.24291451659 -3.405587004 2.3080526972 0.57579903838 -0.92506285171 1.6332710953 0.010372690682 0.00079295929429 -0.7862316166 
0.077923301857 -1.5413475025 -1.4895018447 -0.50528746392 0.74905347953 3.6979590947 -0.22839458204 0.23091193926 0.82045697142 
0.3333992816 -0.33939862319 -2.4693536195 0.024526628701 -0.082442138141 0.047177971621 0.10642016679 0.040144541332 -0.61083903825 
-0.10812343549 -0.092233891959 0.38801594508 -1.4968613231 1.1615495011 6.5978876257 1.1035198401 0.97368256424 -4.3873441645 
-1.0773218427 -1.5445048568 3.3607914091 0.010150667563 -0.01247769576 0.36844855992 -0.0024874802201 -0.0096373769712 -0.12463952364 
0.068120084645 0.094794870878 -0.61363676053 0.028073475319 0.043527371206 1.115595748 2.0250173148 -9.2334445344 1.0419961831 
-0.052339936029 -0.14659997757 -0.58011738759 -0.089449760321 0.042325558388 0.57472212658 0.030550440515 0.086130578173 -0.2478508313 
0.15775654094 -0.089139585059 0.042178370126 0.12973865357 -0.068742046172 0.65387191877 -0.012540955637 0.35504028644 -5.3534296751 
4.7889528084 -3.8376045491 8.2784666397 0.57763212013 0.0085456093809 1.8000489601 -12.088586975 -6.207572907 4.6932003287 
0.96573693258 14.207734341 -13.910073431 0.016958534928 2.371684374 -41.440401677 0.043126079548 -1.0813058831 4.9779198747 
-2.1235883714 -0.93311246475 -3.2063841036 0.15957349451 2.3771209529 4.9334112458 16.55267648 -79.258895802 -90.193296523 
0.37938991008 -0.56638011379 0.30297639103 0.13508866611 -0.30501113477 -0.91730297389 0.091643548836 -0.88921567965 -0.80463123149 
-0.16637450089 -0.019615250817 -0.46981283945 -0.86439731131 -0.7624257674 -2.8159954387 -2.9456416904 -2.5424390639 -8.1931614509 
-0.068829189497 -0.073950714746 -0.27411629164 -0.10888578704 0.035084756722 -1.1372082699 0.0028289782924 0.10131451016 2.4081691665 
-0.0025047928476 0.0022348814631 0.11051261473 0.27757902367 0.3782079394 1.3843270417 -0.068975736899 0.092441248429 1.0025209217 
2.2511419497 -8.8330801393 1.990537751 -0.42342069322 -0.015800106686 0.12441864052 -0.21980921679 0.38283059882 1.586892372 
-0.1888025542 -0.017174066836 1.1048227185 -3.099070617 1.1631939167 -0.17041888951 -0.093351865906 0.020437739998 0.30846952719 
0.20732611705 -0.37276048674 -5.3516506556 4.910027211 -4.4846075297 -6.8200125178 -0.56293471911 0.0053996110598 1.6728579303 
-11.996013708 -6.5185756769 -3.7796571305 -0.70049307971 -15.105485573 -15.826317195 1.9252812954 -4.903370768 -41.523551335 
0.29033360574 0.91486150241 5.1170871752 1.4205428048 0.59286533482 -2.3263474517 -0.17873249834 -2.2081198466 4.7564786657 
17.286828135 -84.342872787 90.182506083 -0.79425230655 2.3995865724 111.24409462 -26.754415232 13.172604406 141.42295156 
26.156098855 -7.8807485845 139.14324968 -5.7523933081 1.4590009207 7.9215905359 9.9190346897 -6.0260867463 -35.199020521 
-0.30906027278 0.46692034043 -0.037283818399 18.101235321 -22.897629378 -64.514890786 1.2497469516 17.700268159 -30.141728186 
5.7224570853 -12.405342679 -15.468913747 4.6902780855 3.4646210792 -49.150050651 8.5741155341 -14.810408706 -2.7463940883 
0.021129258433 -0.016972625918 0.36388059607 -20.618631844 93.549860989 24.631554184 -3.9898744033 7.7804633556 -5.9547172147 
8.9077658226 -21.586072309 9.1650350774 -7.6323483773 15.063355078 4.0149656145 -2.2367127665 41.096930333 -8.8413358914 
-6.3768704301 1.8005113478 -9.4029180579 -0.30512189249 -0.3944745467 0.23121935017 7.5273507613 4.1477696412 -38.608242342 
-8.3760015591 -18.493535135 6.2857081152 -4.5595072426 -0.70153907632 30.322456946 -14.092393785 -31.82746775 35.480346743 
2.4858144213 5.161440948 0.85299663964 4.2736200119 5.2662384477 1.2492466668 -0.23125251102 -0.24627300233 -0.97163061869 
-0.778906937 1.6762408074 -5.2125333116 -0.073008952063 0.022405599417 -0.013240180616 -3.2723822149 -1.1202434486 -11.744193601 
5.506312269 7.8423443963 21.127437888 -2.4403413816 -0.98643624689 -7.4833425504 7.6465280973 26.509357271 22.535332808 
-1.381964299 -3.0084195638 0.84878647399 -3.1147091655 -8.1386981169 2.5406344014 -0.43057985148 -0.14411035715 6.6954032887 
2.5532842464 101.20479296 87.63405172 -0.74415421864 -8.2238809252 0.34065662737 0.032836008222 0.34550608857 -1.2263555014 
0.00135051026 0.010207900488 -0.17098444509 0.00092037670761 0.006715453297 -0.025307534904 -0.39681751083 -2.5580034412 0.27909527763 
-0.3053466138 -1.6125804731 0.15518149574 -5.3878607597 -53.804027539 -35.645003541 1.2897266374 13.752440396 17.86750543 
0.036663408881 0.32391548258 1.0912545284 0.032354147377 0.25278294534 -0.22942901338 0.02273927173 0.17385539612 0.53363627641 
0.3441522487 2.3330523155 -1.0811372364 0.056335314025 0.31832944087 0.69409337757 0.0094749582989 -0.0032105571391 0.2383802486 
-0.019362912187 -0.098451188001 0.69905993808 -0.0027754359685 0.011470752429 -0.18593926922 -0.14803941793 0.037491968644 0.081736394548 
0.004124313657 -0.0088914563638 -0.24609810688 -0.0093181127747 -0.57851250505 -0.4515037265 0.0046567251272 -0.0053730078773 -0.11997415557 
-1.1257524046 -16.26437907 4.0926005448 0.13927490672 1.9323070507 -0.64859602258 -0.11665623675 -1.4399770495 0.50992913316 
-0.13707393785 -1.6571330943 -0.11399798691 -0.0016875275259 -0.011786553112 -0.36786056413 -0.14162922303 -1.9986492304 -0.59531736678 
-2.2940498909 62.411305808 -68.594769387 0.4226934748 4.9670479572 -12.471493531 0.43202942311 5.0667353308 3.3849371312 
0.20151633801 2.2399457233 1.0577666887 0.23320657988 2.5107259251 1.3216886798 0.02969365393 0.36302677184 0.36724444366 
0.022606728174 0.42064474298 -1.1359242798 -0.0030443843899 -0.055289317023 -0.66169689202 -0.40417400752 -5.5003708059 0.3316648808 
0.22379730098 2.7197732348 2.6064843752 -0.0001634324054 -0.0021822800428 0.0021681617677 6.271800258e-07 2.006800679e-05 -0.00099909345002 
-0.0072206095202 -0.067396105055 0.47667698572 -2.8985630363e-05 0.0013585792221 -0.16999382621 0.2886990896 6.3028714388 0.69262062442 
2.0732692974 26.482022098 -16.760591842 -0.09602485639 -1.0434742216 -1.8709843645 -0.12551710973 -1.3851333528 -1.3607092972 
-0.083373125414 -0.93538114848 -1.7512928278 -0.089050145297 -1.0556366227 -1.8458266651 0.020597453387 0.3985825512 -0.34453520428 
9.5321351028 27.638408903 76.382841826 21.151917995 60.864472426 104.45049757 -6.1469538972 -57.086914416 33.392179205 
-3.3430855075 -34.973425765 5.3093770047 0.3189298813 2.8049379516 0.54369458882 -0.30335879741 -2.4788724028 -0.22070535705 
-0.00028406740153 -0.0020178730567 0.0051467855933 -0.0081880618092 -0.054134826427 0.44006573951 -0.00030027292238 -0.0012918861436 0.026259538365 
0.98574632449 13.434679962 1.5302923779 2.0625328469 17.791810828 21.285536142 0.047945572102 0.41104305114 0.58136356019 
-0.063996739499 -0.51020119145 1.3871486329 0.26021493045 1.9027625999 0.80191696738 -0.16721880358 -1.0774979304 2.4977554293 
0.072308352335 0.40129733871 0.32806246896 -3.4827818334e-05 0.00028942099905 0.017308168011 -0.011837961311 -0.082966561052 0.6350808238 
0.010395421878 -0.015184754635 0.29901593368 0.0057949386731 -0.0017873248606 -0.02439338047 0.00026294951787 -0.0036314068098 0.0061322783773 
-0.016025511278 -0.21840702142 -1.0236072565 0.0051220690022 -0.07365585649 -0.38059296598 0.050700194202 -0.22986427086 -5.001073574 
0.016258596385 -0.041813020193 -0.64253331148 0.37219477889 -0.033270508161 -0.06588803034 -0.035612482293 0.11416724165 0.13151519348 
0.016580444145 0.0015226039239 -5.9905280199 1.2571004829 1.1560038291 -7.6635861522 -1.2461750095 -1.1675750842 -7.6677845849 
0.15223156132 0.31826340314 -0.30526106942 -0.24581169687 -0.51341206072 -1.1626245376 -0.072797670223 -0.25645578598 -0.21490727808 
0.33570905684 0.7796763527 0.50880460451 -0.051881571891 -0.028463136293 -5.3148534314 0.053958562586 0.027468286976 -13.838133209 
-1.6885053156 -0.42178418948 -12.608987578 1.7166291909 0.44573858296 -12.479829868 1.4089016494 0.55425317723 -14.160563733 
-2.4383599937 -0.58118221928 -17.40431474 0.76017854067 0.18942557823 20.849154284 0.10534772156 1.2680897943 32.297172459 
0.3411157405 -0.091941074558 -8.5564101109 0.043310866724 -1.6174711072 23.350485438 -0.70649037566 -0.0022702638356 -11.298848553 
-0.74463353223 -0.25692676596 -16.603663284 0.32087325741 -0.47949273433 -0.33386218813 0.046650769002 -0.1159457259 0.59248237143 
0.74105917108 -8.0284623143 -0.18427263042 0.73105562046 -6.933547016 0.57256675358 0.24679499848 -0.54058837181 1.5191525461 
0.0041743644761 -0.011587754039 0.062138814201 -1.1588542958 1.5756425928 0.61337776828 -3.0859097852 3.8131558418 0.5558825106 
-0.11816826913 0.22647388767 0.077958374223 -2.0844643677 3.0268349164 -0.80022299962 0.7632218479 -1.1824164132 1.938845372 
1.0317323341 -1.784298873 2.3044427974 -1.1208854271 1.843292691 4.7598680231 -0.0072202723686 0.007864447504 0.93327277425 
0.005409704076 -0.0033925198401 -0.61895098411 0.0057059702178 -0.0094413714377 0.21470834724 0.042950629799 -0.14611584567 0.087047376713 
0.17223741873 1.0032191955 -9.9958119649 -0.19660394122 -1.6108466109 -15.391838683 0.0001540625795 -2.5419701489e-05 -0.0085471471174 
0.60105507396 -2.552332388 -1.5586772013 0.0015217154416 0.031564627008 -2.0154219966 -13.280733312 2.4905163705 -28.18740816 
1.7327750953 4.5292324654 -1.5123355372 0.010824029507 0.0056556925757 0.33359115365 -0.19929133861 -0.23063120089 -4.4151606551 
-0.052130241438 -0.10552231384 -1.3677691097 -0.0086987028771 -0.16015170609 -2.9042773441 0.0013237581647 -0.0036812490825 0.14374285632 
-0.059595880215 0.22736303093 -3.3210789031 0.0045514063346 -0.053973708544 2.9440874555 0.47274275211 0.52755790002 -3.6570887847 
0.017448165469 -0.013747876547 1.9413639564 0.03508691365 -0.10044241734 0.74863311139 0.0053902286558 -0.046587297738 -1.6783964397 
1.8038572346 2.0057290174 -14.641148197 0.0072672849668 0.1355463337 -1.3868559182 0.34345544932 -1.218282413 12.529801642 
-0.11549172859 -0.3748163352 13.491504727 -2.3654493 9.5061315053 -1.5025018811 0.6128259268 1.2423644041 -11.460063296 
-0.29559167781 -1.0681042479 13.33139322 -1.4490294401 3.4645658128 -7.2519511763 0.040778644051 -0.036062912098 -2.5256033588 
0.019859584911 -0.0095170256578 -1.4191368952 -0.63361647897 1.3517158079 -0.1114564993 1.4669778435 -3.2193855807 0.50593042929 
-0.013526511169 -0.091989448232 -4.900185577 -1.1773057718 -2.7259812666 -11.355990441 -1.1572209942 -1.3849424923 -11.574877533 
3.4779885292 -15.489298346 3.0757015234 -2.504030147 -10.443724215 14.206077115 0.58256223062 -0.72412909739 20.588661573 
0.024949943632 0.02788669188 0.42742618565 -0.48505546123 -0.52266800768 -3.848657766 -0.009503696237 -0.032355656183 0.90544860907 
0.33536300834 -0.028652192996 3.3062594562 0.0094048208715 0.013105090605 0.13712987582 -0.060505695401 0.014072303199 0.67846125916 
0.035147741448 -0.12832401597 -0.70850627655 -5.8236150925 -10.290175045 -2.8074605181 0.19597930628 -0.2397507807 0.26230386664 
53.251628625 -75.151758627 -8.7781810815 5.5610796465 -11.412753342 1.3466580495 0.36568659003 -0.22222185624 1.4640344153 
6.5794485728 2.8847485195 -14.623623617 -2.1367322423 -1.7306340901 -17.010217022 5.2056831684 4.0135888442 28.065035182 
-0.40080366659 -1.5590672045 -9.7043192345 -0.24253724252 -1.6399773545 -7.4879828784 -0.0020372607371 -0.0048258766904 -0.38302725099 
0.020453292283 0.025032520402 -1.6049218571 0.00043431581911 -0.019331689502 0.23800028363 -0.010622315467 -0.00529409159 -0.19768989186 
-0.19620054695 0.20722639362 -0.55536989335 0.10575734373 -0.074923418893 2.0891969977 4.5031386518 -14.030121934 -2.3521870752 
-0.30530769692 0.70491074367 -5.5943228473 0.018626211594 -0.044735339824 2.3518795331 0.59856614025 0.45016741264 4.4102572206 
-0.20397076465 -0.35946482954 -3.7397618426 -1.5304427617 -17.252075804 2.6045642755 0.00063667451012 -0.00020004110587 0.25350840095 
-0.22585759815 -0.47611276882 -3.5242362103 -0.33423540394 -0.26535139495 -4.1598976009 -0.28853861922 -0.16573752913 1.6618924382 
-0.016690664309 0.033926835454 1.8790305278 -0.046724574828 -0.22176321399 3.6854426165 -0.11586101875 0.066696147949 2.1147830563 
-0.079007905213 -0.92790892255 9.3101634923 -1.2173540517 -20.94488955 5.2272924394 -0.0013003612091 -0.0020285925115 -0.23046990216 
-0.12403087635 0.12920895232 5.5363954574 9.1853800971e-05 0.0062913468097 0.67709676539 0.072952785282 0.0166497476 -3.2521639315 
0.031728993596 -0.0014934606564 -0.92556785006 0.018031438098 -0.037076984183 -1.2510584507 -0.0061222191939 0.015695192014 3.1072663633 
0.10018556633 -0.035314501717 -4.0671898476 0.0065265646523 -0.0051816351487 -0.51739254243 0.043299864769 0.00059758521541 -0.89179984413 
0.001082537902 -0.0052904454103 0.74396335985 -0.21938365028 0.052686046193 4.6655123219 0.17426465106 0.4064218483 1.7203396571 
-0.031656144977 -0.007028403961 1.2633855281 0.002597565681 -0.0025114369116 0.46580391306 -0.0011490207532 0.0020065181955 -0.13979308695 
0.020728017246 -0.04393489377 -0.5880195718 0.025767941168 -0.046498827026 -0.13963400789 -0.12330594658 -0.68510741346 -4.6454446691 
0.81073042501 2.3092452901 -11.286834396 0.023605069398 0.0085790859973 1.314156901 0.27950215053 -0.96434183952 0.081287570869 
0.021473393983 -0.027155417122 -0.82129537731 7.6114692917 0.36108508351 -32.88247666 -1.0193693253 -2.898951535 -2.4167991134 
0.063147885027 0.034727819189 -1.8458136931 -0.061678233511 0.20568372557 -4.8511997414 -0.0046734229222 -0.0087185638386 0.081402262129 
0.04626852078 0.13596141034 -1.7476243327 0.012302901668 -0.018096070062 -1.0609596514 0.031899170035 -0.11950477308 -4.0188303081 
-0.034819177258 0.016177146962 2.8240971555 -1.2573133317 -1.2405407516 -6.1868684558 -0.048751087955 0.12979172415 -1.9072287113 
0.0015113435846 0.026125510893 0.62252338542 -0.45729275875 -0.68542720774 -4.0813591119 0.0049818761213 0.020626492989 0.13624209095 
-1.3788461935 -1.4898288551 -12.902519495 -0.10376398305 0.29182558065 2.6465204174 0.0034128630879 -1.3636312575 15.279929495 
0.011160139922 -2.7197556559 -11.985914586 -4.9474722278 16.957592249 4.9040277034 0.88640881054 -0.39850093136 13.548713754 
0.13852020257 -0.3656330434 -0.97494145979 0.35158067831 -0.6698946275 -3.8612355684 0.006871126492 -0.022726288721 -0.50017049404 
0.64496140704 -1.6057787526 0.029216810125 0.06588494015 -0.1298490239 -0.14395077804 -0.11468616832 0.58465114971 -4.3107247281 
0.015458604505 -0.039046728085 -0.26092697259 -0.24972785033 0.11066926413 4.5958696258 1.3588543559 10.057853692 13.28616166 
1.8027396258 -12.480414317 -1.9526557056 0.41136360046 1.4741946539 11.860212137 0.044113541194 0.09611614055 -0.39784210198 
0.10547901794 0.024635342868 -4.3057190171 -0.09277675664 -0.35939475921 3.6313678134 -0.088674091895 0.10967277643 -1.6469851225 
0.063225636 -0.21406163647 2.9620841717 0.048419023842 0.24307448914 -1.277432192 -0.13016903078 -0.00052231124836 -0.98846047776 
-9.1224429803 -15.902699115 -1.51995226 -0.46263395406 0.40522846057 0.67142641733 1.9299940806 -4.1508223679 -0.49954366367 
57.46002661 -80.523966411 9.635139943 -4.7576891019 -3.5758408897 -14.882271544 0.16084711404 -0.083669457721 -0.65294954875 
5.706621038 2.7834563769 -30.671190452 2.3259978665 1.617869247 -18.305981033 0.27800464652 0.65046737473 -6.9234260548 
-0.57756267758 -1.607559884 5.7651700098 0.01152680818 -0.02365767731 -1.5547753377 0.0075708119787 0.027211950326 -1.032203159 
0.0013339102226 0.0037318594799 0.11680631016 0.68751116933 -0.662505641 -3.212551081 0.003475894789 0.0076173807345 -0.43060193363 
0.0040420830864 -0.003151041196 -0.10685566694 0.14566140207 -0.20250252932 -5.5260806236 3.6210926111 -11.889895993 2.8055467037 
-0.5288315529 -0.37545422621 3.8770643178 -0.22010131219 -0.095121521322 1.9174698144 -1.2941835835 -13.526676827 -2.2521725744 
0.1556472216 0.31692257433 -3.4127383135 -0.01823767473 -0.023584524302 0.42535939225 0.3586228299 0.29471754035 -4.7953412658 
0.13115637329 0.24547630313 -1.7341945022 0.059083707066 0.037708547667 -1.901713219 0.36997689485 0.29053838674 2.6035866769 
0.010779595744 0.11443900298 2.3489473715 0.11603922343 -0.11031816353 1.3019112495 0.12048854331 0.4491118304 7.2775859279 
0.82976851804 -18.812294031 -10.019936603 -0.0027885295794 -0.053627622598 1.4872330826 0.019515279898 -0.069945487071 1.3789823037 
0.00054700493507 0.0022264587762 0.33377627464 -0.0010368684261 -0.0098818464723 -1.8362623803 0.030147814222 0.0077829783567 2.8510531336 
0.009139805137 0.10751650878 3.3438101154 0.0227190889 0.055914627124 1.6236648869 -0.0024625509013 -0.0016708428958 -0.51762507414 
0.0053561219693 0.0038661680539 0.30685502448 -0.016243065494 0.0049217876904 -0.30810384364 -0.003088719125 -0.00038043673976 0.14561090472 
-0.0074998691561 0.014648279184 -0.33717256503 -0.047542325663 -0.076018772095 1.4806456102 0.02741994771 0.060611165826 -0.18533803418 
-0.10510192407 -0.31031114786 -18.893387703 0.093267675543 -0.05272593493 -6.651040716 1.4731138163 -1.5700838378 14.481875617 
1.0607868469 18.401975731 -8.684384933 -2.3476948993 3.0775332167 -14.727550619 -3.5082563515 5.4436775016 -109.06520801 
3.0932493683 2.9700160605 -87.776783408 0.27115151815 -0.29039195019 0.2370965367 -3.8544920097 -1.1180861105 -85.129461376 
0.076155115805 -0.086602076524 -0.044380086509 0.15101662811 4.7007076856 -4.3449225847 -16.020486499 29.600359929 206.7212573 
1.8771154417 -5.7257187755 227.42464618 17.277933571 -36.426126228 205.96296048 -0.47747079429 -8.8023987555 -6.1968467777 
4.4941595203 -3.7970551947 12.073640747 -7.9353255588 3.4540108275 -5.7292550254 0.38711772012 -0.30420408639 7.7847627295 
0.4414733556 0.018874891975 1.3548978385 0.76126928143 0.79196031904 -11.282965062 -0.69631463564 -0.53111592776 8.8033383815 
7.6156055941 2.095842587 -12.28896905 0.46792082044 1.0787287205 1.2844809615 0.36667848524 -0.038478445785 -18.700265283 
0.052534515034 0.063915676736 3.9900285618 -8.0561886929 2.9242698238 5.8179106141 -3.5852112455 3.3323499666 11.669376765 
-0.43117087967 -0.77243949182 -10.393926547 -0.54151114077 -0.034428323137 1.3355186102 0.26795492522 0.61053376484 -0.81573621742 
10.265116229 3.7622545662 8.7754877274 -4.2733168451 8.2070059475 -4.6741594219 1.754342485 -2.8367087625 -0.29681125209 
-3.7833672926 13.228901366 -1.5635131882 -15.903072547 33.039027547 -30.971901566 -5.5195112561 10.720379846 29.063467949 
0.36521612196 -1.7281853327 -0.65649589258 -2.7495816449 4.5747236768 2.0678648694 -5.4116000274 11.487338424 0.87119091941 
3.5942499066 -14.790411045 -0.36941791983 -17.98700306 -1.0354551441 21.231903384 6.9310018392 4.8638499977 -14.748312915 
2.9451288169 6.4866229353 3.3163036259 0.31378285918 0.68848798622 0.076674956353 0.010191469557 0.15562429271 0.037929652752 
-1.1941483825 -2.0659322062 -0.83768900463 -0.042920828598 -3.5214145755 0.12135815087 0.01139676522 -0.061659688292 -1.0587531418 
1.3365327865 1.8912119173 -0.1458677361 1.2967628709 1.760064828 -0.42223939546 0.23381352069 0.46384500783 -0.74781044577 
3.4687192181 -10.18788457 1.6402346385 1.5826442081 -5.1480099809 -0.16544977018 -0.0059348794248 0.020402840824 -0.5084051306 
-0.85007036626 -1.0071931351 -2.4258942334 0.020231832644 -0.21099320649 -0.80172973631 5.5154080526 8.8341391418 0.34460920106 
-0.011945102146 -0.024124098464 -0.024206828474 -0.096110282498 -0.28313136701 -1.3134451216 0.33122964252 0.89542632375 0.91471788957 
-0.26759928062 -0.60672383434 0.54196186552 0.002178055896 0.13413846806 1.2107507574 0.040550850052 0.032282512243 -0.46727826376 
0.4187502307 1.5665657246 -1.4818859044 0.13583070001 -0.15149023217 -0.90170727003 -1.436503224 -0.018748553801 0.9776219377 
0.0023758511772 -0.0062076161582 0.21894810102 -0.80395119528 -2.5267246277 0.29497352848 -0.94156261292 -0.71762727087 0.50271367613 
-0.096622674388 -0.044497643705 -0.21283922294 0.27222495831 0.1155876936 -0.015832676475 -0.087781513424 0.018870623003 -0.42208961646 
0.31016297006 0.71391715806 -39.874082353 0.6568486644 4.7337676309 -22.091016908 -3.7176804068 -3.5926160535 -2.0417737642 
0.066611345583 0.022489178053 -0.11975856314 -0.25789277124 -4.2064979639 -20.793264847 4.0484504796 3.1508923534 -2.183126096 
-1.5333182789 -1.0172765523 0.6338615228 4.0132214395 -1.2003250296 5.1632637519 1.6009460436 2.9757917209 -0.92714457759 
-7.2078971308 -0.51536380359 -13.020003292 0.1869696905 0.46866241926 -0.0058660993765 -0.068978829087 -4.9118267789 1.0801796292 
-1.2677847755 4.6742954578 -2.405062094 20.958059175 -162.62174322 -1.6678403823 -0.78413927516 0.2227094705 3.165793643 
-0.00051251327758 0.0012863882712 -0.030141363408 -0.0012970082888 -0.0030945429111 0.088153951792 -0.027689639736 0.0054701407261 0.98355745076 
-0.0090068972669 0.0075523744871 -1.8761424524 0.089860522555 0.0051190632999 2.0875803055 0.81253251755 0.88638590075 -5.9459218239 
2.404225426 -94.416873065 23.552421288 0.00060043401486 0.0015961106234 -0.13163072632 -0.01969334925 0.018625644608 0.30813617887 
2.983322154 -17.708919307 -51.973493858 6.1419591574 -41.879479217 42.574671674 2.0414603202 -2.3027123969 7.2643006896 
-15.505131739 -74.337443196 -37.797036747 16.563668343 -97.29863073 -26.730098238 -4.9420658313 -6.7115910669 -13.277086433 
-0.27625656185 -67.581388577 -17.152981264 7.1883271558 -29.041029208 -1.3805817981 18.213859404 -60.551276562 0.10320834279 
4.5621744033 78.038280892 -73.716059798 1.891809381 -13.017240826 32.314816611 0.61279520463 49.483734989 -9.8310381114 
-1.9482803699 -23.747252174 23.446302469 64.901890794 -21.065853248 25.958032584 9.5503976142 25.862272045 -36.167131328 
-3.7330354859 30.814652414 94.999459873 -18.061675276 -117.99806262 8.6903592059 -2.6178515023 -35.286475964 38.93157397 
7.7927103283 39.147045011 92.350450687 -1.4707077288 38.868173464 57.849948378 0.0017142267238 0.034419272979 -0.24816724991 
-0.0051724692711 -0.16790088519 -1.103041178 0.10687469178 0.1864636817 3.4112067 0.068699528031 0.22856784764 -4.0594868806 
-0.0023481066186 0.2833028853 1.3511095094 0.016587075818 -0.081382339187 1.5537610179 -0.092936903642 -0.15108338777 -4.6370961571 
0.0036476640205 -0.0045738914219 -0.029969968671 0.42697738079 -0.27946795167 -0.18993765221 -0.010327381617 0.023864847243 -0.98117696209 
0.021097151284 0.14948206683 1.9548555857 0.06304904173 -0.11636482388 -2.6055435457 -0.014089167497 0.24524090521 -2.6352624467 
-4.0814396679 -35.772956761 33.827898191 -0.0067830707293 0.020503174166 0.15670912445 -0.94654798264 -6.9756898166 0.84811643917 
-0.33304818379 -2.5118925024 -5.2119026286 0.55866652988 2.0274359735 -7.3196451111 0.0095328432358 -0.33974564081 4.6371327894 
-0.20737003872 -1.4319391765 5.3738540569 0.078804835163 0.61790949392 -2.8226514392 0.03760466054 -0.4053204797 -1.8993244653 
0.15503816757 3.5912413267 6.3496841749 -0.066879861375 -1.4207444251 -0.84584026459 0.91158686586 5.1016618192 -3.7600944737 
-0.061004232668 -0.25651746563 -4.0472326021 0.0042775255555 0.037309384647 -0.27250973537 0.005544742393 -0.10927927071 1.9181614406 
-0.25853157484 -4.7019050652 -0.5476527593 -0.61187966357 -2.9819277011 0.14280228754 -0.16217488185 -0.59406625652 -4.6256336237 
0.00051458388327 0.0033180257689 -0.028600044127 -0.23820825055 -5.198114867 -1.5860169659 0.0057087042765 -0.10432929233 2.2853687139 
-0.89021639397 -3.2977991198 0.98509444215 -0.017010182588 -0.017804556082 -2.0496110589 0.042355862748 -0.11273015646 -1.4573809931 
-0.10974802355 -4.9771408366 -1.6464164209 0.045609881108 -0.53473895036 4.1001286654 -0.094120809139 -0.04568532747 1.5367259898 
0.085519650261 -4.2325274524 -0.77772749638 -0.99432039992 -20.906706096 -15.374043083 -2.5179370476 -32.057810334 1.3627793923 
0.00035179250081 0.034051406527 -0.21128185127 -0.006177919501 0.0023008080804 -0.41087966557 -0.75516848369 -8.6183041823 -10.115223396 
-0.0050897450361 -0.066363749239 0.19054964591 0.073820823169 0.96681102833 -1.1233354196 -0.12663293383 -1.5145925443 0.96270217301 
-0.04630874369 -0.49717541338 -0.099567384166 0.047474032098 0.64033527555 -0.98665898721 -0.019771371726 -0.215546508 0.018448283162 
0.095053872835 1.2270046574 -1.1625702875 -0.062203099559 -0.72478895612 -1.0586121562 0.12119610895 0.32000949753 -0.49184036456 
9.7570797029 -54.404562993 -6.8838137601 -2.4677924963 -12.748715704 4.7612498189 -0.00031633454422 2.8572249534e-05 -0.040823991037 
-0.0028887250615 -0.014172900559 0.35769055528 0.012156179892 -0.0053231397816 0.92040500591 -0.044869887117 -0.0082768900911 -1.364162674 
0.00012474779561 -0.0017615206913 0.15043943862 0.0028921035612 0.34756236075 1.9805459041 -3.8007747516 -20.730291103 -3.3653882456 
7.7816509547e-05 -2.1440237911e-05 0.0071345777989 0.023944345612 -0.031852389605 -0.57900234263 -8.1941564607 31.487712232 -56.620687811 
2.4168044733 -65.157904003 -20.629902405 0.83276330736 -5.0722168604 -26.127336806 -0.74523049929 -7.5990825261 6.8048385707 
-0.092665325139 2.7283879219 7.4833199951 6.4655704313 -63.977620391 -52.161234846 -2.3169489773 -38.4873961 -3.0905112596 
5.1347571671 -52.920087348 -3.6072046013 0.10126897753 -0.94290090696 -10.8641452 0.59402622398 14.942673688 17.027427242 
8.4833464513 -56.956041514 32.04459586 -11.265931744 -75.583470725 13.054737483 -0.1563318369 0.23499789557 -4.9324088919 
-1.4113250163 23.508083595 22.947903632 7.7364927692 71.330991772 140.14321565 0.32901402297 0.81661980905 0.76521328198 
-0.090950534029 0.55601502631 -0.22814107885 6.020554195e-05 0.0011562392853 -0.027012454102 0.0012388779092 3.8261023223e-05 -0.080866924636 
0.0025768702718 0.0033990501714 -0.11218552104 -0.00081197176701 0.0037930364537 -0.35585272873 0.023490049815 -0.032103102586 0.49071726 
-7.4034722276 -26.679588974 7.9553377416 4.3898111981 41.473019882 -12.076683666 -1.6014075982 -21.399023883 64.308330416 
-1.5434678175 -18.958709452 3.1809684347 16.61488227 -115.28000749 106.72878418 -0.0038033776374 -0.0075122308503 -0.24048798106 
0.0040533202757 0.016759336724 -0.2157555297 0.0026955573586 -0.0036489317094 -0.07303619619 0.0094096515832 -0.008982460035 0.075679535954 
0.16832921828 -0.090744250857 -1.9179124186 0.005965645381 -0.011694134768 0.68620871166 -8.3913540061 -63.212894122 -33.131051401 
-0.11694076173 -2.063764549 0.04580013122 -0.040544726997 -6.3437184486 6.525727913 -0.5664011539 1.2195460283 -1.4680028516 
1.2063315468 6.0075908357 15.711352009 -0.25298951757 -6.1152928603 0.025479869483 0.00014434922063 0.0028352455962 0.021043149105 
9.6833207473e-05 0.00082225414706 -0.12157428595 -0.016564278852 -0.18314612338 -1.3876849561 -0.02875667186 -0.22356834813 -0.13718492197 
-0.23112052119 -6.0971288212 2.173818021 0.0017820739073 0.77469504376 3.6599841608 0.052136084128 0.33712939382 -2.8121853349 
-0.039702651076 0.084648881473 -1.2064572739 -0.95757086224 -6.0332794798 -1.0956352742 -0.14512424648 -4.9753557998 0.29061315377 
0.042016322479 1.1586683699 2.8455641994 -0.63653001207 -3.6567550982 -0.26557262815 -0.0035162109917 -0.026163583909 0.20205087594 
-0.01680739949 -0.1629989551 -1.9958830693 0.025109115408 -0.12100912422 -4.8519103095 -0.010110900782 0.0913022303 3.0719167775 
0.77291289599 3.6033090752 4.4584636036 9.0933397363e-05 0.012933035902 0.11523663732 0.20607464069 0.87123999289 -3.4082889407 
-0.033491100408 -0.10423419463 1.0867556309 -0.753616099 -3.0447796655 -0.071249356674 -0.00052590375008 0.089027687543 0.71092339857 
2.8058247399 5.4884793881 -4.41315532 1.9288182715 3.3399009572 -21.435788522 -2.1226712011 -16.994248627 17.759910765 
-2.9815201488 -32.249690783 16.96771606 -2.0468341791 -25.427485069 10.443300919 0.022780665936 0.11938129809 0.72205553887 
0.030070512491 0.17101733145 0.18322659442 0.12732961873 1.1757285284 -0.64711580751 -0.39999844797 -4.9077528488 9.2257467018 
-0.017143113526 -0.11693022949 0.42349919067 -0.011508730739 -0.11215543809 0.41119674343 -0.0080361498356 -0.059196539393 0.31449141389 
0.018514947929 0.088435102924 0.7332704247 -0.052447699012 -0.39380570729 0.12915747363 -0.0016356753175 -0.011679573972 0.023508881724 
0.0098575379062 0.066550102394 -0.013847919955 -0.0059222124552 0.047284416598 -0.96469556711 -0.025125758773 0.0069911494595 -0.27524225955 
-0.0043167883369 -0.0056028770666 -0.10403214601 -0.26551946998 0.064675815545 -0.10307713805 -0.0028951982556 0.00093053289229 0.26931125101 
0.0050419882142 0.066008302353 -0.22030333263 0.016191309991 0.019769348494 0.81486740813 0.28515974707 -0.095804002244 -1.1640573082 
-0.12843153045 -0.00044048776747 0.31939428065 0.00015791933485 0.0036886439854 0.37128148958 1.7547037735e-05 -0.00014014390178 0.24434501795 
0.0008113405841 0.00025053395941 0.23567600838 -0.023637437349 -0.025347075826 1.5453550041 -0.00019603319451 -0.0018617993325 -0.030930115844 
0.028685990373 0.091207733989 -2.2072041356 0.3298169345 0.22678602342 -1.5401467359 0.012777636827 -0.011098583286 -1.5065916989 
-0.01714998861 -0.024656710334 0.84789702921 -0.0018209014414 0.0025937492715 -0.28071370589 -0.80777206286 -0.49989990973 -3.5879177653 
0.0023804817316 -0.0035891185781 0.46260926593 0.053824713353 -0.078602107643 -2.8546828371 -0.0029405480925 0.001457347624 -0.3585517271 
0.012801236257 0.012662166507 1.3395718857 0.42093255386 0.75565888593 0.25396998594 -0.049919454623 0.014175383581 -1.8113648581 
-0.17756457413 0.67343623255 -8.8212454763 0.00023763029906 0.00024973340333 -0.01646930298 0.37186446872 0.7021528856 3.0976825805 
-0.61322622114 -0.95573804375 2.7448791154 0.0073024187513 0.036767663614 -2.7467786392 0.015291065741 0.05757448586 -1.3677809817 
-0.066077142763 0.014492146921 -2.2437285261 0.28512009578 0.14125807261 -1.9447434677 -1.2072038396 -0.41066551724 5.4326063275 
0.1220770803 -0.39532129195 9.154034798 0.13293222176 0.12717446276 2.3272846718 0.21807934593 0.10226490205 3.5798484446 
-0.030288410928 0.76270824761 4.0258962543 -0.083256909611 -0.054851124718 1.5484599739 0.00043197918515 0.0044026306963 0.33013283442 
0.025030919025 -0.045958644063 -3.7146782708 1.3745269795 3.2262679243 -2.7377369186 0.97370259231 5.4271415559 -5.6365878102 
-0.22717978403 -0.63918700378 7.6488599179 0.073515625671 0.92336625607 2.0540593583 -0.035264571024 -0.13937640483 -0.67906537506 
-0.83323068886 -18.127298711 -0.32654813506 1.0630437399 -1.2538199026 34.855271462 -1.8786815698 -1.0841963 -11.749404286 
-0.062142672437 0.76950498102 -15.122394442 -0.016743311178 0.012549246593 -1.0950749689 0.10571927653 -0.11069112014 -4.83971959 
-0.08187066506 0.076465569965 -3.7208859628 0.0051565537594 0.053201897064 -2.3184609834 -0.0044111696194 -0.00031585027484 -1.1633780949 
-3.0737367026e-05 7.1891823468e-05 0.047578974061 0.79752688209 4.4039779475 38.728592197 0.94272274341 -2.6650672704 3.9345220275 
0.6108869493 0.97373395916 -9.9285445399 0.0089277956734 -0.019085374425 -1.980627275 -0.75329617086 -1.9948982309 1.6337948476 
-1.0251036151 -1.2510259751 -6.5836336562 -0.0011875814021 0.02830702082 -1.2291543224 0.61382888031 2.7470831064 6.7077440436 
0.060590990925 0.31574436425 -6.0714207209 0.013736941579 -0.024026882747 -0.71557548122 -0.0042341567131 -0.017586000587 -1.2965373385 
0.46157947501 0.028464815383 2.4580825546 -0.8277508005 -1.3909534918 -11.736284917 -0.00035385907123 -0.00022859028915 0.17445500979 
0.0002776909128 0.016728082993 0.53009994802 -0.41439322085 -0.73998800917 -8.5508566611 0.85815429884 0.86982768874 -8.1707054483 
-0.035861303617 0.19609786985 -1.7015833335 0.1956546829 -0.7467653949 -0.82098785989 1.1099383117 -3.0091190451 1.1046049552 
1.4102220582 -4.0826859781 -0.39661086206 0.65150497864 -0.94811508687 6.1952826438 0.18042961858 21.03686024 1.0679467509 
-0.18371476955 -0.4467812067 -5.1238769694 0.12577739978 0.32755991252 -6.5766314328 -0.015245173724 0.049275363678 0.050826857433 
0.10346527719 -0.1352571086 -1.0641080396 0.0010832138679 0.010246837182 0.70413830649 0.013160638367 -0.043753928326 -2.9679390816 
-0.0037253394113 -0.0050252124736 1.1027019079 0.070408649829 -0.096870319001 2.9729736102 10.979904963 -37.758347987 5.7073721058 
0.98269001145 -1.1433879458 4.3811276967 -0.19123757861 0.0026667371351 -3.0733783663 0.0076660630132 -0.0081720321343 0.11133011389 
-0.083150859165 0.12625287829 0.99547765069 -0.0036004398208 -0.028330666981 0.79948043647 -0.00026045990184 0.042535924898 -2.7951495378 
0.0048376718759 -0.027648362075 -3.3150016 -0.1329566893 0.10080827371 -5.3920326541 0.00077437307148 0.004356062337 -0.47514807405 
-0.62769137826 -0.69234201809 12.227925195 -0.17674922274 0.13065787595 -0.94731884324 -0.16438538449 -0.10493586253 2.1240999957 
0.74241006429 2.6936230366 -5.6135222574 -10.323596061 -22.486197318 -6.6676048304 -0.015395343735 -0.087695957739 -1.4354882296 
7.2659513269 -29.211142282 -3.9743003977 0.67368954255 -0.26442739485 -14.488578955 -0.00017623339255 0.0029244265146 -0.034168954152 
-0.0097813901235 -0.0028161662886 0.52490861845 -0.032231472089 -0.086124792158 -0.71021938227 -0.0020412776646 -0.0036733550824 -1.2738049736 
-0.53786625766 -0.77660129274 16.71249595 -1.1104585607 -3.9171803067 -8.0098286942 0.0023222470975 -0.018677045276 1.1012708802 
-0.012880281916 0.021260871458 0.95297597431 59.798663552 -63.84167632 -2.4885420485 59.774566735 -59.451219616 -1.9898862343 
4.2984520121 -13.662480673 3.360486625 3.6724728711 -24.260625339 5.5543752581 2.3535334921 -24.979623843 6.6324462276 
-0.0023719325101 -0.021136785468 -1.1419348067 0.03583728283 -0.010295944853 1.5641033008 0.75272316878 -1.6309383372 0.34053981077 
0.71091707025 -1.2708095594 3.5185044144 -1.1404784563 -1.4859233755 -3.3746748535 -0.011938559213 -0.028296322347 -0.97996958087 
-0.0022300068341 -0.096583354724 -0.8493426976 -0.005437094223 -0.055828163331 0.9787440956 -0.46323927081 -1.0085765559 -5.0864515195 
-0.62053943871 1.3244340661 -0.28172311116 -0.049392446675 0.79128905773 -18.838098651 0.12289492211 -0.55093751479 15.376012851 
-0.70229008204 1.5118759162 -7.4848951444 -0.11891827763 -0.6478183276 -18.28890824 0.012690579916 -0.020177355129 -1.1295107789 
-0.30828154187 6.4655266541 10.500008158 0.0032095098317 -0.0072456533806 -1.5086904215 0.058077801259 0.11851155386 1.4524723607 
-0.00081469049674 0.0014291552437 -0.075920438934 0.81208853721 4.6310811441 -0.041326583607 0.0026063053727 0.020624411618 -1.3273868681 
0.0022353204714 -0.02087149367 0.62208787371 -0.80616997835 -4.0025895037 -0.36730805937 -0.024754317924 -0.17487210893 -2.2150988501 
-0.0067553356076 0.0031744961419 -0.22192557012 0.016776916535 -0.023067952421 -2.026960396 -0.0015515272114 -0.21622814925 2.6820989589 
0.11581624569 0.42033162511 20.026860163 0.23628611322 -0.39537911748 -2.4944668257 -0.0056324458292 -0.089230686798 -5.0009935823 
-0.79512229779 -5.2446342456 -0.28784454734 -0.00096226398563 -0.0052846914534 0.6309947318 0.0034052461015 -0.0036586383381 -0.02355898031 
-0.32099519392 -5.4652695726 1.2066054223 0.13272690999 4.2671483256 5.9257657391 -0.013892668507 -0.0006172278768 -0.23295054823 
0.019776358715 -4.872027641 0.013004660711 0.00056085868635 -0.1766483547 1.8513979002 -0.11751775045 -4.9470954879 1.6884024173 
0.0061240496 -0.13378914349 1.6592342207 -0.20491424993 -5.0933971879 0.3896494176 0.0043883248557 -0.061348675819 2.1722652326 
0.0035643388866 0.0026010950505 2.1984550077 -0.29792736507 -6.9230986923 -0.15971331081 0.94430484787 3.5872478643 1.9397662418 
-0.021194500052 -0.054984161729 -0.99834061825 3.7032192212 -11.247216582 -0.51588137881 0.23804800141 -0.84932260152 -16.146876326 
-1.7422794015 -10.246211871 20.02758882 -0.63319765164 -4.8749170925 1.3999094591 -0.52623143077 -1.2958836797 3.8897715795 
0.52902910464 -11.191863809 -19.940454082 -10.936680339 53.755476433 0.63210842822 14.407244409 -31.842297015 -1.9809105344 
-0.65682287007 1.3850612457 -0.5346654296 -0.01757634982 0.021341302985 -0.75649580038 0.0051083066094 -0.0066738904269 -0.17677184499 
0.0054324769846 -0.0045279644944 -0.075875155907 -0.090022536472 -0.07341038544 -4.1899264898 0.080705427223 0.059751977543 -3.2901015832 
0.054627120514 0.035471451069 -10.230876927 0.1950024815 0.23718338527 -0.71780226483 1.6146268669 -4.9964334316 -18.148582747 
1.3549800296 -0.12109816045 -29.549216667 -0.036060407766 -0.018027993831 2.5411735376 0.0086364345098 0.052117440358 -1.41186613 
0.059728879625 0.018321518043 -2.124723952 0.41068213463 0.3701460163 5.6357240647 -0.68516573061 -0.24425248411 5.8254731788 
3.7784230585 -8.7824103824 -1.7842752456 7.642771576 -29.712416037 -10.982823682 0.056497415509 0.032927611628 -19.52586849 
-0.0064570842612 -0.021521924881 0.6038522651 -0.0020074761894 0.0011883982793 -0.14080241141 0.64272031672 -0.10756614889 -11.208239586 
-4.1789706618 -9.0297576661 -4.5992771663 -0.052569780016 -0.33941488735 5.1680864964 0.13317712782 -0.28662410577 -0.0080866911593 
-5.0400158395 17.328125701 24.981143257 -7.6323235633 -62.049152596 3.576000958 -3.9078401631 -71.815804948 4.1586120346 
0.0067102860616 0.040077178003 -2.3213784835 -0.1261236303 0.24829355354 -4.4759967504 9.7558419091 -18.421670306 -1.2119861649 
0.42038456285 0.59847260099 -4.5409227668 3.4199081103 5.5027110784 -9.8079867935 -0.36220507982 -0.37338919268 -7.5408652148 
0.0021450861779 0.033130438526 1.3893678006 0.0086961135233 0.0188786202 -1.290125997 -0.00063737907497 0.00087283162254 -0.051129396468 
-0.035321060725 0.10628787308 -0.52869352708 -0.0022115406437 -0.012147988667 2.4316257206 -0.0064497838815 0.026174931615 -0.7185640834 
0.79683039103 -31.663550607 -22.015964092 4.0782881001 12.609867403 -2.665086956 -5.6624712473 -58.204484828 29.168257843 
10.81584482 -94.011474324 20.744879684 0.25638158694 0.45093451099 -3.2049837542 3.2304688526e-05 -0.0003438978946 -0.0077101064087 
-4.3516749977 -14.93787874 -1.0931393338 -1.1245614962 -18.222270658 37.678347233 -1.9266811879 -0.72886175914 -0.16936456809 
-2.8142096927 16.220685865 63.886749293 0.0071938246627 -0.015235740236 0.10289247346 -0.092326748235 0.17496407764 1.5189940275 
0.27998160862 -21.945683256 -34.329751754 1.1780952082 5.2366220172 -15.106744368 -0.86697024776 -10.703528816 -4.4775213837 
-1.1089434568 -8.8227240979 27.426551559 -1.1755327312 -25.88849527 -9.9963172535 -0.083517891164 0.23319282864 -4.3380569049 
-0.003287160217 0.020865475526 -0.64237348257 -2.0052831865 -1.3087096799 0.32246398099 1.71888253 54.812952741 50.752564435 
14.290149391 56.849687013 -42.150650556 -0.33876534069 3.0502341025 -19.898598835 -0.41571598248 7.7075241312 -70.42831186 
-4.9986318742 -8.7481468428 -17.637476658 0.0049189706671 -0.0057097879626 0.3386704525 -0.00015002806434 0.0082392172331 -0.15412163147 
-0.00073609213525 -0.0046397017308 0.14886252421 0.0023746627684 -0.012355400496 -0.31938215978 -1.941959771 -31.954966824 -47.476148997 
-0.19235205999 0.24691454785 21.82885852 0.14157157405 0.046884634115 0.13515802896 -4.5158679381e-05 -0.00058371830047 0.0066312156697 
-0.0068502723676 -0.021287115246 0.31106910164 
Minor%20Principal%20Stress%20Vector 3 949 double
-32.872176219 30.682606984 -8.0536462733 -33.101203288 31.027108491 8.1346850186 -111.16357229 20.081315442 1.5847537676 
-107.20023539 22.873738656 -0.24074315849 206.15197652 38.853246036 27.641017188 198.21641895 33.299119938 -33.310268234 
-124.44859422 -96.446517183 -0.55388908066 124.63356922 125.05829024 15.031103659 -135.34503699 -103.43065821 11.555836773 
-129.2610412 -88.399032432 1.6550603048 -41.913104006 29.012607642 -22.814728947 -3.9502143194 -5.2545798308 -5.3815652301 
77.814764579 42.292887034 1.3853920542 -0.090338387545 -0.35595524692 0.10075052106 27.787675518 -72.838964848 28.944988387 
33.713990406 -26.79242305 -17.346140284 3.2580126335 5.1542430051 -1.708419426 72.823418433 40.133517474 0.50799401324 
0.095956859612 -0.090950205396 -0.45683875009 -31.183659747 77.913995798 31.014537636 225.32223334 -149.08327323 31.00571171 
630.58407396 -30.449961876 10.444024538 583.78283604 -22.86561491 -6.6052859685 -190.80606387 121.1119015 29.062248701 
1.2728499287 -1.6950155322 -16.729003714 -4.8624731663 -1.7153412048 -22.398880787 2.216833473 31.737437415 -2.0547045369 
2.3428492013 8.068029014 0.024329593957 0.12994378313 -6.9660408609 -0.20765162718 -0.20841560241 0.13298724021 0.02384945735 
108.07966652 0.0050525033128 -0.75530973189 108.92551902 1.5579695867 0.44112055234 -0.4586762609 -7.8523720725 -0.24188336928 
1.0487915432 4.4939019745 -0.043941170561 0.87853255376 7.9157978574 -0.17834165929 -0.0012709927911 0.0017641910813 -0.0048918092244 
27.661997551 -24.25887636 0.039346192055 -108.47982772 20.998727562 0.5375880349 71.076848867 -30.91851178 0.81411493395 
-50.982554467 30.091747731 -2.5122432569 -88.522224286 25.819530095 0.13501206098 71.233801059 -31.37902594 -0.79944867686 
-51.36622156 30.735288112 2.540725838 90.301497636 -26.294154054 -0.21162832385 181.71517973 23.075538625 2.2837143086 
180.64630946 21.542319236 14.190010542 207.50265445 40.681161391 -15.900403671 60.239846535 -50.567792315 6.2281423676 
-52.828205297 48.121672127 -12.660096408 63.720260117 -37.604096986 2.2018470574 -64.00344479 56.207148 10.574961229 
-51.774780388 46.724073022 12.858418625 69.479012615 -41.94530263 -3.9595225904 -133.49884786 -103.10381767 -5.8712789705 
-117.71199982 -119.17664949 -6.2334674969 -139.68995625 -96.724574562 9.2969239827 -94.299515856 -40.216986648 2.7554605777 
112.12834504 6.3235622235 -2.4705507856 -83.916137677 -53.228955225 -0.5640813322 99.661731429 43.131230586 1.3583295311 
107.21181967 4.4774601518 0.97547845915 92.014815656 53.725516717 1.6902965798 -159.73548392 -103.21955525 -15.415910713 
-157.72274607 -116.24268448 -5.3180083482 -71.27584035 -33.257943467 -21.062794008 -7.1710449393 53.009956324 2.2344946847 
-6.8820945285 -14.066192456 -5.2613698095 -17.953565856 37.008797021 -10.58847195 -3.5603033494 -14.584049026 -4.1321352864 
-1.9753806982 -3.1039126208 -2.0596722763 0.69033598744 1.9339571734 0.046475844857 52.127204465 -4.5236948407 -0.69054209326 
1.9246490679 3.1222992333 0.69599026256 8.8691217764 -1.528083572 -0.16356606839 73.047524742 15.94377948 -0.67802447351 
0.030277973985 4.1942419445 -1.0626478974 30.066269767 24.113956317 2.9036361768 1.4170382442 -1.7897599446 -0.44729289651 
1.1504656535 2.7178749792 1.4409462892 0.5975224374 0.37626038941 -0.079001477142 70.402380463 -17.237460119 -1.3081157936 
-73.830710661 -54.696643927 17.354385282 8.1092121714 -8.4679407957 -2.5620290375 41.16450813 -80.883729765 -0.95263623462 
4.9275574736 16.341609402 17.033408953 303.3447066 180.37494718 10.447213539 3.8490164131 0.52922619695 0.081612887004 
-33.831716306 56.179697207 6.0574974715 1.7523704881 27.760856541 -13.433006562 4.4008177503 -47.310845224 42.382868924 
164.3916498 97.162003083 -24.219401538 165.97592155 113.68205039 -13.357446439 68.22934483 22.516644869 -17.112652153 
2.8980593335 -40.296012386 0.65611917945 -5.3085881676 -13.306104128 5.2321270792 13.255760285 -27.40334776 3.7378271958 
2.692832303 16.942564291 -5.2468979322 -1.5968881043 -2.7428081331 0.068279192149 -0.3897328797 -1.1623559833 0.049359519497 
50.82752419 -6.3060172737 1.2795427971 -1.1848084524 -1.9705007055 0.7759271852 8.1293860925 -1.5831905789 0.70530449245 
68.866602477 18.007634888 2.026781112 -0.13045831361 7.1017361296 0.45788507797 32.664168998 24.317190048 -1.3419177387 
1.5086905455 -1.3872794015 0.23625455465 1.6092917947 4.0090974412 -1.9009111094 -0.38580372434 -0.29512312101 -0.097201977125 
73.466210997 -17.209831384 4.04484724 -74.553255216 -55.323752245 -17.295158268 8.6079938381 -8.8552032662 2.9252652949 
42.864564532 -80.115065449 2.1251169107 4.9333227629 16.951934032 -16.398189814 301.5729611 181.45753651 -7.4449508539 
4.0556420693 0.40803726701 -0.30306045599 -34.128200229 55.217829916 -6.7676185006 1.453813017 26.998160669 12.588097674 
-4.7377677873 48.385269734 46.160323197 41.488925797 -60.24530078 1.5957385461 -36.718730362 64.966747908 -12.997674057 
-38.781088072 65.315638687 10.989380398 -90.902896883 65.402690086 -78.056521347 -278.93334285 -130.84171812 -56.202869599 
201.00101876 135.3032865 28.281086853 267.18930662 24.577108908 66.243605644 554.03310614 -26.154970575 7.6124099847 
-478.66086429 -205.42240891 -12.333178724 560.31370797 52.190342927 57.1484023 290.62333385 169.51382088 -6.8201891319 
412.63145264 219.81491432 -13.707134545 -624.61211304 -159.02433705 81.117797351 -324.70349208 -166.80456239 -0.38467544354 
309.01728672 103.09048468 -57.537692347 -233.17413202 -128.13233247 37.468966672 268.50579054 0.75003379729 -64.441194166 
-88.139474534 63.791774988 71.989548295 -1.3191407887 -2.7456192331 -6.4249624228 -4.572350229 30.707781238 2.4075459837 
0.12199085952 -0.54961116782 -1.4544833526 -41.132368727 70.80300495 -4.5468696244 -1.0492334375 13.490407051 11.684758539 
1.3570193256 0.35237797589 -6.0868660931 1.6390111784 2.0510331056 -14.253182212 -2.6531791678 -4.4569497258 1.7611432802 
-76.926164927 -40.184563704 -1.427459848 0.053274331205 -0.008991879089 -0.30898155038 1.2982691335 -9.2771604294 0.52317303159 
1.3162701512 5.1797683848 -2.2657419372 40.638762371 -72.180147099 -3.7378136734 1.8208737411 -11.164115822 12.515021417 
-1.6960874128 -1.1409049167 -6.805307461 -7.1788322254 -18.659402233 -68.574689949 7.2039633561 14.594068808 0.77740469329 
-4.6098177711 -18.853410496 21.907302507 -0.2883906864 -1.685735292 -41.325758338 -0.27523109273 -2.4489617646 -0.69732527785 
0.53718323933 3.9818416564 0.2419618629 -0.12827044903 -0.8929559533 -0.24161425273 0.008059308142 0.049101859614 0.46149401579 
0.0023830016723 0.011289106337 0.1220005893 -0.34256279811 9.820076245 -14.771045582 0.093586080552 1.178184723 -0.91359231441 
-0.52541837621 -4.6535647559 1.3989635439 -0.11458632352 -0.91875901429 -1.028439904 -0.16589218845 -1.2136079645 0.40245495004 
-0.19252906131 -1.2091319841 -2.6705467055 -0.44613238979 -2.5233006386 1.1934617394 2.1182002304 7.580643219 0.017905130053 
1.4632992754 6.5184105631 0.95854298421 1.8350062151 7.2477005815 0.41972648989 -0.93103120172 -3.4924569938 -0.084298177264 
26.310813506 4.355163568 0.28358731211 61.260240968 -0.400442318 -0.75119855169 10.776770552 1.2835705248 0.36080957163 
840.47481746 -58.448827706 -1.0915659183 -742.03909299 53.312318904 -0.51134410409 601.08674703 -49.67043537 -2.7528709641 
476.46465796 -39.317214727 -1.3774735712 351.92964401 -24.491449911 -0.82971977983 234.95614376 -16.310327854 -1.1389418665 
650.26320749 -14.924060586 -35.32581815 725.96957638 -70.25319713 -3.3747679337 -658.43243187 56.215343531 -0.10815075482 
-537.26036608 47.813379575 1.1036142906 -412.10483718 37.543254158 1.3957432878 -291.09280047 24.716544928 -0.89629303628 
165.7975671 -11.500288691 -0.95903879217 108.31717439 0.025926197865 -0.50052004271 873.74205373 -63.75794738 7.3914216444 
702.51464075 -57.848182744 0.04337590247 597.01171064 -44.849340087 -0.13963897436 475.38398554 -36.243603116 -0.42957496427 
-350.66850478 28.130017433 -1.3346285912 223.81895927 -8.5376728116 -0.10639585514 582.79473442 -28.260625705 14.25135349 
-659.53481885 57.287636425 8.9316155823 -661.1668345 56.620923399 2.3548974804 536.78962523 -46.992422022 -1.6796469502 
-414.59680606 37.81314318 -0.45878666019 -288.02585984 24.592446279 -0.16899867839 -168.25745961 10.006218506 1.5169100635 
6.8727028647 18.797018816 -7.6591968879 17.242757161 35.497528066 -24.176578977 7.2026994102 19.184871644 34.124151641 
-0.091444814248 -2.061683044 -13.638102297 0.18237130068 1.6172399749 -8.4503718339 0.0065338092706 0.047438856395 -0.54179455387 
-0.025100353763 -0.17910860556 -0.071607533477 0.50305104948 3.0993620289 0.39062899726 0.7314083555 4.0309046681 0.20667126497 
2.21900677 5.0398691266 -45.675197461 -0.14161475859 -2.3609215363 1.987131269 -0.37422004283 -3.4304628558 2.4563116971 
-0.39144251138 -3.1863280005 -1.1900090211 0.085281332064 0.62702650849 -1.5154612196 -0.39789404194 -2.7013931677 -1.1919825609 
0.11645026654 0.70063728709 -0.88271055976 3.1251448931 8.9619911043 -0.14357073716 1.7917168311 7.7853612815 1.0504724778 
2.0913897002 7.3478954866 0.30043586874 -0.70863901029 -3.3452766985 0.076765768696 -29.455287735 -2.5844532756 -0.26742874592 
63.951332756 -0.54319633818 -0.88531505055 9.0122299408 1.1346041637 -0.098291301144 4.5556414388 76.777896441 -3.4827568561 
1.4934263582 5.8187248246 -0.34086550578 0.65444806608 8.0861799897 -0.38624866997 0.039781102806 -0.03815788308 0.043896708244 
53.871568723 -27.367908169 0.14214841313 42.786273716 -27.229632783 2.9110504066 43.00203213 -27.4572213 -2.8078110554 
-61.030963478 28.62133587 -0.59527768408 -61.554284439 28.817105257 0.28875505627 -91.219292267 26.177991717 -0.33942770707 
-73.202402548 31.795349257 -0.42329102795 67.777012688 -41.862043696 -0.43742559058 46.103997576 -36.726921003 0.10686989426 
40.17500865 -34.1125267 -4.2388487499 39.828371933 -33.65654125 4.2763825665 53.315400433 -42.197651076 3.652960038 
-56.368337054 45.649750272 6.3728722714 -54.362154863 27.528576943 1.7319804178 -46.898818852 21.646574814 -0.6969376939 
62.228174484 -43.476513061 2.9479988478 -69.582639757 31.597142383 2.3177740547 63.51055504 -45.13648549 -3.962096133 
60.001761523 -47.499496618 -1.9559196676 -80.992192013 -53.229711436 -1.3926961722 93.612833426 45.97066016 1.6253494466 
107.77043975 9.9286787778 0.82621792478 109.49527941 11.452592171 -1.1178664321 -96.988638247 -41.190633968 1.098726446 
98.448994861 45.690811694 1.9068902816 78.67324537 57.209379782 1.6780733235 80.599472659 64.220426757 6.9083049718 
86.705953811 46.109286488 -2.5225883096 95.488098238 65.701485485 -0.21742438693 -90.642990502 -55.455132144 1.8617535562 
-88.350412765 -53.09987126 -1.5587554905 -81.218730776 -46.048659705 -1.2932572578 -7.0427751762 70.614216683 -0.64953416822 
39.134247994 -58.718031589 0.66387613653 -18.000780115 39.357416026 2.2090426612 -127.48760247 -36.269756678 2.0228828814 
94.403118818 -27.599205085 -1.1433091035 -10.756054627 62.378212079 -6.3908575717 -6.9006606906 50.441316715 -0.27439995681 
-122.01221099 -28.910124395 0.29011031364 3.1172100812 45.720133185 0.71840163493 35.750066401 -10.830662117 -17.800893087 
117.19463025 -45.27772933 -1.3234001255 -3.5106583043 74.775810636 -1.1538361368 -42.707084405 72.9684204 -1.8838821629 
54.469429759 -46.963969291 1.5472217988 1.6252909198 43.34004399 -2.3947850311 -7.0764805805 37.468085935 1.024725052 
114.88831646 33.495899527 0.2315087707 33.807375821 -40.543652737 -0.79554783478 64.298513958 -41.624367302 2.3071336624 
108.20833974 -0.97692873265 -0.97944937439 107.32745801 36.028738386 -0.1963253725 77.509687972 -35.523602303 1.234954704 
77.362402761 -43.519812115 3.5695137573 99.607962601 -23.499894531 -1.7748383696 112.67594109 0.74375477328 -3.0162538637 
82.96064554 -26.607870432 -0.029040209541 89.753440834 20.416718088 -12.128574993 219.9488587 75.885100026 19.988311089 
124.70117287 18.55666871 4.2517000776 -119.68109464 -53.134361391 -1.4707851935 110.66281812 47.076154458 1.114575826 
126.27290585 67.116240938 1.3169839464 142.9952721 65.657657151 -16.631311344 141.82619747 62.517154085 -13.418969351 
161.36816315 44.525974476 -1.2813123067 -45.97817716 55.421902656 -8.5372293645 -26.983085857 69.639449579 -5.6347239296 
135.30759466 27.741285344 -13.299475471 -79.063210311 37.016583771 13.277017197 59.894778301 -60.201299579 -3.8120957061 
5.4077876104 19.298762682 -1.5747810201 3.8411085477 20.910021385 -3.3237951186 1.9272910216 16.3512809 0.60453216881 
-11.961635558 4.4000531037 1.2514327175 16.638367398 4.3201673239 -1.553979743 27.186431944 31.761717873 1.7657212258 
-0.68550853281 19.517538917 -3.5690058592 0.84525965837 1.282255981 -6.4532004221 1.9932344153 0.7105576795 -0.83977389424 
-4.7954041166 -8.9143322498 47.226716171 -10.994579546 -13.033626588 -65.055737717 2.726398177 -28.788164339 -5.0506781071 
-28.334820371 39.864710089 -4.8844138712 -11.319295445 70.17837214 -5.7181386662 1.9446579329 30.191570311 -4.678412908 
-20.133518364 55.678146987 -8.1135402795 -2.846513295 46.250397958 -10.03731192 -2.0140970446 17.736027122 -0.21274893321 
-8.1882789215 20.320647724 0.2125958751 -1.6742074827 35.885474769 2.917870433 -14.39592592 18.328200391 0.28269981079 
16.558507565 -20.637284343 -13.55020922 -11.575155592 34.078353039 1.8080747927 48.466408765 15.433651731 0.72908442311 
96.213664758 52.764837701 1.3977971594 39.428001644 -63.454344677 -1.5192300131 27.726800298 -26.871559744 -1.0202632381 
33.673820903 -32.762621014 1.3125260876 71.302073966 -6.1101185349 1.4250041353 43.867438244 -44.533235154 -0.14531178148 
2.9823913859 38.628275961 -5.4096859689 -5.6441943294 61.105078831 -3.4442742849 -7.953342813 45.168203541 3.1236798348 
-3.8541283325 62.433748682 -1.1615071965 -12.144406479 37.215792559 2.0854080065 -4.139062763 22.047260851 -0.92209146188 
-11.252304877 49.845168811 4.8723908969 119.38034042 -6.7452982745 0.77451449585 -13.429976078 56.301584345 -0.41979083406 
-4.2864507593 70.649741628 -1.7448593433 7.0315798544 -54.113600148 0.50185079251 -8.1091854645 65.445961264 0.15315066551 
-9.4161418929 53.858436905 -0.40969461324 -7.2149178293 65.097032214 -2.0332359184 -1.2345748028 49.690199434 -0.25342389961 
-18.162701693 54.593305816 -0.92141652781 -20.788229475 50.801727034 -0.77100403537 43.958232292 -67.212073494 2.0892811146 
36.734456933 -49.715839337 -0.4069896346 64.226076905 -55.643967655 3.6484335847 75.903702197 -45.785715773 3.1278608447 
45.027531327 -52.216315669 0.83774958338 -5.8300623883 69.699569701 0.40830494702 42.415726421 -59.638480989 -1.2046536124 
-21.407393011 42.047400472 -3.8962663735 -123.41647067 -37.434451907 -10.309309837 88.082328774 -27.695629833 1.7465295512 
-15.159694537 67.594884073 12.740750599 -7.9086602648 46.716662807 -0.16291950616 126.88176559 36.728628142 -0.55080399592 
-2.2390068133 52.099427958 -1.7811627995 -42.247026101 7.7419944821 -9.6941123505 -105.4572483 42.827682891 -6.891550445 
-3.4412347068 69.597808661 1.1917093419 -43.386441166 67.430302417 3.4105614587 56.061128868 -44.741253912 -1.5734466145 
2.1450706521 36.533125264 2.8989894374 -6.7736643987 35.236499042 -0.67955259326 131.04498807 27.15172604 0.23277058886 
35.494612408 -42.747514508 0.68249281789 -65.794307021 43.046268501 4.7396205848 111.84812192 32.94306751 -0.61711534187 
109.15869489 -1.5719961995 -0.19904005584 78.92929838 -36.489947528 -2.7154174513 93.806620489 -25.430685695 0.41993555112 
75.904837663 -41.783565103 -3.2870119313 106.05166451 -2.1961108758 4.4002020061 -85.062948958 27.617267571 2.4836552758 
224.94636195 88.086189234 -19.778422148 98.448818802 25.571336145 10.898083882 112.66926537 5.3618080194 -7.2135514696 
111.35770769 48.772044323 -2.4692546895 133.32070785 64.804074633 0.89636682406 106.88887384 49.379761648 -0.77527913384 
150.22984948 60.595672579 14.060002636 -145.09300355 -68.471248369 -4.6440811093 157.37321953 45.381713014 1.9681004193 
-17.379858915 47.30688248 -8.1089636731 -46.027400014 53.5965252 -3.791624455 74.810694161 -33.799767229 17.935674883 
124.95749382 16.334188993 10.963724641 63.488070555 -59.516981275 5.1957699918 -2.84802445 -12.103571196 -3.2399411417 
5.268616945 22.774685688 0.25937380666 1.180402125 11.191402803 1.1377656048 15.485299628 7.2773643183 -0.34913256017 
-13.187003179 3.0984308971 0.50539139488 -1.152738887 25.456370403 4.8002389307 21.252461239 26.415313475 -2.8126661199 
0.10422545777 0.53631765865 -6.2368334851 3.4073373464 1.0469856796 1.7158716495 13.986969838 14.857367835 -69.414404115 
4.8363836539 9.5597866512 51.052004294 -32.452786188 38.122077993 1.2149880366 -2.9185744988 32.996199542 -4.9471179112 
-0.98544079924 -38.783375212 -3.7029984351 -14.790716531 76.328912003 4.8665528569 -22.774097393 57.019050282 4.4425587574 
-3.896729028 48.288185194 13.074296857 -8.2202882341 20.511250777 -0.37304568943 -2.0469362444 18.087745677 0.46183337384 
-1.7580948248 32.180893984 -1.008074251 -18.924694314 22.353513912 -8.6598678366 -15.720006773 20.402671462 0.23403013092 
-12.088831513 34.687536755 -1.4801827851 95.338476936 52.518985149 0.5884656981 48.995752842 14.713216923 -0.88379910294 
27.623331388 -27.058881253 1.1474449602 41.365123451 -63.468610635 1.5996534224 72.380980421 -6.8162615043 -0.65399521119 
35.798871741 -33.230775509 -1.4532576315 46.509139735 -45.390679124 -0.52261456192 -6.9234971725 60.886128017 3.2242305364 
2.778273294 37.735741269 5.5516370855 -5.3720252298 63.452382347 1.0912781162 -8.7558158804 42.898119378 -3.5428437658 
-14.10951181 38.901928567 -1.8305233817 -4.7138962113 23.77464506 2.4347066964 -10.696565446 48.252624022 -2.8006554521 
114.22735406 -2.1886889532 13.568601062 -4.069168384 68.049195346 2.4461327631 -13.758763818 58.117746539 3.142593059 
-7.1005644825 54.024006654 -0.34873113751 -7.9208908501 63.031408378 -0.33473091072 -11.706840551 54.996586234 -0.026341699986 
-8.0193075791 63.366357436 -2.0155554246 -0.82098107253 51.863681183 -1.7745573461 -22.78679589 51.390699526 -0.057478167006 
-21.184497909 56.749010384 -0.34522640313 -43.59630705 64.189360738 3.3237627423 40.010393204 -52.600396997 0.71127738228 
65.073848004 -55.11161362 -3.8417587386 47.405611783 -51.821050524 -1.1384220399 77.995045715 -45.452046403 -3.3251752625 
10.129207773 -57.54142983 0.88873145345 42.791154689 -57.229960477 1.0537500826 -8.2460564833 -0.59936186647 0.7738176775 
0.48695366837 7.7105080928 16.397837951 189.97710802 137.66803528 -1.5162287744 386.47272642 234.83237056 -0.7105263568 
391.82281217 241.18246796 21.968468138 122.17475563 96.28004977 -21.800904908 387.15254944 239.72938668 -20.678088143 
122.49931649 96.954792812 21.010847892 3.0370856619 11.101348879 12.115945775 16.577686695 -125.84713741 19.304754728 
34.379496083 -183.15837594 -4.8950175526 16.169497151 -125.59181532 -23.568309585 -2.9882382879 -9.7025109673 14.012314664 
-17.087272531 -8.0278823144 3.8356794977 -3.4336497161 3.1610182167 6.6614803023 61.360835186 47.251815628 -1.2048756711 
-22.776642701 29.564968788 7.0095656077 43.422212458 -98.009961099 -3.9496713266 14.690971255 -11.941782298 0.44154471226 
-26.732331266 67.528810333 -5.0494988421 3.5145650415 16.550620703 -15.179803076 43.036936687 -78.901940256 1.006228655 
1.4484913052 4.2438389751 -0.087052917773 3.0046439682 -3.1892248945 5.7636039994 -17.954686648 -8.1710091119 -3.1829191296 
43.697943933 -98.238971946 5.4880492354 -22.76995673 30.207419711 -8.453790423 -3.3621253217 -15.934820652 -13.030736967 
-27.442726349 67.631983403 3.1057005714 -181.12863213 -124.00103015 -52.128550857 -187.51581151 -109.74062908 -59.51509753 
-138.195182 -50.58345755 -93.584397115 -309.84221586 -178.05093796 -30.840425001 -401.26327999 -216.41496247 3.6221902907 
463.35314128 108.26119125 -27.222356839 -176.82194674 -119.99660959 30.352540337 -201.11589247 -100.64385783 77.791543172 
-135.22993254 -35.184732641 92.974606831 -10.9300904 37.937898118 -7.4094429902 -9.2116745497 38.257875002 8.2880281087 
-3.7650197563 -2.0828605829 7.4176559759 4.0274131242 -0.50842666857 -11.916375248 10.131377013 3.4641214753 -16.935432524 
0.62663318833 1.0655602369 -3.5211972497 10.409073439 -0.10901471374 0.51813623229 71.293948858 12.064900774 0.064795440056 
0.56248830409 -1.3001889522 -11.70340218 -0.22383391842 -0.65197915246 -3.4051419763 -1.1040606741 -2.1222176977 -1.6615499354 
75.080436287 25.732641468 1.0536472358 76.731014599 23.630550108 -1.2838456933 62.872152105 5.1331971771 -0.52793888346 
-2.2763213816 -4.4737681102 2.655095919 62.130598224 3.3248107807 0.6928810952 -0.61787110589 0.97547656591 -15.117659145 
0.53046240511 1.106002887 -1.363984968 29.603065035 -3.0185626441 -1.5154871283 -0.065135705761 -0.29840752037 0.31570042389 
-0.44397975686 -0.88938724483 -1.2148845608 39.236222446 0.9925520222 -0.18054755864 -29.545689206 3.4375293754 -2.3265167948 
0.052811840293 0.20224237852 0.22872270229 35.819370586 24.557555941 1.2699690552 -0.42101545434 5.3439873288 -0.51614842517 
-0.26472433431 0.22994710925 0.0093920385819 27.43425003 -8.7715242589 -0.36419628897 -0.64802204062 -0.24511478998 -1.5636224374 
-0.41044581236 -0.33413344165 0.25618644047 -0.050293971679 -0.041736281383 -1.1694469268 0.92910674618 0.64431907365 -0.16441933484 
135.30191904 -19.326813721 0.70642130112 118.35387177 -17.970842229 -0.33177325755 9.1325231786 -8.9650470956 -0.8540761961 
-1.0368382923 -0.86675402209 -0.73946928729 120.72253882 -16.898707993 1.9213389994 -6.6262940112 7.8582725845 -0.94619004103 
0.11647687419 0.30598461533 0.77282983297 -26.671470904 58.968660851 34.439472198 -0.64735772566 -0.30408740702 -2.0938326393 
3.8333302876 -36.218549301 -0.68851910798 -4.9623901581 1.8054750578 -13.92036484 8.1191921206 2.9459207613 13.914264298 
133.40274273 30.112311945 -11.796836081 693.22719492 89.183221418 15.328588577 24.349691448 -22.777013799 7.6335380037 
13.667420459 10.71926097 0.22508594054 13.825714928 11.332578168 0.60123471743 13.651130193 11.610210875 0.31974277603 
13.145699735 11.695619143 -0.016028778278 15.154707458 11.551046182 -0.68066385958 10.260418947 14.707603323 3.5946547719 
0.8639168779 -12.844768059 -51.580254592 12.451977979 11.426655614 0.19535558501 4.7181960004 4.9937058693 -0.00030476504072 
436.02049773 137.62054709 -21.863482105 2.8737914323 -37.933092134 -37.72827341 34.935823407 -113.5243148 -45.803988367 
509.16094742 -90.768009848 -30.350151452 515.11538008 91.435504561 -13.63066745 -281.28242429 168.94454014 19.298630984 
554.17568114 -13.089684042 42.64706782 3.321411926 4.7758389453 -83.167750668 568.38100448 171.03665966 39.496589934 
696.55286308 13.339169704 57.229883505 594.95794583 4.2308200847 -33.126396235 640.00772801 -15.242203207 -36.826983418 
608.2696757 -28.241612864 21.940310929 49.189575679 69.143673975 -66.874327792 3.4037639619 11.197160844 8.9056363407 
-2.711443559 -37.345873764 12.007207258 1.6356940732 -3.9121016865 -49.719123725 3.2326658023 23.095401964 21.150390322 
3.5113002511 31.028917445 -13.449343932 0.16733380011 2.375256157 -1.591630966 16.830579305 13.694278744 2.0155703355 
63.203229309 8.3339293208 -1.5649378336 0.95386482573 2.2932294054 -0.15523773659 5.7608362855 13.80288967 0.87465820714 
49.357070132 6.4607299851 -1.2689184488 4.2103922984 6.9973609316 0.32155749739 2.3348123521 8.6724438329 -0.32935534942 
2.5641236316 2.3864708701 -0.052132090756 3.4186488031 5.1579147822 0.095893744499 3.7933686967 8.6542136921 0.17056650135 
11.256510596 4.2446614918 -0.44605907777 20.524713237 9.7234201742 0.062405184321 109.10219391 0.59581382979 -0.5278567845 
3.1286273335 15.795698715 17.081408594 8.3454647678 8.0315993912 -0.68959228597 -0.11137606218 -0.40638435207 -3.4667810191 
-1.9175892387 -15.214606653 7.4552632234 12.040685459 18.175080396 5.9532312178 492.63377946 -15.375013661 -2.1392086256 
0.82721804223 5.0325422351 1.3729130979 -1.2232240183 -9.0405226765 -2.0132208604 26.88490195 20.127662019 -3.7629989736 
-352.99027885 14.529182181 0.40146351238 405.87156962 -17.407765374 -2.8523691823 0.4083367878 2.0431834404 2.8711686571 
1.3293343074 7.93240919 -0.52280081951 19.232992176 14.624311824 2.3041147126 292.38569291 -15.077951323 -1.7041896484 
308.57211207 -16.755410608 -1.8137114453 -0.00015170132997 -0.0010812854456 -0.023228885468 1.8069679789 9.4579853348 -1.2780335066 
17.694695122 13.781550682 1.917232889 245.26056611 -11.224351553 -0.04894128109 228.37231901 -9.4318137314 -1.0010308062 
0.032117094097 0.12992043113 0.46395820294 1.5164985887 7.2523532311 -0.075585485864 16.202622719 12.865012681 -0.52422724865 
183.20682583 -4.2129674297 0.523528064 164.52465411 -1.9973270103 -2.0906657234 16.991814774 13.246714338 1.4345197857 
127.83702359 2.6098029227 -0.14591867812 593.67165349 -40.27437784 16.372059283 827.15516939 -64.755435336 4.9950718945 
167.60057995 -12.887682397 -1.7979920331 -226.8152211 13.026122016 3.4832991366 -651.97693068 61.790061234 -3.9715497566 
656.01043218 -59.300523537 -3.1303087976 -599.07780805 47.449051912 1.4687062395 719.03859968 -56.723335507 5.3404121395 
535.44885977 -49.377298007 -2.4785773036 -476.09220908 38.009603444 1.7603580381 413.32196855 -37.952056502 -0.46025787687 
-350.84036665 26.440981092 -0.77890228466 -292.1585601 26.874725643 -1.2330638152 14.097066462 44.729250511 32.576209149 
598.62436189 108.43867871 -8.5320895602 314.86875021 -66.001792377 -13.527403588 15.536926314 12.047083017 -0.11196000503 
13.464905535 11.254156496 0.55467064488 14.73988404 11.017609038 -0.13095583817 13.504523631 11.237557338 -0.51237179496 
15.455594084 12.332132608 0.13158288575 43.22401032 26.394217784 -4.69499088 0.60193226665 9.2287923836 -57.527793963 
12.789200942 11.708016658 -0.10430726745 4.533647253 5.5903127924 -0.12005064445 496.05662009 126.78465142 -1.2823394052 
656.36360842 32.935549047 -27.130949397 473.33968605 189.5137463 -21.704274761 566.77267236 -37.577054555 20.107037299 
582.74551853 2.2315446926 6.4024768944 243.42814183 19.938324458 5.718715124 628.67083281 -36.451458944 -17.368163354 
542.20180768 54.678517189 -30.360708591 -17.084022958 55.97858801 -5.0176375536 0.47240261157 -4.8073481632 4.202279907 
474.02327059 62.63524467 -14.16301322 478.5974225 -74.232042331 -16.765523161 300.9857095 -183.79212018 -18.296214343 
-4.931993714 24.318333693 -25.21529098 -10.327702521 -32.278523883 16.999462345 0.20584156135 0.50176171603 -0.62397416272 
-68.479324635 -11.335218473 -0.32576619878 15.793416885 12.871309639 0.58614315537 46.224518844 8.6682519188 0.71225895764 
5.0390537154 12.799439706 0.50354916498 106.80576348 4.8237550304 -0.19228905753 21.722964229 8.8156880497 -0.46312325358 
-2.3153777122 -3.9725134549 -15.477263789 -0.94378495911 -2.6211602663 -9.3444916449 1.9685348305 24.36621526 8.1570403948 
0.67874027008 -3.8605803602 -22.679887929 0.56635600883 36.720429344 39.574342232 4.2237318459 7.0826804661 -0.2880442409 
1.8529649178 6.8400180406 0.56612605008 2.9284653501 6.2021735995 -0.20178298377 2.0261874093 2.5928125979 0.055815854604 
4.9914495152 9.8852520598 -0.029627524792 10.872327458 3.5629667741 -0.033801139589 -0.9256191344 -19.015539336 36.515426506 
434.20091436 -24.605375058 -0.085482082843 498.49827627 -11.998558722 -8.5667074305 -74.986441662 -41.000527039 -5.1291608992 
4.305407146 35.341424875 -13.844166214 311.31966637 -12.879880692 -0.14247459374 353.81003674 -18.157978884 0.019489792562 
1.5543235736 10.538897058 0.072516666494 15.409692092 14.474627197 -2.0942954542 1.3302371708 8.6615424111 -14.394438504 
252.09173599 -9.2988019964 0.72111820797 286.899725 -11.872402402 2.3732929987 1.2378726747 8.1101438275 0.99520670688 
15.600790279 13.7223128 0.44940314794 0.02095335636 0.13719841281 -0.77381653565 187.73799678 -5.4276024791 0.82956274102 
230.844251 -9.0772450946 0.28756697322 -0.033567641132 -0.13461149216 1.9339646365 16.0835394 13.363056455 2.0102786734 
1.0528832273 5.8766713535 -0.48879993728 127.77088116 3.3738448533 0.5770815228 170.88581771 -5.1189577939 0.71459677145 
0.79670520498 3.787863171 -3.1994486745 17.554646751 14.188565226 -1.6062385318 -1.7562974779 -8.1912502978 -2.2000696987 
16.62937529 13.01400546 1.7606906292 -0.02427676949 -0.035939634949 1.7926285928 8.4876813761 7.7263975786 -0.96128444691 
-19.772414647 -28.261676995 -47.719046027 21.387090337 50.589567422 9.8067750136 4.9604085456 17.259632943 17.108408585 
0.015420609758 1.3673078183 2.6014833726 -0.45091930214 -4.7214469138 -11.584218331 0.018280197996 0.11129280982 -0.018977370092 
-0.11187766775 -0.58532650751 0.56468438152 -0.068844511504 -0.58013717313 -1.0675828997 -0.20370674223 -2.736713618 -1.464661547 
-0.035796503411 -0.28389592948 -0.079834107013 -0.07132702225 -0.65313632413 -0.18014168458 -0.070675672245 -0.58867370557 -0.11261168009 
-0.2485960565 -1.5803823263 0.19687691179 -0.023918747985 -0.18925672626 -0.58676327517 -0.043846693602 -0.31298608397 -0.15854701718 
-0.0094610787189 -0.062093879871 -0.30514452851 1.685431232 8.3436323438 0.39861518904 1.8018241929 7.4608847912 0.025025083955 
2.6924231093 8.830509481 -0.58730769363 -0.83659686879 -3.5124042965 -0.048845508441 8.9504690279 0.83766449684 0.093326616899 
27.085777789 3.1800105832 1.5727100825 59.97705013 -1.2833613899 -1.1606008327 1.0985259376 -0.99931799016 0.35135215302 
-1.1363206639 0.90686890365 -0.4556748386 -34.487453534 45.126097141 -0.43365445248 -37.095284194 50.98627949 0.031907049148 
44.702822828 -50.837539067 -0.09985184575 42.207023799 -42.863282976 -0.057457996885 37.49579439 -46.441058828 2.5578149262 
37.709717144 -46.701887387 -1.4397547954 43.520129465 -44.666796807 2.7425117129 -18.836950481 47.235035455 -0.50772461293 
53.027783305 -43.749612267 -0.19966532653 39.974623814 -58.528878259 -0.80010017595 42.954748753 -47.354375654 -3.0728680579 
-20.663830205 50.202359862 0.49582252161 19.076804963 -47.617704557 1.6708180103 -8.2375522418 48.942360506 0.26648582089 
-19.453373052 55.069847228 -0.3346415041 78.980454104 -44.249915118 0.75755923947 -42.814066553 65.42533158 1.6919197752 
-20.342484912 57.043319171 4.7643093867 -42.605588752 67.848965043 0.41409002942 26.673837573 -17.704201069 0.81092990149 
26.988401679 -18.311799424 -0.34656818859 -10.662675249 54.304870882 0.69856372047 64.638828943 -55.344457933 -1.6070059149 
19.050070266 -46.645163981 -0.86229807202 -9.8077963041 56.700299587 2.6805464584 18.503561524 -54.086207791 0.023235628045 
-17.928745861 51.673749825 2.4706507008 69.253430965 -63.208045819 -0.50168472657 1.4707366012 23.294410374 -0.75504254246 
-0.9210782449 3.8892333139 -0.74374701497 -0.73327647471 -20.030933267 -0.7489825837 -10.301171181 49.003341044 -0.64002637708 
-4.220225288 70.399744955 -0.8994353466 -0.4428377764 -9.4862503721 -11.401343042 -0.26843687984 -18.295007597 -17.661567075 
6.8250698146 19.135005156 1.8017540716 1.5215652351 19.802459857 -8.9563049703 3.7052881976 16.802401158 -3.641068674 
78.636478587 -3.6166644609 0.11646000949 -2.6947080407 24.145867797 0.95076471171 15.637769173 -46.482822903 1.7888665125 
-7.1962191228 44.507287553 2.2943305628 -9.5800289016 54.167088502 0.76721464711 -5.0599175744 50.723430253 -1.2706447188 
-6.1349718363 50.459610017 1.1719512794 -6.7192863107 58.533613313 1.3282306371 -6.7206528445 59.365329723 0.0093652992001 
-4.8309342079 68.383437072 -0.10644828485 1.0840577121 8.3624418934 -0.97324928986 -54.411390808 -19.166947166 0.054301907345 
-2.7955893431 55.417876026 5.2630552823 -5.5196098257 60.935715288 -0.61205806167 -109.35802233 43.645227692 2.8698878798 
2.6111819484 15.360919529 -3.3254647099 -1.5891953528 41.508001244 0.9574510969 0.18629071439 21.135738448 -8.6729577448 
-2.9363559951 11.610367632 0.57449344851 -17.557595624 37.398857424 -1.592795809 2.5096721139 35.856992554 -0.49455377651 
9.8760916676 -52.836023472 -1.2426895702 -2.9143231442 57.444291444 -6.602600823 -6.1996385265 68.679095126 0.077415809944 
-11.681974844 53.748661406 -1.68999845 31.161119914 -58.940240928 3.5905308573 32.39562006 -58.588456738 -2.8346905221 
155.03285522 48.531344638 2.3256063546 -124.61174732 -33.684517584 0.94223094725 -152.70385471 -58.139478961 -4.9400056617 
140.74282416 49.378262941 -7.8598618053 117.27925074 64.714194376 -2.4295117094 112.53670639 -0.83988766364 -2.4686208461 
77.531285924 -36.287461912 0.38426248447 77.909361016 -34.720171289 -0.23928654653 -120.82944026 -38.21258545 0.80416613199 
118.26267435 65.612816666 3.1589654333 -1.1835352792 51.316831913 -0.74495762361 -11.511476424 36.413525853 -0.58786017184 
-6.4686050652 48.041654065 0.19708115885 55.621253306 19.873455491 -0.66972319137 -0.69937700685 -5.2627906974 -33.471654892 
-4.7805357846 5.8997761693 2.6120027792 -11.555072721 11.722166581 0.72917285076 -9.1883535353 17.804096447 1.9395843401 
-9.5785850084 18.646260289 -3.1649244979 -9.8128919258 10.617224709 0.33204356047 -95.619246121 24.842727615 0.38696082657 
87.917515314 -27.210935242 0.35524986812 113.60645295 -2.0424900923 -2.8394927757 -6.2126970885 34.19874565 0.3034020981 
147.65750246 -63.935030603 3.9596605592 -77.065450669 82.287626773 25.72817506 84.765459206 -83.290305442 2.4453003963 
-26.798662726 -57.705290078 -31.233847051 0.41187846616 0.66868419211 -2.8928276478 -15.780898104 1.3668676492 0.085743359382 
1.5912526866 6.3313867815 -43.62656523 -30.81809839 6.7054839027 -1.5553591775 0.025356280993 -12.467125195 -1.0671576292 
2.0048845947 12.161927476 0.10260941932 1.9835286528 10.89546097 -1.4112559935 -1.2656302102 34.129079877 -0.096392092106 
-47.666490468 78.615934872 2.119075446 -3.5507741409 -13.834491161 7.2579809244 105.80586005 -3.0940861771 -0.27558681926 
114.9022192 26.102039317 0.97066547152 -0.77847865309 -2.7015536573 50.59980046 2.3404275055 0.76851174905 47.343952496 
195.64708152 60.859545658 -2.8231699704 169.21733379 18.398676251 -31.521578621 199.4021721 18.366519944 -1.5847743917 
-3.6812900804 18.833189991 -0.34094882003 138.06451818 69.591220721 -2.7052879525 151.19701942 69.255043184 -2.5218625369 
-136.94339537 -67.607334221 3.2511969484 -122.00753515 56.583865117 16.317920951 81.056444225 -31.064706044 -0.090492832507 
-0.088394470221 13.389328359 -1.5223409041 18.592625528 -0.13000757209 0.095869567238 -2.6680471571 -10.53721206 2.3323783234 
143.40146849 67.018705247 -0.79656395418 199.41192616 59.655381215 1.982960603 125.49522554 20.52361227 -0.26765703626 
114.23153449 53.407528924 0.069724823103 196.93949248 63.451265144 -3.5280726911 -3.8027583457 18.40929934 -0.37158581128 
1.0344667067 28.206178623 -17.33797631 1.8148684536 6.9471545152 -0.029503624348 -0.23146732488 -0.61172919761 0.059168142108 
14.575890271 11.305136253 0.056400562644 0.00016963049936 0.020257802835 2.2734345671 1.1408369467 7.0576322619 0.11189871307 
13.843786058 11.119188174 0.32331247033 -0.032729179965 -0.17049722443 1.9297580468 1.2890252424 7.2344669253 -0.58553388206 
13.713109896 11.207493543 -0.25710653589 66.18532947 9.5915003719 0.43865162629 105.58431279 4.0625881185 0.38859969763 
108.94744563 5.7457470965 -0.75064204885 111.2774253 53.727510922 2.0247110151 1.8898546272 13.020931013 -0.23445563398 
-0.011849114035 -0.091890078526 1.7070024497 15.194256805 12.205759726 0.12539654649 -25.711701107 -21.668744953 -0.35131269788 
415.08302329 -24.053186753 1.4772897883 476.03042186 -21.366763891 4.7239639629 13.853234044 11.349250557 -0.85624809072 
125.98737355 0.51228073366 0.3286822693 167.2329779 -3.0654692381 -0.34314836672 190.5974893 -4.3413203646 0.54587803614 
228.17120413 -9.3625614372 -1.5970866644 248.94596198 -10.014718501 0.0093315210992 291.78218801 -15.030530044 -1.0139361023 
354.85977175 -20.374630701 -0.55122535073 311.8058128 -13.433269667 0.65346742163 -0.28378043407 -1.0681267011 2.1134559301 
1.5592838415 7.3763563653 -0.43936007891 179.40905392 59.860779906 -17.205698431 108.00690255 -10.359500418 2.1372174059 
-4.0038792478 -33.752482633 -17.616247654 -0.19926653531 -1.3248655958 -4.7037220852 -3.146838346 -14.299312105 -5.1895619114 
614.92520278 37.291475635 -4.6161329474 -588.27698183 -119.6695284 -1.4313798051 441.48472176 199.55388502 3.1925782732 
-108.48458169 -51.203571463 0.62669440344 3.8340791482 8.319378262 0.14561515839 4.4079625689 5.203776792 -0.069084597674 
3.0395967139 5.7492184484 -0.12546554534 57.121267973 -34.14706869 -0.6289971821 56.718787475 -33.428329674 0.78420228234 
49.5209295 -32.711048352 0.1510014678 -134.72918835 62.885268068 -15.822164198 78.810658414 -85.662498738 30.595049032 
213.35956392 -136.28634026 10.342134507 22.18730827 24.922455691 0.49165680438 -0.078220575744 35.013659669 1.2920111432 
-0.52121467297 23.787267848 0.19046581944 -5.6195197594 18.147711728 -0.78241354259 -5.6518838929 21.369787339 0.23125099789 
160.25340357 63.11418381 28.701004631 178.03183376 32.838716873 35.049185161 292.65721838 114.87246792 1.040509542 
11.541140416 4.0225721835 0.26677984303 1.9862988007 2.768926842 -0.0049492025462 -20.764716408 30.695763418 -1.4853117688 
-0.83545353894 -2.2746776716 5.2249784266 126.55121365 69.861259852 5.8754281931 149.66174256 69.439441409 3.5247074428 
-6.1466026349 62.0909051 -44.309340518 0.55718155911 -3.6987729395 -62.990233851 1.3616619492 -2.017384309 -33.559014312 
107.78460074 37.51417868 0.95922657009 16.641702945 4.9844672729 -0.19242661383 247.50748209 131.43914899 -5.5155757345 
63.292859869 -39.198805029 0.69323584391 -255.03108052 134.34431135 -13.552723211 -24.468066448 30.011067735 -0.31075351773 
4.1384227209 7.1270841293 -0.1763396963 4.4727248125 12.080632094 0.20692629125 12.298591738 11.363806849 0.040677674464 
21.151496496 8.6117541456 0.31820275999 47.190689715 7.2369088661 0.079073853173 81.314455075 -30.98707547 -1.858630669 
256.40915332 11.706772665 -7.5564886514 175.9271023 -54.891563323 9.495402276 436.87013536 -29.270303351 26.40204489 
575.94399052 60.837576999 -24.579102234 78.521304203 -34.77948147 1.3878847609 9.2768717581 8.2595455095 -0.32953551141 
3.1795463274 5.9648610053 -94.167979757 0.17715852269 1.1337182776 0.55358444545 0.24083252467 -0.86819692693 0.99659596225 
2.3831960598 12.317025837 -3.0222823288 105.48248075 47.826668158 -0.29300276371 106.67345457 45.946004809 1.1915207024 
622.98185816 2.5654069904 3.440859532 31.553410533 20.918023478 9.7117354001 613.20254312 -46.675630598 -7.1544948354 
2.8537868248 44.55641679 14.448541207 0.64157815242 15.052872272 -39.059425469 107.43748932 48.540451512 0.54087180108 
110.7229655 36.567881051 0.62119952118 3.2527376579 -5.1733852217 -0.76845538309 -0.082752585458 -0.77202632069 0.83659386824 
-28.909283667 -45.490557432 -71.155294044 391.79198025 100.76337868 8.7758113878 346.77822659 132.66509417 12.471662891 
-32.532078635 -28.188693474 23.201431982 19.896863541 17.470171141 0.0055478260553 17.123670078 14.503871964 0.75869635976 
16.590164606 13.809175305 0.5124348432 16.909160007 13.289814239 -0.3883981022 649.08291438 -16.116011771 -15.702753952 
77.253924052 -21.867261809 0.92809692624 -1.9684426069 6.3404294901 -0.13756636314 17.176270132 13.990749634 1.3485180878 
18.993301933 14.676265646 1.4225927528 
Critical%20Strain%20Ratio 1 949 double
0 0 0 0 0 0 0 0 0 
0 0 0 0 0 0.00075103215865 0 0 0 
0 0.0007993688404 1.060039072e-05 0.01110669594 0.013576529258 0 0 0 0.19575589983 
0 0 0 0 0 0.1983885567 0 0 0 
0 0 0 0 0 0 0 0 0 
0 0 0 0 0 0 0 0 0 
0 0 0 0 0 0 0 0 0 
0 0 0 0 0 0 0 0 0 
0 0 0 0 0 0 0 0 0 
0 0 0 8.1336145343e-06 0 0 0 0 0.00043065442446 
0 0 0 0 0 0 0 0 0 
0 0 0 0 0 0 0 0 0 
0 0 0 0 1.0854314266e-05 0 0 0 0 
0.00058874378424 7.9123460579e-05 0.00038844928884 0.00037782610637 0 2.7492440045e-06 0 9.6219115735e-06 0.016741748202 
0.00075482040886 0.0052878342133 0 0.00098922162631 0.0033288278272 0 0 0 0 
0 0 1.4499767869e-05 0 0 0 0 0 0 
0 0 0 0 0 0 0 0.001591484528 0 
0.098114413452 0.0030468422819 0.00025083536037 0 0 0 0 0.086762059287 0.0066439608349 
0 0 0 0 0 0 0 0 0 
0 0 0 0.00022699134623 2.2350668089e-06 3.540920297e-06 0 0 0 
0.0046985299508 0.00026712144951 1.5899980645e-05 0 0 0 0 0 1.2990903059e-05 
2.2659186925e-05 0 0 0 0 0.0071251589187 0.00037596286099 0 0 
0 0 0 0.0064702353611 0 0.084518908307 0.0009743050469 0.00010710792903 2.269979204e-05 
0 0 0 0.061835135988 0.0069767173328 9.097822147e-05 0 0 0 
0 0 0 0 0 0 0 0 0.11106869429 
0 0 0 0 0 0 0 0 0 
0 0 0 0 0 0 0 0 0 
0 0 0 0 0 0 0 0 0 
0 0 0 0 0 0 0 0 0 
0 0 0 0 0 0 0 0 9.9864005791e-06 
0 0 0 0 0 0 0 0 0 
0 0 0 0 0 0 0 0 0 
0 0 0 0 0 0 0 0 0 
0 0 0 0 0 0 0 0 0 
0 0 0 0.00036615298568 1.5084891029e-05 0 0 0 0 
0 0 0 0 0 0 0 0 0 
0 0 0 0 0 0 0 0 0 
0 0 0 0 0 0 0 0 0 
0 0 0 0 0 0 0 0 0 
0 0 0 0 0 0 0 0 0 
0 1.1783307822e-05 0 0 0 0 0 0 0 
0 0 0 0 0 0 0 0 0 
0 0 0 0 0 0 0 0 0 
0 0 0 0 0 0 0 0 0 
0 0 0 0 0 1.9432916617e-05 0.00039375290721 0 0 
0 0 0 0 0 0 0 0 0 
0 0 0 0 0 0 0 0 0 
0 0 0 0 0 0 0 0 0 
0 0 0 0 0 0 0 0 0 
0 0 0 0 0 0 5.1310374973e-05 0 0 
0 0 0 0 1.2336838174e-05 0.0023951893306 0.0012461907934 0.002503075549 1.6312474624e-05 
0 0 0 0 0 0 0 0 0 
0 0 0 0 0 0 0 0 0 
0 0 0.0010130769232 0.0073209231274 0 0 0 0 0 
0 0 0 0 0 0 0 0 0 
0 0 0 0 0 0 0 0 0 
0 0 0 0 0 0 0 0 0 
0 0 0 0 0 0 0 0 0 
0 0 0 0 0 0 0.00083907326919 1.0888421852e-05 0.0030464526828 
0 0 9.4595684574e-06 0 0 0.00026639089794 0.0028916393092 0 0 
1.4841510692e-06 2.5794745632e-05 0 7.9422422612e-05 2.8237691264e-05 2.0943087069e-05 0.00014160982689 0.0033637754306 0.00049861276744 
0.0033621666762 0.0067489941299 7.0472995585e-05 0.0057848523235 0.0020490551693 0 0.091515988509 0.0039967570275 0.0028158412607 
0.086716066025 0.063028424803 0 0 0 0 0 0 0 
0 0 0 0 0 0 0.00016998865099 0 0.00036667115614 
0.0017467665891 0.00019103001803 0.00018085325034 0 2.5106883556e-05 0 1.0571189592e-05 5.258280601e-05 0 
0 0 0 1.0777769387e-05 0 0 0 0 0 
0 0 0 0 0 0 0 0.0067512753878 0.00015328862222 
0 0 0.00041502129472 4.7210777249e-06 0 1.6546087701e-05 0 0 0 
0 0 0.0015890637927 1.7249011405e-05 0.00013253048114 0 0 0 0 
0 0.00045314007077 0.0025246199738 0 0 0 0.0041009615213 0.00057689755039 2.5659491771e-05 
0.0069224088914 0.00088453693344 0.0048965869785 0.00010993126615 0 0 0 0 0 
0.0021717935422 0 0 0 0 0 0 0 0 
0.0058870235783 0.072379666794 0.078209920492 0.0038370076044 0.10094540795 0 0 0 0 
0 0 0 0.00010973714081 7.5226270538e-05 0.00027795028661 0.0012587914317 0 0 
0 0 0.00053998496564 0 0 0 0 0 0 
0 0 0 0 0 0 0 0 0 
0 0 0 0 0.0024817793641 0.055139960399 0.083941809288 0.0040664505866 0 
0 0.00031057776351 0.0060843665575 0 7.2909582596e-05 0 0 0 0 
0 0 0 0 0 0 0 0 0 
0 0 0 0 0 0 0 0 0 
0 0 0 0 0 0 0 0 0 
0 0 0 0 0 0 0 0 0 
0 0 0 0 0 0 0 0 0 
0 0 0 0 0 0 0 0 0 
0 0 0 0 0 0 0 0 0 
0 0 0 0 0 0 0 0 0 
0 0 0 0 0 0 0 0 0 
0 0 0 0 0 0 0 0 3.7871320129e-05 
0 0 0 0 0 0 0 0 0 
0 0 0 0 0 0 4.4721240967e-05 0 0 
0 0 0 0 0 0 0 7.5925301921e-05 5.5449992339e-05 
0 0 0 0 0 0 0 0 0 
0 0 0 0 0 0 0 0 0 
6.271899534e-05 0 0 0 0 0 0 0 0 
0 0 0 0 0 1.853932205e-05 1.9833673389e-05 0 0.00018225941545 
7.4319626743e-05 0.00022962499574 0 0 0 0 0 0 0 
3.6155958834e-06 0 0 0 0 0 0.00083614351725 0.00040936030378 0 
0.0053399257244 4.1975099384e-06 0.00076114914969 0 0 0 0 0 0 
0 0 0 0 0 0 0 0 0 
0 0 0 0 0 0 0 0 0 
0 0.0029761645537 0.0062874761354 0 0 0 0 2.7119740467e-05 0 
0 0 0 0 0 0 0 0.0010715496877 1.7363354027e-05 
0.00012920997812 0 0 0.0033656793229 0.070769916355 0 0 0 0 
0.0055122065341 0.0013372818453 3.6767897128e-05 0.06762542301 0.0031181079565 0 0 0 0.067873402509 
0.002428376099 7.3638364937e-06 7.110499613e-07 0.00018910533376 0 0 0 0 0.0044347319025 
0 0 0 0 
Displacement%20Magnitude 1 949 double
0 0 5.6185598308e-06 5.7141405028e-06 0 0 2.0723052464e-05 2.0676358827e-05 2.0930355807e-05 
2.093077173e-05 3.5163249999e-05 4.3103794561e-05 3.5575183372e-05 6.5440802752e-05 0 3.4641048475e-05 4.3313721526e-05 3.5699200188e-05 
6.5445557412e-05 0 3.4418645022e-05 0.00034974619977 0.00034623946433 3.414566218e-05 4.3081337797e-05 4.3179032931e-05 0.00034287817615 
0.014538562374 0.01877752412 0.018764934495 0.014523482915 0.014522888531 0.00034595842367 0.014538530049 0.018777313259 0.018764307701 
0 5.6387797505e-06 2.3691126202e-06 1.0336608045e-06 3.819060639e-06 2.3772573824e-06 1.037550176e-06 3.8681077436e-06 0 
0 0 0 0 0 0 0 0 2.0681644602e-05 
2.0899157206e-05 2.0907647344e-05 1.3353330917e-05 9.3351685193e-06 1.7202839651e-05 1.3271210881e-05 9.3132884059e-06 1.7228058123e-05 3.0143100498e-05 
2.5729701174e-05 3.246198284e-05 4.3765886344e-05 4.6758649469e-05 3.9049450739e-05 4.6523352682e-05 4.4985180133e-05 4.0152718355e-05 3.7599292012e-05 
4.1513148612e-05 3.880522596e-05 3.6493014077e-05 4.0884251236e-05 3.6334023623e-05 5.1652039022e-05 3.8042765263e-05 5.1785571064e-05 1.9880482857e-05 
8.8701888404e-06 8.9423875213e-06 1.2960382032e-05 1.3102714012e-05 6.4204723065e-06 9.0138602457e-06 1.0353484823e-05 1.4024385034e-05 8.8868277478e-06 
3.0198612767e-05 2.5797143456e-05 3.2189863033e-05 4.3204833131e-05 4.6910912472e-05 3.8659763682e-05 4.6292434505e-05 4.5336881373e-05 4.0275762733e-05 
3.7756960143e-05 4.1588618443e-05 3.8947746001e-05 3.6655879604e-05 4.105856038e-05 3.6416183644e-05 5.1738653088e-05 3.8068575861e-05 5.1816091839e-05 
1.9941777272e-05 8.763357251e-06 8.8341779685e-06 1.2961920218e-05 1.317480986e-05 6.3242683274e-06 8.9208877653e-06 1.0289554676e-05 1.4078478821e-05 
8.9530722042e-06 0 0 0 3.4917333223e-05 3.0946999724e-05 2.6251674085e-05 3.2999139167e-05 0.00034758811085 
4.2426538637e-05 0.00010680104537 2.827089889e-05 4.3049237201e-05 0.00010009973244 2.8732256407e-05 3.1098650851e-05 2.6269807733e-05 3.2710752088e-05 
3.4518652199e-05 4.3055207169e-05 4.4593017758e-05 4.7937394726e-05 3.8821223807e-05 4.791696939e-05 4.5555139737e-05 4.3278407519e-05 4.3209070003e-05 
3.5606581743e-05 6.5454726329e-05 4.4131571786e-05 4.8200520062e-05 3.8577214355e-05 4.7676823553e-05 4.5926041122e-05 6.036648521e-05 4.8735159245e-05 
0.00012711366444 0.0014049267885 0.0031388191414 0.0051511400743 0.007336189504 0.0096525812085 0.012064704729 0.00084430930288 0.0022311882461 
0.0041202904643 0.0062248574087 0.0084803363948 0.010848749672 0.013295972764 0.01665559933 0.015595829887 0.017716442691 0.018745916063 
0.016641547034 0.015581070069 0.017703101309 0.0013999405561 0.0031299442168 0.0051399767385 0.0073227757655 0.0096376418525 0.012049159798 
0.00084069453797 0.0022239571829 0.0041101866579 0.0062124372514 0.008465839541 0.010833357666 0.013280593472 0.0145232376 0.0013972322289 
0.0031287747054 0.005138885481 0.0073218059594 0.0096367064002 0.012048393924 0.00083730507231 0.0022219442046 0.0041091046838 0.0062115999277 
0.0084651417232 0.010832615175 0.013279754773 6.0923664632e-05 4.9000214413e-05 0.00012102213433 0.0014081587141 0.0031395127535 0.0051516154507 
0.0073363875268 0.0096525371994 0.012064536762 0.0008436629173 0.0022320519994 0.0041206737626 0.0062253149872 0.0084802579959 0.010848812298 
0.013295764553 0.016655519825 0.015595669241 0.017716246485 0.018745594487 0.016641013159 0.015580487811 0.017702466441 0.00034338996912 
0.01453859614 0.018777418546 0.018764620985 9.4881861004e-07 4.0892981813e-07 4.102765039e-07 1.5930079228e-06 1.6000559419e-06 3.7943522997e-06 
2.2994217557e-06 0 0 0 0 0 0 0 0 
0 0 0 0 1.7522495693e-05 1.4515990741e-05 9.825108527e-06 9.8492257713e-06 1.3922657282e-05 
1.3894534987e-05 1.9097757077e-05 1.908113091e-05 1.5494219329e-05 1.9190454103e-05 1.7699175237e-05 1.7711993071e-05 1.6026063352e-05 2.7661804282e-05 
2.1134778989e-05 2.5156934908e-05 1.6521309914e-05 3.0725036637e-06 3.150976957e-05 2.0321573095e-05 1.1588042296e-05 2.3607539956e-05 2.150105876e-05 
2.2626353303e-05 1.9084022356e-05 2.8542885119e-05 1.5385625393e-05 3.7030225686e-05 3.2677844246e-05 7.4853570847e-06 1.4627435441e-05 1.3926629702e-06 
6.2160164442e-06 1.0548345138e-05 2.6043002429e-06 1.1719357921e-06 4.5352905736e-06 4.8814048789e-06 1.9737105922e-06 9.5417931594e-06 7.8774031477e-06 
5.0514145939e-06 9.3584337325e-06 1.2313486748e-05 1.6667873638e-05 1.9572242289e-05 2.281439868e-05 1.387780691e-05 3.0798282808e-05 3.5400873697e-05 
2.6194805949e-05 2.8075980148e-05 2.4725011107e-05 4.137790414e-05 4.0633143733e-05 3.8470339116e-05 3.0461234591e-05 2.8175805936e-05 2.9196059806e-05 
3.157835219e-05 2.0884648798e-05 3.7441915091e-05 1.3119253672e-05 1.3934777158e-05 2.726401667e-05 1.3585496073e-05 3.7032430771e-05 3.9849180908e-05 
2.9847322444e-05 3.4683911532e-05 3.6822113635e-05 3.4373598787e-05 3.4567851475e-05 3.1591855707e-05 2.2839627919e-05 2.8945053742e-05 1.2305212014e-05 
1.2036734997e-05 1.3516898915e-05 1.1567649405e-05 1.2224555712e-05 1.5490583605e-05 1.4671051532e-05 1.5855341414e-05 1.5834114916e-05 1.6098885419e-05 
1.973388493e-05 1.7343176059e-05 1.7516847428e-05 2.1401581522e-05 1.9216979533e-05 2.5979215408e-05 2.3233191844e-05 3.0157629458e-05 2.9429832146e-05 
2.5559327299e-05 2.3880237939e-05 3.2509296491e-05 2.5930907423e-05 2.0576163831e-05 2.4582602436e-05 1.7742286117e-05 2.1169249599e-05 1.8747087096e-05 
1.7853003006e-05 2.7758634886e-05 2.0961386622e-05 2.5251258958e-05 1.6490555481e-05 3.0432620376e-06 3.1547788919e-05 2.0324713673e-05 1.1600498314e-05 
2.3723874961e-05 2.1826126666e-05 2.2477194387e-05 1.9225205913e-05 2.827376434e-05 1.5241785124e-05 3.715966357e-05 3.2797253128e-05 7.5801921753e-06 
1.4544819827e-05 1.3846064083e-06 1.0525092941e-05 6.2116605669e-06 2.6183741353e-06 4.5650059126e-06 1.1674513863e-06 4.8243470341e-06 2.0299673595e-06 
7.6902863888e-06 9.4842957294e-06 4.7408158869e-06 9.2354435282e-06 1.6593524444e-05 1.2283580447e-05 2.2906927281e-05 1.9431767498e-05 1.3904076122e-05 
3.4992865103e-05 3.0487665203e-05 2.7816618501e-05 2.6053090149e-05 2.4527001202e-05 4.0741198809e-05 4.1700750383e-05 3.8584329868e-05 2.8428136671e-05 
3.0647614351e-05 3.1661575415e-05 2.9447562385e-05 2.120007561e-05 3.7531345821e-05 1.4083645557e-05 1.3252466758e-05 1.3765270399e-05 2.7325926631e-05 
3.9765484212e-05 3.6720454083e-05 2.9670239634e-05 3.4774986035e-05 3.4519362421e-05 3.6949730435e-05 3.470138293e-05 2.3042269916e-05 3.1718652144e-05 
2.9068075678e-05 1.1959903354e-05 1.222922667e-05 1.1479948519e-05 1.3475863516e-05 1.5399501669e-05 1.2110576905e-05 1.454278308e-05 1.5879227477e-05 
1.5956629254e-05 1.9809366385e-05 1.6096283855e-05 1.7304815395e-05 1.7589346626e-05 2.1480969861e-05 1.9101994455e-05 2.3375888336e-05 2.6007267965e-05 
3.0216436004e-05 2.3996356242e-05 2.5507092546e-05 2.9545604575e-05 3.2558049308e-05 2.0497616542e-05 2.5801098154e-05 2.4380309472e-05 1.7603523267e-05 
2.0966147295e-05 1.7690144424e-05 1.8588920518e-05 1.4170983822e-05 1.0563504042e-05 9.0228853069e-06 1.0417091434e-05 7.32458135e-06 4.2942079092e-06 
4.4689863668e-06 8.3626193113e-06 4.3680296478e-06 8.2916477071e-06 1.2134767827e-05 6.008231085e-06 5.5942146605e-06 5.9979444543e-06 1.2157593615e-05 
9.1740341774e-06 8.9519950268e-06 8.7549582179e-06 9.4480440431e-06 1.1650957767e-05 9.1761704953e-06 1.3722212988e-05 1.4273689021e-05 1.2667636312e-05 
1.3580969013e-05 8.8846812349e-06 9.1139009552e-06 1.1618142652e-05 9.3919846457e-06 1.4294188758e-05 1.3729022991e-05 2.5896122888e-05 3.0421755612e-05 
3.2671189002e-05 2.8659005414e-05 4.2564298701e-05 0.0001006000124 2.5879653731e-05 3.0511198934e-05 3.2410976495e-05 3.9076515758e-05 4.4065860869e-05 
4.5153735985e-05 4.7161782274e-05 4.6916720454e-05 4.0939575704e-05 3.883076878e-05 3.6808024718e-05 4.1903347037e-05 4.186613726e-05 4.0508503135e-05 
3.6176301829e-05 3.6078611416e-05 3.716043684e-05 4.1551255953e-05 3.7257376801e-05 4.1911824327e-05 4.0549427678e-05 3.8166055998e-05 3.9433204789e-05 
3.9818786289e-05 3.7777252423e-05 3.8242743393e-05 3.9492309701e-05 3.6443183884e-05 4.0993376059e-05 5.1717975625e-05 1.9959066824e-05 5.1811492486e-05 
5.8636630676e-05 5.8646455393e-05 4.4941040394e-05 1.036293458e-05 1.0316993449e-05 2.9004673283e-05 4.496769079e-05 1.0350435547e-05 2.9006967326e-05 
3.8107046573e-05 3.8667470415e-05 4.5433314756e-05 4.3573473789e-05 4.7357739111e-05 4.6687229554e-05 0.00049900123632 5.120832547e-05 8.2728134399e-05 
0.013252679792 0.0061572500593 0.0040352555115 0.0084228782821 0.010798989418 0.0021051525248 6.6893034623e-05 0.015557855888 0.017682957664 
3.6397674724e-05 5.4044425238e-05 4.5346092491e-05 4.0228637985e-05 4.0558152675e-05 4.855185441e-05 6.2937685949e-05 7.049234686e-05 4.6045451059e-05 
0.00013386624391 0.00037661765453 0.00091375402697 0.00016613855128 0.00021539461656 5.3844686719e-05 0.00014187491267 6.5104595e-05 0.00091051179478 
0.00036657622144 0.0001502659139 0.014498221321 0.013878944167 0.01388661522 0.015039312817 0.015031822839 0.016099663301 0.012647038804 
0.018217744393 0.018224280791 0.017161824743 0.017154976586 0.016092500544 0.012639290155 5.3667670924e-05 0.016620004557 0.0025943136071 
0.0016984275401 0.0012351656407 0.0016951303021 0.004571724656 0.0035555585377 0.0030386217759 0.0035507103088 0.0025901328707 0.0067292238722 
0.0056314241795 0.0050762369818 0.0056254384858 0.0045663237026 0.0090234407691 0.0078615995213 0.0072741627527 0.0067227067069 0.0078545811997 
0.011420315582 0.010211278231 0.0095991688889 0.0090160603773 0.010203703397 0.012018190973 0.011412556671 0.00084483627141 0.0014000228736 
0.013280334035 0.012048880282 0.0022238065178 0.0041100777984 0.0051398242077 0.0031299144858 0.0062123796859 0.0073226150085 0.0084657581133 
0.0096374029664 0.010833199166 0.00050075523261 4.8976397099e-05 8.3128425795e-05 0.013252267674 0.0061569424797 0.0084224733964 0.010798589158 
0.0040349273074 0.0021050670583 6.672551004e-05 0.015557540959 0.017682639697 3.6826782579e-05 0.00013563555073 4.5605752756e-05 0.00091259508754 
0.00037300968042 0.00021647730968 0.00016324765239 6.2502779919e-05 4.5147217794e-05 5.3876822277e-05 4.0171849747e-05 3.9560237225e-05 4.9953894849e-05 
7.1655405503e-05 5.417360609e-05 0.01388634733 0.013878378973 0.01449781431 0.015031370456 0.015039031059 0.012638618254 0.016092065782 
6.4230815406e-05 0.0001419556471 0.00036909465528 0.00091211573984 0.00015245699152 0.016099469657 0.012646688473 0.018223968908 0.018217219662 
0.01716152275 0.017154448052 5.32831466e-05 0.0025892035941 0.0016938097808 0.0012346567292 0.001699376928 0.0045656300834 0.0035499762559 
0.0035556768603 0.003038318837 0.0025946286988 0.006722079062 0.0056248133645 0.0056314846999 0.0050759351291 0.0045717925522 0.0090154172773 
0.0078539865849 0.0067292159585 0.007273815791 0.0078614520155 0.011411986641 0.010203110244 0.0090232196033 0.0095987672446 0.010211072364 
0.012017790319 0.0114200839 0.016619584517 4.9067674237e-05 6.0428565162e-05 0.00012115355717 0.00084807488466 0.0014081280652 0.013296019713 
0.012064770776 0.0031397007986 0.0022323928563 0.0051517621202 0.0041209350913 0.006225443676 0.0096527988261 0.0084805842991 0.0073365958271 
0.010848929872 0.01559575008 0.01771634451 0.016655609514 0.018745705212 0.017702786445 0.016641331932 0.015580835893 4.3868576514e-05 
4.392091811e-05 1.4685430568e-05 1.7796533909e-05 1.7937813187e-05 1.4742519688e-05 1.2540217625e-05 1.2584749918e-05 1.2637350537e-05 1.74095561e-05 
1.5464352098e-05 2.1221750775e-05 1.2701885651e-05 2.0656893714e-05 1.5225931933e-05 2.0395184362e-05 2.6030349029e-05 1.8850336291e-05 2.4680624407e-05 
2.9969165263e-05 2.862891124e-05 1.1938281979e-05 1.187516548e-05 2.5618198953e-05 2.1274395871e-05 1.5202384061e-05 3.7086017437e-05 3.5556694918e-05 
3.5599584332e-05 2.4826507996e-05 1.5364740811e-05 1.7322762062e-05 1.5356997712e-05 2.1624264813e-05 1.9308950915e-05 4.1475298121e-05 3.9773226802e-05 
4.8590705707e-05 3.992302395e-05 4.1740809437e-05 1.5561240712e-05 4.4717499089e-05 3.5224093981e-05 3.7263025813e-05 3.165808644e-05 1.6735114891e-05 
1.6722683324e-05 2.9542570489e-05 2.3981526677e-05 2.3373750326e-05 4.7510298731e-05 1.2455151634e-05 1.6320105006e-05 1.9860333072e-05 2.2759630228e-05 
4.1758624641e-05 3.4665553067e-05 3.968688298e-05 1.7470993073e-05 2.5152259301e-05 3.7030387862e-05 3.6802685527e-05 1.6272347347e-05 2.774256383e-05 
2.5989709933e-05 1.4050907097e-05 1.4035420981e-05 1.3885762676e-05 1.1523695936e-05 9.0997206828e-06 9.1276289224e-06 1.1719881729e-05 1.9348264183e-05 
1.4947859863e-06 1.4953298445e-06 1.6587774163e-05 1.1662529315e-05 3.2516998973e-05 2.8962854859e-05 3.0162338393e-05 1.2407434313e-05 1.3722065014e-05 
2.272817816e-05 3.0427627332e-05 3.2801051323e-05 3.2875034711e-05 3.0508449411e-05 4.5372405085e-06 3.0193890835e-06 4.8987924165e-06 3.2669874951e-05 
2.8098064906e-05 3.054716684e-05 3.0856856415e-05 5.3987525121e-05 4.5592665322e-05 2.9762187548e-05 1.3714694553e-05 2.1472424667e-05 3.7250253665e-05 
3.9172822303e-05 3.9197308023e-05 3.4568494049e-05 3.7965726698e-05 4.0544080919e-05 6.2097962456e-06 7.5089925508e-06 1.2888622562e-05 1.2871469369e-05 
2.3065306627e-05 2.6155210362e-05 2.652258049e-05 3.5846123962e-05 1.6578187032e-05 1.9431675855e-05 1.6557284569e-05 2.7867052178e-05 3.1576253991e-06 
3.7305421894e-05 2.9833665405e-05 4.0591799789e-05 1.9390293548e-05 7.5257907717e-06 4.8090547145e-06 9.2624267089e-06 7.2977041989e-06 3.5794257951e-05 
5.4188422802e-05 0.01264701294 0.013886580703 0.013252574316 0.0067295584035 0.0056318233569 0.0061574472786 0.0090235801932 0.007861794721 
0.0084229522009 0.013878760342 0.012639107314 4.7200539833e-06 1.4845913553e-05 0.0035561102614 0.0045721814493 0.0040355222372 0.0021057460259 
0.0025903219036 0.0016953206499 0.010798989291 0.011412475511 0.010203609886 0.0090160087841 0.0078545478084 0.0067227282442 0.0056254792801 
0.0035507966405 0.0045663785529 0.011420399513 0.010211375091 2.2908310947e-05 2.8856629842e-06 0.0016997013722 0.0025951270061 4.0508294331e-05 
0.00013292994311 5.0390495564e-05 4.587801208e-05 1.4808747632e-05 0.017161673799 0.017682748663 0.018224124342 1.1398332944e-06 1.134349306e-06 
5.3345676139e-07 2.8034730978e-05 3.0795298863e-05 3.450416952e-05 2.931831728e-05 2.3592784322e-05 3.1637664991e-05 1.950397177e-05 1.9561910988e-05 
2.287632688e-05 2.6242891656e-05 3.1528381888e-05 0.017154712613 0.018217481521 1.35022741e-05 2.095977757e-05 1.664801827e-05 1.9449343055e-05 
4.5783531175e-05 6.7659445352e-05 7.4408666471e-05 1.113848197e-05 2.8186729063e-05 2.5902728097e-05 1.3266300907e-06 5.101163919e-05 1.3629525126e-05 
0.01609961565 0.015039271424 0.015557748588 0.016092336722 0.015031645727 3.1614788663e-06 3.2618662513e-05 8.7783884032e-05 4.060260906e-05 
6.4705085124e-05 2.6037446579e-06 0.016619794693 6.3733641582e-05 0.0001397069689 3.7508954013e-05 5.3483990609e-05 1.3008413752e-05 1.2969332165e-05 
0.00038071206354 0.00050393001956 0.00091572245204 0.00037239939098 0.00091353351119 1.2792383103e-05 1.1153704546e-05 2.9255389069e-05 0.00015413595975 
0.00022394191235 4.0331605186e-05 3.6781822245e-05 0.0012355952541 0.0030389200326 0.005076492599 0.0072742996494 0.0095992085294 0.00016622513858 
1.9622314023e-06 2.9228777685e-05 0.014498118987 0.012018190341 
Tresca%20Stress 1 949 double
23366041.938 23506545.554 57709453.492 57219333.188 160307715.72 156564964.62 83218341.452 103062997.9 91253893.189 
79235863.395 47117439.223 54750066.771 46032745.993 201985.07779 177528576.95 49079599.319 65725775.643 43594358.502 
909003.32404 175764211.41 165545152.19 335754513.93 315207585.41 138069176.13 75423806.314 86560091.309 347967297.86 
59333066.834 3719776.6158 305054.03494 55297962.3 55664126.692 333119947.17 55877699.312 4516511.3216 432211.29736 
19644700.227 56350603.926 41366849.674 30793410.789 48673097.132 41135587.66 30977400.319 49279156.06 164495239.54 
163280428.26 173256557.34 49629062.188 38722434.92 77376532.014 50317231.832 38438157.621 81028221.779 87707191.204 
94516896.437 86708222.984 52932335.74 55320910.949 52073367.353 57064662.889 54499961.058 57874205.827 103148919.81 
99628988.902 43627922.805 80821905.51 106595224.22 36685526.726 78628757.927 82258585.631 14445638.295 27870044.292 
33373967.663 6792800.2957 36656281.241 3934137.8626 25418667.121 1323427.8034 3316461.0475 2109158.8984 48283866.14 
56526274.461 21952848.134 42934569.791 127916429.82 178007113.33 14768756.669 37727832.268 45599876.106 304964148.66 
98800074.012 101541540.32 38466931.487 75345262.561 100687541.4 46029466.529 75817660.135 84717842.337 12619972.22 
27540164.489 34748330.367 6404419.5466 35691502.21 4738407.9405 23800605.797 2043104.8233 4465816.6604 2593667.9489 
51161728.232 55296461.61 23685308.692 43153714.98 129548293.49 174244902.91 14302568.683 38604074.64 44764141.308 
306306515.25 146970844.72 153984720.33 151858745.76 93464850.309 160555803.52 127570254.1 114357316.45 316121053.74 
284265818.65 298340293.17 178510493.65 264060125.46 308404227.77 178890435.72 166300353.93 136997715.2 131400657.57 
85336544.329 63371909.921 160117346.3 168247126.62 113988391.63 173861073.49 123573079.04 79247279.087 68117306.071 
42340544.368 572991.07232 155188735.92 172321672.57 122525838.59 164343275.12 127634700.89 299326890.12 185559180.53 
325221867.35 473477679.1 360820607.96 298715766.57 239072322.84 180365165.04 116566133.04 318724044.21 337308089.12 
333547899.51 269782768.53 208841302.43 145753148.41 84706133.265 16985158.793 35814446.682 8385488.9958 2063151.9986 
15041076.289 31348572.621 5875360.6798 420505278.97 374703818.55 301868299.3 238824495.61 176449236.19 117581045.19 
316425622.19 365922785.05 330470774.03 270690137.26 207905190.37 147419747.81 84755762.561 55359012.034 456815892.48 
355192173.94 299559767.72 238915562.5 176871283.64 114149934.62 303897449.04 325279617.78 332816059.04 269412885.46 
209497048.81 146118587.7 84693655.455 295758804.87 190702647.18 305997519.63 395281926.58 368779207.62 303588258.14 
238523254.23 175965218.71 113185042.58 306563074.27 327267755.54 333600499.77 270195839.86 206952934.81 148135174.03 
84833828.539 18623497.747 34078644.014 8841975.5708 2297699.5877 15150033.841 32744601.766 5121657.3257 319163350.38 
57237840.619 4057885.4472 340375.11914 30048705.417 25449812.368 25537340.772 34241193.234 34287401.799 48592356.203 
40379374.11 72910834.963 35605605.397 29281301.424 29133996.502 42515115.316 43500665.055 95816111.489 109600433.84 
59392791.624 115712648.99 58676280.148 48911968.162 50665807.13 54815313.678 53193840.232 54198099.885 53916336.348 
56717594.051 54110435.939 58856032.865 49662619.6 62590688.637 57282400.334 55264572.551 50050749.451 111594828.6 
62120644.919 99506785.055 69416321.224 67424834.003 109366596.56 61879849.151 66817108.797 48738176.634 65887783.049 
73157700.384 103842514.99 87212904.037 40725637.895 92180990.535 69502065.819 82354328.237 38698270.198 42483116.593 
68273266.576 64711805.973 45990290.955 52565588.349 58635454.406 72365296.064 106575526.83 60615279.743 131180072.36 
137674695.12 64987780.077 65385627.058 76038854.573 82554837.971 79847250.302 90888308.671 65058621.128 84758045.948 
73573320.781 69949280.688 63329183.356 90163553.775 65749682.335 53761566.478 21101943.645 17133564.119 30667735.335 
18448666.516 35374292.586 1786175.4428 146024384.69 83054713.946 30043004.707 30734346.09 106732299.94 98247046.116 
85688771.296 102123634.1 39684039.701 26594214.241 77442195.022 38048985.91 80397360.378 77495342.994 23350541.845 
62299061.521 40019664.112 31626454.386 31776642.553 37464859.384 42481304.747 97867126.397 56488072.148 40462980.007 
83168833.444 40401865.917 116378278.12 111942075.62 62293970.986 104354532.85 112699528.62 91748718.528 105805093.55 
82476271.474 87802094.281 101503498.87 77406788.71 56541014.468 74109267.488 51784400.758 51682732.434 46419965.09 
49532291.111 112093772.03 66250817.832 103787079.25 67807155.545 64586462.702 112655485.1 62472673.93 69958162.614 
58992673.546 66892783.771 66720108.335 104634756.46 87125079.166 41928815.079 93891617.126 69562575.179 97711271.348 
40696762.279 43262087.674 66506281.21 67262735.331 47282734.533 57979662.051 51874318.433 79992697.593 107020080.86 
132914437.07 66603721.906 130991636 63106530.726 73978090.251 65762714.785 85423982.748 81001010.898 92348018.298 
73873557.793 75482970.836 67932974.514 67486203.141 65891412.583 74550329.272 92628394.763 51751097.145 20533489.24 
23527022.116 20363053.344 24800165.175 39537596.737 2934852.9208 84424600.507 145609485.47 34460926.89 32967713.461 
98496703.993 102143532.62 88268901.662 105258889.35 27672309.203 40448527.456 77414437.961 80872061.169 42028739.534 
78097548.402 59900247.689 23512363.773 33051711.326 41143623.378 36761305.57 34947220.015 43635044.415 57421533.942 
100953504.57 83505187.541 39473185.661 42425996.665 119332366.16 110084763.93 62646398.712 111881201.09 107952701.89 
94161993.061 87574462.803 85867824.929 107649090.55 103697251.83 59138232.016 80650216.455 74932984.084 55218994.91 
55321042.584 51735154.659 48441295.252 28240670.072 35675449.236 9578748.3655 201673734.86 112863341.17 200843171.82 
225400670.31 82653450.445 223657551.35 81144988.92 160187740.17 360916920.03 348287971.01 360311614.25 161413215.07 
26248165.886 11611428.482 47488214.929 27100697.176 53423333.738 20403016.673 31073710.015 55228380.296 41135425.174 
95543769.287 13030215.884 24775543.514 52974400.811 27583602.948 55521390.252 30929307.587 115309684.16 118028647.24 
101958881.03 177083115.02 255933767.93 277076966.41 108310749.79 127668817.3 97934880.833 77248659.129 111853582.95 
104031420.14 133980928.43 120532480.49 27425473.465 5017164.0941 39443187.895 49182132.303 39782860.651 20876544.454 
37206928.249 38645582.062 33495828.162 34466646.644 32595594.528 46097241.355 20047918.848 15277300.397 4832468.3975 
10899603.61 22404469.608 15201697.885 4936470.8903 22483880.811 3750942.6175 1027065.6685 14683907.642 1734378.6369 
863503.27845 1057325.0512 2545849.1906 69239562.075 72974031.719 8124193.5792 3547103.1361 76909557.809 8650663.5854 
2214918.881 72844609.043 96949916.398 109991865.7 134478696.97 118596640.34 90874658.299 404761481.34 56185297.239 
17682961.548 17703146.058 17615765.34 18561193.619 18401201.826 36788466.089 366841537.71 14891574.125 5219297.8432 
254907839.63 298341856.59 219789536.55 274136324.26 315072598.27 277578381.43 332625933.22 235132608.69 346177351.76 
331842359.61 321561949.82 323547583.99 311206675.82 97429785.979 249406456.99 318108420.46 343082862.04 300549360.05 
339181693.62 300439652.23 20727150.696 32190306.202 35321880.122 31831293.918 27685375.557 13237801.582 57992893.403 
2741559.9841 3351266.1498 10378633.314 8585993.2333 12513280.48 58875589.417 240195548.38 10324112.213 210076258.85 
245495193.48 47106656.927 255739093.22 153584711.79 183804436.21 27970564.944 181931736.58 204087337.39 124978967.25 
148220450.65 22303709.935 149513259.96 153909245.58 94528719.99 118194167.35 22061267.453 121465731.55 117664392.8 
60875743.598 87471696.992 21058815.781 91397871.942 86951107.521 21601578.332 64108723.098 313949586.42 418245128.72 
84278561.069 114302274.8 331685667.38 330479918.15 301464046.58 360983219.22 269199056.64 239952821.29 207778838.68 
176660471.22 146922661.28 53566569.864 289431596.28 175917274.55 19725656.997 17246754.345 17364559.467 17507178.331 
19323826.569 35291082.003 332308938.43 15977779.849 5268219.1465 268892570.8 311024509.11 264219606.51 308744840.64 
303577313.88 155511649.79 304354289.02 273690855.25 168480550.56 250244391.38 229025208.84 227413440.44 215117531.05 
185921096.91 277323351.93 34748271.987 35146745.241 19178932.888 28205954.262 29980008.523 57595196.917 12668600.548 
290814524.72 316861179.09 336567355.45 305788137.66 304863009.39 15956683.097 56888224.9 4128638.8894 2609209.483 
10563044.276 6918638.8226 252121398.5 223109611.04 262372500.71 62009922.183 267981399.51 155878871.86 182564264.21 
183544409.61 24382091.659 218659355.49 124146769.68 147121455.4 151119417.32 21486104.355 156057767.6 92704134.067 
119279461.23 122933250.39 21670459.223 117920310.79 61872202.071 88622989.287 90551077.663 22349417.986 89007477.715 
21244088.472 61934328.511 9507316.441 191283137.83 281415531.52 300886996.92 304340860.37 415941495.67 85525219.223 
114930085.05 359753808.49 351980828.12 299105607.71 332033246.59 269473007.23 177478155.62 206382142.48 238771816.12 
145714953.07 33441206.331 8153668.7538 18509450.544 1824105.6713 4868863.8345 14918863.09 30555111.586 671589.7623 
1254088.2561 40866781.086 51829467.92 47442809.729 40298871.306 35441665.099 35121577.837 36796692.727 44397172.737 
38272745.148 63548228.475 36762174.123 58440454.437 36461847.991 60885002.573 79255836.949 46303799.462 74204693.434 
85634643.043 85152300.324 19313824.089 20372908.565 82497952.169 52312307.175 37558557.806 124493597.43 103898426.11 
114118517.53 63341699.491 119559135.9 121879885.48 119415450.63 102437783.67 99051529.155 102643302.7 117342945.2 
172193651.5 127846797.45 116113371.18 40155763.199 165450458.81 98699585.95 123888233.02 103632108.14 49264545.427 
49402656.719 102316429.98 86061604.699 107328485.96 174149517.43 32523083.019 62333017.482 81260416.04 60951350.86 
109416200.18 98155890.906 116216664.16 124649836.94 95122888.528 90570776.486 116811853.43 60883979.12 109565089.73 
102897877.1 35479369.363 35382987.23 88338978.312 67491985.163 87584281.905 81984238.178 76298230.405 56341600.782 
68061850.312 68147387.077 64291833.158 74717874.775 100556065.85 77021780.136 89634088.903 33671053.404 107415516.69 
75314222.493 27317997.831 40513126.73 41114531.162 32041094.326 58836895.723 67007803.567 80272342.905 67748578.223 
92650043.929 92972060.347 93257637.139 244045283.95 133062341.06 20898748.839 107911420.26 55935311.174 41480971.329 
55768606.578 53981895.658 75349465.878 118735283.79 78267799.723 67682288.547 86151288.475 115811730.9 102966378.04 
109950855.95 91621011.903 105886118.89 32074905.126 82336279.513 85234899.24 78839780.883 84241156.609 57812771.825 
42135148.728 23762197.158 74849918.315 82012286.53 114577427.44 135777373.95 66551413.66 116364719.31 32433267.69 
226536726.51 56867549.102 32462254.797 18410413.933 122832632.17 149354354.94 17110204.79 92920384.774 118706385.95 
18033253.686 33106206.918 57366191.298 132939031.61 65496597.231 183516877.9 154736770.59 18079929.637 33568110.62 
211740248.21 251716280.9 18051673.582 61800506.354 87361595.269 93624641.871 117319704.91 123528648.21 149110585.67 
182115393.15 154504963.21 63165377.289 87525574.437 97074521.29 72258403.615 261514914.24 212820519.79 69468822.39 
313933288.9 338479863.25 299929002.12 60892361.768 10028856.928 5164601.6962 3685467.0656 36047832.988 35608574.966 
31932698.269 88451113.14 91173855.046 157399219.9 27960985.908 46924494.546 17705140.937 24144059.451 28356549.713 
88562566.648 93061514.982 162158708.08 7813094.7345 2712340.6493 40305343.74 29063807.724 79840346.03 87462316.117 
165703171.22 346944502.67 239389522.47 65603971.893 16030755.06 143050262.99 42831180 186642114.39 41820957.469 
15932643.728 29868247.946 15242124.212 12260327.711 27703323.546 57425226.815 114066236.91 106909758.15 194845546.75 
328349150 47440027.447 10094921.823 318317867.96 314350468.19 763874.60028 221820718.28 62212204.689 64344614.404 
307733811.05 22636041.199 335299027.24 323833312.14 324555938.93 62695937.943 66732499.951 5124452.1712 310307182.91 
49335486.274 206645594.92 219895636.51 39028989.774 26533998.966 22510628.352 21777996.485 22030168.27 305903845.38 
115286552.27 5213846.264 21090964.95 22696106.338 
Strain%20xx%20component 1 949 double
-7.61411e-05 -7.63838e-05 -0.00054669 -0.000524849 -0.00110148 -0.00107601 -0.000402011 -0.000318678 -0.00044492 
-0.000458555 -0.000103718 0.000285875 -0.000305773 1.27952e-07 0.00152917 -4.65378e-05 0.000392203 -0.000281854 
1.63376e-06 0.0015059 -0.000672694 -0.0440873 -0.0431299 -0.000666215 0.000353602 0.000427504 0.0441231 
0.000544985 -1.50927e-06 -9.44156e-07 -0.000534287 -0.000535634 0.0439346 0.000534189 1.6998e-05 3.14754e-06 
-6.12633e-05 -0.00052913 -0.000315139 -0.000197425 -0.000422021 -0.000313648 -0.000197246 -0.000432571 -0.00108501 
-0.00107321 -0.00113397 -0.000138884 -0.000117042 -0.000234845 -0.00013782 -0.00011591 -0.000246722 -0.000435702 
-0.000266038 -0.000491295 -0.00041072 -0.000549998 -0.00031364 -0.000432283 -0.000534272 -0.000360738 -0.000581228 
-0.000523321 -0.000285045 0.000581654 0.000682266 0.000114159 0.000622238 0.000489437 0.000115506 -0.000263925 
0.000201819 -5.10613e-05 -0.000337515 2.31555e-05 -8.26262e-05 -1.0002e-06 1.3495e-06 -2.4022e-06 -0.000355807 
-0.000248343 2.57655e-05 -2.56749e-05 0.00114816 -0.00109628 -6.19474e-05 -2.68662e-06 0.000337672 0.00307648 
-0.000628904 -0.000581685 -0.000298347 0.000527415 0.000702519 0.000205228 0.000625788 0.000550814 0.000110426 
-0.000256637 0.000214196 -4.63704e-05 -0.000315266 6.38218e-06 -0.00010557 -2.92925e-06 1.1422e-05 9.96364e-07 
-0.000374789 -0.000251115 2.59319e-05 -3.53232e-05 0.00116689 -0.00108462 -6.25855e-05 -8.92841e-07 0.00033381 
0.00311463 0.000922362 0.00115721 0.0011087 -0.000188297 -0.00110159 -0.000723455 -0.00109375 -0.0437598 
-0.000147915 -0.0195069 -0.00115256 0.00089526 -0.018232 -0.0013099 -0.00136148 -0.000911262 -0.00120373 
-0.000186514 0.00034156 0.00132172 0.00131926 0.000413539 0.00155774 0.000850491 0.000362927 0.000413575 
-0.000303451 -7.24655e-07 0.00132833 0.00144188 0.000456139 0.00153451 0.000897355 0.00161242 0.00131361 
0.0198996 0.0051621 0.00366579 0.00297367 0.00238734 0.00179992 0.00115729 0.0250026 0.00491565 
0.00332566 0.00269719 0.00208525 0.00144337 0.000833332 0.00013669 0.000329016 5.61734e-05 4.31888e-06 
-0.000122568 -0.000301989 -5.10604e-05 -0.00553386 -0.00370555 -0.00299346 -0.00238072 -0.00175713 -0.00116924 
-0.0254081 -0.00486098 -0.00334818 -0.0026886 -0.00206269 -0.00146018 -0.000830679 -0.000535467 -0.00471645 
-0.00362541 -0.00298643 -0.00237895 -0.00175753 -0.00111592 -0.0248994 -0.00485945 -0.00330782 -0.00268396 
-0.00207751 -0.00144313 -0.000838567 0.000804498 0.00148871 0.0202533 0.00391296 0.00369131 0.00302884 
0.00238576 0.00174481 0.00111279 0.0248353 0.00491637 0.0033517 0.00269326 0.00206305 0.00146695 
0.000841085 0.000142072 0.000306929 5.83519e-05 1.03742e-05 -0.000140485 -0.000314978 -4.26095e-05 0.0448414 
0.000539143 1.0282e-05 9.42457e-07 -0.000212496 -0.000147546 -0.000148086 -0.000258724 -0.000259085 -0.00043085 
-0.000317062 -0.000228138 -0.000112721 -9.50554e-05 -9.46186e-05 -0.000132712 -0.000136412 -0.000278488 -0.000308405 
-0.000177878 -0.000392256 -0.000176254 -0.000145111 -0.000298457 -0.000391294 -0.000520356 -0.000529693 -0.000425287 
-0.000418715 -0.000280298 -0.00026969 -0.000350943 -0.000347842 -0.000347571 -0.000342915 -0.000326241 0.000851983 
0.000125434 0.000617964 -0.000606104 -0.000462505 0.000853067 0.000425467 -0.000598523 0.000327398 -0.000231413 
-0.000555857 0.000772325 0.000290234 -0.000146862 0.000773018 0.000529892 -0.000576276 -9.26145e-06 -0.000227916 
-0.000586083 -0.000505755 -0.000330019 -0.000284231 -0.000491629 -0.0005918 -0.000516142 -0.000477111 -0.000998199 
-0.000832846 -0.000502459 -0.000482094 -0.000507643 -0.000612136 -0.000610176 -0.000766218 6.78479e-05 0.000451621 
-0.000641468 -0.000370903 -0.000105627 0.000743805 0.000550072 0.000469413 -8.02668e-05 -9.6445e-05 -8.75795e-06 
0.000115463 0.000228485 -9.85418e-06 0.00105193 0.000427279 0.000180841 -4.59432e-06 0.000792303 0.000873273 
0.000533552 0.000861206 0.000328281 0.000143033 0.000645951 0.000108748 0.000290032 0.000539109 -0.0002038 
-0.000374739 -1.03644e-05 -4.04842e-05 -5.41251e-05 -0.000333909 -6.71542e-05 0.000836227 0.000347546 0.000219009 
0.000605838 0.000210391 0.00102686 0.000855526 -0.00057075 0.00076786 0.000865403 0.000705653 0.000810812 
0.000601826 0.000636515 0.000836081 0.000477252 0.000267796 0.000169971 6.15948e-05 -0.000172313 -0.000291782 
-2.3649e-05 0.000865531 0.000115853 0.000594425 -0.000576897 -0.000434399 0.000823625 0.000433856 -0.000604111 
0.000406666 -0.000287544 -0.000487317 0.000801152 0.00026422 -0.00016579 0.00080894 0.000539048 -0.000702456 
-8.44138e-06 -0.000229367 -0.000535079 -0.000584352 -0.000332293 -0.000462874 -0.000284184 -0.000605623 -0.000524016 
-0.0009853 -0.000527383 -0.000801089 -0.00048083 -0.000550157 -0.000457315 -0.000667644 -0.000612165 -0.000750266 
0.000445665 8.10464e-05 -0.000342595 -0.000606833 -0.000120465 0.000644231 0.000790524 0.000465175 -7.05417e-05 
-0.00010652 0.000114091 3.76717e-06 0.000260075 -1.58007e-05 0.000420307 0.00106256 -1.61904e-05 0.000196264 
0.000854728 0.000713193 0.000517961 0.000868016 0.000151599 0.000335561 0.000658229 0.00026428 0.000126401 
0.00054084 -0.000370339 -0.000209369 -3.32894e-05 -1.71361e-05 -0.000340677 -6.1223e-05 -8.33728e-05 0.000355052 
0.000866165 0.000606629 0.000212316 0.000211263 0.00103741 0.00084935 -0.000547154 0.000873042 0.000793274 
0.000729615 0.000638364 0.000608691 0.000825758 0.000852908 0.000268207 0.00046457 0.000167901 5.63211e-05 
-0.000164328 -3.83582e-05 -0.000302584 9.49827e-05 -5.03418e-05 -2.07414e-05 0.00202839 -0.000630884 -0.00131149 
-0.00134015 -0.000391273 -0.0013225 -0.000388168 0.00147961 0.00382217 0.00357819 0.00382571 0.00149761 
-0.0001078 2.22399e-05 -0.000195024 -5.46775e-07 6.09503e-05 -3.60661e-05 1.60703e-05 0.000416628 1.63959e-06 
0.000805412 2.05524e-05 -0.000109893 5.43135e-05 1.33271e-08 0.000427133 7.72837e-06 -0.000602165 -0.000687033 
-0.000422811 -0.00115609 0.00053315 -0.0181801 -0.000616384 -0.00075559 -0.000427086 0.000212003 0.000709613 
0.000564567 0.000837307 0.000729365 0.000177544 -4.61114e-05 -0.000355208 0.00026153 0.000214742 0.000144162 
-0.000325309 -0.000345808 -0.000317432 0.000216709 -0.000312965 0.0002639 0.000145455 -0.000145705 4.29492e-05 
8.01972e-05 -0.000206199 -0.000145652 4.34324e-05 -0.00012393 1.40499e-05 1.0639e-06 -0.000125378 -4.92629e-07 
2.31365e-08 1.05741e-07 -8.55258e-07 -0.000609042 -0.000583704 -3.51551e-05 1.02344e-06 -0.000606985 -3.07712e-05 
8.27619e-06 0.000178809 0.000595096 0.000676032 0.00087384 0.000742539 -0.00162751 -0.00328606 -0.00380299 
8.67264e-07 -4.74424e-07 -1.46145e-07 1.83451e-05 -1.00352e-05 6.2789e-05 0.00266788 8.26639e-06 3.67014e-06 
-0.00196727 0.00267586 0.00140574 -0.00265635 -0.00260362 -0.00114313 -0.00315373 0.000126601 -0.00102788 
-0.0218946 -0.025106 -0.00341113 -0.0239678 -0.00378899 0.0021788 0.0200056 0.00195249 0.00224881 
0.0230802 0.0188997 2.8355e-06 -0.000291909 0.000305718 0.000241724 -0.000236913 7.27972e-05 0.000540063 
1.74076e-07 -9.10791e-07 6.10271e-05 -4.6722e-05 -6.66967e-05 -0.000550258 0.00223729 8.91457e-06 0.00192154 
0.00308869 0.000104693 -0.00296331 0.00153937 0.00182177 -2.97148e-05 -0.00180584 -0.00190206 0.00124369 
0.00145353 -1.23511e-05 -0.00146868 -0.00150928 0.00093176 0.00114577 -3.09731e-06 -0.00120835 -0.00114774 
0.000589336 0.000843272 4.39562e-06 -0.000897621 -0.000830398 -2.93946e-06 -0.000617864 -0.0253689 -0.00502466 
-0.000838082 -0.00113074 -0.00488855 -0.00330556 -0.00299703 -0.0036687 -0.00268165 -0.00238294 -0.00207086 
-0.00175307 -0.00146252 -0.00161606 -0.00263662 -0.00325023 -1.33072e-06 7.66268e-07 -1.29871e-05 7.14538e-06 
-6.891e-06 -6.04936e-05 0.0020779 1.11733e-05 8.98704e-06 -0.00228651 -0.0224824 3.09045e-05 -0.00313788 
-0.0241359 -0.00386553 -0.0231737 -0.00299511 0.00130878 0.00247561 -0.0022068 -0.00219224 -0.00112397 
0.000459461 0.00240626 0.00031233 -0.00031206 8.37256e-07 -0.000215632 0.00022716 -0.000526129 -8.1978e-05 
0.000452573 0.0215651 0.0221444 0.0016236 0.0194705 9.71412e-05 0.000529142 1.2068e-05 5.22171e-06 
5.32884e-05 -4.56345e-05 0.00252271 -0.00191685 -0.00287377 4.52018e-05 0.00298444 -0.00154031 -0.00178029 
0.00179496 3.77422e-05 0.001891 -0.00123706 -0.00144343 0.00148442 1.73729e-05 0.00154388 -0.000918803 
-0.00116221 0.00122499 9.5555e-06 0.00115581 -0.000608938 -0.000859506 0.000904123 2.96201e-06 0.000854768 
-9.26125e-07 0.000608738 1.42743e-06 0.00113874 0.000991038 0.0191809 0.0250261 0.00473419 0.000853101 
0.00114093 0.00366855 0.00490003 0.00299318 0.00334514 0.00269795 0.00176611 0.0020651 0.00238769 
0.00145606 0.000303432 5.31883e-05 0.000145458 3.89604e-06 -4.35895e-05 -0.000128575 -0.000298725 -1.74751e-06 
-3.00518e-06 1.26676e-05 6.2992e-05 -3.28068e-05 -6.85931e-05 -3.68039e-05 -3.63985e-05 -8.49076e-05 0.000188474 
-0.000155922 0.000123691 -7.08474e-05 0.000282801 0.000123291 0.000413569 0.000470811 -0.000315712 0.000179784 
0.000530597 0.00025574 -9.85493e-05 -9.79932e-05 0.00059519 -0.000166169 0.000132204 0.000972447 0.000643113 
0.000774802 -0.000149756 0.0010985 0.00111735 0.00111672 0.000792038 0.000744814 0.000860673 0.00107602 
0.00139132 0.00119101 0.00103213 -0.000367826 0.00148967 0.000675593 0.00106238 0.000804009 0.000314865 
0.00031201 0.000803107 0.000639047 0.000826627 0.00161971 -0.000260236 0.00043932 0.000592813 -0.000491402 
0.000980894 0.000836517 0.00108422 0.00111657 0.000583001 0.000776802 0.000891301 0.000419572 0.000842715 
0.000775013 3.28516e-05 2.28383e-05 -0.000727125 -0.000596405 -0.000699803 -0.000655192 -0.000475327 -0.000530797 
-0.00033771 -0.000346614 -0.000559892 -0.000466903 0.000824608 0.000549417 0.000704248 -0.000262154 0.000803648 
0.00032887 4.38426e-05 0.000222279 0.000223017 7.61413e-05 -0.000469727 -0.000442116 -0.000629448 0.000528189 
-0.0006709 -2.87497e-05 -0.000108906 0.00171816 0.0010014 -0.000114158 0.000797631 -0.000224645 0.000371151 
0.000494902 0.000478933 0.000634757 0.000420806 0.000676219 -0.000574171 -0.000616578 0.000584499 0.000491395 
-0.000912991 -0.00079402 -0.00096847 0.000239793 -0.000572298 -0.000647982 -0.000574774 -0.000543955 -0.000379626 
0.000375538 -0.000137887 0.000654921 -0.000614677 -0.000918905 -0.000828123 -0.000474157 -0.000900686 0.000242767 
0.00210474 0.000532438 0.000300501 -1.51048e-06 0.00122357 0.00146632 -4.83807e-06 0.000921869 0.00115933 
3.55692e-06 -0.00030093 -0.000527339 -0.00080507 -0.000463715 0.00180224 0.00153209 -9.98503e-06 -5.62478e-06 
-0.00190079 -0.00299724 4.50586e-06 -0.000607149 -0.00083886 -0.000929906 -0.00114505 -0.00122652 -0.0014657 
-0.00179454 -0.00153764 0.00061808 0.000841105 -0.000810864 -0.000563155 0.00291186 0.00193143 0.0005968 
-0.0221396 -0.00274393 -0.000130511 -0.000458687 5.71579e-05 7.77407e-06 8.06896e-06 -0.000211418 -0.000212983 
-0.000162088 -0.000584462 3.8008e-06 -0.000726232 -5.52222e-07 0.000344555 9.67569e-05 0.000137569 0.000170129 
-0.000691082 -0.000804631 -0.00127125 -4.73214e-05 7.2779e-06 0.000122839 0.000237387 -0.000508807 -0.000648175 
0.00137365 0.00225155 -0.000276299 -0.000499808 -8.47662e-05 -0.00100388 -0.000228669 -0.00104445 7.41772e-05 
9.62929e-05 0.000234794 1.09277e-05 -7.82744e-05 -0.000227579 -0.000380943 -0.00117719 -0.00342353 -0.00194603 
-0.00325188 -0.000337287 2.10096e-07 0.00112817 0.0206745 4.38235e-06 0.00197836 -0.000453616 -0.000470283 
-0.0247506 -0.00144083 -0.00306396 0.0235012 0.00208319 -0.00045518 -0.000521264 -1.44653e-05 0.0191449 
-0.00397786 -0.00181424 -0.0014775 5.41055e-05 1.34056e-05 8.64449e-06 7.21357e-06 1.83696e-06 -0.0235165 
-0.000548865 1.03163e-05 1.92483e-06 -6.95649e-06 
Strain%20xy%20component 1 949 double
0.000143442 0.000144406 0.000130751 0.000151144 -0.000375175 -0.000320206 -0.000517134 -0.000615837 -0.000557058 
-0.000478252 0.000254755 -0.000325567 -0.00025088 -1.337e-07 0.000925904 0.000287236 -0.000384606 -0.000238657 
2.86279e-06 0.000944814 0.000980095 -0.00209624 -0.00151438 0.000795991 -0.000446622 -0.000471424 -0.00336705 
-0.000122615 4.3531e-06 1.32407e-06 -8.60839e-05 -9.66494e-05 -0.00257223 -7.80051e-05 6.32612e-07 1.49248e-06 
0.000126578 0.000135987 0.000184322 0.000164955 0.000165915 0.000187881 0.000167192 0.000169967 -0.00026978 
-0.000251805 -0.000427533 0.000315051 0.000239533 0.000439431 0.00031869 0.000236695 0.000464085 -0.000545732 
-0.000606844 -0.000522314 -0.000244726 -4.01399e-05 -0.000303806 -0.000270738 -2.93845e-05 -0.000326813 -0.000601342 
-0.000617391 -0.000195558 0.000134405 -0.000565352 0.000182319 -0.000261929 -0.000482626 -5.91039e-05 3.05344e-05 
-0.000193796 1.46015e-05 -8.932e-05 -5.84422e-07 -0.000159739 7.93395e-06 -4.08202e-06 -1.18856e-05 0.000142758 
-0.000328927 0.000135771 0.000203554 -0.000288026 -0.00101595 -2.5814e-05 0.000204027 -3.44506e-05 0.000558323 
-0.000539575 -0.00061213 -0.000140011 6.32799e-05 -0.000484074 0.000190505 -0.000189583 -0.000475131 -4.92304e-05 
4.31154e-05 -0.000199926 1.55137e-05 -0.000100142 6.53982e-07 -0.000147238 1.30366e-05 -1.47725e-05 -1.51612e-05 
0.000145458 -0.000321942 0.000145893 0.000209266 -0.000281159 -0.000999002 -1.98074e-05 0.000211911 -3.04823e-05 
0.000583479 0.000884736 0.000916334 0.000921441 0.00040926 -0.000765399 -0.00072635 -0.000118321 -0.00130185 
-0.00136145 -0.00201891 -0.000906417 -0.00174722 -0.00462313 -0.000940532 -0.000578375 -0.000681425 1.58541e-06 
0.00038175 -0.000370159 0.000276792 -0.000636977 0.000641024 -0.000268168 -0.000603378 -0.000480944 -0.000394958 
-0.000225746 1.62976e-06 0.000235823 -0.00061527 0.000639449 -0.000164451 -0.000644864 -0.00115442 -0.000957214 
-0.00333652 7.62575e-05 -7.75776e-05 -0.000121011 -0.000101118 -9.13321e-05 -0.000102954 -0.000571782 1.17332e-05 
-6.08937e-05 -6.93138e-05 -6.24197e-05 -5.90599e-05 -6.04695e-05 -3.27509e-05 -4.57726e-05 -1.35124e-05 -3.24495e-06 
-5.28304e-05 -4.53758e-05 -1.76066e-05 -4.27453e-05 -0.000106018 -7.87782e-05 -8.45656e-05 -0.000104198 -7.4967e-05 
-0.00123182 2.89497e-05 -5.785e-05 -6.03882e-05 -5.72298e-05 -6.10724e-05 -5.53789e-05 -8.63225e-05 0.000228283 
-5.99574e-05 -0.000107984 -0.000104225 -8.06505e-05 -0.000119198 -0.000475165 -2.69914e-05 -5.59052e-05 -6.57351e-05 
-5.80037e-05 -5.98437e-05 -6.59389e-05 -0.00140734 -0.000877451 -0.00363131 0.000142959 -9.24705e-05 -7.58561e-05 
-9.19142e-05 -0.000104078 -8.91507e-05 -0.000655296 1.6596e-05 -5.621e-05 -5.74081e-05 -6.29912e-05 -5.86934e-05 
-5.81454e-05 -5.02285e-05 -4.55278e-05 -1.74696e-05 -2.51207e-06 -3.9744e-05 -4.75112e-05 -1.56991e-05 -0.00285824 
-9.41408e-05 2.06669e-06 1.77639e-06 0.000157665 0.000148099 0.000148879 0.00016879 0.000170133 0.00016525 
0.00018832 0.00042356 0.000225508 0.000186029 0.000184843 0.000267309 0.000273411 0.000501071 0.000541462 
0.000361948 0.000565209 0.000359108 0.000308956 -0.00029394 -0.000281741 -5.99147e-05 -6.97848e-05 -0.000252275 
-0.000281435 -0.000309462 -0.000341469 -0.000265691 -0.000364071 -0.000325548 -0.000311868 -0.000278575 0.000145405 
0.000373235 0.000490899 -0.000230209 0.000235071 0.000236822 0.000109236 -0.0001899 -4.08292e-05 0.000214183 
0.00028739 6.4292e-05 0.000493936 0.00026132 -4.33583e-05 0.000166052 -0.000287999 0.00024753 0.000250194 
7.34648e-06 -0.000253743 0.00022619 0.000287976 0.000169844 -6.10255e-06 0.000401817 -0.000140476 -0.000524952 
-0.000264394 -0.000309942 -0.000306595 -0.000409895 -0.000389535 -0.00036247 -0.000303872 0.000399688 0.000363256 
-0.000154865 0.000321859 0.000411035 -0.000305459 -0.000159621 -8.05216e-05 8.77554e-05 -5.49755e-05 -0.000196159 
9.94738e-06 -0.000147854 -3.23846e-06 0.00078238 0.00017839 4.35058e-05 0.000173812 0.000206907 -0.000109722 
0.000346324 7.26609e-05 5.85093e-05 0.000120157 4.8044e-05 0.000240015 0.000494234 0.000308713 -6.81269e-05 
-0.000340811 0.00023342 0.000203541 0.000205572 2.92554e-05 0.00027607 -0.000103587 6.59618e-05 8.65097e-05 
6.7986e-05 0.00015493 0.000278158 0.000310917 3.50743e-05 0.000308057 9.09415e-05 0.000154103 0.000169976 
0.000183652 0.000126816 3.46288e-05 0.000303043 0.000258499 0.00044183 0.000322064 0.000331658 0.000265614 
0.000318523 0.000123162 0.000407231 0.000546255 -0.000241887 0.000238731 0.000289894 0.000134779 -0.000228208 
3.59336e-05 0.00013735 0.000280504 6.80492e-05 0.000515909 0.000264886 -7.1467e-05 0.000168972 -0.000253293 
0.000260138 0.000253136 -0.000234688 1.19028e-05 0.000232298 0.000189315 0.000281884 2.22346e-05 0.000407449 
-0.000584027 -0.00018841 -8.08885e-05 -0.000299852 -0.00037806 -0.000325864 -0.00036075 -0.000404814 -0.000319887 
0.000310489 0.000484592 0.000303879 -9.4124e-05 0.000424893 -0.000223664 -0.000263231 -7.01089e-05 -0.0001026 
6.77353e-05 1.17109e-05 -0.000156154 -0.000151845 -7.31083e-06 0.000175307 0.000776608 0.00020609 4.42783e-05 
-4.99859e-05 0.000239571 0.000391977 7.66141e-05 0.00012459 5.93543e-05 5.58573e-05 0.000512944 0.000264394 
0.000317192 -0.00032929 -6.95787e-05 0.000212622 0.000244661 3.53302e-05 0.000225572 0.000283119 8.26136e-05 
-0.000104264 9.22327e-05 9.73323e-05 0.000177035 0.000305236 0.0003023 2.13492e-05 8.83986e-05 0.000316481 
0.000159883 0.000142476 0.000229097 0.000176339 2.27128e-05 0.000285721 0.00034492 0.000453088 0.000346153 
0.000353796 0.0003346 0.000271021 6.29532e-05 0.000222541 -8.19324e-06 -0.000157802 -0.000695435 -0.001158 
-0.00130567 -0.000491263 -0.00129893 -0.000490549 -0.000286982 0.000742836 0.000795803 0.000739509 -0.000279015 
-0.000114127 5.93609e-05 -0.000298213 0.000164247 0.000257132 0.000129285 0.000135908 -0.000177384 0.000225033 
-0.000379681 6.36032e-05 -0.000110321 0.000255494 0.000163414 -0.000176044 0.000136465 -0.000628979 -0.000601548 
-0.000232077 -0.000923187 -0.00132695 -0.00273733 -0.000625124 -0.000519179 -0.000151752 0.00023716 0.000168266 
-0.000529289 -0.000594667 -0.000223152 -0.000151466 3.48028e-07 -8.53527e-05 -0.00026781 -0.000240566 -0.00010861 
-0.000137673 -0.000137891 -3.61589e-05 -0.000189541 -2.32918e-05 -0.000253344 -0.000100025 1.9461e-05 -1.59575e-05 
-5.29695e-05 -7.93644e-06 2.21875e-05 -1.41422e-05 -0.000136128 3.91942e-06 6.60204e-06 4.89436e-05 -9.33219e-06 
-5.14249e-06 -2.93003e-06 -1.49661e-05 0.000122561 0.000135402 2.7339e-05 -2.0383e-05 0.000132714 2.1509e-05 
-1.03656e-05 0.00032475 -0.000525029 0.000131261 -0.00049511 -0.000153915 -0.000596191 -0.000804482 0.000832534 
-0.000114819 -0.000115109 -0.000114165 -0.000120301 -0.000119227 -0.000205066 0.000345993 -9.55991e-05 -3.2333e-05 
-0.000940076 0.000395838 0.000866876 0.000463966 -0.000502501 0.00136362 0.000228382 0.000928805 -0.0012852 
-0.00246561 -0.00139742 -0.000280404 -0.000275645 -1.16974e-05 -0.000931248 -0.00207501 -0.000456833 -3.44296e-05 
-0.00124121 -0.00113462 -0.000133319 -0.000100923 -0.000119518 -0.000107776 -8.64253e-05 -6.38787e-05 -0.000107288 
-1.73149e-05 -1.5027e-05 -3.71132e-05 -4.5791e-05 -7.34639e-05 -9.43425e-05 -0.000450107 -6.50571e-05 -0.000118132 
-0.00013878 -0.000272198 -0.000180407 -0.000118781 -9.3287e-05 -0.000177288 -0.000127121 -0.000130763 -0.000120338 
-0.000120891 -0.000143452 -0.00010102 -9.42915e-05 -0.000105678 -0.00012216 -0.000142432 -9.91206e-05 -0.000105317 
-0.000109191 -0.000102535 -0.000136346 -0.000105916 -0.000115769 -0.000140074 -0.000110182 -0.000476505 0.000134129 
-4.70968e-05 -9.0992e-05 2.0371e-05 -3.55477e-05 -9.2475e-05 -7.26735e-05 -4.94866e-05 -9.32449e-05 -5.57837e-05 
-9.08716e-05 -4.78317e-05 -0.00048174 -0.00122612 0.000844263 -0.000128209 -0.000111799 -0.000112419 -0.000113706 
-0.000125541 -0.00021385 -0.000801797 -0.000102617 -3.07498e-05 -0.000807445 -0.00244634 -0.00212201 -0.000156038 
-0.00150453 -0.000311551 0.000572873 -0.000388546 0.000617661 0.000138756 -0.000358933 0.000395064 0.00123186 
0.000486505 -0.000895416 -0.000112314 -0.000120975 -0.000124441 -0.000105413 -9.48631e-05 -0.000120793 -6.98597e-05 
-0.00124492 -0.00244033 -0.000689635 0.000278661 -0.000507881 -7.66794e-05 -0.00010587 -1.59771e-05 -1.48171e-05 
-4.35578e-05 -3.45544e-05 -0.000342488 -0.000102371 -0.00020083 -0.000353602 -0.000163787 -0.000119414 -0.000104562 
-0.000121566 -0.000155814 -0.000117601 -0.00011499 -0.000118271 -9.40048e-05 -0.000138733 -0.000110021 -0.000101184 
-0.000109333 -0.000100958 -0.000139481 -0.000101513 -0.000114889 -9.8145e-05 -0.000109916 -0.000144366 -0.000111387 
-0.000137352 -9.80578e-05 -6.06035e-05 -0.000950343 -0.00125122 -0.00356175 -0.000722492 0.000126945 -4.85247e-05 
-9.38317e-05 -7.59905e-05 5.57433e-05 -9.39322e-05 -4.32833e-05 -4.86908e-05 -9.62372e-05 -5.22635e-05 -9.15477e-05 
-5.75069e-05 -3.3527e-05 -1.20514e-05 -4.13305e-05 -2.42174e-06 -1.31814e-05 -4.42866e-05 -3.93568e-05 4.23678e-06 
7.22222e-06 0.000256495 0.000320886 0.000305959 0.000261856 0.00022489 0.000223124 0.000236162 0.000199212 
0.000244001 0.000385279 0.000234781 0.000268298 0.000164036 0.000130714 0.000325089 0.000253018 0.000442714 
0.000352988 0.000499557 0.000114884 0.000120639 0.000204428 0.000335485 0.000171391 0.000262003 0.000401628 
0.000462563 0.000409183 -9.87775e-05 0.000347855 -5.7977e-05 0.000269842 7.84671e-05 -0.000307966 -0.000129027 
-0.000705388 -0.00012276 -0.000316298 1.75284e-05 0.000245324 0.000375193 0.000257233 0.000233624 6.41671e-05 
7.78444e-05 0.000152735 0.000126682 9.9927e-05 -0.000284199 -0.000131118 3.82473e-05 9.63446e-05 0.000269378 
-0.00026104 5.08118e-05 -5.36266e-05 0.000385942 0.000477212 -8.05406e-05 0.000275074 3.63757e-05 0.000129579 
0.000279266 0.000189944 0.000193822 -0.000327914 -0.000218041 -0.000363042 -0.000294689 -0.000418481 3.32259e-06 
0.000338298 0.00032869 -0.000239242 -0.000410952 3.1948e-05 0.000289105 0.00015575 -0.00013903 0.00022572 
0.00047586 0.000177222 0.000215185 0.000217014 0.000207555 0.00018577 0.000245592 1.80349e-05 0.000156088 
0.000436224 0.000584535 0.000603923 -0.00111346 -0.000597893 2.26372e-05 0.000190554 0.000149349 2.005e-06 
-0.000115592 -0.000124345 3.76195e-05 0.00068487 -0.000246143 2.50418e-05 -0.000242661 0.000616978 0.000537395 
-0.000354248 -9.32097e-05 -0.00010656 7.90293e-05 -0.000430404 -0.00040563 -0.000406505 0.000388487 0.00025077 
4.15669e-06 1.3909e-06 -0.000236569 -0.000399182 -0.000410584 -0.000283287 -0.000330507 -0.000443193 8.41298e-05 
-2.64747e-05 -9.9598e-05 -9.79868e-05 -0.000119637 -0.00010163 -0.000109616 -0.00011115 -0.000100133 -0.000101085 
-0.000117106 -0.000108722 -0.000115486 -9.31006e-05 -0.000332709 -0.000117021 -9.58606e-05 -0.000117482 -0.000211657 
-9.09453e-05 -0.000128101 -0.000117069 -9.56052e-05 -0.000109691 -0.000110048 -0.000105492 -0.000108547 -0.000100907 
-8.96874e-05 -0.00011635 -0.000111788 -0.000105493 -0.000345924 8.87462e-05 -0.000149368 -0.000101558 -0.000200626 
-0.00263653 -0.00110407 -0.00128469 -0.000298161 -3.78517e-05 -3.07799e-05 -1.59379e-05 0.000206252 0.000202345 
0.000190837 0.000419797 0.000564528 0.000923353 -0.000180342 3.37458e-06 5.79092e-06 8.87888e-05 9.14189e-05 
-0.000354941 -0.000161936 -0.00071916 -4.01953e-05 -1.48485e-05 0.000243624 -0.000128949 -0.000438725 -0.000408971 
0.000321919 -0.000375345 1.85372e-05 -0.000265298 -5.75632e-05 -0.000699228 0.000247883 0.000907418 0.000265741 
-7.49151e-05 -8.7427e-05 -9.77318e-05 -6.75037e-05 -9.35494e-05 0.000248055 -6.98971e-05 0.000750366 0.000158024 
-0.000385157 0.000227207 -6.50204e-05 -0.000978957 -0.00301337 -5.6838e-07 -0.000477478 -0.000304029 -0.000303832 
-0.001337 -0.000379117 0.000108629 -0.000821074 0.000380671 -0.000306131 -0.000258866 1.0579e-05 -0.00103169 
-2.24468e-05 -0.000651696 -0.000955303 -0.000235931 -0.000172136 -0.000145985 -0.000141392 -0.000143086 -0.000644964 
0.000391717 1.50871e-05 -0.00013644 -0.000147115 
Strain%20xz%20component 1 949 double
-1.32574e-05 1.36429e-05 1.00241e-05 -2.70714e-06 -0.000158411 0.000190676 9.37092e-06 -9.43199e-05 7.62564e-05 
1.11339e-05 -0.000119561 -3.3921e-05 -2.98919e-06 9.97007e-07 0.000382829 6.98751e-05 4.4552e-06 -1.00992e-05 
8.12236e-07 -0.000399841 -0.000172301 -0.000522648 0.000874197 0.000130186 9.26473e-05 -0.000129212 0.000373782 
4.121e-06 1.17429e-07 -3.8746e-07 4.54628e-06 -3.34019e-06 -0.000573253 6.68034e-06 -5.67554e-07 -9.67169e-07 
-5.51084e-08 2.57166e-06 -5.78599e-06 -5.39671e-06 -2.6786e-06 3.25467e-06 5.43941e-06 1.04161e-06 -1.30565e-05 
-8.67448e-05 9.42216e-05 -1.24154e-05 -1.82233e-05 -5.07144e-06 2.07681e-05 1.87059e-05 8.7847e-06 -2.58133e-05 
-8.65505e-06 5.35651e-05 1.10746e-05 1.52467e-05 -7.72369e-06 -7.98141e-06 -5.78356e-06 -5.75243e-06 -6.74189e-05 
-2.33691e-05 -0.000132611 0.000125056 0.000130048 -1.77673e-05 0.000139865 3.31767e-06 -6.16742e-06 4.31595e-06 
2.58709e-06 1.01753e-06 2.98038e-06 -1.54557e-06 -7.8511e-06 2.43238e-06 -1.05324e-05 -9.32165e-07 1.04711e-05 
8.52845e-05 -1.55142e-05 1.9546e-05 -0.000185024 -5.86893e-05 -5.10634e-06 -1.50337e-05 5.3176e-06 0.000195215 
0.000129731 7.39308e-05 0.000108277 -0.000227551 -0.000167468 -0.000165771 -0.000148842 -9.13406e-05 1.91399e-06 
-8.34425e-06 -6.14961e-06 -5.37259e-06 -1.59865e-05 5.00374e-06 1.25321e-05 -1.25812e-06 7.62504e-06 2.70814e-06 
-2.65114e-05 -8.80507e-05 1.64471e-05 -2.02434e-05 0.00019681 5.24115e-05 6.8023e-06 1.33518e-05 -1.06863e-06 
-0.000184359 -1.17527e-05 0.00012381 -0.000146819 -0.000340854 -0.000258214 -0.000160514 -0.000309072 -7.29767e-05 
-7.92187e-05 -0.000767348 5.96327e-05 0.000326632 0.00280648 -6.85041e-06 0.000327587 0.000229957 0.000384743 
0.000329642 4.42637e-05 0.00032575 0.000398489 6.86743e-05 0.000503871 0.000244084 4.37934e-06 -4.39217e-05 
-1.0981e-05 2.94429e-07 -0.000497335 -0.000245882 -0.000285155 -0.000445694 -0.000215465 7.96318e-05 9.43291e-05 
0.000918461 -9.20184e-05 -1.89227e-05 2.37826e-06 -2.57195e-06 -5.04025e-07 -1.84898e-06 -0.000848978 -3.79509e-05 
3.12469e-06 8.35512e-06 6.88603e-06 -7.17389e-06 1.25566e-06 -6.85176e-06 -1.91225e-06 -2.09185e-06 1.746e-06 
-1.61711e-06 5.379e-06 -2.2258e-06 9.79223e-05 -6.69573e-06 1.49363e-05 6.57452e-06 3.72073e-06 6.39052e-06 
0.000565522 1.97378e-05 -4.31343e-06 4.73628e-06 7.36896e-06 -6.86453e-06 4.89448e-06 2.81616e-06 -0.000250284 
-3.75621e-06 -2.19117e-06 3.14422e-07 -1.04568e-05 -4.77763e-07 -0.00122583 7.14258e-05 1.20239e-05 8.17659e-06 
-4.8137e-06 -2.05937e-06 8.70092e-06 -0.000192737 0.000192465 -0.00229675 0.00024976 2.89965e-06 8.20838e-06 
3.02595e-06 -1.52205e-06 4.53651e-06 0.00123092 -0.000149532 -1.21985e-05 5.38203e-06 1.48579e-06 6.32955e-06 
-6.20881e-06 1.62366e-06 -4.69888e-06 -3.22175e-06 1.86089e-06 -2.28402e-06 5.69408e-06 1.01352e-06 0.000111176 
2.92705e-05 3.11432e-07 -1.14884e-06 -7.16979e-07 -7.89847e-06 7.47651e-06 -1.43607e-06 -3.82695e-07 -3.84934e-06 
-4.74767e-06 -1.03476e-07 5.26833e-09 7.46447e-06 -7.31383e-06 -3.29685e-06 9.99147e-06 5.59733e-06 -2.02924e-05 
-1.12672e-05 3.98781e-05 1.10477e-05 1.72076e-06 -2.04571e-06 -1.22751e-05 -5.16103e-06 6.81056e-06 5.96543e-06 
-1.37802e-05 -7.43923e-08 -3.55552e-05 1.53069e-05 -2.95698e-06 1.24604e-06 -1.62999e-05 -5.91765e-06 6.31102e-06 
-1.16699e-06 7.70136e-07 8.30149e-06 1.48978e-05 -3.83955e-05 7.93874e-06 5.34075e-06 -4.08759e-07 1.45793e-05 
1.94517e-05 -2.87528e-05 -4.04164e-05 -1.13197e-05 -4.63962e-07 -1.49552e-06 -7.65503e-06 4.62914e-06 -4.21327e-06 
6.48167e-06 -3.26039e-06 -7.71344e-06 1.98162e-07 1.33949e-05 1.72437e-05 6.65894e-06 9.52496e-05 -0.000123764 
-4.04272e-05 -1.60875e-05 -5.89117e-06 -7.12412e-06 0.000100439 7.85101e-05 8.33919e-06 -0.000106967 -9.74432e-05 
8.26565e-05 0.000146621 2.20671e-05 -3.5643e-05 -6.69254e-05 3.12901e-06 8.0605e-06 1.19199e-05 -8.39974e-08 
3.9705e-06 1.955e-05 4.02122e-06 0.000285267 -0.00019806 -3.73168e-05 4.41869e-05 -0.00014476 -0.000210618 
-8.29747e-05 -5.02456e-05 -2.83154e-06 3.9946e-06 2.41086e-06 -1.46844e-05 2.64108e-05 -2.1993e-05 -8.3664e-07 
-1.61454e-05 5.42632e-06 -9.43765e-06 -1.53706e-05 -7.95891e-06 5.27406e-07 -5.16457e-05 -3.25912e-05 4.22862e-05 
4.65839e-06 1.17733e-05 6.28689e-05 3.95287e-05 -3.06463e-06 -7.77117e-06 1.95417e-05 -1.51926e-06 2.21024e-05 
2.33427e-05 6.522e-06 1.74724e-06 1.10867e-05 8.77302e-07 7.85185e-06 2.23283e-06 -1.76766e-05 -1.97187e-05 
-4.49871e-07 -4.81952e-06 5.10484e-06 -1.3769e-05 -6.00871e-05 -2.21013e-05 0.000131783 -9.3284e-06 2.38214e-06 
1.01603e-05 -6.21757e-06 -6.44353e-05 3.25041e-05 1.80643e-05 1.37929e-05 2.07265e-05 4.63983e-06 1.26237e-06 
-2.29406e-06 1.09633e-05 1.35671e-06 1.2261e-06 9.21964e-06 -7.43576e-06 2.01607e-06 -2.87793e-05 3.65287e-05 
0.000131188 -8.29565e-05 5.11221e-05 1.98035e-05 -3.07834e-06 6.39529e-06 -8.8843e-05 -2.54725e-05 -1.81367e-05 
-1.55371e-05 -7.50424e-06 -0.000182094 -7.18979e-05 -4.42734e-05 3.81222e-05 2.36458e-05 7.57636e-06 -3.99438e-06 
6.84261e-06 6.10465e-06 2.65018e-06 -6.00261e-06 -1.17857e-05 0.000233123 -0.000274946 -5.51262e-05 4.15919e-05 
0.00021707 0.000132987 6.24104e-05 0.000127885 -5.85122e-07 4.56364e-06 -1.07554e-05 -1.29286e-05 6.08904e-06 
1.58599e-05 -8.98915e-07 1.57216e-06 1.11053e-05 -2.79846e-06 2.88581e-06 1.70635e-05 9.33702e-06 3.25483e-05 
6.53011e-05 2.28278e-05 -3.72103e-05 -9.51185e-06 -9.20159e-05 -3.52689e-05 -9.11764e-05 5.02203e-06 2.79709e-06 
-2.43118e-06 -1.11293e-06 -7.78342e-06 -8.11163e-06 -1.46594e-05 -2.20522e-06 -1.34029e-05 -1.23616e-06 1.44194e-06 
2.1059e-05 1.39927e-05 2.58e-05 -1.58148e-06 -3.50474e-06 3.21744e-06 -5.73685e-06 1.52115e-06 -8.78105e-06 
-0.000101219 9.89453e-05 8.96605e-05 -0.000102324 -0.000243282 0.000242659 -1.31732e-05 -0.000249509 0.00024264 
2.15035e-05 -5.32558e-06 4.46824e-06 1.07581e-05 1.51056e-05 1.81938e-06 9.36396e-07 -4.10624e-05 -1.45653e-06 
-7.83513e-06 9.12595e-06 -1.73433e-05 -1.66063e-05 -1.21959e-05 4.40486e-05 -1.95813e-06 -0.00029588 -0.000334052 
-0.000570962 -0.000231033 0.000111109 2.22846e-05 0.000169205 0.000462932 0.000568674 0.000404472 0.000529898 
0.000317343 0.000459972 0.000649462 1.95246e-06 -3.23309e-06 7.32592e-08 5.12808e-05 2.35664e-05 -4.18754e-06 
-7.9409e-06 7.79302e-06 3.29119e-06 -3.21276e-05 -4.13408e-06 -3.43073e-05 1.11775e-06 9.0891e-06 -3.20633e-06 
-3.91286e-06 1.28813e-06 -1.46942e-05 -1.38531e-06 -4.75252e-06 7.65107e-07 1.65191e-07 2.98945e-06 -2.15257e-06 
1.58668e-07 -1.92214e-07 -1.80578e-06 -2.52955e-06 1.1381e-05 -9.26829e-06 4.32628e-07 -1.94944e-05 1.64907e-05 
1.88352e-06 -3.75807e-05 -0.000201425 -0.000543602 -0.0005392 -0.00064645 0.000254276 -0.00044671 -3.55587e-05 
-4.6787e-06 -4.16773e-06 2.82291e-07 -5.51765e-07 1.81445e-06 2.23728e-06 0.00023106 -1.20174e-06 1.48329e-06 
0.000186427 -8.08156e-05 -0.000214413 0.000155248 0.000161169 -0.000238075 -0.000908009 0.000308828 -0.000515757 
-0.00130176 0.000888544 0.000705028 -0.00064989 -5.94379e-05 5.42595e-05 0.000841678 0.000418811 -0.000320306 
-0.000423238 0.000688284 -1.84841e-05 9.79459e-06 -2.26577e-06 -2.88382e-06 9.34554e-06 -4.54685e-06 -7.11595e-06 
2.09116e-06 1.70382e-06 -1.72117e-06 3.57686e-06 4.92916e-07 2.49159e-06 -0.000159042 8.35609e-06 -4.22147e-05 
-6.01959e-06 -5.4871e-05 1.08429e-05 -8.04221e-06 -2.31182e-06 3.57929e-05 1.29623e-06 1.74471e-05 -1.50682e-05 
-6.70608e-06 -1.97879e-05 9.60334e-06 1.05288e-05 4.46133e-06 -1.37166e-05 -1.67202e-05 -5.49512e-07 5.32508e-06 
4.29421e-06 -6.12331e-06 1.04919e-05 -3.36871e-06 1.26101e-05 -5.79049e-06 1.08043e-06 8.13589e-06 -6.16698e-05 
1.07723e-05 2.14049e-05 -4.04744e-05 1.69322e-05 6.27823e-06 -3.91869e-05 1.33797e-05 8.69018e-06 9.23175e-07 
-7.16448e-06 -9.25738e-06 -4.57495e-05 0.000290762 0.000443689 1.31104e-08 -4.56762e-06 -2.60691e-07 6.42562e-07 
-1.47427e-06 3.65683e-05 -0.000285335 -2.58088e-07 1.81649e-06 -5.63505e-05 0.00184829 0.000549898 -0.000463246 
-0.000623185 -1.19306e-06 0.000985624 0.000710037 -3.65015e-05 -0.000219312 6.91018e-05 0.000108798 0.00010765 
-0.00032655 0.000317136 3.31622e-06 -3.34574e-06 -5.33466e-06 -4.58695e-06 2.36593e-06 5.79205e-07 2.24467e-06 
-0.000649028 -0.00157241 0.000447032 0.000574298 -0.000593189 1.15859e-06 -1.51715e-06 9.02942e-07 -1.90663e-06 
7.32368e-06 7.01993e-08 -0.000100625 -1.08107e-06 5.84903e-05 -0.000127768 -9.7964e-05 -6.72662e-07 -1.47047e-06 
1.14187e-06 2.06519e-05 3.5484e-05 -6.25186e-06 -1.68298e-05 1.69214e-06 -1.01651e-05 -1.67462e-07 -6.3147e-06 
-2.39781e-06 9.4529e-06 -1.82268e-05 1.04052e-05 -4.17533e-06 -5.52761e-06 -1.24728e-06 1.60727e-05 5.77762e-06 
-1.37472e-05 7.25502e-06 7.3831e-06 -0.000234111 9.9248e-05 -0.00026984 5.4475e-05 -2.56819e-05 -3.80886e-06 
1.23602e-05 -1.72256e-05 2.15087e-05 2.32236e-05 -4.01645e-06 1.26671e-05 -1.22838e-05 7.34454e-06 2.35422e-06 
-1.60519e-07 -5.92855e-06 -5.37703e-06 -3.47748e-06 -7.3955e-07 -6.52166e-07 -1.11813e-05 7.30204e-06 7.20344e-08 
-2.20577e-06 -2.52943e-06 1.86063e-07 4.3551e-09 2.23285e-06 -1.2846e-05 7.92533e-06 1.95704e-06 4.08729e-08 
2.03084e-06 2.89791e-06 -2.65448e-06 5.76728e-07 -2.75472e-06 -3.1401e-06 -8.07247e-06 -5.39369e-06 -1.40931e-06 
1.38073e-05 1.14986e-05 -7.79289e-06 8.72518e-06 4.5749e-06 1.128e-05 -1.98316e-06 0.00019249 0.00019835 
7.84991e-06 -7.97612e-06 -8.04835e-05 -5.44734e-05 7.35243e-05 -4.8002e-06 4.78784e-06 0.000210733 0.000113741 
-5.41902e-06 2.76573e-06 -3.79953e-06 -8.70888e-07 -4.44705e-05 -0.000175971 7.18771e-06 -1.18875e-05 5.84269e-06 
-5.5802e-06 5.60605e-06 -2.74895e-06 4.84529e-07 -6.56158e-06 -2.2265e-06 3.49983e-05 2.07442e-06 1.95384e-05 
-0.000151658 2.05329e-07 -0.000105129 3.47233e-05 -1.58332e-06 -1.94665e-06 -0.000208538 -3.85883e-05 2.15866e-06 
-9.22086e-06 -1.55831e-05 1.74505e-05 -1.78238e-05 1.01103e-05 -3.78254e-05 5.64278e-05 7.58309e-06 1.60231e-05 
-1.64265e-05 9.38756e-06 6.90841e-06 -1.04137e-05 -1.89495e-06 -1.19345e-06 3.50316e-06 3.86729e-06 -6.7512e-05 
9.8207e-06 -5.54523e-06 -3.71648e-06 -4.23523e-06 7.89126e-06 2.88532e-06 -2.78246e-06 1.76799e-05 2.469e-06 
-2.32882e-05 9.76638e-05 1.47927e-05 -0.000236855 6.7836e-05 -4.11427e-07 8.23939e-05 -6.33831e-06 -2.23701e-06 
1.09484e-05 -1.25037e-05 -1.29256e-06 4.53388e-05 -4.936e-06 1.89841e-06 -4.28334e-06 4.48946e-05 -4.53236e-05 
5.71488e-06 0.000204184 4.97982e-06 -2.03607e-06 1.54285e-05 1.22721e-05 1.83146e-05 7.02298e-05 -1.61264e-06 
-1.60445e-06 -6.10505e-07 -3.21102e-05 2.8106e-06 -1.43582e-05 -3.12069e-06 -8.97771e-06 2.27001e-05 1.7646e-06 
0.000106495 2.80552e-06 -3.02922e-06 -2.07852e-06 3.58673e-06 4.10216e-07 -3.62411e-06 8.16171e-09 5.63135e-06 
-1.48146e-06 -2.95829e-06 -3.62507e-06 6.76424e-06 -6.64608e-06 5.02009e-06 -8.4854e-07 -1.00547e-06 2.96334e-05 
-1.16863e-05 -3.73817e-05 7.34754e-07 -2.67746e-06 1.0876e-06 -4.68274e-06 9.0578e-06 -1.41673e-06 5.07157e-06 
1.81748e-06 -5.68802e-06 2.04965e-06 -9.21363e-06 0.000109218 -1.33893e-05 7.63483e-05 -1.23591e-05 3.81513e-05 
-0.000359395 5.24074e-06 -0.000102164 7.5519e-07 -2.59314e-06 1.16743e-06 8.03452e-07 2.45351e-06 -3.37955e-06 
-3.69307e-07 -6.78885e-05 -0.000154403 -4.34636e-05 -1.71094e-06 2.36669e-06 2.55204e-06 -1.49003e-05 2.26084e-05 
-0.000167554 -0.000203741 -5.79261e-06 -1.92634e-06 -1.85827e-07 8.52246e-06 -5.36213e-06 -3.62027e-05 -2.13983e-05 
0.000145595 4.26683e-05 0.000224594 -6.41087e-06 -1.31007e-06 3.67286e-05 4.8611e-06 4.65793e-05 -1.89939e-05 
2.01702e-06 3.05672e-07 -1.6105e-06 -3.28032e-06 -8.08293e-07 1.32265e-05 4.43465e-05 -4.10284e-05 -0.000148852 
0.000365195 -2.91628e-06 2.76879e-06 6.57943e-05 3.72947e-05 -1.73536e-06 0.00022298 -1.89261e-06 -3.60633e-06 
0.000126303 -0.000116752 9.77914e-05 7.26005e-05 7.04891e-05 -4.90569e-06 -4.96223e-06 9.08614e-06 1.7189e-05 
-0.000295366 -5.87419e-05 -9.39498e-05 9.7216e-05 -2.74713e-06 -7.79261e-06 -4.46473e-06 5.39966e-06 5.84462e-05 
-9.32849e-06 -1.26523e-05 -1.20425e-05 -1.05864e-05 
Strain%20yy%20component 1 949 double
-4.7707e-05 -4.91068e-05 0.000155814 0.000152986 0.000815678 0.000813754 -0.000136752 -0.000326797 -0.00014624 
-8.79543e-05 9.40502e-05 5.95976e-05 1.56539e-05 -1.44334e-06 -8.76655e-05 0.000106613 2.63453e-05 1.56303e-05 
5.26152e-06 -3.96297e-05 0.000135041 0.0242386 0.0225594 0.000104705 0.000115518 0.000130194 -0.0232369 
-0.000186422 -3.17043e-05 1.45542e-06 0.000163281 0.000161531 -0.0214323 -0.000175375 -4.16237e-05 4.62107e-07 
-2.78745e-05 0.000149109 2.86461e-05 -1.3503e-05 9.92629e-05 3.05123e-05 -1.60801e-05 0.000102472 0.00098184 
0.000979351 0.000938636 -2.43354e-05 -5.82078e-05 0.000252798 -4.73155e-05 -5.2101e-05 0.000246086 -0.000151421 
-0.00027952 -0.000100964 5.79953e-05 0.00015312 -2.86987e-05 7.4287e-05 0.000158509 7.02168e-06 -3.82804e-05 
-0.000143127 2.95725e-05 -0.0004103 -6.24375e-05 -0.000157418 -0.000212392 5.81611e-05 -3.01328e-05 9.29971e-05 
8.25565e-06 3.22163e-05 4.76823e-05 -2.59091e-05 -1.19995e-05 -5.04577e-06 -1.28963e-05 9.63596e-06 0.000201989 
-3.72964e-05 3.30028e-05 -0.000320871 -0.00037048 -3.8858e-07 0.000116907 -0.000208315 -0.000206155 -0.000660124 
-3.52255e-05 -0.000110929 6.58139e-05 -0.000362111 -0.000116901 -0.00014581 -0.000240486 1.37327e-05 -2.07843e-05 
9.06357e-05 1.0017e-05 3.02768e-05 3.61508e-05 -3.82235e-05 -2.00179e-05 -3.93061e-07 -1.95639e-05 1.15345e-05 
0.000220883 -4.81893e-05 4.0318e-05 -0.000313754 -0.000382269 -3.4075e-05 0.000115236 -0.000200969 -0.00020411 
-0.000650232 0.000280701 5.79047e-05 9.64377e-05 0.000160036 0.000188235 -0.000137928 0.000247305 0.0229941 
-0.00127742 0.0130609 -0.00013665 -0.00154596 0.00766409 2.80648e-05 0.000201581 -6.14429e-05 0.000232917 
0.000112197 8.39505e-05 -0.000604943 -0.000172124 -0.000293611 -0.000403401 -1.46661e-05 0.000159073 2.75881e-05 
6.62238e-06 4.25906e-06 -0.000486094 -0.000352005 -0.000272632 -0.000402824 -5.43459e-05 0.000348788 -0.000150012 
-0.00954277 -0.00129503 -0.00111238 -0.000905581 -0.00071639 -0.00052587 -0.000334756 -0.0124501 -0.00178034 
-0.0010144 -0.000806497 -0.000628896 -0.00041965 -0.000257606 -7.38857e-05 -0.000126578 -4.92284e-05 -1.81088e-05 
4.1894e-05 8.61845e-05 1.66051e-05 0.00169805 0.00109137 0.000890426 0.000707594 0.000525723 0.000340663 
0.0137435 0.00176569 0.00100548 0.000798592 0.000609465 0.000440353 0.00026138 0.000162916 0.000825672 
0.00111163 0.000896316 0.000717321 0.000533957 0.00034827 0.0125172 0.00172452 0.00100254 0.000804096 
0.00063325 0.00044239 0.000248792 0.000569754 -6.37298e-05 -0.00874937 -0.000372143 -0.00109465 -0.000891381 
-0.000712911 -0.000534291 -0.000348346 -0.0114931 -0.00180764 -0.00101591 -0.000819328 -0.000607247 -0.000450992 
-0.000249571 -7.8191e-05 -0.000125686 -5.09274e-05 -1.85989e-05 3.83328e-05 9.90532e-05 1.56816e-05 -0.022328 
-0.00017954 -3.98261e-05 8.5917e-07 1.79201e-05 -7.64497e-06 -8.61015e-06 2.23717e-05 2.49511e-05 9.82582e-05 
3.49252e-05 0.00019697 -9.0632e-06 -3.16384e-05 -2.96628e-05 -4.1875e-06 -1.57687e-05 0.000460411 0.000616665 
8.83086e-05 0.000594875 7.56993e-05 1.49927e-06 -4.51989e-05 4.2193e-05 0.000119245 0.000125611 5.98083e-05 
5.50322e-05 -8.01896e-05 -0.000113297 5.91929e-06 -7.04879e-05 -1.52485e-05 -1.32417e-05 6.00135e-06 -0.000569637 
-0.000182499 -0.000224104 0.000134316 0.000273308 -0.000483542 -0.000348623 0.000154694 -0.000300959 0.000502894 
8.13096e-05 -0.000570813 -0.000260479 -6.76618e-05 -0.000421824 -0.000310391 0.000323834 -9.81053e-05 -2.12162e-06 
0.000301044 0.000162349 6.03774e-05 6.96335e-05 0.000189247 0.000345108 0.000611909 0.000117915 0.000327107 
0.000870634 5.57765e-05 0.000105941 4.37466e-05 5.57062e-05 5.01807e-05 0.000246062 -0.000101644 -0.000357174 
8.92304e-05 0.000129967 -0.000106274 -0.000254645 -0.000232554 -0.000210741 0.000129259 9.55021e-05 -7.1759e-05 
-0.000119304 5.18742e-05 4.35713e-06 0.000306645 9.51361e-05 -0.000183994 -0.000107469 -0.000509437 -0.000348383 
-0.000322674 -0.000445013 -0.000174201 -0.000105402 -0.000354922 -5.99713e-06 0.000105251 -0.00025517 -1.20569e-05 
5.75333e-05 -0.000239244 -2.52623e-05 -4.23597e-05 1.53891e-05 -7.369e-05 -0.000412091 -0.000371048 -0.000268445 
-0.000466734 -0.000212422 -0.000377323 -0.00045585 7.20394e-05 -0.000441174 -0.000588085 -0.000446867 -0.000521847 
-0.000404823 -0.000476054 -0.000482103 -0.000325796 -0.000254501 -0.000211022 -0.000133887 -7.4059e-05 -9.4999e-06 
-0.000115971 -0.000571121 -0.000163689 -0.000194921 0.000147043 0.000248735 -0.000493384 -0.000332147 0.000115526 
-0.000356396 0.000544482 8.56336e-05 -0.000551439 -0.000200458 -4.39301e-05 -0.000401882 -0.000299833 0.00046172 
-0.000103985 -4.62258e-06 0.000189918 0.000289195 6.45964e-05 0.000185362 7.59485e-05 0.000427594 0.000596972 
0.000257993 0.000156571 0.000889636 7.01259e-05 4.18787e-05 9.51472e-05 7.67818e-05 5.23612e-05 0.000260976 
-0.00027642 -6.0305e-05 0.000136138 0.000104338 -6.45705e-05 -0.000207603 -0.000292625 -0.000191938 9.83886e-05 
0.000166723 -0.000143867 -6.48962e-05 7.66554e-05 1.01224e-05 6.1144e-05 0.00032661 -7.58399e-05 -0.000207418 
-0.00038224 -0.000504178 -0.000311864 -0.000458078 -0.000107815 -0.00017665 -0.000341894 0.000111956 -1.11615e-05 
-0.000250938 4.43639e-05 1.02801e-06 -2.16638e-05 -0.000231145 3.82897e-05 -2.71288e-05 -6.7922e-05 -0.000369408 
-0.000420562 -0.000462413 -0.000254642 -0.000210745 -0.000380382 -0.000446039 9.60273e-05 -0.000570509 -0.000458516 
-0.000452322 -0.000464047 -0.000409413 -0.000528452 -0.000494272 -0.000246013 -0.000324821 -0.000185459 -0.000132748 
-4.36522e-05 -9.60504e-05 5.96503e-06 -0.000249643 -0.000180045 0.000101198 -0.000542923 -0.000177003 -0.000118084 
-3.30616e-05 -0.00014869 -3.79306e-05 -0.000154613 -0.000449973 -0.000934354 -0.000536572 -0.000930384 -0.000458714 
0.000105227 9.12505e-05 -3.80017e-05 -7.70332e-05 -0.000403345 1.91293e-05 -0.000269855 -0.000128612 -0.00028656 
-0.000178888 9.55e-05 9.72143e-05 -0.000404177 -7.92534e-05 -0.000136835 -0.000270919 -0.000137402 -1.37033e-05 
6.05381e-05 -0.000115489 -0.00153145 0.0097395 -0.000126904 5.25242e-06 9.30414e-05 -0.00022168 -0.000418149 
6.90059e-05 -6.62282e-05 -0.000262238 2.86285e-06 -1.43375e-06 0.00012815 6.19741e-05 5.22774e-05 -1.14621e-05 
2.53326e-05 5.51885e-05 0.000111847 -6.64689e-06 0.000106516 1.2031e-05 -1.14058e-05 4.79119e-05 -7.3497e-06 
-9.62856e-06 8.42618e-05 4.56947e-05 -6.63846e-06 -2.05037e-05 -3.19422e-05 3.01372e-06 1.37951e-05 6.59974e-06 
2.9612e-06 5.65348e-06 1.14258e-05 0.000256754 0.000310441 -3.11262e-05 1.45814e-05 0.000342517 -3.23757e-05 
1.23689e-05 -0.000162359 4.95437e-05 -0.000419403 -0.00015681 -0.000266866 0.000569297 -0.000807596 0.00202512 
1.02974e-06 -2.69681e-06 -7.38458e-06 -6.95607e-06 -1.28411e-06 2.00789e-05 0.00020035 -2.19464e-05 -1.63185e-05 
0.000653474 -0.000767983 -0.000677537 0.000441925 0.000143407 0.000417688 0.000288719 0.000980222 -0.00172986 
0.0107966 0.0138416 0.000471382 0.011794 0.00170686 -0.000389456 -0.00993521 0.000899101 -0.000306007 
-0.0123032 -0.00907732 -9.54512e-06 7.42398e-05 -8.59874e-05 -0.000111295 7.71519e-05 -4.20581e-05 -0.000182886 
-5.88898e-06 -2.33522e-05 -5.15896e-05 1.67015e-05 3.0455e-06 0.000190754 -0.000579021 -1.8942e-05 -0.000499882 
-0.00112506 8.67269e-06 0.00107622 -0.000442964 -0.000580194 -3.97546e-06 0.000570404 0.000531958 -0.000350611 
-0.000459219 1.95393e-06 0.000462179 0.000427432 -0.000258779 -0.000371375 1.76745e-06 0.00034065 0.000365844 
-0.000151841 -0.000275979 2.68886e-06 0.000242995 0.000274718 -5.16998e-07 0.000155501 0.0132944 0.00120011 
0.000252658 0.000342892 0.00182842 0.0010079 0.000902429 0.00111047 0.000803325 0.000720569 0.000620033 
0.000523413 0.00043965 0.000659287 0.000269437 0.00112104 1.79853e-06 -5.67322e-06 1.90831e-06 -3.97313e-06 
1.37342e-06 -2.44214e-05 0.000188214 -2.07349e-05 -2.08622e-05 0.000639648 0.0102122 -0.00121829 0.000549643 
0.0123436 0.0011424 0.0107814 0.000650806 -0.000502823 -0.000710215 0.000441032 0.000332456 0.00018012 
0.000244736 -0.000527781 -7.09354e-05 6.58012e-05 -9.06309e-06 8.42026e-05 -0.000113173 0.000182228 5.05017e-06 
0.00100957 -0.00911794 -0.0108367 0.000419422 -0.00889292 -4.24142e-05 -0.000179479 -3.09713e-05 -1.0558e-05 
-5.18541e-05 1.19171e-05 -0.000524652 0.000468318 0.000984091 -0.000169281 -0.00117305 0.000429783 0.000579809 
-0.00058148 -7.86315e-06 -0.000492391 0.000345789 0.000452118 -0.000472972 -6.82814e-06 -0.000429604 0.000252026 
0.000367608 -0.000349273 -3.82418e-06 -0.000364812 0.000162036 0.000274781 -0.000250063 -4.77045e-06 -0.000279117 
-9.90434e-07 -0.00016309 -1.74673e-05 4.37995e-05 0.000284714 -0.00902635 -0.0120025 -0.00117583 -0.000254979 
-0.000338713 -0.00110213 -0.00177724 -0.000895704 -0.0010063 -0.00080946 -0.000534689 -0.000618105 -0.000713944 
-0.000434037 -0.000125977 -4.95124e-05 -8.01765e-05 -1.73958e-05 1.39435e-05 4.16679e-05 9.03876e-05 -5.7878e-07 
9.65209e-07 -0.000125182 -0.000142143 -0.000109532 -7.49899e-05 -0.000132547 -0.000131222 -9.39293e-05 -0.000229017 
-5.98801e-05 -0.000173928 -0.000113169 -0.000254931 -0.000218322 -0.000333547 -0.000328566 -3.36726e-06 -0.000202039 
-0.000327381 -0.000220368 -1.1952e-06 -1.47253e-06 -0.000396432 -5.91046e-05 -0.000215205 -0.00052678 -0.00038143 
-0.000384963 -7.10877e-05 -0.000439064 -0.00030354 -0.000428187 -0.000425749 -0.000533472 -0.000231046 -0.000362085 
-0.000347728 -0.000427375 -0.000334406 2.42504e-05 -0.0006049 -0.000324371 -0.000464095 -0.000459823 -0.000312243 
-0.000310772 -0.00049162 -0.000450886 -0.000554639 -0.000570204 6.40806e-05 -0.000362578 -0.000445942 8.04365e-05 
-0.000320658 -0.000435743 -0.000400888 -0.000308875 -0.000203467 -0.000389961 -0.000481492 -0.000361899 -0.000558252 
-0.000440512 -0.000225469 -0.000220223 0.000212908 0.000147775 0.000111923 7.8009e-05 5.08567e-05 6.37758e-05 
0.000227412 0.000245504 0.000117104 4.47176e-05 -0.00048142 -0.000268266 -0.000418916 7.55433e-05 4.61449e-05 
0.000137326 4.10688e-05 -7.88677e-05 -8.33927e-05 4.45012e-05 0.000198643 0.000277134 0.000412609 -0.000295551 
0.000156877 -9.03717e-05 -7.92753e-05 -0.000412664 5.8447e-06 0.000153207 1.5184e-05 0.000438559 -0.000167549 
-0.000192289 -0.000176028 -0.000342155 -0.00028472 -0.000203701 0.000303974 0.000392186 0.000545138 0.000538173 
0.000110896 0.000121065 0.00015938 -0.000146096 6.24626e-05 4.93708e-05 4.59832e-05 0.000145425 0.000179674 
-0.00017117 0.000170553 -0.000192255 5.03972e-05 0.00032149 0.000842255 7.61726e-05 0.000323005 -0.000143854 
-0.00072278 -0.000179825 -7.29795e-05 1.3227e-06 -0.000344855 -0.00046486 -2.86225e-06 -0.000255507 -0.000371722 
-1.47342e-06 7.06646e-05 0.000181148 0.000912627 6.32126e-05 -0.000588124 -0.0004325 -3.69446e-06 -7.37519e-06 
0.000490912 0.00109888 -3.20462e-06 0.000156596 0.00027435 0.000256269 0.000363859 0.000344274 0.000459968 
0.000574272 0.000431716 -0.000162391 -0.000277525 0.000103463 0.000357454 -0.00107214 -0.000508063 -0.000200532 
0.0107448 -0.000101143 -0.00187239 3.05145e-05 -4.88743e-05 -1.88803e-05 -2.76092e-05 1.05669e-05 1.13563e-05 
9.42539e-07 0.000144322 -0.000114978 0.000146017 -4.48427e-05 -0.000265212 -0.000133062 -0.000119588 -0.000146824 
7.28321e-05 0.000109762 0.000266502 1.46559e-05 -1.17271e-05 -6.67906e-05 1.07934e-06 4.14646e-05 4.11436e-05 
-0.000568467 0.000289523 0.0012213 0.000167461 8.84032e-05 -6.41512e-05 1.8722e-05 0.000212392 -3.11967e-05 
-4.66216e-05 -0.000111945 -2.13367e-05 5.26041e-06 8.0067e-05 0.000176134 0.000253333 0.00144311 0.000402983 
0.000178048 7.62124e-05 -1.65013e-05 0.000843676 -0.00977146 4.43905e-06 -0.000698715 7.69871e-05 0.000102295 
0.0127375 0.000734531 0.000437328 -0.0122035 9.36531e-05 8.19594e-05 0.000174339 -2.60277e-05 -0.00865945 
0.00182084 0.000500884 0.000625751 -1.65357e-05 -9.96229e-06 -5.41408e-06 -4.65326e-06 3.47071e-06 0.0113584 
0.000729126 -3.39021e-05 -9.53507e-06 -2.70689e-06 
Strain%20yz%20component 1 949 double
4.50388e-05 -4.52293e-05 -3.15759e-06 -5.18749e-06 -4.84064e-05 8.48365e-05 -1.83701e-05 -6.52879e-05 3.00618e-05 
3.12033e-06 8.51066e-05 -9.00675e-06 -1.27289e-05 2.01113e-07 0.000308585 -8.00401e-05 1.03021e-05 1.17338e-05 
-1.41553e-06 -0.000311366 2.4508e-05 0.000506278 0.000666302 -0.000121406 -7.29896e-05 6.65948e-05 0.000793139 
-8.32167e-07 -1.43847e-06 -1.01341e-06 -9.60305e-07 -1.00632e-06 -0.000475294 -4.41828e-07 1.1698e-06 2.53035e-07 
2.16611e-07 -5.18433e-06 9.106e-07 2.31275e-05 -1.23989e-05 -6.2695e-06 -2.30683e-05 -1.64481e-06 -9.91828e-06 
-6.00306e-06 -7.09661e-08 3.74202e-05 6.91643e-05 2.03418e-05 -5.61478e-05 -7.10098e-05 -3.52361e-05 -3.11001e-05 
-5.14331e-05 3.03365e-05 1.97517e-05 8.20612e-06 5.06652e-06 -3.65587e-06 -1.27099e-05 -1.26769e-05 -8.16256e-05 
-2.58218e-05 -4.51729e-05 1.88824e-06 -0.000108428 7.81285e-05 -7.61759e-05 -2.88122e-05 1.80543e-06 -2.17232e-06 
-5.9552e-06 -1.14589e-06 6.48867e-06 7.66301e-06 -2.09121e-05 -1.37404e-06 -1.3453e-05 3.45716e-06 9.99194e-06 
9.78347e-05 -4.38457e-05 3.52141e-06 1.86018e-05 -1.8686e-05 2.7146e-05 -5.53328e-05 9.24611e-05 0.000224177 
9.33671e-05 4.46982e-05 2.18395e-05 -1.16404e-05 0.000106532 -5.14223e-05 6.6028e-05 5.35969e-05 -3.10164e-07 
5.97822e-07 1.27384e-05 -7.2632e-07 9.09762e-06 -3.75086e-06 -1.46011e-06 2.12964e-06 1.99868e-05 -5.64962e-06 
-6.45004e-06 -9.17568e-05 4.89193e-05 3.85383e-06 -2.5582e-05 -4.04402e-06 -2.02788e-05 6.10196e-05 -8.7359e-05 
-0.000227069 -1.55481e-06 0.000161886 -0.000162031 0.000300373 -0.000201343 -0.000102799 -7.52689e-05 0.00082258 
-3.83344e-05 -0.000508029 -9.33063e-06 -5.38825e-05 0.000473702 7.59367e-06 0.00017241 8.8948e-05 4.02431e-05 
-0.000274127 -5.15709e-05 9.03733e-06 -0.000193823 8.80227e-05 -0.000175241 -0.000112118 7.71216e-06 3.78415e-05 
2.09763e-06 8.27399e-08 -5.50695e-05 0.000148336 -0.000193172 9.9641e-05 0.000102165 -8.44611e-05 -5.466e-05 
0.000734432 6.32251e-05 -1.66398e-06 -1.58242e-06 -1.39004e-06 -1.46614e-06 -8.06991e-07 0.000753752 9.82036e-05 
1.0752e-05 -5.75476e-06 3.4155e-06 -1.34144e-05 8.89053e-06 9.09565e-07 -6.66721e-06 -2.42435e-06 -8.58192e-07 
-1.42634e-06 -6.24919e-06 -8.76274e-07 0.000127065 1.56403e-05 4.57537e-06 -3.66854e-07 6.87815e-08 -2.74991e-06 
0.000859551 3.52386e-05 -1.91289e-05 -1.11149e-05 -1.27704e-05 -1.06723e-05 9.84282e-06 -5.97843e-07 -0.000216165 
-5.87053e-06 1.33437e-06 1.50467e-07 9.45251e-07 1.97756e-07 0.000117748 8.13862e-05 -1.14281e-05 -6.10004e-06 
-1.27076e-05 -1.48938e-05 4.88309e-06 6.3789e-05 0.000157261 -6.29786e-05 -0.00017645 7.99226e-06 1.58199e-06 
-5.36354e-07 -2.80884e-06 -1.63341e-06 -6.2414e-05 0.000112595 1.56559e-05 -1.04997e-05 8.58904e-06 -1.38149e-05 
5.59458e-06 5.85663e-07 -6.87194e-06 -1.56442e-06 3.40315e-07 1.62471e-06 -2.79507e-06 -1.6811e-06 0.00024316 
-1.79055e-06 2.51229e-06 1.88958e-08 4.25133e-07 1.75891e-05 -1.71882e-05 6.1323e-06 -5.21195e-06 -5.30433e-06 
-3.99228e-06 -5.22837e-06 8.59273e-07 -2.36153e-05 2.41332e-05 2.6213e-05 -3.77762e-05 -2.24495e-05 -2.64586e-05 
1.35574e-05 4.02002e-05 -2.24684e-05 -1.38796e-05 -1.39493e-05 8.45087e-07 -1.40629e-06 3.53843e-06 4.51236e-06 
1.51415e-07 -2.04397e-05 -3.72001e-05 6.47015e-06 7.00046e-06 2.21029e-05 6.56406e-06 -7.58214e-06 4.9374e-06 
4.40226e-06 -1.55444e-05 2.01134e-05 2.71807e-05 2.52031e-05 2.9219e-06 -1.39579e-05 -4.46423e-06 -4.01008e-05 
2.33617e-05 6.19281e-06 -1.01575e-05 2.01457e-06 1.45567e-05 -7.10537e-06 2.08042e-05 -3.22866e-06 1.9935e-05 
1.13962e-06 1.3658e-05 2.09287e-06 4.02966e-05 7.22762e-06 2.80577e-05 2.01535e-05 4.02539e-05 -1.96909e-05 
6.12392e-05 1.37129e-05 -4.29877e-06 -4.76718e-06 4.91257e-05 4.24071e-05 5.62649e-08 -2.55143e-05 -3.91904e-06 
4.75768e-05 4.5662e-05 -2.11884e-05 2.08939e-05 3.10997e-05 -4.54407e-06 -7.7204e-06 -5.27006e-06 -1.52912e-05 
2.21946e-05 2.05553e-05 6.91014e-06 0.000228241 -0.000151809 -3.94767e-05 6.18969e-05 6.45523e-06 2.043e-05 
1.7229e-05 5.0885e-05 1.02806e-06 2.23333e-07 -1.89498e-05 -1.39304e-05 -7.79929e-05 -2.07077e-05 -1.1681e-05 
1.1513e-05 -8.59687e-06 -2.05761e-05 -4.51096e-06 2.06882e-05 -7.89158e-07 3.6104e-05 1.8071e-05 -1.42948e-05 
8.11186e-06 -1.17168e-05 1.87034e-05 -2.93669e-05 4.08063e-05 9.25367e-07 1.34871e-05 3.12175e-06 1.82079e-06 
6.8026e-06 1.37897e-05 1.79363e-06 9.61578e-06 5.74912e-06 2.13056e-05 -1.65651e-06 1.78416e-05 7.56457e-06 
6.98502e-06 -3.11399e-06 -6.01693e-06 2.10073e-05 -3.24013e-05 -3.41773e-05 -4.25835e-05 -5.23775e-07 5.49804e-06 
1.19025e-05 4.27222e-05 -2.66945e-05 -5.96104e-06 -1.32352e-05 8.01259e-07 -1.9178e-05 5.27373e-06 -1.30767e-05 
4.13378e-06 -3.55913e-05 9.36331e-06 -6.74239e-06 -2.03428e-05 -1.70423e-05 -3.43563e-05 -3.90593e-05 5.10846e-05 
1.45347e-06 -4.34257e-05 3.11218e-05 -5.16861e-06 -6.47274e-06 -1.84027e-06 -3.48056e-05 -1.66932e-05 1.78305e-05 
4.92993e-05 2.79752e-05 -3.36836e-05 -3.06414e-05 8.68617e-06 -2.9781e-05 -6.87095e-06 -1.05902e-05 1.3284e-05 
1.16583e-05 -2.88938e-05 2.06416e-05 1.84867e-05 -6.55977e-06 0.000160635 -0.000225697 -5.54049e-05 3.79391e-05 
-1.34597e-05 2.76595e-07 -2.80889e-06 -6.57791e-05 2.20333e-06 -2.32335e-06 5.98716e-06 5.24243e-05 2.8329e-06 
1.57504e-05 -5.95284e-06 1.30086e-05 2.33249e-05 1.08949e-05 -1.56337e-05 5.43471e-06 4.65792e-06 -1.58681e-05 
-3.95688e-05 -5.00177e-06 1.75865e-05 9.87951e-06 -3.60326e-05 1.35684e-05 -8.328e-05 -1.59913e-05 -2.07922e-05 
1.97482e-06 1.95504e-06 -1.5317e-06 1.28206e-05 1.16334e-05 -6.17745e-07 -2.67304e-06 -2.69775e-05 6.88863e-06 
-1.36619e-05 2.51547e-06 1.06024e-06 3.68402e-06 5.13158e-06 9.68172e-06 -5.25876e-06 1.3598e-05 2.10603e-05 
-5.63557e-05 0.000109657 6.31046e-05 -9.43828e-05 -2.45138e-07 0.000123897 -9.64914e-06 -0.000142679 -1.15e-05 
6.10372e-05 -2.29945e-05 8.31836e-06 -5.18175e-05 -1.83844e-05 8.96012e-06 2.90959e-05 8.33397e-05 5.10055e-06 
3.79619e-06 3.57617e-05 -4.76893e-05 2.77915e-05 6.30702e-05 -7.8384e-05 -1.89236e-05 -0.000154754 -0.000201226 
-0.000176744 2.69214e-05 4.72748e-06 -5.92601e-05 9.79005e-05 0.000217745 0.0001422 0.000202554 3.97568e-05 
-0.000149663 -0.000217375 -9.85545e-05 1.69621e-06 7.30613e-07 -2.95876e-06 -4.03567e-05 -1.87695e-05 -4.70481e-06 
3.32375e-06 1.92113e-06 1.45168e-06 2.74514e-05 -6.32815e-06 2.24632e-05 5.91917e-06 -3.81128e-06 3.92383e-06 
-6.9339e-07 -3.05176e-06 2.21092e-06 -5.9512e-06 -7.38487e-06 4.65455e-06 3.96236e-08 1.47525e-06 1.3542e-06 
1.28256e-06 -3.21541e-07 3.89755e-06 5.4996e-06 6.46052e-05 -1.88036e-05 -7.28548e-06 -6.49499e-05 2.59573e-05 
-5.98255e-06 -0.00029803 0.000110831 -6.76277e-05 0.000215553 5.7009e-05 0.000601373 0.000237669 0.000281722 
2.52353e-06 -1.47905e-06 -3.34734e-06 5.53078e-07 5.08337e-06 -2.01819e-05 -0.000156483 -7.11203e-07 -1.12304e-06 
-0.000163349 -0.000384467 -0.000359046 -0.0003397 -0.000324374 -0.000677102 1.03285e-05 0.000217394 0.000119723 
0.000619383 0.000660293 0.000518369 0.000859555 0.00103099 -0.000119189 0.000434949 -5.38324e-05 -0.000147722 
0.000808631 0.00085055 -3.78019e-07 8.13353e-07 3.10995e-06 -3.50532e-06 -3.21889e-06 -7.24883e-07 2.07004e-06 
-1.32962e-06 -1.61369e-06 -5.39579e-07 2.98558e-07 -1.61677e-06 3.93667e-06 -0.000221006 -9.41009e-07 -7.56209e-06 
3.40956e-05 -1.23905e-05 1.15331e-05 3.20589e-08 -8.91521e-06 -4.65434e-06 -9.23044e-06 -1.0502e-05 -7.70367e-06 
2.11329e-06 -7.29796e-07 2.0905e-06 -2.19788e-06 -1.33321e-06 5.38399e-06 -8.06552e-07 -5.20429e-06 1.68665e-06 
-5.99345e-06 9.13302e-07 -6.05722e-06 -9.60883e-06 5.6735e-06 -8.43366e-06 -5.27999e-06 -0.000604851 -1.97929e-05 
1.14025e-06 1.36233e-06 -9.4488e-05 4.67425e-06 1.12445e-05 8.15613e-06 -1.27255e-06 1.05676e-05 4.18135e-07 
1.00193e-05 -5.484e-06 -0.00062634 -0.000374793 -0.000170469 8.9833e-07 -8.39367e-07 1.43526e-06 3.51497e-06 
1.46648e-07 7.28549e-06 -4.13242e-05 1.02542e-06 -3.15641e-07 0.000249177 -8.8222e-05 -0.000372236 -2.31176e-05 
-0.000292572 -0.00100322 -0.000235971 -0.000370779 1.64733e-05 4.314e-05 0.000136048 3.5331e-05 -4.96493e-05 
0.000145287 0.00023619 5.74748e-06 2.53068e-06 -2.66212e-07 -1.60962e-06 -3.9982e-06 7.11616e-07 2.05461e-06 
-9.69549e-05 -0.000233999 -0.000723539 -0.000291115 -0.000653288 1.44977e-06 -3.38713e-06 1.05196e-06 6.94717e-07 
-2.49388e-06 2.62386e-07 9.34681e-05 2.78111e-06 6.97411e-05 0.000109222 0.000144927 1.1894e-07 -9.37864e-06 
-5.55475e-07 -1.27645e-06 5.11152e-05 4.71041e-06 -5.46243e-06 -4.32705e-06 5.51093e-06 7.9403e-06 4.35197e-07 
-1.03253e-05 2.20277e-07 -9.36751e-07 1.41702e-06 -7.34251e-07 -1.09727e-06 2.56428e-06 -1.15904e-06 -8.81631e-06 
-3.3741e-06 -7.05806e-07 2.34991e-06 -0.000101989 -7.73162e-05 -0.000108998 6.3158e-05 -0.000146011 8.27088e-07 
2.71632e-06 -8.31145e-06 -4.73298e-05 -1.82378e-06 -2.00958e-06 -1.28984e-06 2.37591e-06 -5.22486e-07 -1.0608e-06 
-4.87745e-07 -1.8529e-06 4.54032e-07 4.4296e-06 -2.40583e-07 -1.56552e-07 2.25906e-06 6.84322e-07 8.05429e-07 
2.89993e-06 1.63174e-06 -1.24567e-07 -8.73108e-07 1.65662e-06 1.09529e-05 -5.17191e-06 2.64698e-05 3.46522e-06 
3.94731e-07 -4.3052e-06 -2.81604e-05 -3.28538e-06 9.94233e-06 -2.28345e-06 -5.21809e-07 6.49424e-07 -1.38091e-05 
-2.31048e-05 4.06087e-06 -1.19531e-06 8.39299e-06 -3.50066e-06 -2.62647e-06 -6.61077e-06 1.53406e-05 6.87776e-05 
-1.70974e-05 -1.37927e-05 1.08423e-05 -2.772e-06 -8.02333e-06 3.25635e-06 5.83511e-06 -9.00157e-05 -6.77159e-05 
-1.516e-05 5.85642e-05 2.36092e-05 -2.27804e-06 -2.03639e-05 -4.92627e-05 -8.89816e-06 -7.10896e-06 8.11536e-06 
-7.82177e-06 -7.70403e-06 -3.81079e-07 7.16921e-07 3.63294e-05 7.42627e-06 -2.64237e-05 4.0502e-06 -2.90435e-06 
4.18295e-05 -6.03937e-06 3.96759e-05 6.86074e-06 1.04946e-05 3.2349e-06 -4.84131e-05 3.2294e-05 -3.20223e-07 
9.32662e-06 1.47489e-05 -8.854e-06 6.83821e-06 -1.32797e-05 3.31553e-06 7.99668e-06 2.05235e-05 -7.06148e-06 
-2.96075e-05 1.75798e-05 -4.3654e-06 -2.32486e-05 4.85755e-06 3.31556e-06 -8.47792e-07 2.79703e-06 -9.07399e-05 
-2.46978e-05 -1.09506e-05 -1.61816e-05 2.18187e-05 4.22287e-06 1.38964e-06 -1.46274e-06 5.90956e-06 -1.5303e-06 
1.61558e-05 -0.000130405 3.83901e-05 -8.0369e-05 2.00057e-05 -1.095e-05 8.5887e-05 -3.60775e-06 -6.90807e-06 
-2.50478e-06 1.09597e-05 5.4514e-07 8.56773e-06 2.03948e-05 3.06075e-06 -9.80025e-06 5.26402e-05 -3.89294e-05 
4.67394e-05 7.21015e-05 6.08433e-05 1.72833e-06 8.79204e-06 1.34524e-05 1.19111e-05 -0.000118556 -5.86738e-06 
9.20062e-06 1.03286e-05 1.65291e-05 6.93766e-06 6.7494e-06 3.05969e-05 1.81251e-05 -2.17938e-06 2.67809e-06 
0.000133581 -2.42701e-07 1.23086e-06 1.48031e-06 -3.66754e-07 -6.28834e-07 4.48643e-07 1.2561e-06 2.2901e-06 
3.65024e-06 -9.1483e-07 2.7843e-06 -1.79929e-05 -1.59804e-05 7.9942e-07 1.31103e-06 -2.61999e-07 -3.35492e-05 
1.92174e-05 -6.98055e-05 6.82329e-06 -2.82741e-07 3.56735e-06 3.22169e-06 3.02852e-06 1.40584e-06 9.75621e-07 
1.61816e-07 -9.07356e-07 4.57034e-06 3.33909e-06 3.18201e-05 -1.60039e-05 -5.9224e-05 -1.91234e-05 -3.31181e-05 
-0.00015483 -5.42906e-05 5.74679e-06 8.05674e-06 -1.01225e-07 -2.69712e-07 5.39681e-07 -3.3839e-06 3.82508e-06 
9.13973e-07 0.000101947 8.03077e-05 4.22929e-05 -3.09022e-06 -8.72045e-06 -1.06327e-06 2.29265e-06 4.06174e-06 
-8.16529e-05 -0.000109633 -2.14826e-06 -3.41823e-07 1.25284e-07 1.39681e-05 1.64325e-05 -1.62032e-05 -1.18059e-05 
0.000166874 -0.000102311 -0.000160184 -1.9044e-07 7.55473e-06 8.2988e-06 1.59268e-05 0.000299709 -1.34546e-05 
5.66024e-07 -1.34096e-06 9.38936e-07 1.5121e-06 -5.76714e-08 1.07357e-06 -2.79855e-05 0.000106358 5.29769e-05 
0.000295673 1.49368e-05 3.52637e-07 -9.15739e-06 1.62697e-05 4.60343e-06 8.05823e-05 8.81444e-06 -1.14979e-05 
-0.000222732 -3.80832e-05 -0.000178005 6.17229e-05 0.000147592 2.56958e-06 2.24487e-06 -3.89425e-06 -8.27661e-06 
-0.000171949 1.44416e-05 6.3933e-05 2.06138e-05 2.48487e-06 5.80761e-07 -4.83965e-07 -2.04843e-06 9.13921e-06 
-4.77232e-06 -2.75792e-06 -7.15797e-07 -2.72534e-06 
Strain%20zz%20component 1 949 double
1.23613e-05 1.28709e-05 0.000172946 0.000165188 5.21381e-05 5.43297e-05 0.000246953 0.000376323 0.000283535 
0.000239197 -1.61007e-05 -0.000160392 0.000113643 5.97059e-08 -0.000123077 -5.01039e-05 -0.000180111 9.82267e-05 
-4.46342e-06 -0.000130064 -9.60261e-06 0.0207624 0.0219087 0.000172716 -0.000255276 -0.00031116 -0.0174383 
-0.000155919 1.59513e-05 -6.17259e-07 0.000161165 0.000162108 -0.0189917 -0.000153416 1.11278e-05 -1.31421e-06 
-2.67446e-10 0.000163587 0.000142177 9.09722e-05 0.000151266 0.000137393 9.09966e-05 0.000158189 1.49946e-05 
-1.29119e-08 -1.85112e-08 1.90953e-05 -7.35145e-07 -3.79092e-10 2.9146e-06 -8.81367e-07 -6.55694e-10 0.000271471 
0.000269663 0.000262135 0.00015213 0.000160951 0.000157357 0.000150613 0.000160586 0.000166937 0.000271528 
0.000276938 0.000104685 -6.30487e-05 -0.000257953 3.38066e-05 -0.000147932 -0.000227123 -3.51111e-05 7.28231e-05 
-9.26774e-05 1.22211e-05 0.000118478 2.3799e-06 4.29356e-05 1.50647e-06 1.20336e-05 -2.98618e-07 4.6514e-05 
0.000158458 -1.51883e-05 0.000126612 -0.000401025 0.000316892 -1.21856e-06 9.0747e-05 -6.14468e-05 -0.000688538 
0.000288806 0.000291517 8.86747e-05 -2.6334e-05 -0.000249207 -1.60375e-05 -0.000152794 -0.000239876 -2.9496e-05 
7.14235e-05 -9.19113e-05 1.0457e-05 0.000118497 2.14315e-05 6.11812e-05 5.4844e-06 1.37336e-05 -3.49134e-06 
4.58591e-05 0.000161933 -1.87465e-05 0.000129939 -0.000405281 0.000327303 -1.35745e-06 8.98269e-05 -5.91739e-05 
-0.000710495 -9.52084e-05 -5.11946e-08 -5.33593e-08 -0.000123708 0.000230921 0.000398699 5.84428e-05 0.022354 
0.000435787 0.00602749 0.000626337 -0.000301667 0.00978409 0.000520555 0.000454637 0.000413372 0.000309998 
-8.27216e-05 -0.000201242 -0.000119603 -0.000434903 7.03525e-05 -0.000284127 -0.000353199 -0.000276488 -0.000192196 
0.000108074 -2.65213e-06 -0.000231792 -0.00037425 -3.94035e-05 -0.000332175 -0.000365917 -0.00106724 -0.000468922 
-0.00802239 -0.00215258 -0.00111111 -0.000884532 -0.000714592 -0.000543005 -0.000351578 -0.0102401 -0.00171864 
-0.000982376 -0.000808993 -0.000620598 -0.000444965 -0.000245889 -2.5862e-05 -8.46182e-05 -3.72056e-06 7.23523e-06 
3.36694e-05 9.47866e-05 1.42858e-05 0.00210334 0.00114078 0.000902913 0.00071782 0.000527326 0.000353766 
0.0112292 0.00164094 0.00102139 0.00081819 0.000628574 0.000442121 0.000241881 0.000162286 0.00207458 
0.00113375 0.000899298 0.000713871 0.000527579 0.000328725 0.0123913 0.00175317 0.000989062 0.000805588 
0.000617713 0.000426954 0.000254007 -5.427e-05 -0.000227058 -0.00921716 -0.00211172 -0.00115331 -0.000912444 
-0.000714705 -0.000516349 -0.000327076 -0.0112983 -0.00170289 -0.00100546 -0.000796037 -0.000625726 -0.000427536 
-0.00025491 -2.73034e-05 -7.57631e-05 -2.03261e-06 3.68443e-06 4.45006e-05 8.90842e-05 1.0307e-05 -0.0193185 
-0.000155754 1.25302e-05 -3.67477e-07 6.11828e-05 3.81562e-05 3.88118e-05 0.000102869 9.69595e-05 0.000148302 
0.000122611 -6.16902e-06 8.55153e-07 6.94132e-06 6.40257e-06 6.26362e-06 -7.60443e-08 -2.50921e-10 -1.08235e-05 
6.40432e-06 2.33866e-06 8.15378e-07 -2.62837e-09 0.000160202 0.000152658 0.000165192 0.000166852 0.000163202 
0.000156812 0.000192165 0.000215485 0.000151543 0.000213005 0.000171996 0.000171371 0.000157672 -0.000116896 
2.23063e-05 -0.000167943 0.000219993 4.56484e-05 -0.000216554 -3.27136e-05 0.000215927 -1.88226e-05 -0.000236851 
0.000275067 -8.41604e-05 -2.76379e-05 8.70658e-05 -0.000161448 -9.34284e-05 9.70139e-05 5.69832e-05 8.61765e-05 
0.000129589 0.000151345 0.000109402 3.99829e-05 0.000125033 6.04605e-05 1.00807e-05 0.000250154 0.000241013 
3.69588e-05 0.000166832 0.000152039 0.000193827 0.000257481 0.000250579 0.000205135 -1.93519e-05 -7.79642e-05 
0.000259686 0.000203178 0.000166828 -0.000207316 -0.000148073 -0.000107398 -9.153e-06 7.63921e-07 3.72661e-05 
-3.20202e-06 -0.000140967 2.72298e-06 -0.00039101 -0.000433938 8.95874e-06 6.08965e-06 -0.000174822 -0.000311117 
-0.000126216 -0.000211769 -6.73766e-05 -2.19948e-05 -0.000124421 -4.40124e-05 -0.000193405 -0.000113412 7.60382e-05 
0.000116492 0.000115683 4.67735e-05 2.81443e-05 0.000147203 6.13962e-05 -0.000195458 -4.42819e-06 3.09451e-05 
-5.23435e-05 1.43599e-05 -0.000268112 -0.000137353 0.000226663 -0.000140264 -9.75553e-05 -0.000107964 -0.000135051 
-8.70627e-05 -7.31857e-05 -0.000139619 -7.95774e-05 -7.47685e-06 1.47652e-05 3.3872e-05 0.000122502 0.00013594 
6.46758e-05 -0.000123798 2.01135e-05 -0.000174106 0.000183673 6.55112e-05 -0.000183527 -3.84302e-05 0.000238403 
-2.46348e-05 -0.000234057 0.000220516 -0.000112794 -4.55433e-05 9.075e-05 -0.00018112 -0.000106272 8.88456e-05 
5.87185e-05 7.92885e-05 0.000141396 0.000129216 0.000100755 0.000121242 4.30093e-05 6.85197e-05 2.89447e-05 
0.000267221 0.000264881 1.21582e-05 0.000174977 0.000204016 0.000153691 0.000279439 0.000242977 0.000195636 
-7.81112e-05 7.75772e-06 0.000175556 0.000241329 0.00012423 -0.000190053 -0.000228704 -0.000103873 -1.74224e-05 
-1.43703e-05 4.92895e-06 2.23288e-05 -0.000166675 3.41371e-06 -0.000424268 -0.000393966 -2.20581e-06 1.04178e-05 
-0.000296207 -0.000148345 -0.000112518 -0.000200634 -2.44962e-05 -7.18729e-05 -0.000134869 -0.000181157 -5.08186e-05 
-0.00012427 0.000119434 7.23533e-05 4.03621e-05 0.000113804 0.000131239 2.59058e-05 6.68989e-05 -1.07043e-05 
-0.000197408 -6.81714e-05 2.99439e-05 8.36555e-06 -0.000272949 -0.000145246 0.000199158 -0.000123819 -0.000138336 
-0.000117134 -8.11216e-05 -7.43893e-05 -0.000114611 -0.00014721 -1.12422e-05 -5.82429e-05 6.4392e-06 3.34772e-05 
8.74422e-05 6.35861e-05 0.00012886 -3.94535e-06 7.40416e-05 2.02787e-05 -0.000561562 0.000291781 0.000209406 
0.000261293 0.000241954 0.000266027 0.000237192 -0.000466253 -0.000496956 -0.000436532 -0.000504307 -0.000481636 
5.73922e-05 -1.37822e-05 0.000129066 3.70055e-05 0.000104617 4.05456e-05 5.77109e-05 -0.000161244 5.27025e-05 
-0.000253066 -1.42838e-05 5.71808e-05 0.000110546 3.74815e-05 -0.000153476 6.67102e-05 0.000279044 0.000279771 
4.59367e-05 0.000452995 0.000173503 0.00838582 0.000302973 0.000285134 2.49905e-05 0.000103002 -3.77841e-05 
-0.000234832 -0.000282396 -6.33028e-05 -9.06998e-05 1.87688e-05 9.34666e-05 -0.000178369 -0.000126121 -6.26815e-05 
0.000109642 0.00011337 8.62433e-05 -0.000100332 8.62985e-05 -0.00017285 -6.12854e-05 3.69638e-05 -1.18992e-05 
-3.49836e-05 5.69542e-05 4.04155e-05 -1.14472e-05 5.8799e-05 1.48249e-05 -9.34312e-07 4.97205e-05 -8.58301e-06 
-2.35824e-06 -6.80746e-06 -5.82025e-06 3.04562e-06 4.14617e-05 3.63376e-05 -7.85558e-06 4.23904e-05 4.52759e-05 
-4.5358e-06 -4.41723e-06 -0.000257735 8.85875e-06 -0.000235992 -5.52883e-05 0.000706921 0.00251887 0.00165455 
-8.98946e-07 7.26906e-07 5.09386e-06 -1.23728e-05 1.22854e-05 -2.60635e-05 -0.00147437 5.35748e-06 6.66376e-06 
0.000398282 -0.000800782 -0.000368798 0.00107942 0.00143209 0.000491343 0.00175955 -0.000519725 0.00152831 
0.0101925 0.0111647 0.00145018 0.0118389 0.00167882 -0.000635459 -0.0078331 -0.00152364 -0.000851298 
-0.00851745 -0.00783681 2.07811e-06 8.91806e-05 -8.15261e-05 -7.10975e-05 7.41701e-05 -7.37756e-06 -0.000170142 
2.60704e-06 1.18232e-05 -7.67942e-06 2.01365e-05 1.76309e-05 0.000164303 -0.000685715 5.24699e-06 -0.000578637 
-0.001049 -1.93076e-05 0.000957637 -0.000448786 -0.000545424 1.05657e-05 0.000566503 0.000558965 -0.000365548 
-0.000440727 4.6299e-06 0.000439695 0.000454106 -0.000288126 -0.000349124 1.16946e-06 0.000362018 0.000344357 
-0.000184699 -0.000250305 -7.45372e-06 0.000277403 0.00025393 7.07668e-06 0.000199049 0.012036 0.00206839 
0.000250487 0.000336471 0.00176935 0.000997185 0.000901311 0.00112461 0.000811062 0.000714209 0.000625768 
0.000528187 0.000436773 0.000630715 0.000867888 0.00137637 -4.0258e-07 2.50614e-06 7.6336e-06 -6.71501e-06 
1.91711e-06 1.94332e-05 -0.00123053 4.1279e-06 2.99301e-06 0.000550375 0.0116236 -5.21826e-05 0.00130515 
0.0117188 0.00190164 0.01192 0.00100854 -0.000384903 -0.000686922 0.00064222 0.000681772 0.000384527 
-9.64844e-05 -0.000295094 -0.000103295 0.000108064 3.49768e-06 5.60222e-05 -4.92736e-05 0.00014623 3.48002e-05 
-0.00049044 -0.0103985 -0.00912128 -0.00117927 -0.00819866 -2.43746e-05 -0.000150663 7.82555e-06 2.76236e-06 
-7.32591e-06 1.70041e-05 -0.000673654 0.000599111 0.000967759 3.67106e-05 -0.000847484 0.000477562 0.000516832 
-0.000518926 -1.57914e-05 -0.00059128 0.000366447 0.000439691 -0.00044294 -7.13646e-06 -0.000478664 0.000277118 
0.000354834 -0.000367373 -1.01201e-06 -0.000345744 0.000173559 0.000262489 -0.000259786 1.84108e-06 -0.000260701 
4.7389e-06 -0.000184144 9.44943e-06 -0.000633916 -0.000461524 -0.00831673 -0.0107082 -0.00193267 -0.000253279 
-0.00034417 -0.00111839 -0.00167921 -0.000893762 -0.00100045 -0.000804462 -0.000523828 -0.000620114 -0.00071519 
-0.000438035 -7.95888e-05 -2.30877e-06 -2.84332e-05 5.7687e-06 1.37034e-05 3.68673e-05 9.2295e-05 -3.49605e-06 
1.65078e-06 4.96726e-05 3.49609e-05 6.19967e-05 6.73991e-05 7.21935e-05 6.36296e-05 7.32775e-05 1.18717e-05 
9.57326e-05 2.06431e-05 6.77362e-05 -1.00691e-05 3.00173e-05 -3.5441e-05 -5.55978e-05 0.000144183 3.0209e-06 
-0.00012074 -1.47793e-05 5.53328e-05 5.64572e-05 -9.50497e-05 9.16239e-05 2.73343e-05 -0.000180543 -6.25355e-05 
-0.000132829 0.000104245 -0.000265863 -0.000332659 -0.000286422 -0.000155205 -0.000103917 -0.000286039 -0.000360406 
-0.000417982 -0.000333062 -0.000303493 0.000153215 -0.000247883 -0.000175558 -0.000312107 -0.000150985 -1.90278e-05 
-1.42656e-05 -0.000141651 -8.45595e-05 -0.000115793 -0.000305682 0.000105287 -7.00777e-05 -6.99735e-05 0.000189353 
-0.000298391 -0.000175893 -0.000322719 -0.000367482 -0.00016511 -0.000170228 -0.000161172 -6.91854e-05 -0.00012064 
-0.000140982 5.03954e-05 5.44743e-05 0.000215108 0.000204961 0.000291908 0.000299621 0.00020698 0.000200298 
3.01617e-05 1.96888e-05 0.000193301 0.000178343 -0.000143967 -0.000131244 -0.000117757 9.10802e-05 -0.000475098 
-0.000187256 -4.75465e-05 -6.14827e-05 -5.77866e-05 -4.85077e-05 0.000105976 5.86143e-05 7.30262e-05 -0.000101256 
0.000266095 2.7241e-05 9.07604e-05 -0.000619488 -0.000433794 -2.16951e-05 -0.000495817 -0.00014579 -8.76185e-05 
-0.00012745 -0.000132747 -0.000129834 5.6273e-06 -0.000240845 0.000120166 0.000100144 -0.000286366 -0.000257529 
0.000394075 0.000297769 0.000380927 -4.43586e-05 0.000224523 0.000271435 0.000241472 0.000201931 8.23429e-05 
-9.12536e-05 -1.00224e-05 -0.000217519 0.000262921 0.000187055 5.28023e-05 0.000144841 0.000180435 -4.65431e-05 
-0.000578868 -0.000156551 -9.20813e-05 -2.24856e-07 -0.000367492 -0.000433017 4.98193e-06 -0.000277965 -0.000345124 
-2.05516e-06 9.1158e-05 0.000158635 2.9528e-05 0.000163547 -0.000540296 -0.000460951 7.19394e-06 8.1138e-06 
0.000584809 0.00102531 -1.67109e-06 0.000184353 0.000249422 0.000275602 0.000341761 0.00037092 0.000440311 
0.000534995 0.000463179 -0.000184895 -0.000244888 0.000313543 2.87502e-05 -0.00098437 -0.000578927 -0.000188288 
0.0109767 0.00162583 0.00108478 0.000189073 -6.32014e-06 4.13083e-06 8.11246e-06 7.0584e-05 7.42468e-05 
3.11133e-05 0.00019496 -4.26183e-05 0.000138416 2.89145e-05 -2.88661e-05 7.70138e-06 1.38557e-05 1.3432e-05 
0.00025553 0.000265436 0.00035937 1.62322e-05 1.38537e-06 -6.53336e-05 -7.71838e-05 0.000219077 0.000297021 
-0.000506693 -0.0013393 -0.000153281 0.000134024 -1.79411e-05 0.000479616 7.44454e-05 0.000402359 -4.54201e-05 
-1.61237e-05 -5.74047e-05 4.2919e-06 2.9621e-05 7.22864e-05 8.52406e-05 0.000277583 0.00157223 0.000441719 
0.00180348 0.000101026 6.97007e-06 -0.00113418 -0.00887999 3.74163e-06 -0.000306636 0.000162836 0.000164261 
0.0117323 0.000409224 0.00135354 -0.00923669 -0.00112111 0.000144165 0.000146584 3.1521e-05 -0.00844094 
0.00155715 0.000485401 0.00010779 -0.00010591 2.03187e-06 -6.10734e-07 3.3055e-07 -2.91369e-06 0.0115826 
4.51408e-06 1.74782e-05 3.34056e-06 5.30709e-06 
Stress%20xx%20component 1 949 double
-24581400 -24749600 -109307000 -104639000 -197511000 -190577000 -95772800 -80242700 -104210000 
-106264000 -18653100 65203700 -67665500 -125318 360911000 -5728130 87652300 -62978100 
534942 358173000 -168354000 -629699000 -583224000 -146804000 78912800 94052000 660656000 
101033000 -2130880 -102808 -108077000 -108913000 671830000 101364000 948285 798248 
-19711900 -106432000 -65161600 -44228400 -84756400 -65096600 -44474900 -86427200 -177945000 
-176861000 -198117000 -38000400 -38321400 -34074900 -42236500 -37328400 -38048300 -103737000 
-72916100 -113967000 -86471200 -111938000 -69734000 -90585200 -107116000 -77209700 -130068000 
-125873000 -61387300 102015000 146234000 16644800 125671000 111957000 23553700 -51902800 
44517600 -8607460 -71795900 3518690 -18849100 -669368 260740 418197 -67002600 
-52928900 9056400 -29261600 220444000 -259849000 -3326720 -14218000 59969900 660383000 
-140528000 -136209000 -62603100 97184000 146460000 36760800 122874000 121868000 23920200 
-50366300 48137000 -7771480 -67141500 -218884 -23829400 -187593 2389050 1180430 
-70010400 -54532000 9539130 -30651400 223877000 -259369000 -3705090 -12989500 59428300 
665925000 272581000 303157000 294808000 -46159900 -250014000 -165249000 -262938000 -553232000 
-434396000 -555186000 -255037000 -350835000 -605915000 -290810000 -291828000 -205428000 -261898000 
-46511200 78242600 273153000 284153000 86070000 339008000 185929000 84024500 92135800 
-68697100 -7990.86 274423000 303336000 87176800 327447000 192486000 460169000 280846000 
663378000 898273000 710268000 582729000 467602000 352756000 225221000 615629000 668353000 
653814000 529694000 408797000 282284000 161468000 23598300 61464400 8273590 -262461 
-25865800 -61254400 -10683300 -838525000 -740138000 -599047000 -474860000 -351079000 -234399000 
-649245000 -722579000 -656076000 -535158000 -410419000 -290039000 -165383000 -108316000 -871423000 
-700114000 -595333000 -474002000 -349531000 -223650000 -581903000 -657176000 -658745000 -534750000 
-412869000 -286968000 -167953000 544891000 365685000 626747000 770174000 719615000 597700000 
467653000 339752000 215042000 562624000 652787000 654768000 528902000 404735000 286913000 
163535000 23717300 56709300 8703400 913984 -29336700 -63943100 -8923170 559042000 
101337000 -418009 375964 -48096200 -36211800 -36392900 -55224900 -55706300 -87593600 
-67213900 -39400300 -31298800 -28445700 -28162200 -35496800 -38563000 -21870800 -13130000 
-36966500 -36717400 -38631000 -38902000 -67213200 -83009600 -107381000 -108972000 -88910200 
-88440700 -62674800 -60961400 -76449300 -77378800 -75647500 -74226300 -69077600 150015000 
15460200 121230000 -122502000 -87740100 148833000 70550500 -118488000 51193500 -29924700 
-108441000 132222000 45183200 -37199500 140666000 96067200 -106783000 -7134910 -51678400 
-108197000 -100139000 -69288800 -63891900 -96141800 -112642000 -67250300 -85963000 -204017000 
-119941000 -109766000 -100220000 -109500000 -128935000 -129894000 -154533000 4595040 71579500 
-132664000 -61224800 -21244200 146635000 104042000 89566300 -7687030 -14913900 -6547630 
16958100 51033600 -1839410 255376000 78082200 28534200 -12776100 134321000 158737000 
91963600 155934000 60504700 23844500 118507000 23607300 68174900 102665000 -47540600 
-80976500 -16967900 -8327280 -16129500 -71161200 -19389400 154834000 50205800 31570200 
103135000 33840500 201772000 161783000 -119256000 139586000 153697000 125880000 142389000 
105253000 107925000 153175000 81785700 41960600 23343500 5178600 -40657600 -63868500 
-12150500 152681000 14807200 117592000 -117356000 -80715200 143618000 74058100 -121952000 
65544700 -39690200 -95773600 138901000 43053500 -39128700 150325000 98266800 -125788000 
-7387900 -53155000 -105991000 -109142000 -70411500 -89277000 -62801700 -105908000 -68908700 
-205509000 -93378500 -111947000 -101336000 -119987000 -94611300 -138980000 -131021000 -149611000 
79241900 16099200 -56087200 -123656000 -25326100 127357000 152370000 91006900 -9744200 
-11045600 14692700 -4059120 59411100 -2699660 74044500 259332000 -13172900 30152700 
151610000 116737000 90621900 157535000 25585500 61662300 122108000 63440000 26986600 
102372000 -80966700 -47956900 -6711210 -18068900 -72180800 -16533300 -22453900 51694800 
161676000 102032000 31250800 33583900 203701000 160342000 -113311000 154751000 144641000 
130636000 108898000 108050000 148003000 155412000 42625800 80966700 24777400 3853000 
-39031600 -13932400 -65805700 -3649340 -25697000 8440320 420096000 -157042000 -343969000 
-336109000 -94765000 -331350000 -95168300 292910000 834445000 859262000 833735000 295274000 
-10284900 14955700 -42109600 -4692320 -17980800 -2769540 -20108900 78625500 -26477000 
166640000 14935600 -11796200 -19180200 -4743210 81398300 -21438300 -146248000 -154817000 
-101761000 -273570000 -341304000 -449194000 -146102000 -170449000 -101534000 43567600 138451000 
132461000 184602000 158502000 37611300 -10397100 -70112200 56858900 49196700 30219900 
-72142300 -73789500 -62635900 45919000 -62031400 52379000 30739200 -29413200 9340560 
16426900 -39219600 -29255100 9605760 -29096200 1811810 533253 -26370100 -371196 
70454 -107729 400878 -133907000 -116462000 -8832860 1030250 -118929000 -6769990 
3121250 29146900 135806000 134624000 189379000 162477000 -129326000 -690028000 16910300 
-3903440 -3638110 -3142150 -1194270 -5542480 31030700 679971000 -3284470 -1368140 
-410816000 536333000 257732000 -503210000 -509168000 -204168000 -551688000 365585000 -547918000 
-694467000 -594116000 -638756000 -607334000 -79885100 466156000 671711000 623765000 561998000 
633866000 595729000 -5066540 -62631200 57712900 39252900 -48826200 11274200 99125700 
-986227 -2182190 7961030 -9880450 -18127000 -109099000 445602000 -1652910 408934000 
466145000 44444500 -492371000 304490000 351696000 -13266500 -352675000 -405491000 245185000 
280251000 -7679200 -291976000 -308127000 181528000 218215000 -5658470 -245015000 -228164000 
114254000 160194000 -4412530 -183160000 -164497000 -5217660 -127812000 -591998000 -824814000 
-167095000 -226411000 -649051000 -653322000 -597202000 -716800000 -533185000 -474570000 -411592000 
-349849000 -290928000 41430100 -590727000 -307983000 -4848000 -3352050 -5956080 -3253050 
-4738170 -31254300 587728000 -2770270 -848030 -480459000 -655172000 -436544000 -565216000 
-582705000 -242980000 -627528000 -539119000 249693000 503834000 -470854000 -474402000 -235527000 
328679000 550358000 58991200 -67569100 -5054610 -45109000 38135200 -106680000 -19860100 
518077000 612100000 643113000 584382000 658054000 15294100 98900300 -110462 -78424.8 
5668680 -10099400 538711000 -433512000 -498258000 -60000800 488494000 -311064000 -353317000 
348621000 1860250 412745000 -251928000 -286632000 287093000 -2051290 303844000 -187662000 
-230655000 240590000 -3078540 222548000 -127728000 -170802000 178346000 -4830340 161443000 
-4888610 118570000 -2828970 237244000 420188000 548814000 607780000 813920000 166630000 
221524000 709592000 696822000 588320000 655623000 530612000 344680000 405024000 468001000 
284855000 55742300 7659670 24584600 -430738 -8904530 -26815200 -59951300 -936230 
-499715 -5198470 4727550 -14186200 -19239400 -16781400 -17508700 -25148700 25753900 
-37747400 15788900 -24222200 45656200 11516100 68779200 82512000 -68660800 25670000 
91267400 42006400 -20240800 -19988100 103525000 -40835400 13966200 180117000 122072000 
148983000 -36288400 214033000 227169000 217828000 146128000 126856000 171662000 205918000 
285150000 232413000 203776000 -78591600 302270000 124318000 196333000 145930000 46542900 
46497100 143039000 110199000 145037000 334004000 -50603300 68320200 100008000 -101082000 
192228000 154475000 208027000 222333000 114538000 144309000 165765000 63193900 148400000 
141492000 -11294500 -12912200 -146674000 -120033000 -142044000 -132988000 -98446800 -112508000 
-61211900 -62732800 -115120000 -100188000 149669000 101854000 127599000 -51440300 170067000 
83008000 11127800 43728600 43833500 20113400 -91352000 -80315600 -113540000 96408600 
-131635000 -14633100 -27591500 341500000 219556000 -15530900 163335000 -26466000 70447000 
96225800 93194100 116339000 81575900 130542000 -105735000 -109377000 191287000 167922000 
-188010000 -165715000 -198766000 42596900 -121238000 -137740000 -121839000 -106186000 -72001700 
70790300 -18590600 128822000 -129621000 -189311000 -120096000 -102347000 -184993000 43405400 
419252000 99288300 57414300 -4617930 240683000 283953000 -4333400 180622000 222753000 
-3281600 -65513500 -105492000 -108356000 -98879300 346304000 304316000 -5306800 -6411940 
-414403000 -475478000 -3445310 -125986000 -167202000 -190550000 -227963000 -248753000 -291378000 
-354247000 -311529000 120590000 159961000 -170601000 -107162000 476001000 413665000 115635000 
-613755000 -578649000 -408183000 -98336500 7376990 -808764 -747984 -47571200 -47478900 
-39948600 -118007000 -16786500 -161979000 -2173160 58808800 11588700 24932100 30508600 
-148529000 -173657000 -271097000 -10526000 173477 18075300 54971600 -107176000 -135785000 
245100000 622293000 443250000 -99945500 -14745300 -223100000 -50830100 -215008000 11402900 
15590700 39651100 -2707270 -19358300 -46469200 -72431400 -256120000 -166486000 -435621000 
-573423000 -70384500 -3489960 500509000 614848000 2123220 414942000 -94641500 -96044200 
-622969000 -23439300 -611438000 597498000 606057000 -96640800 -103478000 -3250060 618204000 
-4139860 -378822000 -314922000 -8385740 -3381550 -3616750 -3750980 -4678290 -648761000 
-63172500 897542 -5277330 -6985510 
Stress%20xy%20component 1 949 double
22071900 22220300 20177200 23309900 -57396900 -48986500 -79589500 -94880100 -85737900 
-73581000 39304600 -50090600 -38458500 -21397.6 128236000 44281800 -59189100 -36586000 
442289 130780000 151096000 32169200 24510300 122902000 -68693700 -72493600 -47900700 
-31779900 90482 242132 -6784.95 -1591590 -38652500 -24724300 -990868 173220 
19476600 20978600 28374600 25388000 25559900 28923100 25732400 26184600 -41094800 
-38326500 -65405800 48484200 36864800 67644100 49045000 36427800 71441700 -83992400 
-93473600 -80365900 -37594300 -6098610 -46718200 -41594400 -4443710 -50247600 -92436800 
-94990300 -29993000 20233200 -87085600 27908900 -40556300 -74278300 -9118030 4794810 
-29832600 2269070 -13608000 -115918 -24543200 1218470 -637825 -1822200 22303900 
-50613600 20891300 31263800 -44141300 -156260000 -3947250 31349600 -5342620 80655900 
-82921700 -94159300 -21425600 9325740 -74617400 29137200 -29452200 -73150300 -7596450 
6727570 -30776900 2407890 -15286400 77228.3 -22614300 2006910 -2292430 -2326960 
22743900 -49539400 22450100 32145200 -42992900 -153675000 -3022690 32563500 -4731290 
83298100 137282000 132072000 133042000 63113900 -117527000 -111729000 -17749300 29005500 
-201449000 -55071500 -139322000 -218797000 -132147000 -144500000 -88610600 -104745000 798033 
58871500 -56951500 41389400 -98301400 98325500 -41954400 -92947500 -73946500 -60782500 
-34597400 253314 35406200 -95059800 98042100 -26025800 -99327900 -175131000 -147445000 
-73858500 -80669500 -79185100 -79150600 -67088500 -54358600 -42379800 -31540000 -55956100 
-74331100 -67073200 -55796600 -41978600 -28939700 -8790760 -15244800 -3969140 -899902 
-4843870 388089 -1376720 57212100 53081700 49397800 39047500 24440300 16134000 
15709000 69978100 55656200 47473800 37218700 24725700 11671900 -27162.9 63175100 
58028800 44739000 36219600 28191700 8695950 28582600 54967700 56496400 46723000 
37806800 24661600 9997140 -187322000 -135058000 -99936200 -69428600 -82148200 -72912300 
-65600800 -55591800 -39789400 -45077800 -52797100 -73368600 -65488400 -55096000 -42923500 
-28584000 -11576700 -14785800 -4631770 -911506 -2624470 547883 -1265440 -37401900 
-27298100 -618977 263760 24267500 22792100 22912100 25981700 26188700 25458500 
28991400 65189300 34704200 28627200 28444600 41139300 42079200 77136700 83373200 
55706700 87060700 55269700 47549200 -45204900 -43296100 -9149030 -10665500 -38752700 
-43244500 -47601000 -52531800 -40840100 -55998700 -50059000 -47953400 -42826700 22048800 
57333400 75261300 -35288300 36235100 36032600 16623400 -29124400 -6614220 33917100 
44439000 9654090 75781300 40231700 -6906730 25354500 -44199700 38060100 38508400 
1234250 -38950800 34831500 44342800 26192100 -836935 61960500 -21542400 -80527100 
-40280900 -47656400 -47098700 -63020000 -59860700 -55657200 -46606900 61438300 55543300 
-23626400 49722500 63221900 -47167900 -24694700 -12516800 13566400 -8377010 -30212000 
1406690 -22827600 -490720 110503000 28259900 6493080 26694100 31356600 -17205900 
53010300 10849400 8892850 18430300 7180520 36884400 75912800 47291700 -10448300 
-52385000 35865900 31317500 31634700 4575620 42476300 -16091800 10032200 13203600 
10242100 23734300 42496200 47520100 5564090 47094500 13694800 23445800 25806200 
27988100 19255600 5042050 46382200 39636100 67847900 49498900 51068700 40957100 
48982600 18626000 62571700 83779000 -37086900 36789300 44201100 20553500 -35023700 
5112750 22272600 43352700 10228100 79200900 40791900 -11232100 25802900 -38808100 
39998900 38962500 -36016700 1934380 35772900 29182800 43404100 3546760 62819200 
-89647300 -28905400 -12129500 -46102000 -58115700 -50063300 -55375700 -62210100 -49075300 
47456200 74500800 46939000 -14282200 65382200 -34549200 -40697900 -10909000 -15710500 
10509700 1665470 -24060600 -23440000 -1111140 28015400 109332000 31689800 6591510 
-8022670 36415200 60038300 11460500 19109400 9020990 8380510 78807500 40627800 
48593900 -50612900 -10668300 32713800 37598800 5515870 34717300 43567600 12591300 
-16200000 13970000 14871300 27135300 46660900 46205600 3449630 13305200 48377800 
24329300 21667100 34968600 26777800 3204270 43826400 52825200 69588500 53206400 
54480200 51465000 41799700 9639980 34212200 -1234780 -23467700 -107051000 -178166000 
-200874000 -75615800 -199849000 -75507000 -44048600 98278600 126349000 97347700 -42709700 
-17530000 9147380 -45882200 25250500 39465400 19900400 20871000 -27326600 34581100 
-58432500 9801030 -16945200 39214100 25121700 -27122800 20957800 -96743700 -92420800 
-35548800 -141951000 -212383000 -108256000 -96163400 -79717600 -23163800 36286700 25378800 
-81475900 -91644500 -34672700 -23323300 66651.9 -12973300 -41214800 -37017400 -16731900 
-21052300 -21067100 -5430870 -29185800 -3454630 -39001500 -15411000 3043960 -2463480 
-8161010 -1133630 3462710 -2184060 -20895200 578601 1016690 7595400 -1432000 
-789608 -447884 -2295990 19378800 21363900 4204470 -3128730 20984500 3302850 
-1592540 49794600 -80815300 19692200 -76385600 -24042800 -30829000 -67618800 54492100 
-17157600 -17348200 -17379200 -18434700 -17722100 -34393100 16852300 -14835500 -5198410 
-144130000 57134500 131757000 75979500 -76141000 211514000 14924700 82001400 -145869000 
-14843500 -2897660 14680800 26872600 -15779300 -143801000 -35036100 -75090400 -62532800 
-80322900 -22899400 -20139200 -8340280 -25063100 -22601700 -7119720 -11668600 -29149300 
-2697930 -2659840 -7626470 -5664000 -9677590 -640053 -67458700 -10230700 -55349200 
-61219900 -41914500 15949400 -48782700 -48681500 -26408200 14917100 17349500 -44602000 
-48396200 -21342000 15379700 16474000 -36598700 -43841300 -21279100 10975100 9702890 
-29746700 -35057500 -20446500 4106230 2117960 -20892800 -2525470 40562700 62048000 
12883400 13082800 61508200 59245200 47344000 56452400 49124700 37994700 37773800 
26348100 26755200 -26187400 -97035600 63339400 -19103400 -16961400 -16652100 -17204800 
-18840600 -31130900 -102277000 -15914600 -5144370 -123510000 -29981700 -181748000 37496700 
-2259340 -16270100 34110600 -49225400 93620300 19357800 -54360800 62041400 190972000 
44950600 -138308000 -23831200 -11121100 -18770600 -10217000 -20442900 -5191620 -8820660 
-148254000 -72555900 -52937800 -41763000 34464100 -14033500 -28687700 -3182610 -2504590 
-8450840 -4094560 -53878000 24449600 12566700 -44976100 -68142100 12616100 18679800 
-52986800 -24142700 -56589800 9061990 12154300 -45077600 -21246800 -47217200 5280850 
9343090 -41323600 -21157600 -40825600 -3265080 5304940 -36682300 -21744200 -36636000 
-20538100 -28594400 -9398940 -146366000 -202808000 -116476000 -42847400 -65540300 -27468800 
-40796700 -78462900 -52950700 -75081300 -71362300 -64062700 -54731700 -53736100 -65597500 
-42234600 -12934500 -3700720 -10347400 -755856 -903315 -3461320 1306380 652418 
1113160 39430500 49313900 47053000 40289300 34577900 34307000 36336300 30551100 
37571200 59189200 36116000 41138500 25160500 19932500 49771500 39028000 67982700 
54035100 76676900 17699400 18586200 31185100 51660000 26290100 39721700 61331900 
70631100 62981700 -15389100 53157800 -9131070 41235600 11842100 -47582500 -20238100 
-108901000 -19328000 -48939600 2780690 36716300 57291100 38986000 35565000 9752030 
11855000 23165700 19239100 15089200 -44516600 -20114800 5747010 14604500 41643300 
-40429900 7504570 -8663730 58997500 73172200 -12620600 41789100 5460540 19620500 
42668200 29182000 29781900 -50322600 -33453100 -55785300 -45282400 -64335500 659344 
52088800 50620200 -36690200 -63176300 4631530 44270700 23705500 -21330500 36390900 
73103700 27263900 33018800 33298200 31917300 28639100 37852500 2907720 23825300 
67490600 89920800 92955400 -171788000 -92117100 3575360 31425500 23264700 198391 
-17909000 -19248200 5580200 105032000 -38012500 3956080 -37202100 96919800 84292700 
-54298700 -14069900 -16069700 12072200 -66165600 -62332100 -62491900 60057700 38627600 
528098 323458 -36531400 -61341500 -62911900 -43216400 -50802700 -67921200 12855400 
-6708190 -27812300 -21522600 -17827700 -41377600 -47052900 -16699900 -35543700 -40945100 
-17660500 -9397520 -4408290 -13999100 -51131900 -52162800 -45312400 -17654300 -32358900 
23714700 22341000 -17661300 -492482 3201840 4223890 9612680 9801990 15321600 
20843900 13123000 -30805800 -35497600 -53041200 13770000 -66016200 -53806400 -30998700 
-37542300 -106551000 -168840000 -45818300 -7614890 -5089740 -3040540 31745300 31144000 
29370500 64903000 86814700 142591000 -27769100 196430 772142 13509300 13877800 
-54465300 -24664100 -110304000 -4855170 -2569010 37381000 -19951700 -67456100 -62851800 
47869000 -68262000 -19012500 -40730500 -8781460 -107467000 38153700 140446000 40837100 
-13831900 -19450300 -15191600 -8533660 -8301630 38208900 -10216900 56198400 24633100 
-49638000 34989300 -10018700 -142075000 -84639900 -87427.6 -74377500 -46709000 -46674100 
-2411410 -20095500 46135800 -44127600 -26434100 -47035300 -39739700 1621700 -39666000 
-29002900 -99577900 -146514000 -35178100 -26304700 -22177300 -21407800 -21392700 14801400 
60428800 2297950 -20590500 -21916600 
Stress%20xz%20component 1 949 double
-2037070 2096360 1542900 -419885 -24358300 29331000 1462960 -14523800 11735600 
1700090 -18348100 -5188670 -462738 153489 56054800 10703500 660497 -1548580 
124203 -58374400 -26343400 -9226750 7404870 19986900 14247400 -19855300 7297320 
533650 -6947.83 -78051.1 759183 -441712 -4254610 936816 -65450 -143540 
-8471.22 393880 -887065 -827168 -410761 497488 833963 157442 -2003980 
-13333000 14484900 -1904840 -2799140 -778773 3189140 2873230 1347160 -3964580 
-1358780 8241840 1707510 2348700 -1184120 -1226660 -893182 -891966 -10437600 
-3599310 -20447200 19211000 19933200 -2694480 21444600 517808 -947525 662605 
402707 156174 461623 -233982 -1216950 373484 -1627360 -141577 1623590 
13117100 -2398710 3012190 -28399000 -9032300 -784469 -2327690 811747 28074500 
20023600 11393400 16684700 -34981700 -25688800 -25519000 -22834100 -14034900 294323 
-1280120 -950662 -826155 -2453920 767769 1926700 -192423 1183420 413677 
-4088450 -13542300 2543600 -3117890 30156800 8061750 1046030 2070300 -160478 
-25845200 -1809540 17706900 -21227300 -52331700 -39888600 -24761500 -47606500 -7355490 
-6779310 -52139000 9214860 10187500 77486300 -1039530 50553100 35464900 59315600 
50617100 6813180 49990900 61108900 10605000 77273500 37463100 687883 -6767420 
-1686840 45333 -76430700 -37724900 -43939200 -68404000 -33092000 -7997380 14456000 
69869200 -3266590 -3257390 -121348 -795636 -368629 -475243 -35657200 -3544560 
135349 748564 782493 -1556170 229282 -1046880 -464071 -371137 251132 
-254345 751760 -348345 1336720 -351479 2800100 1364630 825768 1101100 
32903500 3835330 -351628 948708 1212490 -1032370 1054950 503673 -7498300 
-113948 155351 429961 -1315970 107603 -14907300 9443100 2189990 1586280 
-632257 -362258 1556130 9987980 29499100 -67703000 5239000 -5538.53 830454 
91185.7 -525315 501152 24594700 -16427200 -2066450 245877 72415.3 509069 
-964514 241271 -886482 -527375 289886 -295905 867798 130028 7437350 
4356950 94701.2 -175297 -110371 -1214040 1149070 -219248 -60669.4 -593009 
-730812 -16388.5 803.547 1147120 -1123950 -504596 1534040 857316 -3125240 
-1730910 6142150 1696530 263407 -315660 -1889150 -795641 1049280 918879 
-2118780 -6943.05 -5475910 2357340 -456443 192769 -2513280 -912549 967572 
-173715 93437.7 1296910 2297980 -5869800 1222390 823684 -63414.1 2368210 
3020940 -4443050 -6197770 -1738370 -49165.1 -234051 -1169490 713335 -643731 
998619 -497190 -1183950 37076.7 2063430 2661060 1030140 14641700 -19022300 
-6183300 -2466680 -904855 -1089870 15514700 12110100 1287980 -16441400 -14973300 
12747600 22623100 3407860 -5457020 -10252300 483308 1234380 1832880 -18039.3 
622245 3017540 622572 41884700 -30223800 -5760720 6848160 -22227400 -32329500 
-12721000 -7675320 -435896 611798 367419 -2266870 4020160 -3395060 -126169 
-2489670 835220 -1459340 -2366210 -1214850 82849.9 -7977260 -5009810 6503740 
714486 1810380 9597990 6029670 -443125 -1203400 2999540 -234835 3399170 
3594720 1002890 270209 1712090 138881 1222220 345542 -2708160 -3026320 
-63619.2 -748407 775266 -2093710 -9279080 -3407890 20189000 -1440810 362665 
1566160 -1129540 -9956770 5007630 2748880 2117860 3152460 711706 187487 
-355034 1682320 209352 185304 1414950 -1148580 303799 -4439030 5625010 
20162200 -12749100 7855930 3041040 -484396 981880 -13712200 -3944960 -2791340 
-2391300 -1169370 -28087300 -11096900 -6833650 5820380 3605330 1152190 -610531 
1058680 923137 415961 -918192 -1816920 35495100 -40099000 -8527090 6416220 
33307800 20404900 9559000 19580100 -89556.8 697663 -1660870 -1958120 940026 
2443550 -133680 239605 1716410 -430702 434230 2626440 1434640 5000180 
10067200 3506130 -5724370 -1465340 -14085100 -5385330 -14093700 767132 426436 
-375833 -179129 -1207860 -1256410 -2262210 -346718 -2073470 -210881 217653 
3227550 2147310 3963240 -243147 -538286 496873 -902102 236539 -1342770 
-15544300 15234300 13768900 -15752100 -37252300 34363900 -2033390 -35118300 37086300 
3314660 -824250 688969 1641520 2321800 281802 150833 -6327350 -223572 
-1205490 1411490 -2673070 -2551330 -1860110 6784050 -306543 -45636300 -51566900 
-88047700 -35600800 7546280 36133900 26085000 71419900 87671100 62269000 81427100 
48708300 70555300 99715700 299508 -496878 12245.4 7878100 3625410 -644944 
-1218820 1202370 507295 -4940660 -635286 -5277040 171900 1397550 -492014 
-602398 198339 -2258760 -215216 -733253 119977 25415.7 461300 -330468 
25078.2 -29754.9 -275764 -384418 1787150 -1436010 62743.8 -3033280 2551540 
286610 -5911050 -30934900 -83551200 -82725300 -99273800 11105400 -17243500 -454632 
-666401 -663814 -19504.6 -77482.2 371979 -57694.7 8082600 -194272 207015 
28684600 -12510700 -32880900 22197800 25006500 -36759400 -51039900 22638500 -43997700 
-52043600 31571600 37224200 -20471400 4394630 8257060 33832400 28071100 -22425400 
-10948800 28758500 -2826450 1557990 -331084 -539477 1405620 -714920 -1129960 
295429 232111 -279621 560901 56698.3 537873 -23534900 1260150 -6761710 
-652549 -7636250 2190310 -1463720 -757311 5411370 352525 2789300 -2625900 
-1217980 -3038160 1725750 1781680 517979 -2183730 -2569980 11937.6 1018600 
454149 -1041960 1495820 -553508 2152090 -1035030 163014 -18552000 -4891390 
1798500 3471360 -4943540 3177460 1599080 -5235550 2450160 1880570 464396 
-657455 -1299010 -6681910 8552570 17136100 23879.3 -702030 -5485.09 166492 
-216554 5511680 -9648350 -17532.2 271936 -8604570 25952800 22218200 -18906200 
-6490480 100900 16664200 30606200 -5696180 -33774100 10584900 16708200 16407000 
-27856000 48706300 569626 -409118 -814661 -694663 259145 187269 397192 
-41867000 -42454200 -3288800 25286500 -40623600 192685 -366317 157629 -277973 
1066530 23989.1 -15445400 104342 9063950 -14981900 -10156500 143514 -93033.7 
-80598.9 3147430 5648780 -679266 -2431270 -28941.2 -1463060 -122898 -814198 
-353239 1265960 -2796820 1443180 -554455 -729964 -268575 2444260 609323 
-2154190 1008180 1174390 -36013400 8169390 -48808900 18934800 -5456700 -692469 
1763900 -3199800 1590740 3066890 -1126440 1491980 -2083610 796733 -29613.9 
-247335 -982111 -818457 -467177 -117079 -95501.3 -1645540 1175730 11484 
-337831 -389369 27962 -370.508 342904 -1975210 1218820 305775 6140.98 
311906 442660 -414293 86614.1 -421791 -485995 -1246160 -830089 -225361 
2109920 1769030 -1198200 1342400 699964 1733330 -307601 29581200 30522400 
1185620 -1235530 -12380400 -8392520 11305200 -740692 733325 32346200 17447700 
-859249 451051 -573620 -134996 -6833880 -27075000 1114790 -1840400 899417 
-861359 854880 -427475 70867.5 -1013060 -339340 5382230 318991 3002740 
-23303900 22389.6 -16154200 5347660 -244364 -304327 -32081000 -5939770 326365 
-1420300 -2394470 2682040 -2744310 1554360 -5829610 8693960 1169660 2461310 
-2531730 1447420 1062480 -1606450 -296560 -187837 535382 593696 -9983390 
1499120 -860366 -579697 -645845 1218010 444075 -428073 2721010 376322 
-3565390 14951000 2291830 -36437700 10393900 -67282.6 12127200 -980684 -346542 
1687250 -1927740 -204567 6967330 -753751 292379 -661230 7337880 -7325840 
910481 31479300 800354 -314303 2378150 1891430 2816320 10745800 -250138 
-248162 -90269.8 -4962670 413363 -2195670 -465624 -1378170 3489730 270727 
16077800 348002 -481328 -286856 350913 -170945 -542486 -109810 718275 
-159490 -418520 -417973 1036290 -1021440 535056 -338688 -156913 4101930 
-1338150 -5274300 238349 -322476 356714 -522723 1622630 -12.7063 1025730 
553241 -650214 302715 -1462110 16835400 -2065750 9597920 -2576240 5875740 
5394780 -1279660 -99895.6 116285 -403806 173902 133351 375833 -518293 
-56844.4 -10400500 -23713300 -6655500 -263907 358344 392187 -2291450 3479670 
-25848400 -31443800 -913924 -292061 -26164 1321560 -817097 -5573070 -3278290 
22462900 10071000 20493100 -985383 -198005 5694820 748590 7924770 -2932840 
307906 -8653.28 -226225 -458408 -85948.4 2035510 6820310 -9551260 -22726500 
23508800 -447745 432279 11087800 -23832800 -264589 34256300 -292167 -554700 
-3206890 -7543590 5850510 8797780 455285 -751478 -764589 1395950 24432800 
-16043000 -9157670 -14593500 14068100 -389447 -1182210 -686516 795176 14232200 
-1432570 -1948080 -1848480 -1660500 
Stress%20yy%20component 1 949 double
-20216300 -20562600 -1241180 -377716 98210100 100848000 -54733900 -81433200 -58024300 
-49004100 11296300 30588100 -17752300 -366767 150117000 17306000 31611300 -16788300 
1087120 159957000 -42817900 37782300 36577700 -29733800 42493000 48489600 -27903400 
827655 -6962050 157579 2486300 2364250 10196200 1153620 -7852140 286956 
-14583500 -2098560 -12282300 -15943800 -4568840 -12159900 -16614800 -4124760 140575000 
139502000 121547000 -20430000 -29302300 40784900 -28360600 -27543600 37594000 -59755000 
-74885300 -53650400 -14196300 -3701390 -25732300 -12474700 -480054 -20444900 -45880800 
-66934500 -12774700 -50811900 32327500 -25494200 -2341460 46001700 1194020 2974820 
14861100 4187520 -12381900 -4027090 -7662620 -1308350 -1919700 2295010 18485300 
-20418400 10045100 -74856300 -13950500 -90121100 24177400 -46062800 -23672300 100631000 
-48611500 -63338700 -6413430 -39761800 20967900 -17641300 -10100100 39619900 3771950 
3011150 16852900 4002800 -12909300 -7078860 -10380000 175322 -2343060 2833300 
21297500 -23268600 11617200 -73671400 -15574000 -96661800 23636400 -43988600 -23306000 
106580000 167702000 155195000 159782000 6632700 -49306300 -74656700 -51888500 65234100 
-50577000 25572600 -97715100 -56382000 -128902000 -83760400 -50409200 -74073800 -40748500 
-1298630 38844600 -25065100 55627800 -24020300 38079800 53410500 52831300 33012500 
-20582500 755344 -4891510 28351900 -26187800 29974200 46651800 69825200 56935900 
98000000 15491300 6331750 6666060 8734320 11017200 9667950 41393400 12250400 
4000280 8056260 6486100 7912530 2931170 -5415350 -3184130 -6464240 -3371580 
2604890 83130 725578 -19880300 -5100810 -5378630 -4883070 -1584670 -3069900 
-52470300 -6488640 -8949970 -5898290 -5193050 -996327 1955770 2387650 -9978360 
-184919 -3151680 -1694510 -345344 3986110 5171080 -30529100 -3795980 -5093700 
-1813560 -253646 -544358 97175900 128300000 77217000 40982000 6257870 11415000 
9031560 5904560 3133350 -10447400 17688700 5617660 5234160 9056920 4309390 
4864730 -5454320 -4526580 -6320160 -3226870 311411 1412560 943767 -74644500 
942799 -8053630 232256 -12655900 -14696700 -14943400 -11989600 -12018500 -6200270 
-13071800 25889600 -15379300 -18707700 -18187200 -15764600 -20043200 91583800 128845000 
3906110 114815000 55729.4 -16399700 -28090100 -16142100 -8904230 -8075080 -14112000 
-15374900 -31737200 -36742200 -21384300 -34518200 -24340400 -23333500 -17804900 -68761500 
-32348200 -8778420 -8351330 25407500 -57009200 -48635300 -2495850 -45370200 80596300 
-10725000 -74399100 -40255100 -25265500 -43054100 -33325800 31907500 -21049200 -16975200 
28316900 2830090 -9260570 -9501000 8577420 31588100 106060000 5525260 660668 
142379000 -23670300 -9533530 -24427100 -25939000 -27911100 1506590 -22142300 -53420800 
-20027000 15391900 -21898600 -6624550 -16221400 -14974400 24413400 14708200 -15854600 
-19179500 24215000 353856 166899000 23820400 -27677600 -29014400 -66172600 -29006900 
-40199300 -45044600 -16839500 -14483200 -35470900 5696310 39066900 -19804000 -17973900 
-14267200 -52404300 -6190790 -14513600 -17439800 -20669000 -37097800 -60378500 -43491300 
-61908000 -31356300 -14354200 -40160800 -20376800 -46647900 -69919200 -51519800 -62749700 
-49775800 -63326900 -49579500 -42086900 -38663300 -35862000 -25240000 -25930900 -20720400 
-26698300 -68383400 -28673000 -4389890 -5737240 24321700 -59280500 -43902400 -11087300 
-51895900 85604300 -7936340 -69171600 -29191900 -20635100 -35817300 -30912300 53492100 
-22344400 -18612200 5710370 25283900 -9387130 10410300 -7442980 53073800 103314000 
-13415000 11825200 148250000 -16374300 -28664300 -9382290 -24069700 -28504900 6264900 
-32308000 -6464730 17145400 -14089600 -17313700 -3494870 -13950700 -9994610 16414600 
30881600 -25016200 -14323700 31569000 1303840 14709000 173451000 -22831600 -32037400 
-38563100 -70844700 -37543400 -46507200 -14435700 -17179000 -31757900 39303100 5540870 
-19725100 -16960000 -15518700 -5137050 -51228300 -13901100 -11502900 -20357000 -59802400 
-36153700 -62492800 -40665700 -31508500 -14544300 -39138600 -14361300 -67330700 -48180900 
-51290100 -60803600 -48785300 -60451800 -51788400 -36783400 -40857900 -30187700 -25606200 
-20886900 -23171100 -18617700 -56727200 -45871300 27214200 21343700 -86869300 -159001000 
-133503000 -57301900 -132253000 -59086900 -4837660 143947000 210177000 145021000 -7046580 
22533000 25525900 -17840500 -16629800 -89671900 5595320 -64206100 -5162690 -71009400 
15470900 26415400 20110500 -89977000 -17107900 -5268880 -64416100 -74294400 -50571200 
-27212800 -112391000 -62226700 -17853000 -70328000 -52818700 -21397100 -23672300 -35375300 
56632400 46257100 6179640 10846500 -3520680 4356680 26327000 24352300 6358010 
-17971300 -11874400 3457420 11682400 2535900 13794500 6680490 352799 1616230 
2648620 5478450 159080 1914970 -12911700 -5270620 819435 -5058300 739412 
533177 751894 2321520 -980287 20805800 -8267740 3158590 26860900 -7057650 
3772530 -24022300 52299900 -34150400 31394100 7347930 6538630 -172638000 27990400 
4495340 3285500 2524420 3125100 4228510 6398450 89007800 -733449 -1958520 
-5115640 8938900 -64568600 -74972800 -101718000 35415700 -59257000 49727500 -107131000 
-73619700 35765800 -48674300 -11721300 -6297750 72979200 46949800 129958000 13544800 
-2946270 20509900 2915990 -527595 7972710 -5519820 4467600 -1150830 -1121810 
-609714 -4420670 -6106860 2980230 -2281940 8591060 25744200 -997505 14559900 
-7108240 5065180 18027700 13254800 -2473250 1253970 9164710 -1464470 13715000 
81163.1 3762250 5440280 -5588080 10545200 -1190150 4786450 -5699570 6349580 
11295600 -76066.4 5010770 -4866470 9239290 5333020 -4203740 -8218960 -36972300 
-555394 637486 -6571750 -3313170 -3253440 -5543660 -4994020 -1771590 -3680560 
-2179910 -2567260 -30147400 -72886100 -22047800 4978110 2737830 3877830 3124060 
3838820 183397 37767400 46466.3 -3028290 -28371300 -66932800 -56388500 13658000 
22436300 -24623100 -40545000 -58023600 -29944000 14203300 -62216300 -85835500 -39627500 
5592710 101251000 9986660 -2239270 2646190 7460330 -5691500 8040120 -1698330 
69970300 48475800 -12147300 21212700 112351000 125890 701086 -5354260 -1336930 
-6808380 1053570 71463300 -3446530 17500700 -5197470 -22024000 -6642420 9700560 
-2838000 4388270 2922630 -6529040 6441340 -1303840 3340040 13473400 -5129850 
6533140 10921100 4430990 1330180 -4159020 6120280 13108700 4223760 -424184 
5087860 10220000 -1164440 69862300 31862600 23542700 32486800 27234000 4663160 
7189560 9442280 3920480 9334030 7156570 7154860 7074450 6684900 8911850 
6316400 -5900930 -6782260 -6045750 -3430650 663114 1889770 1080090 -765320 
95973.3 -26660300 -27174300 -26321200 -20483500 -31732500 -32317000 -26769500 -38665800 
-23207200 -30447200 -30966000 -37353000 -41190500 -46274700 -40824500 -20873000 -33664800 
-41182400 -31972700 -5366630 -5247800 -49216100 -24762900 -39636900 -50841300 -36176900 
-30119100 -24741000 -22327000 8442870 -19677600 -41403600 -69810500 4053260 -15075200 
18665400 -16230800 -6007830 -18270900 -20094800 -30089600 -38769900 -48707600 -49987000 
-49375500 -56246800 -57566500 -67487800 -2067510 -583191 -55061300 -59859100 -13409100 
-7660500 -41240700 -20262400 2879060 -6925100 -35057900 -45781500 -57047400 -67187200 
-45710600 -51200500 -50474800 -1763650 -5389220 -16995200 -20097500 -17259500 -21015000 
25640100 28273100 -10729000 -21238100 -51218200 -24190700 -45283200 644823 48249600 
52889000 10504000 -2817440 -3525270 15017800 11433600 30264200 46814300 -30429500 
-4930400 -25136700 -24088200 15535600 67007900 25544200 36432900 75217100 -12421500 
-9370950 -7441170 -33945500 -28313800 -4620090 29389300 45987500 177968000 169286000 
-30024000 -24755500 -24977900 -16828100 -23314400 -30164200 -26087700 -704833 13987400 
-13311500 28838100 -1302240 -27024800 2109500 137153000 -17443500 3855340 -16137800 
-20552200 85016.4 8825590 4537850 11957000 456812 3028620 11238300 -52995 
3910240 -2027810 8858430 155979000 -17591500 -5587310 12168400 2486910 4857930 
-6363380 19198000 3707540 -4874070 7352540 -5133930 5846480 -5489150 5258010 
7589370 -7494680 11924900 -6708.22 -29540400 34532400 -26423800 11434300 -6860430 
1193680 -76517200 -110816000 -22872900 -5652790 -2509550 -4895440 -13439500 -12984700 
-14885100 -6510040 -36039400 -29657700 -8640470 -34987600 -23775500 -14815200 -18442000 
-30608100 -32703900 -33374900 1705800 -1564760 -11698200 18905100 -22269500 -29468600 
-53612700 70528500 72662000 2895920 11990400 -77877400 -12802700 -17331700 -5449540 
-210236 -5679090 -304347 -1890990 6390990 13217200 -35812400 -3353010 -63695600 
-93970500 -6803510 -1172240 56637100 18665100 2133220 4511920 -12793200 -7743950 
-17175300 -9150450 -5169140 -36687800 19946300 -13793600 3714070 -5049800 43448300 
-66814300 -17635600 10561600 -5956680 3480270 3717710 4126960 5697110 -44144600 
133161000 -5936030 3071980 4338460 
Stress%20yz%20component 1 949 double
6929640 -6958960 -486581 -798092 -7395910 12982000 -2816240 -10039400 4614440 
469473 13177500 -1393660 -1955080 30426.2 45387600 -12372400 1599330 1811730 
-218212 -45582200 3696340 8746560 17058800 -18747900 -11240700 10263700 9759270 
-178392 -221698 -147717 -231252 -90809.4 -2237960 -172874 190227 56551.6 
33325.6 -797889 138733 3557300 -1908510 -963394 -3548320 -252228 -1520750 
-893070 -48460.8 5758440 10643000 3130420 -8641130 -10926900 -5422360 -4776250 
-7926290 4657240 3037870 1261270 783734 -560540 -1955230 -1953430 -12570900 
-3970970 -6902250 226481 -16680800 12028400 -11747500 -4439980 279146 -335379 
-919486 -176911 998362 1179920 -3212640 -212675 -2064660 532376 1529520 
15036800 -6742690 533669 3019200 -2846120 4179460 -8509460 14218900 32882600 
14356200 6869530 3318200 -1663240 16403700 -7815820 10198900 8261620 -48362.3 
93823.7 1966250 -110374 1405470 -580052 -230936 328260 3071810 -870531 
-976273 -14101400 7522900 601831 -4124680 -653514 -3123530 9384810 -13433100 
-32896400 -237048 23992300 -23990700 46432600 -31022900 -15818200 -11695800 18970700 
-17411500 36200.5 -1478240 10057900 3286370 1200890 26480300 13671300 6064780 
-42376800 -7945270 1127490 -29854400 13519600 -27090800 -17268300 1184660 5838310 
329487 12566.1 -8231120 22862100 -29565500 15476800 15743100 -20102100 -8401120 
43608900 -1756140 22742.1 -216971 -115216 -173525 -55474.8 40045000 11992800 
1648000 -960173 447469 -1886290 1355710 273260 -970151 -328045 -162814 
-184190 -1054880 -91313.8 3532210 2288540 438436 -196797 -73136.3 -549335 
36138600 5136650 -2850620 -1816930 -2110310 -1525620 1405170 -143897 3134200 
-851749 203249 -11279.4 310141 31732.6 -1209450 8189410 -1978490 -1105440 
-1892590 -2261860 577875 17808300 24102400 60245.9 -7814910 1071720 167816 
-81930.2 -362567 -302127 1733600 13583200 2583450 -1640310 1326340 -2190310 
989680 68199.8 -950644 -175141 18054.8 292724 -533325 -274706 2821590 
-794016 378583 24115.1 65472.9 2706170 -2644440 943007 -801337 -816202 
-614257 -803467 132262 -3633540 3713250 4033520 -5813210 -3455000 -4061740 
2086850 6170320 -3458170 -2135910 -2145860 131618 -216043 543906 693384 
26130 -3140530 -5720400 993713 1076810 3400390 1008750 -1166260 757881 
675011 -2395570 3099020 4182770 3886320 444256 -2148880 -683993 -6097300 
3583540 953773 -1549020 309937 2234440 -1090650 3205490 -498715 3066470 
175686 2103800 322303 6201160 1111770 4318760 3101950 6169790 -2983150 
9442410 2115570 -660403 -727615 7563870 6516510 8365.37 -3871890 -562889 
7293590 6987500 -3283950 3213510 4783720 -698857 -1193310 -817900 -2351350 
3412990 3139580 1061000 33606900 -23022200 -6054470 9500680 1040510 3217540 
2688520 7834320 160040 34015.8 -2913640 -2139730 -12008300 -3179240 -1796870 
1772680 -1325580 -3161930 -692002 3183890 -123187 5561660 2778620 -2213920 
1242690 -1808070 2847740 -4531950 6283620 142848 2067860 481815 274288 
1038270 2117220 276062 1472620 882010 3270810 -256802 2746950 1165910 
1071780 -475077 -923855 3237170 -4983210 -5256220 -6590710 -74000.3 844515 
1822390 6466230 -4076460 -916748 -2038770 123024 -2947460 808361 -2018250 
637332 -5476210 1439370 -1039640 -3130920 -2622310 -5287170 -6007080 7837000 
171665 -6659340 4754430 -803271 -1001260 -284196 -5349230 -2575800 2745540 
7606760 4314720 -5123430 -4689000 1370730 -4575770 -1052170 -1629140 2048980 
1792730 -4449440 3175550 2861340 -1002990 24279400 -33069200 -8496180 5815880 
-2149870 2924.97 -462621 -10143300 337668 -359502 922667 8069030 433592 
2416700 -915312 2000910 3584020 1678680 -2405190 833779 715642 -2437660 
-6094160 -767389 2719940 1525120 -5502450 2100350 -12798900 -2456570 -3198540 
304486 305098 -228807 1978140 1794570 -91437.5 -403409 -4145970 1061340 
-2104580 386699 159926 567722 790669 1488750 -815768 2094290 3248180 
-8622440 16861000 9666440 -14508700 162469 16994800 -1479100 -19635700 -2005970 
9387720 -3537970 1279650 -7975980 -2835680 1377890 4475280 12828000 785699 
585452 5501060 -7335320 4284820 9707880 -12064300 -2909020 -23799000 -30939300 
-27060700 4195830 -5774760 -18187700 15057200 33442800 21726600 30944500 5868850 
-23045000 -33484100 -15380000 260987 113134 -455141 -6215340 -2894610 -723010 
515265 293798 222568 4230560 -972800 3462440 910975 -589165 604224 
-105713 -469956 343968 -914993 -1133680 715784 5989.83 225259 209463 
197243 -49373.7 600577 847241 9936870 -2888470 -1121020 -9986280 3985450 
-921319 -45833800 17069100 -10139300 33233100 9006320 18449400 -5032120 11758100 
484884 -143007 -497836 108633 757608 -2841770 -35121700 -74969.5 -195154 
-25266400 -58504300 -54994000 -50542900 -49132800 -104558000 -41482600 10917900 -12965800 
34892000 28631400 9876000 24218700 93588300 -18306100 15812100 -16622300 -39611100 
50673800 32474500 300067 -50418.2 536267 -464322 -659683 -17208.9 469568 
-239975 -276029 -44389.5 -16835.4 -248781 556613 -33158600 -291624 -337937 
4544860 313344 947378 166534 -1267770 -1204980 -1420820 -1691540 -892102 
467274 217752 156023 -502080 -252937 1090620 175777 -797345 161189 
-968657 273805 -1094940 -1413590 642128 -1166880 -824629 -26762500 2036740 
-33568.3 -190840 -10333300 358299 1588300 1534510 -453360 1442390 18022.2 
1640340 -693833 -25678100 -1708260 10827300 151540 -42683.5 237035 538662 
58810.8 366149 14335900 173698 -78076.6 38412900 -8110070 -15391.5 30780100 
-5303890 -73372000 -2356170 -638234 2525030 6747800 20938700 5427770 -7705440 
30720000 36235800 833837 457489 72588.6 -152956 -638610 101339 278920 
75372.4 -9004710 -27919300 -8778490 -54646200 210494 -467674 146385 143614 
-510766 41854.9 14404200 291083 8243430 14689200 20101700 20279.5 -1432280 
-60575.9 -475727 6669340 818019 -577473 -652415 1018450 1249690 173489 
-1546990 -92056 179186 71613.8 -34217.4 -73100.7 439716 -443861 -1422750 
-249702 -218295 228591 -15600600 -9890880 -15002200 -15276000 -13650600 216709 
220541 -732581 -5773250 -583493 -161629 -350484 617865 -164687 -149594 
-39226.5 -162487 172577 749354 -22268.2 -11071.6 555928 -32382.4 123859 
447270 251785 -19267.3 -133754 254931 1689080 -798262 4073810 532848 
60400 -662675 -4333710 -505079 1529910 -350098 -77074.4 102138 -2122810 
-3556120 621776 -183404 1290770 -539116 -407193 -1015750 2273860 10472300 
-2638360 -2117910 1677790 -423283 -1242960 502602 897541 -13870200 -10419100 
-2316380 9000940 3632110 -349298 -3097870 -7486560 -1362510 -1089400 1245550 
-1199030 -1185960 -57635.6 111794 5585110 1142910 -4066250 623548 -452323 
6462560 -928696 6111910 1054690 1613170 499147 -7345980 4971860 -48467.1 
1436850 2273030 -1365950 1054750 -2045370 516181 1222060 3159930 -1090860 
-4552100 2704320 -673686 -3580190 748466 509173 -131303 429230 -13675300 
-3803420 -1684680 -2488660 3356150 647566 213866 -224825 904388 -235786 
2490950 -20110100 5898480 -12256100 3066370 -1686740 12835500 -555764 -1061210 
-386817 1689040 85275.2 1286760 3135170 471407 -1507530 8287210 -6145360 
7200090 11060100 9371360 265266 1352240 2069180 1828880 -18286800 -902776 
1415130 1590820 2552940 1063210 1045550 4708430 2792200 -343162 412537 
20053700 -66820.5 259485 278158 -83198.8 -64663 140736 218906 286329 
596689 -77774.8 494678 -2772360 -2457190 69196.3 248480 -11379.3 -5435360 
2878690 -9065650 1042840 5319.82 523111 571385 301716 229871 56170.3 
-40172.3 -60655.7 685021 698894 4879720 -2463980 -7717810 -2318750 -5102140 
-14503600 -1806320 -9367750 1239570 38809.8 -59017.2 69899.9 -520032 587918 
140686 15738800 12444200 6538830 -473385 -1342480 -164981 360524 612852 
-12551800 -16845000 -342515 -12657.4 24609.1 2148080 2532670 -2488880 -1809040 
25469500 -8450520 -7162160 -27657.9 1161350 1273530 2451000 45842600 -2065940 
59508.6 -195327 185056 298603 12229.9 164692 -4340880 6171860 8083220 
39059500 2298520 9964.29 4770650 -13748000 709109 12328700 1355920 -1768500 
-15087400 818275 -24389000 -22861000 23386700 397637 344873 -603766 35118100 
-2569520 2078230 9774340 2849370 435023 228585 18129 -391818 -9434060 
-726807 -417675 129606 -207093 
Stress%20zz%20component 1 949 double
-10967200 -11019700 1419520 1527280 -19529700 -16220500 4233370 26756900 8019190 
1246740 -5382830 -3326250 -2900950 -135686 143562000 -6512360 -247708 -4288990 
-406054 145288000 -62737300 -48816200 11130500 -18507700 -14639800 -19460400 126736000 
-632604 462557 -106764 550052 454736 88589300 65154.9 154524 63042.8 
-10289900 152509 5199870 141650 3449840 4298990 -128731 4466760 -8365740 
-11386900 -23143700 -13718800 -20437800 1978400 -20603800 -19641600 -174317 5239040 
9575760 2127770 220232 -2507340 2824730 -803049 -168304 4080550 1514830 
-2454940 -1333400 2740480 2002620 4135660 7414290 1977930 404357 -112328 
-721979 1119770 -1560480 323575 630369 -292033 1909290 754214 -5267570 
9687570 2692230 -5912290 -18794700 -41674800 6008850 60600.6 -1398940 97461800 
1017550 -1582380 -2969430 11958700 401409 2529840 3274220 455755 2411990 
79652 1115090 962470 -318217 2097600 1969740 1093190 2760680 505801 
-5459010 9048270 2596710 -5308500 -19287200 -41405400 5705420 866391 -995056 
98869300 111265000 145648000 144431000 -36655500 -42992500 7721300 -80016600 45812200 
32093300 -54467700 19407800 242471 -46530300 -8313300 -11851900 -1231470 -28911800 
-30938900 -5114010 49421000 14846900 32578800 56094000 1106170 -14243400 -897808 
-5172530 -306219 34324600 24544700 10293200 40628100 -1497470 -65122600 7459620 
81500200 -41266700 -1355330 -185206 -85708 489069 136961 9708860 13609200 
645183 -609443 382577 -1971600 125311 283881 556740 -201011 356316 
-243901 602198 -129616 -2404100 4699570 346619 -446818 -369498 -507914 
-60986300 -11255100 -1796880 1181500 947953 1074330 -670174 673716 37315200 
4672280 213202 -955.948 505388 -169764 23567100 -17301300 -1153410 -966776 
-946239 -817188 234303 74096600 102708000 54060900 -12647100 -8400680 -519198 
-21553.6 389083 17159.9 -44619800 18056700 -942552 887414 -1089420 1814600 
-474674 16655.7 499871 309022 42407.1 193165 -946562 -332775 -5060900 
-482179 -35653.2 109358 -5990840 -7642510 -7639720 407306 -927797 1517300 
433772 -5310720 -13838000 -12760600 -12627200 -14133600 -17604700 20864000 32491900 
-8655130 23822500 -11426300 -16601100 3445090 780025 -1851750 -1748700 1728710 
210556 10104100 13777900 953507 9023250 4393640 4998000 5462690 934433 
-624202 107168 4737450 -9588110 -15808900 12163.8 6886850 -2026430 -32913300 
19273200 461808 -4065000 -1330480 -3031770 118020 -3088950 2934340 -3365920 
1933760 1061720 -1691800 -14033500 -1274010 -12246600 13592200 25895000 -12884100 
13996800 -6663050 -2531370 -1429680 5030520 2778620 -4904780 -9103820 -10150400 
6145570 26933400 20397700 537941 -3271690 886176 3187800 90534.6 728461 
-1308180 -5614350 98800 58895800 -57533000 2045210 -11337700 -14544800 -23288000 
-9743460 -9136530 -382761 -1596920 1452.18 -18940.4 -6525320 2151060 -4445370 
-5287580 2320550 4994210 -3566960 2860990 253204 -3803540 -3956450 2603270 
1863320 3606560 2555030 8956110 3452590 -224950 5558230 672681 -3175370 
-804559 -1300030 3106450 -4039190 -524541 -831316 741654 4512600 1807380 
1268170 467430 -159445 -905698 -202331 -3831670 -11447400 1340760 7764450 
-841332 -33944300 12998800 -1693150 -4977340 216767 -1899360 -1066720 -3959230 
2816330 -5677900 -1819660 666254 -3796430 576891 -12483200 -2176240 16038800 
-12310800 28497900 13209400 -317098 -3805050 -474332 6968390 722649 -3905070 
-1544280 4436540 23470300 6964620 12025200 -871760 -4224780 3518490 -1483700 
3077440 -2112920 -1053450 -6030010 263947 -60002500 62155200 -11260800 1512970 
-25319400 -15931000 -6619100 -6879700 -1560800 -1036950 106362 -5434510 -415425 
-85810.6 -5501690 -4571190 4512130 1966240 422361 -3233740 527594 -4593630 
-1857640 -1809290 3155670 2284180 2100870 7251970 1532140 1401060 1212620 
332369 -1837830 2864620 3285380 1594640 -515689 348201 -363683 153034 
-500798 1572160 441729 -18904200 -6665720 14751900 18537100 -14827800 -109052000 
-88721000 2765950 -85974400 1158100 -7521960 209673000 227484000 209345000 -10783600 
15149400 9387700 7816060 1001380 -11378700 8952210 -13751800 -10209600 -18709900 
3997380 9548160 13927800 -10644100 937580 -7854580 -12413400 -10430700 -5748890 
-29752100 -25241600 35028700 66095300 -4350470 -10056800 -32099200 26415500 23196200 
9676880 12685600 36471200 -3599600 -416721 -1033970 -10719700 -3158300 -1560630 
-5108520 -3028410 -505839 -2785980 -589293 -14722600 -1028890 -1322310 908882 
-1272200 1269870 -642398 1168600 -844371 1927730 218943 518930 -1606120 
-290564 -1168230 -347333 -39869500 -20419600 2138630 -314485 -19158200 4908510 
1160900 588039 4872690 31764500 18912300 39644000 35410300 109997000 2329280 
1852.22 73431 986182 -1875370 2071650 -6497810 -44281000 -133437 334353 
-44733100 4290970 -16081400 5475590 92087000 50860600 94535400 -81839900 94432000 
-73730000 -25204300 1575750 -10599900 -8043330 34566800 96142400 -47668200 15198200 
80050700 48622400 -228455 -1115390 3399030 -4101770 1521260 1562710 -4633140 
42045.2 383415 -979658 1955910 -2596420 2695610 11498600 250890 -3235450 
-7943920 -8111800 4714480 5553120 -3189240 -1578170 8091520 965884 4555820 
-4067070 -292962 1925180 -1271190 -14863.3 -4729950 -54643.9 -2828430 2292570 
722686 -2043490 -1334180 -933336 4194910 1442200 201461 11623400 6688980 
-216424 -464196 -4137090 411499 -11859.8 -73594.4 615062 -150604 491034 
-15469.8 -733096 -18952800 -30076400 24042200 -40904.2 350622 921944 -1373670 
151318 1938510 -56067600 7848.24 -564831 -42696000 -39733100 -25917000 22074400 
9819130 7206530 -21831500 -360431 -11177700 17918700 -31485800 -31681400 -5827610 
-301050 136310000 31705.2 670227 -25745.9 -91591 -125663 -355221 491561 
-9901920 -2937250 58421900 -20765100 105276000 -250258 -259653 -74672.8 128397 
-1809650 686839 48289900 11315100 17170900 15992800 9957440 171552 214850 
-122051 -1374600 -12316900 -4255020 3864490 -2911550 -1090470 -567921 -2422370 
3707830 1954500 178299 -2020600 -4855500 3073060 5475570 163846 -3850760 
1001920 1802430 688719 -34717700 -22586000 4483260 10855600 -6741510 718230 
-242896 -612540 7455370 402721 350761 292268 716910 -596353 -50079.8 
-295891 -967807 -197378 -125245 -4461.01 268340 -101126 792692 -1209680 
209021 368964 244332 235821 1555170 -120140 -2226420 -925961 -1510560 
856494 -289726 -3014460 458265 -2906350 -356004 1352330 1973400 -1822510 
-9162650 18480.2 3383370 3719830 -2752390 -1366840 -2242250 2531480 13154400 
9033630 2520850 4294210 4114670 2115490 324429 -3721210 -4554260 -14902900 
7459790 -1809100 -1409810 1585270 34991000 -6927930 -15216000 -1079620 -4850980 
-3728260 -2344390 -1161750 47455.9 38372100 5700230 -10062500 -1985310 3518510 
-4378880 -1250890 -8299200 -5971710 -774967 -1302440 3608040 -12017700 175054 
485766 -8673480 -8125290 -1533830 3357810 10656100 13995600 6661770 7653.64 
-4658900 -6423610 899391 -778774 693778 -2976630 1103930 2975310 -31531300 
3304410 -3027250 -30866.8 527296 828423 -2792260 -3313870 -5444800 -476717 
12221600 -6535680 2601800 -16970500 -808864 -1334480 -41807200 -14542100 -123333 
554373 -833484 -1273730 17023200 -10414000 1108810 977996 51233200 47869900 
13396600 2337270 9059050 -1146390 1518960 3900830 3899430 8280080 -951336 
-1015090 1070590 -5260380 5577340 -18805100 15558800 -6974980 -18311300 -1134090 
458539 -1507650 1456530 -67623.9 2274240 -1328890 629113 1955030 -2252760 
-208661 -2029740 2730440 20083800 -2243920 -5003630 1720540 630683 1412910 
7076840 13949800 -250343 -2388690 1909610 -3590800 1682970 -2107580 2172650 
2197610 -3089200 2771830 -1007530 2611970 -16071800 -25677300 -4128560 -5038470 
-14589200 76611300 114850000 1444800 -746524 -169718 -70827.8 -4190500 -3293670 
-10230900 1594390 -24428600 -29912500 2534390 1365490 -2116040 5806080 6305670 
-2681540 -8895790 -19529200 600696 -140241 -11172000 6731500 4959340 9814220 
-43952500 -62515900 -32385100 -2325060 -4414650 5602460 -4207110 16728300 -7315620 
1387870 -1293210 -45161.6 -449771 2431640 -731341 -32083600 28104500 -53632000 
67873900 -2959110 -6351.07 -93733700 34508300 2025180 64352600 325467 1701810 
-31127200 -16336600 45534500 21833700 -32844200 -4309280 -627606 3814360 35965900 
-81104100 -19659400 -69694200 -25712800 351745 -140971 146107 -298560 -51493800 
21826700 1984140 5477.51 261133 
Equivalent%20Plastic%20Strain 1 949 double
0 0 0 0 0 0 0 0 0 
0 0 0 0 0 0.000192043 0 0 0 
0 0.000200678 -1.87564e-05 0.0421995 0.0414298 0 0 0 0.0402295 
0 0 0 0 0 0.0398363 0 0 0 
0 0 0 0 0 0 0 0 0 
0 0 0 0 0 0 0 0 0 
0 0 0 0 0 0 0 0 0 
0 0 0 0 0 0 0 0 0 
0 0 0 0 0 0 0 0 0 
0 0 0 -5.5012e-06 0 0 0 0 7.20107e-05 
0 0 0 0 0 0 0 0 0 
0 0 0 0 0 0 0 0 0 
0 0 0 0 -7.32124e-06 0 0 0 0 
9.5835e-05 -2.5077e-05 0.000110369 0.00010847 0 -5.60959e-06 0 -2.19032e-05 0.0420612 
-0.0019391 0.0178543 0 -0.00230949 0.0169527 0 0 0 0 
0 0 -7.80155e-06 0 0 0 0 0 0 
0 0 0 0 0 0 0 -0.000604221 0 
0.0169478 0.000494802 5.65262e-05 0 0 0 0 0.0216314 0.00156429 
0 0 0 0 0 0 0 0 0 
0 0 0 0.00136412 -1.04548e-05 -1.24645e-05 0 0 0 
0.0230165 0.00124893 6.37859e-05 0 0 0 0 0 7.53966e-05 
9.65236e-05 0 0 0 0 0.0225573 0.00163313 0 0 
0 0 0 -0.00145529 0 0.0174224 0.000184595 2.40252e-05 -6.38817e-06 
0 0 0 0.0214787 0.00166219 2.30296e-05 0 0 0 
0 0 0 0 0 0 0 0 0.0409164 
0 0 0 0 0 0 0 0 0 
0 0 0 0 0 0 0 0 0 
0 0 0 0 0 0 0 0 0 
0 0 0 0 0 0 0 0 0 
0 0 0 0 0 0 0 0 -9.62369e-06 
0 0 0 0 0 0 0 0 0 
0 0 0 0 0 0 0 0 0 
0 0 0 0 0 0 0 0 0 
0 0 0 0 0 0 0 0 0 
0 0 0 0.000134372 -1.3753e-05 0 0 0 0 
0 0 0 0 0 0 0 0 0 
0 0 0 0 0 0 0 0 0 
0 0 0 0 0 0 0 0 0 
0 0 0 0 0 0 0 0 0 
0 0 0 0 0 0 0 0 0 
0 -1.14931e-05 0 0 0 0 0 0 0 
0 0 0 0 0 0 0 0 0 
0 0 0 0 0 0 0 0 0 
0 0 0 0 0 0 0 0 0 
0 0 0 0 0 -1.83031e-05 0.000140415 0 0 
0 0 0 0 0 0 0 0 0 
0 0 0 0 0 0 0 0 0 
0 0 0 0 0 0 0 0 0 
0 0 0 0 0 0 0 0 0 
0 0 0 0 0 0 -1.96801e-05 0 0 
0 0 0 0 -6.8765e-06 0.000201559 -8.359e-05 0.000210622 -9.15154e-06 
0 0 0 0 0 0 0 0 0 
0 0 0 0 0 0 0 0 0 
0 0 -0.00218301 0.0168787 0 0 0 0 0 
0 0 0 0 0 0 0 0 0 
0 0 0 0 0 0 0 0 0 
0 0 0 0 0 0 0 0 0 
0 0 0 0 0 0 0 0 0 
0 0 0 0 0 0 -0.0010066 5.22354e-05 -0.00276097 
0 0 -9.45231e-06 0 0 -0.000249766 -0.000638928 0 0 
-3.87506e-06 8.20914e-06 0 0.000261889 8.32201e-05 -2.67736e-05 0.00041527 -0.00167922 -0.00160324 
0.0194213 0.0227629 0.000294151 0.0214779 -0.00249349 0 0.0167602 -0.000918086 -0.000822465 
0.0197164 0.0157755 0 0 0 0 0 0 0 
0 0 0 0 0 0 6.21658e-05 0 -0.000152769 
0.000682488 0.000175245 0.000481102 0 1.22098e-05 0 2.1262e-05 -0.000122511 0 
0 0 0 -2.07741e-05 0 0 0 0 0 
0 0 0 0 0 0 0 0.0230109 0.000910301 
0 0 0.00164062 1.85259e-05 0 7.45288e-05 0 0 0 
0 0 -0.00161466 -7.31814e-05 -0.000250708 0 0 0 0 
0 -0.000481494 -0.000770884 0 0 0 0.0200531 -0.00170037 -7.7324e-05 
0.0217918 -0.00152166 0.0206113 0.000381707 0 0 0 0 0 
-0.00108305 0 0 0 0 0 0 0 0 
-0.00176523 0.0183907 0.0186002 -0.00113462 0.016285 0 0 0 0 
0 0 0 -0.000266359 0.000197612 0.000307955 0.000466543 0 0 
0 0 -0.000233044 0 0 0 0 0 0 
0 0 0 0 0 0 0 0 0 
0 0 0 0 -0.00101436 0.0165788 0.02162 0.000714917 0 
0 6.95275e-05 0.0013914 0 1.83146e-05 0 0 0 0 
0 0 0 0 0 0 0 0 0 
0 0 0 0 0 0 0 0 0 
0 0 0 0 0 0 0 0 0 
0 0 0 0 0 0 0 0 0 
0 0 0 0 0 0 0 0 0 
0 0 0 0 0 0 0 0 0 
0 0 0 0 0 0 0 0 0 
0 0 0 0 0 0 0 0 0 
0 0 0 0 0 0 0 0 0 
0 0 0 0 0 0 0 0 -2.56632e-05 
0 0 0 0 0 0 0 0 0 
0 0 0 0 0 0 -3.21806e-05 0 0 
0 0 0 0 0 0 0 -3.16182e-05 -2.48594e-05 
0 0 0 0 0 0 0 0 0 
0 0 0 0 0 0 0 0 0 
-2.73054e-05 0 0 0 0 0 0 0 0 
0 0 0 0 0 9.21186e-06 -1.02211e-05 0 -0.000182313 
-0.000175955 0.000577073 0 0 0 0 0 0 0 
7.41038e-06 0 0 0 0 0 0.000345736 -0.000170302 0 
0.0197228 -1.40106e-05 -0.00176659 0 0 0 0 0 0 
0 0 0 0 0 0 0 0 0 
0 0 0 0 0 0 0 0 0 
0 -0.000800514 -0.0022961 0 0 0 0 -4.24978e-05 0 
0 0 0 0 0 0 0 -0.00143963 -5.49453e-05 
0.000450536 0 0 -0.0012817 0.0175969 0 0 0 0 
0.0223192 -0.00148078 -0.000120827 0.0200884 -0.000906176 0 0 0 0.0158675 
-0.00333346 -1.75226e-05 -1.55002e-06 0.000205563 0 0 0 0 0.0209115 
0 0 0 0 
Major%20Principal%20Stress 1 949 double
1049882.101 920312.7052 2444969.8206 4824997.7729 109020918.32 109394428.9 8989262.8751 28928262.714 11774903.022 
1865389.3286 38387304.224 101004484.85 3489280.7824 23160.715613 438216531.39 51733390.463 125119129.62 4037002.9197 
1342421.4272 440998601.76 59139416.622 40103807.617 46147367.666 48279490.265 133984849.22 150135494.21 664053549.7 
110264786.96 469206.76523 361730.4018 2513618.7669 2390699.937 674109369.47 107140525.98 1066625.6586 869775.87318 
2496999.8956 2206372.7574 5218954.9531 2332745.7044 5135291.6815 4428148.6542 2041513.7932 4506263.7679 145801772.07 
144082043.95 134463282.49 20361163.17 4872198.3697 80731528.04 14800238.344 5960126.5856 80801170.339 6634017.6921 
21409078.698 3253700.3504 3310308.9761 -1691863.2644 4770892.4476 5526338.6075 1690213.8637 9183808.9501 15490733.597 
3255152.4759 5831171.7536 108104364.61 196670672.18 30896386.625 141686877.2 160300697.34 26837277.046 3412408.444 
63014648.706 4584316.5526 -1457783.8609 3541405.8637 12186401.911 320633.56677 3348604.5355 3507792.5142 24074033.429 
19543878.831 31904473.991 -4892096.5596 231719252.67 2938771.7553 25651426.827 9596445.8782 60309921.791 673599255 
5112099.6259 1464538.6103 3075311.2967 110285106.49 186123569.14 61389241.156 133695650.03 166261143.74 26466891.673 
3847133.6961 67069994.894 4496747.5948 172108.53605 2359138.2983 6857200.8525 2023079.1334 4211872.1596 4691966.9498 
26760084.095 16157612.423 34679306.977 -4578821.6196 235000812.04 -3545015.9147 24517769.919 11942971.34 59704224.292 
679652990.28 367108441.53 383718256 380469507.34 50424502.707 7930944.3061 11197464.123 -47658982.226 77539742.27 
47506977.24 31047115.69 20504460.768 60390416.719 -32813841.321 -7261958.6148 1798776.8391 5309751.708 -13330156.472 
40210632.024 119633355.76 289095159.96 334934613.52 145966958.9 365600221.68 240899910.35 144001584.1 130756894.9 
-2120245.6556 832312.56255 300995312.27 338838506.29 162133320.39 345556014.5 248163728.97 527224115.37 354824549.64 
679712000.96 905594226.99 719080077.81 593406340.67 477210728.6 361194498.87 233254811.03 619707315.19 673122348.1 
662208179.1 538181724.64 416393289.35 288568459.64 166585531.46 26099279.254 64879839.676 9282815.2092 510895.14963 
3411817.3951 1430990.0103 891784.00937 -1494857.9214 5455702.9313 594817.67331 -437100.48619 116678.79226 -362246.93797 
-18541785.991 2476852.2257 113700.66411 1995404.3254 1996605.1606 2697869.9899 3312819.8026 2399690.1569 37535394.483 
5491991.1375 425569.01385 1067329.175 1945069.6193 4318107.2522 24141348.02 -11519176.953 2041086.2348 -19485.80029 
2676243.2322 3163287.0817 825754.97026 612947151.46 427685896.62 651799510.16 776770494.85 728952748.01 606632609.6 
476851989.68 348766310.93 222268151.02 567120193.1 657624636.52 662965248.94 536967933.99 412263597.46 293290974.45 
168534682.58 27754660.286 60099646.196 10038315.742 1175028.0816 730405.99279 1529436.441 1159412.6102 561334955.44 
108458699.42 -6039.0721537 610284.06784 -327489.00392 100093.88796 -22848.452289 1070861.2994 608349.61072 2282859.1936 
948252.99204 66157716.394 12266688.231 5688567.2864 5948308.1073 16938250.219 14187165.12 130672677.49 167542769.25 
42816881.899 154969459.5 39335952.26 21271737.227 4403409.1315 5326715.9321 -1842301.4379 -1702064.0951 2453967.6577 
4883398.1915 10931568.242 14424782.47 1089033.1532 9273183.5458 8287382.8667 7437819.1718 6727874.1254 152222128.18 
53674035.88 155678663.27 6270671.6993 36488231.866 155112621.66 72847805.338 8243392.2195 51644446.5 90396316.657 
20671437.443 132817961.67 89857288.837 9514309.7351 140925406.86 100859877.78 45036796.204 24601092.358 8335888.5672 
28329351.057 16210133.168 6709231.7199 16296178.888 14913000.922 32011833 126027874.65 28388624.724 28831599.502 
149203405.67 -978584.42639 10506272.042 9070118.4507 6884594.7944 4120937.351 14373247.476 57601972.455 94619563.446 
8385695.566 51595119.29 41651819.832 160223218.79 109981215.98 91047566.292 29397354.724 17006943.753 19490201.217 
17044321.921 64115151.674 1295709.534 340348085.52 98856136.439 30731265.294 12316737.439 142149612.14 165880367.21 
111617655.13 156834721.55 61516790.736 31279027.928 118841578.86 52790343.629 131067799.49 118954766.31 -4168572.7703 
14856830.811 5317649.7648 24627824.759 16552877.93 3352138.9185 22451952.107 156615164.56 51514362.562 34956626.227 
103774287.99 41601043.776 210305190.94 172552918.92 5014681.5819 150826349.1 154597897.73 128926596.03 145663570.89 
110275648.34 110076998.09 153300817.85 97270882.131 58186123.793 67880784.789 41752536.279 18309300.138 4141072.8608 
30110075.307 154243378.07 59308101.436 160230296.67 6234075.7743 36822533.312 154875102.8 77563705.49 7824395.3117 
65807419.899 89754606.761 19409803.585 139576491.48 93995184.09 12114298.022 151072544.94 103237057.82 61594072.981 
25826598.216 7756567.339 16412266.943 25355275.739 7567055.8321 18765815.223 17040995.099 53819768.801 124571802.52 
23442347.152 30909685.342 148956073.2 4618042.6886 -282757.38063 13779120.625 8248682.3343 1497009.3499 20898284.715 
96700510.235 80216485.974 51837664.154 8475828.2655 44604833.742 136251343.48 161879195.39 92191343.019 23953345.623 
33498501.184 14795470.467 15580527.508 72814475.344 1913654.4867 96497724.161 343383012.86 18842393.341 32443021.261 
158021193.73 126386157.42 114978336.66 160339391.27 33244308.223 62687997.229 122584232.2 131202070.18 58300103.699 
119431582.36 10951906.607 -4140139.792 27418178.417 6511941.6414 818447.17819 21027727.265 22280189.952 53479796.617 
163664027.49 103321644.77 35020698.876 43429907.606 214305291.4 170666235.97 10241566.623 155547779.96 156098615.4 
133834235.49 111620892.43 115506873.35 151394605.21 155493978.72 62060404.33 100725253.9 72200278.066 44346089.831 
25280180.549 33227805.728 6548917.5521 -1951585.8531 -115608.96483 27461440.13 421474194.43 -8892345.9876 -50539170.212 
-9825094.3436 8234311.4549 -8519142.0687 4658223.0474 303664406.83 850227746.63 882997243.44 849426263.91 305522868.39 
33231487.775 31356571.143 17521036.887 16227760.839 -424208.875 21868616.346 -10655431.552 87725688.588 -7610775.0913 
186602466.17 33300471.262 29569417.01 -1710497.0819 16406069.333 90185587.458 -11195021.18 5006375.1726 10785831.426 
29519843.816 -4519519.6859 55950025.658 77543320.502 782522.87447 17370593.784 28032407.118 114327045.23 183492599.41 
199487567.57 255373030.34 221028648.63 51119068.335 -388203.13717 6578747.0572 86575434.85 76091506.237 38840443.011 
-4960893.4065 -3006405.9477 3908093.1475 63254756.991 2967835.8312 77032789.624 38261420.147 759468.95874 10104204.898 
20229470.876 5559749.3032 567560.95233 10182788.75 1519934.4689 2116547.383 1703356.6848 563122.06522 1758514.9073 
1139007.9055 943378.35104 3949148.5433 1802008.0897 26237160.811 3422456.5809 5553715.764 31904435.392 6978755.0142 
5269158.5575 72376548.184 191687215.27 183556381.88 254069089.35 220816269.93 44482392.546 110414561.66 78165759.532 
17994924.235 17519447.665 17308010.167 19527013.255 17735281.967 55287281.132 680520522.03 12881717.011 3568481.2841 
52069787.672 543105725.45 312275156.6 30194629.613 106800089.19 226470747 109283524.01 386894268.2 97484561.543 
-35342522.071 47229433.077 5847600.0529 13093268.004 86819589.896 513519116.03 675539089.58 636266111.87 569615601.92 
644363272.55 598015193.5 19662922.504 611093.01334 68155214.893 48680197.343 5576458.6912 18302851.943 106998512.15 
1979879.9012 513797.3603 11306650.055 5133500.2382 2315051.8135 8646081.1348 456916282.03 9045254.6118 416660222.82 
473939218.27 71613477.226 18599897.293 312451057.93 358266475.23 22146442.547 10574080.061 1919955.0188 253505461.37 
288380903.42 20336296.513 6247350.0646 -1213516.3844 189034185.45 226674839.46 21612333.737 -2585814.8136 6759589.8216 
122234361.96 167533798.28 21422019.746 -460263.40164 9352155.764 21610216.682 353702.45522 32637800.008 6789171.8652 
452156.32431 1388886.0701 8460880.5595 2267162.855 1972362.913 674150.51815 671656.48664 2295319.8634 496693.75487 
1484766.0152 450715.32005 50031103.542 -29563360.317 29838342.427 19790672.51 16935963.9 16326156.132 17438311.079 
18874585.668 19719478.865 606351419.87 14616234.602 3337829.6296 25781076.616 -35700193.311 18108933.712 49116924.968 
24369666.661 66713044.541 -21257594.055 1584758.2171 278218928.51 506891353.89 -20302826.157 -29783242.518 77096714.965 
336465410.26 592561691.18 68669815.891 881595.2194 17975368.566 9376261.9739 46195160.313 8275583.3521 1889002.575 
565483228.58 623971423.09 647364090.34 588560148.68 663715270.06 23661866.769 106667313.11 1395529.9667 1927335.8623 
10052080.499 2395976.1849 545423179.23 11321687.229 26028764.136 38402568.411 497763142.2 171726.23168 10852852.319 
356435672.67 27518959.941 420466657.45 -3970669.5241 7087833.0646 293974622.75 22190281.727 311329370.78 -2410001.6863 
7536093.9435 247805435.1 22333949.655 229850399.99 -4072315.909 6282014.3198 186124019.36 22070070.915 169353461.97 
21298545.231 125661810.19 7496732.7924 323686923.4 507037830.46 576970804 611620680.46 819365423.55 171164808 
229039199.83 718290640.43 700850976.04 597914143.42 663385225.52 538342513.69 353344427.62 412147291.15 477190050.6 
291118364.26 58360923.755 8631922.3042 27768389.198 37219.214773 747661.62432 2520602.563 1108218.596 -182875.52568 
984603.2721 24936228.164 40606086.391 27189181.46 20442134.504 11140138.459 10200154.863 11170266.53 37939286.117 
7799477.7421 56214581.272 9516615.4929 62589872.28 21599608.969 72138533.947 100105905.5 2072848.6106 70202092.453 
110520165.94 90186626.879 6602814.787 8129625.8611 109649724.38 19514275.971 24724456.843 191382488.72 150633050.72 
173485592.48 32920152.215 215765269.63 239694345.96 218772562.43 154797116.93 127571197.6 190448287.61 209255390.74 
323991805.5 233906718.67 214639609.95 1591836.4251 306586552.8 148323794.23 202632826.76 152251135.56 47538075.17 
47960612.709 145699873.51 112378672.95 146103024.39 339810641.03 7357568.7084 68928650.257 101332580.71 4121891.7159 
202900205.43 154762336.31 209586570.56 237309975.57 148899910.28 145193438.24 179858226.86 63872066.878 150171788.97 
150766278.15 4191536.3977 3757624.7386 14209848.82 5896317.5695 11696639.883 14608063.825 18625373.873 116289.08816 
50519799.739 50998724.503 1853235.8615 14154261.835 149776248.01 115849260.51 130792594.08 8273277.6207 180940949.65 
142598286.85 38159934.605 60897327.05 61028848.632 49620910.651 18879302.314 41982728.781 46884399.707 100737354.06 
24346352.011 70305562.251 67652170.041 417213053.64 263127144.09 25957282.273 171710532.28 80293132.819 70449201.991 
99210714.428 96799692.644 116546256.83 145508347.03 140514381.33 29513127.7 54468886.411 282301309.31 253340751.71 
14987985.918 10133308.654 11519730.17 44957176.561 10037285.671 4147342.1565 4922187.288 33005942.697 28820179.179 
70794413.466 28931067.1 138582674.12 5733314.5101 21001514.918 144392088.55 7002817.4841 25790621.47 46064903.823 
419948476.7 106554737.92 65581236.784 18374531.113 247938789.16 291558590.76 16461150.332 187778321.26 230041072.8 
18354268.713 -665737.54267 9069225.6284 156776628.85 7407555.0659 353874304.27 311183056.19 16669817.34 33509602.286 
7698517.0119 26899439.165 18174299.712 -2387831.0788 7461767.1639 -3398422.7013 6270614.5756 -2090022.7713 6050347.7734 
8786153.4298 -3085803.5353 128715732.97 167498994.44 4236016.0199 35993178.722 484746760.24 420750234.18 123403666.83 
11794367.875 76632605.484 115357534.55 1821800.3431 10896195.349 3509071.4589 866443.17852 5543001.1724 5375756.7911 
4515940.3962 27380147.596 61993065 61414877.172 22550619.247 58811412.482 11616542.076 29274160.498 34607329.151 
2516138.0483 1726282.332 9921147.0758 3401207.6466 2016989.5173 43521477.589 63887176.255 15007522.603 9900704.3575 
254879361.07 630787809.37 445131884.52 17077518.948 14688306.072 5803138.9961 11210946.299 84713748.093 44919220.945 
23621928.524 46852794.656 13739305.321 1681010.8002 7664210.0102 27811991.108 -28654992.687 29283363.446 -48953789.974 
77028718.895 8989812.3203 7764505.2075 542225474.34 627426904.19 2871240.816 430737059.81 8605456.7685 12535533.262 
-7529020.2942 6188847.7964 55580038.33 600739247.21 607247342.69 7496659.3252 16858092.288 4089785.8503 621755751.79 
9406122.9815 8654032.4572 68293348.364 29157621.41 26589854.318 22567793.741 21964571.67 22550113.209 -37665120.099 
150278601.09 3787305.723 19987700.2 21347211.911 
Intermediate%20Principal%20Stress 1 949 double
-11132580.326 -11159434.303 1400307.3436 1299234.8294 -16257005.195 -11608428.56 2184827.1539 13350470.37 4742870.3341 
719588.13199 4720639.9982 -43286.158338 -3231819.5781 -270122.27565 133214091.13 -242072.28759 229184.05463 -4940678.8363 
349171.79374 132949219.29 -61097728.858 -49431487.366 2604635.4868 -15466128.26 -10356085.806 -4069605.7992 127316096.32 
-635389.25538 -2129233.2988 -165345.73372 528039.06546 452839.51091 88636655.415 57121.55586 150440.32592 273117.64836 
-10289899.337 -89588.662086 51759.44218 -3109219.8309 1200210.9013 457368.0112 -3346657.9492 3460584.5841 -8348805.0581 
-10349131.375 -22127150.298 -13613401.965 -20361026.9 1978407.9474 -20166913.024 -19557537.93 -174514.12022 3893387.0238 
7989995.4793 1419415.2677 -1203214.4714 -4121181.573 1963379.8112 -786300.4365 -2144863.611 3806743.7532 882402.43129 
-2514767.1472 98102.103254 -621338.20641 413224.08178 6864540.202 4627591.446 3852406.5856 368799.49871 -125036.30451 
-624641.08682 1116797.4861 -9510149.7959 600638.99783 583179.41947 -264162.52665 186043.0239 670153.7684 -5365204.5783 
10305061.26 1890478.2867 -14376857.298 -19906845.701 -41508216.844 5094189.6854 -3957426.6213 5478568.631 121205587.33 
-746001.22701 -976076.57791 -1202719.6197 -498787.86746 -3042746.4688 -9070209.2546 292140.21784 -1142947.8133 2410301.0948 
110563.58667 1461660.945 1009133.9035 -9330229.6522 -441604.7157 1647149.8898 1120970.3798 3314559.0016 322932.99814 
-5368621.7262 9525368.3735 1765043.4297 -14166226.8 -21889237.102 -41856362.341 5206327.5281 -2789502.3986 5247078.0307 
124681349.93 111272806.38 144532928.67 141799476.85 9897995.2049 -37063081.581 561179.95299 -70810502.642 34976922.94 
20637982.813 -49494745.042 -17332234.239 364888.48131 -98911161.816 -10578911.328 -25085945.819 -17357343.024 -42096671.925 
11503094.61 -549701.66924 39553272.674 21252726.188 30671365.45 49703503.608 5792007.3605 -6896210.0192 -1028685.654 
-5530549.9532 -77508.840459 12242937.314 23198932.565 -7932763.5951 35623821.238 -3417726.1555 9077149.5187 6710781.7728 
133897932.77 8264504.2145 -1274519.7042 -171294.20765 -26199.536813 2603601.3359 1648555.0138 64764718.021 22584082.048 
1138903.8112 342904.76883 561703.16782 2594307.5379 765684.60695 238590.07824 706224.01249 -186313.4269 -173211.30208 
-246293.21178 -733906.77935 -120184.65921 -16809126.218 -2043008.7709 -1532047.7478 -1666695.8024 -368053.20978 -2090229.7362 
-92766783.628 -13430874.36 -6108703.2762 -2485324.1329 -2846926.579 -517241.36683 -1211518.4825 664009.75427 -5525163.9997 
3773726.6037 -3080.5814041 -999.29517167 481472.03542 -169999.25743 6347382.0484 -31408810.529 -2144444.3841 -1945733.4713 
-1987187.8471 -2128232.761 -527254.03004 81786806.832 122726501.14 66420918.932 35531763.46 -2874890.7783 2507099.0814 
5535.5133371 443458.54246 26293.012166 -13557437.673 27818638.054 713609.66703 1479385.7401 2081174.7029 2725389.1654 
523347.91049 17310.622675 640586.63765 299581.65859 -25135.887793 7131.6965698 -1046771.3502 -387688.56901 -5006610.1291 
-644097.60671 -379443.16134 177760.1026 -5990551.1589 -7851573.0392 -7855641.5506 -466530.13037 -1294492.6226 342424.01949 
-989685.76395 -5315182.861 -13838265.669 -12728531.724 -12605223.211 -14241269.805 -17583900.13 20863867.997 32322229.173 
-8563700.5491 23406478.992 -11320914.823 -16622338.13 666585.99615 605520.49186 -8064696.6607 -6995452.039 1631247.3807 
63347.719713 2049835.3948 4936800.7901 267079.89393 3761260.1825 2395774.9351 3091706.759 5225940.6505 933333.83793 
-618983.92129 214991.56255 175419.04899 -10047505.726 -15477150.188 -8548.5732895 3050433.1559 -2015669.7313 -31258767.216 
5079725.8818 333814.6256 -4425669.5989 -1372823.6807 -2908702.6537 143796.08018 -3329385.934 2944585.6792 -3725063.9493 
1941491.0388 756155.60977 -1679051.5298 -14887581.077 -1393483.0318 -12593573.872 13497204.356 9910570.0386 -11543486.288 
13377378.903 -8166620.9936 -2526189.9686 -1419307.7553 1497006.3523 -3573854.0975 -4901067.6097 -11737782.654 -11714734.997 
-16170179.57 17808822.798 20609627.048 429060.96472 -3914157.2844 906076.37227 3323347.8433 138075.33052 681299.23608 
-720890.81054 12152531.825 -405822.18247 92523398.333 12766755.014 1525288.8267 -16292982.699 -17231024.409 -28824542.19 
-9836927.6673 -7669304.8984 -383063.06859 -1605247.374 238784.50088 -198045.83897 -624398.23132 2093213.3741 -14921640.769 
-5646818.5791 2352378.6949 4473399.2529 -3762530.7542 -17514569.069 253509.27936 -3563416.3227 -4181730.828 1694877.5588 
1879410.9005 3692404.2829 2119004.3717 9356623.4012 -21621631.191 -230482.4981 5539291.7664 677125.99949 -3253024.6787 
-926112.73856 -1251737.6253 3107312.0334 -4068576.8418 -517459.64901 -892850.60194 743982.95781 4670964.5932 1776264.4575 
1263801.6073 465817.9259 -139812.20806 -590022.8321 -149411.45829 -4697311.2201 -11549135.392 1314396.8808 -1007315.3949 
-822024.70773 -33753845.981 3909469.5009 -1847220.0374 -4855949.8485 82001.1129 -1753515.637 -1061185.2859 -4020733.2656 
2824358.1251 -6434059.3298 -1912261.4668 623073.1834 -4163702.598 137884.65705 -13061233.332 -2664582.4163 15340656.675 
-12290620.156 18332673.129 13583525.609 -1050421.9243 -3934654.737 -500733.6814 -1730709.1728 204752.09607 -4351702.8351 
-264284.88502 4603979.7244 16719120.721 -12760230.249 11958557.682 -411658.42041 -4307081.2597 3650288.2511 -1653012.7665 
2970481.8642 -1301254.2466 -996994.66673 18396332.785 910523.86821 4604752.6918 99391145.21 -16028232.902 677654.39972 
-31321479.48 -18523949.594 -6959470.0032 -6012903.8466 -1554998.0398 -1032589.5452 116873.52217 -3351428.0211 -430683.33098 
-106978.50744 -5531707.8355 -12741782.871 3930935.8188 1932403.4725 -13773822.216 -3430954.4987 426402.92582 -4817755.3505 
-1756385.8292 -1903004.463 2645743.5705 2351758.1166 1311719.5204 7292425.9244 -21330495.822 1488202.251 1380892.976 
333784.14858 -1836289.2625 2851223.1473 3345550.6907 1624786.2221 -517633.6284 306926.11708 -308570.9637 145644.15708 
-337573.93076 1483357.8629 -196915.60088 -18896228.15 -6651903.5989 14641036.471 20375880.869 -15227725.676 -109257315.94 
-87881470.701 -462672.02017 -85224013.162 -123568.25401 -6402953.3057 209443346.8 227504455.14 209871700.68 -10775486.634 
13430856.221 10379014.677 7800316.084 1425132.6738 -11336314.774 8846790.6531 -14608516.866 -1741406.5829 -18703899.469 
3990886.244 10358649.245 12654353.009 -10431504.214 1441537.2293 -1053554.4107 -14019142.466 -10366482.035 3348541.6344 
-13847825.566 -47997330.596 31465484.547 -1884408.1874 -5724016.1652 -12728052.976 -15225352.569 -27845972.2 -17006132.927 
7857985.1484 760496.17935 160503.72298 -2528989.7407 -3523766.5375 -1060608.3249 -2320405.0944 -2226591.1725 -910517.11491 
-10886476.688 -5388333.98 -508848.97123 -2760800.6938 -829275.60577 -10420196.537 -36202.59848 -1347048.1227 1322198.9997 
-856414.53153 1218160.6089 -470144.13515 2196694.2798 -924378.31559 1737710.469 219048.96737 -2667898.8458 -1286176.5408 
-237942.25418 -296171.59972 -431533.70533 -39881679.03 -22602058.184 -5558496.0033 -138870.25576 -21216055.165 -5575312.8576 
1946200.647 6648760.7169 3503992.2472 -14890932.363 504615.23909 5029670.806 5407461.5061 -163975160.64 3269055.4142 
-30173.154504 88217.785298 983962.34559 -1876179.2729 2089519.7176 -6066290.0848 97339831.353 -131641.77225 309326.11815 
-54988636.079 60035132.297 -7889240.0858 -84823820.699 -102253981.84 -15676431.146 -69724781.577 29949280.974 -63231419.561 
-107446936.63 -34889466.52 -50454582.118 -33428384.371 -73005787.835 45476681.92 99941861.767 119688300.34 52608516.271 
100607272.15 69710217.451 -250548.61575 -1115758.6218 3417970.4584 -4066496.8486 1380493.7323 1555979.2791 -4640487.499 
-30535.634227 -544507.42092 -981521.4805 1960675.9904 -2608902.6663 2646686.5642 49403332.693 158190.20161 7090522.0538 
-5795209.5775 -7615760.597 4649571.8601 5565227.7189 -2890568.0223 -1942455.2057 7296543.0322 -1654821.2563 6402831.7472 
-4055812.4294 -275085.15641 1921279.7858 -4740746.0766 3047405.787 -4666444.2384 -28796.468805 -5439907.2747 2287755.9636 
3555049.2715 -2049758.9715 -1462347.9293 -5243535.3118 4135103.515 1540283.2998 -4304237.7147 -25969987.169 -32185406.29 
-214008.51086 -410932.5492 -13310266.368 201839.59045 -1483932.4592 -1799116.9915 -509157.69207 -1177191.1509 -217236.14663 
-1692969.3858 -1284464.0726 -599167.35521 -55699586.809 -13830735.763 -40825.226614 357982.88951 920500.66998 -1364925.4979 
150449.80296 2010813.2775 21342837.111 7135.0343701 -580371.96622 -65303311.63 -68388495.167 -26628154.408 -10227768.657 
7965724.4281 -82799359.493 -38680733.847 -53290836.934 -10905455.903 22662074.984 -65900030.013 -77525534.088 -4940477.8241 
32882033.296 157442321.5 1166477.3923 -607842.9575 -27037.255604 -80876.422909 -112266.57977 -355873.86946 492326.94512 
28807972.289 43418062.012 67794130.206 19285577.958 157976478.67 -240635.34306 -216443.4184 -73176.95461 76789.441289 
-1927422.4473 686334.27546 71860638.546 -2067582.3823 9101073.1469 -1990762.4556 16863954.62 -6120576.7446 21233.783896 
-121577.10509 -1399816.5648 -263873.93823 -6477181.5897 3741074.6643 -2832800.8679 -1210074.7445 6206272.6247 -4985948.4942 
3072704.5702 3721230.5929 203768.1362 -2002598.4057 -4853484.04 3073289.9335 5784386.6002 115960.14086 -3523912.5111 
1092256.482 3137466.6383 716476.29714 7581028.8447 -21779997.885 24672345.851 36562759.829 27564634.247 732212.43795 
252434.44353 1348076.1376 10457554.159 439679.57584 426373.14055 320115.07211 738816.00312 -417750.34317 26301.243351 
68686.6222 -965871.84754 -276475.1008 -104272.30838 -292076.09701 269328.42031 -230034.94516 815267.97955 -1202299.424 
344249.26805 371299.84587 244345.05877 235677.5381 1545743.6047 -30986.719605 -2209274.0511 -1591308.6057 -1506686.7604 
848428.81117 -280731.59404 -3711542.7406 462629.31316 -2856271.9569 -358566.74649 1339692.8899 901501.70301 -1812108.0383 
-8848695.796 -16472.910356 3197958.6031 2970495.4073 -2747034.4154 -1369077.5917 -2244748.0727 -1970602.5645 5580250.7817 
9163380.098 2334544.5516 3587942.5299 4097619.0537 1551666.4106 330162.47232 -3715046.8906 -4448969.8327 -7884991.0811 
7678881.997 2253257.5613 -694117.53745 -18149376.453 34894012.022 -11947946.566 -15142087.481 -1095274.8557 -4842139.4857 
-3722571.9788 -2319077.0499 -1163386.5006 47579.038304 38986342.794 4844767.6221 -9994865.5503 -1980739.3467 2686328.289 
-6779390.4985 -1229480.8034 -7274412.8039 -6079927.248 -716110.51101 -1296663.5129 -2501206.8493 -11847375.517 174455.51843 
530363.89467 -8592814.0695 -8261565.017 -1713221.0156 1126925.1865 3392184.0443 -4337551.2937 6301183.0629 -21064722.972 
-5146598.8537 -6585984.8506 -72414.406191 -1077648.1192 704213.6932 -2968290.7541 1102719.651 2975384.5673 39734434.085 
4633281.2939 -3079323.5467 111892.55958 1006891.0605 799990.34879 -2795473.1821 -3315120.4266 -5394613.6036 -475168.67237 
12263583.837 -972483.80915 2133034.196 -6270439.3706 25625429.941 -1438246.8686 30362475.949 -14506643.291 -34294.325427 
525007.2991 -716147.97254 -1273811.9058 16739173.532 -8985253.223 1101431.6939 953300.12794 87509043.187 84329152.666 
-14711659.94 -25157823.502 -25952072.561 -1142132.8699 1564547.6832 -1828255.8331 3807917.1907 3859674.8249 -980450.70783 
-854819.47528 980350.11628 -5206131.611 1489484.0388 -18854774.96 15386370.803 -7668287.649 -18300764.322 -1129762.2654 
12334838.619 -1508711.2343 1458456.0254 -75938.259483 4701926.0141 -1327549.6438 622441.91579 4099457.0347 -2222128.6971 
-222051.05417 -2027161.0795 2690801.3388 20031605.529 -2536635.6692 -5001792.7436 5312368.8051 631017.59522 -24083.332177 
-5606077.6003 7303483.4743 -233365.26118 -4872085.1348 1859806.2105 -5228600.8559 1664630.6611 -5112388.0361 2173135.7892 
2198459.4358 -6931346.5185 4186018.6286 -1000078.2244 -11852419.459 -16170950.214 -22563791.994 5111311.223 -4133588.873 
-22872677.943 -54860384.472 -35006064.863 -1623477.1506 -757000.84232 -176971.52537 -76204.02583 -4191536.3689 -3291633.6511 
-10231084.255 -780718.91065 -18892919.909 -29580514.554 2541493.3228 1412854.1271 -2125642.2769 5662777.9068 5870711.1248 
-9725782.8007 -32586224.699 -19525977.99 604270.17571 -140821.73593 -11227167.697 10961462.939 5179486.855 -316156.48018 
-30817579.698 62618986.607 72042175.905 -2321734.1087 -4484652.0231 -20880692.007 -4599442.5977 -11754667.398 -7558786.9527 
1389764.409 -1290293.4212 -51140.818045 -540427.17814 2431657.0708 -719069.58545 -38573540.81 13518279.411 -65349926.552 
-96878737.795 -3246689.7474 -7717.8397358 15597187.251 41868527.998 2066887.5685 65973836.946 104262.84088 1531822.2848 
-40745837.318 -16031963.194 -11634662.19 28832029.871 27776292.467 -4345122.7651 -642720.67386 -2416167.3583 74721062.239 
-72199533.415 -20133875.077 -70850023.709 -20312483.272 338754.29642 -154341.77819 148936.63008 -319629.87804 -57261469.035 
21831102.363 -201266.91802 6657.0104115 311871.8543 
Minor%20Principal%20Stress 1 949 double
-45682201.775 -46092778.402 -112973937.16 -109613668.6 -211594513.12 -203735500.34 -157447420.03 -177197733.08 -170732883.36 
-156606337.46 -55847574.223 -8495648.6917 -88576211.204 -380809.43997 83159377.484 -46425808.176 -6332421.6703 -83151714.083 
-475585.22091 89470178.95 -271950887.76 -631405220.25 -584267803.15 -227858862 -16862763.411 -22984688.409 -31881046.016 
-8401346.7063 -6970346.4664 -248377.66808 -108082305.83 -108937553.45 7869475.1186 -4614872.64 -7966396.9845 5353.278466 
-36792400.559 -110494835.1 -77514744.395 -59254075.874 -92210902.583 -77843026.665 -59913286.844 -94052048.352 -183188707.01 
-182478812.57 -212049832.19 -78896961.206 -72572671.47 -74021535.988 -85834225.32 -70916188.656 -81255273.219 -168780364.72 
-167624714.18 -170162745.62 -102554362.5 -112333685.16 -99375842.259 -108602987.17 -107309708.25 -106564602.7 -190807106.03 
-196002825.33 -81424673.857 -53539446.406 -16519776.257 -42474666.827 -15570638.65 -4216473.9233 -2053999.5444 -52327680.139 
-3733286.6193 -9001284.0387 -74770346.343 -4326869.8615 -38650932.33 -2326222.0401 -3284317.5594 -710525.28261 -72493698.851 
-93508670.091 -12001222.277 -90761236.142 -24113606.969 -353075454.91 -3886086.512 -65859218.657 -30889830.422 63670957.672 
-192488048.4 -201618542.03 -73858551.677 -40405418.627 -15251513.668 -30669691.901 -17939670.244 -3174540.9307 1226947.2326 
-51233195.283 -2426665.8393 -8312091.4983 -71210895.884 -7117677.5826 -40744010.742 -2063130.5132 -4719761.1612 -495368.94798 
-75563372.369 -94435310.797 -12691310.407 -90886251.58 -24095774.942 -352034821.74 -4087367.4468 -65265177.941 -29824058.323 
67039959.789 73166752.09 75748815.331 76752015.808 -136505197.91 -313180662.72 -243943044.08 -276373615.13 -554702365.21 
-521024660.05 -565633470.65 -336516526.53 -467729834.2 -649622296.86 -365042830.06 -330801931.02 -268685678.68 -276131471.6 
-130462456.63 -7110464.0867 -31139532.637 -1559639.7112 -82009824.353 17878074.709 -6246247.7155 -14492974.078 -5477717.2443 
-86801334.391 -313669.58209 -9382159.5807 -5804838.8571 -82918356.794 16869464.258 -7105672.8168 -71429664.884 -16293811.416 
29268266.268 -41361131.209 -2561138.1106 -4025192.4615 -933917.06792 464168.79654 122544.95668 -17740773.216 -1493830.1486 
-4887619.912 -1383812.4107 -1289315.5147 -2937837.1807 -2826735.0682 -7871038.332 -6749053.6885 -7488162.7823 -3615408.8475 
-26670335.183 -61266155.231 -10858937.35 -842505415.86 -743951934.16 -603141780.93 -478086091.71 -352781793.58 -235524337.33 
-651393030.38 -729368717.87 -660827847.39 -539384870.19 -413813775.58 -292141625.62 -166198705.32 -108318333.91 -876096390.48 
-704892356.74 -598693966.43 -476763795.83 -351797497.65 -223981761.99 -583653550.07 -662078412.52 -663591031.85 -538845256.73 
-416317854.39 -289073888.32 -168561555.94 21429541.712 46280602.247 39804470.905 -13793358.307 -8605667.235 -543906.67799 
-194518.7888 -3164126.4763 -4101934.1337 -46005955.429 3089125.4298 -4235750.6063 -3423745.7319 -1642272.1626 -2979373.6155 
-1132974.4944 -9492335.2087 -8057641.8332 -7645635.4001 -3420371.0938 -29569661.689 -63959767.091 -9083902.0412 -76991745.311 
-6016981.8152 -8121809.9665 -70466.170438 -60424899.837 -50799530.849 -51097529.997 -67411525.169 -67966453.988 -94901853.213 
-79810495.228 -79663953.533 -58944522.562 -52874035.562 -52319684.896 -68091980.413 -72814164.99 -60959545.487 -51658098.427 
-75968701.35 -76455838.488 -78016608.037 -76552199.097 -96928205.128 -104303911.42 -108229981.9 -110098263.87 -105378705.04 
-108551789.91 -97289303.637 -103287283.26 -98236206.047 -115908193.73 -106277417.8 -103091325.93 -93373624.776 -70967529.016 
-70567253.959 -43334906.836 -132561970.75 -98361436.14 -63620571.468 -50911892.964 -125390825.38 -45831906.769 -41379249.441 
-125643963.33 -74867068.3 -84568519.238 -71936966.054 -43436574.208 -38144253.859 -119671860.27 -52795448.038 -76630344.618 
-108217182.1 -113213478.78 -85271350.19 -88834997.81 -102357907.89 -112718759.13 -87123179.01 -92841934.763 -233528545.21 
-126145984.57 -130954144.58 -120264982.07 -143007590.7 -158225081.15 -155573563.25 -167403369.87 -72515269.8 -74896528.45 
-138760946 -88303442.087 -85006546.88 -20103888.757 -21518148.693 -16475566.664 -12806532.567 -17260184.484 -41845269.453 
-19853011.11 -6633433.4985 -2276641.3516 48299316.148 -67253291.453 -29354744.12 -49151954.74 -71314987.733 -30613725.021 
-59759887.462 -47412546.649 -17851288.667 -21909400.554 -36042811.183 -23307628.19 -29726921.262 -36035919.681 -50869656.461 
-109741292.23 -74721678.46 -38625084.012 -47000407.176 -71577579.85 -62510657.387 -39119088.236 -61461781.734 -45969333.786 
-62563378.894 -39202688.059 -22451365.309 -51331232.324 -119573260.39 -57882716.605 -70801159.499 -54570841.027 -65946616.212 
-54676894.605 -65527190.468 -49706179.882 -57542695.289 -54895905.144 -80337750.187 -61816265.236 -85056164.731 -88698857.318 
-68954506.915 -69944165.996 -73193534.228 -47343861.837 -129380235.32 -92350392.092 -70435867.405 -47381642.371 -132091929.92 
-52177927.192 -44030960.78 -114030413.09 -69693021.444 -80254974.242 -71743332.135 -36710689.307 -35888092.536 -133828469.72 
-55566926.342 -78767608.009 -116600295.48 -109170194.92 -86998413.234 -97193508.88 -86707641.767 -106165626.38 -89468359.195 
-242386527 -102297758.47 -113027198.8 -121595018.76 -148238937.88 -117746308.94 -162599283.16 -160505012.45 -163797751.88 
-51046605.35 -70749455.698 -84028284.875 -126496578.02 -87177991.424 -12849315.062 -23377594.133 -11310851.27 -17113632.856 
-13555543.049 -25930636.221 -34019802.842 -6260718.1296 -3956051.355 -72351476.853 52164041.927 -50079460.439 -33492405.661 
-38972214.253 -77900907.824 -61559466.66 -50178387.427 -22100310.183 -18209057.684 -32244643.722 -30542052.158 -25757375.368 
-36763514.448 -108848588.77 -51164867.337 -38685244.236 -75775305.114 -72704163.962 -48866712.766 -64989898.878 -61363271.267 
-38242981.656 -63688730.31 -43925672.446 -41422085.723 -24359440.92 -49503291.894 -115051230.8 -68214622.216 -59806788.374 
-54489750.635 -63528033.172 -56228776.502 -63903575.897 -51900524.945 -56216059.702 -60575179.013 -77665690.102 -66091899.988 
-85361904.618 -70242503.591 -90333672.951 -58432925.997 -71466507.436 8303943.3988 18126724.702 -234619028.34 -452225513.85 
-460626434.96 -157072589.43 -455834244.77 -157631754.79 -16711073.522 128393906.58 186421301.42 128803035.4 -17303561.754 
-19264843.996 8133714.1797 -77455392.971 -37973633.513 -107270876.35 -18937416.999 -72802851.582 -22731072.005 -89881625.44 
-4485072.4094 7240039.4933 -19981670.018 -107659298.7 -38761136.562 -20857193.047 -73053636.354 -225612993.14 -225271463.06 
-174397918.25 -358685749.72 -455917510.2 -476610612.32 -215838976.71 -237967040.81 -167837354.55 -40170273.029 -40214566.485 
-8575272.7158 -12588826.522 -20036312.349 -3731878.5943 -10422531.325 -72307628.732 -11788829.755 -3474215.0649 -2912645.8962 
-79374749.905 -80297570.072 -63083563.176 -5678536.2969 -62223353.225 -15161693.087 -1834417.5485 -29795131.836 439268.10266 
-1569736.3447 -39249189.912 -29835834.817 309846.96979 -43447827.153 -5385337.852 -350774.65219 -28804693.219 -1710242.3665 
-587998.65136 -1171271.7513 -1142549.8379 -136677116.06 -119710902.63 -12825930.578 -1540490.5082 -121914680.23 -10322572.157 
839320.79551 -73312669.901 -2212617.5217 -36427349.521 -14888304.589 -16377010.74 -137266924.05 -699108401.02 -34204834.946 
-17370998.861 -17886844.451 -17923520.513 -17595373.982 -19067121.685 -18289651.047 -53162553.387 -16901431.239 -6870114.4023 
-457745891.59 -53577987.742 -127303916.51 -518078018.91 -523345107.34 -328686015.86 -555968342.43 -83370949.173 -594870141.98 
-699027241.3 -595894466.56 -641247567.93 -609320083.63 -108039982.06 14706202.049 39322248.658 -49899612.21 -31483118.188 
-34000114.698 -2864110.9518 -21791378.888 -63769519.392 -2488545.3515 -14982390.494 -49794292.423 -8172751.222 -8987274.6537 
-3503240.067 -6188734.9394 -9450616.574 -12038486.229 -22711509.147 -109105097.7 -23474814.726 -11602969.813 -3492294.8764 
-17051168.693 -22599836.629 -492878289.15 5281634.3504 -9342397.2029 -33794687.341 -353289393.09 -406254719.76 3547526.8795 
-8059997.888 -24271123.356 -292779169.85 -309032007.54 -23254.53314 -9713495.2265 -22510201.168 -245517277.91 -228569195.79 
482874.76662 -7409595.7059 -20695611.817 -183256007.29 -164550059.28 -21592939.982 -127863743.74 -595261372.84 -829701085.57 
-168104965.81 -227215663.52 -654910454.19 -658692673.45 -600955730.25 -721292287.93 -537726456.79 -477610322.71 -415060983.61 
-351836176.43 -293394607.25 -57102036.187 -608426552.87 -321996206.66 -19660641.483 -17557544.79 -18402962.802 -17576045.582 
-19773067.471 -50862685.142 -58266456.984 -17339325.096 -7198608.6634 -512004064.99 -657749211.52 -510330279.3 -568372756.31 
-582784961.09 -244310255.05 -629966172.1 -545796952.28 -58742172.608 6402571.1246 -478353243.83 -484610123.39 -353138347.14 
-35376783.556 37914987.32 -826728.08335 -69411895.262 -20382497.211 -47035646.551 -13764856.733 -106914810.48 -23448198.52 
-16145820.868 -9750935.0983 -25770620.549 -23016126.64 53989251.277 -8251499.4259 -7109136.6907 -6861747.8121 -3291083.1036 
-11074008.052 -11441301.46 41180382.222 -434897534.85 -498716237.28 -85617275.956 -38199656.819 -311586017.49 -354275676.1 
-10653146.56 -21245223.376 -16852053.516 -252264208.89 -287155077.73 -8264211.8833 -20781926.982 -786164.40931 -187818269.82 
-231022828.51 1938934.3093 -21006968.791 -5990221.5874 -127816720.05 -170963964.25 5021864.0371 -22628765.056 -8661493.4596 
-21189631.713 1793153.1699 -11517900.09 -58879352.249 -55793232.575 -24803189.847 2938959.7145 -12517567.796 114369.55771 
-820970.26966 -1216976.5627 -3110680.2007 -297071.99982 -681267.66291 -603500.76452 -1611883.6233 -616993.8055 -353581.64256 
-311541.88356 -8521488.9072 -7675415.2034 -9250511.8896 -3610992.1278 -8990066.0446 -27317123.618 -60002004.576 -1526055.0503 
-1523573.2402 -56797334.009 -63052849.45 -67696437.998 -60155608.108 -59743191.739 -60043000.812 -62423118.924 -50855059.356 
-68746012.553 -70881875.678 -64007732.752 -54291036.593 -51324087.013 -49631471.2 -58405768.394 -90534750.314 -78207294.415 
-60749120.145 -80117973.769 -32024833.39 -32616191.268 -55346179.961 -85110338.38 -50392658.77 -57604706.153 -57163801.502 
-54751442.575 -93763246.767 -23353002.164 -4065425.0116 -20058338.836 -50078450.404 -70531860.71 -14838317.781 -25430499.659 
-20395497.494 -21786876.231 -17587132.41 -78719689.972 -24314364.82 -49075377.667 -45143639.283 -55013080.707 -50991015.684 
-50844700.73 -58932986.456 -59744536.449 -68553947.533 -8488393.8247 -57688597.331 -55737384.707 -61188251.367 -117780810 
-15932194.936 -41549445.504 -22846757.758 -11989698.32 -41345866.773 -35948114.729 -53765480.007 -57895891.361 -68958390.485 
-55029476.046 -66767202.328 -67008349.722 -162468107.8 -129087652.76 -163471923.93 -149360412.53 -133971086.94 -112566912.48 
-85603900.885 -85296049.652 -126730430.46 -135281487.72 -51335883.699 -38194299.759 -48475583.728 -59068829.188 -33890083.732 
-8030158.14 -16476061.058 -20128926.409 -21200213.692 -14461278 -98794489.132 -92032878.354 -113660286.1 -34759802.387 
-160953735.85 -115638558.44 -118863104.24 -70877514.265 -2997538.0264 -15840215.405 -44112308.231 -31577489.529 -12512740.666 
-12326498.727 -11164098.672 -34152674.925 -91962220.558 -16021218.112 -105851449.39 -117833690.54 50677847.505 47407995.625 
-204913725.98 -173108715.15 -200252507.61 -19192633.691 -154635273.35 -166322456.32 -152757374.48 -135476370.52 -86805364.471 
-13475883.991 -18593327.217 -11117162.51 -158291258.55 -208153339.96 -127162659.36 -126100009.84 -206938817.15 -18801631.558 
-33124976.323 -7180360.2853 656727.19049 -18446296.753 2273524.8269 -7150119.1183 -17759259.248 1937551.7082 -7371699.1051 
-17712238.659 -66878151.378 -105663156.97 -109101434.37 -123585639.4 -13159451.524 1709515.0047 -19490041.935 -33626618.954 
-415781979.41 -476533122.64 -17929047.451 -125988843.79 -167261423.37 -190647706.44 -228368795.24 -249147319.19 -292170823.56 
-355444632.87 -312095729.95 2384978.3967 -7552154.4347 -189913026.56 -108523628.51 -38283068.246 -4890805.3993 -15533977.954 
-616072209.93 -600327121.01 -484500469.69 -119962923.19 -9161518.5071 -6820131.9336 -6504490.9527 -66552664.803 -65841393.14 
-59349456.141 -149522078.68 -120354645.09 -253383562.62 -33371352.569 -35037576.609 -23793739.799 -19013958.405 -22105770.276 
-174608995.25 -184396747.63 -314396269.09 -12224981.822 -3407691.7814 -37089209.891 5759560.8065 -144673169.46 -165023927.88 
-76526981.368 -63101195.973 -33647160.42 -114130424.84 -17373204.049 -280297386.99 -74451413.701 -288570480.7 -38722693.992 
-8243358.9326 -12883701.235 -16744943.103 -22839644.622 -47742437.081 -87038462.522 -256787466.5 -184536152.86 -438644883.47 
-579669581.1 -85890242.573 -12425338.438 -94410261.588 -1274032.187 1343491.6155 -12904376.753 -115818952.61 -116153695.55 
-622996642.39 -39083234.602 -615018016.14 -46927377.078 -41864535.159 -117895216.56 -116606907.61 -6159118.492 1141385.9692 
-89264849.566 -404637157.38 -371497924.66 -48900358.138 -26478143.614 -22453462.963 -21591421.3 -21510223.331 -649472810.87 
-80294503.451 -6640386.805 -22194229.701 -24045000.765 
von%20Mises%20Stress 1 949 double
41987953.013 42287643.308 114900137.55 112717149.35 279862068.7 273500325.24 163140926.97 198795386.76 179095340.12 
157901944.12 82710837.168 105528132.99 88895706.271 361564.96505 332864496.05 85057670.043 128296655.27 83064544.713 
1576692.2877 331931529.86 290290212.92 631519742.1 609810838.03 250426203.52 147701801.97 164480380.06 631567805.35 
114980021 6539694.9376 573121.02199 109616623.02 110372082.92 629752821.8 109494182.85 8611560.2988 766461.09402 
34709828.226 111570946.33 80274925.833 59054197.315 95439516.241 80359396.445 59444146.984 98039655.025 285101847.66 
282948412.33 300551599.04 87373878.928 68412277.227 134027154.39 88493482.404 67818987.208 140345006.8 174060249.84 
182694243.05 172506617.65 103681617.87 109447385.24 102771743.22 111107583.79 107133877.44 113155737.26 199395423.25 
196436583.09 84535240.229 142741595.67 205248483.23 64788882.062 148194370.01 160634794.1 27759287.832 54058241.805 
65249175.292 12226360.98 69636433.238 6886153.3604 46143173.112 2408310.6643 5746340.288 3725095.5242 85726980.571 
108727929.68 38868557.006 81541532.823 253755632.74 336002833.49 26226990.427 69674588.723 79518967.997 583293033.38 
194737192.77 201873838.31 74886550.036 135228038.49 195556734.65 83384407.891 143391362.53 168429077.78 24669562.946 
53310346.892 67636374.91 11469852.902 67138083.843 8432797.5665 45221844.7 3718158.6824 8518495.9107 4830451.8144 
90635662.127 107430452.25 42049436.991 81935502.094 258000394.91 331001193.89 25274082.151 70997725.781 78137311.101 
585922681.15 276862475.22 279987545.65 276982734.39 170321762.76 301146181.41 249992124.91 218062570.63 612071621.19 
555584639.88 560764610.83 339686777.27 500812705.95 586559579.61 356133980.28 320006470.86 263394405.19 249664105.46 
158283991.04 123594107.39 291392248.16 325687820.57 197438013.2 332952163.16 241352303.79 154836010.13 134065474.06 
83028481.162 1048051.0381 300149757.53 331095601.46 217480615.92 319722175.21 253445553.33 562736161.09 360167492.01 
604953475.96 923143484.38 720998767.71 595513936.84 477691433.73 359665386.16 232373019.11 600461700.55 662905260.73 
664103045.76 538704253.97 416760178.48 288779969.34 167644927.06 30728844.71 68207523.33 14564461.952 3830346.6068 
28430157.149 61643214.964 11278837.316 833458951.63 745686559.75 602675980.56 477035382.08 352656356.23 234302877.99 
599196683.64 724022786.24 657852417.31 539153874.66 413409895.57 293245159.05 167295245.91 109860467.57 892880594.08 
709526776.04 598905325.7 477297857.48 353013044.03 226089228.56 599096137.22 640845950.04 663549253.4 537865234.01 
416681954.65 289627671.43 168714875.38 563767413.83 349509804.53 599130394.18 767091595.07 734709789.85 605656776.98 
476946512.78 350140583.87 224334461.42 597563005.55 642527773.63 664740138.58 537956872.58 412056763.63 293459556.68 
168845588.99 33519640.538 64251283.464 15340983.404 4128299.2406 29944982.336 64239853.903 9564077.2127 605551651.58 
111886035.32 7935660.3874 596705.18267 57475505.121 47426405.542 47643659.909 67726779.008 67643458.403 96229169.07 
79807427.678 126293456.78 62398235.439 51867279.989 51558854.719 74505709.926 76252915.303 166547222.31 191554574.83 
103182879.33 201045975.88 101946204.16 85431468.735 99515835.8 107347922.77 103416974.25 105848821.17 107423675.43 
111103606.85 104064659.78 113266510.02 98916823.874 122518440.89 111735552.57 108421439.4 99359046.364 197321636.48 
107880467.6 181206992.08 135887581.04 118636752.61 199076453.96 107739643.82 131114888.23 84560363.494 127018076.3 
139176113.06 182126732.92 151222543.16 76590267.628 167809563.94 124362077.2 146635262.52 69159887.6 79623825.915 
125451600.51 122430335.93 88086500.497 93523290.257 110027684.15 128377644.75 184690260.96 113129050.87 244683836.28 
238466732.7 126534758.18 124766560.29 147113730.74 162482885.92 155989510.74 172946864.78 112766132.58 148382322.84 
136535015.91 126437601.34 117558266.26 170987778.24 123640890.23 99972080.703 36886277.796 29677384.016 54425746.666 
31961335.981 63475935.04 3094904.3116 272640173.78 143886989.45 52042742.162 53275830.581 192216541.69 195605637.96 
152665942.01 187560718.9 72235804.262 46490015.718 140307076.26 67574860.451 148399349.75 139879530.46 42360828.14 
115716790.81 78598655.146 55967001.864 56219435.408 66980188.831 76324165.548 180600776.99 97843416.311 70452934.544 
145264686.97 70022485.58 221495830.46 200549445.13 113635756.05 186683449.43 198558640.6 163051485.47 188262463.25 
145712593.22 153886731.52 182426965.17 136191796.82 97955784.188 128471862.88 90338205.503 97266081.603 91680403.072 
88251090.103 198576381.72 114951259.65 188594973.3 132537911.78 114220411.34 202397761.3 109079331.81 135716162.16 
102463295.23 128954517.31 126404841.06 184928970.13 151359963.73 78535841.502 172974495.01 125393070.87 172257541.83 
72675824.697 80373966.773 124862875.28 124022872.53 89279975.132 107858622.31 92449221.964 140531624.03 185377404.04 
249885935.61 127385449.23 226926460.54 123476451.6 146164451.62 124998755.56 166083282.82 161359774.13 173454937.03 
130019663.37 130740404.76 122153403.42 125706955.74 118870828.46 143287260.02 176495950.48 96891842.53 35925012.769 
41347022.515 35526938.855 43735071.008 70079207.41 5437980.8803 146418291.47 270712873.54 59689482.322 57114411.753 
193281639.63 182013416.14 156549647.61 192277678.35 48456827.97 73823023.949 141452293.3 150008558.14 74687369.956 
141474516.13 112468320.26 43368460.223 58040726.45 80095727.483 67421412.968 61432353 78654144.689 99460872.147 
186362047.04 146256911.14 68737049.929 73496341.888 226920828.26 197979009.46 112868632.44 198321014.84 192739006.64 
167770549 153875841.97 151120606.33 190780337.5 186484808.35 102488163.82 141082069.97 129810372.24 96274714.353 
100317189.86 91810713.106 93691989.074 50201659.154 68317665.105 16904602.621 402227607.94 222626610.99 375783796.93 
417284947.59 161134532.67 414322568.86 159952698.11 315347802.89 684915232.52 676969963.9 683703153.9 319612397.41 
45918071.999 22185584.68 90508426.59 48524075.093 101830065.58 36101679.3 60268189.341 101601238.02 77323408.163 
186993687.59 24649533.751 43626480.575 101868661.89 49414637.545 102584755.73 60496013.922 223330112.52 232427909.37 
186063887.81 334552934.76 500075019.67 519018455.47 213442622 241697991.11 178222642.3 148718654.89 213053126.16 
200352307.61 261542829.86 231627895.8 54259503.573 8891356.9162 75357673.64 93988430.076 78949303.207 40788894.223 
71635110.611 76128152.758 64896017.8 67521722.286 63378000.728 89917543.395 39227654.056 29557693.676 9255112.0417 
21451443.155 42803603.144 29898052.574 9077799.212 43796791.842 7319822.9783 1836753.1009 27893010.691 3277365.9288 
1581310.0378 1840384.3907 4776050.3195 123051522.19 128678347.44 14097574.257 6507604.6883 135318734.73 15483491.416 
3993162.5861 126371121.5 191105664.77 210045228.32 261600806.83 227247392.48 165704020.19 713086506.59 99098333.108 
30629698.729 30663954.074 30538731.14 32274303.764 31990703.855 68290688.249 671208440.41 25861257.367 9250155.0929 
465610856.72 548769802.65 393697134.46 500770077.63 555924594.39 482083648.01 596253645.59 425088563.21 627624247.96 
630731206.61 606250143.92 620861677.12 600505576.04 179919147 484161577.22 608177102.01 619046079.2 563776285.82 
622079826.76 568079712.44 35909697.887 63534789.717 67883498.022 58967345.083 53396558.592 23195511.464 113874631.82 
4804479.7475 6241043.6835 18077456.255 15825935.608 22963981.238 114869043.13 448415897.41 17939536.932 414962331.98 
485460285.69 87686781.124 504647658.9 307027725.13 364425794.28 48601695.959 362235825.59 406399078.51 248542583.22 
294459228.28 38668209.236 296887124.6 306070119.95 187540964.56 233905650.9 38213545.768 241517065.13 233125038.13 
120244838.04 172326001.86 36520594.273 180451660.91 171353264.02 37446368.257 125953089.37 600743258.71 817699892.15 
168225028.97 227709975 652758114.32 659929598.54 601207396.77 720732987.42 537808678.42 478178843.61 415201172.76 
351742840.59 292981586.61 92826472.909 566247647.7 332159973.34 34166004.07 29879740.027 30140024.574 30351007.335 
33475221.415 63604424.17 628605442.17 27708151.011 9224150.1676 498523212.78 606366044.61 507551551.34 590059796.29 
599121107.86 269420880.06 600186707.73 522111262.85 315772105.16 492560345.39 437039439.71 432934568.28 395647612.06 
342847451.46 505593025.85 68521687.081 69560731.895 33239714.441 52328249.196 54433329.163 111126360.19 24668534.834 
560505809.69 608881423.01 631571864.59 591560864 564956142.79 28757316.395 110491463.83 7629693.0025 4582520.2694 
18350478.694 13066611.585 489624119.3 439677515.03 516489246.75 109558059.35 510662389.38 308659698.81 359835008.43 
361937969.49 42474000.169 429265071.2 247049819.95 292583887.82 299560060.84 37264224.159 308678721.74 184133808.84 
236358837.3 244980215.2 37537151.642 233872307.89 123355675.16 175663597.08 180722100.54 38712345.843 175502572.21 
36810472.875 123202001.07 16691436.537 354045812.08 546618697.64 578624815.91 592585693.88 812583652.35 170742355.4 
229325351.86 718228525.92 697276554.68 597843180.11 663513366.18 538484800.61 353786818.6 412664699.3 477353804.17 
291239978.04 63442939.517 14142721.017 33398637.664 3495217.0906 9507589.8278 28561917.68 60964275.757 1214119.851 
2257184.484 72636298.039 90500773.41 84689268.726 73007282.193 66010559.632 64933946.423 68115172.058 77057389.14 
73317513.033 110294495.08 67883887.945 101288955.74 64284852.974 106093314.77 138654671.14 92027516.578 128544964.28 
152111386.09 147574568.7 37042768.02 38426881.926 145985187.51 95903657.757 65909560.673 226357233.81 184603172.59 
203935085.51 114496612.33 226850810.61 239782483.68 228792601.92 184898710.6 174564295.19 200294121.06 226423560.44 
331243604.33 244561309.85 224257940.78 72485928.42 305628766.55 181702930.78 234221245.31 186253465.37 85385559.101 
85598296.014 183015507.32 151574980.8 189889412.77 327155411.62 63826873.721 109231221.91 142464368.25 121191297 
214402572.55 179579317.07 225051589.8 246397948.03 173535567.62 166541789.34 212677014.71 106492571.15 194031680.38 
184403929.18 65508937.053 65587608.497 169279027.25 132663588.93 171167491.46 155364455.16 146822810.32 103727503.27 
118536465.39 118506410.19 127631736.65 142431957.24 180799243.18 139799679.29 160334885.89 64855653.11 189092864.17 
144712877.61 49321602.827 73040446.153 73679744.784 57978079.794 108472872.53 118073957.06 141825856.63 122022314.09 
179563854.5 162487052.63 163891382.04 459208419.7 253030319.28 36776096.359 189875307.76 104387373.49 77480058.098 
105699053.73 103137478.83 137245685.29 205900174.34 153138890.27 123631937.57 152745613.93 215580602.07 190179379.11 
206658725.66 168393244.58 195745061.69 57298189.61 160603896.4 167561931.77 157125389.98 155965265.89 103978987.56 
78722255.062 41369913.46 146833582.72 161944367.56 212054731.22 235270782.64 126407430.13 214116039.65 58083125.276 
432140617.49 111007993.43 64527380.728 31887797.478 244460110.06 295840402 29663007.718 184769302.95 234880328.16 
31239232.325 65542307.568 111679864.33 230288610.12 126315013.42 363023675.74 307687934.97 31381806.486 58141683.299 
416987417.98 493926212.7 31268442.353 122377798.41 171990647.38 186340935.56 232370657.31 245560063.97 296301591.47 
360982025.08 307105213.02 125439931.95 171868804.49 186625652.43 126758078.85 515350023.55 420729159.43 133602749.97 
611270778.11 621730986.19 540594144.09 120099153.44 17446271.576 9066723.1075 6947737.9964 67754913.524 67303337.635 
57917519.231 164638124.64 158252506.47 280594033.55 49078327.967 81947730.767 30921207.475 41822130.087 49116455.357 
171332500.15 171559851.5 310642405.49 14432435.057 4730526.2123 71289348.163 55709113.229 155000535.98 170046554.16 
311080580.53 640352764.96 435657859.08 122664254.89 27943313.392 273735784.51 78953486.892 335614559.53 73215778.181 
28306030.552 54866260.014 26440015.52 23488852.969 52984506.585 103575300.43 223338443.37 206389052 381757191.49 
589314626.96 89392151.845 17638516.645 589382749.92 608278209.3 1323688.6854 409933961.5 120399119.24 123555413.43 
599549727.2 39208972.183 639644838.35 613306370.91 617244997.1 119910329.29 125632156.13 8982681.9648 587291712.61 
91341855.123 399675571.76 389336873.52 68401776.358 45959105.03 38990125.695 37720615.177 38166606.188 602248678.19 
200115411.48 9113389.8218 36547480.541 39345874.922 
