# vtk DataFile Version 4.1
vtk output
ASCII
DATASET UNSTRUCTURED_GRID
POINTS 1420 float
0 0 0 0 -1000 -3.33067e-13 16000 0 0 
16000 -1000 -3.33067e-13 16000 -5.55112e-13 2500 16000 -1000 2500 
11000 -5.55112e-13 2500 11000 -1000 2500 10000 -3.33067e-13 1500 
10000 -1000 1500 9000 -3.33067e-13 1500 9000 -1000 1500 
8000 -5.55112e-13 2500 8000 -1000 2500 7000 -5.55112e-13 2500 
7000 -1000 2500 5000 -1.11022e-12 5000 5000 -1000 5000 
0 -1.11022e-12 5000 0 -1000 5000 0 -500 -1.66533e-13 
16000 -500 -1.66533e-13 1000 0 0 2000 0 0 
3000 0 0 4000 0 0 5000 0 0 
6000 0 0 7000 0 0 8000 0 0 
9000 0 0 10000 0 0 11000 0 0 
12000 0 0 13000 0 0 14000 0 0 
15000 0 0 500 0 0 1500 0 0 
2500 0 0 3500 0 0 4500 0 0 
5500 0 0 6500 0 0 7500 0 0 
8500 0 0 9500 0 0 10500 0 0 
11500 0 0 12500 0 0 13500 0 0 
14500 0 0 15500 0 0 1000 -1000 -3.33067e-13 
2000 -1000 -3.33067e-13 3000 -1000 -3.33067e-13 4000 -1000 -3.33067e-13 
5000 -1000 -3.33067e-13 6000 -1000 -3.33067e-13 7000 -1000 -3.33067e-13 
8000 -1000 -3.33067e-13 9000 -1000 -3.33067e-13 10000 -1000 -3.33067e-13 
11000 -1000 -3.33067e-13 12000 -1000 -3.33067e-13 13000 -1000 -3.33067e-13 
14000 -1000 -3.33067e-13 15000 -1000 -3.33067e-13 500 -1000 -3.33067e-13 
1500 -1000 -3.33067e-13 2500 -1000 -3.33067e-13 3500 -1000 -3.33067e-13 
4500 -1000 -3.33067e-13 5500 -1000 -3.33067e-13 6500 -1000 -3.33067e-13 
7500 -1000 -3.33067e-13 8500 -1000 -3.33067e-13 9500 -1000 -3.33067e-13 
10500 -1000 -3.33067e-13 11500 -1000 -3.33067e-13 12500 -1000 -3.33067e-13 
13500 -1000 -3.33067e-13 14500 -1000 -3.33067e-13 15500 -1000 -3.33067e-13 
16000 -500 2500 16000 -3.70074e-13 1666.67 16000 -1.85037e-13 833.333 
16000 -4.62593e-13 2083.33 16000 -2.77556e-13 1250 16000 -9.25186e-14 416.667 
16000 -1000 1666.67 16000 -1000 833.333 16000 -1000 2083.33 
16000 -1000 1250 16000 -1000 416.667 11000 -500 2500 
12000 -5.55112e-13 2500 13000 -5.55112e-13 2500 14000 -5.55112e-13 2500 
15000 -5.55112e-13 2500 11500 -5.55112e-13 2500 12500 -5.55112e-13 2500 
13500 -5.55112e-13 2500 14500 -5.55112e-13 2500 15500 -5.55112e-13 2500 
12000 -1000 2500 13000 -1000 2500 14000 -1000 2500 
15000 -1000 2500 11500 -1000 2500 12500 -1000 2500 
13500 -1000 2500 14500 -1000 2500 15500 -1000 2500 
10000 -500 1500 10500 -4.44089e-13 2000 10250 -3.88578e-13 1750 
10750 -4.996e-13 2250 10500 -1000 2000 10250 -1000 1750 
10750 -1000 2250 9000 -500 1500 9500 -3.33067e-13 1500 
9500 -1000 1500 8000 -500 2500 8500 -4.44089e-13 2000 
8250 -4.996e-13 2250 8750 -3.88578e-13 1750 8500 -1000 2000 
8250 -1000 2250 8750 -1000 1750 7000 -500 2500 
7500 -5.55112e-13 2500 7500 -1000 2500 5000 -500 5000 
5500 -9.71445e-13 4375 6000 -8.32667e-13 3750 6500 -6.93889e-13 3125 
5250 -1.04083e-12 4687.5 5750 -9.02056e-13 4062.5 6250 -7.63278e-13 3437.5 
6750 -6.245e-13 2812.5 5500 -1000 4375 6000 -1000 3750 
6500 -1000 3125 5250 -1000 4687.5 5750 -1000 4062.5 
6250 -1000 3437.5 6750 -1000 2812.5 0 -500 5000 
1000 -1.11022e-12 5000 2000 -1.11022e-12 5000 3000 -1.11022e-12 5000 
4000 -1.11022e-12 5000 500 -1.11022e-12 5000 1500 -1.11022e-12 5000 
2500 -1.11022e-12 5000 3500 -1.11022e-12 5000 4500 -1.11022e-12 5000 
1000 -1000 5000 2000 -1000 5000 3000 -1000 5000 
4000 -1000 5000 500 -1000 5000 1500 -1000 5000 
2500 -1000 5000 3500 -1000 5000 4500 -1000 5000 
0 -2.22045e-13 1000 0 -4.44089e-13 2000 0 -6.66134e-13 3000 
0 -8.88178e-13 4000 0 -1.11022e-13 500 0 -3.33067e-13 1500 
0 -5.55112e-13 2500 0 -7.77156e-13 3500 0 -9.99201e-13 4500 
0 -1000 1000 0 -1000 2000 0 -1000 3000 
0 -1000 4000 0 -1000 500 0 -1000 1500 
0 -1000 2500 0 -1000 3500 0 -1000 4500 
15500 -500 -1.66533e-13 1500 -500 -1.66533e-13 2500 -500 -1.66533e-13 
3500 -500 -1.66533e-13 4500 -500 -1.66533e-13 5500 -500 -1.66533e-13 
6500 -500 -1.66533e-13 7500 -500 -1.66533e-13 8500 -500 -1.66533e-13 
9500 -500 -1.66533e-13 11500 -500 -1.66533e-13 12500 -500 -1.66533e-13 
13500 -500 -1.66533e-13 14500 -500 -1.66533e-13 10500 -500 -1.66533e-13 
500 -500 -1.66533e-13 250 -250 -8.32667e-14 250 -750 -2.498e-13 
750 -250 -8.32667e-14 750 -750 -2.498e-13 15750 -750 -2.498e-13 
15750 -250 -8.32667e-14 15250 -250 -8.32667e-14 15250 -750 -2.498e-13 
1750 -250 -8.32667e-14 1250 -250 -8.32667e-14 1000 -500 -1.66533e-13 
1250 -750 -2.498e-13 2750 -250 -8.32667e-14 2250 -250 -8.32667e-14 
2000 -500 -1.66533e-13 1750 -750 -2.498e-13 2250 -750 -2.498e-13 
3750 -250 -8.32667e-14 3250 -250 -8.32667e-14 3000 -500 -1.66533e-13 
2750 -750 -2.498e-13 3250 -750 -2.498e-13 4750 -250 -8.32667e-14 
4250 -250 -8.32667e-14 4000 -500 -1.66533e-13 3750 -750 -2.498e-13 
4250 -750 -2.498e-13 5750 -250 -8.32667e-14 5250 -250 -8.32667e-14 
5000 -500 -1.66533e-13 4750 -750 -2.498e-13 5250 -750 -2.498e-13 
6750 -250 -8.32667e-14 6250 -250 -8.32667e-14 6000 -500 -1.66533e-13 
5750 -750 -2.498e-13 6250 -750 -2.498e-13 7750 -250 -8.32667e-14 
7250 -250 -8.32667e-14 7000 -500 -1.66533e-13 6750 -750 -2.498e-13 
7250 -750 -2.498e-13 8750 -250 -8.32667e-14 8250 -250 -8.32667e-14 
8000 -500 -1.66533e-13 7750 -750 -2.498e-13 8250 -750 -2.498e-13 
9750 -250 -8.32667e-14 9250 -250 -8.32667e-14 9000 -500 -1.66533e-13 
8750 -750 -2.498e-13 9250 -750 -2.498e-13 10750 -250 -8.32667e-14 
10250 -250 -8.32667e-14 10000 -500 -1.66533e-13 9750 -750 -2.498e-13 
10250 -750 -2.498e-13 11750 -250 -8.32667e-14 11250 -250 -8.32667e-14 
11000 -500 -1.66533e-13 11250 -750 -2.498e-13 10750 -750 -2.498e-13 
12750 -250 -8.32667e-14 12250 -250 -8.32667e-14 12000 -500 -1.66533e-13 
11750 -750 -2.498e-13 12250 -750 -2.498e-13 13750 -250 -8.32667e-14 
13250 -250 -8.32667e-14 13000 -500 -1.66533e-13 12750 -750 -2.498e-13 
13250 -750 -2.498e-13 14750 -250 -8.32667e-14 14250 -250 -8.32667e-14 
14000 -500 -1.66533e-13 13750 -750 -2.498e-13 14250 -750 -2.498e-13 
15000 -500 -1.66533e-13 14750 -750 -2.498e-13 16000 -500 501.701 
16000 -500 1998.3 16000 -500 1250 16000 -250 250.85 
16000 -750 250.85 16000 -250 667.517 16000 -750 667.517 
16000 -750 2249.15 16000 -250 2249.15 16000 -250 1832.48 
16000 -750 1832.48 16000 -250 1458.33 16000 -250 1041.67 
16000 -500 1624.15 16000 -500 875.85 16000 -750 1041.67 
16000 -750 1458.33 15500 -500 2500 11500 -500 2500 
12500 -500 2500 13500 -500 2500 14500 -500 2500 
15750 -250 2500 15750 -750 2500 15250 -250 2500 
15250 -750 2500 11250 -750 2500 11250 -250 2500 
11750 -250 2500 11750 -750 2500 12750 -750 2500 
12250 -750 2500 12000 -500 2500 12250 -250 2500 
13750 -750 2500 13250 -750 2500 12750 -250 2500 
13000 -500 2500 13250 -250 2500 14750 -750 2500 
14250 -750 2500 13750 -250 2500 14000 -500 2500 
14250 -250 2500 15000 -500 2500 14750 -250 2500 
10650 -500 2150 10330 -500 1830 10825 -250 2325 
10825 -750 2325 10575 -250 2075 10575 -750 2075 
10165 -750 1665 10165 -250 1665 10415 -250 1915 
10415 -750 1915 10490 -500 1990 9500 -500 1500 
9750 -250 1500 9750 -750 1500 9250 -250 1500 
9250 -750 1500 8350 -500 2150 8670 -500 1830 
8835 -250 1665 8835 -750 1665 8585 -250 1915 
8585 -750 1915 8175 -750 2325 8175 -250 2325 
8425 -250 2075 8425 -750 2075 8510 -500 1990 
7500 -500 2500 7750 -250 2500 7750 -750 2500 
7250 -250 2500 7250 -750 2500 6678.57 -500 2901.79 
5750 -500 4062.5 6250 -500 3437.5 5321.43 -500 4598.21 
6839.29 -250 2700.89 6839.29 -750 2700.89 6589.29 -250 3013.39 
6589.29 -750 3013.39 5160.71 -750 4799.11 5160.71 -250 4799.11 
5410.71 -250 4486.61 5410.71 -750 4486.61 5625 -250 4218.75 
5875 -250 3906.25 5535.71 -500 4330.36 6125 -250 3593.75 
6375 -250 3281.25 6000 -500 3750 6464.29 -500 3169.64 
5875 -750 3906.25 5625 -750 4218.75 6375 -750 3281.25 
6125 -750 3593.75 4500 -500 5000 500 -500 5000 
1500 -500 5000 2500 -500 5000 3500 -500 5000 
4750 -250 5000 4750 -750 5000 4250 -250 5000 
4250 -750 5000 250 -750 5000 250 -250 5000 
750 -250 5000 750 -750 5000 1250 -250 5000 
1750 -250 5000 1000 -500 5000 1250 -750 5000 
2250 -250 5000 2750 -250 5000 1750 -750 5000 
2000 -500 5000 2250 -750 5000 3250 -250 5000 
3750 -250 5000 2750 -750 5000 3000 -500 5000 
3250 -750 5000 4000 -500 5000 3750 -750 5000 
0 -500 4500 0 -500 3500 0 -500 2500 
0 -500 500 0 -500 1500 0 -750 250 
0 -250 250 0 -250 750 0 -750 750 
0 -250 4750 0 -750 4750 0 -250 4250 
0 -750 4250 0 -750 1750 0 -750 1250 
0 -500 1000 0 -250 1250 0 -750 2750 
0 -750 2250 0 -250 2250 0 -500 2000 
0 -250 1750 0 -750 3750 0 -750 3250 
0 -250 3250 0 -500 3000 0 -250 2750 
0 -500 4000 0 -250 3750 3804.82 -5.73407e-13 2582.4 
5510.46 -3.9908e-13 1797.29 1857.01 -4.13924e-13 1864.15 2547.62 -7.69518e-13 3465.6 
7598.14 -2.70659e-13 1218.94 11556.5 -2.87882e-13 1296.51 4890.48 -7.21221e-13 3248.09 
14805.6 -2.77556e-13 1250 3044.64 -3.08678e-13 1390.16 13374.6 -2.83646e-13 1277.43 
1214.61 -7.59917e-13 3422.36 3807.9 -8.7561e-13 3943.4 4433.91 -2.05084e-13 923.616 
6163.12 -2.66347e-13 1199.52 1320.02 -2.55702e-13 1151.58 5603.24 -6.38432e-13 2875.24 
9500 -1.66533e-13 750 8265.63 -1.53582e-13 691.67 879.525 -5.8385e-13 2629.43 
10786.3 -1.53737e-13 692.369 4665.83 -9.04816e-13 4074.93 12486.2 -1.71627e-13 772.939 
2142.72 -2.1167e-13 953.276 2902.84 -5.4109e-13 2436.85 6250.65 -4.78152e-13 2153.41 
4650.21 -5.45105e-13 2454.94 5309.02 -2.0813e-13 937.332 7821.97 -4.04559e-13 1821.97 
1771.53 -8.92451e-13 4019.24 1867.37 -6.45499e-13 2907.07 11133.7 -4.04204e-13 1820.37 
12516.6 -3.89818e-13 1755.59 6961.5 -3.55638e-13 1601.65 2970.88 -9.26969e-13 4174.7 
772.866 -9.28005e-13 4179.36 14295.5 -1.729e-13 778.671 14266.5 -3.81984e-13 1720.3 
3616.05 -1.701e-13 766.06 3329.1 -7.04926e-13 3174.71 3876.79 -3.90165e-13 1757.15 
5331.91 -8.13716e-13 3664.65 15268.1 -4.02899e-13 1814.49 15273 -1.52175e-13 685.334 
6896.67 -1.71021e-13 770.21 8900.44 -1.98056e-13 891.963 7552.09 -1.19052e-13 536.164 
10117.8 -1.97137e-13 887.825 4137.89 -7.16644e-13 3227.48 8373.49 -3.0599e-13 1378.05 
11500 -1.1719e-13 527.778 743.795 -3.65542e-13 1646.26 10623.4 -3.1116e-13 1401.34 
666.882 -1.45707e-13 656.208 11641.4 -4.38425e-13 1974.49 1500 -1.15448e-13 519.934 
15488.6 -2.7755e-13 1249.98 533.388 -7.72805e-13 3480.4 13472.5 -4.36165e-13 1964.31 
13472.5 -1.18947e-13 535.689 2760.68 -1.3809e-13 621.9 4753.37 -3.57728e-13 1611.06 
333.441 -7.28537e-14 328.104 833.441 -7.28537e-14 328.104 333.441 -1.83876e-13 828.104 
15636.5 -7.60874e-14 342.667 15636.5 -1.68606e-13 759.334 15136.5 -7.60874e-14 342.667 
15634.1 -3.86487e-13 1740.58 15634.1 -4.79005e-13 2157.25 15134.1 -4.79005e-13 2157.25 
11066.9 -4.79658e-13 2160.19 10816.9 -4.24146e-13 1910.19 11820.7 -4.96768e-13 2237.25 
11320.7 -4.96768e-13 2237.25 11387.5 -4.21315e-13 1897.43 9750 -2.498e-13 1125 
9250 -2.498e-13 1125 10561.7 -3.77624e-13 1700.67 10311.7 -3.22113e-13 1450.67 
10058.9 -2.65102e-13 1193.91 9808.9 -1.81835e-13 818.912 10370.6 -2.54148e-13 1144.58 
8686.74 -3.19528e-13 1439.03 8436.74 -3.75039e-13 1689.03 9200.22 -1.82295e-13 820.981 
8950.22 -2.65561e-13 1195.98 8636.97 -2.52023e-13 1135.01 7910.98 -4.79835e-13 2160.98 
7410.98 -4.79835e-13 2160.98 8160.98 -4.24324e-13 1910.98 6625.33 -5.16632e-13 2326.7 
6375.33 -5.86021e-13 2639.2 6980.75 -4.55375e-13 2050.83 6606.08 -4.16895e-13 1877.53 
7391.74 -3.80098e-13 1711.81 4832.91 -1.00752e-12 4537.46 4332.91 -1.00752e-12 4537.46 
5082.91 -9.3813e-13 4224.96 886.433 -1.01911e-12 4589.68 386.433 -1.01911e-12 4589.68 
386.433 -9.08092e-13 4089.68 15744.3 -2.31294e-13 1041.65 15744.3 -3.23812e-13 1458.32 
15378.4 -3.40225e-13 1532.24 15380.8 -2.14863e-13 967.655 10878.6 -3.57682e-13 1610.86 
1250 -5.77242e-14 259.967 1750 -5.77242e-14 259.967 1083.44 -1.30578e-13 588.071 
2380.34 -6.90448e-14 310.95 2880.34 -6.90448e-14 310.95 1821.36 -1.63559e-13 736.605 
2071.36 -1.05835e-13 476.638 2451.7 -1.7488e-13 787.588 3308.02 -8.50498e-14 383.03 
3808.02 -8.50498e-14 383.03 3188.36 -1.54095e-13 693.98 4216.96 -1.02542e-13 461.808 
4716.96 -1.02542e-13 461.808 4024.98 -1.87592e-13 844.838 5154.51 -1.04065e-13 468.666 
5654.51 -1.04065e-13 468.666 4871.46 -2.06607e-13 930.474 6448.33 -8.55105e-14 385.105 
6948.33 -8.55105e-14 385.105 5736.07 -2.37238e-13 1068.43 6081.56 -1.33173e-13 599.759 
6529.9 -2.18684e-13 984.864 7276.04 -5.95262e-14 268.082 7776.04 -5.95262e-14 268.082 
7224.38 -1.45037e-13 653.187 8132.81 -7.67908e-14 345.835 8632.82 -7.67908e-14 345.835 
7908.86 -1.36317e-13 613.917 9250 -8.32667e-14 375 9750 -8.32667e-14 375 
8950.22 -9.90278e-14 445.981 8583.04 -1.75819e-13 791.816 10393.2 -7.68684e-14 346.184 
10893.2 -7.68684e-14 346.184 10058.9 -9.85684e-14 443.913 10452.1 -1.75437e-13 790.097 
11250 -5.85951e-14 263.889 11750 -5.85951e-14 263.889 11143.2 -1.35463e-13 610.073 
12243.1 -8.58135e-14 386.47 12743.1 -8.58135e-14 386.47 11993.1 -1.44409e-13 650.359 
13236.3 -5.94735e-14 267.845 13736.3 -5.94735e-14 267.845 12979.4 -1.45287e-13 654.314 
14147.7 -8.64499e-14 389.336 14647.7 -8.64499e-14 389.336 13884 -1.45923e-13 657.18 
14784.2 -1.62537e-13 732.003 12758.3 -4.72465e-13 2127.79 12258.3 -4.72465e-13 2127.79 
12079 -4.14122e-13 1865.04 13736.3 -4.95638e-13 2232.16 13236.3 -4.95638e-13 2232.16 
12994.5 -4.12991e-13 1859.95 14633.3 -4.68548e-13 2110.15 14133.3 -4.68548e-13 2110.15 
13869.5 -4.09074e-13 1842.31 14767.3 -3.92441e-13 1767.4 8097.73 -3.55274e-13 1600.01 
1885.77 -1.00134e-12 4509.62 1385.77 -1.00134e-12 4509.62 1272.2 -9.10228e-13 4099.3 
2985.44 -1.0186e-12 4587.35 2485.44 -1.0186e-12 4587.35 2371.21 -9.0971e-13 4096.97 
3485.44 -1.0186e-12 4587.35 4236.87 -8.90213e-13 4009.16 3903.95 -9.92917e-13 4471.7 
3389.39 -9.0129e-13 4059.05 5665.96 -8.23192e-13 3707.33 5415.96 -8.92581e-13 4019.83 
4998.87 -8.59266e-13 3869.79 6051.62 -6.6616e-13 3000.12 5801.62 -7.35549e-13 3312.62 
5467.58 -7.26074e-13 3269.95 5926.95 -5.58292e-13 2514.32 371.898 -4.04816e-13 1823.13 
371.898 -2.93794e-13 1323.13 705.339 -2.55625e-13 1151.23 439.763 -6.24992e-13 2814.71 
439.763 -5.13969e-13 2314.71 811.66 -4.74696e-13 2137.84 266.694 -8.30492e-13 3740.2 
266.694 -7.19469e-13 3240.2 706.457 -6.78327e-13 3054.91 653.127 -8.50405e-13 3829.88 
3115.97 -6.23008e-13 2805.78 3566.96 -6.39167e-13 2878.55 3353.83 -5.57249e-13 2509.62 
3840.81 -4.81786e-13 2169.77 3389.81 -4.65628e-13 2097 4263.5 -4.67635e-13 2106.04 
4227.51 -5.59256e-13 2518.67 3971.35 -6.45025e-13 2904.94 4394.05 -6.30875e-13 2841.21 
3733.49 -7.10785e-13 3201.09 5880.56 -4.38616e-13 1975.35 6206.89 -3.72249e-13 1676.46 
5836.79 -3.32713e-13 1498.41 5409.74 -3.03605e-13 1367.31 5556.85 -5.18756e-13 2336.27 
5080.34 -4.72092e-13 2126.12 5126.72 -5.91768e-13 2665.09 5131.92 -3.78404e-13 1704.18 
4701.79 -4.51417e-13 2033 5031.19 -2.82929e-13 1274.2 2593.68 -2.60174e-13 1171.72 
1999.87 -3.12797e-13 1408.71 2450.83 -3.61301e-13 1627.16 2379.93 -4.77507e-13 2150.5 
2973.74 -4.24884e-13 1913.51 1731.37 -2.33686e-13 1052.43 1588.52 -3.34813e-13 1507.86 
1031.91 -3.10622e-13 1398.92 1300.41 -3.89733e-13 1755.2 1373.45 -6.14674e-13 2768.25 
1862.19 -5.29712e-13 2385.61 1368.27 -4.98887e-13 2246.79 2385.1 -5.93295e-13 2671.96 
2207.49 -7.07508e-13 3186.33 2725.23 -6.55304e-13 2951.23 2938.36 -7.37222e-13 3320.15 
1819.45 -7.68975e-13 3463.16 2159.57 -8.30984e-13 3742.42 2759.25 -8.48244e-13 3820.15 
3149.99 -8.15948e-13 3674.7 7575.12 -1.94856e-13 877.552 7931.89 -2.1212e-13 955.305 
7985.82 -2.88324e-13 1298.5 8319.56 -2.29786e-13 1034.86 7279.82 -3.13149e-13 1410.3 
7710.06 -3.37609e-13 1520.46 7247.4 -2.2084e-13 994.576 6929.08 -2.63329e-13 1185.93 
11528.2 -2.02536e-13 912.143 11171.4 -2.2081e-13 994.438 10704.9 -2.32448e-13 1046.85 
11090 -2.99521e-13 1348.92 12036.5 -3.3885e-13 1526.05 12501.4 -2.80723e-13 1264.26 
12021.3 -2.29755e-13 1034.72 11345.1 -3.46043e-13 1558.44 11598.9 -3.63154e-13 1635.5 
4770.35 -6.33163e-13 2851.51 5246.86 -6.79826e-13 3061.67 5111.2 -7.67469e-13 3456.37 
4778.16 -8.13018e-13 3661.51 4514.18 -7.18933e-13 3237.78 4401.86 -8.1073e-13 3651.2 
14281 -2.77442e-13 1249.49 14536 -3.2977e-13 1485.15 14550.5 -2.25228e-13 1014.34 
15039.3 -2.14865e-13 967.667 15036.8 -3.40227e-13 1532.25 15147.1 -2.77553e-13 1249.99 
2902.66 -2.23384e-13 1006.03 3460.71 -3.49422e-13 1573.66 3746.42 -2.80132e-13 1261.6 
3330.34 -2.39389e-13 1078.11 12945.6 -3.36732e-13 1516.51 12930.4 -2.27636e-13 1025.18 
13423.5 -2.01296e-13 906.558 13423.5 -3.59905e-13 1620.87 13820.5 -3.32815e-13 1498.86 
13835 -2.28273e-13 1028.05 1540.99 -7.02708e-13 3164.72 1047.07 -6.71883e-13 3025.89 
873.999 -7.66361e-13 3451.38 1493.07 -8.26184e-13 3720.8 993.738 -8.43961e-13 3800.86 
3972.89 -7.96127e-13 3585.44 3568.5 -7.90268e-13 3559.05 4593.64 -2.81406e-13 1267.34 
4155.35 -2.97625e-13 1340.38 4315.08 -3.73947e-13 1684.11 6562.31 -3.10992e-13 1400.58 
1410.01 -1.85575e-13 835.757 993.451 -2.00705e-13 903.894 3804.82 -1000 2582.4 
5510.46 -1000 1797.29 1857.01 -1000 1864.15 2547.62 -1000 3465.6 
7598.14 -1000 1218.94 11556.5 -1000 1296.51 4890.48 -1000 3248.09 
14805.6 -1000 1250 3044.64 -1000 1390.16 13374.6 -1000 1277.43 
1214.61 -1000 3422.36 3807.9 -1000 3943.4 4433.91 -1000 923.616 
6163.12 -1000 1199.52 1320.02 -1000 1151.58 5603.24 -1000 2875.24 
9500 -1000 750 8265.63 -1000 691.67 879.525 -1000 2629.43 
10786.3 -1000 692.369 4665.83 -1000 4074.93 12486.2 -1000 772.939 
2142.72 -1000 953.276 2902.84 -1000 2436.85 6250.65 -1000 2153.41 
4650.21 -1000 2454.94 5309.02 -1000 937.332 7821.97 -1000 1821.97 
1771.53 -1000 4019.24 1867.37 -1000 2907.07 11133.7 -1000 1820.37 
12516.6 -1000 1755.59 6961.5 -1000 1601.65 2970.88 -1000 4174.7 
772.866 -1000 4179.36 14295.5 -1000 1729.16 14318 -1000 782.231 
3616.05 -1000 766.06 3329.1 -1000 3174.71 3876.79 -1000 1757.15 
5331.91 -1000 3664.65 15276.7 -1000 685.927 15273 -1000 1815.97 
6896.67 -1000 770.21 8900.44 -1000 891.963 7552.09 -1000 536.164 
10117.8 -1000 887.825 4137.89 -1000 3227.48 8373.49 -1000 1378.05 
11500 -1000 527.778 743.795 -1000 1646.26 10623.4 -1000 1401.34 
666.882 -1000 656.208 11641.4 -1000 1974.49 1500 -1000 519.934 
15489.8 -1000 1250.27 533.388 -1000 3480.4 13472.5 -1000 1964.31 
13472.5 -1000 535.689 2760.68 -1000 621.9 4753.37 -1000 1611.06 
833.441 -1000 328.104 333.441 -1000 328.104 333.441 -1000 828.104 
15638.4 -1000 759.63 15638.4 -1000 342.964 15138.4 -1000 342.964 
15636.5 -1000 2157.99 15636.5 -1000 1741.32 15136.5 -1000 2157.99 
10816.9 -1000 1910.19 11066.9 -1000 2160.19 11320.7 -1000 2237.25 
11820.7 -1000 2237.25 11387.5 -1000 1897.43 9250 -1000 1125 
9750 -1000 1125 10311.7 -1000 1450.67 10561.7 -1000 1700.67 
9808.9 -1000 818.912 10058.9 -1000 1193.91 10370.6 -1000 1144.58 
8436.74 -1000 1689.03 8686.74 -1000 1439.03 8950.22 -1000 1195.98 
9200.22 -1000 820.981 8636.97 -1000 1135.01 7410.98 -1000 2160.98 
7910.98 -1000 2160.98 8160.98 -1000 1910.98 6375.33 -1000 2639.2 
6625.33 -1000 2326.7 6606.08 -1000 1877.53 6980.75 -1000 2050.83 
7391.74 -1000 1711.81 4332.91 -1000 4537.46 4832.91 -1000 4537.46 
5082.91 -1000 4224.96 386.433 -1000 4589.68 886.433 -1000 4589.68 
386.433 -1000 4089.68 15744.9 -1000 1458.47 15744.9 -1000 1041.8 
15381.4 -1000 1533.12 15383.3 -1000 968.099 10878.6 -1000 1610.86 
12258.3 -1000 2127.79 12758.3 -1000 2127.79 12079 -1000 1865.04 
13236.3 -1000 2232.16 13736.3 -1000 2232.16 12994.5 -1000 1859.95 
14147.7 -1000 2114.58 14647.7 -1000 2114.58 13884 -1000 1846.74 
14784.2 -1000 1772.57 1750 -1000 259.967 1250 -1000 259.967 
1083.44 -1000 588.071 2880.34 -1000 310.95 2380.34 -1000 310.95 
2071.36 -1000 476.638 1821.36 -1000 736.605 2451.7 -1000 787.588 
3808.02 -1000 383.03 3308.02 -1000 383.03 3188.36 -1000 693.98 
4716.96 -1000 461.808 4216.96 -1000 461.808 4024.98 -1000 844.838 
5654.51 -1000 468.666 5154.51 -1000 468.666 4871.46 -1000 930.474 
6948.33 -1000 385.105 6448.33 -1000 385.105 6081.56 -1000 599.759 
5736.07 -1000 1068.43 6529.9 -1000 984.864 7776.04 -1000 268.082 
7276.04 -1000 268.082 7224.38 -1000 653.187 8632.82 -1000 345.835 
8132.81 -1000 345.835 7908.86 -1000 613.917 9750 -1000 375 
9250 -1000 375 8950.22 -1000 445.981 8583.04 -1000 791.816 
10893.2 -1000 346.184 10393.2 -1000 346.184 10058.9 -1000 443.913 
10452.1 -1000 790.097 11750 -1000 263.889 11250 -1000 263.889 
11143.2 -1000 610.073 12743.1 -1000 386.47 12243.1 -1000 386.47 
11993.1 -1000 650.359 13736.3 -1000 267.845 13236.3 -1000 267.845 
12979.4 -1000 654.314 14659 -1000 391.115 14159 -1000 391.115 
13895.3 -1000 658.96 14797.4 -1000 734.079 8097.73 -1000 1600.01 
1385.77 -1000 4509.62 1885.77 -1000 4509.62 1272.2 -1000 4099.3 
2485.44 -1000 4587.35 2985.44 -1000 4587.35 2371.21 -1000 4096.97 
3485.44 -1000 4587.35 3903.95 -1000 4471.7 4236.87 -1000 4009.16 
3389.39 -1000 4059.05 5415.96 -1000 4019.83 5665.96 -1000 3707.33 
4998.87 -1000 3869.79 5801.62 -1000 3312.62 6051.62 -1000 3000.12 
5467.58 -1000 3269.95 5926.95 -1000 2514.32 371.898 -1000 1323.13 
371.898 -1000 1823.13 705.339 -1000 1151.23 439.763 -1000 2314.71 
439.763 -1000 2814.71 811.66 -1000 2137.84 266.694 -1000 3240.2 
266.694 -1000 3740.2 706.457 -1000 3054.91 653.127 -1000 3829.88 
3353.83 -1000 2509.62 3566.96 -1000 2878.55 3115.97 -1000 2805.78 
3389.81 -1000 2097 3840.81 -1000 2169.77 4227.51 -1000 2518.67 
4263.5 -1000 2106.04 4394.05 -1000 2841.21 3971.35 -1000 2904.94 
3733.49 -1000 3201.09 5836.79 -1000 1498.41 6206.89 -1000 1676.46 
5880.56 -1000 1975.35 5409.74 -1000 1367.31 5556.85 -1000 2336.27 
5126.72 -1000 2665.09 5080.34 -1000 2126.12 4701.79 -1000 2033 
5131.92 -1000 1704.18 5031.19 -1000 1274.2 2450.83 -1000 1627.16 
1999.87 -1000 1408.71 2593.68 -1000 1171.72 2973.74 -1000 1913.51 
2379.93 -1000 2150.5 1588.52 -1000 1507.86 1731.37 -1000 1052.43 
1300.41 -1000 1755.2 1031.91 -1000 1398.92 1368.27 -1000 2246.79 
1862.19 -1000 2385.61 1373.45 -1000 2768.25 2385.1 -1000 2671.96 
2725.23 -1000 2951.23 2207.49 -1000 3186.33 2938.36 -1000 3320.15 
2159.57 -1000 3742.42 1819.45 -1000 3463.16 2759.25 -1000 3820.15 
3149.99 -1000 3674.7 7931.89 -1000 955.305 7575.12 -1000 877.552 
8319.56 -1000 1034.86 7985.82 -1000 1298.5 7710.06 -1000 1520.46 
7279.82 -1000 1410.3 6929.08 -1000 1185.93 7247.4 -1000 994.576 
11171.4 -1000 994.438 11528.2 -1000 912.143 11090 -1000 1348.92 
10704.9 -1000 1046.85 12021.3 -1000 1034.72 12501.4 -1000 1264.26 
12036.5 -1000 1526.05 11345.1 -1000 1558.44 11598.9 -1000 1635.5 
5246.86 -1000 3061.67 4770.35 -1000 2851.51 5111.2 -1000 3456.37 
4778.16 -1000 3661.51 4401.86 -1000 3651.2 4514.18 -1000 3237.78 
14550.5 -1000 1489.58 14306.7 -1000 1255.7 14561.8 -1000 1016.12 
15039.3 -1000 1532.99 15041.1 -1000 967.964 15147.7 -1000 1250.14 
2902.66 -1000 1006.03 3460.71 -1000 1573.66 3330.34 -1000 1078.11 
3746.42 -1000 1261.6 12930.4 -1000 1025.18 12945.6 -1000 1516.51 
13423.5 -1000 906.558 13423.5 -1000 1620.87 13835 -1000 1503.3 
13846.3 -1000 1029.83 1047.07 -1000 3025.89 1540.99 -1000 3164.72 
873.999 -1000 3451.38 1493.07 -1000 3720.8 993.738 -1000 3800.86 
3972.89 -1000 3585.44 3568.5 -1000 3559.05 4593.64 -1000 1267.34 
4155.35 -1000 1340.38 4315.08 -1000 1684.11 6562.31 -1000 1400.58 
1410.01 -1000 835.757 993.451 -1000 903.894 15147.1 -500 1249.99 
15489.2 -500 1250.12 15382.7 -500 967.951 15380.8 -500 1532.97 
1500 -750 259.967 1500 -250 259.967 1500 -500 519.934 
1821.36 -500 736.605 1821.36 -250 476.638 8361.74 -250 1764.03 
8521.74 -250 1604.03 8361.74 -750 1764.03 8521.74 -750 1604.03 
8373.49 -500 1378.05 10878.6 -500 1610.86 11133.7 -500 1820.37 
11345.1 -500 1558.44 11090 -500 1348.92 15039.3 -500 967.667 
14805.6 -500 1250 15036.8 -500 1532.25 5540.96 -750 3863.58 
5540.96 -250 3863.58 5331.91 -500 3664.65 5326.67 -750 4131.43 
5326.67 -250 4131.43 14550.5 -500 1489.58 14781.8 -500 1771.83 
10891.9 -250 1985.19 10636.7 -250 1775.67 10891.9 -750 1985.19 
11075 -500 2325 11316.9 -250 2160.19 11316.9 -750 2160.19 
8785.22 -250 1360.98 8636.97 -500 1135.01 7575.12 -500 877.552 
7931.89 -500 955.305 7908.86 -500 613.917 7552.09 -500 536.164 
14795.5 -500 733.782 14561.8 -500 1016.12 8319.56 -500 1034.86 
7985.82 -500 1298.5 7526.04 -750 268.082 7526.04 -250 268.082 
7882.81 -250 345.835 266.694 -250 2990.2 533.388 -500 3480.4 
266.694 -750 2990.2 266.694 -500 3240.2 266.694 -250 3490.2 
266.694 -750 3490.2 1821.36 -750 476.638 2142.72 -500 953.276 
1083.44 -750 328.104 1083.44 -500 588.071 9500 -250 375 
9808.9 -250 443.913 10117.8 -500 887.825 9808.9 -750 443.913 
9808.9 -500 818.912 7598.14 -500 1218.94 9500 -750 375 
9500 -500 750 15744.3 -250 1249.99 15636.5 -750 1532.99 
15744.9 -750 1250.14 9200.22 -250 445.981 9200.22 -500 820.981 
9200.22 -750 445.981 8900.44 -500 891.963 8700.22 -250 445.981 
8700.22 -750 445.981 8950.22 -500 445.981 15638.4 -750 967.964 
8785.22 -750 1360.98 6961.5 -500 1601.65 7391.74 -500 1711.81 
7230.75 -250 2050.83 7660.98 -750 2160.98 7230.75 -750 2050.83 
12508.3 -250 2127.79 12986.3 -250 2232.16 12986.3 -750 2232.16 
13472.5 -500 1964.31 12994.5 -500 1859.95 11500 -750 263.889 
11750 -500 263.889 12000 -750 263.889 10308.9 -250 443.913 
10308.9 -750 443.913 10058.9 -500 443.913 11641.4 -500 1974.49 
12070.7 -250 2237.25 12070.7 -750 2237.25 12508.3 -750 2127.79 
12079 -500 1865.04 11570.7 -250 2237.25 11387.5 -500 1897.43 
12493.1 -250 386.47 12000 -250 263.889 11500 -500 527.778 
11993.1 -500 650.359 5790.96 -250 3551.08 5790.96 -750 3551.08 
11500 -250 263.889 12986.3 -250 267.845 12979.4 -500 654.314 
12493.1 -750 386.47 12986.3 -750 267.845 13472.5 -500 535.689 
1410.01 -500 835.757 993.451 -500 903.894 10623.4 -500 1401.34 
13486.3 -250 2232.16 13486.3 -750 2232.16 13236.3 -500 2232.16 
6980.75 -500 2050.83 2071.36 -500 476.638 2321.36 -750 476.638 
2321.36 -250 476.638 5246.86 -500 3061.67 4770.35 -500 2851.51 
4890.48 -500 3248.09 5131.92 -500 1704.18 4701.79 -500 2033 
4753.37 -500 1611.06 14884.1 -250 2157.25 14397.7 -750 2114.58 
14886.5 -750 2157.99 15270.6 -500 1815.23 5467.58 -500 3269.95 
5926.62 -750 3156.37 12486.2 -500 772.939 706.457 -500 3054.91 
439.763 -750 2564.71 5926.95 -500 2514.32 6250.65 -500 2153.41 
6140.91 -250 2888.51 6464.61 -250 2527.6 6464.61 -750 2527.6 
666.882 -500 656.208 1083.44 -250 328.104 1320.02 -500 1151.58 
11598.9 -500 1635.5 15274.8 -500 685.631 8097.73 -500 1600.01 
4514.18 -500 3237.78 4401.86 -500 3651.2 4778.16 -500 3661.51 
12516.6 -500 1755.59 14886.5 -250 342.667 14888.4 -750 342.964 
14409 -750 391.115 13236.3 -500 267.845 13486.3 -750 267.845 
333.441 -250 1078.1 333.441 -750 1078.1 705.339 -500 1151.23 
371.898 -250 1573.13 7224.38 -500 653.187 5111.2 -500 3456.37 
13486.3 -250 267.845 3389.81 -500 2097 3840.81 -500 2169.77 
3804.82 -500 2582.4 3353.83 -500 2509.62 4998.87 -500 3869.79 
4993.63 -750 4336.57 4236.87 -500 4009.16 3807.9 -500 3943.4 
4153.95 -750 4471.7 4153.95 -250 4471.7 4582.91 -250 4537.46 
8265.63 -500 691.67 4058.02 -750 383.03 4466.96 -750 461.808 
4058.02 -250 383.03 4024.98 -500 844.838 3616.05 -500 766.06 
1731.37 -500 1052.43 4394.05 -500 2841.21 6606.08 -500 1877.53 
7710.06 -500 1520.46 7279.82 -500 1410.3 14383.3 -250 2110.15 
14281 -500 1724.73 3808.02 -500 383.03 3558.02 -250 383.03 
5126.72 -500 2665.09 5080.34 -500 2126.12 5603.24 -500 2875.24 
5556.85 -500 2336.27 4650.21 -500 2454.94 5510.46 -500 1797.29 
3558.02 -750 383.03 12021.3 -500 1034.72 12036.5 -500 1526.05 
12501.4 -500 1264.26 11556.5 -500 1296.51 10636.7 -750 1775.67 
14397.7 -250 389.336 14306.7 -500 780.451 5736.07 -500 1068.43 
5831.56 -250 599.759 5404.51 -750 468.666 5309.02 -500 937.332 
5404.51 -250 468.666 6140.91 -750 2888.51 8085.98 -250 1985.98 
7882.81 -750 345.835 10476.7 -250 1615.67 10476.7 -750 1615.67 
10223.9 -250 1358.91 10223.9 -750 1358.91 10370.6 -500 1144.58 
4315.08 -500 1684.11 1031.91 -500 1398.92 7821.97 -500 1821.97 
7660.98 -250 2160.98 6081.56 -500 599.759 6331.56 -750 599.759 
6331.56 -250 599.759 6163.12 -500 1199.52 5831.56 -750 599.759 
4466.96 -250 461.808 4433.91 -500 923.616 4665.83 -500 4074.93 
4582.91 -750 4537.46 6206.89 -500 1676.46 6562.31 -500 1400.58 
7198.33 -750 385.105 1493.07 -500 3720.8 1540.99 -500 3164.72 
1214.61 -500 3422.36 7247.4 -500 994.576 4904.51 -750 468.666 
4871.46 -500 930.474 2760.68 -500 621.9 3130.34 -750 310.95 
3130.34 -250 310.95 3188.36 -500 693.98 5880.56 -500 1975.35 
10704.9 -500 1046.85 11528.2 -500 912.143 1588.52 -500 1507.86 
13835 -500 1028.05 13374.6 -500 1277.43 13820.5 -500 1498.86 
11820.7 -500 2237.25 11570.7 -750 2237.25 14292.2 -500 1251.27 
12945.6 -500 1516.51 12930.4 -500 1025.18 4137.89 -500 3227.48 
439.763 -250 2564.71 8382.82 -250 345.835 8583.04 -500 791.816 
6625.33 -500 2326.7 2593.68 -500 1171.72 1999.87 -500 1408.71 
9500 -250 1125 9808.9 -250 1193.91 9808.9 -750 1193.91 
4227.51 -500 2518.67 3971.35 -500 2904.94 371.898 -750 1573.13 
743.795 -500 1646.26 9500 -750 1125 5154.51 -500 468.666 
4904.51 -250 468.666 5926.62 -250 3156.37 10643.2 -250 346.184 
10452.1 -500 790.097 6929.08 -500 1185.93 14147.7 -500 389.336 
13897.7 -250 389.336 4593.64 -500 1267.34 13423.5 -500 906.558 
13883.3 -250 2110.15 13869.5 -500 1842.31 13423.5 -500 1620.87 
13884 -500 657.18 873.999 -500 3451.38 1047.07 -500 3025.89 
9200.22 -250 1195.98 9200.22 -750 1195.98 993.738 -500 3800.86 
3903.95 -500 4471.7 3653.95 -250 4471.7 3653.95 -750 4471.7 
333.441 -500 828.104 333.441 -750 578.104 333.441 -250 578.104 
1373.45 -500 2768.25 8950.22 -500 1195.98 10058.9 -500 1193.91 
13909 -750 391.115 1272.2 -500 4099.3 10786.3 -500 692.369 
11171.4 -500 994.438 2135.77 -250 4509.62 2735.44 -250 4587.35 
2135.77 -750 4509.62 2371.21 -500 4096.97 1771.53 -500 4019.24 
13897.7 -750 2114.58 833.441 -500 328.104 583.441 -750 328.104 
583.441 -250 328.104 14133.3 -500 2110.15 653.127 -500 3829.88 
1136.43 -750 4589.68 1635.77 -250 4509.62 1136.43 -250 4589.68 
772.866 -500 4179.36 2725.23 -500 2951.23 2207.49 -500 3186.33 
2547.62 -500 3465.6 15636.5 -250 967.667 15634.1 -250 1532.25 
4263.5 -500 2106.04 5031.19 -500 1274.2 386.433 -250 3839.68 
2451.7 -500 787.588 2630.34 -750 310.95 2630.34 -250 310.95 
8382.82 -750 345.835 3876.79 -500 1757.15 2902.84 -500 2436.85 
1862.19 -500 2385.61 2385.1 -500 2671.96 1867.37 -500 2907.07 
3746.42 -500 1261.6 2735.44 -750 4587.35 2970.88 -500 4174.7 
879.525 -500 2629.43 1300.41 -500 1755.2 811.66 -500 2137.84 
371.898 -250 2073.13 371.898 -750 2073.13 3566.96 -500 2878.55 
8132.81 -500 345.835 2379.93 -500 2150.5 2450.83 -500 1627.16 
2973.74 -500 1913.51 3972.89 -500 3585.44 10643.2 -750 346.184 
15136.5 -500 342.667 4155.35 -500 1340.38 1819.45 -500 3463.16 
15386.5 -250 342.667 15388.4 -750 342.964 15636.5 -250 593.517 
15638.4 -750 593.814 15634.1 -250 1906.4 15636.5 -750 1907.14 
1635.77 -750 4509.62 4993.63 -250 4336.57 15134.1 -500 2157.25 
6529.9 -500 984.864 6698.33 -750 385.105 6698.33 -250 385.105 
6896.67 -500 770.21 11143.2 -500 610.073 15384.1 -250 2157.25 
15386.5 -750 2157.99 3235.44 -750 4587.35 3389.39 -500 4059.05 
3115.97 -500 2805.78 3329.1 -500 3174.71 2938.36 -500 3320.15 
371.898 -500 1823.13 8085.98 -750 1985.98 1857.01 -500 1864.15 
3044.64 -500 1390.16 3733.49 -500 3201.09 1368.27 -500 2246.79 
386.433 -750 4339.68 386.433 -500 4089.68 386.433 -750 3839.68 
2159.57 -500 3742.42 2902.66 -500 1006.03 2880.34 -500 310.95 
11143.2 -250 346.184 10893.2 -500 346.184 4910.71 -500 4799.11 
3568.5 -500 3559.05 5409.74 -500 1367.31 2759.25 -500 3820.15 
3149.99 -500 3674.7 11143.2 -750 346.184 5836.79 -500 1498.41 
3460.71 -500 1573.66 6948.33 -500 385.105 3330.34 -500 1078.11 
386.433 -250 4339.68 7198.33 -250 385.105 2985.44 -500 4587.35 
3235.44 -250 4587.35 1885.77 -500 4509.62 636.433 -250 4589.68 
250 -500 4750 636.433 -750 4589.68 15750 -500 250.85 
15750 -500 2249.15 886.433 -500 4589.68 250 -500 250 
7925 -500 2325 
CELLS 661 7271
10 780 495 732 766 1011 1010 986 829 1012 985 
10 495 732 767 780 1010 984 1013 1011 986 828 
10 779 494 187 462 1016 1015 1014 1017 551 1018 
10 343 344 488 773 353 1020 1019 1021 1022 1023 
10 755 470 491 730 1025 545 1024 973 1026 1027 
10 495 482 447 732 544 699 701 1010 1028 1029 
10 495 447 481 732 701 700 543 1010 1029 1030 
10 765 480 360 362 1033 1032 1031 1034 1035 373 
10 732 447 481 760 1029 700 1030 981 1036 1037 
10 491 327 470 755 1039 1038 545 1024 1040 1025 
10 299 470 327 755 1042 1038 1041 1043 1025 1040 
10 344 484 488 773 1044 526 1020 1022 1045 1023 
10 729 457 485 770 1047 573 1046 959 1048 1049 
10 732 482 447 761 1028 699 1029 983 1050 1051 
10 457 444 488 773 674 675 676 1052 1053 1023 
10 485 193 770 457 1055 1054 1049 573 1056 1048 
10 496 413 170 781 1057 437 630 1058 1059 1060 
10 412 496 170 781 1061 630 435 1062 1058 1060 
10 187 747 779 462 1063 847 1014 1018 1064 1017 
10 187 779 777 494 1014 843 1065 1015 1016 1066 
10 747 779 54 187 847 841 846 1063 1014 217 
10 187 494 23 462 1015 547 210 1018 551 552 
10 486 195 456 771 1068 1067 520 1069 1070 1071 
10 457 729 444 773 1047 1072 674 1052 961 1053 
10 771 195 456 741 1070 1067 1071 804 1073 1074 
10 767 283 495 780 1076 1075 1013 828 1077 1011 
10 456 195 484 769 1067 1078 524 1079 1080 1081 
10 485 457 729 444 573 1047 1046 673 674 1072 
10 194 484 30 769 1082 576 244 1083 1081 1084 
10 195 30 484 769 250 576 1078 1080 1084 1081 
10 769 456 195 741 1079 1067 1080 810 1074 1073 
10 495 780 283 766 1011 1077 1075 1012 829 1085 
10 781 413 170 179 1059 437 1060 914 428 436 
10 412 781 170 179 1062 1060 435 434 914 436 
10 769 484 344 773 1081 1044 1086 811 1045 1022 
10 472 752 757 354 1088 819 1087 1089 1090 1091 
10 300 497 471 782 1093 600 1092 1094 1095 1096 
10 64 196 33 774 267 259 266 877 1097 1098 
10 64 774 33 197 877 1098 266 268 1099 265 
10 200 31 486 771 255 580 1100 1101 1102 1069 
10 195 486 31 771 1068 580 249 1070 1069 1102 
10 778 300 493 756 1105 1104 1103 833 1106 1107 
10 470 299 493 755 1042 1108 514 1025 1043 1109 
10 197 489 461 774 1111 587 1110 1099 1112 1113 
10 480 360 361 765 1032 376 1114 1033 1031 1115 
10 33 196 489 774 259 1116 583 1098 1097 1112 
10 489 197 33 774 1111 265 583 1112 1099 1098 
10 197 746 498 783 1119 1118 1117 1120 885 1121 
10 494 779 777 454 1016 843 1066 723 1122 1123 
10 755 491 776 730 1024 1124 830 973 1027 968 
10 301 497 97 782 1125 599 319 1126 1095 1127 
10 300 97 497 782 317 599 1093 1094 1127 1095 
10 472 757 15 354 1087 818 1128 1089 1091 358 
10 23 747 54 187 1129 846 216 210 1063 217 
10 54 747 23 188 846 1129 216 218 1130 215 
10 23 747 187 462 1129 1063 210 552 1064 1018 
10 747 23 188 462 1129 215 1130 1064 552 1131 
10 740 750 446 731 933 1133 1132 975 976 1134 
10 500 750 726 785 1136 934 1135 1137 935 936 
10 106 782 97 300 834 1127 318 311 1094 317 
10 97 782 106 301 1127 834 318 319 1126 316 
10 760 302 481 767 1139 1138 1037 840 1140 1141 
10 361 740 480 765 1143 1142 1114 1115 906 1033 
10 774 461 197 746 1113 1110 1099 882 1144 1119 
10 781 496 413 743 1058 1057 1059 916 1145 1146 
10 779 454 494 462 1122 723 1016 1017 658 551 
10 197 64 774 746 268 877 1099 1119 881 882 
10 489 461 33 197 587 585 583 1111 1110 265 
10 455 464 749 359 622 1148 1147 1149 1150 1151 
10 494 777 187 492 1066 1065 1015 548 1152 1153 
10 197 461 498 746 1110 590 1117 1119 1144 1118 
10 777 779 739 454 843 1008 1009 1123 1122 1154 
10 730 778 493 756 974 1103 1155 972 833 1107 
10 732 495 482 766 1010 544 1028 985 1012 1156 
10 488 444 467 773 675 678 605 1023 1053 1157 
10 731 745 487 446 978 1159 1158 1134 1160 694 
10 61 30 195 769 251 250 253 871 1084 1080 
10 30 61 194 769 251 252 244 1084 871 1083 
10 471 756 300 782 1161 1106 1092 1096 836 1094 
10 482 766 199 761 1156 1163 1162 1050 889 1164 
10 767 732 495 481 984 1010 1013 1141 1030 543 
10 65 783 34 198 884 1165 271 273 1166 270 
10 34 783 65 197 1165 884 271 264 1120 272 
10 492 777 415 490 1152 1168 1167 625 1169 1170 
10 470 755 493 730 1025 1109 514 1026 973 1155 
10 770 729 768 485 959 965 865 1049 1046 1171 
10 760 481 732 767 1037 1030 981 840 1141 984 
10 480 765 740 731 1033 906 1142 1172 977 975 
10 197 498 34 783 1117 588 264 1120 1121 1165 
10 198 34 498 783 270 588 1173 1166 1165 1121 
10 440 764 463 725 1175 1174 635 1176 922 1177 
10 745 480 765 362 1178 1033 903 1179 1035 1034 
10 736 451 460 382 1181 613 1180 1182 1183 1184 
10 742 729 457 773 958 1047 1185 960 961 1052 
10 190 737 762 477 1187 854 1186 1188 1189 1190 
10 739 779 747 454 1008 847 944 1154 1122 1191 
10 750 487 446 731 1192 694 1133 976 1158 1134 
10 757 15 749 472 818 816 817 1087 1128 1193 
10 729 752 757 444 962 819 963 1072 1194 1195 
10 446 480 740 731 692 1142 1132 1134 1172 975 
10 476 302 481 760 1196 1138 604 1197 1139 1037 
10 756 106 300 782 832 311 1106 836 834 1094 
10 471 97 497 300 595 599 600 1092 317 1093 
10 457 770 729 742 1048 959 1047 1185 868 958 
10 56 477 25 190 1198 555 226 228 1188 225 
10 25 477 56 189 555 1198 226 219 1199 227 
10 457 488 484 773 676 526 577 1052 1023 1045 
10 455 441 750 740 647 1201 1200 1202 1203 933 
10 441 750 465 455 1201 1204 648 647 1200 649 
10 750 441 726 740 1201 1205 934 933 1203 932 
10 56 762 477 190 849 1190 1198 228 1186 1188 
10 56 189 477 762 227 1199 1198 849 1206 1190 
10 730 471 461 756 1208 686 1207 972 1161 1209 
10 461 445 471 730 687 685 686 1207 1210 1208 
10 756 461 730 746 1209 1207 972 971 1144 970 
10 776 327 491 755 1211 1039 1124 830 1040 1024 
10 752 444 729 773 1194 1072 962 890 1053 961 
10 199 475 482 761 1212 594 1162 1164 1213 1050 
10 751 191 453 466 1216 1215 1214 1217 1218 565 
10 359 749 455 740 1151 1147 1149 1219 907 1202 
10 766 482 732 761 1156 1028 985 889 1050 983 
10 467 343 488 773 1220 1019 605 1157 1021 1023 
10 457 193 770 742 1056 1054 1048 1185 1221 868 
10 327 491 328 776 1039 1222 337 1211 1124 1223 
10 486 328 491 771 1224 1222 521 1069 1225 1226 
10 750 764 785 500 924 1006 935 1136 1227 1137 
10 731 480 765 745 1172 1033 977 978 1178 903 
10 62 771 31 200 875 1102 256 258 1101 255 
10 62 195 31 771 257 249 256 875 1070 1102 
10 739 775 777 454 946 910 1009 1154 1228 1123 
10 491 470 445 730 545 688 684 1027 1026 1210 
10 65 746 197 783 880 1119 272 884 885 1120 
10 34 461 498 197 586 590 588 264 1110 1117 
10 472 467 752 354 534 1229 1088 1089 1230 1090 
10 27 192 738 453 235 1232 1231 566 1233 1234 
10 27 738 191 453 1231 1235 229 566 1234 1215 
10 58 191 27 738 237 229 236 860 1235 1231 
10 58 738 27 192 860 1231 236 238 1232 235 
10 452 737 190 477 1237 1187 1236 559 1189 1188 
10 460 745 736 382 1238 899 1180 1184 1239 1182 
10 493 300 471 756 1104 1092 597 1107 1106 1161 
10 472 453 749 757 722 1240 1193 1087 1241 817 
10 481 447 476 760 700 697 604 1037 1036 1197 
10 768 193 770 485 1242 1054 865 1171 1055 1049 
10 468 469 450 735 669 712 715 1243 1244 1245 
10 444 752 757 472 1194 819 1195 677 1088 1087 
10 492 494 777 454 548 1066 1152 724 723 1123 
10 731 446 480 745 1134 692 1172 978 1160 1178 
10 485 729 768 444 1046 965 1171 673 1072 1246 
10 453 191 751 738 1215 1216 1214 1234 1235 861 
10 737 190 751 452 1187 1247 857 1237 1236 1248 
10 499 189 784 477 1251 1250 1249 556 1199 1252 
10 455 441 749 464 647 1253 1147 622 643 1148 
10 757 768 729 444 964 965 963 1195 1246 1072 
10 776 491 744 730 1124 1254 969 968 1027 966 
10 461 774 489 730 1113 1112 587 1207 967 1255 
10 775 727 454 739 945 1256 1228 946 943 1154 
10 447 482 475 761 699 594 698 1051 1050 1213 
10 475 449 476 734 711 710 696 1257 1258 1259 
10 771 328 491 776 1225 1222 1226 806 1223 1124 
10 472 15 14 354 1128 131 532 1089 358 357 
10 105 300 493 778 312 1104 1260 798 1105 1103 
10 105 778 493 299 798 1103 1260 310 1261 1108 
10 734 476 475 761 1259 696 1257 996 1262 1213 
10 461 449 756 471 707 1263 1209 686 706 1161 
10 734 449 756 746 1258 1263 992 991 1264 971 
10 760 476 734 761 1197 1259 995 982 1262 996 
10 487 745 731 772 1159 978 1158 1265 979 980 
10 756 449 461 746 1263 707 1209 971 1264 1144 
10 458 413 170 496 1266 437 626 631 1057 630 
10 179 781 413 743 914 1059 428 912 916 1146 
10 484 194 457 769 1082 1267 577 1081 1083 1268 
10 472 15 749 464 1128 816 1193 533 1269 1148 
10 448 747 462 442 1270 1064 653 655 1271 654 
10 338 486 456 771 1273 520 1272 1274 1069 1071 
10 750 440 487 725 1275 640 1192 923 1176 1276 
10 454 779 747 462 1122 847 1191 658 1017 1064 
10 471 730 493 756 1208 1155 597 1161 972 1107 
10 784 189 762 477 1250 1206 851 1252 1199 1190 
10 764 440 750 725 1175 1275 924 922 1176 923 
10 500 750 465 441 1136 1204 651 650 1201 648 
10 726 750 500 441 934 1136 1135 1205 1201 650 
10 415 777 775 490 1168 910 1277 1170 1169 1278 
10 471 445 493 730 685 689 597 1208 1210 1155 
10 338 771 456 741 1274 1071 1272 1279 804 1074 
10 57 466 26 191 1280 560 231 233 1218 230 
10 26 466 57 190 560 1280 231 224 1281 232 
10 361 359 455 740 377 1149 1282 1143 1219 1202 
10 200 486 459 771 1100 581 1283 1101 1069 1284 
10 730 461 774 746 1207 1113 967 970 1144 882 
10 489 445 461 730 681 687 587 1255 1210 1207 
10 11 769 344 773 809 1086 346 808 811 1022 
10 10 488 344 484 522 1020 345 525 526 1044 
10 483 444 757 472 679 1195 1285 680 677 1087 
10 35 475 66 198 591 1286 276 269 1287 277 
10 66 475 35 199 1286 591 276 278 1212 275 
10 764 737 785 500 1005 1004 1006 1227 1288 1137 
10 484 769 457 773 1081 1268 577 1045 811 1052 
10 498 746 734 783 1118 991 1289 1121 885 993 
10 497 301 476 782 1125 1290 603 1095 1126 1291 
10 497 449 471 782 709 706 600 1095 1292 1096 
10 475 198 498 783 1287 1173 593 1293 1166 1121 
10 735 450 781 743 1245 1294 999 997 1295 916 
10 454 777 492 490 1123 1152 724 660 1169 625 
10 455 750 446 740 1200 1133 691 1202 933 1132 
10 487 731 750 772 1158 976 1192 1265 980 925 
10 446 465 750 455 690 1204 1133 691 649 1200 
10 747 727 739 454 939 943 944 1191 1256 1154 
10 338 456 484 769 1272 524 1296 1297 1079 1081 
10 466 751 190 452 1217 1247 1281 562 1248 1236 
10 781 759 450 735 917 1298 1294 999 1001 1245 
10 778 493 299 755 1103 1108 1261 799 1109 1043 
10 736 153 451 382 1299 614 1181 1182 389 1183 
10 386 153 451 736 405 614 1300 1301 1299 1181 
10 456 769 338 741 1079 1297 1272 1074 810 1279 
10 749 441 455 740 1253 647 1147 907 1203 1202 
10 441 749 726 740 1253 930 1205 1203 907 932 
10 168 414 777 492 418 1303 1302 503 1304 1152 
10 168 492 777 415 503 1152 1302 427 1167 1168 
10 749 453 472 464 1240 722 1193 1148 644 533 
10 777 53 779 187 786 842 843 1065 213 1014 
10 22 494 187 492 546 1015 211 502 548 1153 
10 168 777 177 415 1302 788 426 427 1168 425 
10 177 777 168 414 788 1302 426 419 1303 418 
10 734 746 498 449 991 1118 1289 1258 1264 708 
10 450 469 743 735 712 1305 1295 1245 1244 997 
10 449 498 461 746 708 590 707 1264 1118 1144 
10 193 485 29 457 1055 569 239 1056 573 571 
10 60 770 193 742 863 1054 247 867 868 1221 
10 484 344 11 769 1044 346 1306 1081 1086 809 
10 328 486 9 771 1224 1307 333 1225 1069 805 
10 472 14 15 464 532 131 1128 533 530 1269 
10 761 198 475 783 1308 1287 1213 888 1166 1293 
10 759 468 450 735 1309 715 1298 1001 1243 1245 
10 761 475 198 66 1213 1287 1308 887 1286 277 
10 498 734 475 783 1289 1257 593 1121 993 1293 
10 781 450 496 743 1294 714 1058 916 1295 1145 
10 744 491 459 730 1254 683 1310 966 1027 1311 
10 385 473 468 753 1313 611 1312 1314 1315 1316 
10 476 782 301 760 1291 1126 1290 1197 839 1317 
10 53 187 777 492 213 1065 786 1318 1153 1152 
10 201 53 777 492 205 786 1319 1320 1318 1152 
10 107 476 98 301 1321 602 323 315 1290 322 
10 98 476 107 302 602 1321 323 324 1196 321 
10 474 450 496 781 716 714 632 1322 1294 1058 
10 475 476 447 761 696 697 698 1213 1262 1051 
10 201 22 53 492 204 212 205 1320 502 1318 
10 187 53 22 492 213 212 211 1153 1318 502 
10 750 725 487 772 923 1276 1192 925 926 1265 
10 25 452 190 477 557 1236 225 555 559 1188 
10 737 762 56 190 854 849 853 1187 1186 228 
10 361 455 480 740 1282 621 1114 1143 1202 1142 
10 468 384 759 474 1324 1323 1309 608 1325 1326 
10 190 57 751 466 232 856 1247 1281 1280 1217 
10 191 751 57 466 1216 856 233 1218 1217 1280 
10 761 199 475 66 1164 1212 1213 887 278 1286 
10 96 493 105 300 512 1260 313 314 1104 312 
10 105 493 96 299 1260 512 313 310 1108 309 
10 459 491 445 730 683 684 682 1311 1027 1210 
10 456 30 484 195 574 576 524 1067 250 1078 
10 769 195 61 741 1080 253 871 810 1073 870 
10 498 449 475 734 708 711 593 1289 1258 1257 
10 728 469 463 443 1328 665 1327 1329 666 667 
10 756 471 449 782 1161 706 1263 836 1096 1292 
10 734 756 449 782 992 1263 1258 994 836 1292 
10 283 482 495 766 1330 544 1075 1085 1156 1012 
10 493 755 778 730 1109 799 1103 1155 973 974 
10 449 476 782 497 710 1291 1292 709 603 1095 
10 481 283 495 767 1331 1075 543 1141 1076 1013 
10 465 764 750 500 1332 924 1204 651 1227 1136 
10 751 726 785 500 931 936 937 1333 1135 1137 
10 301 107 476 760 315 1321 1290 1317 837 1197 
10 474 496 412 781 632 1061 1334 1322 1058 1062 
10 446 750 465 487 1133 1204 690 694 1192 641 
10 462 188 784 499 1131 1336 1335 553 1337 1249 
10 486 31 456 195 580 575 520 1068 249 1067 
10 62 195 771 741 257 1070 875 869 1073 804 
10 742 457 194 769 1185 1267 1338 872 1268 1083 
10 467 752 444 472 1229 1194 678 534 1088 677 
10 761 475 734 783 1213 1257 996 888 1293 993 
10 463 479 764 440 637 1339 1174 635 636 1175 
10 460 446 487 745 693 694 695 1238 1160 1159 
10 783 761 198 66 888 1308 1166 883 887 277 
10 463 764 748 725 1174 921 1340 1177 922 918 
10 476 107 302 760 1321 321 1196 1197 837 1139 
10 469 748 727 754 1342 942 1341 1343 950 948 
10 762 737 764 477 854 1005 990 1190 1189 1344 
10 751 785 737 500 937 1004 857 1333 1137 1288 
10 740 480 446 455 1142 692 1132 1202 621 691 
10 753 385 473 758 1314 1313 1315 896 1345 1346 
10 462 747 454 442 1064 1191 658 654 1271 659 
10 747 188 784 462 1130 1336 848 1064 1131 1335 
10 457 769 742 773 1268 872 1185 1052 811 960 
10 464 15 749 359 1269 816 1148 1150 364 1151 
10 453 191 27 466 1215 229 566 565 1218 561 
10 738 751 58 191 861 855 860 1235 1216 237 
10 752 467 444 773 1229 678 1194 890 1157 1053 
10 728 748 469 754 951 1342 1328 952 950 1343 
10 413 496 458 743 1057 631 1266 1146 1145 1347 
10 775 490 727 743 1278 1348 945 913 1349 947 
10 360 480 135 362 1032 617 371 373 1035 369 
10 142 765 360 362 901 1031 379 370 1034 373 
10 782 107 301 760 835 315 1126 839 837 1317 
10 490 775 413 743 1278 1351 1350 1349 913 1146 
10 478 487 440 725 642 640 634 1352 1276 1176 
10 60 193 29 742 247 239 246 867 1221 1353 
10 60 742 29 194 867 1353 246 248 1338 245 
10 764 465 750 440 1332 1204 924 1175 639 1275 
10 491 459 486 771 683 581 521 1226 1284 1069 
10 454 775 777 490 1228 910 1123 660 1278 1169 
10 487 750 465 440 1192 1204 641 640 1275 639 
10 442 733 748 463 1355 941 1354 656 1356 1340 
10 478 440 463 725 634 635 633 1352 1176 1177 
10 344 11 10 484 346 121 345 1044 1306 525 
10 194 29 457 742 245 571 1267 1338 1353 1185 
10 193 457 29 742 1056 571 239 1221 1185 1353 
10 328 8 9 486 334 114 333 1224 519 1307 
10 772 736 487 745 1002 1357 1265 979 899 1159 
10 200 771 459 744 1101 1284 1283 1358 876 1310 
10 463 748 442 469 1340 1354 656 665 1342 663 
10 498 475 35 198 593 591 589 1173 1287 269 
10 766 482 199 67 1156 1162 1163 791 1359 280 
10 737 477 452 479 1189 559 1237 1360 704 720 
10 469 735 753 754 1244 1000 1361 1343 998 955 
10 766 186 482 67 1363 1362 1156 791 209 1359 
10 782 476 449 734 1291 710 1292 994 1259 1258 
10 782 476 734 760 1291 1259 994 839 1197 995 
10 283 281 482 766 295 1364 1330 1085 1365 1156 
10 481 282 283 767 1366 294 1331 1141 1367 1076 
10 454 727 775 490 1256 945 1228 660 1348 1278 
10 463 469 728 748 665 1328 1327 1340 1342 951 
10 727 743 469 754 947 1305 1341 948 949 1343 
10 759 384 468 753 1323 1324 1309 893 1368 1316 
10 745 460 480 362 1238 618 1178 1179 1369 1035 
10 737 479 452 500 1360 720 1237 1288 721 719 
10 452 190 466 26 1236 1281 562 558 224 560 
10 57 751 737 190 856 857 852 232 1247 1187 
10 771 9 328 776 805 333 1225 806 802 1223 
10 491 8 328 486 518 334 1222 521 519 1224 
10 464 14 15 359 530 131 1269 1150 363 364 
10 764 465 479 500 1332 638 1339 1227 651 721 
10 481 302 108 767 1138 320 1370 1141 1140 794 
10 453 192 768 483 1233 1372 1371 567 1373 1374 
10 491 744 771 776 1254 876 1226 1124 969 806 
10 489 774 459 730 1112 1375 584 1255 967 1311 
10 481 108 298 767 1370 306 1376 1141 794 1377 
10 486 338 9 771 1273 340 1307 1069 1274 805 
10 451 758 386 736 1379 1378 1300 1181 900 1301 
10 478 763 463 728 1381 1380 633 1382 953 1327 
10 490 178 415 169 1383 424 1170 623 431 432 
10 490 413 178 169 1350 429 1383 623 430 431 
10 343 467 752 773 1220 1229 1384 1021 1157 890 
10 747 733 727 442 940 938 939 1271 1355 1385 
10 448 733 747 442 1386 940 1270 655 1355 1271 
10 727 733 748 442 938 941 942 1385 1355 1354 
10 733 442 448 463 1355 655 1386 1356 656 657 
10 738 192 768 453 1232 1372 862 1234 1233 1371 
10 476 497 98 301 603 598 602 1290 1125 322 
10 749 738 757 453 929 1007 817 1240 1234 1241 
10 763 736 487 772 1003 1357 1387 927 1002 1265 
10 458 442 490 743 664 661 628 1347 1388 1349 
10 495 85 283 481 542 292 1075 543 507 1331 
10 459 774 744 730 1375 879 1310 1311 967 966 
10 455 361 137 359 1282 375 619 1149 377 365 
10 740 361 359 144 1143 377 1219 905 380 366 
10 460 480 446 745 618 692 693 1238 1178 1160 
10 338 484 11 769 1296 1306 342 1297 1081 809 
10 482 186 36 67 1362 208 506 1359 209 279 
10 36 199 482 67 274 1162 506 279 280 1359 
10 767 90 283 780 793 297 1076 828 826 1077 
10 460 487 451 736 695 717 613 1180 1357 1181 
10 487 725 763 772 1276 919 1387 1265 926 927 
10 759 171 411 180 1390 422 1389 825 438 423 
10 759 412 171 180 1391 439 1390 825 433 438 
10 483 757 453 472 1285 1241 567 680 1087 722 
10 86 495 283 482 541 1075 293 505 544 1330 
10 442 748 727 469 1354 942 1385 663 1342 1341 
10 463 443 478 728 667 668 633 1327 1329 1382 
10 413 458 490 743 1266 628 1350 1146 1347 1349 
10 459 445 489 730 682 681 584 1311 1210 1255 
10 465 764 479 440 1332 1339 638 639 1175 636 
10 361 480 136 360 1114 616 374 376 1032 372 
10 360 143 361 765 378 381 376 1031 902 1115 
10 780 91 283 766 827 296 1077 829 789 1085 
10 728 753 469 443 954 1361 1328 1329 1392 666 
10 784 448 462 499 1393 653 1335 1249 702 553 
10 162 153 736 382 409 1299 898 390 389 1182 
10 153 736 386 162 1299 1301 405 409 898 410 
10 24 784 188 499 1394 1336 214 550 1249 1337 
10 24 189 784 499 220 1250 1394 550 1251 1249 
10 727 490 442 743 1348 661 1385 947 1349 1388 
10 778 105 300 756 798 312 1105 833 831 1106 
10 96 471 493 300 596 597 512 314 1092 1104 
10 196 32 459 63 260 579 1395 262 261 1396 
10 200 459 32 63 1283 579 254 263 1396 261 
10 749 441 453 464 1253 645 1240 1148 643 644 
10 458 469 442 743 662 663 664 1347 1305 1388 
10 477 737 764 479 1189 1005 1344 704 1360 1339 
10 775 413 178 490 1351 429 909 1278 1350 1383 
10 178 415 775 490 424 1277 909 1383 1170 1278 
10 462 448 784 747 653 1393 1335 1064 1270 848 
10 493 445 470 730 689 688 514 1155 1210 1026 
10 55 784 24 189 844 1394 221 223 1250 220 
10 24 784 55 188 1394 844 221 214 1336 222 
10 302 108 99 481 320 325 326 1138 1370 509 
10 99 108 298 481 325 306 305 509 1370 1376 
10 753 735 469 468 1000 1244 1361 1316 1243 669 
10 759 450 474 781 1298 716 1326 917 1294 1322 
10 489 196 459 774 1116 1395 584 1112 1097 1375 
10 469 743 735 754 1305 997 1244 1343 949 998 
10 362 745 460 382 1179 1238 1369 1397 1239 1184 
10 450 468 759 474 715 1309 1298 716 608 1326 
10 444 757 768 483 1195 964 1246 679 1285 1374 
10 487 736 763 478 1357 1003 1387 642 1398 1381 
10 444 768 485 483 1246 1171 673 679 1374 570 
10 479 737 764 500 1360 1005 1339 721 1288 1227 
10 500 751 726 441 1333 931 1135 650 1399 1205 
10 469 753 728 754 1361 954 1328 1343 955 952 
10 758 443 753 728 1400 1392 896 956 1329 954 
10 487 736 460 745 1357 1180 695 1159 899 1238 
10 344 488 125 343 1020 523 347 353 1019 351 
10 344 773 343 128 1022 1021 353 348 807 352 
10 469 743 727 442 1305 947 1341 663 1388 1385 
10 763 487 478 725 1387 642 1381 919 1276 1352 
10 736 478 487 451 1398 642 1357 1181 718 717 
10 463 763 478 725 1380 1381 633 1177 919 1352 
10 283 85 282 481 292 290 294 1331 507 1366 
10 90 283 282 767 297 294 291 793 1076 1367 
10 86 482 283 281 505 1330 293 286 1364 295 
10 478 758 736 763 1401 900 1398 1381 957 1003 
10 442 727 454 490 1385 1256 659 661 1348 660 
10 737 452 751 500 1237 1248 857 1288 719 1333 
10 459 744 196 63 1310 1402 1395 1396 873 262 
10 744 459 200 63 1310 1283 1358 873 1396 263 
10 771 491 459 744 1226 683 1284 876 1254 1310 
10 744 459 196 774 1310 1395 1402 879 1375 1097 
10 281 283 91 766 295 296 287 1365 1085 789 
10 736 758 478 451 900 1401 1398 1181 1379 718 
10 412 759 474 781 1391 1326 1334 1062 917 1322 
10 486 8 9 338 519 114 1307 1273 339 340 
10 492 415 168 490 1167 427 503 625 1170 624 
10 777 775 177 415 910 908 788 1168 1277 425 
10 763 748 463 728 920 1340 1380 953 951 1327 
10 726 453 749 441 1403 1240 930 1205 645 1253 
10 479 764 448 463 1339 1404 703 637 1174 657 
10 748 733 764 463 941 988 921 1340 1356 1174 
10 784 477 448 499 1252 705 1393 1249 556 702 
10 455 137 464 359 619 531 622 1149 365 1150 
10 749 740 359 144 907 1219 1151 815 905 366 
10 484 11 10 338 1306 121 525 1296 342 341 
10 59 193 768 28 243 1242 858 241 240 1405 
10 768 192 59 28 1372 242 858 1405 234 241 
10 470 327 6 299 1038 329 510 1042 1041 308 
10 7 299 327 755 307 1041 330 796 1043 1040 
10 733 762 764 477 989 990 988 1406 1190 1344 
10 751 500 466 441 1333 652 1217 1399 650 646 
10 411 474 171 759 1407 540 422 1389 1326 1390 
10 412 171 474 759 439 540 1334 1391 1390 1326 
10 458 496 450 743 631 714 713 1347 1145 1295 
10 763 478 758 728 1381 1401 957 953 1382 956 
10 743 469 450 458 1305 712 1295 1347 662 713 
10 727 454 747 442 1256 1191 939 1385 659 1271 
10 762 733 784 477 989 987 851 1190 1406 1252 
10 751 452 466 500 1248 562 1217 1333 719 652 
10 485 768 193 483 1171 1242 1055 570 1374 1408 
10 468 443 469 753 670 666 669 1316 1392 1361 
10 460 451 153 382 613 614 536 1184 1183 389 
10 162 736 745 382 898 899 820 390 1182 1239 
10 753 468 759 735 1316 1309 893 1000 1243 1001 
10 758 478 443 728 1401 668 1400 956 1382 1329 
10 161 473 152 385 1409 609 407 406 1313 400 
10 152 473 161 386 609 1409 407 404 1410 408 
10 448 764 733 463 1404 988 1386 657 1174 1356 
10 362 17 745 382 367 821 1179 1397 388 1239 
10 16 362 460 382 368 1369 535 387 1397 1184 
10 160 468 384 753 1411 1324 401 892 1316 1368 
10 468 160 385 753 1411 403 1312 1316 892 1314 
10 748 763 463 725 920 1380 1340 918 919 1177 
10 443 468 473 753 670 611 671 1392 1316 1315 
10 411 383 474 759 1413 1412 1407 1389 1414 1326 
10 386 451 473 758 1300 615 1410 1378 1379 1346 
10 385 468 151 160 1312 606 399 403 1411 402 
10 384 151 468 160 396 606 1324 401 402 1411 
10 135 480 460 362 617 618 537 369 1035 1369 
10 765 142 745 362 901 822 903 1034 370 1179 
10 760 108 302 767 838 320 1139 840 794 1140 
10 412 180 759 781 433 825 1391 1062 915 917 
10 474 412 496 171 1334 1061 632 540 439 629 
10 726 738 749 453 928 929 930 1403 1234 1240 
10 36 475 482 199 592 594 506 274 1212 1162 
10 761 766 199 67 889 1163 1164 886 791 280 
10 186 482 281 766 1362 1364 1415 1363 1156 1365 
10 481 298 282 767 1376 1416 1366 1141 1377 1367 
10 159 474 383 759 1417 1412 394 824 1326 1414 
10 474 159 384 759 1417 398 1325 1326 824 1323 
10 443 753 473 758 1392 1315 671 1400 896 1346 
10 481 99 302 476 509 326 1138 604 601 1196 
10 453 726 751 441 1403 931 1214 645 1205 1399 
10 768 757 453 483 964 1241 1371 1374 1285 567 
10 15 757 752 354 818 819 812 358 1091 1090 
10 472 14 467 354 532 528 534 1089 357 1230 
10 764 448 477 479 1404 705 1344 1339 703 704 
10 480 361 136 455 1114 374 616 621 1282 620 
10 143 740 361 765 904 1143 381 902 906 1115 
10 413 775 178 743 1351 909 429 1146 913 911 
10 169 490 413 458 623 1350 430 627 628 1266 
10 777 414 201 492 1303 1418 1319 1152 1304 1320 
10 448 784 747 733 1393 848 1270 1386 987 940 
10 453 757 768 738 1241 964 1371 1234 1007 862 
10 453 27 192 483 566 235 1233 567 563 1373 
10 738 58 768 192 860 859 862 1232 238 1372 
10 473 451 478 758 615 718 672 1346 1379 1401 
10 383 411 19 759 1413 421 391 1414 1389 823 
10 383 474 18 411 1412 539 392 1413 1407 420 
10 28 193 768 483 240 1242 1405 564 1408 1374 
10 28 768 192 483 1405 1372 234 564 1374 1373 
10 115 470 491 327 511 545 517 331 1038 1039 
10 327 776 118 755 1211 803 332 1040 830 795 
10 752 354 467 343 1090 1230 1229 1384 1419 1220 
10 751 466 453 441 1217 565 1214 1399 646 645 
10 188 462 23 499 1131 552 215 1337 553 549 
10 747 54 784 188 846 845 848 1130 218 1336 
10 32 459 489 196 579 584 582 260 1395 1116 
10 774 196 744 63 1097 1402 879 878 262 873 
10 477 764 733 448 1344 988 1406 705 1404 1386 
10 485 193 28 483 1055 240 568 570 1408 564 
10 768 59 770 193 858 864 865 1242 243 1054 
10 151 473 468 385 610 611 606 399 1313 1312 
10 753 160 385 758 892 403 1314 896 894 1345 
10 159 474 150 383 1417 538 397 394 1412 393 
10 159 384 150 474 398 395 397 1417 1325 538 
10 327 328 118 776 337 336 332 1211 1223 803 
10 491 328 115 327 1222 335 517 1039 337 331 
10 57 737 56 190 852 853 72 232 1187 228 
10 25 190 452 26 225 1236 557 41 224 558 
10 473 478 443 758 672 668 671 1346 1401 1400 
10 751 738 726 453 861 928 931 1214 1234 1403 
10 189 499 24 477 1251 550 220 1199 556 554 
10 784 55 762 189 844 850 851 1250 223 1206 
10 784 733 448 477 987 1386 1393 1252 1406 705 
10 742 194 61 769 1338 252 866 872 1083 871 
10 484 30 457 194 576 572 577 1082 244 1267 
10 153 473 152 386 612 609 157 405 1410 404 
10 386 758 161 162 1378 895 408 410 897 166 
10 281 2 482 186 284 504 1364 1415 207 1362 
10 282 4 298 481 289 303 1416 1366 508 1376 
10 5 282 298 767 288 1416 304 792 1367 1377 
10 186 281 3 766 1415 285 206 1363 1365 790 
10 759 159 384 753 824 398 1323 893 891 1368 
10 150 468 474 384 607 608 538 395 1324 1325 
10 8 456 10 338 515 516 122 339 1272 341 
10 338 11 9 741 342 123 340 1279 800 801 
10 153 451 473 386 614 615 612 405 1300 1410 
10 736 758 386 162 900 1378 1301 898 897 410 
10 744 200 771 62 1358 1101 876 874 258 875 
10 31 486 459 200 580 581 578 255 1100 1283 
10 161 473 385 758 1409 1313 406 895 1346 1345 
10 473 161 386 758 1409 408 1410 1346 895 1378 
10 773 752 343 128 890 1384 1021 807 814 352 
10 488 467 125 343 605 529 523 1019 1220 351 
10 152 473 151 385 609 610 156 400 1313 399 
10 161 385 160 758 406 403 165 895 1345 894 
10 61 195 62 741 253 257 77 870 1073 869 
10 30 456 31 195 574 575 46 250 1067 249 
10 35 475 36 199 591 592 51 275 1212 274 
10 108 302 107 760 320 321 112 838 1139 837 
10 58 751 57 191 855 856 73 237 1216 233 
10 466 191 27 26 1218 229 561 560 230 42 
10 199 66 761 67 278 887 1164 280 82 886 
10 98 302 99 476 324 326 103 602 1196 601 
10 327 7 6 299 330 95 329 1041 307 308 
10 12 354 13 343 355 356 124 350 1419 349 
10 24 25 189 477 40 219 220 554 555 1199 
10 55 56 762 189 71 849 850 223 227 1206 
10 201 1 0 414 203 20 202 1418 416 417 
10 362 16 17 382 368 134 367 1397 387 388 
10 171 18 474 411 176 539 540 422 420 1407 
10 19 759 411 180 823 1389 421 185 825 423 
10 414 0 201 492 417 202 1418 1304 501 1320 
10 201 777 1 414 1319 787 203 1418 1303 416 
10 354 752 13 343 1090 813 356 1419 1384 349 
10 354 12 467 343 355 527 1230 1419 350 1220 
10 456 8 486 338 515 519 520 1272 339 1273 
10 9 771 338 741 805 1274 340 801 804 1279 
10 413 170 169 458 437 174 430 1266 626 627 
10 178 179 413 743 183 428 429 911 912 1146 
10 768 58 59 192 859 74 858 1372 238 242 
10 28 192 27 483 234 235 43 564 1373 563 
10 16 460 153 382 535 536 158 387 1184 389 
10 17 162 745 382 167 820 821 388 390 1239 
10 746 197 64 65 1119 268 881 880 272 80 
10 33 461 34 197 585 586 49 265 1110 264 
10 61 60 194 742 76 248 252 866 867 1338 
10 30 29 457 194 45 571 572 244 245 1267 
10 2 281 3 186 284 285 21 207 1415 206 
10 4 298 5 282 303 304 84 289 1416 288 
10 4 282 85 481 289 290 87 508 1366 507 
10 482 86 2 281 505 89 504 1364 286 284 
10 282 5 90 767 288 92 291 1367 792 793 
10 193 28 29 485 240 44 239 1055 568 569 
10 770 193 59 60 1054 243 864 863 247 75 
10 32 31 459 200 47 578 579 254 255 1283 
10 63 200 744 62 263 1358 873 78 258 874 
10 3 281 91 766 285 287 94 790 1365 789 
10 769 11 338 741 809 342 1297 810 800 1279 
10 484 10 456 338 525 516 524 1296 341 1272 
10 186 766 3 67 1363 790 206 209 791 83 
10 467 14 12 354 528 132 527 1230 357 355 
10 752 13 15 354 813 133 812 1090 356 358 
10 5 298 108 767 304 306 113 792 1377 794 
10 471 96 97 300 596 101 595 1092 314 317 
10 300 105 106 756 312 110 311 1106 831 832 
10 36 482 2 186 506 504 52 208 1362 207 
10 151 468 150 384 606 607 155 396 1324 395 
10 384 159 160 753 398 164 401 1368 891 892 
10 23 24 188 499 39 214 215 549 550 1337 
10 55 784 54 188 844 845 70 222 1336 218 
10 177 1 777 414 181 787 788 419 416 1303 
10 168 0 414 492 172 417 418 503 501 1304 
10 99 298 4 481 305 303 104 509 1376 508 
10 777 1 53 201 787 68 786 1319 203 205 
10 22 201 0 492 204 202 37 502 1320 501 
10 16 135 460 362 138 537 535 368 369 1369 
10 142 17 745 362 145 821 822 370 367 1179 
10 53 54 779 187 69 841 842 213 217 1014 
10 23 187 22 494 210 211 38 547 1015 546 
10 6 493 470 299 513 514 510 308 1108 1042 
10 778 299 7 755 1261 307 797 799 1043 796 
10 85 283 86 495 292 293 88 542 1075 541 
10 283 90 91 780 297 93 296 1077 826 827 
10 299 7 105 778 307 109 310 1261 797 798 
10 493 6 96 299 513 100 512 1108 308 309 
10 178 177 775 415 182 908 909 424 425 1277 
10 490 415 168 169 1170 427 624 623 432 173 
10 137 14 464 359 141 530 531 365 363 1150 
10 359 15 749 144 364 816 1151 366 148 815 
10 18 150 474 383 154 538 539 392 393 1412 
10 19 159 383 759 163 394 391 823 824 1414 
10 496 412 170 171 1061 435 630 629 439 175 
10 781 412 180 179 1062 433 915 914 434 184 
10 136 361 137 455 374 375 140 620 1282 619 
10 144 740 361 143 905 1143 380 147 904 381 
10 383 18 19 411 392 149 391 1413 420 421 
10 6 470 115 327 510 511 117 329 1038 331 
10 7 327 118 755 330 332 120 796 1040 795 
10 98 497 97 301 598 599 102 322 1125 319 
10 301 106 107 782 316 111 315 1126 834 835 
10 35 34 498 198 50 588 589 269 270 1173 
10 783 198 65 66 1166 273 884 883 277 81 
10 489 33 32 196 583 48 582 1116 259 260 
10 64 196 774 63 267 1097 877 79 262 878 
10 773 344 11 128 1022 346 808 807 348 130 
10 10 125 344 488 127 347 345 522 523 1020 
10 765 360 143 142 1031 378 902 901 379 146 
10 135 136 480 360 139 616 617 371 372 1032 
10 13 343 752 128 349 1384 813 129 352 814 
10 125 467 12 343 529 527 126 351 1220 350 
10 8 328 115 491 334 335 116 518 1222 517 
10 328 9 118 776 333 119 336 1223 802 803 
10 447 761 760 732 1051 982 1036 1029 983 981 
10 761 447 760 476 1051 1036 982 1262 697 1197 

CELL_TYPES 661
24
24
24
24
24
24
24
24
24
24
24
24
24
24
24
24
24
24
24
24
24
24
24
24
24
24
24
24
24
24
24
24
24
24
24
24
24
24
24
24
24
24
24
24
24
24
24
24
24
24
24
24
24
24
24
24
24
24
24
24
24
24
24
24
24
24
24
24
24
24
24
24
24
24
24
24
24
24
24
24
24
24
24
24
24
24
24
24
24
24
24
24
24
24
24
24
24
24
24
24
24
24
24
24
24
24
24
24
24
24
24
24
24
24
24
24
24
24
24
24
24
24
24
24
24
24
24
24
24
24
24
24
24
24
24
24
24
24
24
24
24
24
24
24
24
24
24
24
24
24
24
24
24
24
24
24
24
24
24
24
24
24
24
24
24
24
24
24
24
24
24
24
24
24
24
24
24
24
24
24
24
24
24
24
24
24
24
24
24
24
24
24
24
24
24
24
24
24
24
24
24
24
24
24
24
24
24
24
24
24
24
24
24
24
24
24
24
24
24
24
24
24
24
24
24
24
24
24
24
24
24
24
24
24
24
24
24
24
24
24
24
24
24
24
24
24
24
24
24
24
24
24
24
24
24
24
24
24
24
24
24
24
24
24
24
24
24
24
24
24
24
24
24
24
24
24
24
24
24
24
24
24
24
24
24
24
24
24
24
24
24
24
24
24
24
24
24
24
24
24
24
24
24
24
24
24
24
24
24
24
24
24
24
24
24
24
24
24
24
24
24
24
24
24
24
24
24
24
24
24
24
24
24
24
24
24
24
24
24
24
24
24
24
24
24
24
24
24
24
24
24
24
24
24
24
24
24
24
24
24
24
24
24
24
24
24
24
24
24
24
24
24
24
24
24
24
24
24
24
24
24
24
24
24
24
24
24
24
24
24
24
24
24
24
24
24
24
24
24
24
24
24
24
24
24
24
24
24
24
24
24
24
24
24
24
24
24
24
24
24
24
24
24
24
24
24
24
24
24
24
24
24
24
24
24
24
24
24
24
24
24
24
24
24
24
24
24
24
24
24
24
24
24
24
24
24
24
24
24
24
24
24
24
24
24
24
24
24
24
24
24
24
24
24
24
24
24
24
24
24
24
24
24
24
24
24
24
24
24
24
24
24
24
24
24
24
24
24
24
24
24
24
24
24
24
24
24
24
24
24
24
24
24
24
24
24
24
24
24
24
24
24
24
24
24
24
24
24
24
24
24
24
24
24
24
24
24
24
24
24
24
24
24
24
24
24
24
24
24
24
24
24
24
24
24
24
24
24
24
24
24
24
24
24
24
24
24
24
24
24
24
24
24
24
24
24
24
24
24
24
24
24
24
24
24
24
24
24
24
24
24
24
24
24
24
24
24
24
24
24
24
24
24
24
24
24
24
24
24
24
24
24
24
24
24
24
24
24
24
24
24
24
24
24
24
24
24
24
24
24
24
24
24
24
24
24
24
24
24
24
24
24
24
24
24
24
24
24
24
24
24
24
24
24
24
24
24
24
24
24
24

POINT_DATA 1420
FIELD FieldData 11
Displacement 3 1420 double
0 0 0 0 0 0 0 0 0 
0 0 0 0 0 0 0 0 0 
-1.1363981538e-05 0 -1.4089060021e-05 -1.1423525625e-05 0 -1.4013078024e-05 -2.795770294e-06 0 4.6479649429e-05 
3.7535304412e-05 0 0.00010725846278 0.0020310649507 0 0.0010077163546 0.0019196018443 0 0.0010542971937 
0.0054174184253 0 0.00013395478067 0.0053689864755 0 0.00017009832786 0.0058176653137 0 0.00010767274579 
0.0059155236471 0 -9.1074941491e-05 0.0041746107407 0 -0.0049919914268 0.0041777598184 0 -0.0049905990945 
0 0 0 0 0 0 0 0 0 
0 0 0 0 0 0 0 0 0 
0 0 0 0 0 0 0 0 0 
0 0 0 0 0 0 0 0 0 
0 0 0 0 0 0 0 0 0 
0 0 0 0 0 0 0 0 0 
0 0 0 0 0 0 0 0 0 
0 0 0 0 0 0 0 0 0 
0 0 0 0 0 0 0 0 0 
0 0 0 0 0 0 0 0 0 
0 0 0 0 0 0 0 0 0 
0 0 0 0 0 0 0 0 0 
0 0 0 0 0 0 0 0 0 
0 0 0 0 0 0 0 0 0 
0 0 0 0 0 0 0 0 0 
0 0 0 0 0 0 0 0 0 
0 0 0 0 0 0 0 0 0 
0 0 0 0 0 0 0 0 0 
0 0 0 0 0 0 0 0 0 
0 0 0 0 0 0 0 0 0 
0 0 0 0 0 0 0 0 0 
0 0 0 0 0 0 0 0 0 
0 0 0 0 0 0 0 0 0 
0 0 0 0 0 0 0 0 0 
0 0 0 0 0 0 0 0 0 
0 0 0 0 0 0 -1.0041689377e-05 -6.535478271e-08 -1.2306558967e-05 
-9.1833554597e-06 0 -1.1717406492e-05 -6.0848389523e-06 0 -1.0670227505e-05 -3.9835247293e-06 0 -9.9540043762e-06 
-2.8812546123e-06 0 -7.9617032788e-06 -1.072735528e-05 0 -1.2722049642e-05 -7.5278054486e-06 0 -1.1075132746e-05 
-4.8897083538e-06 0 -1.0339921013e-05 -3.3510006893e-06 0 -9.2776991661e-06 -1.5462762566e-06 0 -6.9815915492e-06 
-9.1746237436e-06 0 -1.1784595683e-05 -6.1160406282e-06 0 -1.0696379099e-05 -4.0128911085e-06 0 -9.9505269682e-06 
-2.9107531115e-06 0 -8.0043763588e-06 -1.0685876367e-05 0 -1.2752164962e-05 -7.5592544331e-06 0 -1.1117566946e-05 
-4.9051145973e-06 0 -1.0343355604e-05 -3.3431480911e-06 0 -9.2762623118e-06 -1.5731656895e-06 0 -6.9882010024e-06 
1.4952959515e-05 -1.7886896648e-05 0.00010833242841 -9.9551726813e-06 0 -1.5910430522e-05 -1.4268679438e-05 0 1.718214583e-05 
-1.2135573231e-05 0 -1.2437931082e-05 -1.2057760647e-05 0 -2.233949378e-05 -7.7053805276e-06 0 4.8101530163e-05 
-1.3259370442e-05 0 -1.3985457105e-05 0.0019826522041 -0.00013351844006 0.0011031558322 0.0009116692816 0 0.00081069938457 
0.0008118149799 0 0.00071588663339 0.0054107468628 -2.1428688928e-06 0.00014314966283 0.0051335980145 0 1.8773452729e-05 
0.0052847347835 0 2.5951374697e-05 0.0040661325115 0 0.00094810438555 0.0051815873112 0 6.7962419684e-06 
0.0052933560177 0 1.2394761916e-05 0.0039801479263 0 0.00093292765443 0.0058849251024 3.0012652163e-06 -2.6644225547e-05 
0.0055349858627 0 0.00034588229904 0.0055516993677 0 0.00031789075233 0.0041659438577 4.7009546527e-06 -0.0049558910752 
0.0049670577307 0 -0.0042616158915 0.0059625359257 0 -0.0033049062948 0.0070552388545 0 -0.0022338913682 
0.0045324328253 0 -0.0046396276447 0.0054529213191 0 -0.0037752379617 0.0065507117693 0 -0.002834904401 
0.0069486178331 0 -0.0006744966676 0.0049716240757 0 -0.0042553892212 0.0059546042031 0 -0.0032890898106 
0.0070458119883 0 -0.0022066130796 0.00453791407 0 -0.0046330324488 0.0054505496411 0 -0.0037692338672 
0.0065465332317 0 -0.0027923698068 0.0069319292865 0 -0.00070878371918 0 0 0 
0.00027069212069 0 -0.00028312729742 0.0017469367419 0 -0.0017393473443 0.0040756905206 0 -0.0042558657584 
0.0043948813914 0 -0.0056816772158 6.9249590014e-05 0 -7.285766032e-05 0.0007754919762 0 -0.00073877410984 
0.0031099502138 0 -0.0031377142096 0.0044915943071 0 -0.0052071294898 0.0042816576905 0 -0.0054839217333 
0.00030910059867 0 -0.00030757222828 0.0016288450096 0 -0.0017410611252 0.0041524472135 0 -0.0042406197099 
0.0043825682237 0 -0.0056912198069 6.973262693e-05 0 -8.7797992419e-05 0.00070928103211 0 -0.00068428251886 
0.0031854045044 0 -0.0032231626505 0.0045174993749 0 -0.0051817713971 0.004279837293 0 -0.0054742511386 
0 0 0 0 0 0 0 0 0 
0 0 0 0 0 0 0 0 0 
0 0 0 0 0 0 0 0 0 
0 0 0 0 0 0 0 0 0 
0 0 0 0 0 0 0 0 0 
0 0 0 0 0 0 0 0 0 
0 0 0 0 0 0 0 0 0 
0 0 0 0 0 0 0 0 0 
0 0 0 0 0 0 0 0 0 
0 0 0 0 0 0 0 0 0 
0 0 0 0 0 0 0 0 0 
0 0 0 0 0 0 0 0 0 
0 0 0 0 0 0 0 0 0 
0 0 0 0 0 0 0 0 0 
0 0 0 0 0 0 0 0 0 
0 0 0 0 0 0 0 0 0 
0 0 0 0 0 0 0 0 0 
0 0 0 0 0 0 0 0 0 
0 0 0 0 0 0 0 0 0 
0 0 0 0 0 0 0 0 0 
0 0 0 0 0 0 0 0 0 
0 0 0 0 0 0 0 0 0 
0 0 0 0 0 0 0 0 0 
0 0 0 0 0 0 0 0 0 
0 0 0 0 0 0 0 0 0 
0 0 0 0 0 0 0 0 0 
0 0 0 0 0 0 0 0 0 
0 0 0 0 0 0 0 0 0 
0 0 0 0 0 0 0 0 0 
0 0 0 0 0 0 0 0 0 
0 0 0 0 0 0 0 0 0 
0 0 0 0 0 0 0 0 0 
0 0 0 0 0 0 0 0 0 
0 0 0 0 0 0 0 0 0 
0 0 0 0 0 0 0 0 0 
0 0 0 0 0 0 0 0 0 
0 0 0 0 0 0 0 0 0 
0 0 0 0 0 0 0 0 0 
0 0 0 0 0 0 0 0 0 
0 0 0 0 0 0 0 0 0 
0 0 0 0 0 0 0 0 0 
0 0 0 0 0 0 0 0 0 
0 0 0 0 0 0 0 0 0 
0 0 0 -2.2420651512e-06 -3.2428322711e-08 -6.0725381856e-06 -1.0681118101e-05 -2.3022945636e-08 -1.2798121913e-05 
-7.569313596e-06 -2.5647334274e-08 -1.1023730062e-05 -4.9019551123e-06 1.3066266557e-10 -1.0340174999e-05 -3.3448148317e-06 5.3604599476e-09 -9.3088802447e-06 
-1.0176757596e-06 -5.0526674358e-08 -4.7987624854e-06 -1.0259529237e-06 2.3802838319e-08 -4.7920320036e-06 -2.5128582847e-06 4.6692766277e-09 -7.3774604389e-06 
-2.5593873748e-06 1.499367488e-08 -7.3028055142e-06 -1.0839038298e-05 -5.7199109698e-08 -1.3362456881e-05 -1.0979350679e-05 -3.3775849059e-08 -1.334281085e-05 
-1.0049032704e-05 5.2019072907e-09 -1.2243626517e-05 -9.9742257646e-06 -3.0115427411e-08 -1.2201573163e-05 -6.8055971832e-06 -1.2863780302e-08 -1.0868116126e-05 
-8.376938177e-06 1.3248771628e-08 -1.1389904119e-05 -9.2356967188e-06 -2.787092998e-08 -1.182652408e-05 -8.3561109499e-06 -2.7442456421e-08 -1.1370473431e-05 
-4.4280928904e-06 -1.0051751342e-09 -1.0175469618e-05 -5.471192617e-06 -8.7013966941e-09 -1.0517113598e-05 -6.7888586764e-06 -9.5919101383e-09 -1.0844304393e-05 
-6.0944632647e-06 -1.1344249167e-08 -1.0687687305e-05 -5.4630719131e-06 -2.5457997374e-09 -1.0505852886e-05 -3.0952213488e-06 1.4792141101e-09 -8.7622695894e-06 
-3.6490565185e-06 -4.4102483916e-10 -9.6730381731e-06 -4.4057649163e-06 2.3628040996e-09 -1.0175305419e-05 -3.9976789878e-06 -3.4935752644e-10 -9.9475670729e-06 
-3.638703579e-06 -6.7034353125e-09 -9.6628432447e-06 -2.84642273e-06 3.9108029909e-08 -8.0825285021e-06 -3.082674782e-06 1.3574711608e-08 -8.7605879502e-06 
-5.307115514e-06 -1.0119577748e-06 -9.0298947206e-06 8.8672459346e-07 -6.8344978813e-07 -9.3560204762e-06 -1.0262120655e-05 2.5823902769e-07 -1.2013817037e-05 
-1.0576898605e-05 -1.1783312954e-06 -1.177605053e-05 -1.0496774559e-05 -3.3882952563e-07 -1.1521981097e-05 -1.0300268487e-05 -1.0239659965e-06 -1.4483261673e-05 
3.9113024804e-06 -5.2066996321e-06 2.4271116109e-05 -8.248740663e-06 4.5032243947e-06 6.3943966983e-06 -1.306273137e-05 -1.5797114691e-07 -8.1160731171e-06 
-1.1975887042e-05 2.2740634516e-07 -1.0465299073e-05 -2.8649522391e-06 -4.065442412e-07 -5.7256858105e-06 0.00037817237157 -3.3958090381e-05 0.00053108602655 
0.00014557593163 -1.5160667788e-06 0.00024856369676 0.00018997031985 -4.5312507608e-05 0.00030396209341 0.0011110601346 4.9004622143e-05 0.00076659088261 
0.0011077168219 -4.088301817e-05 0.00076304087434 0.0054067690522 -1.7395076211e-05 -4.1763969391e-05 0.004597012876 -3.8507688541e-05 0.0010608055824 
0.0032636686529 5.2032243349e-05 0.00090976299334 0.0031841798299 -3.4185824938e-05 0.0011256750064 0.0047532236138 -4.6500096429e-05 0.00059120449547 
0.0047345034382 3.6234910551e-05 0.0007233539846 0.0053557572873 2.1211284361e-06 7.3539855969e-05 0.0053603750141 -2.6395973729e-05 5.0293376409e-05 
0.0051402924501 4.2363240751e-05 -2.8300586427e-05 0.005126707367 -7.7739585209e-05 -8.1593484743e-05 0.0051011953331 -5.5874456911e-05 8.8454625367e-05 
0.0053922346169 2.0891972156e-05 0.00038329664294 0.0054042290152 1.0707789452e-05 0.00026484832727 0.0053835079151 8.9998838654e-06 0.00026825135269 
0.0055755246619 3.648535123e-05 0.00028375820878 0.005629188054 1.0511596892e-05 0.00024650727965 0.0069823870733 3.8172862988e-05 -0.0014363722746 
0.0054398061122 1.4014300544e-06 -0.00377515409 0.0064997841338 9.7209059286e-06 -0.0027452772487 0.0046299457559 3.8089850655e-06 -0.0044854524868 
0.0069179688731 -3.5742192661e-05 -0.00027374188892 0.0068674925935 8.4869011823e-06 -0.00040549835338 0.0071529738947 9.145742781e-06 -0.0018743266515 
0.0071200092129 3.4659463108e-05 -0.0018403262714 0.0043833965131 7.6009126078e-07 -0.0047558272977 0.0043778688048 3.7754564208e-06 -0.0047590350239 
0.0048030415038 6.751826944e-07 -0.0043932111972 0.0048054678479 1.1440566326e-06 -0.0043861274236 0.0052036760601 -2.8448309896e-06 -0.0040197221367 
0.0057026442746 1.6280344093e-06 -0.0035414332674 0.0050120736422 3.0449814898e-06 -0.0041724121271 0.0062451773581 -1.982161387e-06 -0.0030490581454 
0.0067757786454 2.2915069463e-05 -0.0025160754294 0.0059563062231 1.1810730323e-06 -0.0032756159885 0.0069249029332 3.8193145788e-06 -0.0021319013768 
0.005702847755 7.7454863372e-08 -0.0035329621774 0.0052035455837 4.250540185e-06 -0.0040181135282 0.0067759149917 -3.0561285008e-05 -0.0024843527633 
0.0062356629599 7.7230621137e-06 -0.0030342757536 0.0042073261815 3.4427367299e-06 -0.005423039107 3.7369218117e-05 2.8702238967e-06 -5.5384880037e-05 
0.00072049792268 3.4707859091e-07 -0.0006149963416 0.0030718480239 9.6606213446e-06 -0.0031854898995 0.004496933742 1.5747187293e-05 -0.0052255784765 
0.0042016489007 9.5971595414e-07 -0.0052520758319 0.0042029312254 2.139848714e-06 -0.0052420622791 0.0043050822917 -4.5224084482e-06 -0.0056409493448 
0.0043041351758 2.6128386913e-06 -0.0056499290301 -2.865877854e-06 9.5098159627e-06 4.04406901e-05 4.7483957919e-06 1.8841055528e-06 4.1872261204e-05 
0.00014617363443 -1.0530349559e-05 -0.0001790637791 0.00015590884305 4.2863294761e-06 -0.00019939890624 0.00046560158334 1.9014231472e-05 -0.00047765712328 
0.0011652963215 7.2117972385e-07 -0.0011529698993 0.00030592378012 1.3588307609e-05 -0.00030693653486 0.00048699925568 -7.459907613e-06 -0.00047311103294 
0.0023564723944 -2.505254028e-05 -0.002324487117 0.0036406596952 8.2235850915e-06 -0.0037902260899 0.0010932119303 4.6413320505e-06 -0.0010814791156 
0.0016512890616 -2.0246179582e-05 -0.0017405432477 0.0023253870154 1.919760163e-05 -0.002342037677 0.0044113328689 -1.4367511485e-05 -0.0047093192532 
0.0044610705145 7.3963779759e-06 -0.0055353994483 0.0037100809509 8.4550901921e-06 -0.0038257276604 0.0041398867349 4.0188157738e-05 -0.004265363131 
0.0044162427906 2.0783241636e-05 -0.0047055880014 0.0043985771651 8.235465297e-06 -0.0056773124689 0.0044651658636 6.0273239279e-06 -0.0055392008254 
0 0 0 0 0 0 0 0 0 
0 0 0 0 0 0 0 0 0 
0 0 0 0 0 0 0 0 0 
0 0 0 0 0 0 0 0 0 
0 0 0 0 0 0 0 0 0 
0 0 0 0 0 0 0 0 0 
0 0 0 0 0 0 0 0 0 
0 0 0 0 0 0 0 0 0 
0 0 0 0 0 0 0 0 0 
0 0 0 0 0 0 0.00081713041484 0 -0.00066908335228 
0.0017466428398 0 -0.00092721324104 -5.2432545432e-06 0 -2.2838866114e-05 0.00017605142554 0 -0.00023197259863 
0.0013800484711 0 0.0001587422934 -7.81466373e-06 0 -6.1047431673e-06 0.0054768776455 0 -0.0040876773529 
-1.7010493907e-07 0 -5.6344107041e-06 -1.8955649648e-06 0 -1.5509768727e-05 -2.9092693309e-06 0 -6.5490621057e-06 
1.3413225388e-05 0 -1.9195807881e-05 0.0039996942077 0 -0.0044428300841 1.1111528875e-05 0 1.1119064553e-06 
0.00046746355741 0 -0.0001528286676 -5.3486423106e-06 0 -9.3990363664e-06 0.0061627495651 0 -0.0032323021994 
1.1186900636e-06 0 2.3458825117e-06 4.913488923e-05 0 2.1634212853e-06 2.4414343342e-06 0 -7.240899744e-06 
-7.572032921e-07 0 6.6633920342e-07 0.0051993154942 0 -0.0051593343989 -3.0767249433e-06 0 -4.1658461409e-06 
-3.3949994724e-06 0 -1.0421074605e-05 2.2189618989e-05 0 -5.3592939659e-05 0.0050808625996 0 -0.0018080411336 
0.002350285642 0 -0.0015998355597 8.8569263165e-05 0 -2.9279463355e-05 0.0045424565763 0 0.00014647224404 
0.00012869868093 0 -0.00013758309982 8.749551188e-06 0 -2.4335769775e-05 -1.3054132436e-05 0 -9.8394950197e-06 
-6.2064497862e-06 0 -8.5917598182e-06 0.0035938497306 0 -0.00032098091185 0.0020197263505 0 -0.0024834766116 
9.4021544722e-08 0 -2.0438070173e-05 -2.1982967905e-07 0 -4.0727436766e-06 -2.1167639693e-06 0 -7.9524285996e-06 
6.5479336549e-06 0 -8.4379058049e-06 0.00090387488913 0 -0.0010327013349 4.7449082153e-05 0 -5.0370113819e-05 
0.0059490111293 0 -0.0043299837678 -8.1918974346e-07 0 -5.9379975477e-06 9.2222031749e-07 0 -2.7961833449e-06 
0.00019487307529 0 -1.6015277621e-05 9.0911154183e-05 0 -4.4238777974e-06 7.2835019782e-05 0 1.1451909987e-06 
1.30981194e-05 0 8.8714517356e-06 0.0034602013255 0 -0.0030123233127 0.002126804885 0 0.00011952621719 
-1.9904786988e-06 0 -2.1943684028e-06 -3.1897456115e-06 0 -6.9196404779e-06 -2.2119141491e-05 0 -4.6190318059e-06 
-3.3003984023e-06 0 -4.2177786973e-06 -9.5513954241e-06 0 -1.0267479935e-05 -3.5410263715e-06 0 -5.1500295974e-06 
3.3015020475e-07 0 -3.6013222204e-06 -2.6026838602e-06 0 -1.3094330269e-05 -4.2295809262e-06 0 -9.080952743e-06 
-9.9623426742e-07 0 -2.9044103438e-06 -8.6627852137e-07 0 -6.9919805654e-06 0.00028826984809 0 -0.00014642948097 
-1.8414197267e-06 0 -2.0316814784e-06 -2.518554418e-06 0 -2.5184387603e-06 -1.8786792497e-06 0 -2.954801803e-06 
8.336160604e-07 0 -1.2709562476e-06 6.9603994145e-07 0 -2.0276613746e-06 7.660045188e-07 0 -1.5486118009e-06 
-4.400358343e-08 0 -3.624878046e-06 -7.4989947096e-07 0 -4.7138311304e-06 -1.853063642e-06 0 -7.1893819643e-06 
-1.199381714e-05 0 -1.3071808769e-05 -1.4591018572e-05 0 -1.3699855583e-05 -9.3256186426e-06 0 -1.1107569396e-05 
-1.1101434107e-05 0 -1.2534375743e-05 -1.1008107676e-05 0 -1.01702959e-05 -1.236377945e-05 0 -1.5326303465e-05 
0.00045008927652 0 0.000244714945 -1.9490491281e-05 0 -1.5681204875e-05 -3.6036477312e-05 0 -8.5246561388e-06 
-3.494590801e-05 0 -1.6254383745e-05 4.0865820777e-06 0 -7.4307223595e-06 -1.4530629733e-05 0 5.3906919573e-06 
0.0023093388007 0 0.00036194225987 0.0038489256849 0 9.025388881e-05 2.226874465e-05 0 4.6242490519e-05 
0.00097966381424 0 0.00026936418123 0.00094484645249 0 0.00012365992003 0.0051540869489 0 0.00015787155963 
0.0052432499902 0 0.00014805130297 0.0047410721938 0 0.00015077225884 0.0058170624524 0 -0.0013522958046 
0.0065293760507 0 -0.0021805901994 0.0051876461409 0 -0.00029591621607 0.0044442586558 0 -0.001195245884 
0.0041393811558 0 8.866242812e-05 0.0046844239497 0 -0.0051827154153 0.0045498245049 0 -0.0055586224693 
0.005152311111 0 -0.0048269272325 2.9733983804e-05 0 -6.829452872e-05 -9.9911920247e-06 0 -3.4987528901e-06 
1.5391671397e-06 0 -4.3673936906e-06 4.3139490016e-07 0 -1.8280179238e-06 2.189974877e-07 0 -2.3583125005e-06 
-7.3624273424e-08 0 -4.7227360536e-06 6.6439997968e-07 0 -3.3585320203e-06 -1.5399944293e-05 0 -8.8885982547e-06 
-2.2685401942e-06 0 -2.3590299323e-06 -1.7949184028e-06 0 -2.6237223639e-06 -3.8086205709e-06 0 -4.6922151787e-06 
-1.2473964233e-06 0 -3.2919800928e-06 -4.8779139088e-07 0 -3.2655986998e-06 -3.8318188005e-06 0 -7.690268011e-06 
-2.3968122597e-06 0 -5.055107568e-06 -2.2363109504e-06 0 -8.678636252e-06 5.0798884212e-07 0 -3.8047618616e-06 
5.5902154996e-07 0 -3.7125117477e-06 2.1763469522e-06 0 -7.5902719816e-06 -2.0082472198e-06 0 1.5304998386e-07 
-9.139936085e-06 0 -6.536667075e-06 7.5129106182e-06 0 -2.38898546e-07 3.769793172e-06 0 -5.3897275541e-06 
4.6749160504e-06 0 -8.2531728008e-06 3.2959449896e-05 0 -3.673297776e-05 2.5684946126e-05 0 -5.0803996768e-06 
3.9276556675e-05 0 -6.2171882268e-06 0.00023526344544 0 -0.00010505906501 7.4306807792e-05 0 -3.6401480127e-05 
0.00034604075119 0 -3.9280512073e-05 2.0210304507e-05 0 -1.29335899e-06 2.3546950295e-05 0 -1.1469749228e-06 
0.00012449375246 0 -8.6770138655e-06 2.371874491e-05 0 -1.8304674243e-07 1.7345291788e-05 0 -1.2697966116e-06 
4.7071126743e-05 0 6.0515678241e-06 8.0196611446e-06 0 7.6040552961e-06 3.5979476828e-06 0 -3.7844146534e-06 
2.8189561406e-05 0 -8.6571845595e-06 7.296727666e-05 0 -4.3417156105e-06 1.102363054e-06 0 -1.6391011631e-06 
-1.6112923617e-07 0 -3.7687669538e-07 5.2605741587e-06 0 2.6750122352e-06 4.5570628139e-06 0 4.3895840253e-07 
-7.5155186971e-07 0 -1.198062095e-06 -1.0145606983e-06 0 -1.2677548243e-06 -1.6443317098e-06 0 -1.5155564657e-06 
-1.7551129754e-06 0 -1.9730646743e-06 -1.3294249548e-06 0 -2.094558676e-06 -3.0869595119e-06 0 -3.0531177294e-06 
-6.1900094533e-07 0 -1.4541603996e-06 -2.5731572401e-07 0 -1.4419938114e-06 -1.9139793154e-06 0 -3.5078758754e-06 
-2.5117147486e-08 0 -2.0562827945e-06 4.7479725398e-07 0 -1.9936424105e-06 -6.8158157707e-07 0 -3.5088289361e-06 
4.8828436138e-07 0 -3.541236104e-06 -6.2566340021e-06 0 -9.826725061e-06 -7.6987409906e-06 0 -1.0182995273e-05 
-7.7459548346e-06 0 -9.3328826121e-06 -4.1078849683e-06 0 -9.680475586e-06 -5.1968966228e-06 0 -9.9048009823e-06 
-5.1486618734e-06 0 -8.8584509968e-06 -2.3643802818e-06 0 -8.4572386366e-06 -3.1728989086e-06 0 -9.1451115925e-06 
-3.1492958978e-06 0 -8.5698566085e-06 -1.3873879625e-06 0 -7.3709154861e-06 0.0034810737061 0 0.00012325055117 
0.00062295671831 0 -0.00060416659407 0.00020661773673 0 -0.0002234209592 2.0661683853e-05 0 -4.8792969463e-05 
0.0031267734907 0 -0.0034915010893 0.0018644401615 0 -0.001981279997 0.0006824323 0 -0.00077421062096 
0.0038339281733 0 -0.0049111096077 0.0047800330648 0 -0.0050478053326 0.0042738152669 0 -0.0054341331942 
0.0030008060466 0 -0.0036086571065 0.0060192964933 0 -0.0039003088436 0.0054829093366 0 -0.0043580129193 
0.0055378057491 0 -0.0048022225225 0.0067612693035 0 -0.0029334358944 0.0065107528179 0 -0.0034997890053 
0.0062437136112 0 -0.003866408371 0.0057417886318 0 -0.0025862959304 -1.4733833998e-06 0 -4.3636677253e-06 
-1.9454801684e-06 0 -3.88080506e-06 -3.4776270932e-06 0 -5.7662321438e-06 1.3912518956e-06 0 -7.0323040971e-06 
-6.3778679428e-07 0 -4.9080613907e-06 -2.9007138829e-06 0 -6.9108408653e-06 -9.0473874131e-07 0 -4.4948848769e-06 
-8.5929562186e-07 0 -7.173022129e-06 2.7806777371e-06 0 -9.9293436852e-06 -3.4398453939e-06 0 -1.7531877413e-05 
0.00022373473794 0 -0.00022514535391 0.00092771340968 0 -0.00086680120801 0.00016214372387 0 -0.00016588582826 
0.00022033922761 0 -0.00019482186435 3.6295033124e-05 0 -5.1756151265e-05 0.00059601977264 0 -0.00048719425602 
0.0014991900336 0 -0.0011879708997 0.0019725395774 0 -0.0016724523341 0.00296266821 0 -0.0023272651531 
0.0020743274258 0 -0.002072099314 0.0035145876114 0 -0.0014630788105 0.0028364527356 0 -0.00093977070749 
0.0012738924355 0 -0.00031237855607 0.00053537644695 0 -0.00029315405838 0.004377177158 0 -0.0022080713074 
0.0022373430228 0 -0.0012204608564 0.0045640831669 0 -0.0027614166328 0.00088302352073 0 -0.00054272487818 
0.0011591173851 0 -0.0006538137417 0.00014183695466 0 -9.6358916158e-05 -2.2859082868e-06 0 -1.2621559235e-05 
-4.2717943023e-06 0 -1.6395452562e-05 -3.5004778077e-06 0 -1.6847577601e-05 -6.2357155426e-06 0 -2.2736081012e-05 
4.1391630439e-06 0 -2.7661477997e-05 -4.8882394886e-06 0 -1.0711582595e-05 -6.3167571466e-06 0 -1.4724300645e-05 
-4.5550871893e-06 0 -8.1899295205e-06 -5.1328157419e-06 0 -1.1605311179e-05 4.3211208013e-06 0 -1.152606096e-05 
-5.6015541736e-06 0 -2.3186520419e-05 -3.7749332747e-06 0 -1.3003389378e-05 -4.7949517478e-07 0 -4.0559161554e-05 
1.941966502e-05 0 -4.9131922987e-05 7.1377431235e-05 0 -0.00012597514354 0.00044858475292 0 -0.00059755358975 
2.543411729e-05 0 -2.8491871036e-05 0.00016048060498 0 -0.00015352561866 0.00099353554475 0 -0.0010887154736 
0.0015774573076 0 -0.0017708993373 0.00037726265899 0 6.298819253e-05 0.00046537938791 0 4.656218667e-05 
0.0017802762608 0 1.89543461e-05 0.00068489535187 0 3.0610179766e-05 0.0024688266888 0 1.0164271282e-06 
0.0031687947269 0 0.00013119544311 0.00068828773023 0 -1.1719861783e-05 0.0013288815572 0 -0.00015349455694 
-5.5459013273e-06 0 -3.6745232107e-06 -6.4952984076e-06 0 -2.6831501543e-06 -7.817754137e-06 0 1.306478288e-06 
-1.1983457501e-05 0 -4.5897515684e-06 -7.0648958576e-06 0 -7.6579404157e-06 -4.77279881e-06 0 -6.4309650983e-06 
-4.983270938e-06 0 -4.9945602561e-06 -1.0535386091e-05 0 -7.2193159508e-06 -9.3493682769e-06 0 -8.3371942114e-06 
0.0041261788728 0 -0.0030303210725 0.0058277700671 0 -0.0037275706117 0.005880115414 0 -0.0043320204218 
0.0054470673637 0 -0.0047570510696 0.004578670314 0 -0.0037167623976 0.0048385278454 0 -0.0045378521764 
-1.0598038353e-06 0 -6.2025815639e-06 -1.090042173e-06 0 -6.901740753e-06 -1.8057080355e-07 0 -4.9988203582e-06 
5.2652796039e-07 0 -4.2040516426e-06 -4.4988322333e-07 0 -6.0176114988e-06 1.975702175e-07 0 -4.8377954743e-06 
-1.3303814083e-06 0 -1.1805486103e-05 9.7363110441e-06 0 -2.2265951902e-05 2.2691575605e-06 0 -1.921014796e-05 
-2.5625785372e-07 0 -1.3377924484e-05 -4.4261859894e-06 0 -7.5307206547e-06 -3.1582327726e-06 0 -5.374927397e-06 
-1.927887369e-06 0 -4.7927827106e-06 -3.5981303965e-06 0 -7.9368918692e-06 -2.5013330614e-06 0 -7.3925518522e-06 
-1.4318965401e-06 0 -5.3600845244e-06 1.4989559256e-05 0 -1.5080256685e-05 6.9564911615e-06 0 -1.0769425484e-05 
3.5888593303e-06 0 -1.707528483e-05 1.8089795191e-05 0 -2.2200654836e-05 -1.9703734524e-06 0 -2.6104969573e-05 
0.0036941864604 0 -0.0038616580974 0.002461975406 0 -0.0026709971742 6.6911822506e-05 0 -3.7589116584e-05 
1.831029958e-05 0 -1.1183765313e-05 0.00014952601408 0 -0.00010002718071 0.0020446300478 0 -0.00052110188706 
-4.7110247895e-06 0 -7.6051334587e-06 -4.4756230548e-06 0 -6.3267102308e-06 0.00077968337071 0 -0.0006713733873 
0.0017559914176 0 -0.00094881698016 -4.7628867651e-06 0 -1.8905893782e-05 0.00019023203355 0 -0.00020545639346 
0.0012874880042 0 0.00016246653364 -7.8954910245e-06 0 -6.3202967901e-06 0.0054148093657 0 -0.0040791473471 
-1.8156630999e-07 0 -5.6326646412e-06 -1.8239632739e-06 0 -1.7638005225e-05 -2.9062917173e-06 0 -6.5384711653e-06 
1.2370438185e-05 0 -1.9599001304e-05 0.0040060665285 0 -0.0043611882684 2.1331538419e-05 0 -7.3204433122e-06 
0.00047162913491 0 -0.00013964258071 -5.2924567529e-06 0 -8.9423913806e-06 0.0062030490292 0 -0.003278232836 
6.2301778752e-06 0 1.205463046e-05 6.2363239199e-05 0 -3.8849408733e-07 1.4233061067e-06 0 -8.2430031519e-06 
6.7264054437e-07 0 -7.5110006158e-07 0.0052237901578 0 -0.0051557391756 -3.0894034868e-06 0 -4.0888581383e-06 
-3.5033229796e-06 0 -9.8515181329e-06 2.1928819895e-05 0 -5.0769630879e-05 0.0052245075946 0 -0.0017417286733 
0.0023918804224 0 -0.0016426163802 7.0924224477e-05 0 -2.0682512079e-05 0.0045384089831 0 0.00014121830513 
0.00013731278809 0 -0.0001410320028 7.3746913898e-06 0 -1.8816381724e-05 -1.2664489437e-05 0 -1.012688653e-05 
-6.2500643543e-06 0 -8.6057473229e-06 0.003464964702 0 -0.0002548698045 0.0019156423421 0 -0.0025104675677 
-5.912611374e-06 0 -1.23388398e-05 -2.0928443054e-06 0 -7.914634216e-06 -1.8130984702e-07 0 -4.0896958509e-06 
7.9047527006e-06 0 -4.7529176601e-06 0.00091985326487 0 -0.0010062354385 3.2996343053e-05 0 -3.5843641039e-05 
0.0059522550575 0 -0.0043636579147 9.5138522181e-07 0 -2.8226612294e-06 -8.2625530669e-07 0 -5.8989141718e-06 
0.00020370466889 0 -3.7830378178e-06 7.1256938716e-05 0 1.0347198035e-05 8.2529987955e-05 0 1.5237577381e-05 
1.1068920073e-05 0 -4.6769834045e-07 0.0034110747069 0 -0.0030213661526 0.0020966284546 0 7.9046309702e-05 
-2.4145913925e-06 0 -1.8698245336e-06 -3.4208912204e-06 0 -7.196756369e-06 -2.203769756e-05 0 -2.6785886711e-06 
-3.2153392264e-06 0 -4.2127429882e-06 -9.5403925465e-06 0 -1.0466310353e-05 -3.5673789163e-06 0 -4.911788816e-06 
3.3945181733e-07 0 -3.5684206075e-06 -1.911215114e-06 0 -1.2194984938e-05 -4.2343170103e-06 0 -9.0814783778e-06 
-9.9944654678e-07 0 -2.9047006792e-06 -1.1122050512e-06 0 -7.4361847641e-06 0.00029323318639 0 -0.00014788916617 
-2.4031433502e-06 0 -2.512832715e-06 -1.8043547946e-06 0 -2.0403003509e-06 -1.8691456185e-06 0 -3.0335376545e-06 
7.0103812805e-07 0 -2.0231006004e-06 8.3260516833e-07 0 -1.2806756938e-06 7.3543164417e-07 0 -1.5521675886e-06 
-7.487685785e-07 0 -4.6729432686e-06 -4.7783317521e-08 0 -3.5951914042e-06 -1.8248985843e-06 0 -7.1757262816e-06 
-1.507084901e-05 0 -1.5288124968e-05 -1.2009170378e-05 0 -1.3236696897e-05 -1.114316002e-05 0 -1.2602302106e-05 
-9.3149304238e-06 0 -1.1256218348e-05 -1.0827201217e-05 0 -1.0435882246e-05 0.00038206575 0 0.00022430955465 
-5.1991432197e-06 0 -1.2192240936e-05 -3.1556075509e-05 0 -7.1826269984e-06 -1.9638259146e-05 0 -2.0705829592e-05 
1.3720139906e-05 0 -6.8105102477e-06 -2.266249311e-05 0 -7.0834075599e-06 -1.3312602783e-05 0 -8.4916123971e-07 
0.0037983250962 0 4.9264860387e-05 0.0022360165001 0 0.00036847219744 0.00091275442524 0 0.00033571743794 
2.2249248496e-05 0 1.2399506772e-05 0.00092947680501 0 0.00013161563502 0.0053150884292 0 0.00010729729056 
0.0051555146713 0 0.00017496536115 0.004740551771 0 0.00011822811181 0.0065315259211 0 -0.0021080979956 
0.0058790126372 0 -0.001320253577 0.0044533788997 0 -0.0011442773975 0.0051756233411 0 -0.00031559464283 
0.0040917238015 0 0.0001243857859 0.0045590246411 0 -0.0055546014628 0.0046925310459 0 -0.0051735682275 
0.0051632968542 0 -0.00482277481 -1.1097907655e-05 0 -1.0068998712e-06 4.4721608706e-05 0 -7.2822578322e-05 
-3.710480355e-07 0 -5.9025274815e-06 2.1387317778e-07 0 -2.3361538194e-06 4.2932399627e-07 0 -1.819293134e-06 
-8.7375228325e-08 0 -4.6806413691e-06 6.6592385371e-07 0 -3.3481261995e-06 -1.3955615809e-05 0 -8.9266633015e-06 
-7.7524504113e-06 0 -1.0249969753e-05 -6.2887666868e-06 0 -9.8577968943e-06 -7.844648921e-06 0 -9.417013946e-06 
-5.2170494539e-06 0 -9.9222842154e-06 -4.110562105e-06 0 -9.6842149914e-06 -5.166528045e-06 0 -8.8825591022e-06 
-3.145537363e-06 0 -9.1181898419e-06 -2.3270853623e-06 0 -8.4512020529e-06 -3.1340127702e-06 0 -8.5727453398e-06 
-1.3795878315e-06 0 -7.3731061062e-06 -1.8220231487e-06 0 -2.545625876e-06 -2.1853915121e-06 0 -2.32945496e-06 
-3.7886543584e-06 0 -4.6408695082e-06 -5.1049386458e-07 0 -3.4021105897e-06 -1.4151666797e-06 0 -3.2710910014e-06 
-2.5054009562e-06 0 -4.8361022778e-06 -3.9022578698e-06 0 -7.3151410455e-06 -2.4145295446e-06 0 -8.4291627201e-06 
-5.5478894445e-07 0 -2.4103450707e-06 9.628791349e-07 0 -3.2873556945e-06 2.6414761883e-06 0 -7.9727622872e-06 
-7.2721070308e-06 0 -3.0019436288e-06 -2.3748094481e-06 0 -2.3413342821e-06 1.321503678e-05 0 -1.7252538561e-06 
-1.1860404245e-06 0 -1.1349215796e-05 -7.7353278171e-06 0 -1.5800849592e-06 2.7325852723e-05 0 -1.1355393261e-05 
4.2375308682e-05 0 -6.1228077763e-07 2.8277241221e-05 0 -6.6226052899e-06 7.6321490676e-05 0 -3.018637215e-05 
0.00023210063349 0 -0.00011119713084 0.00034396958348 0 -4.8651567242e-05 2.0415924683e-05 0 2.1231110827e-06 
2.4720338121e-05 0 -4.2264693989e-06 0.00013415219196 0 -2.5967387344e-05 2.0402567273e-05 0 -4.1073371699e-07 
2.7272291322e-05 0 -1.0310377532e-06 6.3335711668e-05 0 2.2312033669e-06 1.9325233585e-06 0 4.7968645759e-08 
1.1357077692e-05 0 1.905729247e-06 2.3183239495e-05 0 -2.055745563e-06 6.756139381e-05 0 5.5718693407e-06 
4.922250337e-07 0 -9.9258761724e-07 2.1904424958e-06 0 -1.9855257073e-06 4.7915573966e-06 0 -1.8710504999e-06 
5.7336752723e-06 0 -1.8083378716e-06 -1.2515877502e-06 0 -1.1326902806e-06 -5.2407702761e-07 0 -1.2341308701e-06 
-1.438236181e-06 0 -1.9842316224e-06 -1.367992471e-06 0 -2.0825595332e-06 -1.7955030895e-06 0 -1.9884936953e-06 
-3.1490453272e-06 0 -3.0117690762e-06 -2.6031945999e-07 0 -1.4422394329e-06 -6.3890677023e-07 0 -1.4484019454e-06 
-1.947127657e-06 0 -3.5068577111e-06 4.7795292365e-07 0 -1.993698807e-06 -1.7161193825e-08 0 -2.0660331202e-06 
-6.7124933509e-07 0 -3.5147673128e-06 5.1729084017e-07 0 -3.536466111e-06 0.0033825806201 0 6.1105815485e-05 
0.0002146525376 0 -0.00022988623093 0.00060590287133 0 -0.00059135219082 2.2153143859e-05 0 -6.0446141321e-05 
0.0018455964563 0 -0.0019736446428 0.0031098643278 0 -0.0035121399241 0.00063948392127 0 -0.00076443548289 
0.0038106276422 0 -0.0049021166973 0.0042631266439 0 -0.005421700555 0.0048011123908 0 -0.0050265462179 
0.0029135417269 0 -0.0035835738355 0.0054857423504 0 -0.0043630694077 0.0060090332679 0 -0.003898730152 
0.0055601676466 0 -0.0048144338154 0.0065029670581 0 -0.0034947734431 0.0067643124975 0 -0.0029266914653 
0.0062460543174 0 -0.0039141707584 0.005817844674 0 -0.0026133693764 -2.0239072553e-06 0 -3.9595250495e-06 
-1.5586268337e-06 0 -4.3947209423e-06 -3.6023466028e-06 0 -5.9415894817e-06 -6.1461619023e-07 0 -5.5205452458e-06 
1.2324315185e-06 0 -7.7411996338e-06 -2.6278927255e-06 0 -7.7818948424e-06 -4.6488773968e-07 0 -8.0611778998e-06 
-1.0506978752e-06 0 -6.4781953841e-06 2.6336223567e-06 0 -1.0164620303e-05 -5.9647008158e-06 0 -1.3850920199e-05 
0.00015064613138 0 -0.00017272763322 0.00089791189852 0 -0.00086549248838 0.00022908170765 0 -0.0002245800288 
2.9539272464e-05 0 -5.1201221334e-05 0.00020831840676 0 -0.00018671073402 0.0014967132307 0 -0.0012367717617 
0.00059557744746 0 -0.00050116062076 0.0029841782587 0 -0.0023876588003 0.0019798036499 0 -0.0016902264193 
0.0020323735154 0 -0.0020470995861 0.0012870832762 0 -0.00030850169994 0.0028424687487 0 -0.00088536239435 
0.0035834026478 0 -0.0014568321543 0.0005054711546 0 -0.00029268448556 0.0044115881881 0 -0.0022355141157 
0.0045866878757 0 -0.0027967128996 0.0022817295379 0 -0.0012441483282 0.0011808374351 0 -0.00067034813093 
0.00089163083209 0 -0.00054354767063 0.00012945019592 0 -7.7764078808e-05 -3.858682998e-06 0 -1.6385844398e-05 
-4.3044945071e-06 0 -1.4668269411e-05 -2.4422173336e-06 0 -1.2860861162e-05 4.9719696293e-06 0 -2.9588765074e-05 
-1.9615458615e-06 0 -2.3685609079e-05 -5.7269323482e-06 0 -1.315193745e-05 -4.9160229314e-06 0 -1.0064869405e-05 
-4.9131246423e-06 0 -1.1105049157e-05 -4.7114724314e-06 0 -8.1964367812e-06 -4.8415743103e-06 0 -1.3248648855e-05 
-7.0288446849e-06 0 -1.9950653368e-05 2.8479216399e-06 0 -1.1409600788e-05 1.5428467461e-06 0 -3.5535596413e-05 
6.6094984717e-05 0 -0.00010725813423 3.4269457472e-05 0 -5.1265521236e-05 0.00046417208499 0 -0.00059119007775 
0.00016289380257 0 -0.00015727901493 2.6496550602e-05 0 -3.3667724992e-05 0.00098546391147 0 -0.0010925968517 
0.001578448747 0 -0.0017864847921 0.00044852032745 0 4.2470050804e-05 0.00037276338282 0 6.9741209211e-05 
0.00065305287267 0 3.5427579549e-05 0.0016906716386 0 1.2327672825e-05 0.003030966516 0 0.0001527311251 
0.0023967985523 0 6.3229669956e-05 0.0012474585783 0 -0.00011741118603 0.00064553720213 0 -3.2990516334e-05 
-7.5717434631e-06 0 -2.8001785e-06 -5.589130407e-06 0 -3.506084478e-06 -1.2431958902e-05 0 -5.147256908e-06 
-9.4707862229e-06 0 1.2147759047e-06 -4.9280194572e-06 0 -5.0545255585e-06 -4.6840530314e-06 0 -6.4207445419e-06 
-7.0680036458e-06 0 -7.7418347564e-06 -1.0805515591e-05 0 -7.896555765e-06 -9.4929891976e-06 0 -8.6445658463e-06 
0.0058126731128 0 -0.0037543211612 0.0041511219321 0 -0.0030437455226 0.0058622440589 0 -0.0043541556652 
0.0054446547815 0 -0.0047538931303 0.0048299390458 0 -0.0045451679359 0.0045214220559 0 -0.0037601099046 
-1.0902330487e-06 0 -6.884495689e-06 -1.0279389874e-06 0 -6.2086538984e-06 -1.558480508e-07 0 -5.0107378916e-06 
-4.6791761137e-07 0 -6.0168963372e-06 5.4410764627e-07 0 -4.2019462627e-06 2.0722131368e-07 0 -4.845112637e-06 
-1.7075268995e-06 0 -1.3105298711e-05 7.7864483922e-06 0 -2.3762473289e-05 -9.9164276621e-09 0 -1.3873747236e-05 
8.1659106647e-06 0 -1.6013620229e-05 -3.1315515216e-06 0 -5.353816268e-06 -4.4264816651e-06 0 -7.5415798609e-06 
-1.9060523935e-06 0 -4.79235993e-06 -3.57852798e-06 0 -7.9358565779e-06 -2.4580905662e-06 0 -7.4154676636e-06 
-1.4132924518e-06 0 -5.3664250334e-06 4.9465189273e-06 0 -1.1474105532e-05 1.0579061688e-05 0 -1.5185936795e-05 
3.0538710398e-06 0 -1.7221772762e-05 1.7904933367e-05 0 -2.4081032843e-05 -6.0556282796e-06 0 -2.2837989226e-05 
0.0036858154136 0 -0.003822068142 0.0024710286921 0 -0.0025964210546 4.7927243549e-05 0 -2.3717358679e-05 
2.1639567262e-05 0 -9.9951480923e-06 0.00014862105735 0 -0.00011060446769 0.0019731790502 0 -0.00050801412928 
-4.685803967e-06 0 -7.2609152589e-06 -4.4199884401e-06 0 -6.1753698573e-06 2.1324311659e-07 -3.1331686274e-09 -4.8485328779e-06 
3.5950399573e-07 -4.0328590568e-09 -3.5929976948e-06 6.7445142696e-07 -3.6141331394e-09 -3.3558197511e-06 -3.3985931237e-08 9.9868667257e-09 -4.7088038079e-06 
-2.0615553198e-06 -2.382623294e-09 -2.5358201559e-06 -2.0995015562e-06 -4.5338909168e-08 -2.6157782444e-06 -3.5538656395e-06 -2.4080126747e-08 -5.0153676569e-06 
-3.9322821916e-06 -7.0687359203e-08 -7.5620693575e-06 -2.893755455e-06 -2.347618657e-08 -4.9242405119e-06 0.0042055859115 -5.3809743426e-05 0.00011429409733 
0.003465265271 8.6096096972e-07 0.00027999341794 0.0041699190588 2.1204861165e-05 3.8861717673e-05 0.0034576551357 4.3109005266e-06 0.0002508047248 
0.0021111802272 1.4863757663e-05 8.3289130679e-05 -1.5821794551e-05 6.9218851095e-07 -9.860085995e-06 -1.3232891401e-05 -1.607897967e-07 -1.0471650809e-05 
-1.0782363755e-05 -6.8902747462e-08 -7.8302311089e-06 -1.2668660517e-05 4.1520149446e-08 -5.4916755926e-06 5.3055200785e-07 -6.0449179116e-09 -4.1935940006e-06 
-1.6840777798e-07 -5.1821174995e-09 -5.6201881255e-06 -4.2153399897e-07 -1.9011082452e-09 -6.0122028859e-06 0.0057426367577 -5.3565041633e-06 -0.0041313775008 
0.0057478644292 5.7953432689e-06 -0.0041333112768 0.0059521946337 2.0942360453e-07 -0.0043517293276 0.0053143759211 3.2357518421e-06 -0.0045029835336 
0.0053105053534 -3.726603262e-06 -0.004506223474 -1.0739060947e-06 -4.805561551e-09 -6.8837811258e-06 -1.3391908305e-06 6.6965072845e-09 -7.3630104036e-06 
-1.3730256073e-05 1.6434696839e-07 -1.3119028575e-05 -1.798071237e-05 9.566206797e-08 -1.2572244151e-05 -1.34508229e-05 -6.2598792379e-07 -1.2822415148e-05 
-9.5948882038e-06 -1.1688911411e-07 -1.2204154514e-05 -1.1411706449e-05 -9.9227543891e-08 -1.2300685727e-05 -1.1387318397e-05 7.3623757265e-08 -1.2272765827e-05 
0.0018289908102 -1.6378433903e-05 0.00035317508937 0.00092575324273 -5.452123872e-06 0.00012596906833 0.00036144145186 -1.9926097357e-07 7.0736771975e-05 
0.00043567231048 2.4980724523e-06 4.2485638557e-05 5.2646964208e-05 -8.2426982535e-09 4.7099183838e-06 7.2637142471e-05 -2.2171546104e-06 1.4960567863e-05 
5.1256481602e-07 1.4059038178e-09 -3.537047506e-06 -1.5427469186e-07 -5.315671421e-09 -4.993916253e-06 0.00064132421711 -5.3443415356e-06 3.734111646e-05 
0.0017286964537 -2.4345312454e-05 3.3263927063e-05 2.8761934326e-05 2.6154437091e-06 6.5983304116e-07 2.5533100055e-05 -2.8443550386e-06 -5.7909962941e-06 
3.143119051e-05 2.0036708103e-06 4.0744310273e-06 5.3679634954e-07 -8.6822075477e-08 -6.203186818e-06 -2.0449735075e-06 -1.1712779417e-07 -1.2064773408e-05 
6.3712766629e-07 1.349056548e-07 -6.7395238524e-06 -8.8356783771e-07 2.9536423801e-07 -7.6225816751e-06 -1.6707430325e-06 -5.470292157e-07 -6.2657530515e-06 
-1.34310154e-06 7.2926504017e-07 -7.5601080931e-06 -2.9160405419e-06 -4.4496659558e-08 -4.799699173e-06 -3.5486369812e-06 -6.3478642054e-08 -1.0226140698e-05 
-2.5714186237e-06 -8.9306167987e-10 -2.7916949868e-06 -3.8095587514e-06 -2.7109901459e-08 -4.6415410643e-06 -2.8471076806e-07 1.0629497826e-06 -1.9363792575e-06 
4.7952356592e-06 2.1533700105e-06 -3.4776588061e-06 9.6021313072e-06 2.2143099953e-07 4.017252491e-07 4.6607038631e-06 1.1131006993e-06 -6.4323625771e-06 
1.135242316e-05 2.5661754875e-07 -8.8611730243e-06 0.0013185628967 -4.4329772314e-06 0.00016955196863 3.125359646e-06 -1.4195205486e-07 3.9555337861e-06 
6.332444972e-06 1.9778625681e-06 -5.7637148577e-06 2.6455791387e-07 3.4635636432e-08 -2.1010867082e-06 1.103390973e-07 -3.386605535e-08 -3.3249312526e-06 
2.7711809751e-07 -3.7903803583e-08 -2.0943365661e-06 1.9028928154e-05 -2.8758470103e-06 -5.9099496276e-07 2.3984950231e-05 5.567950956e-06 4.7406260656e-05 
1.5625578039e-05 2.9860503687e-06 -2.6587667575e-07 7.8411082423e-05 2.8281377208e-06 9.9559791367e-06 2.8433057174e-05 1.3656808043e-08 2.3591671908e-07 
2.7206883959e-05 7.5147281412e-08 3.5200220376e-06 2.1606701867e-05 -1.8638214075e-06 1.5913072675e-06 5.6434552417e-07 -1.2841316632e-08 -2.3048763367e-06 
0.0018260561394 -1.4892841736e-05 0.00036598326077 0.0035389637117 -2.017591969e-05 -0.00025857080709 0.0040893795198 9.7045334869e-06 0.00012352433641 
0.0051562425134 -9.595500616e-07 3.3561521388e-05 0.0052341817225 1.3389974585e-05 0.00021774393672 0.0051427671915 5.4877264226e-06 3.0503577323e-05 
-6.9653691283e-06 -1.5859317577e-08 -9.9604143404e-06 -5.8264579754e-06 -7.5707731327e-09 -1.0025021733e-05 -5.8482407033e-06 -2.2570683412e-09 -1.0038670384e-05 
-4.2277343969e-06 -4.6156695177e-09 -9.0784103772e-06 -5.1451048792e-06 -7.9144609608e-10 -8.8809020513e-06 -1.074628405e-06 1.0559109287e-07 -1.1492372225e-06 
-1.2431648338e-06 -5.2409355682e-08 -1.1994359613e-06 -1.2513135765e-06 6.8155773487e-09 -1.2973189261e-06 2.163026522e-06 4.5352431357e-07 -1.7088497532e-06 
2.6019553242e-06 3.167581444e-08 -2.5000929933e-06 3.5563046053e-06 1.3666440326e-06 -2.2514355366e-06 -9.7780079748e-06 1.5422974418e-08 -1.051960032e-05 
-8.5078332051e-06 -2.258225705e-08 -1.0839496626e-05 -8.5385727372e-06 2.6393808451e-08 -1.0897235621e-05 -7.0074023229e-06 1.7985128497e-09 -1.0002724156e-05 
-7.854757773e-06 -6.4886651637e-09 -9.4257089582e-06 -1.0312648831e-05 -1.0554919162e-07 -1.1873863728e-05 -1.1231760293e-05 -4.7591499611e-08 -1.0580493232e-05 
-1.5888949909e-06 -2.0919764105e-08 -2.0705943257e-06 -1.211315487e-06 -5.2203029868e-08 -1.3376171424e-06 -2.475173503e-06 -1.0205501996e-07 -2.0294014137e-06 
-3.2903999658e-06 -4.3961585476e-08 -2.9817954835e-06 0.006275085921 1.2909269808e-06 -0.0036625275672 0.0062620170473 7.7702239116e-07 -0.0036525587171 
-9.8850498392e-07 3.0558518031e-08 -1.2010125589e-06 -7.8022455095e-07 -3.3767796385e-10 -1.4514985574e-06 -1.9389245094e-06 -1.7452435891e-08 -3.4897801286e-06 
-1.6138748574e-06 4.136544914e-09 -2.065355645e-06 -8.0054941773e-07 -1.1247059116e-09 -1.4462182424e-06 -9.9420312501e-07 -2.7126609536e-09 -2.9007988514e-06 
-4.6969982263e-06 -5.3725520898e-08 -7.3847950289e-06 -4.4078302903e-06 -2.3763238643e-08 -6.2834988239e-06 -2.2526395017e-05 4.6131966316e-07 -5.5189302644e-06 
-4.6280507093e-06 -1.6114125648e-09 -9.7983543608e-06 -4.631212741e-06 2.3048228525e-10 -9.7992586089e-06 -5.206034247e-06 -3.8124063667e-09 -9.9088503261e-06 
0.0051609271567 8.4194868738e-05 -0.00041518925923 -2.4772591725e-06 -6.0078659834e-08 -4.9460594969e-06 -2.0421001031e-06 -2.83514735e-08 -5.0349178164e-06 
-1.9609255044e-06 -5.0253663453e-08 -5.1685763523e-06 0.0058164396698 -2.6013496615e-05 -0.0037467348498 0.0041414035752 8.5912280786e-06 -0.003025739101 
0.0054310557948 -1.4493177038e-05 -0.0040850738878 0.00089928021105 8.5450993153e-06 -0.00054709110453 0.0011681707389 -2.1733588725e-06 -0.00065861215923 
0.00029658964359 7.4738638349e-06 -0.00013990940386 -2.1557594579e-06 -4.8353372598e-09 -7.9655133407e-06 -2.7196135578e-06 -1.7303312966e-09 -8.8453224618e-06 
-2.1264556725e-06 3.6181314855e-09 -7.9613555948e-06 -7.6414665566e-07 2.3411769114e-09 -5.8963548658e-06 0.0062520769607 -8.0199852491e-06 -0.003896971658 
0.0066936172415 7.964485978e-06 -0.0032378289003 -3.0914576482e-06 5.152984197e-09 -4.1307406531e-06 2.8893893332e-06 1.9074545721e-07 -9.4325284803e-06 
9.7084270201e-07 -1.8024396337e-08 -5.9862164256e-06 0.0057482261863 1.2478154501e-05 -0.0025666153551 0.0051398577325 -7.8584166587e-06 -0.0017353849707 
0.0067526019169 1.9392667238e-05 -0.0027191142035 0.006363713315 2.5086838713e-05 -0.001859472661 0.0063873987972 1.6892718071e-05 -0.0017765544959 
-3.2496503044e-06 4.78534506e-09 -4.1987953912e-06 -2.6642264804e-06 1.1258315649e-08 -2.7495441315e-06 -5.3280174177e-06 -4.1789592083e-08 -9.0919186608e-06 
-9.4343733046e-06 -5.5491175592e-08 -8.5425218305e-06 9.3362193955e-07 -1.4674274808e-09 -2.813047631e-06 0.0034304550527 -2.3263565391e-05 6.8460188941e-05 
0.0045239555761 -1.1900561685e-06 -0.0037343101179 0.0048308757174 -1.2492737779e-05 -0.0045430383812 0.005440608593 -2.0284247078e-06 -0.0047631419976 
-6.2173858247e-06 -2.5699395591e-09 -8.6130429976e-06 6.2113315072e-07 7.2444365934e-09 -1.6963944241e-06 6.0832424331e-07 -4.5113246113e-10 -1.6883208112e-06 
2.3188964329e-07 1.0772550097e-08 -2.0667479467e-06 -6.1509900136e-07 -5.275644731e-09 -1.4488882504e-06 -4.4497649238e-07 2.7886793401e-09 -1.4602123129e-06 
-1.9011742305e-06 1.6854770562e-08 -3.2874859889e-06 -1.9530697925e-06 2.427839481e-08 -3.3120054066e-06 -3.5304834568e-06 3.0511125117e-08 -5.86007191e-06 
-1.7793034275e-06 -1.8466985819e-09 -4.0706111232e-06 0.00012825152682 1.4675021876e-06 -8.55581845e-06 0.0058650977563 -4.6052362511e-06 -0.0043435132322 
-4.3794966108e-07 -5.5750049086e-09 -1.4539927939e-06 3.2814106382e-05 1.6654500069e-06 -4.8285222357e-05 0.00021533828016 8.4913148063e-06 -0.0001910532393 
0.00080558808242 -4.1630476872e-06 -0.0006774805094 0.00015034155178 1.1069356214e-05 -0.000163513115 0.0055419988477 -1.0878034187e-06 -0.0048158617226 
0.0050122082524 4.5547314799e-06 -0.0049416125013 0.0047843437735 6.7884658072e-07 -0.0050204686528 0.0039839014932 -5.1301623394e-06 -0.0044022477909 
0.0045221314926 1.0937645355e-05 -0.0055258243683 0.004499971879 -1.8451422961e-06 -0.0055435912011 0.0046666594776 2.5017637891e-06 -0.0054064116834 
5.5900917991e-05 7.9579450759e-07 1.7760779453e-06 -2.6270683706e-06 -2.9695135405e-07 -9.965049087e-07 -5.5684893714e-06 -1.0545975696e-07 -3.1327293198e-06 
-9.8812539295e-07 2.7918612579e-07 -8.5675876974e-07 1.1006774456e-05 -7.1748159323e-07 -3.4664457282e-06 6.9801885159e-06 -3.3936197067e-07 -7.0923129582e-06 
-4.954383769e-06 -1.799226528e-07 -1.0485043299e-05 0.0029854963525 -4.1390380286e-06 -0.0023570755872 0.0044309039641 1.0100916588e-05 -0.0011653897876 
0.0030444205299 5.5138450837e-05 0.00014313585804 0.002412187791 -5.4621497012e-05 6.7690591525e-05 -2.7502187479e-06 2.8379926202e-09 -8.8748004532e-06 
-2.0923070002e-06 -3.1822415059e-09 -7.9368474282e-06 3.3677441587e-07 -4.8289639646e-08 -3.6227778312e-06 4.6906601308e-07 -3.9779190362e-08 -3.5793643736e-06 
0.0045535100649 -7.4385780038e-06 -0.0027809247663 0.0022781441531 1.7263690413e-05 -0.0012505506853 0.0061574798497 -3.1261812861e-06 -0.0032567992227 
0.0043927854266 -7.1513396291e-06 -0.0022180115829 0.0023628726769 -4.5503207208e-06 -0.0016254071068 0.0017665852352 1.3606724567e-06 -0.00094189044231 
2.8440773026e-07 -2.0062723139e-07 -2.7532611144e-06 -4.9652046613e-06 4.155643732e-08 -5.1365077699e-06 -7.0277933183e-06 -2.8340129826e-08 -7.7241832206e-06 
-4.7173745422e-06 1.1446665997e-08 -6.4418850146e-06 -7.7710448756e-06 -2.4966708794e-08 -6.1875907589e-06 -1.7192916423e-05 5.3693588882e-07 -1.4250093865e-05 
2.1925253045e-07 -6.9979201111e-09 -2.0401637094e-06 -1.930016105e-07 -1.7173003754e-09 -4.0730084303e-06 0.00021919012071 -1.7528482969e-05 -0.00012607433569 
5.592928704e-05 2.8822635368e-06 -2.688408359e-06 -9.2885361465e-06 -3.0409016161e-06 -1.798748961e-07 7.8912651198e-05 2.3235714461e-06 -2.5234748212e-05 
-1.6116759918e-07 -1.138061352e-06 -4.2648915459e-06 0.0067110099132 -7.1201820756e-06 -0.0027068274779 0.0049369344038 -4.305496193e-05 0.00014961573112 
2.9718093008e-05 8.6318361768e-07 1.1808749937e-06 -2.2666239923e-05 1.5192046949e-06 -1.1085256135e-05 -2.2685124477e-05 -1.9518562849e-06 -1.39391511e-05 
-3.5536500937e-05 1.2497224969e-06 -9.9561769089e-06 -3.2734772513e-05 4.2704914796e-07 -1.1935739037e-05 -1.6200746444e-05 1.0884857104e-06 1.2734672752e-06 
0.00013937304744 -8.3546030456e-06 -0.00010699596866 -4.6511057004e-06 5.6219228337e-09 -8.1383638387e-06 0.0044930356279 2.2998280896e-05 0.00015775588966 
0.0052168203356 4.0713667562e-06 0.00024813759263 7.0262450837e-05 1.5490136923e-07 -3.9329171799e-05 0.00010025214408 2.4661745945e-06 -3.4185856011e-05 
9.9427514998e-05 -1.4013742111e-06 -3.4178223346e-05 0.00047014153495 -3.9520440756e-06 -0.00014974347296 4.8645418672e-05 -2.4959180787e-06 -1.6340372187e-05 
-6.6829563601e-06 1.0397802953e-06 2.3515214367e-06 1.4341223052e-05 -1.4464519776e-07 3.2181505631e-07 0.0051927358723 -7.1083114695e-06 -0.0051644915885 
0.0046734383862 -1.8420985423e-06 -0.0053930279803 0.0028402114625 1.4897456982e-05 -0.00092205452524 0.001989279723 2.9090201952e-05 -0.00052624741497 
4.5047923469e-05 2.5483537854e-06 -1.303356085e-05 2.0503890894e-05 -4.0250671096e-07 -2.3622430852e-05 1.3485695304e-05 1.049050661e-06 -1.7367585196e-05 
1.396733801e-05 -8.6863810701e-08 -1.8498198022e-05 0.00065448836589 -9.1266374173e-06 -8.0525033958e-06 -3.844113662e-06 -2.5078596088e-06 8.1522060648e-06 
2.4364038794e-05 1.495239132e-06 -2.6880833284e-05 -1.0587122733e-06 9.267512817e-09 -7.2729570945e-06 -2.7479655778e-08 1.0068960413e-07 -2.9947191357e-06 
-1.7435655963e-07 3.889943614e-08 -3.0923964958e-06 2.1094900355e-06 -2.0082462779e-08 -7.889978383e-06 0.00357850507 -2.5555995194e-05 -0.0014419934912 
-9.9593078585e-06 4.9442068477e-07 -2.0671280929e-07 -5.7184439838e-06 -3.8471085547e-08 -3.6418988132e-06 -6.0925995454e-06 -2.2285914516e-07 -1.3367106851e-05 
-1.4248410208e-06 3.1927853177e-09 -5.3554085049e-06 -2.8979616222e-06 2.0999901327e-09 -6.5459105408e-06 -2.4848886174e-06 2.7612411424e-09 -7.395884112e-06 
-9.4213903329e-06 -1.933880989e-08 -1.1275271721e-05 -1.0346776244e-05 5.8351055767e-08 -1.1894152438e-05 -1.0377418009e-06 -2.3735946888e-09 -6.1988735572e-06 
-4.4227235077e-06 2.0738542398e-08 -7.5608306016e-06 -3.1383191524e-06 7.7528657014e-09 -5.3569639686e-06 0.0034162968201 -1.0994931769e-05 -0.0030243046296 
8.5051594012e-07 1.3999899212e-07 -5.7206440535e-06 2.2139780143e-05 1.0262555949e-06 3.0588489983e-06 6.3989103728e-05 4.9444728509e-06 5.06342856e-06 
0.0058309567157 3.1775717402e-05 -0.0013528193024 -2.6731305222e-06 7.130270558e-08 -1.2751020196e-05 -4.4883083538e-06 -3.5223882154e-07 -1.5665875359e-05 
0.00015930351949 -1.8130498093e-05 0.00012762065945 1.7811885501e-05 -1.612950182e-05 8.1508701032e-05 2.0128174202e-05 8.7487497994e-06 0.00010604056792 
0.0015021688408 -1.8862067184e-06 -0.0012092024235 0.0019961553711 -3.658254179e-05 -0.0017116084307 -1.8574377669e-06 5.4812479499e-08 -4.1273876131e-06 
-3.3517075159e-06 4.0920160531e-08 -7.0936344904e-06 0.00018627319644 8.0128723658e-06 0.00011508806513 -7.7862039487e-06 -1.3901252351e-06 -7.7537943574e-06 
-4.4860296803e-06 -3.748274821e-07 7.1432050552e-07 0.0066774517614 -6.7605899394e-06 -0.003269125473 8.6558852472e-07 1.4224573876e-07 -1.5715918985e-06 
2.5167057382e-06 -1.4110266342e-08 -1.7468824612e-06 0.0012856341512 2.7589121265e-06 -0.00012921682705 -2.1302867714e-08 2.0557129637e-10 -2.0522953293e-06 
-2.7139709892e-07 -3.3623410898e-09 -2.0981437439e-06 5.8880312931e-05 9.286500548e-06 -2.120509158e-05 -1.9123922711e-06 1.2316644381e-09 -4.7922266571e-06 
-3.6302388132e-06 -3.5462702293e-09 -9.3088429231e-06 -3.140404162e-06 4.3704748812e-10 -8.5746967363e-06 -3.5897886061e-06 -4.4467259091e-09 -7.9355366096e-06 
-6.7694614848e-07 1.9376935164e-10 -3.4999319757e-06 3.6719409227e-06 -5.5237865029e-07 -1.7184665633e-05 6.5104391988e-06 7.8911042909e-07 -9.8909087532e-06 
0.00056377948847 4.4149342281e-05 0.00016981997144 0.00045657269631 -0.00011641718877 0.00013856432505 -3.6048268118e-06 -5.3958701685e-07 -2.2991990135e-05 
0.0042495801664 -5.7180300349e-06 -0.005432247006 0.0040010498974 3.1575951829e-05 -0.005141536671 0.0039658644018 -3.5504544444e-05 -0.0051512553506 
-1.8463903726e-06 -9.1268111045e-10 -2.9554101374e-06 -1.8794395715e-06 1.7269756204e-08 -2.5202244944e-06 -1.8973866207e-06 -2.0790804812e-08 -2.5002171275e-06 
3.358337433e-06 3.8455895438e-07 -1.26024449e-05 0.0009305469377 5.8878418131e-05 0.00026840381131 -2.7774337588e-05 1.2133124589e-05 -1.6610593838e-05 
-2.6446490333e-07 3.7499814635e-10 -2.1003700284e-06 2.3605422782e-05 8.0387419129e-07 -5.5012158867e-05 -1.308606625e-06 7.3975360238e-07 -3.4851222485e-07 
-7.0784082853e-06 -4.1664030196e-07 -2.5684031827e-06 0.00097687697923 3.91823279e-06 -0.00098163460445 0.0025507212135 1.2147025725e-05 -0.0027642270139 
0.00098736441683 7.6011370666e-06 -0.00096666763344 0.00068452009973 9.7667174314e-06 -0.00076282087653 0.00013770334411 4.8560559048e-07 -0.00013859790251 
-3.6078814517e-06 4.3579240998e-11 -9.3086997292e-06 -2.4288198066e-06 6.6882416413e-09 -2.4954154524e-06 -2.121398722e-06 5.8100911385e-09 -2.2960058813e-06 
-2.1739709834e-06 -2.9791361896e-08 -2.3098559706e-06 -3.1564054549e-06 -1.8735645145e-09 -9.1307576946e-06 -3.8151344852e-06 -3.2379090354e-07 -1.5349934418e-05 
0.0001387971921 1.8855826284e-06 -0.00015753787762 0.00034267498899 -9.035293123e-06 -0.0003318277562 0.00013533345877 -5.8882625075e-06 -0.00014788055949 
-1.2652111839e-06 4.5696146621e-07 -1.5707169817e-05 7.002435782e-05 -6.3833294188e-06 -0.0001110325821 2.5877731806e-05 2.9073989096e-06 -5.2690992155e-05 
0.00018815216417 4.5699324767e-06 -0.00022570597867 5.6776076391e-07 1.1623700183e-08 -2.3214394754e-06 1.3722759225e-07 2.9079598737e-08 -3.3495548525e-06 
0.00059534735064 4.18347532e-06 -0.00049213389624 0.00013207606728 6.7387566913e-06 -9.296446741e-05 -1.1936924389e-06 5.3445678718e-07 -6.0386633378e-06 
-2.449424113e-06 5.3851638387e-08 -8.607961143e-06 -9.6481467901e-07 7.1880660747e-09 -3.4198790286e-06 -9.2688147293e-07 1.6516272571e-09 -3.3127540931e-06 
2.5836448357e-05 8.2924830893e-07 -3.3000162749e-07 3.7691875311e-05 3.5604348412e-07 -4.5988140516e-05 2.3304754143e-05 1.0313154923e-07 -5.1861361085e-05 
-6.750383423e-06 -3.5465761906e-07 -2.0708502852e-05 3.3505104192e-06 -2.4945671168e-06 -3.8922765684e-05 7.3275440834e-06 -9.7976735851e-07 -2.2156638341e-05 
3.7094740487e-06 -2.4692945724e-06 -1.6739229005e-05 0.0025300617906 1.1391904585e-05 -0.0027599120147 0.0019837076883 2.3433146783e-06 -0.0024987757968 
1.8287012247e-06 9.8199965407e-08 -7.301818354e-06 -5.2031327604e-06 2.8626986117e-09 -1.108075719e-05 -2.545771948e-06 4.2649613549e-07 -7.5071577078e-06 
-1.406957294e-06 -1.049256016e-07 -4.1683472556e-06 -1.3685715831e-06 1.2953696658e-07 -4.3908103671e-06 0.00092141726106 3.0318525792e-06 -0.00086714478077 
2.7043449079e-05 -9.1992737283e-08 3.8654981065e-07 -3.6392791215e-06 -3.9077184189e-07 -2.2781053636e-05 -3.9842429836e-06 3.5147603999e-07 -1.663185834e-05 
5.3743300949e-06 1.2574955792e-07 -2.8387989607e-05 0.003720255136 -7.8057419958e-06 -0.0038082439491 1.0763156511e-06 2.5589759397e-07 -1.7104370049e-06 
7.3680698268e-07 8.166191574e-09 -1.5341159792e-06 1.8690568175e-05 -8.8062455994e-07 -1.4185922178e-05 2.5501975147e-05 -1.4567541159e-06 -3.336748793e-05 
8.1287256076e-07 -1.3349147566e-08 -1.4254813569e-06 8.0312784333e-07 1.2185049638e-08 -1.4271931117e-06 7.6118320192e-07 -1.1879951825e-08 -1.6916953363e-06 
7.6823146204e-07 1.318871997e-08 -1.6881626954e-06 -2.5113745905e-07 3.2976488542e-09 -4.1376049045e-06 -2.4143319431e-07 -5.2688295233e-09 -4.1215058478e-06 
0.0003522172729 -4.3824809126e-07 -0.00033644944803 0.005003810637 -5.1767563327e-06 -0.0049463778955 -1.7704767405e-06 9.784657846e-09 -7.208965763e-06 
0.00033962091273 5.2768806582e-06 -4.812906657e-05 4.0220711066e-05 -1.4568345002e-06 -6.9897444446e-06 3.6584778496e-05 5.8405580048e-07 -1.1687213732e-05 
0.00019848129331 1.380452281e-06 -4.6384998623e-06 -2.3783711384e-06 2.292188832e-07 -1.8472623864e-06 -1.3848307832e-06 -1.2621190867e-07 -6.2830818573e-06 
-1.3467843978e-06 1.2167266211e-07 -6.2750651494e-06 0.0035457170982 8.2896661918e-06 -0.0042643957814 0.0029264815357 -4.1822467297e-05 -0.0035726641491 
0.00023158390685 -1.5049783971e-06 -0.00022356889152 0.00092858990733 -1.483656831e-06 -0.0010230489899 0.00046157434214 -6.2713895801e-06 -0.00060176483599 
-1.5652071154e-06 6.5153448749e-08 -4.2164653932e-06 0.0049345440504 3.352890889e-05 0.00016416670896 -5.2916046248e-06 -1.020480991e-07 -2.0193985688e-05 
-2.217530947e-06 -1.8798130753e-07 -1.6567597164e-05 0.0020747636647 1.8004994145e-05 -0.0020628225985 -4.6246566777e-06 2.4185581085e-07 -1.3146748589e-05 
-6.1731640693e-06 4.167668573e-06 -1.0516413285e-06 -1.22729198e-07 9.0549348375e-07 -3.6208025769e-06 -1.8561968269e-06 3.7398294607e-07 -6.7966901957e-06 
0.00015673308591 -5.6014336072e-06 -0.00015619779695 -1.8486727458e-06 1.2231394501e-07 -1.2164873792e-05 -3.8937867831e-07 2.287130642e-08 -3.4604994274e-06 
-8.9599325837e-07 1.0367286562e-07 -1.1650176088e-06 -3.1728396418e-07 2.4242102718e-07 -1.0138466758e-06 0.004364043777 1.1139125056e-06 -0.0050692329333 
0.0024757101987 1.5302087035e-06 -0.0026412384658 0.00052723170423 3.4284086486e-06 -0.00029264246673 0.00098243058522 1.6217942748e-05 -0.0011030299758 
0.0015609188219 1.974316786e-05 -0.0018107085046 -9.2032107201e-07 2.0501571087e-07 -1.4382357742e-06 0.0012857467388 9.666064142e-07 -0.00032358502467 
7.3325615078e-06 2.0934145753e-07 -2.4157630544e-05 3.9832108168e-05 -9.4835573641e-07 1.4852554333e-06 -3.8833164229e-07 -1.722263231e-07 -1.4223475859e-05 
-4.324375198e-06 -3.8461515041e-06 1.3484013145e-06 4.400298513e-05 -4.1042764247e-07 -1.059604642e-05 0.0031420328491 -5.522829286e-06 -0.0034893155562 
0.0035491643801 -4.5605620562e-06 -0.0043026553536 0.00060171740035 -2.169528076e-05 -0.00058704086457 -1.1929938342e-05 -6.8902677171e-07 -2.346519937e-05 
-2.1521609148e-05 1.4488063234e-06 3.0214968823e-05 -1.0869456e-05 1.0601772923e-06 -2.297879814e-05 5.8243847885e-07 -3.3432135281e-09 -7.848755421e-07 
-8.1554563779e-07 2.5769085127e-09 -3.7802016654e-06 4.8142116736e-05 -1.3461517135e-06 -6.6820852682e-05 -1.242264696e-06 -7.3878153671e-09 -1.3597846348e-06 
0.0053629495578 -3.117300201e-06 0.00017619713664 
Displacement%20Magnitude 1 1420 double
0 0 0 0 0 0 1.8100875357e-05 1.8079360979e-05 4.6563656885e-05 
0.00011363660025 0.0022673149506 0.0021900716457 0.0054190743009 0.0053716802972 0.0058186616264 0.005916224697 0.006507484402 0.0065084373257 
0 0 0 0 0 0 0 0 0 
0 0 0 0 0 0 0 0 0 
0 0 0 0 0 0 0 0 0 
0 0 0 0 0 0 0 0 0 
0 0 0 0 0 0 0 0 0 
0 0 0 0 0 0 0 0 0 
0 0 0 0 0 0 0 0 0 
0 0 0 0 0 0 0 0 0 
0 0 0 0 0 1.5883676854e-05 1.4887297686e-05 1.2283282138e-05 1.0721505136e-05 
8.4670152498e-06 1.6641114698e-05 1.33912815e-05 1.1437797618e-05 9.8643249864e-06 7.1507755399e-06 1.4934872488e-05 1.232146415e-05 1.0729225601e-05 
8.5171899456e-06 1.6637477722e-05 1.3444055281e-05 1.144749555e-05 9.8603083946e-06 7.163086174e-06 0.00011081266676 1.876825145e-05 2.233430877e-05 
1.7377406804e-05 2.5385873516e-05 4.8714783107e-05 1.9271842542e-05 0.0022728153744 0.0012199894963 0.0010823757358 0.0054126405784 0.0051336323415 
0.0052847985019 0.0041752048485 0.0051815917682 0.0052933705293 0.0040880229358 0.0058849861838 0.0055457824574 0.0055607931449 0.0064742541403 
0.0065446949896 0.0068172017927 0.0074004503875 0.0064860690713 0.0066322524514 0.0071378223322 0.006981277501 0.0065441105869 0.0068026041335 
0.0073832653925 0.0064851872585 0.0066268857947 0.007117192318 0.0069680713253 0 0.00039170817038 0.0024651809597 0.0058926773688 
0.0071830660883 0.00010051738349 0.0010710625521 0.0044178095017 0.006876671938 0.0069574413512 0.00043605487695 0.0023842042503 0.0059351220193 
0.0071830973212 0.00011212103608 0.00098555677063 0.0045316199453 0.0068744858291 0.0069487000786 0 0 0 
0 0 0 0 0 0 0 0 0 
0 0 0 0 0 0 0 0 0 
0 0 0 0 0 0 0 0 0 
0 0 0 0 0 0 0 0 0 
0 0 0 0 0 0 0 0 0 
0 0 0 0 0 0 0 0 0 
0 0 0 0 0 0 0 0 0 
0 0 0 0 0 0 0 0 0 
0 0 0 0 0 0 0 0 0 
0 0 0 0 0 0 0 0 0 
0 0 0 0 0 0 0 0 0 
0 0 0 0 0 0 0 0 0 
0 0 0 0 0 0 0 0 0 
0 0 0 0 0 0 0 0 0 
0 6.4733011481e-06 1.6669695211e-05 1.3372276941e-05 1.1443268019e-05 9.8915654172e-06 4.9057454366e-06 4.9006853297e-06 7.7936769941e-06 
7.7383239091e-06 1.7205908196e-05 1.7279406342e-05 1.5839491015e-05 1.5759583567e-05 1.2823114544e-05 1.4138712268e-05 1.5005517068e-05 1.4110740921e-05 
1.1097215398e-05 1.1855112939e-05 1.2794046737e-05 1.2303221981e-05 1.1841372643e-05 9.2928879119e-06 1.0338437076e-05 1.1088174351e-05 1.0720798855e-05 
1.0325248096e-05 8.5691842543e-06 9.2871399966e-06 1.0522762578e-05 9.4227651604e-06 1.5802202616e-05 1.5872448293e-05 1.5590161321e-05 1.7801935455e-05 
2.5129565959e-05 1.136701639e-05 1.5379549687e-05 1.5905850143e-05 6.4153493711e-06 0.00065285516167 0.00028805999666 0.00036129613892 0.0013507470736 
0.0013457114678 0.0054069583318 0.0047179782437 0.0033884965891 0.0033774715512 0.0047900751285 0.0047895800193 0.005356262571 0.0053606759334 
0.0051405449166 0.0051279459208 0.0051022681233 0.0054058807751 0.0054107255098 0.0053901945473 0.0055828599443 0.0056345926632 0.0071286991604 
0.0066214258967 0.0070557661139 0.0064463707792 0.0069234749552 0.0068794589514 0.0073944722313 0.0073540827609 0.0064677707794 0.0064663872359 
0.0065091867976 0.0065061998372 0.0065754405699 0.0067128163956 0.0065214963333 0.006949748178 0.0072278860616 0.0067975911411 0.0072456399788 
0.0067085240008 0.0065743547998 0.007217060802 0.0069347228887 0.0068637423179 6.6874371657e-05 0.00094727919709 0.0044253462587 0.006894151976 
0.0067259315302 0.0067189175023 0.0070960597166 0.0071026251825 4.164251759e-05 4.2182737875e-05 0.00023139026913 0.00025315185911 0.00066731005 
0.001639285096 0.00043357126033 0.0006790124997 0.0033101102901 0.0052555004002 0.0015377681698 0.0023993032884 0.0033004444852 0.0064527321295 
0.0071092792809 0.0053292555092 0.0059442072562 0.0064533859924 0.0071818817708 0.0071148076785 0 0 0 
0 0 0 0 0 0 0 0 0 
0 0 0 0 0 0 0 0 0 
0 0 0 0 0 0 0 0 0.0010561129898 
0.0019774947798 2.3433000737e-05 0.00029121365172 0.0013891482636 9.9164942571e-06 0.0068341272219 5.6369778847e-06 1.5625174959e-05 7.1661748866e-06 
2.3417806377e-05 0.0059779840173 1.1167023323e-05 0.00049181173141 1.0814335818e-05 0.0069589697305 2.5989675291e-06 4.9182494155e-05 7.6414154913e-06 
1.0086450117e-06 0.0073247261415 5.1788522325e-06 1.0960146775e-05 5.8005020232e-05 0.0053929748281 0.0028431173766 9.3283446291e-05 0.0045448174733 
0.00018839442622 2.5860864961e-05 1.6347049762e-05 1.0598978994e-05 0.0036081552949 0.0032010858488 2.0438286437e-05 4.0786721053e-06 8.2293262381e-06 
1.0680528523e-05 0.0013723927507 6.9199449154e-05 0.0073579543928 5.9942377924e-06 2.9443389092e-06 0.00019553006058 9.1018726918e-05 7.2844022192e-05 
1.5819715159e-05 0.004587710208 0.0021301609178 2.962643775e-06 7.6194423293e-06 2.2596280117e-05 5.3555846323e-06 1.4023205723e-05 6.2499338091e-06 
3.6164237712e-06 1.3350484952e-05 1.0017637323e-05 3.0705182235e-06 7.0454404194e-06 0.00032332815871 2.7419985849e-06 3.5616920341e-06 3.5014696084e-06 
1.5199491832e-06 2.1438008887e-06 1.727704093e-06 3.6251451231e-06 4.7731072838e-06 7.4243557222e-06 1.774045755e-05 2.0014591326e-05 1.4503284489e-05 
1.6743727616e-05 1.4987106235e-05 1.9691587549e-05 0.00051231412351 2.5015583877e-05 3.7031033733e-05 3.8541166012e-05 8.4803176745e-06 1.5498347016e-05 
0.0023375302984 0.0038499837263 5.1325090528e-05 0.0010160207926 0.00095290429457 0.0051565042137 0.0052453398029 0.0047434689649 0.0059721787915 
0.0068838742892 0.0051960791844 0.0046021785844 0.0041403305881 0.0069860122256 0.0071832573936 0.0070601371298 7.4486592391e-05 1.0586084728e-05 
4.6306763148e-06 1.8782308404e-06 2.3684589398e-06 4.7233098952e-06 3.4236186506e-06 1.7781042241e-05 3.2728117627e-06 3.1789386776e-06 6.0433826568e-06 
3.5203878719e-06 3.3018290854e-06 8.5920345321e-06 5.5945349701e-06 8.9621322163e-06 3.8385238682e-06 3.7543639369e-06 7.8961202378e-06 2.0140708015e-06 
1.1236834434e-05 7.5167079545e-06 6.5772717495e-06 9.4852359674e-06 4.9352173129e-05 2.618256898e-05 3.976557976e-05 0.00025765538205 8.2743999418e-05 
0.00034826306166 2.0251646495e-05 2.3574868391e-05 0.00012479577305 2.3719451221e-05 1.7391708676e-05 4.7458533964e-05 1.1051543866e-05 5.2217833924e-06 
2.9488950757e-05 7.3096333407e-05 1.9753118553e-06 4.0987641341e-07 5.9016379877e-06 4.578155302e-06 1.4142782598e-06 1.6237412679e-06 2.2362330318e-06 
2.6407206905e-06 2.480835899e-06 4.3417561997e-06 1.5804254611e-06 1.4647721782e-06 3.9960618084e-06 2.0564361896e-06 2.0494005205e-06 3.574413791e-06 
3.5747412161e-06 1.1649463269e-05 1.2765735607e-05 1.2128582529e-05 1.0516003351e-05 1.118538408e-05 1.0246017429e-05 8.7815248946e-06 9.679894293e-06 
9.1301975303e-06 7.500349356e-06 0.0034832549211 0.0008678089342 0.00030431532025 5.2987348005e-05 0.0046869278124 0.0027205895579 0.0010320445386 
0.0062304095224 0.0069519101531 0.0069134145332 0.0046933189793 0.0071724709375 0.0070038968724 0.0073299818329 0.007370197334 0.0073917809313 
0.0073439140347 0.0062973854361 4.6056980644e-06 4.3411451253e-06 6.7337451196e-06 7.1686039611e-06 4.9493270866e-06 7.4949224476e-06 4.585034596e-06 
7.2243086471e-06 1.0311354649e-05 1.7866148492e-05 0.00031740772415 0.0012696442434 0.00023196701319 0.00029411721142 6.3214148917e-05 0.00076980374933 
0.00191281092 0.0025861185576 0.0037674349384 0.0029319668887 0.0038069575364 0.0029880818436 0.0013116334471 0.00061038286501 0.0049025767481 
0.0025485738176 0.0053344425177 0.0010364751958 0.0013307988282 0.00017147233721 1.2826891058e-05 1.694281828e-05 1.7207388411e-05 2.3575697829e-05 
2.7969448255e-05 1.1774246769e-05 1.6022061363e-05 9.3714334471e-06 1.2689722023e-05 1.2309434034e-05 2.3853556093e-05 1.3540245808e-05 4.0561995779e-05 
5.2830571129e-05 0.00014479114089 0.00074719379893 3.8192683035e-05 0.00022209038736 0.0014739112121 0.0023715935613 0.00038248480527 0.00046770290989 
0.00178037716 0.0006855790444 0.0024688268981 0.0031715094617 0.00068838750334 0.001337717 6.652754494e-06 7.0276735947e-06 7.9261696464e-06 
1.2832344803e-05 1.0419059693e-05 8.0085529639e-06 7.0553966149e-06 1.2771565404e-05 1.2526751155e-05 0.0051193942897 0.0069179250228 0.0073035716069 
0.0072318792677 0.0058973336826 0.0066335099371 6.2924718693e-06 6.9872897006e-06 5.002080646e-06 4.2368953145e-06 6.0344049471e-06 4.8418280682e-06 
1.1880211144e-05 2.4301612433e-05 1.9343703386e-05 1.3380378605e-05 8.735151744e-06 6.234122133e-06 5.165996111e-06 8.7144015798e-06 7.8042610138e-06 
5.5480477477e-06 2.126266748e-05 1.2820814893e-05 1.7448359903e-05 2.8637558646e-05 2.617922474e-05 0.0053441011279 0.0036325677976 7.6747206311e-05 
2.1455621112e-05 0.00017989848739 0.0021099903339 8.946049938e-06 7.7497396133e-06 0.0010289064018 0.0019959357506 1.9496612783e-05 0.00028000099321 
0.0012976982452 1.011360124e-05 0.0067793512629 5.635590234e-06 1.7732063341e-05 7.1552873266e-06 2.3176466361e-05 0.0059218689738 2.2552681029e-05 
0.00049186796119 1.0391172315e-05 0.0070160264955 1.3569422681e-05 6.2364449256e-05 8.3649806477e-06 1.0082641541e-06 0.0073395933171 5.1247609485e-06 
1.0455892187e-05 5.5303061051e-05 0.0055071860671 0.0029015996498 7.3878358967e-05 0.0045406055441 0.00019683705847 2.0209955326e-05 1.6215521067e-05 
1.0635891661e-05 0.0034743256905 0.0031578684253 1.3682322203e-05 8.1866618386e-06 4.093712913e-06 9.223629521e-06 0.0013633194001 4.8718838839e-05 
0.0073804370241 2.9786826377e-06 5.9564994954e-06 0.00020373979362 7.2004276417e-05 8.3924863279e-05 1.1078796564e-05 0.0045567624564 0.0020981180128 
3.0539311353e-06 7.9684251252e-06 2.2199886284e-05 5.2995858164e-06 1.4162017594e-05 6.0705734248e-06 3.5845296997e-06 1.2343840603e-05 1.0020114274e-05 
3.0718364923e-06 7.5188991164e-06 0.00032841575338 3.4769852193e-06 2.7236963389e-06 3.563152543e-06 2.1411189823e-06 1.5275344838e-06 1.7175808355e-06 
4.7325525011e-06 3.5955089318e-06 7.404140903e-06 2.1467586146e-05 1.7872613628e-05 1.6822248173e-05 1.4610625596e-05 1.5037816479e-05 0.00044304515981 
1.3254502226e-05 3.2363189461e-05 2.8537564741e-05 1.5317483112e-05 2.3743699304e-05 1.3339657704e-05 0.0037986445692 0.0022661733272 0.00097253629183 
2.5471097872e-05 0.00093874906467 0.0053161713403 0.0051584827618 0.0047420258308 0.0068633015391 0.0060254343492 0.004598038102 0.0051852364408 
0.0040936139891 0.0071859796193 0.0069846729216 0.0070653231542 1.1143491449e-05 8.5458470608e-05 5.9141784987e-06 2.3459233586e-06 1.8692636522e-06 
4.6814568306e-06 3.413708193e-06 1.6566367444e-05 1.2851551163e-05 1.1692935733e-05 1.2256372561e-05 1.1210233229e-05 1.0520491472e-05 1.0275839053e-05 
9.6455062747e-06 8.7657368442e-06 9.1276502291e-06 7.5010636738e-06 3.130491887e-06 3.1941033909e-06 5.9909574894e-06 3.4401977342e-06 3.5640893747e-06 
5.4465511283e-06 8.290892895e-06 8.7681661187e-06 2.4733689844e-06 3.4254698496e-06 8.3989484426e-06 7.867350648e-06 3.3349012183e-06 1.332717892e-05 
1.1411020597e-05 7.8950595258e-06 2.9591336285e-05 4.2379731873e-05 2.904240472e-05 8.2074277351e-05 0.0002573625963 0.00034739322007 2.0526022053e-05 
2.5079038267e-05 0.00013664229146 2.0406701192e-05 2.729177372e-05 6.3375000126e-05 1.9331186001e-06 1.1515859397e-05 2.3274206395e-05 6.7790763836e-05 
1.1079330583e-06 2.9564084058e-06 5.1439140991e-06 6.0120810029e-06 1.6880341135e-06 1.3407966794e-06 2.4506526567e-06 2.4916776698e-06 2.6791675052e-06 
4.3574349612e-06 1.4655445415e-06 1.5830571867e-06 4.0111540881e-06 2.0501887548e-06 2.0661043924e-06 3.5782907838e-06 3.574098819e-06 0.0033831325088 
0.00031452089131 0.00084664969324 6.4377773986e-05 0.0027021286897 0.0046910961388 0.00099664501858 0.0062089959849 0.0068970345577 0.0069510320867 
0.0046185199825 0.0070092612872 0.0071630006012 0.0073548784641 0.0073825484744 0.0073703084397 0.0073711550833 0.0063778535691 4.446801007e-06 
4.6629271673e-06 6.9483369676e-06 5.5546532631e-06 7.8386898916e-06 8.2136293753e-06 8.0745717993e-06 6.5628485781e-06 1.0500260597e-05 1.5080638122e-05 
0.00022919226029 0.0012471259058 0.00032080308308 5.9111197618e-05 0.00027974534276 0.0019415856627 0.0007783793829 0.0038218103598 0.0026031688076 
0.0028846418879 0.0013235394436 0.0029771622657 0.0038682210979 0.00058409356804 0.0049456681756 0.0053720860671 0.0025988833653 0.0013578452286 
0.0010442459533 0.0001510119372 1.6834052724e-05 1.5286817866e-05 1.3090690407e-05 3.0003591461e-05 2.3766693914e-05 1.4344727701e-05 1.1201289104e-05 
1.2143348407e-05 9.454075755e-06 1.4105585358e-05 2.1152617507e-05 1.1759661892e-05 3.5569073484e-05 0.0001259875167 6.166481479e-05 0.00075163916377 
0.00022643118039 4.2843703154e-05 0.0014713622943 0.0023839103086 0.00045052656898 0.00037923129596 0.00065401312517 0.0016907165821 0.0030348121553 
0.0023976324346 0.0012529717838 0.00064637965122 8.0729361884e-06 6.5978032006e-06 1.3455402477e-05 9.5483753686e-06 7.0592920603e-06 7.9477237793e-06 
1.0482970997e-05 1.3383376261e-05 1.2839211914e-05 0.0069196890174 0.0051474459785 0.0073023679011 0.007227984891 0.0066322592495 0.0058806193468 
6.9702861485e-06 6.2931742223e-06 5.0131609622e-06 6.0350632493e-06 4.2370279118e-06 4.8495419514e-06 1.3216069855e-05 2.5005677663e-05 1.387375078e-05 
1.7975486915e-05 6.2024159457e-06 8.7446650439e-06 5.1574944911e-06 8.7053823654e-06 7.8122576699e-06 5.5494065622e-06 1.249492486e-05 1.8507545016e-05 
1.7490442687e-05 3.0008045283e-05 2.3627195893e-05 0.0053097495369 0.0035843249142 5.3474608712e-05 2.3836397729e-05 0.00018526080795 0.0020375264218 
8.6416230659e-06 7.5941747863e-06 4.8532209419e-06 3.610940573e-06 3.4229262322e-06 4.7089370437e-06 3.2680881072e-06 3.3544385857e-06 6.1469060161e-06 
8.5236572494e-06 5.7116124154e-06 0.0042074827971 0.0034765587085 0.0041701540543 0.0034667420775 0.0021128748098 1.8655551548e-05 1.6875744098e-05 
1.3325788342e-05 1.3807794321e-05 4.2270264508e-06 5.6227130996e-06 6.0269625905e-06 0.0070743328786 0.0070797062929 0.0073733417893 0.0069655913321 
0.0069647348115 6.9670467188e-06 7.4838091322e-06 1.8990941327e-05 2.1940293789e-05 1.8593838436e-05 1.5524719968e-05 1.6779265763e-05 1.6742079374e-05 
0.0018628495056 0.00093430027199 0.00036829832166 0.00043774608162 5.2857225045e-05 7.4194938046e-05 3.5739935264e-06 4.99630148e-06 0.00064243262091 
0.0017291878475 2.8888142752e-05 2.633562591e-05 3.1757446714e-05 6.2269747946e-06 1.223741774e-05 6.7709166998e-06 7.6793022828e-06 6.5077096237e-06 
7.7130398433e-06 5.6162607263e-06 1.0824546528e-05 3.7954914616e-06 6.004779453e-06 2.2272150976e-06 6.3028087549e-06 9.6130817381e-06 8.0210000617e-06 
1.4403602034e-05 0.0013294268065 5.0432401128e-06 8.7881857413e-06 2.1179603094e-06 3.3269339429e-06 2.1129308532e-06 1.9254087301e-05 5.3419410936e-05 
1.591055864e-05 7.9091198817e-05 2.8434039169e-05 2.7433751785e-05 2.1745244414e-05 2.3729950901e-06 0.0018624302854 0.0035484546048 0.0040912562003 
0.005156351826 0.0052387259918 0.0051428605824 1.2154277948e-05 1.1595202914e-05 1.161795281e-05 1.0014554129e-05 1.0263650719e-05 1.57693433e-06 
1.7282511882e-06 1.8024617929e-06 2.7936598786e-06 3.6085509338e-06 4.4253791174e-06 1.4362161004e-05 1.3779637982e-05 1.3844048006e-05 1.2213033247e-05 
1.2269525302e-05 1.5727380786e-05 1.5430539241e-05 2.6100547485e-06 1.80533376e-06 3.2024005364e-06 4.4406946373e-06 0.0072657286739 0.0072494167549 
1.5557978959e-06 1.6479073172e-06 3.9922798231e-06 2.6211263049e-06 1.6530056987e-06 3.0664443886e-06 8.752135533e-06 7.6754081344e-06 2.3197195511e-05 
1.0836355667e-05 1.0838523921e-05 1.1193217674e-05 0.0051782854318 5.5320816154e-06 5.4333575306e-06 5.5282850663e-06 0.0069187910193 0.0051289759689 
0.0067959109594 0.001052656921 0.001341043465 0.00032801816507 8.2520739818e-06 9.25397376e-06 8.240449607e-06 5.9456644958e-06 0.0073671513319 
0.0074355975682 5.1594723845e-06 9.866992859e-06 6.0644577272e-06 0.0062952183738 0.0054249203001 0.0072795323185 0.0066298653894 0.0066298789306 
5.3094380812e-06 3.8286058062e-06 1.0538145041e-05 1.2727339005e-05 2.963931351e-06 0.0034312169648 0.0058661100848 0.0066314941 0.0072310267366 
1.0622636338e-05 1.8065472357e-06 1.7945711884e-06 2.0797441981e-06 1.5740558364e-06 1.5265096968e-06 3.7976718743e-06 3.8450553791e-06 6.8414682019e-06 
4.4424991856e-06 0.00012854497161 0.0072983217316 1.5185275865e-06 5.8403784119e-05 0.00028800003051 0.0010526012208 0.00022239975633 0.0073420893854 
0.0070385926451 0.0069350595742 0.0059372790939 0.0071403450769 0.0071401088032 0.0071419188059 5.5934786797e-05 2.8253655274e-06 6.3900851818e-06 
1.3373003681e-06 1.1562011492e-05 9.9568620238e-06 1.1598035336e-05 0.0038038153118 0.0045816094688 0.0030482822188 0.0024137554689 9.2911675423e-06 
8.2080025468e-06 3.6387179213e-06 3.6101876167e-06 0.0053355460638 0.0025988681832 0.0069657238712 0.0049209948514 0.0028679498349 0.0020019947177 
2.775173113e-06 7.1441372003e-06 1.0442877406e-05 7.9844621697e-06 9.9335814888e-06 2.2337185374e-05 2.0519231477e-06 4.0775789685e-06 0.00025346852833 
5.6067995607e-05 9.7752923926e-06 8.2881831668e-05 4.4170644703e-06 0.0072363402177 0.0049393886164 2.9754068692e-05 2.5277446839e-05 2.6696901485e-05 
3.6926009314e-05 3.4845510023e-05 1.6287133123e-05 0.00017590560837 9.3736749364e-06 0.0044958630979 0.0052227199096 8.0520927382e-05 0.00010594926692 
0.00010514725645 0.00049342860602 5.1377175166e-05 7.1604959214e-06 1.4345562582e-05 0.0073236964529 0.007136230135 0.0029861693913 0.0020579155469 
4.6964701898e-05 3.1282435851e-05 2.2013575372e-05 2.3179245166e-05 0.0006546015272 9.3554814621e-06 3.6310071943e-05 7.3496164841e-06 2.9965373733e-06 
3.0975521728e-06 8.1671359974e-06 0.0038581986566 9.9737152065e-06 6.7797867655e-06 1.4691799788e-05 5.5417129466e-06 7.1587101339e-06 7.8021651395e-06 
1.4693356396e-05 1.5764835733e-05 6.2851369959e-06 8.759399106e-06 6.2085562066e-06 0.0045626333782 5.7852178411e-06 2.2373636775e-05 6.4379278627e-05 
0.0059859156343 1.3028400781e-05 1.6299958124e-05 0.0002049228123 8.4977011232e-05 0.00010828797747 0.0019283892981 0.0026297486511 4.526412263e-06 
7.8457165393e-06 0.00021910539147 1.1076043835e-05 4.5579832951e-06 0.0074347554828 1.7998273361e-06 3.0635935118e-06 0.0012921144573 2.0524058987e-06 
2.1156263519e-06 6.3267576626e-05 5.159717245e-06 9.9916566686e-06 9.1316790686e-06 8.7097269356e-06 3.5647973239e-06 1.758126859e-05 1.1867543545e-05 
0.00059045346873 0.00049113303802 2.3279122425e-05 0.006896975556 0.0065149671267 0.0065011362633 3.4847679007e-06 3.1439024872e-06 3.1387248893e-06 
1.3047909157e-05 0.00097027051759 3.4562094386e-05 2.1169544354e-06 5.9868187059e-05 1.5430967118e-06 7.5414950709e-06 0.0013848864508 0.0037612866473 
0.0013818077227 0.0010249677289 0.0001953761126 9.9834212182e-06 3.4822849776e-06 3.1260213214e-06 3.1721399665e-06 9.6609334427e-06 1.5820258478e-05 
0.00020996761379 0.00047709269999 0.00020054544765 1.5764667989e-05 0.00013142447212 5.8774574657e-05 0.00029387975427 2.3898888328e-06 3.352490827e-06 
0.0007724323538 0.00016165361298 6.1786730455e-06 8.9498365082e-06 3.5533774924e-06 3.4399784409e-06 2.5851859073e-05 5.9461864246e-05 5.6857039805e-05 
2.178383687e-05 3.9146270239e-05 2.3357428561e-05 1.7322222753e-05 0.0037441229639 0.0031904517183 7.5279706878e-06 1.2241559484e-05 7.9385307592e-06 
4.4006427999e-06 4.6009763838e-06 0.0012652900979 2.7046367991e-05 2.307321954e-05 1.7106035175e-05 2.8892510982e-05 0.0053238220465 2.0370404285e-06 
1.7018998367e-06 2.3480911957e-05 4.2022162245e-05 1.6410170927e-06 1.6376944118e-06 1.8550940976e-06 1.8547902328e-06 4.1452207714e-06 4.1285745968e-06 
0.00048708872956 0.0070359648929 7.4231981652e-06 0.00034305483072 4.0849534793e-05 3.8410650913e-05 0.00019854028589 3.020193519e-06 6.4351226382e-06 
6.4191179363e-06 0.0055459219107 0.0046184383097 0.0003218950452 0.001381633328 0.00075842674101 4.4980772224e-06 0.0049373879614 2.0876028149e-05 
1.6716400816e-05 0.0029257828896 1.3938541605e-05 7.522191532e-06 3.7343262051e-06 7.0555175233e-06 0.00022134675975 1.2305149572e-05 3.4824122586e-06 
1.4733696111e-06 1.0896431298e-06 0.0066889462444 0.0036201220923 0.00060301296608 0.0014771959938 0.0023907159283 1.7197512784e-06 0.0013258404424 
2.5246809612e-05 3.9871069755e-05 1.4229818301e-05 5.9423302122e-06 4.5262648519e-05 0.0046955003968 0.0055775829611 0.00084092299991 2.6332750866e-05 
3.7124426474e-05 2.5441977391e-05 9.7738189839e-07 3.8671754497e-06 8.2368087761e-05 1.8418171483e-06 0.0053658441188 
Tresca%20Stress 1 1420 double
4412.1243492 4398.0741323 2502.1384706 2495.7725409 5590.951371 5589.0687529 617.78987514 648.43060415 9016.6469179 
10451.504271 8213.6733387 8656.1304991 3173.5631885 2820.3657535 10373.424631 11099.729633 9331.1220817 9113.5775055 
4749.4760429 4688.7273959 1.0473420028e-11 5.2774597913e-11 11484.462318 9885.886205 11093.865402 15040.740397 18001.578368 
21311.355443 18953.802558 17950.245313 13468.105259 5946.813245 4738.734783 5375.1689958 5317.9469954 5525.6306409 
6085.4269975 9864.9252108 10239.313573 9872.440932 12944.215148 16648.104171 18921.534649 20908.199571 18614.09958 
16107.365799 9553.3562823 4599.4316433 5107.1240528 5288.1736949 5291.8449675 5658.069497 5398.442618 11178.343007 
9908.8896146 11161.622018 14765.804395 17352.913648 21542.818912 19067.700467 17643.272799 13608.245591 5718.9181603 
4771.7607053 5381.7821367 5308.1420045 5514.3813866 5935.0500022 9657.2552133 10219.583813 9825.1268153 12837.673077 
16349.443117 18815.604144 21142.892751 19779.33952 16131.873735 9735.1789463 4613.6596154 5079.698205 5292.8596305 
5269.0167766 5624.3468762 5313.1734136 796.88224644 7919.932204 7005.2542692 6985.5308911 7410.3223517 5646.256921 
7902.6516941 6994.2215764 6975.1841205 7399.9320897 5647.9706546 542.1954623 421.11838374 214.86793528 834.15503917 
1112.2439308 670.52002558 280.50934498 448.49173959 1176.2121891 3205.6918678 495.67488596 198.24353439 892.42247473 
1159.5013259 670.79325681 323.03701342 518.9892444 1201.527186 3186.0511827 11014.376108 4142.5668279 10229.979755 
2240.5440799 4207.0985559 10346.89239 2122.4277179 11435.635253 10184.504474 9035.9862582 2411.1068606 9313.6418142 
6251.8913409 4336.8986422 9462.5651216 6264.745335 3152.0041971 11276.469287 9291.2582703 8132.2949555 9766.0977803 
8755.6959161 7420.8361087 6918.6032069 8868.9466398 10381.9581 8073.5828458 8112.345098 8751.4350527 7523.1452616 
6904.4151529 8823.5304838 10107.523071 7804.4486337 7866.9627201 1641.6307616 5504.3328142 4902.5780857 5306.1997176 
3748.7451172 5812.8776874 4642.9549928 5063.6925574 4237.7043003 8235.6738532 5484.9701642 4692.1130368 5359.0442016 
4813.9190333 5731.9806933 4921.3887224 4695.3982934 4205.9837767 7919.7179673 14513.038181 15835.750727 9916.6933542 
9246.5866033 10936.061088 15940.610253 10191.680374 6590.9456396 4664.2043507 14745.955651 16368.214624 9637.602659 
8026.4589474 11012.838388 15769.535742 9679.8342767 7473.4253682 4320.8961375 6037.5864024 11574.759679 10395.592135 
13030.965922 16465.131858 20462.521519 20651.800869 17917.621318 16538.957526 8822.7783251 5411.4863972 5517.695954 
5524.219564 6150.4000231 4701.6005351 10988.007859 7955.1282183 7921.9979245 10873.741771 10602.245558 4397.6385597 
4416.4896458 5778.7709809 5662.4994841 10231.172145 11732.037101 11386.375263 11611.950353 10296.571495 9999.3643474 
9787.2476371 10209.398503 9977.4790745 13939.812343 12008.535267 10903.564746 10351.060785 12028.017707 17215.74219 
15785.786638 14846.171026 13821.728028 15541.537604 20451.762775 18213.217482 17427.863053 16791.717341 17913.17467 
20749.797565 20792.544402 21507.619288 20605.13807 20709.103758 17521.399013 18414.617747 18934.531702 20821.578554 
18437.939908 14884.497155 17464.783277 17642.002934 17256.594022 17466.405524 7358.0915937 11329.652267 13227.004571 
15035.627607 11565.82622 4510.212291 5071.1533714 5937.1799028 7103.6004012 4927.1704314 5298.2690882 5094.3312521 
4803.9129438 5095.0023758 4580.9519623 5357.7919805 5487.5791846 5390.519382 5289.0218185 5496.1674178 5514.7623263 
5288.056916 5236.8707666 5350.5646036 5293.3269816 6173.2060331 5599.4519966 5503.6587489 5513.14011 5609.176711 
5998.7391113 6119.1672986 6079.4569047 8516.5511206 7621.4711984 4472.7976165 4473.2139088 6422.7342252 6419.8921832 
6650.6580473 6646.7115613 8175.2896843 8158.7035279 7686.2342983 7362.7660083 7881.8821273 6798.8690324 7330.2963353 
7667.7351267 3197.1998065 780.22127525 320.05867299 454.6708118 1006.1529212 4830.689907 4829.0921152 537.54672822 
424.37210004 567.41871014 560.2672098 687.01979984 716.037508 227.7832415 423.25243981 515.13369081 369.85175331 
683.60077058 293.92068656 225.86940697 212.43364587 300.47728569 1150.5581381 1070.665449 610.10793878 888.72391446 
1115.7898773 1148.0522228 1112.7870372 2931.3861504 6714.1140407 1915.9517073 1947.9225036 3061.396701 2962.5022576 
10185.410071 8097.2323447 5367.7278261 6374.5476239 4309.3381833 7655.7194436 8150.5195928 9989.2783877 5756.0706259 
6253.1209111 5466.9694629 7453.7388531 10687.164029 9467.8686343 10266.470244 9962.4404278 4005.6358393 3995.5707628 
8242.995556 8701.7001799 2855.1365556 7665.7706534 3876.1849825 4467.0253455 8904.6825028 9177.2152385 8432.8518206 
9658.365898 7659.1010514 7194.5782631 7151.0606017 9715.1700798 7135.0980111 7087.9453047 7701.0272134 7745.4806637 
7759.1645839 7998.0214005 9535.1320681 10052.082474 8854.3889761 6952.9864793 6710.3806112 9764.4228198 8882.9428899 
9860.5704621 9267.9872365 6945.5971184 6894.8428538 3042.4508642 6149.0107512 4740.8593679 4883.0262687 5960.6302242 
7713.9628925 7507.6304761 3299.029726 4292.1727713 5854.6999218 5731.1458931 5563.9125795 6032.4473073 4994.7674112 
4988.442376 4595.1960368 4606.9861787 4795.4311681 4688.6498231 4583.7671417 4933.4216831 4743.191601 5635.7204405 
5892.0070923 4746.0239477 4757.2716997 5555.4787791 7042.8508679 6210.2849813 5590.0425331 8552.7431764 13833.598091 
11390.6767 17705.447677 8194.122614 8185.7410185 12524.308794 12645.880124 3687.2997036 3869.7599863 6362.4354011 
5073.737705 17098.518931 16294.014158 14311.624934 16143.183847 11338.374716 14355.012142 14043.036941 14877.555024 
16398.346673 8169.2641807 6390.8924881 7156.8667103 9387.2568848 11835.323677 8136.1360059 8271.7459881 14418.459506 
15566.481434 14436.244005 11977.539512 13077.518704 3603.2652908 10779.973876 3083.5274618 18745.345413 4178.8020079 
10875.48678 9379.5427956 17904.289011 16553.691898 11147.821774 11185.572373 11474.310734 14977.01172 13330.123486 
2597.2556292 9845.0565234 5096.3886631 16125.620504 15831.186171 12881.725022 14256.370292 20101.185438 10137.132449 
9309.5328282 11665.596933 3468.3868869 2581.1518759 12768.455572 8971.0085909 8891.3524892 5233.0976965 2514.4947071 
17869.710413 12793.581747 17681.874093 9605.7718935 2936.4239843 2966.8925974 17072.427988 14416.176183 16528.540884 
6434.0071771 11954.052914 12411.050671 4050.1088535 10113.772349 5853.4662113 6153.7562137 2016.1829729 12057.285141 
3478.1807533 10444.135263 1680.7143993 5560.4616769 16214.232415 17063.794414 5652.5965919 8735.9974004 7994.8007289 
2963.0526669 3544.1336173 4579.8820189 5428.9072528 5182.6649367 1248.4046891 1931.2860793 2828.6036393 862.5550969 
803.65390367 2584.4193964 6822.491231 10236.130493 4669.8640708 5312.8969082 8144.6289633 9664.9900606 6719.3006623 
10077.358002 11325.322755 15107.964015 10268.77109 10815.700601 6327.5609547 7850.5814927 6282.6587659 11629.31826 
10496.916002 10119.568675 12021.797517 13589.064258 4276.7716157 4446.8246326 6814.4866751 6941.8228639 6186.3696334 
7512.7303743 5185.605361 5794.6133893 3252.9232896 2526.0930514 4273.4474194 11547.369847 11616.999883 9435.9520559 
12888.15525 13747.52943 13771.895925 13203.189579 16143.122918 14863.464998 16042.41148 16904.826881 16348.424251 
17480.93381 17674.016954 19354.18574 20930.792178 18654.94976 18177.464967 17628.870795 16497.020968 19008.201053 
16601.241365 16642.925893 16835.546485 17541.074644 15703.639767 13487.676206 15372.301178 6965.9789469 3877.7417636 
13461.203992 15252.063095 2795.3035014 3157.3486273 3106.7517065 4768.1159915 4329.2500154 4774.9591584 3246.2039039 
5228.8212948 5306.4897002 4623.181602 5508.8906064 5563.9076655 5249.9128534 5458.5002642 5444.849341 5373.9859387 
4119.8124999 1145.3076872 1085.9966814 2267.6417182 574.33846721 733.816919 2092.16469 664.90735772 980.36271253 
2101.0429126 2031.9660178 9438.6454035 6899.6695813 6657.0675542 8360.6473438 7156.1561416 6951.8845926 9097.9356043 
6633.4283548 9623.2857363 7179.857403 9189.0243751 6039.5265224 7417.9108785 9212.6235237 8947.1226469 9181.0737824 
10291.689013 11775.492734 13124.631897 10773.497704 6638.6550961 12666.790219 15375.663216 11195.230706 9251.9628939 
9964.3419091 10420.977415 8925.0425849 14043.852558 12749.470143 15288.270798 15983.101384 16216.824269 16103.660872 
14416.06729 13038.298129 12344.981912 13813.119213 14870.62081 13639.037054 15211.323771 17115.230745 13329.110016 
14616.408543 12884.643475 15812.9269 15899.72799 19285.948423 17249.612806 15213.487273 16685.353681 15577.526713 
17320.979882 13518.098079 12986.382129 9260.7736593 10742.640169 11301.863532 12743.554648 12069.022685 13645.161617 
12154.214925 14622.72629 12571.736732 10783.713721 10140.738731 10412.589105 9899.5222849 14287.869776 14114.115649 
13478.494928 14354.864746 11370.830236 10848.514065 15362.611987 14452.467598 3641.0996556 2908.4911767 4059.0240025 
4120.1821663 3119.3158362 3864.973778 4237.4129804 3530.6922334 2830.4419036 12523.055378 11172.170888 9738.0361618 
8535.5349171 11920.113007 8809.8534399 3673.4655628 2782.9275095 4085.2250353 2936.1627213 2510.2639129 2463.1450742 
17153.960662 18276.544684 18395.373943 18280.05252 3367.063971 4625.3220982 4836.6125504 2898.9612472 3324.9316649 
4640.7149724 10485.100648 12381.962634 10400.861279 10032.49572 9025.3670879 10007.513765 10945.003376 18189.124122 
18988.635661 16266.90217 15967.500626 11444.543614 8307.1654422 14536.33301 15778.271663 14309.353578 11958.050592 
13006.873464 3715.9155091 10775.012464 2907.1294424 18825.889071 4252.3133027 10416.143895 9508.5097808 18395.946791 
16722.62595 11070.032923 10995.586787 11332.041764 15422.316479 12643.004115 2769.6750959 9470.7874801 5060.3384565 
16244.04847 16231.903935 12577.489969 14183.680889 19503.644583 10255.777817 9380.168008 11575.866635 3461.8095725 
2576.5870396 12953.812252 8990.3928956 8931.3740998 2457.8227768 5107.8010007 17898.028367 12698.366106 17739.24705 
9940.5597811 2853.1262615 3072.016464 17131.04072 13953.582673 16414.387548 7131.3167635 11860.758309 11972.572695 
4071.2218519 9659.1385519 5463.2165941 6186.8769326 2021.6747313 11867.92471 3523.1405348 10915.97948 1704.5341922 
5570.9629143 16285.648618 16947.917545 8858.4473104 5624.7451663 8013.560322 3597.0963253 3000.3905204 4596.9921005 
5192.6067228 5438.7372616 1305.8393396 2792.2837591 1924.4743497 769.79189658 870.13652322 2525.8607825 10193.77006 
6761.6300294 4685.773397 4520.9672424 9711.2114466 7804.4437515 6250.8057731 11703.076764 9515.5304709 10865.43292 
14805.294704 11430.850219 9109.9800647 6321.0314343 6103.3444231 10451.059763 11209.342767 11398.094578 10448.75149 
12783.911829 4533.3743231 4014.1786491 6602.704033 6166.370377 6962.384391 7357.5605012 5764.7478539 5176.0736047 
3329.5722897 2441.819515 4447.6955252 1099.102485 1162.2244107 2222.8234878 757.04374488 578.65962043 2114.4934355 
1002.7241013 624.81938741 2043.2255891 2085.1983988 11452.691169 11376.723976 9465.1247464 13751.976718 12916.383267 
13169.077419 13802.554204 16211.921168 15951.552038 14848.936943 17015.40704 17711.167877 16725.349159 17924.480245 
21169.638953 18826.100006 18030.969418 17133.848807 18286.664153 18975.356384 16783.012306 17290.338504 16163.162685 
17140.479001 18379.624252 13989.105997 15984.912905 15785.994355 4252.2145848 8342.4467817 12005.943985 15136.371563 
3283.1656222 2886.5598599 3177.167726 4671.0371105 4731.0003213 4280.6516771 3262.6067589 5285.2364546 5227.086313 
4633.1789699 5570.8958465 5501.2580851 5278.8629493 5393.4149285 5454.7470354 5364.0370021 4142.3255403 9858.4168195 
5979.1538209 6798.1102588 9078.8960867 7470.3159487 7193.2903116 8400.9540523 6379.3149095 6537.4497056 9576.3588246 
9711.2924827 7239.4238326 6433.9323264 9178.734699 8968.303308 9121.6339894 9877.9053179 10954.829007 10724.184285 
13066.078971 6734.9762752 15779.15416 12481.901922 11263.791104 10707.184421 9133.8833208 10546.5952 8478.0870432 
15818.334957 13260.636011 13352.084087 16288.660453 15623.178465 14959.044894 16251.785817 11994.531173 12826.983331 
13553.922959 15453.026018 13724.62409 15163.848106 17338.50726 12961.651624 13143.240331 14397.668368 15551.621072 
16123.021932 19572.345733 16517.199732 15114.464461 17334.048785 17562.828042 15708.131384 12823.162979 13476.208992 
10728.116322 9151.3930737 12117.811706 12742.879499 11193.290706 14037.966998 14650.39762 11924.213755 12018.861173 
10359.553595 11386.066307 10421.10284 10254.704161 15050.958465 13942.066407 13892.730037 13106.070917 9557.5050437 
12135.074928 14589.36368 14391.866425 2885.5544021 3746.4498157 4144.3518196 4064.0793832 4228.1697121 3832.0344473 
3135.9843809 3547.1072264 2833.6278263 10620.149658 12288.539257 9719.6085421 8909.2711919 9523.804368 11855.780454 
2692.5360923 3564.3508788 4041.794631 2496.7183358 2754.5182711 2429.1073303 17272.180822 18452.799173 18204.845227 
18570.757613 4640.1872758 3357.8646133 4814.6354972 2929.3209023 3317.843343 4649.7321776 11513.292622 10559.528172 
10196.80253 10051.288648 9335.9186885 9875.4046296 10812.629139 17808.497995 19038.45517 16302.23585 15253.609083 
11334.788283 8380.0195332 2464.9878515 3465.5876423 2557.1154585 3259.9907017 11761.187742 11950.716814 11642.250647 
13531.509583 13131.719858 8990.9440185 10906.085026 8464.7881 10263.132776 12387.458096 4202.2810234 3397.8178186 
3556.5038581 4132.1402447 2851.4130143 2980.4362371 2464.2667141 7431.7756695 7210.8842893 8919.338545 6348.8650594 
6219.5240806 2726.4773889 1942.7401106 3001.9171217 4257.2621942 2997.457678 1051.9190535 1458.3353957 1394.1885739 
9442.8108901 12134.450514 14036.088144 15225.772565 14699.322134 16823.53576 4091.349866 4071.7491941 13640.950427 
13746.015752 17146.297452 16921.761607 15102.609654 10376.510012 10842.780024 10424.868282 9880.3521592 8916.5046459 
9213.6102725 13084.752756 16177.524155 9933.0654047 9509.1664824 4621.2331518 4447.1924132 6044.2602732 4354.7948009 
10555.163885 13591.660499 5935.1171194 10969.55695 5538.7760799 5124.7104311 5534.7740917 12608.128259 10194.979554 
10475.049489 13719.556662 13864.985295 13649.453737 11589.254522 4069.3893157 9248.0408557 12004.39494 11206.141447 
9874.5602814 8013.6599084 9688.9566596 1120.1533521 716.05102205 732.79261063 1682.4469683 2112.6674085 4565.1803067 
4756.2758519 5023.0715928 2579.9217551 2423.0015991 3284.5131557 1996.9439814 824.24106554 807.84667856 1118.2758638 
2255.4639134 819.46294043 2458.7594829 5316.6671156 4987.4024636 4092.2584233 4655.5069357 7445.1887025 7783.0687038 
4654.7340928 5476.0032967 5263.7485094 5296.0011071 5472.7649388 5547.9649555 11364.877875 8389.0371735 5751.1739355 
673.77087006 680.26920176 731.49799297 10064.341856 13225.880162 13670.749787 13702.282604 10826.926548 12400.253417 
10608.643743 15989.252477 15554.651272 16867.085253 992.71655526 912.47029602 1078.9195735 2980.0413877 9429.1740903 
9168.1400029 5037.0697154 11482.457316 12586.504655 11644.275931 12360.268427 9184.4133437 10474.466067 10284.398929 
6184.6266422 9791.9792058 11094.916025 2866.2535409 2932.6047299 9693.9514261 11751.376777 9979.4993805 8911.3051317 
2583.722344 4923.2109916 4925.6896298 5551.0988571 5471.8279563 5570.0011099 9751.079413 9815.0883978 6679.2853094 
12552.830102 17690.709129 9635.8617975 5588.0221831 16239.749711 16013.053261 14134.298771 15528.760562 8371.3198072 
6554.9832736 8364.0071169 8935.7885801 6616.9765414 6781.6383228 5237.605508 15176.441642 16349.77377 17246.972555 
16370.788672 17870.46931 17801.264815 13543.410843 12100.399239 12464.637309 10478.831836 12292.748095 869.63272536 
2466.6891642 15925.553881 15464.265736 12889.686097 14574.360495 11079.18895 12986.441049 14011.371818 15542.717268 
15484.033248 4255.0728883 3144.6962965 3847.3559452 3641.6384151 4116.6087015 5541.358014 5160.9718936 16688.475009 
18156.898127 20630.589353 19444.802596 20355.690976 9875.9663141 9633.6111618 16003.09013 5423.1771476 5307.0366609 
5556.4521013 5943.7705467 6558.4345955 16691.302167 9177.0850066 10952.148582 7594.4491925 19422.911197 18850.067036 
18832.374596 16777.728988 18044.281462 16820.460778 18102.727658 8327.3888188 4834.288483 14495.446505 15016.536451 
18073.490842 10040.157411 10621.981823 10560.12772 14836.967808 18337.327337 18276.404208 16233.399663 14286.648463 
14249.934837 16928.839821 14479.634928 4115.5486384 3654.6616666 12806.913627 4686.7034672 4195.5176314 3374.3464455 
813.17015855 826.29029473 3631.3660192 3380.9752801 4627.2991441 11888.801241 12577.620528 15054.589694 14539.333945 
10931.097613 17279.168226 15261.825412 11921.397798 7140.0617157 7867.4119196 14717.225451 13081.807967 12411.893813 
9783.4001444 11128.705036 19082.330697 18419.015228 8402.7833544 2877.7987129 4319.2823059 14708.871886 5462.0279811 
5490.4373702 17746.955213 4851.3569739 1094.448543 2079.949488 2915.4371178 5302.4797776 10271.878014 11982.893907 
8630.8268148 9498.7286118 9391.8118682 6308.0187602 6881.6683963 6779.1033436 7854.9179399 6178.6483609 6196.6194509 
11174.483094 12789.295972 8516.2481603 5509.5822774 8415.875393 2659.659767 2954.62164 7265.9118197 6803.2354274 
7240.4034004 8748.1013804 9527.6742184 1061.8708334 8653.9225337 8096.3813529 7959.1804709 978.88141763 8602.479092 
6653.8529589 7115.0711349 6591.7023942 8726.4427266 14045.136505 12031.912542 12034.747684 4049.9329766 5101.1997611 
15921.285698 19144.477188 7521.9543775 16077.884694 13426.49262 13419.189424 15571.341141 17454.494 15684.35413 
12810.840895 14112.862307 11477.782926 18250.713506 6586.2161298 8550.7366049 12518.400229 10850.390763 10621.227725 
12760.565061 12644.159232 13260.28982 16136.789922 15605.1258 16784.70658 17345.072696 9980.4163136 2918.0813811 
4542.4185855 18569.334542 11374.275998 4250.1147709 4357.1397381 2961.1455657 2996.9036177 5680.7431901 5704.2908657 
7238.259917 6763.1839454 1326.7632493 16539.438889 18496.935252 18416.66 17115.667543 3264.6517676 2772.8583782 
2817.0551442 7382.4039964 9724.5820328 13678.800239 12593.617443 11958.740404 13277.141165 10028.262068 14223.562668 
18681.662602 13066.262979 11968.623022 6367.8643077 7818.4396221 7163.5985892 10056.889761 17261.149734 13751.660528 
3684.1992859 3187.0212637 2780.0489901 11033.519941 17157.668162 10504.100018 10294.945338 3785.6398334 15549.240049 
18380.403103 17468.387199 18118.017855 6556.9461612 18103.571911 6961.9424322 7605.6599923 6765.8118299 6573.7928084 
6094.3801965 6040.8965971 4134.7892511 5861.8336306 7255.400537 7628.4334603 1636.8558359 
Stress%20xx%20component 1 1420 double
-43074.421735 -42903.583982 -24303.48502 -24232.736958 13068.549926 13083.553611 -538.50335696 -556.05265039 -18525.563136 
-24092.557843 -14677.473467 -17782.211932 -3826.2025586 -2886.0384733 -22305.7633 -25008.583161 -11631.780133 -11686.254069 
18813.664678 18776.840361 2.4286128664e-11 4.9613091413e-10 -76214.569676 -85812.839405 -87911.491411 -84737.292452 -78988.063886 
-70499.302551 -57552.509709 -50722.728961 -46441.959606 -41523.548893 -42705.899981 -45841.985633 -47085.117482 -46187.214713 
-42698.514554 -63159.854396 -80188.643446 -87737.150824 -87597.567275 -83396.675853 -73090.846821 -67194.221864 -56415.245165 
-48996.939831 -40070.587831 -40185.549651 -43842.797073 -46734.374675 -47033.701852 -44977.739846 -36648.050425 -76137.826765 
-85512.867342 -87976.683124 -84749.788117 -78251.785228 -70829.319448 -57734.612411 -49981.381913 -46353.221048 -40961.674823 
-43034.857751 -45692.032789 -46986.431752 -46258.347939 -42587.267537 -63242.593153 -80967.017066 -87391.722731 -87623.117154 
-81465.763821 -75270.164242 -68857.071535 -61343.93972 -47782.13374 -43176.644409 -40094.216805 -43847.675164 -46791.562884 
-46902.030642 -44806.732464 -36594.083705 27493.615719 -14500.574679 -29452.982903 -3765.8047852 -22164.742593 -32270.262775 
-14506.522792 -29510.876956 -3826.7546259 -22135.82909 -32200.951029 -1283.6603826 -897.35386586 -406.63023449 -1594.2960995 
-2649.7773632 -1564.3493844 -535.94826191 -856.57042667 -2814.7825103 3574.116334 -1005.4383882 -365.18487085 -1718.4896916 
-2849.5323083 -1555.8169215 -625.27732612 -948.63920207 -2549.6971299 3727.5356021 -32493.394947 -3184.358495 -22494.876047 
-2469.5797001 -3060.7090794 -23988.779874 -2373.6924174 -36980.855487 -28733.030666 -21862.196275 -4006.0862661 -8425.524416 
4070.728738 6935.5743913 -8835.5925756 7401.5183417 13490.046466 -27637.40978 -21930.494979 -18023.019052 -16227.680006 
-6310.6274842 -7158.9975597 173.93322259 -5013.3775322 -14227.94434 -3667.2789206 -11855.706436 -6732.7273475 -6630.7577582 
7.5982382116 -5182.2044437 -13907.451386 -2587.2596202 -10565.533225 55290.068819 8871.5629608 10143.383644 10947.472269 
-555.06542501 741.08827817 11686.988838 9542.9686964 1999.3152359 -24221.669474 8570.5768797 11186.254166 10616.572274 
-3565.1684184 2134.2808924 9878.1820126 10928.197004 1160.5285733 -23236.732307 -62830.65811 -42509.362532 -14036.179496 
-7988.1123309 -64061.673664 -50796.307896 -17698.426456 -27.996474209 9204.896352 -63535.543438 -42460.737769 -14055.900351 
-5099.4344607 -63762.243057 -51367.383342 -15422.551475 -4050.744366 10839.813207 -39586.360944 -81367.187063 -87365.56431 
-86999.477419 -82814.447313 -75505.606115 -64550.098472 -52539.105081 -50271.426788 -41395.460156 -44751.358021 -46727.75363 
-46891.284992 -45124.995532 -42187.690181 -69517.178145 -56457.092784 -56220.165674 -71247.522815 -71318.630469 -32264.017483 
-32387.56694 -40391.303731 -40337.900003 -84383.55769 -80690.025866 -76564.257267 -81407.425511 -88904.671074 -87753.043964 
-86336.603521 -84027.605223 -87208.856604 -86687.730775 -87478.843015 -88191.983309 -88859.51682 -87503.883374 -81462.826321 
-82547.091791 -84819.599077 -86205.645852 -83600.79328 -71533.787071 -74932.652899 -77488.785011 -80456.402449 -74346.794502 
-66329.052395 -65318.214578 -70289.958888 -75104.519694 -65100.965374 -49959.72661 -55455.932288 -57886.306057 -66301.072003 
-55546.408118 -50372.417062 -49837.571537 -51114.186468 -49654.842674 -50576.135253 -41790.539001 -40563.567553 -46917.326585 
-49890.984928 -41023.108081 -40591.578349 -42141.916524 -39645.552505 -40753.02621 -41998.70198 -45210.921283 -44643.275247 
-42661.68527 -44776.255421 -41245.431499 -46918.562618 -46775.835739 -45964.037672 -45115.575742 -46574.1316 -46669.862497 
-47515.73114 -47129.537005 -46860.561199 -47543.596357 -44275.774914 -46056.909779 -46427.100151 -46834.311392 -46369.383878 
-42830.308729 -44687.641633 -35651.962521 -7671.4561522 -22816.224809 -31541.190526 -31549.183625 -31014.615566 -31094.602321 
2065.7447315 2094.607571 -10805.140576 -10857.247141 -18593.610328 -26656.03553 -14570.111647 -28743.405639 -26651.126231 
-18449.689174 2024.1213226 -1365.5555399 -514.9028866 -848.09543136 -2265.5218831 7690.720871 7679.9841963 -1233.313946 
-1679.9436195 -1302.1007144 -1185.2273646 -1817.2111245 -1871.3740717 -451.0995827 -557.43779423 -881.12919896 -556.75477236 
-1147.7804744 -620.58744846 -441.13542412 -406.9824593 -569.22380048 -2300.4543553 -2688.9261159 -1003.825041 -1632.2501652 
-2620.8736471 -2411.1516121 -1805.8767861 -2327.7343587 -7398.4884636 -1727.7022764 -1939.101121 -2588.2901133 -3187.1450937 
-15828.827094 -9993.1530926 -4938.23824 -6375.531676 -5588.3474917 -8640.020697 -19535.370707 -27482.357571 -1210.0710822 
-2953.7300922 3805.9505138 -9107.037537 -27297.061846 -21108.459417 -21654.832572 -21145.524482 -4157.6425563 -1891.3114078 
-9289.8317543 -13800.777474 41741.943801 -10852.966601 -7818.8334755 -6878.7811538 -15092.83474 -18782.031446 -6534.9973736 
-8108.5063282 -2310.9341489 -4830.4137309 -7768.5082397 -20914.738151 -1889.463784 -1593.0776335 -6341.0982583 -6457.0616641 
-7152.0913912 -7581.1730957 -8477.7829101 -12669.480323 -6304.4097068 -1524.6601609 1268.1510065 -8464.5419768 -10760.351293 
-12182.773891 -8554.9270453 -324.83990843 -1533.9894113 -2066.2426116 6246.7417322 10525.485055 10456.968739 7222.7458639 
-13629.961328 -14131.459817 -390.49330281 -3320.4123441 8277.850582 8686.6963488 8762.7902313 6311.502888 9674.1834649 
9975.618312 11339.607693 11183.343378 10523.741911 11205.319653 12029.915014 10054.86731 10826.042159 9115.5726484 
2805.9870582 10856.581421 11486.81709 8986.8719391 -7509.4900654 252.65233296 5705.5302058 -3848.5508875 -28938.702717 
-72401.493991 -54564.733124 -60674.964881 -60681.792226 -64379.535064 -64797.254692 17204.986394 16292.346979 5149.1542673 
7385.1106455 -44845.76322 -59867.258441 -62703.397331 -59470.173612 -22152.376433 -34443.349968 -35130.070152 -39938.063755 
-43985.099974 -5090.1186357 1123.7281385 -463.3483353 -13306.023396 -23281.574003 -6500.0616887 -3407.8302269 -24799.432468 
-32106.388482 -40213.879941 -15691.079751 -34286.006332 -19583.589324 -12112.156933 -20264.531386 -46234.27022 -20566.826325 
-13087.003571 -6319.3983827 -52926.476766 -41690.667932 -53760.479773 -14435.385623 -49608.221544 -47941.856344 -26515.441314 
-33452.442902 3099.6131046 -29923.969173 -56965.625181 -31054.06522 -24368.344605 -24871.842309 -48626.414655 -16667.6096 
-5614.6983792 -24890.980034 -8838.3669167 -12395.582521 -27419.083398 -4524.4600544 -1432.7676988 -28474.94846 -12816.963794 
-60395.954498 -18465.927713 -37835.376956 -324.79250933 -10830.2547 -29118.347201 -49487.053261 -44034.52756 -53467.548897 
-34155.304966 -15795.125431 -29679.543964 -34447.372025 -47604.451829 -15132.365061 -61725.580307 -7984.6275038 -66260.1735 
-21158.307861 -8326.8452972 -9337.1213951 -34644.237919 -65708.315738 -36866.970925 -60780.809684 -68580.891318 -62941.588004 
-31357.880612 -29551.86197 -35234.981331 -12575.065918 -1671.360768 -6725.9059902 -4258.7521149 -6617.6940355 -4343.2101547 
-3743.3673999 -8690.6830707 -11986.711533 -27427.86694 -5331.149021 -8833.2273631 -26222.930656 -50362.043388 -31229.600901 
-22409.461904 -22956.562147 -58158.239741 -24040.93047 -23562.290632 -6245.8875607 -9046.3552719 934.45499263 -28670.528105 
-15389.342771 -21510.968639 -22338.940515 -33329.73865 3653.8032757 6424.8454071 650.9260802 2929.5742226 1672.9336976 
-6495.2544034 -25055.09617 -17881.580241 -16526.325286 -25500.871956 -12945.609475 -69305.657112 -74160.920081 -64250.737292 
-75564.555482 -75998.700269 -63089.073925 -70192.580144 -61476.878342 -73277.271944 -72352.426514 -64436.254963 -69160.403417 
-69342.970859 -56598.334263 -64163.898128 -66400.29495 -47058.437186 -54606.812982 -51970.198561 -40215.249249 -55243.524226 
-44691.693945 -49375.721181 -52854.097999 -55326.178625 -49789.124557 -50262.392904 -48903.227393 -32872.240864 -47152.665985 
-55367.323826 -47152.609762 -40219.494609 -38582.934123 -37541.25141 -34487.686946 -39379.885025 -40062.174969 -33346.119084 
-37100.925178 -38151.190224 -32344.695287 -40484.486718 -39891.017486 -32811.633449 -36795.128787 -35006.028859 -32072.24402 
-29523.119932 -6420.8527866 -6450.4006972 -10345.759056 -5181.7325401 -4849.2332643 -10884.566474 -6486.2093615 -7032.1186882 
-11450.548557 -12531.169222 -16868.69508 2710.4283577 3893.166533 -2997.0533403 3443.5961288 2455.0575479 -5475.4205535 
-2377.724764 -6743.9020204 1968.0948437 -6114.0661893 -1151.8696912 -391.02013498 -1643.2937227 -6747.9448327 -8011.6834135 
-10627.027629 -18864.111012 -46537.526365 -56440.680376 -54341.681819 -26441.113594 -42493.473674 -34375.286694 -12031.743586 
-14259.9347 -9222.0700032 -409.91459057 -24043.325061 -18839.200499 -28585.140693 -31190.544827 -33959.21245 -31880.640753 
-25627.866729 -19913.527594 -17714.50284 -22852.830336 -31008.248729 -26946.851197 -37133.458622 -36700.293617 -23879.886186 
-28162.197185 -20831.488009 -32797.051815 -32233.70822 -48051.41724 -52238.422841 -47897.559064 -42820.806729 -35471.286706 
-38038.335029 -54980.668367 -47598.544495 -50634.962208 -42928.261082 -26178.135375 -34261.546195 -34527.780997 -25762.365955 
-19160.622306 -27675.322629 -17826.774003 -16402.436264 -8632.6938848 -10540.425986 -8522.7197767 -41737.58844 -39227.413132 
-36018.167582 -40034.9218 -25145.525514 -22934.832021 -44310.957696 -36519.803061 -26844.474323 -26669.602925 -23838.308238 
-18453.140253 -15897.506535 -20894.692065 -25098.798265 -13895.295666 -13743.32089 -18619.766369 -14273.07322 -7879.277969 
-3525.144841 -16127.628037 -4376.8905949 -20605.509325 -16697.685488 -24448.292883 -24910.016125 -15464.803844 -20394.203321 
-55748.928565 -41896.948476 -50049.654771 -53237.339926 -16606.741722 -25174.900939 -27597.428219 -14891.158748 -16687.699067 
-24760.310945 -18685.378759 -22561.02926 -11219.263097 -9252.7963835 -5062.7067792 -8798.6865048 -11987.515135 -44527.990281 
-47442.955175 -33050.165146 -39724.752699 -60256.459141 -57894.209145 -25141.27266 -31938.010152 -40172.604708 -15531.699242 
-34259.748979 -19413.297286 -11687.931859 -20374.634026 -46094.128137 -20525.650885 -13659.049952 -3821.2554456 -53172.223237 
-41432.027924 -53676.995574 -14092.460702 -49451.469068 -48793.684447 -27573.237175 -34089.214381 1950.0936171 -29982.822667 
-56346.506011 -30844.372636 -23661.503517 -24189.478269 -46586.810985 -17814.764083 -5541.3925955 -24460.330547 -8801.7903733 
-12384.462409 -29022.390068 -4563.6183821 -894.99905423 -12841.23233 -28509.240347 -60229.881574 -17861.324841 -37758.439074 
502.10681691 -29392.960253 -10965.264108 -49885.908522 -44344.758227 -52437.742093 -36858.367791 -15294.251128 -26584.546197 
-34357.216227 -47416.490418 -14781.622423 -62328.558744 -7955.0848093 -66836.234625 -21199.502545 -9262.933185 -9284.5727376 
-34533.62281 -65637.741187 -37757.400777 -67860.870469 -60450.720637 -62970.257751 -29676.507599 -31268.350453 -35241.648806 
-1669.4642239 -12615.113515 -6704.3016619 -6137.3337933 -4017.9112224 -3855.9635671 -4353.0211897 -8767.4178053 -24860.592655 
-7827.7522234 -10737.043151 -4787.5233484 -49454.507674 -25136.140327 -30953.723015 -24434.986649 -20183.553622 -29086.245348 
-61169.467153 -27676.853441 -13562.637518 -7469.4635577 2666.0917335 -15610.893726 -26447.999023 -21142.465504 -21900.734732 
-30163.545367 7265.7747667 3387.668183 509.65491886 1340.7840212 2867.5939374 -4352.0763272 -17800.342778 -24979.659579 
-16436.118061 -25349.775748 -13518.139683 -6355.5998831 -6388.4358144 -10485.66999 -4778.2971702 -5144.9222277 -10847.317781 
-6987.5672939 -6492.3373488 -11476.420086 -12354.656668 -74376.988938 -70386.709642 -64225.804395 -75893.270712 -75368.50725 
-70253.085636 -62965.109105 -61694.608992 -72299.147427 -73433.140821 -64084.586884 -69806.715438 -69485.217866 -55730.620325 
-65406.663684 -64702.215331 -44996.612871 -49780.820392 -54919.722742 -52908.85911 -40347.685461 -48386.862339 -49572.141996 
-52377.921699 -59607.823648 -48977.226888 -48602.014056 -50450.833036 -42736.135999 -39118.993791 -52018.192078 -46906.003512 
-38657.573644 -39963.925785 -38773.27209 -35470.581162 -39977.929001 -39549.679506 -33478.30492 -38045.707603 -37317.227374 
-32475.151272 -39912.100441 -40433.09563 -32693.506473 -35063.914567 -36677.554703 -32121.363712 -29286.613992 -19028.943124 
6540.9382199 3056.872692 -5465.1103064 497.47863035 3647.6693618 -3185.774529 -2504.2188045 1845.7167103 -7050.3147677 
-7662.9471895 -735.35355664 -1455.6888264 -1114.2717314 -7271.5748327 -8407.1904029 -9195.6815043 -15783.263412 -56321.365401 
-46499.797831 -54700.237935 -43672.747279 -25559.280055 -35334.253732 -17160.072615 -11363.761398 -11494.577525 262.82607616 
-31225.450544 -20617.362938 -21817.167729 -35027.641042 -30201.022009 -27538.347415 -32030.444898 -16379.043707 -18829.718257 
-21792.980089 -38554.110269 -27589.2889 -32231.354888 -36594.935549 -22427.728854 -21610.298948 -27787.828206 -31156.713086 
-34580.802743 -49672.260576 -43032.993586 -47871.784143 -52416.740257 -38012.335242 -34847.028538 -46957.862332 -55078.473019 
-42900.288797 -50739.279438 -34458.017358 -34047.211284 -25355.407715 -27407.434352 -26363.323876 -18406.383282 -15048.416654 
-8487.6274244 -16223.553683 -10787.468025 -10199.197312 -44585.84199 -40213.201724 -37595.917341 -33242.03506 -17288.357675 
-29042.396519 -36045.174212 -39029.636859 -26536.084099 -26747.75347 -18487.322924 -24107.514506 -25034.180853 -20989.199377 
-15887.097122 -13800.324997 -13704.942619 -11697.916449 -17574.332395 -7672.3047594 -4747.4566426 -6743.9064127 -15782.795016 
-16957.802085 -20421.766042 -24621.237468 -15382.314713 -25109.448669 -20500.807558 -55999.591362 -42577.966443 -53082.212655 
-49017.68559 -25262.871307 -16629.418446 -27571.996164 -14840.291845 -16581.67691 -24704.600373 -23052.446899 -19630.537033 
-10426.132607 -9671.7053021 -6342.9441112 -8189.2765273 -11604.400304 -43956.259073 -47286.788886 -34204.269543 -38157.4074 
-60313.272874 -57680.518507 -20584.452863 -21020.276361 -25695.437215 -16138.290855 -72635.251793 -71807.047669 -67274.051917 
-63120.225511 -68596.742364 -14198.572223 -25481.044432 -10407.069521 -22634.853132 -29592.914951 -12648.041972 -8906.2242999 
-13877.404391 -18337.924509 -25139.127 -20308.405922 -15606.302273 -1316.8845197 -875.30362766 -634.47176353 -2692.2760978 
-2079.7008621 -16760.078158 -11872.158306 -5428.1229181 -8398.0850016 -5317.6580897 -2451.3775313 -4878.9073625 -4842.3511408 
-19278.887568 -30447.752167 -40835.523072 -45476.028077 -46247.353863 -55250.682083 -29298.85461 -24405.106443 -36211.092834 
-36677.263874 -53462.314798 -52051.579777 -46134.592627 -17452.195745 -10285.899423 -18305.755059 -14604.667593 -9402.0354277 
-9902.7171476 -69023.263567 -56363.405848 -69401.834112 -64713.000082 -39722.798034 -38366.73162 -32651.506291 -41714.031679 
-50840.894426 -37144.862324 -38563.675343 -49051.875941 -21736.636542 -16770.831364 -21860.52508 -59079.309841 -36322.614371 
-50794.570149 -41557.095663 -47472.695789 -47469.503298 -47357.622027 -26074.643356 -18317.862508 -25302.372033 -23666.668753 
-22360.463737 -15030.249515 -20533.29675 -6431.6038982 -4853.0468723 -4813.472347 -9330.5934544 -10886.386637 -39177.554304 
-39624.283082 -40537.862812 -39320.286276 -39097.019636 -39804.731007 -8030.0015488 -4538.6659574 -4645.8320479 -6503.5166066 
-10304.488821 -4202.193803 -8738.2919429 -37793.270133 -40568.150174 -34243.492055 -32279.431643 -1527.5512295 -2226.4765472 
-39322.815097 -40744.578232 -32517.673979 -37974.67575 -40741.484007 -34549.564505 -60169.746022 -58087.557907 -15652.495541 
-5067.2604304 -5040.2604263 -4837.4049733 -19623.523602 -69861.905338 -70801.028154 -70288.642933 -12799.325128 -18176.873065 
-11315.719266 -33833.240675 -30555.677264 -37028.553149 -6484.7110999 -6865.2560842 -6464.3276991 -10416.10693 -7300.5743353 
-8046.524303 -30104.377475 -17208.727098 -27118.235739 -18336.748717 -22362.713364 -11392.284623 -13869.096058 -14696.582194 
-61890.505663 -70713.646904 -53693.205575 -13680.197163 -29218.352951 -18049.999474 -15387.336138 -8598.526646 -4863.5108172 
-12439.376397 -36371.609283 -36133.995836 -35952.141096 -40499.06989 -40349.051517 -59535.042179 -59986.820238 -55440.634995 
-51223.988884 -56766.524253 -7373.9436395 -40284.468925 -34286.184111 -31428.022907 -23876.475322 -29566.148947 -1493.3665416 
-2001.2796517 -3165.8046958 -4823.5618393 -779.54061894 -687.35019327 1370.0613521 -49718.273038 -72075.730831 -70404.740913 
-71609.756215 -55432.803505 -60329.044112 -54948.776248 -16860.78159 -25198.853202 -21419.676862 -29873.65056 -7125.4331823 
-12846.13102 -72473.729835 -73225.842539 -20762.005092 -28019.830855 -14183.366496 -22510.928601 -23974.480588 -32313.769223 
-73239.578856 -25051.674923 -15865.642558 -20933.459287 -19553.027913 -8764.7767679 -36167.220377 -28447.959692 -44077.891673 
-52140.735712 -67370.93535 -48038.307937 -65408.488384 -13855.656968 -15518.469338 -48822.33172 -9842.1466769 -10308.166837 
-19584.431489 -18271.898922 -26438.675464 -35769.567486 -50679.887785 -23739.331346 -13534.268445 -55946.269486 -53749.123641 
-53850.098129 -43434.14304 -52897.500721 -69812.661927 -53999.978655 -403.35169135 1421.3763326 -30637.087833 -37007.72198 
-55643.246263 -9567.1196983 -19582.774478 -12963.940976 -41957.440169 -62719.865616 -46632.137126 -65531.20813 -76324.029415 
-76345.899559 -63766.389824 -29573.185494 -24805.470345 -26885.454828 -47177.069915 -24733.971847 -20628.329103 -16683.501229 
-4509.1621972 -4227.2208751 -20598.23503 -16528.31367 -25257.71359 -15514.711886 -27784.10481 -49482.97282 -46265.929582 
-25718.547349 -52191.164268 -47874.763616 -37132.779705 -16399.789786 -14042.18166 -26776.561325 -19952.128172 -51710.531622 
-47802.900144 -35660.218392 -65159.113976 -64437.757139 -4838.303124 -38707.380929 -34990.62125 -37493.417378 -36706.832709 
-37461.313775 -43432.641852 -27507.196331 -7066.3736569 -11288.814753 -14872.990313 -32126.904731 -10739.928016 -22464.632368 
-20680.972981 -28222.845453 -6732.5850828 1092.2874005 2066.8579151 4704.9370644 -62261.98008 -65772.816266 -65984.826934 
-24976.963949 -41282.596336 -25956.072026 -37360.44762 -2732.8848207 -33924.764053 -26319.62819 1518.7541147 3300.4511598 
1559.5445619 -4343.6737526 -6594.4464885 -7084.0870462 -66701.016 -64009.013046 -64128.062739 -7099.9779155 -2080.1685962 
3432.812814 1739.0176932 3509.1534198 -598.07970762 -25214.282411 -19595.811529 -16453.084949 -26194.011543 -16759.281743 
-31235.061132 -46994.830519 -5394.5319153 -61972.009055 -75515.942859 -75867.195294 -48996.685028 -37629.426715 -30774.167449 
-33541.884942 -27736.779509 -24992.942063 -49149.164039 4044.5069495 -3481.2634603 -27586.55111 -42980.948149 -38413.570439 
-39138.642762 -39327.830462 -20760.426 -49634.122671 -35161.321538 -42676.034925 -37970.631708 -8631.329949 -39264.877093 
-34622.707209 -46861.849679 -18387.553991 -33179.652049 -33231.834872 -31628.325341 -31765.890312 -9391.2883357 -9405.1716905 
1509.7404201 -2356.5634853 -5746.0030796 -44293.437302 -56067.522912 -56221.761798 -49911.52458 -33955.502812 -3788.4502141 
-3376.366244 1628.1940808 -7977.7640658 -22935.96544 -17954.035075 -15816.740603 -45665.180858 -17831.605488 -40171.519937 
-46128.959015 -20041.996687 -34470.786914 -154.87973299 -6741.1660136 -2859.2841603 -8546.3110887 -56014.478945 -75768.899859 
-38362.472162 -38481.857737 837.28597245 -12365.460092 -37424.194608 -11018.655967 -10218.768701 -38192.626617 -38013.989145 
-42786.760419 -51487.551554 -53409.017551 -1382.8180626 -55118.748384 2201.9138721 867.33584369 3136.9279964 6411.2393362 
-2092.4385277 9297.1658129 -40473.265606 -3261.8045187 1210.6272371 -75557.123101 5521.7178923 
Stress%20xy%20component 1 1420 double
-752.06768615 739.00228371 406.58314593 -402.76471073 235.60891792 -225.41985816 12.275943131 13.69908921 365.14411732 
348.71511014 1054.9740599 -723.90025292 176.27781386 -744.10775082 -131.06778846 -185.487926 1065.8406416 -1159.0767462 
-99.05502202 -65.621360678 -4.2690460542e-13 -4.0280122411e-12 8.8275089227 -40.72026066 105.45717036 47.756251046 66.786106624 
410.66837051 188.05284145 -13.562124852 157.32184597 -65.40887344 -76.18987211 14.683690635 -43.427681357 -30.559307507 
-54.160952442 1.717782817e-12 8.1315162936e-14 -1.7279472124e-13 -2.2785186281e-12 -5.4574332792e-12 6.6746196244e-13 -40.347575864 -30.856571056 
-5.6005818472e-12 -3.1187753118e-12 2.8223137803e-12 8.4279778252e-13 1.0496855799e-12 -5.0017295535e-13 -2.0085268762e-13 -1.6609522002e-12 -10.971896416 
43.374137949 -93.694665744 -7.6208771402 -184.17683402 -367.79462795 -299.16900664 128.690346 -174.46939209 109.89732621 
58.447591236 -16.783675758 34.45291458 26.965962366 27.110798379 3.1238575095e-12 2.2459078596e-12 -2.2437902773e-12 -3.742191561e-12 
-7.5817919109e-12 -8.9802433068e-12 33.622989761 32.933245808 -0.096742974341 9.988212514e-12 -5.0940561448e-12 -5.2007822961e-13 -8.6450300179e-13 
8.0806943168e-13 8.9833138012e-13 -1.0952136008e-12 9.9164498572 11.652567184 -16.555849686 2.8959594276 3.1458803661e-11 -1.2088854223e-11 
-9.7946673155 18.445773033 -2.7371895709 -8.3170165091e-12 -4.7757411632e-11 -16.956216382 1.7535564962 1.9632370937 -6.9950641947 
-136.4874011 -136.76274233 -3.0919838307 9.872566511 34.036855451 -75.579970168 -18.863503819 -7.7702599913 1.5879306182 
132.90980547 150.25609069 4.7265450818 -20.657850718 -89.275609532 39.935177834 484.10363491 439.36910893 411.56522731 
105.09687972 -127.06354476 -53.53637436 9.6248486836 -321.19404585 3194.0440688 -1853.7171071 -166.64621032 2060.5344791 
2861.861843 1416.975756 -2577.5465906 -4143.6256237 -1462.1122676 -73.816334663 1208.8439575 -966.92796556 74.828923295 
-354.80924535 48.472960945 -669.62345387 507.77848097 -790.78527877 1367.0684947 -1610.5465328 370.99313451 -146.77311747 
455.10562228 -524.06682664 667.07487481 -1245.8372727 1344.3234933 -224.74041131 -131.09588374 296.8994037 -816.33690598 
1168.9351405 -76.554040309 -12.388377163 403.77827841 1578.4923594 638.03201063 42.865631694 -101.38529112 278.03385291 
-741.07217302 -127.31578743 368.90219461 -455.58164091 -1553.1987612 -551.77706331 -11.702447545 13.104808443 278.1500226 
46.917104742 -6.4374503991e-14 6.6196015781 129.43690628 10.557530959 26.81619426 21.076981181 -92.561637867 -211.18379862 
-1.0104486771 5.9292306308e-14 -2.6515936423 -176.40258476 -55.111875773 -3.606672204 27.610474656 -106.45901854 42.051064322 
26.376706264 40.923018786 180.22808207 -162.42082309 21.595514302 -70.036059031 -38.259631797 -39.089377866 1.8792650421 
3.8549490254 19.665894772 26.116335138 -78.565830329 -357.2400104 329.65468428 1.9642694047e-12 -60.36057455 -167.98451552 
176.20304406 -6.0630353667e-13 20.101230261 -125.23651683 183.14554852 2.0121267662e-12 -187.06507729 27.695661208 100.03316673 
1.248314806e-12 112.20351628 -107.91779142 -3.8844930961e-12 128.47258255 -1.8424025394e-12 -1.3624524957e-12 -128.27773281 185.6466531 
17.074234683 -3.2606533305e-12 22.295183469 32.610727455 518.65963746 -2.8290900438e-12 -6.3637585327e-12 -214.2855887 -5.312704047 
-76.722967087 202.22534456 -26.990345388 -550.41154541 -322.55067997 98.798872949 177.60765507 -3.9537504307 6.7187833226 
-358.28025252 40.860803862 -6.0450315474 0.46263282016 10.963544979 -0.18378878738 162.13361809 87.222015029 -3.8489177123e-12 
-61.373244498 -215.01602255 -6.3527471044e-13 -147.77990401 1.5996217209e-12 -142.48118881 187.20838828 5.7857692417 -46.316267509 
-4.5464493444e-13 12.601081698 -2.7624451074 -50.16469396 42.763454012 7.2356796902e-13 4.0911691352e-13 -57.73824264 -61.159955547 
-5.9095569334 -1.0058516249e-14 44.889202725 -5.3950704784e-13 -136.44730879 1.0927254415e-12 -5.5329780301e-13 50.428036023 12.15809555 
-1.2050102466e-12 97.643838321 -0.1938494178 -2.4156603756 20.817595827 146.37390726 -136.86132595 54.071522645 -58.248310858 
-110.18660015 112.74484969 -15.808623718 15.552170769 10.908449566 -56.078025842 1.5029299808 -2.6815890949 73.353964683 
-1.3752503798 -5.9430798422 7.8749885347 1.3587819768 11.626741746 -16.050290385 334.24377074 -348.09611994 154.77831463 
-59.512186885 -74.43944633 87.042159995 -36.560788593 8.0454360379 -8.3858115461 -30.575396135 -12.028247394 4.2253371845 
30.483354618 0.44696094843 6.2942032072 -3.5373715749 10.759319474 76.410118603 -24.42414967 8.4605262202 16.913468833 
55.085975268 19.032013375 -86.585855571 -39.102829131 -191.65771952 -50.239686517 30.169214789 151.47387507 -101.96685171 
-184.71872137 120.73524115 -292.89600528 205.94681364 -64.35550262 -210.21985046 241.03655693 -702.94739241 1735.3229226 
-1414.7248156 33.645920057 -5.216537385 -83.879037616 49.284209815 -450.62477189 407.48675322 2141.1817723 -2276.2111909 
-893.28239423 861.20978728 -222.52274372 -749.74091682 753.04103054 -1871.9606484 755.7248485 -1386.910926 392.24368171 
156.86378481 267.72937231 -67.367091846 -461.70493255 127.63648633 621.33819142 -349.13215621 -1409.3129011 1293.6461934 
580.47665709 -676.76683568 267.36184964 -796.83738763 61.406302933 1010.5555167 124.96700238 557.18558358 413.74008098 
654.23641659 -177.05794542 -296.98218777 -788.50958702 -252.51563817 18.78268622 -3.4928591851 -58.105944077 -67.512722017 
1326.6278442 -1565.8309608 717.11518506 -440.44585571 390.67813125 -377.80418318 -180.1397759 -44.789607823 -196.11736169 
291.91505888 -19.499823916 112.78593939 193.43748462 -123.89465799 -59.356492141 80.112838405 -63.987971324 -621.29964098 
723.43820785 -10.770337113 -188.83907047 325.32866538 327.45951467 -463.0642774 89.911166 2.6807871775 -142.96061843 
-3.8863452637 15.558646945 237.20478412 -269.0960984 -3.6007740059 16.885253844 -51.217988045 31.186188473 45.124083313 
124.27042485 -50.779686061 -24.60348749 -11.070908249 45.579439574 -411.93146584 -259.85343812 201.61345579 -37.782724495 
-39.713809858 -1.7311864343 -10.943150187 70.064354064 223.07917674 273.55522636 45.073471375 1.52024554 34.157410203 
-247.48081405 -26.349260421 -15.602976952 565.53920837 -3.1904904053 145.97617645 17.488945823 2.681870471 3.7453652755 
-32.263264954 203.50299302 -11.064008874 136.91246119 8.4578104681 -219.99071348 -1761.5681318 -350.82270618 -236.16857799 
43.975139647 -849.03070945 15.139670622 6.6755103757 151.9546678 33.629547617 -46.288653787 80.599660262 -462.22349026 
-3.7878413877 8.7443189511 -30.823837916 -7.7550688256 120.10238226 -156.38922354 -76.186324407 26.647576584 3.1445331329 
-64.554651457 -150.13295137 303.64482333 -41.605267196 -51.53404466 60.216337341 -524.36862046 453.08138607 -105.36263582 
155.70903355 82.938677217 26.561445945 11.51313802 -11.507324176 -314.73609004 -42.462682235 23.390526429 15.408209751 
-7.4823051542 -42.378089818 1.2360245068 -6.2547457343 -6.0692456815 135.14583336 -440.95872725 -84.327498811 -17.533297792 
286.23855666 50.810538603 57.658561874 1.7584163869 -0.54461134548 -145.68014879 -16.483600431 172.73923958 27.715399377 
-43.71266481 -39.936368577 -2916.6938516 -2336.2217202 -104.39835156 -463.6259358 310.94887115 -853.68050058 -884.37178246 
181.25345794 737.02069799 -1348.5098812 964.44916551 -18.642617294 -680.00476778 -710.56367318 2094.3498279 -557.64895746 
-616.97925196 -92.449576686 283.37161843 -181.6497653 -1026.8076387 -939.82660477 -984.69056835 -338.18554826 -85.501099675 
-78.496481688 -39.301246627 -77.461312263 -22.221494932 84.300434296 3.9390154538 -70.500696929 152.80538134 -257.17522022 
31.655814224 83.309309726 179.52352246 -25.44092509 -55.927411546 -20.142259565 91.389781726 -151.1819132 -37.02125605 
-63.440003351 -24.178157223 90.23400253 69.131182627 -66.732494475 -737.50336728 -217.75623348 -459.21406435 -36.250999887 
-248.2703599 -158.36886303 20.366802983 -455.3411527 -556.96878969 -407.12217052 -244.27088601 885.92145235 288.25839535 
-422.07067128 39.341755274 57.278378368 -6.7275213226 -194.35363434 308.76818749 1.3119747362 13.13264273 46.521477884 
-2.5184862255 26.576236772 -53.959338898 -47.048440175 -10.321944349 64.305946901 14.141186377 50.076181284 30.719299099 
156.62258914 -19.031023725 1.3703886581 10.10788336 0.82561702364 6.4027934956 -7.320426052 24.599814185 -13.022174197 
-4.1083140301 124.36655562 159.0184054 148.62771807 250.17378988 195.625047 -554.67215774 83.33132239 -96.491201256 
823.34940788 -427.9220329 366.11515159 18.01751676 -323.6156198 -272.29966003 -120.21110343 -1093.1561659 301.8642105 
-339.54419513 -101.54007423 -88.331043986 -35.647141178 -14.784373417 -593.63159127 -656.46272284 -261.25784287 10.656674189 
19.88582523 -509.65725879 -223.57331589 -27.893483159 -6.4134715424 49.698469449 153.21400949 253.38253899 101.4034689 
-0.58969370084 -33.366866705 -52.029183681 -129.75096189 -219.65387246 72.219927919 16.015967563 191.25799318 -10.05155831 
-161.64093368 80.596012212 -167.30604455 35.154282156 303.85862503 -40.523566195 18.024384215 41.211743776 -77.975333468 
56.98430202 -15.982627298 -3.0263600306 8.5595483117 -50.163638759 393.33534432 -12.351167477 289.2855962 -133.9464655 
-53.688218886 -107.63048247 -109.97023868 -147.13067309 40.468214172 28.038171463 1.577001641 219.2908292 403.35967357 
250.01343964 464.30049789 430.07613722 354.37301379 330.3782687 220.51193308 -11.058741793 -7.5478522841 -22.789888184 
37.758285292 -15.172807223 -8.1644928113 -0.10495444871 11.207535614 3.6212338312 -31.150430381 125.77441531 129.0051885 
207.43373213 166.60270454 42.91003212 -19.156486137 -1.4336726001 -4.2520544098 10.733006475 -5.6910827517 4.437235571 
-24.530407873 200.99272183 37.652508767 -68.999824417 -0.21419044664 0.32160208842 -1.5732975665 -10.009457142 -7.3760064942 
-7.3298728259 60.362273969 177.46796699 -41.272923447 -6.6252223805 294.46279761 -11.686007791 62.938752622 349.75192049 
117.11730375 325.11533427 269.47575692 -16.779885534 -17.575121353 -6.5847188586 104.63363531 -41.624691305 -150.58275333 
47.259580237 14.40487134 -6.106939695 -11.514230027 -18.781555223 4.2627509104 65.444817325 12.197684469 -24.505013783 
115.16038132 -6.5723540529 98.221744514 3045.5056502 10.390593308 295.32620954 -131.21875427 492.15412754 -10.41296479 
31.899942593 131.90966529 -254.77199652 -98.472582934 109.40600121 272.2885178 18.518322177 -67.718370579 -36.192146602 
5.003538614 133.64639353 189.00655862 -49.644517773 8.0952671443 -25.881415318 -44.654899314 177.39741924 -83.655192453 
-13.903773186 -86.488030366 37.333042735 97.38657665 -338.5714115 -114.92570169 -456.95334301 -57.04546694 385.65527357 
-30.39148119 -30.988843445 591.52666116 49.429348401 -21.788291619 37.186238584 18.816030049 -108.7519217 -3.1974949711 
25.465471533 -25.597864517 144.39646358 37.630210119 390.60786793 50.605568231 -34.657420594 -283.9618394 -31.307134029 
15.602697131 -0.51794849895 147.28206978 -78.788858471 39.702562776 29.769603639 -23.198733508 14.356721426 4529.6177973 
4364.1213776 521.12530877 315.62838709 737.48078838 -599.11206863 746.90949353 -367.35290053 120.83744704 -1498.1499047 
1353.4666859 166.77350413 351.90514346 344.30564395 -2638.0433332 515.13874908 148.96769256 -112.20734497 -202.58803454 
288.34959137 971.52820452 936.3230324 1030.1065634 -95.117074595 -46.284215678 18.166322502 55.984347689 25.719003959 
33.167521251 -98.403432557 18.94842249 0.20953184684 16.577113498 3.8123821434 -12.730780416 -8.0251647898 0.44995179539 
-7.1623118665 -42.139677763 -10.477386288 -127.69706103 -69.317693781 77.220532664 174.12208161 -78.848678059 -17.293126462 
52.359594025 -51.975744964 69.498599241 -45.608391421 8.2650550361 76.529401472 -395.38874599 19.255121843 -101.09573942 
23.672463198 84.791158169 188.86891217 57.533868966 515.01130598 -121.02529921 368.59798755 397.99761173 337.90506598 
-143.22879703 -8.9242257603 101.22433044 206.69650248 -100.64280764 -108.45330077 -1180.8069378 427.0692068 -31.123945081 
-48.011499227 -38.929879715 94.371235156 -267.44017245 -22.881856574 -35.637943744 -103.73814099 -21.803162489 7.1027980145 
57.777936879 -4.4832333745 50.075232358 -38.52530899 -50.091382048 11.266018894 -51.620836926 -145.8531468 -7.5756431288 
145.32933525 106.76219795 19.017470394 -76.163975701 348.99597362 202.2279132 -317.37115453 41.088293397 309.07594805 
97.812906626 253.94976965 169.18757549 149.03741316 -0.77847967025 728.00611657 523.05597931 -237.93708603 -58.680774562 
26.78530665 21.33596784 986.00081753 747.80717371 554.4865595 41.42176848 184.5233392 303.31438256 8.0174878234 
12.347851134 91.079250661 49.219455877 209.46710432 73.294638924 48.417532761 -118.54417383 -68.356135382 -1.3693371321 
117.68086708 8.5565017081 -6.3903355736 72.563778158 160.1175272 -5.4404829322 -177.85146753 78.005312665 -12.687901663 
135.85078408 329.98679052 30.95883504 -8.3397340189 -0.93175205245 68.667057091 -50.798614373 -42.684534446 29.536551527 
-18.443753081 -3.4869933432 27.496553604 0.64902637562 -67.105283682 -1.8537862098 -44.771522932 -325.01466838 88.234792229 
-200.32844641 -130.44565814 -24.483961709 5.8676054853 -146.2900414 -212.34955355 -107.94830186 77.913165744 23.638229455 
-7.5578473606 -129.29489492 -28.375546277 41.486221952 39.678689546 11.488866534 -21.559606771 -7.6680828938 -12.784275937 
-21.925657846 -59.457682506 -42.62564717 17.071128933 -98.070207672 36.238629305 -99.273083954 -86.394150235 -68.096317876 
28.775071853 -1.7126310764 -20.687781136 23.283213692 -46.632784884 -13.742367569 -79.083731494 -85.669756011 -116.39115449 
-227.83349248 -3.0076004327 6.6816665071 10.025301143 0.98918424371 8.2451324444 -3.8358147127 -57.949834812 36.089996802 
-15.620153942 79.934303035 -37.700421068 57.25431436 146.61314171 685.6242889 -33.961880567 -137.16915252 67.569298259 
19.319582936 27.605211756 1.9764713765 4.6890760272 -35.10230085 8.286779357 -69.002819737 17.740182159 -4.4918261644 
45.900141717 -40.705844516 -578.96984889 -98.984991495 749.66884868 405.44750704 193.98106238 -15.102159132 -52.845674145 
-1.3085541344 32.631960761 -13.386645308 1.5514854136 -0.30715233949 -310.0804324 384.39234811 -59.56802117 -492.39181188 
309.38444795 31.858616781 13.88522882 -72.092503864 -147.58219742 -26.808638902 -1.1822215994 35.847172123 -38.305072918 
566.67499671 27.876139607 -61.476434972 -139.76428694 -354.22597921 -104.94103899 1.2438537256 5.3098189668 143.5572752 
290.57766911 -53.627384081 40.425422938 -268.54902626 -103.90681921 -52.214968402 -314.18881536 -31.860246287 -21.803741332 
1.1837874033 -49.670310076 3.2974433599 -133.22422014 6.9799573949 196.7004607 -200.60864001 -208.84828466 89.789833875 
-362.72389221 363.37449018 -567.40802991 -272.50455252 -8.6018022132 -7.7961639574 48.249621001 -660.69273619 -346.48429412 
521.11154434 177.47362614 93.705139521 -190.31041171 255.75672977 -20.346183819 -259.33655789 115.79809494 100.85840984 
-346.87181472 -568.3903307 141.35527589 -3.9815496462 3.6329327223 3.6018783038 0.14840406587 6.3094389383 -84.153058558 
-5.1058655048 1.1917972064 172.61111336 -140.23410973 -13.644979204 -4.7185477169 21.476833312 -5.6033949114 12.41899908 
8.7620768189 30.450200944 -13.089186348 29.310028531 3.0211948625 -0.4554848641 -7.3966337055 481.0832348 45.229579786 
48.780146856 -13.659232209 -12.470247483 -20.340204849 31.907741138 1.4701611145 31.833249993 34.978509777 -48.148284084 
11.909360696 -0.41687423999 1.4303311287 -119.967041 6.6200982725 38.602321466 64.444534323 25.496601798 -56.348477313 
111.99353057 -42.538982593 4.9991347142 70.946893998 -10.974381893 -15.706312994 -67.078391734 -1.5353700853 -2.7867836008 
208.92547852 11.775086027 -96.010746232 243.16328451 -57.886936797 -205.67813536 648.3808607 418.73457983 -371.46149852 
20.11336056 -110.15316873 1.4133855444 -0.32752182366 -20.344332836 263.19103101 114.05630575 27.045977357 -10.768260791 
5.4504109174 35.436678053 15.507032119 42.921859709 29.658708688 31.016887809 3.209529221 62.005394627 34.88912274 
62.097725516 -198.26365285 50.483085515 -20.510226318 169.62473527 70.749637374 25.721591388 199.7518354 -229.00689484 
-182.20600972 11.931369058 51.339163354 -70.165256498 -179.69925022 -613.99832237 -299.10117704 41.546682857 -135.05088177 
70.604793508 -210.87862608 -74.837138587 34.651189286 43.209602576 7.7930455064 175.21318928 332.71953102 10.072485083 
20.997019294 79.270793363 16.480352882 -0.48701980906 -139.51582499 -83.541229163 -285.74026346 -83.52130352 -112.8281111 
16.404076943 -7.7380899106 -12.857635924 -9.5684406674 3.9366634179 165.59816816 -8.4478242635 3.4257518004 -95.785580867 
260.30182701 -203.95201842 10.314475338 330.38945516 -294.49529824 -1719.0065253 36.075974043 -724.67946389 598.22445877 
-882.37617965 212.72190443 -117.56180517 -45.963513914 -11.312224184 -28.767382505 -260.22612528 46.055813945 -242.06937393 
101.68449397 146.85041009 19.944529304 2.5394035964 -141.06070566 -70.835308247 109.74305516 55.885964394 192.90095314 
-40.045732779 -39.861100073 34.306877066 -56.706766175 286.93467823 247.42812813 65.934471122 5.6830260411 5.121849394 
10.533741128 -38.096167996 -200.564659 -30.421308268 24.732047155 -31.890598912 -8.5405698945 16.988047034 -11.82741047 
17.273306994 -37.631996076 -14.032579241 -4.9839499583 2.5172112761 85.569284875 -222.89241251 -300.41062266 -37.778755134 
71.255904247 -10.71615649 20.528778462 -1120.8360068 958.46845861 -1776.4412963 -42.035465903 -9.95591894 -89.102206076 
-18.462601464 2909.7296717 159.7585172 34.942926678 -271.98115731 69.264604228 -70.417291888 -14.559504845 -4.5514876936 
6.9013938826 410.99792046 -10.44259588 -8.0487829012 -5.9601142461 -2.4579744649 8.9744552032 -62.201484145 -205.47142764 
909.11877034 -1206.7069009 -22.201770687 276.11094873 -63.783199432 -100.78394539 14.889475169 -165.16716772 192.51552166 
18.632779686 647.20566236 584.65122899 4.1048157509 -102.45299628 -36.843438652 24.914273918 149.10618379 -83.242172653 
55.341962337 124.79668175 -52.77888564 -4.4835149887 39.048989044 -235.02511058 83.06643494 -13.36586633 -120.25169715 
181.64576631 -91.834844316 -394.22605748 105.41460738 -31.985004751 -147.76834121 -109.9426399 45.455065958 29.784807508 
-80.306635244 179.34395573 -187.40199108 -12.101522787 -51.624498331 103.72245237 63.416450941 138.79968906 208.49935801 
-3.4271023133 12.163736108 -17.479646733 -169.11013829 31.996804831 82.466362667 68.319770529 -21.819774857 79.902335046 
1.907328539 -222.10773735 -103.19040934 -74.677763774 -39.997931116 4.1305826976 11.123105229 -12.540977142 -88.644585195 
13.071777686 98.464240651 -132.30130347 -38.313836922 88.104675845 -63.034170065 53.897712596 -38.194656474 38.346037826 
20.803082935 96.578481957 -10.671690184 150.51252778 22.660822756 -543.76797749 -198.56126793 -31.191428205 -27.468778277 
-6.4619983552 245.1835027 191.58846234 212.50274832 -4.7640886634 -93.561328911 -54.555441007 2092.3467346 -76.530175203 
2.7219251651 156.14796492 -28.034995002 -79.773669117 -76.91645136 169.71222027 36.043020049 -49.806639802 -13.654446022 
-14.673216484 -25.005029607 -263.96913271 -144.2510531 -71.909316043 90.780332092 -64.949030933 -116.70715444 105.57659239 
-38.764528841 21.277232977 -105.68441296 205.666433 -376.15500519 33.454783459 -150.19993525 26.887648189 -138.51994227 
127.71991239 166.00499255 14.603136384 -23.724320731 -208.46473298 -41.939319234 -627.054125 
Stress%20xz%20component 1 1420 double
-4289.7537785 -4278.7071764 2434.8800809 2428.4141956 5245.973733 5248.1282131 -519.76679187 -538.99360657 -4328.7938525 
-4608.9569243 5716.9258434 5150.8648528 1729.0135655 961.26189938 7715.3120049 9188.3200296 7657.8281579 7223.7891205 
-4696.4710786 -4649.5362053 8.6736173799e-13 -5.1824863845e-11 -7736.0722337 -1940.4330148 4922.3451657 11643.143568 15764.98881 
19271.166681 18046.70579 17102.833653 12431.314521 4219.8681515 -1027.2607323 -1668.5964552 -94.258426735 1865.7834072 
3654.4402008 -6933.0924951 -5045.6048589 1558.9829373 8533.4746634 13830.947419 17090.070202 19568.881991 17834.811928 
15159.451177 8452.4405912 1103.6308541 -1533.6116824 -1000.2807439 832.40219165 2653.0129701 3544.2845639 -7287.8903598 
-2066.9056877 4985.4790985 11337.67187 15162.361599 19580.359897 18129.982012 16754.593495 12553.177281 3911.3548994 
-730.61380569 -1674.4621649 -207.69648964 1864.4900283 3506.2226914 -6624.5365549 -4848.2827639 1498.4323904 8367.6797325 
13615.068284 16854.711792 19783.732083 18860.34378 15235.579892 8471.0456858 1199.8355732 -1437.8113721 -992.02406512 
777.50060789 2616.783971 3420.1432851 734.47249432 7794.6636325 6462.876118 6976.1496013 7131.1111799 4824.2983679 
7776.1259852 6448.9394608 6965.5737891 7121.0568078 4830.1284373 -395.63697628 132.063417 11.668298855 -266.57164816 
-321.66065249 1.713417508 68.09974373 -103.0947796 -35.032895281 2675.7183806 294.19817582 2.0307880795 -416.85562989 
-387.93454307 76.488264145 113.65832318 -142.66091509 -169.11345631 2638.0461938 -6329.1904269 -4111.8582137 -8694.5562618 
-2237.8314519 -4188.7891705 -8599.4493231 -2121.4786403 6927.2754943 3636.1484846 3194.2386768 986.13170684 8234.3187253 
4476.0970848 3897.8569599 8301.8004389 3472.789127 2725.7279335 8952.1626459 4641.843785 3776.5530594 6186.2887648 
8374.8846303 7334.6405996 5641.3148599 8824.385941 10335.82357 6057.0287439 7764.3372368 8498.6763168 7333.3752975 
5803.5194074 8791.8982358 10072.13822 5950.3677334 7536.7583552 -1513.3935103 999.06726711 102.27132554 574.05899071 
-3390.7074245 -1619.0485835 -21.59305265 260.42462674 -2812.2175564 3283.270724 1601.0170992 -712.36248681 1352.8985649 
-4335.8200119 -1636.5823604 -105.01794531 555.67312513 -3051.4687203 3263.5330356 -13356.90108 -15607.939336 -9887.0825004 
-9192.2541511 -9256.3988381 -15341.056516 -10004.683185 -6535.7418685 -4520.1029316 -13558.112015 -16098.198848 -9597.116337 
-7980.0337451 -9363.8888286 -15146.319444 -9502.7358961 -7416.8253722 -4144.8710857 3444.323923 -5123.1038521 1134.2040432 
8400.9613651 13890.066323 18753.877593 19159.372223 17331.792213 15540.036036 7924.0699955 -1615.4758142 -1007.136703 
912.23532601 2757.7364454 1147.2000023 -6816.123176 -5721.9436422 -5646.1532755 -7453.4862044 -7147.6332596 2984.3317308 
3019.3162729 3640.3518592 3508.0980223 -3287.1919209 -6981.2267551 -7568.1718951 -6714.9276012 3093.1247376 -465.60534508 
-1940.4168487 -3378.6012218 -509.23754304 10076.878476 6639.6312108 4781.6787808 3108.4360426 6670.7411096 14833.320176 
12813.384772 11471.244656 9916.9269017 12510.025275 18692.858101 16198.728972 15152.500739 14471.154561 15888.558775 
19565.764536 19007.142521 19430.933049 18766.35523 18980.746914 16886.855334 17583.753426 18140.551359 19681.465615 
17563.720629 13840.897537 16577.305196 16797.035103 16595.751123 16551.692108 5994.0390567 10309.603071 12156.202681 
14009.856651 10500.396513 -17.342708947 2547.0906098 3979.3396129 5750.8890397 2370.5796961 -1697.430759 -1432.5216485 
-779.59104314 -1247.1788099 122.13648264 -510.48265476 -1438.2571008 -1724.8203631 -1686.5858185 -1409.0475702 1415.8638675 
412.31960502 -51.090126359 -587.37460348 336.10260942 3265.4332598 2272.7862274 1918.187562 1431.440746 2254.4319315 
3652.0123745 3250.032549 4916.9571283 8495.5615876 7292.9705626 3681.2688699 3684.8116521 5770.5243873 5763.7597224 
6639.8523756 6635.6906466 8116.7811152 8099.4364892 7481.423645 6928.8361428 7767.9062741 6278.8142861 6893.9481499 
7465.1771388 2009.8245018 646.60995713 156.43497122 -174.94156919 -479.38653593 3803.8557946 3784.1105196 199.43669476 
257.72748347 250.71796561 246.42562589 323.49507459 432.90655017 71.432916349 214.079041 164.17524482 124.56824664 
-285.12948953 -63.25581688 68.83706302 6.5204033415 -54.324666337 -252.71096875 -504.15710743 -201.36594212 -280.37478108 
-367.42896122 -228.44699296 -130.03955865 -2893.3358756 -6029.4165175 -1885.4691256 -1921.5818567 -3045.1955319 -2944.4004899 
-6980.2672158 -5858.1754462 -5339.7867149 -6289.5642805 -4272.0416318 767.30023363 -785.37504786 -320.040947 686.37498614 
435.29850838 4300.6865577 6342.3242283 9090.5956917 7666.01893 10203.105969 9878.3195866 2724.196376 2644.5972851 
7446.9363421 8227.2469005 -2828.4618239 2074.0470912 -18.062229308 -839.20402097 4108.5897241 5631.3398994 8119.6581218 
9441.2229546 6756.5249937 6977.8824173 6951.9245717 9548.9906621 6525.9970679 6526.8616703 7447.9418762 7516.4498645 
7586.9763528 7850.5445941 9392.1544325 10017.927528 8839.6793032 6546.7332052 5100.2723273 9388.1322666 8121.3111575 
9830.9192702 9137.6299505 5436.1619183 6272.1222894 -1011.589462 -3006.7545703 880.30648425 -440.13624276 -3093.5857137 
3338.0150203 3257.5495862 -988.66327848 -524.93327595 -5175.4513626 -5086.2458036 409.26514448 69.037418287 463.11189802 
-296.588222 755.33172123 944.8886298 -68.375365191 7.3650267362 -1081.3725845 -191.22599836 -300.13315941 -1352.8363334 
-4434.7243328 582.20550431 1141.7603533 -916.81222208 -6629.268535 -5349.9427124 -5351.8451265 -8550.2120517 -13820.63835 
-8818.7004173 -17113.250394 -6543.5021762 -6511.4668432 -11066.02126 -11190.090681 -3344.9207649 -3547.9482865 -6174.7962309 
-4950.8304996 -16657.256677 -15407.473561 -13127.41272 -15279.493154 -11291.664395 -14184.023418 -13907.438427 -14587.105636 
-16008.529856 -8151.9399887 -6342.1984177 -7049.1023278 -9372.8320897 -11804.297387 -8092.2459961 -8240.644717 2691.9010442 
10208.047121 -1331.7129356 -1064.0417827 13016.550142 -1619.7584569 3143.6832605 925.36770863 3880.093564 -265.81680232 
-2320.0891141 -1928.3515117 9436.0222178 14118.920225 -2041.8728596 6552.2239895 2709.7439814 14868.447129 -8322.5334144 
-1942.6267504 -3595.9496009 -501.649002 1265.4299552 2779.7436574 11148.132222 5323.2731989 14272.387762 10067.282022 
1112.7680748 -1776.1300621 -2174.1598356 1.8402409768 12531.91866 -2290.9437048 -70.097177745 405.55771661 -354.20977789 
7447.5378175 -846.86729399 5208.4184779 -870.96103968 2749.0439912 1091.0176031 16811.738795 12629.116915 16303.721389 
-3759.1674613 1130.928523 12396.201569 -1448.6448325 -8005.6795527 -5657.7901457 -2591.730714 -239.08833042 -2163.8138012 
3477.9049657 -5418.673534 -336.35895708 162.73568584 3563.8247813 9154.2264336 -4235.3725393 -4846.3348304 -7936.5879171 
2089.5452891 3512.6730889 2352.7655101 5415.9974509 4919.4131412 1148.8564661 -1330.9000887 -2520.9305955 -29.077032698 
-270.15538287 -1243.7979355 -1013.5455067 3793.932267 -4391.2932915 -4753.6189023 -4819.8949483 -1391.7724148 -6588.8559563 
9437.5768627 11258.165941 9451.3213619 8774.8499955 10708.893013 6098.7738305 7425.4100417 5848.5909501 11608.960988 
9540.2516585 10007.043836 11083.951049 13541.068229 987.00420464 -2253.6040896 373.41552546 787.47008265 -4406.5207204 
-5649.2710557 4996.303393 5724.0462965 3224.4867988 2266.528363 -3749.5560913 -4836.3139884 -2164.9128349 -2668.7139348 
876.23543656 4203.2551699 -260.59165773 -231.29726711 2337.1510852 6510.2908633 9656.5832422 5497.7634019 11077.354926 
12862.831423 8955.0975407 15799.863983 17615.316403 11122.436953 17309.512477 17044.811386 13009.862229 16436.890891 
15164.403786 16378.278542 16784.555355 17523.263344 15591.136219 13357.991595 15119.919179 6618.3049626 3432.6093178 
13173.442399 14530.067553 929.5431042 -1304.1754069 2165.8550494 -2618.1846833 -1399.0650599 -1525.4244279 -1990.633709 
-1024.7610298 -406.87153661 -1000.9276798 41.795105272 926.69844968 -121.70144237 1125.1900847 1864.8938938 318.87123858 
857.97419202 -13.440989087 47.492064027 -89.2352501 -286.71749262 -155.03098132 -187.81776026 25.001622018 -315.16314739 
-387.97852529 963.73251631 9306.6592034 390.21159676 1013.751517 131.44384841 -542.81768321 -496.1323263 -1373.1613584 
-3236.3703159 -2524.6548524 -2538.0279031 -2364.4209639 2258.735397 2435.891963 -1880.7346586 6111.3647898 5312.1310993 
3949.3227034 8835.5568216 -12950.631417 -10765.070062 -4888.1660099 -11072.763022 -14508.130509 -7831.5391639 -7837.2606801 
-8369.022738 -5864.828483 -1222.5111166 1029.259631 46.335278483 2788.9993089 3197.964098 3461.1791373 4529.2351197 
4409.8766684 2128.8663473 2818.8745988 240.99305775 10312.254106 10640.376205 12577.990296 10540.449428 8632.659043 
7697.5685436 5675.025048 8836.6318693 8101.68848 10832.901729 2459.0853484 27.688177774 1415.4613704 283.50046647 
3004.1616463 -209.9846049 -1903.4656738 -4560.4793147 -4340.932631 -4378.4116501 -1507.5604668 -4609.441825 -834.52425896 
-1656.5438605 249.93026067 -1071.5452989 205.77406763 273.04300734 -1898.0669856 -1629.352492 13924.361844 14084.593428 
13448.837485 14313.640324 11361.998737 10836.613245 15355.549987 14229.107111 -1507.1479814 -2298.2904045 -4051.7504237 
-3634.5739303 -659.62958831 -275.93148621 -935.26916802 -2051.7019405 -940.62419701 4116.266006 5007.9106483 2109.102438 
421.34570595 1926.1051229 -236.598998 -0.43736113715 261.01195071 685.40366426 1171.5534969 1762.3365554 2034.7147805 
3875.9618183 4901.0939614 7272.5619951 5386.4982498 -159.2922114 -366.92711548 -57.972187325 -349.38904326 -349.72120585 
79.905363707 -2457.823102 -5231.1147744 -4043.7201423 -513.51215248 -1062.9260936 33.97999311 -708.66374768 9546.0797523 
8531.2040286 6604.0434813 14196.868395 -2007.1627745 -2841.8654196 2556.7064741 10152.921099 -1533.7777888 -1219.8735505 
12904.06103 -1613.9420259 2935.5926768 807.75683452 3852.1550024 -292.80569562 -2931.0950262 -1315.5982119 10632.13574 
14180.383846 -1904.6855802 6529.2359659 4650.6717677 15294.189428 -8022.6458915 -1973.3418447 -3133.6068978 -452.19424914 
1271.2312418 2086.5509577 10562.386824 4850.5743395 12634.256627 10207.462397 1254.8190853 -1436.7110912 -2166.6556266 
-27.656738366 12854.749051 -2652.7895088 -1032.5101755 -332.86634311 423.50970576 7840.5157406 -1127.2752344 4860.1114422 
-823.89024493 1113.6776828 2924.2214292 16886.21731 11465.641881 16211.099145 -3593.5783616 720.86483252 11961.838131 
-1479.8086516 -7463.7425052 -5055.9026574 -3115.7672461 -310.73188487 -2074.3342188 3522.2552544 -5200.4528082 -372.82675654 
184.78032703 3704.7890158 9576.72053 -4928.625436 -4280.3601238 -7944.2929845 3558.6393474 2163.4074932 2339.5628705 
4942.4177169 5425.8098684 1200.4311907 -2449.98386 -1395.6835954 -305.95453174 4.4568091548 -1231.5056144 3612.4467598 
-400.79906495 -3947.5291797 -4169.8321337 -775.12831699 -4447.1586552 -6042.3694169 11626.647229 9009.9802823 8527.7598629 
9979.8039233 11268.499321 8716.8549004 6093.1177037 5405.6180175 9481.2212322 11198.407425 10587.033686 10420.578449 
12753.392075 -2120.5413989 423.27787611 205.8455581 -4266.2364078 898.49100613 -5589.6277508 5694.4497309 4981.6381103 
3303.5247667 2245.5459048 -3825.7913681 102.88041868 -19.174759259 -101.94855235 -162.20435604 -329.67358409 -227.56906382 
-307.05190384 -4.2461766408 -319.35395996 1074.5177461 -2246.4164425 -4664.1554944 -2977.7305742 4186.383573 841.0609831 
-234.88973545 -267.4237676 2349.0495028 9658.222935 6660.4255106 5703.3889837 13614.801778 11277.509876 9105.0854878 
17531.896936 15410.89915 11077.220919 16622.603803 17322.959869 16525.872576 13153.585019 15960.518168 16118.114755 
16911.080061 18362.356723 13926.173282 15859.190389 15605.298672 3746.389115 8119.8694515 11653.169245 14004.484661 
-1211.3645115 871.05741346 2019.988825 -2574.5200335 -1575.340105 -1330.5191202 -1962.1920362 -410.10183293 -1012.1002825 
-1039.9680424 929.78772844 24.79539929 -98.659070065 1866.4697909 1107.2591839 341.65802184 922.18426201 9780.1144182 
1358.1586462 185.39102803 80.910234397 -596.43246392 109.36072957 -1654.9930253 -3266.1473569 -2990.0209921 -2241.6636143 
-2243.9706187 3007.0145836 3174.1668544 -2108.7537537 5348.8638723 6763.4882985 4173.1723072 8048.1586584 -10718.348219 
-12886.641146 -4980.8487425 -14930.828594 -10941.33675 -8047.8196952 -8936.3916474 -7747.6129091 -5697.0083156 -1447.9244866 
2870.7178047 123.98471725 1099.3175219 3578.1325012 3415.5793753 4193.5145935 4437.7065807 2570.28083 1764.2660731 
186.86293769 12641.385177 10996.531197 10599.142891 10308.840411 8302.387564 5702.8795189 7696.3523535 7489.5831075 
9424.1377652 10472.104886 1340.8143192 -103.90712487 2386.375026 2984.5614654 99.79823867 -1773.1993565 -233.68596091 
-4170.255448 -4356.0952817 -4695.1497585 -1553.1341356 -4107.8335669 -482.29443412 632.10793234 -705.68099315 -2409.1612414 
797.66682201 387.78499678 -2426.6859139 -1810.4489527 14975.994272 13630.862914 13866.131846 13105.341907 9541.1063562 
12131.588706 14352.587425 14389.445275 -2276.9579431 -1550.4552697 -3658.4058036 -4035.7169447 -895.08932344 -273.53369064 
-661.20740289 -1943.5324447 -912.98720635 4326.5221886 3960.5336101 2099.6870545 780.07155033 -150.39511033 1863.0583131 
157.58102177 5.6596361101 704.81003339 1790.4362527 1147.4395281 2003.2567623 3958.1111026 5046.1930631 5440.5350644 
7163.1265208 -361.79338048 -155.35333182 -56.826566846 -369.33708538 -319.78382185 43.941057272 -5373.1179442 -2540.803194 
-4007.1214271 -722.53347762 -1680.7270123 -112.12820787 -624.26649347 10191.751198 8392.9904081 6797.1635242 13920.550834 
-1871.8640375 -2940.3257333 2025.9838816 3465.1846061 2337.696941 3223.1169073 -3463.7973372 -3551.1198891 -2092.8882302 
-251.44200559 -1365.1907804 8914.4898334 10689.634162 8337.3589792 10030.682854 12384.816364 -3736.3073865 -2140.4687385 
-2007.8041925 -3597.7674271 1161.95734 884.78384674 1759.3047366 3331.7391943 2724.0004944 -529.71946588 2941.1810918 
2445.6130887 258.93502242 934.13160184 -2455.7146537 -4120.5479782 -2470.5947753 -1035.1237478 -674.57138597 -712.43862278 
8611.8331817 12045.153787 13685.09767 15129.761623 14522.991117 16526.407544 971.56003539 684.11131027 13620.953318 
13737.467746 17112.497455 16848.078773 15046.064814 -9478.6609195 -5186.4778158 -9063.5348609 -8059.402952 -7387.7394941 
-7571.3141015 -1328.5102783 1263.4768423 -4332.8116337 -3128.1333476 4169.2698828 4259.8557981 -3384.2120947 3935.5098231 
-943.93709099 13504.605178 5595.4118486 4809.6977656 5420.7046044 5084.7694766 5409.6691299 11310.17672 6747.7225274 
9327.4661041 11759.83379 13791.871144 13544.921747 11348.654986 4044.1178716 8338.4479322 11846.684558 11201.243688 
9655.6778379 6884.6818219 9523.0918664 66.517387397 -100.34108169 -105.3621106 -355.97832396 -204.46676119 -1513.2859935 
-1497.4164903 -1320.9014963 -190.85672556 211.21619405 2227.6724987 -255.43838982 -2.0695191799 -4.5208333906 85.15512857 
-99.202609644 108.51338021 -1148.9270596 -723.44741904 -1305.0779357 -1403.8216609 -1056.4850422 3316.6526254 3752.959487 
-1531.4324941 -322.61695059 -115.74838816 -710.46381722 -304.23732743 174.0919011 -1849.1785599 -2965.2663254 -5679.1930176 
-237.70797414 -255.84022598 -157.47157526 10046.710965 -114.85877065 1048.1913848 1111.337051 4606.6823829 4168.6777736 
2874.2668813 9235.5403183 7078.6803342 9343.3042163 878.25760975 -337.6713553 989.33299973 2780.1323092 3631.3799344 
6304.5841339 -465.46907792 -7044.9763302 -11580.101471 8458.6731414 10297.141352 7953.7044661 9565.3651634 9477.1376697 
-2903.9748117 -4281.5581286 -1965.1032013 -920.76619096 1180.7293816 9644.5063127 1930.5549865 -199.78061296 495.71771651 
-2.3129732564 2075.9864038 2079.2431812 1467.5246695 57.798317015 480.11206269 -9736.1461116 -9798.4535748 -4995.4448494 
-12510.831078 17688.583404 1992.1990996 470.40349177 3746.4129915 3149.4184317 2459.3155663 3036.6555172 -959.68793823 
447.30753826 -1886.4137199 -1535.9894819 -1873.1850473 -2080.5560803 -2943.0025176 15043.66744 10848.209953 12632.139669 
10834.217649 8713.8603582 7585.8577566 -297.73472154 2856.9694124 11492.85198 10472.354688 12284.496631 -328.25914351 
-321.9662749 9560.1326916 8118.9003813 5659.1337105 7468.2980254 6448.1078418 8286.742232 4883.5512428 10237.692869 
8241.2759393 -928.73231632 -654.67081681 -291.79417797 -1625.987063 -3928.974336 1422.2333445 419.16791521 13902.946912 
15544.998661 17042.64074 13223.332142 17178.256283 8750.8542719 9382.2256139 15964.963589 -5359.2380659 -5263.0921772 
-4987.8570913 -5450.9889477 -6187.5604583 6812.8803156 -4455.3678251 10865.562543 6460.1672691 16723.35997 16925.796732 
17109.306187 14335.00156 15516.991009 12004.259783 10154.910527 -2229.1364598 -3010.451955 11589.998685 13567.278294 
17680.097986 -572.91690469 -2709.3990662 -2658.8427812 14829.401968 14265.25267 10414.37449 3638.4376821 5854.2787912 
5872.1488836 5435.8171489 10266.031164 -4114.6171275 -1521.6599289 -1859.2255925 65.216611503 -260.84220299 -331.1466482 
39.099057424 43.365971325 9.5733130607 -167.55193097 -345.16339164 860.74349184 -11465.062321 14924.787368 13610.252567 
10898.453119 2377.9808257 -15.519969193 3388.3437754 -3087.2844482 -3536.9642379 4404.5941809 2057.9962103 -12362.851365 
-7517.7529431 3475.7052173 15559.735207 14509.550059 5619.0819153 -201.40393796 -2400.0293299 14504.871741 1115.2959688 
735.72282891 9914.251168 -75.572016564 -307.24837568 -403.04117637 -361.48395447 392.95956893 -3853.2399577 -4978.1905764 
6082.5643803 6722.5255103 -1683.9214024 -2358.8690591 -2616.0378505 -2058.0939799 -7798.9830296 -5726.7980411 -5668.8136703 
-4158.6523341 9648.7756501 -5704.9445084 734.19706134 -163.12217877 -1932.1687852 -2316.4552862 -287.34276642 -835.36566601 
-110.97036424 -1451.2932842 1314.0463705 -240.99023527 -4582.7400418 -4521.9671279 -4443.4827908 -356.93885582 -1689.1481411 
324.44549652 1187.1302424 471.09253054 22.668087294 513.02974913 -935.76281888 -1139.7114275 4031.0490605 5059.4219399 
4564.9206495 10389.108963 -5042.3844751 2315.7518265 2484.7522464 2455.0122943 15460.03436 4702.1958653 2620.0339274 
-1676.8262118 -699.15689186 -1595.819797 6904.9595441 -761.06800568 -2459.1228931 -7628.0206309 -4195.0047779 -7599.22694 
-12447.429312 -12346.453075 128.74834643 16027.100659 312.83667741 1375.2511685 3000.3884283 -63.703660458 -297.93781475 
2238.9766418 8675.9174722 398.87893262 2107.6091375 2163.1316029 2754.3781626 2821.503311 5680.3555298 5703.7371883 
1345.4041749 445.03637956 1280.946214 15006.451065 17822.496351 17775.323382 16860.163443 -1884.7708491 2431.0890379 
2430.5786125 -2049.7682008 -2317.6119167 1206.6640511 -720.50232788 -1496.3231024 -13137.065814 9758.0696827 -1461.3064225 
3805.2578763 332.34662515 -4617.2450979 -4832.9785921 -5831.9681125 -4543.6290273 213.22258185 3943.1392652 4219.5198255 
-1787.8894059 -1148.0897229 2372.4018333 -727.08269293 10523.961481 -2345.3600646 -1941.7875675 -1785.4203093 12526.156809 
5037.8114862 16957.63561 5330.8406854 -5076.7014071 17711.160177 -429.03924735 -2596.3435331 115.99283873 -580.5649662 
-5638.3096467 -951.73244611 4076.0306875 5627.8189587 1550.7387913 -7582.7088607 245.02128453 
Stress%20yy%20component 1 1420 double
-38586.091833 -38493.228227 -21913.225139 -21860.339702 10483.489558 10472.734939 -153.45258265 -224.87740551 -11058.433585 
-16266.977501 -9108.9169777 -10942.973125 363.51927136 1699.3393335 -16110.734442 -18004.936992 -6120.2615327 -4547.9562925 
20307.614095 19961.925102 8.6736173799e-12 4.3888503942e-10 -76232.224694 -85934.290679 -88036.982767 -84832.804954 -78880.788376 
-71160.505213 -57913.902918 -50715.624874 -46363.793954 -41271.445691 -42553.520237 -45848.915006 -47144.599716 -46248.333328 
-42806.836459 -63159.854396 -80188.643446 -87737.150824 -87597.567275 -83396.675853 -73090.846821 -67279.480004 -56301.45838 
-48996.939831 -40070.587831 -40185.549651 -43842.797073 -46734.374675 -47033.701852 -44977.739846 -36648.050425 -76119.898767 
-85681.113602 -88164.072455 -84781.967214 -78087.726283 -71462.720512 -58340.051145 -50228.418157 -46437.183143 -40610.979213 
-42901.478875 -45725.60014 -47055.337582 -46299.040866 -42617.267476 -63242.593153 -80967.017066 -87391.722731 -87623.117154 
-81465.763821 -75270.164242 -68991.710694 -61101.616577 -47783.52582 -43176.644409 -40094.216805 -43847.675164 -46791.562884 
-46902.030642 -44806.732464 -36594.083705 27018.651985 -11786.391915 -24075.264978 -3069.9679742 -18134.789394 -26402.94227 
-11786.999146 -24123.135554 -3121.9853457 -18111.132892 -26346.23266 -824.95603326 -467.53108583 -166.68965937 -765.56788564 
-1459.76615 -778.78847744 -240.76358099 -413.18534218 -1562.0466892 1661.6395139 -530.95829723 -168.12789054 -830.98462324 
-1527.5943699 -839.19428226 -280.72360451 -447.66030618 -1376.5366591 1777.5833373 -22913.436561 -2973.805052 -17543.97535 
-2285.5497701 -3027.7343361 -18527.292138 -2256.1253856 -27605.180368 -21996.945941 -15839.921255 -6556.726116 -14321.910311 
1485.7106956 7697.4775673 -16077.66623 3195.3132703 14366.2513 -20773.972424 -16972.135467 -10095.115197 -7794.3491868 
-8068.729777 -6138.6256495 -4802.7897697 -5363.230353 -12371.261263 -9029.4064118 -9419.0108744 -7665.6534138 -6218.479482 
-4308.9226018 -4340.5943248 -12095.433517 -8567.0387601 -8492.661444 56220.860781 2677.0541747 5645.7487448 5673.418148 
-1.7618731914 -3078.408815 6336.3933794 4759.434156 439.31134807 -14110.612184 3331.8364262 6520.8164259 5890.3697132 
-1305.3786788 -2366.1042368 4820.1273219 6530.8101447 790.85276024 -14814.187221 -51380.654908 -37427.725727 -14178.421375 
-6963.648906 -52414.096634 -42425.403305 -15661.904778 483.18741422 10306.936818 -51904.544092 -37027.105905 -14449.297348 
-4202.9095279 -52169.107956 -42862.027305 -13619.935023 -3324.8065402 11950.067371 -40149.913981 -82802.11213 -87967.040946 
-87274.673024 -82453.060528 -74446.824185 -65577.50279 -52721.562451 -50377.527474 -40338.770285 -44959.227384 -46965.71747 
-47139.553982 -45602.793836 -42052.326821 -70555.315003 -55805.001449 -55616.496871 -71247.522815 -71327.970975 -31947.696799 
-32044.229629 -40391.303731 -40321.506563 -84722.876631 -81222.590726 -76564.257267 -81796.167983 -88860.726946 -87935.902911 
-86336.603521 -84392.769733 -87479.957086 -86687.730775 -87725.989728 -88191.983309 -88859.51682 -87751.417531 -81114.349218 
-82614.305225 -84819.599077 -86249.537021 -83550.243102 -71169.230833 -74932.652899 -77488.785011 -80141.001135 -74331.763842 
-66386.418035 -66536.440289 -70930.519005 -74659.499177 -66050.102741 -49976.420159 -56017.83005 -57902.305324 -66375.61963 
-56025.398028 -50193.498571 -49859.731531 -51165.065859 -49668.401736 -50582.866534 -41392.218877 -40690.252163 -46917.326585 
-49920.685714 -40812.255713 -40591.578349 -41891.099075 -39645.552505 -40314.463662 -41725.014212 -45226.700945 -44624.214349 
-42661.68527 -44722.984107 -41239.507314 -47019.392799 -46863.001636 -45964.037672 -45115.575742 -46704.22018 -46801.288182 
-47519.369849 -47129.537005 -46967.967074 -47543.596357 -44579.87337 -46056.909779 -46427.100151 -46948.375337 -46380.192556 
-42830.308729 -44877.39273 -29011.155602 -6422.0958068 -18504.078461 -26132.699321 -26156.670027 -25375.594554 -25441.038263 
1765.709267 1796.0785604 -8848.9195477 -8890.3685155 -15156.351605 -21780.314688 -11872.180425 -23540.224531 -21771.642887 
-15029.966833 -685.97595856 -854.77782197 -220.31493442 -375.04549319 -1133.3558941 4434.0011894 4420.9161176 -1306.4391052 
-1715.8048785 -709.99375327 -624.4909467 -1118.1152087 -1159.4460893 -210.54788367 -166.0794997 -353.93790454 -202.9988482 
-455.10242371 -295.54142512 -206.67450875 -175.22824745 -237.83581855 -1011.8548201 -1528.8030206 -403.4289065 -710.16461953 
-1398.3703986 -1157.584766 -643.39857004 -2470.5072118 -2944.3976642 -1791.374584 -2041.4729394 -2333.2684171 -2861.5368371 
-7979.7579164 -3830.2529811 -3871.8997909 -4531.4479422 -4367.1329451 -337.40259675 -10628.492946 -18423.594241 5191.5766188 
4193.3392871 1437.9390776 -4924.5483232 -21039.790063 -15897.811561 -20864.296192 -20713.357335 -2828.0623387 -1436.3475227 
-11295.237428 -15268.510291 40815.724782 -3130.1279772 -3234.182578 -1413.7827634 -7499.142705 -10691.089521 -8990.9369812 
-9368.7772634 -5075.644901 -5992.4229333 -6155.2892542 -19102.055056 -5234.8729182 -4334.6289365 -4187.5210006 -5379.6885748 
-7561.3580859 -7266.2086076 -9734.750616 -11280.902403 -5797.898045 -2903.0443719 -2907.7714218 -10317.24963 -13211.873903 
-11280.678035 -9260.9898601 -3784.8334179 -2812.2064211 416.051846 -1127.495528 6044.9086755 5346.8941627 1649.57085 
-7528.3572638 -6857.1287666 2277.3368965 1547.2886374 4800.45403 5377.0373714 2633.242005 -280.74201174 4407.6279949 
5191.0273198 6959.771407 6690.0088126 5745.5531988 6237.0612948 7487.7560058 5069.7547101 5940.9427477 2730.508925 
-1019.646111 6256.666339 6987.5879028 3327.7135914 -4797.7829599 -2645.2180522 7040.9496468 -3958.6230221 -27162.809472 
-58716.540835 -45150.168311 -50207.462793 -50159.358051 -52676.815225 -53015.935657 19140.243851 18114.341435 6498.7382124 
8457.8933255 -37696.610705 -49060.600009 -51302.779635 -48849.061502 -21766.991245 -30662.446699 -31398.248323 -34827.572236 
-37322.774085 -4582.2678096 1501.6376027 181.98697267 -12981.062882 -22846.060622 -5607.7761079 -2858.1340993 -39334.528302 
-44064.561934 -49062.722431 -27285.489793 -33070.778431 -20538.033588 -22080.900963 -20864.646516 -58027.360804 -22269.591891 
-21651.800543 -15280.488507 -61101.614925 -49702.222184 -58171.913902 -23416.912775 -35857.36859 -43127.707184 -33555.609039 
-30035.095907 -5565.4083237 -31483.454487 -65793.044561 -43414.978345 -31000.147388 -38252.189531 -57381.999575 -15365.474334 
-14324.20374 -32410.285651 -10356.348822 -13477.412163 -29922.333468 -13213.719645 -9658.4131478 -30299.084601 -13773.654878 
-68752.076917 -31339.411764 -51239.065752 -9763.4551293 -10646.470099 -28424.091037 -50290.200809 -36290.3144 -46856.777439 
-25952.027666 -27467.193106 -29144.907818 -34398.993404 -48046.946205 -15137.304904 -59920.767262 -8985.730598 -70173.371654 
-19058.851272 -16738.647019 -9861.9004593 -36162.557038 -73344.572511 -50954.198585 -56237.186868 -68245.319334 -55754.720271 
-29192.652303 -26167.201405 -35257.053787 -11062.485231 -2853.9852388 -6220.4670493 -5043.6210327 -7195.6498772 -4690.1989161 
-4000.8935611 -9817.8198467 -5384.5074758 -17754.490837 -6329.3702916 -7605.1730461 -18210.965021 -36202.866817 -28070.034221 
-20323.396764 -23839.534312 -45266.726903 -19681.54649 -22219.180011 -2102.5614149 -7940.7965625 -1738.4549689 -28582.21741 
-20152.025831 -20884.468255 -27427.271283 -34130.486426 96.900799532 3710.3802315 -5154.1282011 -3814.0178934 -1371.3626246 
-11222.585986 -21305.685484 -15292.022799 -15253.181616 -23733.778768 -13539.404217 -71479.729185 -76683.637253 -65958.243592 
-79508.346924 -80131.258748 -69160.56629 -75063.973803 -69701.368358 -77946.824229 -76672.999464 -72354.425683 -73072.690556 
-72996.807943 -64581.266045 -67746.351726 -69644.032188 -56201.560848 -55370.73033 -52381.078162 -48004.561282 -59841.247856 
-50156.930544 -48334.173009 -49170.838298 -52302.108846 -46442.411605 -46757.564251 -42254.378105 -28492.405804 -41649.30387 
-47456.263966 -40549.667538 -37245.271713 -36541.296335 -32450.637797 -27543.437992 -38984.292048 -40109.720872 -31999.174328 
-37958.89226 -39050.987722 -33175.355394 -41379.029374 -40796.262835 -34231.55857 -37905.465701 -36049.506445 -33673.6623 
-30196.815749 -6808.6892575 -6790.4475717 -11351.504428 -5125.4784004 -4993.5671964 -11657.751035 -6569.3677511 -7189.8587449 
-12146.056367 -12930.746335 -14832.298069 -3709.2932221 -2919.126436 -10365.943396 -3648.6742464 -4253.6597885 -14600.088279 
-7719.1223444 -15690.721654 -4596.3709224 -14748.657089 -5949.0214951 -7077.6629324 -9927.239959 -13941.543385 -14243.461425 
-19516.662806 -26927.828663 -43813.106049 -50818.937577 -52859.317579 -30792.363291 -44103.757035 -38030.715669 -16015.876458 
-19155.633733 -16751.092435 -8715.0323795 -37042.229221 -31601.191469 -42973.414497 -46308.598331 -45989.320952 -46825.346179 
-39619.079573 -32350.00231 -29638.102952 -36547.001148 -41215.939202 -35576.649049 -45399.061122 -49472.365264 -33919.353593 
-40775.90434 -32223.403535 -46415.946456 -45743.732467 -61147.841787 -62422.326197 -56833.248374 -53416.433021 -46365.116759 
-50189.426222 -61653.392305 -54329.918066 -52744.150018 -47564.387784 -33059.128098 -42074.352263 -41179.303401 -35439.55099 
-28475.488601 -39489.769436 -30633.87495 -24604.414255 -17981.244915 -20957.805251 -18555.21211 -37453.737201 -37801.63699 
-34946.757299 -38766.680371 -24893.7159 -22976.028099 -43938.486594 -38752.795676 -27173.542645 -25492.958929 -21710.821316 
-18394.575327 -17051.287818 -22277.8563 -26311.324998 -15111.246801 -14772.037369 -30469.332525 -23935.300217 -16939.245954 
-11848.397851 -27713.081394 -13007.776455 -21837.818303 -17495.45779 -25596.451035 -24822.048038 -15529.334885 -19582.042349 
-65216.898883 -54133.512455 -60344.995929 -63375.005862 -17976.736786 -26815.201441 -29185.840427 -15969.14926 -18001.793893 
-26464.81588 -26101.028324 -30666.078881 -19760.426438 -17862.461117 -12751.318768 -18638.477305 -22790.641998 -55986.449124 
-58435.560594 -46642.168492 -47223.588654 -64431.320471 -58975.167408 -39877.419208 -44066.599587 -48952.741272 -26744.147379 
-33435.546098 -20487.954704 -22322.983305 -20877.881056 -58045.888876 -22283.027423 -21394.976878 -13411.981765 -60598.239495 
-49746.268755 -58178.790029 -23202.094296 -36521.55252 -42579.942481 -33428.868699 -30132.21183 -7051.3550334 -31492.879915 
-65291.603527 -43099.839462 -30420.810401 -37597.065483 -56971.520733 -15916.920202 -14353.704946 -32460.3807 -10321.452038 
-13449.463333 -30941.766085 -13100.364818 -9432.4727531 -13746.387527 -30224.747372 -68779.224956 -30750.430473 -51432.081403 
-9411.8100807 -28457.620476 -10687.311838 -50299.019518 -34633.119555 -45885.429803 -27320.78788 -27340.02011 -26914.761122 
-34302.083282 -47983.2488 -14934.089557 -60328.323225 -8946.6305947 -70377.869428 -19073.700813 -18165.949525 -9863.1503086 
-36084.810558 -73329.713157 -50240.428106 -67611.109204 -56152.520934 -55704.376903 -26234.510566 -29138.748827 -35249.527028 
-2814.489069 -11100.397827 -6126.0009053 -6755.7517916 -4797.8987623 -4116.8734016 -4693.9700844 -9870.3209062 -16113.102113 
-3448.2788134 -8537.9159436 -5644.536332 -34518.206918 -17283.973154 -27403.712496 -26185.859123 -17153.172861 -23656.711612 
-49448.917348 -25890.658806 -10698.164059 -2949.4012147 -949.26137703 -19086.346795 -25462.450857 -25242.734571 -20527.138246 
-30746.300047 3448.4711101 400.84957734 -5291.6128175 -1374.4970586 -3654.9530713 -8757.3947474 -15250.736611 -21252.907178 
-15201.010804 -23582.440659 -13979.907789 -6680.4066196 -6777.9755893 -11414.886515 -4977.1582551 -5055.2823514 -11650.246278 
-7163.9144563 -6492.4868354 -12147.896678 -12706.020532 -76674.231318 -72314.048412 -65733.606581 -80092.702709 -79356.330057 
-75122.252308 -68957.086074 -69944.450232 -76546.115039 -78042.35965 -72150.401538 -72825.252721 -73482.336072 -64171.821203 
-70123.241349 -68317.135916 -53114.415854 -50030.319188 -56230.213538 -57852.273201 -50248.555732 -52845.673836 -46185.12784 
-51018.264548 -56003.073386 -45111.391673 -45517.808645 -43267.098317 -37063.983577 -34243.062928 -44065.193633 -38078.366406 
-36570.91503 -37007.127183 -33426.559475 -28365.169311 -39982.891077 -39044.153873 -31909.091394 -38912.332388 -38129.873884 
-33257.998137 -40814.906982 -41337.204259 -34169.47028 -36001.369889 -37789.602771 -33715.132543 -29941.048231 -17507.615773 
412.57871506 -3655.8058712 -14130.172068 -6557.6468849 -3418.587785 -11160.150179 -7256.377004 -3835.9938938 -16458.540555 
-17378.14468 -6835.4175764 -6487.8529765 -9645.0801191 -13430.161156 -15300.816351 -18063.006154 -23347.621127 -50789.14144 
-44149.920724 -53322.428075 -45278.777838 -29908.448822 -38550.486798 -22062.89806 -15659.956721 -18513.002236 -8201.476612 
-44752.467762 -34089.009784 -34172.362162 -46305.546668 -44250.008444 -42251.116866 -47080.631981 -28249.113821 -32209.094669 
-35184.703653 -47282.480801 -35655.082634 -43134.24735 -49452.054818 -32455.995611 -33515.1149 -39736.862471 -44436.407732 
-47277.273337 -61622.005418 -53523.993864 -56723.767844 -62634.880712 -50153.234697 -45815.716789 -53809.976072 -61790.172835 
-47588.239784 -52925.82634 -40953.629471 -42054.693588 -32251.557592 -37944.831791 -38700.715966 -27713.671783 -27319.326983 
-18233.989039 -25241.13571 -20556.250692 -20088.946072 -42170.243733 -36496.215901 -36347.860115 -33511.539215 -16209.587892 
-29422.398713 -38557.393061 -39590.78143 -25414.672719 -27141.666195 -18322.123505 -21291.246796 -26253.584606 -22318.040335 
-17059.153663 -15072.188245 -14747.771031 -21901.715173 -29255.817852 -17165.742618 -13831.102378 -16574.812672 -27599.258072 
-17674.286046 -21615.503475 -25760.291572 -15440.463799 -24875.719468 -19721.650316 -65573.233151 -54750.003023 -63474.989567 
-60170.719984 -26904.044198 -17965.494821 -29152.30488 -15971.975396 -17896.944949 -26427.585202 -29684.798804 -26904.27691 
-18477.879059 -18170.525626 -14739.64423 -18265.952456 -22334.813765 -52677.178932 -58310.254875 -47979.776395 -44065.800509 
-64308.302518 -59134.471874 -19789.398219 -18965.351581 -23822.653664 -14964.004501 -75469.408049 -74974.763563 -70853.967022 
-68960.334607 -73687.884289 -14363.996922 -22847.035344 -11371.587655 -20424.077712 -29469.030711 -13140.99907 -10389.679762 
-15115.0551 -18379.325505 -24962.801872 -20839.022964 -15592.807455 -7507.4001006 -7228.5585229 -9459.88415 -7588.1825947 
-7549.1452938 -17527.93853 -12211.897711 -6373.7882391 -8587.8189399 -6288.1568154 -2391.9140188 -5559.7883211 -5440.6980444 
-15151.752603 -28976.196186 -36874.255888 -43011.220266 -40051.514251 -48028.089237 -29942.776948 -25579.526406 -35156.718916 
-36291.249926 -50130.349644 -49567.529813 -43354.88563 -20946.735002 -19156.21148 -22468.185712 -19797.698329 -14154.915545 
-14737.52571 -73891.076724 -65242.359349 -70570.771921 -66370.326033 -34209.793007 -33297.48857 -24881.484285 -35773.020447 
-36937.916069 -35764.657269 -32776.333329 -35715.799455 -18510.490011 -14527.0538 -18659.404675 -48841.838612 -26469.11898 
-40991.329364 -32834.753395 -41799.073546 -41055.623044 -40298.752009 -23039.917933 -14434.804598 -27313.098032 -23524.054043 
-20201.294493 -10408.346687 -18970.050036 -6801.1745964 -5002.079299 -4995.0552069 -9877.4454498 -11695.449687 -39111.726199 
-39720.712255 -40859.537441 -34186.513454 -34281.915437 -34360.909772 -9009.4619468 -4834.6089948 -4904.4451345 -6849.2861235 
-11305.585101 -4524.3079605 -9837.1341925 -38760.937386 -40854.868552 -34278.620177 -33128.757787 -8276.2109318 -8881.0710175 
-39389.543356 -41602.497472 -34000.235869 -38896.117592 -41594.06625 -36085.31632 -64184.248252 -59347.008595 -14901.8599 
-5114.2228117 -5100.8566074 -4999.804486 -18806.43373 -74766.871881 -76018.504867 -75567.398456 -22505.272005 -29734.925602 
-21510.156216 -47087.333666 -44419.100281 -50295.392241 -6210.8485178 -6880.7717749 -6175.7373288 -10340.231781 -16041.334523 
-14230.140319 -31607.863939 -24098.415395 -29666.702951 -26368.137077 -29148.490612 -16029.1949 -18462.00368 -18511.876436 
-60105.48886 -71674.188074 -58151.394691 -14752.552845 -28481.828392 -17151.190103 -26977.895762 -18553.375688 -13711.564617 
-13520.76506 -36785.816485 -36545.760733 -37166.340053 -41374.29426 -41317.576151 -53169.325874 -53504.772822 -53885.953841 
-46908.876827 -53307.902904 -16876.228544 -41272.464391 -46180.63324 -46168.749031 -37924.268229 -43698.550753 -9778.9844735 
-8018.6259889 -11361.625974 -13686.496211 -6891.242903 -7555.3622208 -3110.7441509 -43997.82352 -75934.388685 -73941.366131 
-75443.620482 -63695.315156 -68761.706845 -61599.433334 -28519.174949 -29929.590522 -20816.942272 -29604.736687 -7110.7899406 
-13761.534329 -76656.979657 -77724.297693 -32324.252481 -40555.133303 -23158.647298 -32518.082904 -37166.825344 -44076.581124 
-77749.600649 -26283.091915 -17043.430369 -22293.249708 -20530.344718 -8881.535065 -37391.163957 -30232.566123 -51572.077482 
-56183.692678 -71268.042123 -57274.547779 -68532.511094 -18710.996434 -16013.472044 -45192.395801 -8927.1704445 -8734.4185428 
-15082.203704 -13810.65603 -21877.726848 -49894.129339 -52830.10068 -22260.104484 -9187.9914851 -60936.635095 -58324.992516 
-57948.036402 -51265.350656 -57352.789368 -73367.592927 -61664.411778 -8269.1220372 -1900.4561498 -39429.997286 -43530.237743 
-54676.71196 -18159.789257 -26710.02 -21044.259727 -41505.336816 -67032.454445 -55642.162748 -73216.444169 -80434.712578 
-80406.761415 -71779.506323 -39738.72686 -22250.117885 -27187.038888 -53861.111495 -26472.415246 -22334.078743 -18028.148331 
-4781.2649475 -4520.6654808 -21806.029409 -17914.555785 -26887.385447 -27330.38615 -30454.092759 -46383.77445 -38629.156203 
-24934.773642 -62351.209585 -56805.165471 -23855.763418 -8828.9707388 -6374.6854715 -40856.722663 -32882.407259 -47495.701077 
-48516.271753 -24080.684861 -68641.765777 -68231.214985 -10952.315939 -36435.052713 -28315.597399 -39943.891221 -37844.29415 
-38623.484671 -53666.014055 -29117.697193 -7299.3505123 -12000.884975 -15999.3222 -33670.268629 -19100.506478 -29893.803975 
-14400.626817 -21970.731639 -15168.80377 -4777.0549903 -3935.8508668 -1687.8065301 -55205.296938 -57910.372394 -57947.948198 
-31730.707977 -33317.961337 -19104.72777 -38562.210333 -11096.96947 -30371.673317 -25361.470372 -5897.3616265 -3624.0160909 
-5620.3962214 -12922.638714 -15646.112085 -7318.1805007 -66626.135533 -63757.548157 -63677.591779 -7189.7074396 -10118.873981 
-3285.0349509 -4806.5914182 -2500.0210253 -9158.2203755 -37211.745856 -28734.984028 -27739.611767 -23183.300232 -14499.116016 
-45889.635657 -59952.385175 -10732.613703 -70101.499534 -79849.311208 -80170.016097 -45796.669489 -50974.725034 -42537.152211 
-41491.923926 -37817.440357 -32566.638176 -59678.10933 -2496.2696131 -11682.204413 -33571.17501 -47670.729541 -41063.334143 
-38213.130574 -38566.903943 -34065.14025 -46333.783654 -45962.413055 -53367.711677 -50101.219031 -18601.293559 -36854.932318 
-34709.724067 -57396.319851 -26922.738028 -33171.686885 -33311.140398 -27873.272956 -27993.882395 -8382.5788866 -8382.4267211 
-5483.0551477 -8326.0110968 -5458.2490052 -49824.54828 -56463.381776 -56252.432383 -50538.58446 -32619.123694 -4697.3639529 
-4325.0674193 -5657.1141764 -17366.739973 -35629.47055 -30577.543448 -27723.291006 -43129.207638 -17029.320245 -48858.677568 
-57905.798627 -32996.417028 -40938.521379 -4102.586635 -11850.13874 -8105.5521723 -18139.755346 -65524.113143 -79967.271408 
-37158.157723 -36516.26691 1490.7307583 -23373.067704 -50016.39337 -21286.506379 -20334.647035 -36836.064347 -47044.269822 
-54784.432128 -51650.091673 -63567.670806 -5416.7104302 -54770.629412 -4499.6517919 -6853.0384001 -3641.219888 -618.82939777 
-5871.4811781 3295.3747482 -37188.468949 -4589.9204518 -5434.4725573 -68915.389142 3506.6425304 
Stress%20yz%20component 1 1420 double
-677.38649915 686.89125935 -405.90884672 407.76229348 739.27972955 -729.26755692 70.727851902 -38.500063338 418.42196732 
-948.48726025 690.33762797 -470.33790087 1488.5300313 -1096.8486055 186.23987871 76.091498875 -1191.004956 1324.513781 
-443.16345487 431.23468638 -5.0652570246e-13 5.045987025e-12 47.184067968 -16.926018854 -52.02138053 -13.273090099 -96.335275016 
37.279533518 -110.06695928 -21.293476176 192.42508035 -27.582494818 6.8318487649 0.8743910609 -17.011459559 -2.6167306926 
-4.128864269 1.5280474368e-12 2.7376104855e-12 2.5410988418e-12 3.372885196e-12 2.4648658765e-12 3.083199928e-13 36.793869577 -12.672203137 
1.8278971002e-12 1.1384122811e-12 1.7190533665e-12 2.465289393e-12 1.6777605103e-12 1.7152417182e-12 1.9584923753e-12 3.6305949702e-12 20.557640239 
-10.131534227 32.981955027 23.115886025 -56.049051422 238.59171961 226.25700642 -3.9436114787 -183.90491329 91.677641922 
-18.416049896 -0.94647842373 8.0991730273 6.3334402447 24.442906509 3.6998399136e-12 1.5687050183e-12 3.3279924498e-12 3.030472127e-12 
4.6663045064e-12 3.6524060686e-12 -34.500050436 50.452453342 0.041520006864 1.219727444e-12 4.3241031957e-13 5.0176114213e-13 3.2335482761e-12 
1.099872282e-12 1.8253560013e-12 5.2134877904e-13 8.6260984305 -38.211661 11.524600557 -8.4888407709 -1.1002619172e-10 2.4415724705e-11 
40.425698455 -11.268588528 8.3538142944 3.3078330656e-11 8.0237737028e-11 44.698549719 -23.316308035 -16.090172076 -37.62588837 
-199.71753735 16.854055046 25.928459697 24.716866935 -16.138318096 59.399263081 20.021126746 15.445883846 11.774193185 
148.03870284 -51.968755755 -25.686960007 -40.620598855 -70.632570611 -110.49142476 -1318.4962369 -227.81196754 2251.3673793 
28.998938771 365.29019789 -2367.1337128 51.707882195 -816.58574915 2718.0684358 -1818.2411371 59.635266682 -139.87658431 
-270.73524509 773.38127796 -257.28326741 830.60482816 428.45923583 63.758504912 1884.0312081 -1168.8260514 311.55275543 
255.90376938 347.80456584 -22.360944295 584.84016245 694.43358546 -772.06660305 281.80506149 -37.730266553 -233.36305785 
-36.253616263 -449.34680783 -514.40842579 681.71511806 -485.03281318 -13.91461258 642.57867321 -331.67444165 -381.86009734 
1409.802697 -945.61928895 872.41942624 -396.44846195 -153.31203696 1757.8474837 -284.4464055 368.06524797 364.0501552 
-1591.3967068 635.22740738 -929.84619048 417.57789329 -251.9423766 -3005.5780062 -65.296187412 -285.30621726 705.39590489 
104.24154474 -3.7947076037e-13 13.582008868 135.32028129 28.076388826 77.428995953 4.2463409043 340.76653153 -748.49673521 
-108.87043164 5.8021756887e-13 -5.4722685733 -148.97703355 2.922158727 -99.592224216 -17.139448915 -11.385959361 -4.229813902 
-14.356538499 42.254738728 13.523574557 -15.377392215 94.842603326 18.475474559 104.34157814 35.123470937 4.2226394804 
11.541068674 26.421857511 -2.0108663846 -85.77743282 -245.44209072 190.11822371 -120.62476127 -5.6120134188 123.58279102 
-136.59593485 -24.141194968 15.03935511 -90.221560706 71.646927682 29.832423623 12.978497583 -17.998477874 7.7346200624 
-13.963018993 90.199206028 -45.374915234 -6.3714634431 -27.167944869 -27.018312529 20.826753085 16.408967663 -129.84647698 
-32.277039147 5.172244133 0.009973747851 77.225898163 -125.23066126 -51.837770559 -48.545177536 11.107571375 -162.5153201 
-70.121831711 -61.625325035 -46.619045947 197.10848839 250.71373829 -27.609461085 55.486163465 -26.902151465 -66.092225569 
205.59300589 29.5747319 0.064300652879 -34.022033994 99.134837895 38.643367363 5.3715805156 282.89683574 -68.109977346 
-170.40172296 -58.6002664 5.679162743 111.6642536 101.95881105 13.830449751 -76.749032768 -2.3862640109 83.211479944 
21.028335003 -34.337400468 23.245503477 -15.628670502 20.322496416 -8.2016089497 24.447326641 -20.836150139 5.8720522498 
-2.2481770457 -8.1384162432 18.447580987 15.884069551 66.570776281 -13.053183068 2.4236911332 -0.11127971342 21.440425242 
18.07190135 -21.568388348 4.8992138255 -3.2383293827 -8.9869948775 -190.76361231 196.29330723 3.4171850191e-11 4.3583233268e-11 
-248.69723037 252.55856439 1.2408662017 -1.2631195144 -30.650210639 21.738132174 -5.423527654 -4.3154711815 -23.282631821 
33.367675499 -25.258030444 -1.0078039376 -9.5006610901 13.479582948 13.09645562 126.90794634 -159.48219252 -478.57349845 
325.89911166 24.714089583 -18.057621395 -43.646488027 49.894407105 20.327820576 -19.24656095 15.863311751 34.140950843 
-6.7455352306 4.5490939091 -26.236087858 -2.9139434277 -3.1522233216 -61.735784642 -6.6461944255 34.84254856 -2.025743603 
-10.371736499 2.5615848247 130.21489756 -48.258114891 -219.57473892 -44.247840195 40.415594487 -251.62379385 297.56958651 
-1622.545749 1190.9935864 -244.51139299 -67.090997118 -72.003814034 28.30528794 -816.34820695 -325.43679929 641.15568378 
-254.92538592 123.38561787 -329.82587548 -244.03702319 15.70918127 -994.37724615 893.92164195 -485.82418444 855.04752169 
576.52673383 -565.32573399 58.473547364 473.63471992 486.62970236 -437.9437592 55.114087772 716.87207615 -367.18390814 
-226.95961668 -649.22796025 -202.46642024 28.532902628 -16.581453636 -630.94987282 119.21591825 1217.4359038 -1147.011854 
-959.73022002 908.37075058 -297.68317562 20.16772998 -391.38138057 -1015.6685878 -1280.1972296 -700.67022858 -592.29646263 
-36.419158715 149.46303513 953.80392399 429.88824425 -259.77476367 -63.637874269 -58.588762936 19.866539141 75.148499514 
-2719.9084491 2328.2905339 895.90011674 -778.03998408 480.26494259 -604.22559358 -130.27152026 174.3016951 72.259215884 
-568.37970183 238.54014805 -6.8875765247 -162.294476 316.88131845 413.94728823 59.464191336 146.35096451 -216.15672024 
769.83530659 -71.524710901 169.13130641 163.16615615 1028.8811253 -228.19846222 -17.560738366 207.33679068 -22.363130347 
35.339135767 -40.817154477 335.99195238 -314.18176907 -4.2731623102 2.473336206e-13 -82.900607296 102.00152445 -16.899291676 
-74.870842596 28.311681466 83.998893153 -2.352634011e-13 -120.80750983 -915.09947867 469.58629698 -489.93709913 42.660707708 
19.656604037 -246.91338065 55.916713221 94.742312559 49.064463538 820.2389924 -22.651886455 224.91672302 10.698469633 
53.617305155 -72.978649282 -16.387050278 -30.343387293 -3.4867192015 -41.775640737 -9.1022128501 116.17756099 -2.137844791 
-123.58940189 -125.50429096 -181.20843024 236.18237221 -40.267304498 630.86465837 -328.58128546 -0.9168700873 -273.96360952 
31.413541505 210.62582851 22.055433156 -7.150095938 -84.262785363 -335.15283493 97.845470517 -4.0536240064 -513.23874921 
-24.154368919 218.45603778 42.625171182 -7.9235162183 -127.02022439 9.5066559004 -391.07600949 -0.90399331459 -18.010988247 
-45.823030491 87.147412844 -3.5284250875 468.08891984 -1.0975919444 -51.071129055 -67.449675715 239.32009263 -155.8694246 
-245.98218919 110.52503598 190.28440772 -11.566115045 -23.998419956 -286.26380484 -33.250619622 9.9969413103 238.38999381 
14.76729669 -128.77552305 -1.0969229147 1.5495944874 13.157793239 -371.84560661 -517.6791296 28.373319177 -71.994776166 
-296.35129881 -128.33031521 -13.159302455 139.33736872 564.06214278 -233.0328988 60.958936161 -209.82379051 -44.711948381 
111.06709105 25.471716663 -1106.5025546 437.95195278 -700.16253264 768.29377264 -1491.7275189 -959.03470464 -1156.5985939 
1545.6665334 -31.886545317 645.80449858 217.8210132 195.61173511 -17.506835187 -583.18820658 0.75859081535 -265.33401078 
133.10461778 292.19138352 -18.960242193 -918.16747025 139.31345695 1496.3972903 433.1925955 77.239949425 -818.31700629 
-407.2694098 50.037879562 88.127584735 44.454477886 -55.724338555 -82.9997509 322.36597513 393.49505732 -22.526933033 
19.439933175 -6.7584323791 157.14338849 30.632437238 -6.1544088511 49.501752866 24.842054112 57.769670918 -95.36400154 
-8.536499701 -33.025524215 -280.0001874 365.2412398 -360.54558209 337.85045531 46.819761644 -157.05323684 182.31913054 
711.87651102 217.07523293 -211.88979367 301.64267967 43.20744092 36.85264276 11.221512354 -437.64437766 -66.36903287 
459.01643944 -648.87445199 -133.72403782 -69.055028399 -179.9583192 -40.059377985 -15.082973029 4.2772338396 -117.17582879 
56.833973098 52.793375958 1.8043938352 -2.1304668351 15.587637995 11.515040217 22.283864172 14.322028748 3.8369495841 
-38.696715691 -29.400706831 52.704663357 -1.0915347506 34.176329738 -6.1856339216 -5.13925076 106.29562523 -64.202626669 
-13.078488655 -20.013511163 -197.58638256 -69.811740595 869.32861564 -238.54393425 -168.38322993 -566.82900531 -87.270567504 
444.61512668 -789.60641977 285.06569946 185.65604454 739.88544446 391.48119239 310.82650889 662.30708765 1256.3171964 
810.59325425 162.58783028 -504.27960363 -35.771663559 162.21850442 -811.56092963 -296.63752148 621.99537773 -308.90215094 
444.26523796 -1016.5885952 -318.5368555 -68.153946095 54.20304652 90.555141241 -36.013201691 70.233179355 34.572157527 
63.409971902 169.84912954 125.13842065 23.644035604 -271.31128587 -260.33965406 127.41814151 -39.037400793 51.798833032 
164.51647799 95.275102851 48.747423922 68.354570604 -111.83785137 45.782195913 -36.551298673 60.459953387 -18.467934613 
117.60704094 -63.515017767 -111.21452877 10.821147034 58.320619556 125.46050467 -107.03644461 195.79167223 -159.51907486 
236.14956077 -298.9403264 246.50994913 408.94719742 94.831029333 -0.51364711451 170.77146094 -89.434038753 -153.4291866 
15.671735982 -22.349016964 -38.649643229 47.388356748 -332.4579523 -274.18147094 -3.3851929045 -29.958114584 130.42377022 
15.716568827 6.1123608205 -2.1944814211 -8.9585563114 24.989727435 10.001403185 -6.3388400744 18.818033797 193.47820323 
80.318540769 23.645849921 11.671255351 -16.183012529 -18.052422862 -4.9283350953 -26.887253433 20.772558987 8.6351943768 
35.805480885 149.88663458 -2.1913198325 41.441884015 -10.788565302 1.2299860676 -3.6906259266 -0.77173808172 10.309281868 
-17.006033474 19.820523951 141.30343033 -14.420784461 134.99744258 -126.07699838 -190.44081234 -106.50636059 -615.95599521 
-127.09744089 -213.99302672 -70.072261378 -19.476678248 68.882320599 -161.93649104 -24.702224932 -46.406557391 -179.87992045 
5.9205222306 6.7032446246 64.895711137 26.54087877 77.368999087 3.7270121635 -84.92157881 -152.22540082 321.06707969 
-387.7686749 -2.7870565187 -218.80269841 -238.19229174 81.701216415 176.42451832 5.3380953228 -62.479734693 -22.145834203 
36.765060726 26.810305521 94.921276151 110.24701193 -297.98469494 226.88474513 -31.683776352 -210.09623273 -17.209478833 
-4.7675386727 97.918294507 92.12322251 333.73586387 5.1169595878 -16.938549523 -127.89778226 -75.824515568 -33.73266822 
32.864994316 78.98719611 10.751589742 77.30437978 -143.22562083 -173.94070555 450.71915057 -44.86556451 -66.746638038 
-27.854296484 -72.08041364 720.32948498 55.262988933 7.2166451392 -130.07032782 -46.018102485 -90.41933789 13.456719811 
-15.157011333 -10.824411821 245.20061818 -0.96601336638 560.4195969 125.48445283 126.31892338 315.46767481 21.716401008 
-544.0581001 -143.43330939 258.00482689 272.76466329 -30.772252158 -105.95163703 34.005978566 13.70766385 -419.18703447 
1213.7561518 -310.78247803 838.24336661 464.48556467 959.26241731 1493.1042875 -66.87154959 -371.83010957 -504.43806756 
-922.61697096 -173.30263852 1213.8217074 48.693524592 -461.19111926 -41.8301788 9.5163115773 -112.79980004 163.48619227 
320.89836908 -1879.2373485 -52.145919486 -299.34821619 882.22602524 199.70306281 261.92891523 -68.329822432 -50.978458034 
-86.608706139 84.894186494 34.139571726 -41.854633761 27.166436296 14.558661396 9.2183423524 -15.034323437 -3.2592284788 
43.0580877 -65.001690105 13.840380992 80.763711596 -260.34533765 -172.86809884 34.718757981 -11.401731821 -106.00072238 
7.9120910983 -121.22912821 52.742907167 -52.655399956 -61.039086395 -89.444665388 62.176255938 -97.4399842 -133.3776703 
-60.693064736 43.524718172 46.094471692 139.60643491 -280.72107542 -39.488889148 -170.34078236 -749.15031903 49.368235701 
-61.466075337 -99.940356439 -68.564223258 33.689818078 -12.271883962 176.36408168 170.90528914 72.944111939 361.78998123 
19.207481508 65.830452473 95.101241274 183.00810363 -1.926753575 -2.5625109245 42.963051197 -50.591830899 -38.722789059 
27.791551682 -43.28790879 -17.089625834 -33.941475957 -82.356788442 -34.276159534 -11.747978237 9.7151127856 249.15764294 
-988.48280618 42.284856247 190.13237228 622.78497324 339.09825514 54.715930237 -259.10004179 -108.8316355 667.3698853 
-176.94763621 -82.100565932 -326.05638232 -89.973166991 -811.67432565 -360.4359361 -310.06287884 -19.849529554 -165.10198575 
277.96068603 -80.69354996 445.14441888 768.80127581 -534.82877021 -591.21778438 243.83736129 637.73947397 161.08658633 
197.43493113 -36.688970028 103.00235935 204.22696883 -53.037064745 -20.72613382 119.19156298 93.244302151 -130.75633562 
-104.62459916 -141.23300736 -205.96248407 -107.04543649 -130.58921944 66.751491927 29.672461725 8.3732884468 162.52721757 
73.468667954 -265.58855928 78.03330418 -0.1329535153 72.957936171 162.64424899 -36.026397077 -40.574786724 7.3006850545 
-11.845257915 34.984738609 -25.577202238 -97.209427898 -45.452287391 -212.54586568 -53.542126915 -110.38643102 -57.728399187 
-171.84775264 -160.72838786 -116.70644424 -111.00556668 -6.1345569939 68.645517444 27.830074134 38.166933699 -34.342126662 
59.045859297 50.424661504 221.60046613 -65.685473016 -39.0963319 -170.6924641 -270.3221812 -1.5587635065 3.0390501256 
6.913063436 -21.441058388 13.671198975 122.38167167 122.29279308 56.289393925 20.194927135 -6.1806379602 93.147425206 
29.262708201 1.2669855887 23.402855505 28.920947463 33.325936246 20.939727095 -0.85074935765 62.572855478 -59.340450369 
-40.901107916 -0.21978671225 -17.555575437 3.623553109 9.6473680422 7.0643974553 23.320552761 -5.6343847874 -95.676905603 
-167.61740619 -84.414167735 -115.53682495 28.735882285 -160.60393934 137.17661746 -113.31051483 152.91264844 -132.99659711 
17.601710231 8.6007674686 5.2116415638 -7.3347428864 10.707309329 -11.270830554 -130.47826102 133.57716317 -20.230510111 
-74.283522273 -20.903294399 303.41402755 -198.06251183 -97.212532632 -158.59017435 45.864484805 12.081072056 26.231775908 
25.728099112 79.554298711 3.7809150993 8.8239216564 5.8440923598 68.461418873 -12.95979532 303.34970871 173.16144809 
-301.72107319 -4.961986433 15.381596439 14.785986655 -141.53079231 -48.682668838 -37.247168237 9.4735863198 19.798827737 
-284.25612742 -52.041342861 -122.73415483 102.06024762 259.84401627 -215.48865942 -25.589639968 8.5917885256 -110.70385159 
79.209004201 -184.12108153 -115.38928911 93.315316344 108.74787522 91.717093901 -130.63178465 -52.518426071 21.447608854 
21.123833364 26.8063388 -14.346199198 -5.6027460351 43.471838032 45.331269975 123.11128027 274.33703047 -245.42209923 
157.98481014 18.491371436 -330.66345481 -147.92305721 17.053939519 -53.056186033 -37.844274086 954.79567064 -181.83373257 
590.72669405 -37.235479241 -559.44468507 249.72543352 99.123733657 40.361883966 -161.58583571 19.167288064 -258.52105525 
150.79879828 822.58493482 362.76634692 -12.633344382 -6.030585349 -0.63145926536 7.3565483762 -3.4424093632 -38.906908084 
-26.492930074 0.56703523008 -4.1216343837 5.743056646 28.272450605 9.2754271214 -4.7992835131 2.641244146 0.015846679649 
11.029790624 12.336431285 17.968478367 37.318417502 10.931452449 -25.863276779 6.9577744519 -437.42340542 -99.573091326 
46.317616629 -6.9536998064 -12.203765915 -34.978533501 11.449576991 3.5946750236 -37.821908061 4.5333882662 -46.64029183 
1.0729600175 18.052326105 5.1859754304 -108.98592701 0.7394122398 0.012367036041 13.118099006 33.709553503 -12.659303615 
-3.9516928809 -104.23813743 -77.087933654 -99.629908806 -23.18443408 -22.492921017 80.186481476 -2.0549934711 313.30440586 
-122.06840416 0.029159908576 24.063190972 245.09410297 251.05300351 -109.31944779 -296.63341483 -300.66854947 62.068436834 
-22.093955817 -25.107291777 -39.487756798 20.109258421 17.024868914 81.857218642 89.802419875 25.520663126 8.3790514328 
-9.7635063404 15.817718351 -20.599734517 -47.786977605 -10.873797295 -14.379687964 -101.92320261 75.376577313 2.8624905061 
-106.67477312 -17.256414212 200.92509221 28.76240724 132.22123763 -46.625933761 -143.61770449 67.856459557 124.50643414 
52.158920137 47.831896899 -176.60381717 -270.12363714 251.04520696 -553.13648223 11.799627 21.69733313 253.18491093 
7.9858799405 39.847740207 -113.78605067 -42.188590504 158.96905318 82.396686866 100.99041354 -15.346971955 18.484992365 
-29.546546459 -21.718055192 7.680724106 67.208005713 55.383048783 115.76750356 69.28934787 79.470009099 46.987177708 
-92.085501003 -1.683905156 11.192147917 -2.2787647174 11.541481006 121.17121177 62.144879331 2.0990153995 22.126337865 
-457.80890325 -90.107346899 -19.301729553 -167.72696252 -100.33017236 307.73208432 262.30713266 -408.35269596 479.31262929 
-151.00068325 301.43835975 152.94386616 -172.16692427 19.551556414 -112.15695511 -707.53077903 -228.51504997 -481.70584807 
584.05820742 -140.89648686 580.893299 -53.145148243 322.59231344 98.208902001 347.64737315 -49.393444238 57.260393375 
184.72635819 26.192861125 123.69900748 -84.952881388 -186.82502579 -149.6937242 -387.25759836 5.0686287118 -2.9901192479 
17.355225731 -14.635723424 56.175410215 25.796846984 -2.8883655148 -76.827486282 -13.049166331 -5.0272387589 6.3009178847 
11.525492923 11.327258614 -5.0457022663 -8.308419446 13.176962767 54.23427992 -417.70207777 16.002750204 -60.126689007 
-366.35911762 54.783386203 -4.1553966815 -51.650884067 -924.80587418 218.33404292 109.86825634 23.243513613 -37.517275457 
44.776246136 -115.24385435 -19.93944037 -340.60665851 -58.705527597 77.295367437 89.66806909 -122.37364269 -0.71257872734 
10.183002508 -139.45310758 -7.1016407196 -3.7638284633 2.699274088 -1.4998672011 -7.7520518689 -231.81997868 -124.67178661 
1333.6603275 -608.76615633 -142.48217025 -19.592951709 210.21746214 -251.21536878 26.770542641 23.797968453 66.327810494 
32.537044659 -339.86020168 287.08329559 -10.56520388 46.131886468 70.819395469 14.57234333 -107.82081081 53.847812707 
-66.284348834 59.539784803 -15.453475893 6.3731150723 45.330927101 -207.1471396 125.52745151 -4.3891376029 -115.85456491 
246.28203389 -307.56322086 -137.61240115 -89.922503997 -298.54324939 78.080490837 -175.70445129 -72.338108661 53.12406426 
136.45452221 -351.94037098 114.87285563 -1.0334753332 -44.407349926 62.365904665 10.039362756 -99.469657827 -35.673726074 
11.110202476 -9.2673320056 10.765205581 -108.78887664 -4.6165713628 22.834203761 103.25559547 59.2536244 -18.031343729 
-241.71908228 176.32632709 -120.12056946 30.637402761 -29.322646898 68.08819919 39.169576307 -58.909574439 -1.9079269595 
8.293821174 272.92180568 206.59542163 79.145417989 -96.814403743 9.8312615072 13.260503187 51.054115421 -52.873511444 
241.28708997 -122.87894691 -10.231950704 388.24322871 3.5776919079 -78.904092702 -179.92020802 -35.876950021 -271.07410665 
307.78746899 -93.149117348 -26.12166726 -141.079901 -45.07574794 66.121102027 -179.03993503 -213.19287268 -115.14941973 
26.678503025 60.137676231 -115.91027207 406.78368015 212.02921845 147.88932703 22.871387675 42.075694073 -3.7883739777 
35.162372777 84.600377486 -418.63357989 -117.4131125 49.620974666 -1.2823542859 38.452031473 28.693051601 135.72856428 
27.452304383 9.4931455193 -77.546126335 -484.30925279 193.47082876 92.508063881 103.0343009 -168.69684179 -431.83040776 
-58.277838882 503.24001594 -4.804818285 -26.754332415 218.74716289 -12.096555934 73.056016782 
Stress%20zz%20component 1 1420 double
-42672.449005 -42636.923189 -24392.570845 -24345.795714 9519.4476442 9549.1926275 113.27871975 160.45572864 -2746.1652884 
-5427.1879898 -3152.318214 -3975.9299093 -534.47202359 -272.80061407 -8445.3122676 -12560.102504 -1437.188518 -1078.3745525 
19908.241771 19572.39962 3.469446952e-12 4.8312048806e-10 -93190.374088 -105195.14074 -107788.12464 -103780.05189 -96367.664396 
-88670.507826 -69132.043913 -61622.917707 -56787.189092 -49899.09422 -51857.478323 -56060.432499 -57696.714293 -56586.859349 
-52427.788688 -77195.377595 -98008.34199 -107234.29545 -107063.69334 -101929.27049 -89333.257226 -81919.619861 -67074.073966 
-59885.148682 -48975.162905 -49115.671795 -53585.640867 -57119.79127 -57485.635596 -54972.793145 -44792.061631 -93089.594218 
-104889.60733 -107943.47789 -103669.17461 -95122.542625 -88777.49566 -69526.757877 -61035.625941 -56841.584459 -49284.945651 
-52355.377395 -55920.411967 -57580.985096 -56635.362533 -52163.381185 -77296.502742 -98959.687525 -106812.10556 -107094.92097 
-99569.266892 -91996.867407 -83773.382654 -73261.108848 -58386.746992 -52771.454278 -49004.042761 -53591.602979 -57189.687969 
-57324.704118 -54763.784123 -44726.102306 28109.454826 -11695.569607 -24047.605936 -3042.2023124 -18134.789394 -26402.94227 
-11690.798729 -24096.090941 -3094.9079043 -18111.132892 -26346.23266 -549.57524683 -99.06607258 21.088885333 -15.391746776 
-577.59202969 -246.99221906 5.5770389139 14.754175271 -464.56525984 48.530125498 -209.36975593 29.775255527 -140.52279736 
-700.5376265 -257.65116351 -23.037979243 45.175046374 -181.51023816 162.64612015 -14696.404409 -3088.9788292 -12734.097133 
-2418.6794463 -3163.3247304 -13501.360727 -2301.7452419 -18870.289632 -11639.495362 -5751.6402126 -8392.9154311 -16104.824848 
-2459.4900361 9127.8648518 -16454.383654 1215.7539719 14782.838388 -13924.928566 -6350.1822895 -3963.6743838 -1128.8145749 
-11348.312415 -9287.8864376 -7732.2346675 -5876.9164056 -14588.978886 -13867.430418 -8408.1498048 -10840.340038 -9929.0103811 
-7418.6911468 -5488.9995023 -14614.093909 -12253.477323 -7026.5278427 56484.839593 -1861.8564652 380.70474947 549.29252564 
-722.92316958 -10300.377798 2594.6191175 -507.45056186 -3342.5358855 -9788.8693185 -1905.8838399 1942.4238494 286.43202126 
-1082.2639822 -8784.0578378 247.23394681 1685.7322362 -3370.5459309 -10364.700891 -51478.804572 -37189.054403 -13905.217622 
-5999.3548708 -52414.096634 -42134.937851 -13829.605424 1673.431944 11499.873841 -51938.920761 -36586.688934 -14894.242109 
-3389.1769562 -52169.107956 -42588.492483 -11765.356085 -2217.9989095 13273.165925 -49503.432292 -102121.2976 -108029.99622 
-106922.13738 -100495.99363 -91870.931487 -79961.83609 -61625.272509 -61591.994258 -49152.203646 -55076.321497 -57577.748591 
-57787.958211 -56119.285688 -51283.607103 -86752.397317 -67453.506442 -67282.406461 -87080.305663 -86978.42792 -38699.208622 
-38807.221428 -49367.149004 -49227.088937 -103746.36086 -99536.734684 -93578.53666 -100338.29461 -108545.16833 -107687.79663 
-105522.51541 -103285.10714 -107102.01014 -105951.67095 -107483.58722 -107790.20182 -108606.07611 -107513.80103 -98933.614209 
-100986.98182 -103668.39887 -105461.11846 -102042.77656 -88088.358716 -91584.353543 -94708.515014 -97482.259564 -90888.639342 
-80144.833734 -82171.782901 -88730.381075 -92077.695412 -81649.16837 -59302.752844 -66385.650839 -68737.311872 -79891.352201 
-66739.767958 -61322.067353 -60830.580787 -61902.834689 -59112.220657 -61732.357177 -50311.477045 -49936.160763 -57343.399159 
-60800.067846 -50703.329502 -49611.929093 -50877.329842 -48455.675284 -49082.137758 -50561.2662 -55248.792772 -54403.113446 
-52142.059774 -54653.376226 -50398.561396 -57568.170102 -57361.527303 -56178.268266 -55141.25924 -57189.482648 -57318.329716 
-58057.964254 -57602.767451 -57484.299153 -58108.839992 -54740.337502 -56291.778618 -56744.233518 -57474.132228 -56641.120624 
-52348.155114 -55048.817812 -28501.217629 -6476.3684451 -18389.494875 -26482.86196 -26501.177897 -25375.594554 -25441.038263 
1536.7916678 1564.6563065 -8852.7277353 -8894.2564963 -15069.128744 -21676.610145 -11899.031432 -23527.633577 -21670.416436 
-14948.784197 -2948.602597 -492.44217626 43.201855992 -9.5038850848 -496.85824194 1775.9345231 1725.9255163 -1574.1991971 
-1932.4006438 -294.48575632 -192.86511711 -610.95085498 -736.21296756 -20.892858739 169.18326308 94.600522213 136.27927526 
93.337136792 -46.603804303 -14.517228031 17.586353848 21.433854449 -64.350134296 -800.41669211 145.71447453 54.106566273 
-516.45838039 -161.25897897 381.54952757 -3261.8845594 -1515.3693149 -2396.8020932 -2570.389933 -2720.2568721 -3110.0378595 
-1368.8244315 914.9159596 -4114.2746489 -4349.9867775 -4471.3297686 6588.8953329 -3408.2701607 -7578.208905 9668.1779778 
9236.6142802 -2939.5172138 -1303.9675602 -16071.026773 -9996.3021138 -21164.222005 -19425.470736 -6818.9630342 -4849.0425491 
-16059.822875 -19116.891538 41099.771117 3803.5436723 -267.30897148 1265.9987929 633.11171407 -4592.522167 -10956.821256 
-12146.692876 -9399.9063647 -8308.2695258 -4546.9985636 -17345.557969 -7358.7108523 -7071.3788947 -4413.1413327 -4788.9593433 
-9610.3755641 -9825.1697854 -11672.642025 -12236.903073 -6958.6808272 -5328.2754004 -7071.3774165 -13548.839709 -17827.868936 
-12960.284912 -11620.715359 -8761.6433422 -6994.5803196 3624.2610944 -4479.6887754 1209.3738842 731.4134203 -2965.2705287 
-1099.6881327 -1832.7876191 5465.9723431 4993.575562 2966.4305185 3628.3167996 -2326.2428369 -5746.7417897 -263.87132743 
97.182638016 2286.4538855 2168.0881719 947.16493513 1853.9264515 3161.1172533 197.45271149 1364.1750012 -1753.1561239 
-4660.2902741 1437.312534 2264.2539296 -1947.9064852 -3261.804391 -5970.7128082 8929.1648163 -3815.7249773 -27776.075716 
-57982.709485 -45483.543908 -50850.437307 -50794.71492 -52648.983661 -53015.935657 20302.541266 19375.085835 8215.2153227 
9586.144239 -37127.950069 -49266.557378 -51302.779635 -49055.71704 -22773.671669 -30173.61791 -31402.068888 -34088.555263 
-36877.228346 -4148.2709155 2694.5467658 1999.0906152 -12372.073086 -23417.876848 -4815.1788031 -2046.9350028 -53129.23242 
-55605.098642 -68962.922043 -39551.403087 -32031.607506 -26020.942384 -32732.684178 -26146.948814 -82912.474449 -28907.49527 
-34335.960597 -24671.431945 -83356.594163 -58965.48436 -75678.815048 -32517.701843 -27554.357098 -44412.15072 -47330.220912 
-33103.607412 -15142.880453 -40067.062393 -89117.403462 -62222.356638 -37259.185469 -51321.419005 -76935.310647 -14749.995108 
-24100.214889 -47947.076444 -14241.784234 -17557.813955 -32299.151966 -21868.747402 -19198.212187 -38909.280498 -17795.708084 
-92882.909769 -43994.621856 -71623.372801 -19434.406926 -12890.955017 -34124.129882 -55329.931366 -30169.246356 -48050.829971 
-23741.210564 -39594.398396 -28528.039033 -42010.824637 -59965.20164 -18033.975642 -71587.406368 -11987.984341 -89980.338328 
-21240.722953 -26181.863933 -12630.543677 -45760.37171 -97343.759014 -65657.211909 -64770.238244 -83109.493317 -61026.124665 
-33873.118155 -28678.924701 -43088.910928 -11884.388253 -4734.9067774 -7283.4355953 -7054.840456 -9110.6549291 -6063.5901836 
-5235.3323991 -13219.887113 189.98687808 -8970.952675 -8192.8171539 -4377.7721835 -13526.189514 -31456.351132 -30351.696363 
-16027.389913 -24928.73814 -34760.826483 -13561.017377 -20555.404495 -3193.4720602 -4248.3192891 -683.63228138 -28045.83363 
-24054.171983 -18567.076576 -31631.873487 -34640.42816 -4389.677074 -348.46640812 -12770.690097 -10846.703881 -6875.3544988 
-16366.268037 -22280.65722 -16090.478294 -17380.362439 -27206.942017 -17042.642675 -90265.777919 -96974.755102 -82320.901951 
-101280.94518 -102175.63955 -90621.543517 -96594.728476 -93422.586046 -100000.8027 -97971.97856 -96405.362861 -93206.184046 
-93017.707195 -87072.907572 -86514.241648 -88996.6359 -77003.354049 -65596.160464 -60959.318854 -60475.749854 -74333.933125 
-58124.359808 -55268.28458 -55437.561277 -56545.169064 -53353.469696 -53888.512786 -43376.50738 -28884.131002 -43841.257138 
-49935.248262 -37973.912746 -42497.095794 -42456.22076 -33934.047016 -26541.040512 -47405.759024 -49111.12752 -37704.05691 
-47355.355154 -48731.968913 -41368.606316 -51499.482306 -50863.290599 -43305.729094 -47477.401772 -45234.98991 -42800.68724 
-37552.003275 -8709.9368162 -8618.7812392 -14877.42749 -6172.5867589 -6283.4038069 -15051.927743 -7797.5483587 -8886.1503084 
-15580.304697 -16085.200075 -13762.111154 -11062.734551 -9137.3661525 -19705.019727 -10780.355647 -11367.288502 -23460.961115 
-13805.224664 -25231.477845 -11432.480848 -23869.4929 -12249.831348 -14372.469507 -19668.689002 -19557.216193 -22773.308545 
-29557.41805 -34427.858266 -50679.07257 -57288.936006 -63309.569163 -38598.809417 -52580.891189 -50308.37695 -21846.877357 
-25040.555863 -26312.809466 -18075.031016 -52055.124443 -44337.738498 -58647.887476 -62508.724549 -65639.881006 -62787.086407 
-53077.594612 -45637.921501 -41750.665355 -50473.594567 -52424.936453 -44003.490881 -54240.432578 -63666.280675 -44191.420877 
-53008.384984 -43965.228905 -59021.665044 -59594.855164 -79956.567 -86385.051278 -78324.384775 -76070.887836 -66620.604197 
-72154.330255 -82013.367653 -73290.137813 -66754.983864 -62580.428661 -46995.618969 -59569.015574 -56823.366233 -52998.360668 
-43238.047799 -56910.378701 -42872.849584 -37950.829402 -28905.81829 -31016.61512 -28048.680519 -35349.292319 -37612.828788 
-34302.630703 -38068.818693 -25391.592553 -22210.490437 -44427.340084 -41533.736798 -33473.359224 -30169.885843 -24178.142344 
-22333.293914 -21994.842629 -28604.866949 -33364.605122 -19641.872087 -19082.440546 -42274.132686 -34245.212356 -26887.410962 
-20569.492106 -39652.12409 -21990.013752 -27952.099862 -22238.931402 -32502.906455 -30294.297067 -19039.885351 -23170.107063 
-89169.493396 -77106.709924 -83842.996368 -88173.719388 -23333.307751 -34396.390593 -37269.955226 -20646.727053 -23300.610143 
-34040.294276 -39070.801001 -45001.740741 -30384.25404 -29289.884952 -22974.885593 -28810.020391 -33830.194309 -75466.161373 
-81369.883803 -62771.970876 -54330.564288 -82790.701116 -73505.228493 -53758.833357 -56092.554759 -68626.142381 -39318.46347 
-30996.801633 -26107.400628 -32422.331558 -25959.691913 -82948.98915 -29010.079614 -33648.307216 -22652.848527 -83191.529753 
-59141.23324 -75486.874098 -31780.095963 -29500.339162 -44830.085105 -47103.689999 -33188.756723 -15897.336545 -40062.892534 
-88734.788255 -63037.380808 -37307.802721 -50844.821125 -76297.802167 -15970.372672 -24132.968377 -47429.625992 -14201.015355 
-17537.310373 -32203.52209 -21738.667043 -18625.571009 -17711.515624 -38689.228646 -92407.356382 -43154.885889 -71878.833917 
-19310.481059 -33893.68042 -12845.562088 -55651.378792 -28457.553144 -47309.264837 -24646.176361 -38971.472244 -27228.657215 
-41939.68371 -59678.233552 -18592.733379 -71764.426103 -11949.884668 -90205.259573 -21073.161855 -28456.078625 -12610.996457 
-45668.983699 -97354.955559 -65717.089271 -82581.1081 -64650.369688 -60891.318937 -28697.837053 -33842.962894 -43154.696388 
-4666.2474242 -11926.487159 -7241.6773606 -8750.5019043 -6665.3642868 -5251.4594496 -6090.8784988 -13177.848523 -7781.3503759 
2675.3138969 -5831.9514604 -7853.4973555 -30175.413572 -12551.201412 -30007.928071 -27000.903611 -14113.064324 -16000.567011 
-39529.586473 -23868.000825 -8937.0521832 -4198.0910101 1657.2744727 -24341.528728 -25504.345987 -29581.829953 -20452.794888 
-31700.716564 473.30024494 -4326.7300588 -12499.31787 -7399.9649005 -10934.950042 -13906.821962 -16012.218382 -22171.058395 
-17250.085393 -26829.016825 -18054.319363 -8543.2042356 -8711.4971515 -14926.564621 -6256.2964618 -6094.8839702 -15051.737995 
-8894.778809 -7694.8600185 -15512.404478 -15906.459485 -96833.123111 -91134.10706 -82180.055942 -102090.4518 -101145.8318 
-96586.486007 -90563.919335 -93775.539602 -97689.08741 -99975.725466 -96145.881108 -92441.350331 -94187.290552 -86607.670641 
-89137.065047 -86327.341744 -73446.859296 -58082.861142 -66582.865942 -71557.072879 -61179.262967 -61589.352964 -51865.703282 
-57956.603322 -61186.964183 -51619.324437 -52575.959671 -45692.418351 -38755.993089 -36104.422743 -46323.390138 -35444.679242 
-42808.056972 -42508.608826 -35663.335028 -27734.718634 -48898.064967 -47381.409063 -37639.319421 -48583.591087 -47573.274641 
-41501.575011 -50897.363453 -51432.710016 -43248.270761 -45180.242717 -47359.741363 -42825.958016 -37336.22615 -16599.600838 
-4923.9745366 -10532.333033 -23618.330788 -14345.060336 -10704.260005 -19652.965553 -13433.858797 -9779.1848955 -25612.254429 
-26555.541034 -13894.876067 -12626.183645 -18977.205075 -21584.390237 -20536.999175 -27060.479803 -30639.773924 -56944.317864 
-50779.557797 -63761.510243 -53664.215967 -37400.058295 -50978.10949 -28897.92315 -21020.636166 -29197.280461 -16441.080084 
-62334.534553 -47136.756711 -48429.726905 -66802.975231 -60690.969743 -56256.614375 -63296.99504 -39809.70563 -44238.443576 
-48896.417587 -56327.293403 -44008.714933 -53918.556261 -64473.953577 -42334.538322 -45290.631313 -52123.215676 -58413.494697 
-60742.841439 -82732.03146 -75957.99687 -78099.990871 -86754.512198 -72625.447022 -66262.358031 -72357.474103 -82026.706219 
-62669.033068 -66835.411196 -56800.352308 -59342.411503 -46179.255805 -55464.214682 -55636.499383 -42200.922957 -38597.352444 
-29138.371728 -38978.680976 -31055.35738 -30385.242663 -41599.575053 -34370.960377 -35891.701041 -33025.280843 -16172.050498 
-28473.185837 -41273.396957 -39307.823683 -29980.315859 -33565.425635 -22365.055796 -23418.871812 -33298.816857 -28633.592902 
-22017.646429 -19732.86222 -19068.235072 -31094.093736 -40837.844253 -26652.043685 -22496.433677 -25788.376652 -39198.616561 
-22332.253599 -27550.456087 -32580.588426 -18860.523753 -30083.815047 -23248.275199 -89624.040171 -78076.091838 -87826.46716 
-83280.415878 -34514.988527 -23337.862446 -37200.531418 -20652.159779 -23186.412367 -34003.569514 -43417.207246 -40128.187619 
-29176.342305 -29720.892642 -24708.214366 -27938.401857 -33189.205947 -73114.312077 -81463.238672 -63836.716599 -50626.418212 
-82671.489393 -73374.637172 -23392.57401 -21124.96498 -27246.472575 -17115.891231 -95112.616549 -94627.951907 -90179.208132 
-90177.943351 -94717.539462 -16166.729483 -21180.655576 -12913.93303 -18378.490468 -29271.905075 -16494.396374 -14181.952949 
-19748.314342 -22400.182096 -30344.702079 -26000.533997 -19057.346282 -14587.288949 -14205.420621 -18431.010051 -13894.041574 
-13484.455514 -22187.094493 -15278.364809 -8877.1159268 -10505.473836 -8710.8438876 -2818.3415315 -7463.2062467 -7236.5304553 
-11633.107372 -27511.308816 -34603.373765 -42078.428458 -41775.137626 -48978.521469 -37247.398352 -32432.802222 -34778.505022 
-35917.771513 -55572.976368 -55198.029339 -48688.449041 -25890.867979 -29328.501405 -28585.123531 -26035.117668 -19386.904607 
-20403.26605 -95056.977581 -88619.614927 -87269.818784 -82672.725387 -35786.4639 -35838.2001 -22676.023852 -38456.245741 
-29828.489413 -34160.588133 -35252.581991 -29344.495972 -19461.832463 -15499.324942 -19522.617202 -48146.501562 -21059.464268 
-41512.421051 -27428.760065 -44871.663758 -44142.868255 -42705.855113 -25173.066615 -10341.93558 -29174.23275 -24036.76492 
-18294.302174 -7063.3902768 -17047.713914 -8667.8221223 -6270.8860773 -6263.7585465 -12619.285323 -15091.832106 -47763.167155 
-48653.018856 -50230.427976 -36823.42965 -37160.342246 -36516.938168 -11991.025 -6185.5746351 -6261.3733557 -8733.1323217 
-14810.942984 -5823.6482328 -13085.616411 -48326.835309 -50195.374627 -41931.21945 -41347.451421 -14794.919332 -15861.684607 
-48108.447366 -51677.347247 -43042.506009 -48470.462802 -51668.914511 -45640.027318 -82596.241722 -73781.865224 -17462.74868 
-6326.5972706 -6300.499291 -6266.0727836 -18478.684799 -96312.659211 -98061.756283 -97602.124103 -32395.143753 -41533.674433 
-31738.19081 -59936.748785 -58256.470666 -65113.195842 -7406.1903418 -8558.6001022 -7309.0463291 -12562.267152 -24692.971994 
-21350.514012 -40135.320166 -35341.909286 -36960.858662 -34333.432975 -36028.82731 -20465.765164 -22341.59263 -22649.117976 
-71677.24736 -88320.222821 -75532.11596 -19108.758575 -34074.469037 -16173.426638 -38568.944406 -28553.386974 -22658.503004 
-17606.768181 -45298.002256 -45064.442425 -46658.086285 -51441.103477 -51446.6336 -58488.798174 -58855.378542 -64306.112615 
-53251.346777 -56403.438094 -26224.704921 -51420.387474 -65886.14135 -62828.133993 -51712.32907 -60020.940201 -18117.437221 
-15074.806051 -19462.505557 -22425.273105 -13460.280759 -13581.709582 -7133.166221 -45757.48998 -96540.152562 -93885.003633 
-96154.609905 -86632.321856 -92535.670182 -82028.780936 -40375.067333 -34847.624512 -20807.151623 -29267.599144 -8734.9145373 
-17736.540708 -97946.514318 -99548.929995 -43923.499181 -53048.932746 -32200.025724 -42500.040003 -50238.993439 -55701.866253 
-99456.434431 -33356.593484 -22017.05534 -28605.941998 -26069.960349 -11193.147231 -46878.270252 -38735.795532 -62539.025031 
-70882.307386 -90616.611294 -76551.003411 -87237.210331 -22990.863747 -18174.942179 -50955.408396 -10474.518023 -10146.469506 
-14977.090077 -13581.502509 -22117.289262 -66242.741543 -66725.788305 -21000.26388 -5699.5748722 -75697.969052 -70303.641153 
-69543.436062 -60865.174281 -71282.173356 -93377.323579 -83966.407674 -16448.500637 -6111.5477234 -48047.924988 -49873.963852 
-63135.324179 -29614.469295 -40122.757584 -33402.855232 -41299.729101 -85756.93918 -76662.094044 -97172.001133 -102388.23347 
-102313.40662 -95830.976398 -49991.316592 -24684.605051 -33530.020396 -72519.11241 -34106.406285 -29002.956992 -23399.503329 
-6132.4056406 -5872.7492434 -27860.774489 -23281.926035 -34486.503576 -39229.048019 -38091.614124 -53375.863096 -36039.071021 
-24204.039517 -86420.543115 -78398.350662 -14369.434983 -3829.8650981 -411.01932219 -54860.891832 -45789.9076 -53907.582073 
-60324.031091 -15219.106112 -87249.36899 -87121.340545 -17320.961619 -42174.85236 -27819.691303 -42369.654254 -47400.713621 
-48343.097078 -72856.765326 -37208.659636 -9167.0252763 -15369.814031 -20658.865219 -42702.646755 -29778.016391 -44258.520252 
-8875.5810412 -15075.241577 -25209.746067 -10595.418722 -10655.835154 -8202.0963455 -60391.510838 -62895.822256 -62930.979087 
-45720.494485 -24559.292412 -13373.051632 -48281.314792 -19559.967173 -33567.843317 -29985.079119 -12997.071034 -10201.618565 
-12918.532672 -21595.207764 -25467.360171 -9152.2893344 -81382.009685 -77406.852563 -77330.621073 -8921.8879448 -18946.903712 
-9844.9227328 -12277.613969 -9612.032164 -18048.698882 -53280.170968 -43583.91496 -40410.914578 -25427.214285 -15464.400213 
-61739.120436 -79147.063608 -16548.793163 -93792.466871 -101904.32724 -102249.81906 -52710.85534 -71245.972234 -61698.413388 
-58943.127816 -55927.826673 -47725.500029 -82933.916271 -9039.5250155 -19859.358108 -47437.122403 -62993.826788 -53252.746181 
-44736.304077 -44742.29767 -47277.8633 -53387.629259 -66365.109788 -76132.370492 -72137.738463 -28591.39282 -42661.875978 
-42526.903277 -79692.713052 -41117.100838 -40559.440143 -40788.082198 -30282.086167 -30376.108156 -9331.0859208 -9302.5611692 
-12706.383244 -15850.072881 -6436.1132736 -58175.847909 -65965.927069 -65780.915869 -55776.006628 -38463.162086 -6400.6300137 
-6161.430112 -12546.602285 -26862.529047 -50182.016276 -43099.850951 -39545.152636 -49496.315442 -19697.041033 -68466.821913 
-82708.952089 -46163.91103 -56554.145037 -8406.3264249 -17146.027564 -13926.876177 -28655.384117 -89623.638664 -101945.47394 
-44006.819518 -42588.072937 3600.7012052 -34381.392398 -64525.80193 -31495.685399 -30438.527932 -43876.228504 -56436.20093 
-78139.67444 -59873.839345 -88039.627551 -9615.2783459 -62573.773613 -11694.151208 -13425.789268 -10388.384957 -6651.3798195 
-6711.8724751 -2586.3740374 -41859.854241 -6540.4642753 -12952.119235 -77195.069488 6537.5139153 
Equivalent%20Plastic%20Strain 1 1420 double
0.0045910003575 0.0045110210967 -2.1310563689e-05 -8.652718819e-06 0.0018555926797 0.001856588499 0 0 0.034957712502 
0.039861783396 0.088939496038 0.087737183206 -0.0071758675647 -0.008391105644 0.055928741034 0.055836679542 0.00022635755583 -8.6430136484e-05 
0.021565541603 0.020991680192 -0.012827417092 0 0.039889511893 0.031966966422 0.039544415832 0.0637340565 0.08764731581 
0.10679869476 0.093933237582 0.080513114537 0.041141913642 -0.0003898611731 -2.1952422596e-06 0.0002344309171 0.0010572540581 0.0018104276824 
0.0019212325251 0.028914027096 0.034620351919 0.034278256742 0.051707787307 0.076582949218 0.096317724235 0.10510360752 0.087922650214 
0.064686421792 0.019537625517 0 2.8736094246e-05 0.00091850907427 0.0011695441113 0.0023431735802 0.00022316712023 0.038324415354 
0.032144312485 0.039919513617 0.062247660205 0.086739998034 0.10817757058 0.094212207866 0.080410688927 0.043293034111 -0.0009715258648 
-2.0065888844e-08 0.0003527636155 0.0009758333298 0.0017108643884 0.00092164150716 0.027799141153 0.0346416107 0.033985821734 0.051309432889 
0.075727420966 0.096533872553 0.10646459238 0.090667014609 0.065120682161 0.019445656866 0 3.6773225305e-07 0.00092884288246 
0.0010525781823 0.0021768830321 9.0612447853e-05 -0.00083696578655 0.0087959380048 0.0017583208122 0.0055519613247 0.0080312770776 0 
0.0086959569884 0.0017735713038 0.0055255296617 0.0079146512344 0 0 0 0 0 
0 0 0 0 0 0 0 0 0 
0 0 0 0 0 0 0.043294201496 -0.00087286614465 0.021553832077 
0 -1.3084543573e-05 0.024898286127 0 0.11066659218 0.062145136755 0.053543520117 0 0.035667512847 
0.0001411301629 0.073974886049 0.042572838168 -0.00080725650658 0.068546926332 0.065285024128 0.017557482279 0.016260134289 0.0023490697828 
0.0032490837505 -0.0044434710443 0.023725896085 -0.00090006186751 0.0088150545132 0.003080504433 0.062199420793 0.0036016165236 -0.0016830631189 
0.024948704357 -0.00063130885316 0.0089407469389 0.0046690664658 0.056482959055 -0.0012783622654 0.0079346434238 0.025901648922 0.010005624264 
-0.0086487368619 0.028004781535 0.012565354096 0.02084038842 0.0014432963676 -6.803746084e-05 0.0089900922724 0.026417441153 0.0085779099667 
-0.0078251397956 0.026604019722 0.012956574511 0.022279111417 0.00071519149466 -9.1823251569e-05 0.053255931428 0.067997671238 0.036611041295 
0.032553229529 0.033190251561 0.066454682569 0.034642063207 0.020684265374 0.018089561182 0.055437558516 0.070499294199 0.037181200181 
0.029425703848 0.033588557294 0.065449964149 0.03204405295 0.025661606495 0.0165613821 -8.0487971682e-05 0.041348293442 0.035862167062 
0.050660176862 0.07588035849 0.09974289333 0.10277562034 0.086887808645 0.062882866872 0.0062028727206 -9.8709725538e-06 0.0011331836165 
0.0019610148606 0.0028203765115 0 0.029141854535 0.016551923651 0.016327030998 0.036181182721 0.034292041779 -1.1536958425e-05 
-2.8414084919e-05 0.00043630426286 9.6367598417e-05 0.033942079259 0.042590714983 0.040126123967 0.042323382113 0.035779242708 0.033600858679 
0.032074010218 0.034073358842 0.033354800699 0.05695361501 0.045251566224 0.03881044299 0.036197751449 0.045623919832 0.082811621426 
0.06983221539 0.062284688928 0.056146467555 0.068343595854 0.10269245266 0.092384127888 0.087751222265 0.082451130766 0.09170352093 
0.10197364322 0.10514186081 0.10839799108 0.1032756191 0.10538007175 0.082440319445 0.088622152234 0.094260217327 0.10271930009 
0.088969672453 0.053047459481 0.073535929884 0.081037774571 0.082013572216 0.074058283865 0.0027205542904 0.026663907582 0.043573974457 
0.054977422693 0.028834949109 0 0 -0.00036165885972 0.0024923148215 0 3.6770880003e-05 -3.6587370993e-06 
0 -3.5115305476e-08 0 0.0012137558347 0.00095416638832 0.00041514967197 3.0259861726e-05 0.0011660125452 0.0019601704531 
0.0011006223977 0.00081598052797 0.0011335140453 0.0011587733112 0.0033991019216 0.0021873310983 0.001817934892 0.0019531173564 0.0020902973107 
0.0018069336198 0.0026658442237 -0.00033130656021 0.0086597912466 0.0038879736411 0 0 7.7069834753e-05 0.00010094669481 
0.0054993207622 0.0055353909907 0.010864673695 0.010756095635 0.0077996919525 0.0040667469998 0.0079940157667 0.001489518139 0.0039621154494 
0.0076704913315 -0.00085282085543 0 0 0 0 0.0004799389907 0.00047164255063 0 
0 0 0 0 0 0 0 0 0 
0 0 0 0 0 0 0 0 0 
0 0 0 -1.3458227808e-05 0.0041008432213 0 0 0 0 
0.024820343801 0.017289167131 -0.0025249257717 0.00068191153876 0.0001526810906 0.040782071923 0.037435927182 0.041727530541 0.054344643889 
0.055808160793 -0.0038830886421 0.086826040922 0.093707469676 0.091835954009 0.074960817311 0.084392860175 -0.0013855682668 -0.00055482335791 
0.015131375523 0.01815827502 0.010969213541 -0.0017932977377 -0.0049730103565 -0.0044688556341 0.015905720206 0.019527385504 0.042992495697 
0.0076918410652 0.0046518063893 -0.0047827190364 0.069102471971 0.072845843194 0.034575446332 0.034458016868 0.0001309951437 0.00028686474395 
-0.001749704241 -0.0015533964824 0.0095924552861 0.0051085051825 0.0017750593426 -0.002838792708 0.0085869723046 0.0040152950625 0.02316376336 
0.0058668724715 0.0099612720752 0.010231326378 -0.0002061729996 -0.0078888864802 0.018702672496 0.007265721685 0.028920591192 -0.0055192865242 
-0.00036134666215 -0.00055480998716 -0.0089116073838 -0.0075100663214 0.025303827484 0.025093392167 0.014351611381 0.019044487786 0.0058554656578 
0.017808622571 0.0035588420151 0.0032854780841 0.027997314193 0.016183942871 0.01541754025 0.025768928164 0.02946709986 0.0030086265908 
-0.0070702848146 0.016241794544 0.009077024203 0.0020718818294 -0.0067875519714 -0.0063689342161 0.022623020409 0.025403305566 0.055816328735 
0.025227540585 0.073422428168 0.014474474626 0.014476271363 0.041274333077 0.043447927513 0.021385549754 0.021280056851 0.018187746394 
0.01703387794 0.073612254628 0.065936101641 0.054274739789 0.064399815311 0.045452202395 0.05895478826 0.057637114138 0.063454427777 
0.071127443512 0.029354744615 0.017529474966 0.018774288177 0.035831266147 0.046668773552 0.032780509199 0.026027355023 0.079520101751 
0.10039346045 0.053173541904 0.043302067681 0.082034923888 0 0.058294713779 0 0.084985983021 0 
0.032415957437 0.050511691323 0.079431900995 0.088182777446 0.034930788414 0.059119840144 0.021618775508 0.051101070235 0.044181699831 
-0.00022872664904 0.016606991961 -0.00013136461401 0.066876429066 0.063602047588 0.070741379837 0.096635617035 0.085859680119 0.03908612279 
0.020238234119 0.034965081123 0 0 0.087190438163 0.046955075794 0.019579911247 -0.00035492300142 0 
0.07945923246 0.071887179707 0.081208046629 0.02108951255 -0.00096846220811 -0.00033900634673 0.07590228276 0.057122119121 0.067173336779 
0.0034766022729 0.079971782911 0.082449436838 -4.3157137165e-05 0.022154567843 -0.00083369170218 -0.00012068437832 0 0.042613526519 
-0.00064647893098 0.032060194177 0 0.00048996733332 0.068915856386 0.084751039764 0.0026713371968 0.023646436675 0.018671935097 
-2.8414084919e-05 -6.0964722262e-05 0.00030750937179 0.0017297040636 -4.8825820404e-05 0 0 0 0 
0 0 0.027190109096 0.054090215498 -0.0020179683618 0.011833870791 0.021008764539 0.015464990681 0.0017502857267 
0.085044008902 0.062705574602 0.050461478562 0.073885367399 0.067843119265 0.0098554320748 0.02653358137 0.020576816182 0.074609466429 
0.054333688755 0.060072473066 0.077451510037 0.066978153402 0.0032895268945 0.0042233555611 0.0058500514257 0.01439942147 0.022295061049 
0.029245475752 -0.00027008483375 0.0020780539171 -0.00050835560788 -8.5667002564e-05 0 0.041959596164 0.04151283619 0.026718047038 
0.050355972023 0.055161346252 0.053338341178 0.051103491046 0.068470505056 0.061674936522 0.070359083538 0.073947465993 0.073267917956 
0.082353658036 0.078903530633 0.087065899289 0.095190833738 0.08336319005 0.088229257535 0.082726111336 0.080224166508 0.090142785703 
0.082450088621 0.080466086956 0.075608973803 0.074333786354 0.062269903334 0.045547078697 0.055248772474 0.015796252075 -0.002626298056 
0.041852783453 0.053270253008 0 0 -0.00013361760927 0.001173174533 -5.488105649e-06 -3.4847968873e-05 0 
-7.7122475751e-05 0.00036589117074 -6.2577938185e-05 0.0011132289441 0.0015116348419 -8.4430787296e-05 0.00054399712213 0.00058658316571 -1.0051552822e-05 
-0.00041514690178 0 0 0 0 0 0 0 0 
0 0 0.061148245731 0.021420633921 0.009857193283 0.021722081924 0.027839448239 0.037403898807 0.03087814583 
0.018315080569 0.035039760174 0.018054881902 0.053430414092 0.0086299222362 0.010129798027 0.020886433516 0.036840943383 0.026770480701 
0.041202948653 0.066603968051 0.049992420668 0.035175004644 0.0038605315612 0.051638199791 0.067838692998 0.029864776729 0.038209744745 
0.039155483602 0.02954370423 0.020082172511 0.063732508958 0.074007194447 0.070758625104 0.078127118806 0.070338115134 0.086997056834 
0.087423838799 0.080167767709 0.086018921723 0.082560332442 0.094057928921 0.085176187789 0.095676456906 0.087889728286 0.082456341625 
0.097850605551 0.081872803938 0.088714032194 0.091413480783 0.088022628919 0.075578268147 0.060029004416 0.070827508912 0.062676550275 
0.075715148494 0.050901578442 0.045792515077 0.024472250794 0.033135449411 0.036566131789 0.042562281777 0.041208851071 0.051582775298 
0.036392081834 0.055129435978 0.058773899558 0.027171660908 0.02791573978 0.047527338044 0.058524476493 0.068733227098 0.067184246304 
0.08348595828 0.071118685566 0.084471342251 0.06524516987 0.080367428767 0.085722897843 0 0 -0.00097158557592 
0 0 0 0 0 0 0.079848217943 0.061437224613 0.039088886095 
0.035278862985 0.07053889259 0.046749290689 0 0 0 0 0 0 
0.075703133685 0.083583542743 0.083599216024 0.082884231511 0 0 0 0 0 
0 0.03097608441 0.042481633661 0.033144267556 0.028729389056 0.022080490448 0.06379278426 0.064356934382 0.082772630285 
0.084989830408 0.08043821585 0.10103748164 0.038057640682 0.019703985305 0.081044770223 0.099478921439 0.052378896098 0.042507131204 
0.076834812168 0 0.057988471271 0 0.085297675947 0 0.031734047083 0.049387308063 0.081647599805 
0.081616743401 0.034680216206 0.058248070214 0.023827348446 0.050415452744 0.041058656068 -8.3166066524e-05 0.016722593703 -0.00018708881202 
0.067613064242 0.066984947383 0.074921116067 0.097379100695 0.084298410158 0.042439797661 0.018166085464 0.035387236235 0 
0 0.091388768677 0.047312774413 0.018292885041 0 -0.00022344328412 0.079233285215 0.06992998209 0.080472598635 
0.019568985484 -0.00020647809648 -0.0012024690964 0.075001161892 0.050556117274 0.066875556843 0.0037454204362 0.079419520801 0.080353785771 
-0.00010460580046 0.018879380745 -0.0019090340358 -0.00056132325853 0 0.041901888701 -0.0011689305097 0.033712029612 0 
0.00064402771392 0.069195477171 0.08481551806 0.024224880011 0.0027796784545 0.018228391709 -2.5809276439e-05 -1.1536958425e-05 -2.7608547495e-05 
-3.5451780711e-05 0.0017021860665 0 0 0 0 0 0 0.053029797532 
0.024674312635 0.011606828083 -0.0020773299251 0.016565596171 0.022866928167 -0.00046629094856 0.066975622136 0.082517114165 0.074577685404 
0.048902244538 0.06995524389 0.030364108593 0.01032612411 0.022279910412 0.054551491833 0.067032297975 0.079570299107 0.061028121373 
0.068139461406 0.0042570910013 0.0027852782515 0.0055876567044 0.021977903017 0.015009749935 0.024766245136 0.0020758172682 -0.00023674361075 
-0.00068470976922 -9.365478386e-05 0 0 0 0 0 0 0 
0 0 0 0 0.040753923181 0.041047416864 0.027394595835 0.054910184591 0.050524316237 
0.050862214777 0.053919897597 0.069040949457 0.070358286456 0.061591763578 0.074121528772 0.08326406284 0.074190286686 0.079621855745 
0.095664505663 0.085869924945 0.081602881341 0.081367505412 0.088720723521 0.09022939892 0.079532513733 0.082053281007 0.07380785598 
0.082151603752 0.076665505844 0.046912900717 0.063499225333 0.056799791968 -0.001127922753 0.019534045005 0.037435311991 0.049549481313 
0 0 -0.0003284951862 0.0006527910325 -4.1063589967e-05 -7.0230610952e-08 0 0.00026628306295 -6.9323641853e-06 
-0.00011671020588 0.0015473628271 0.0010595278084 -6.9017139596e-05 0.00040829546612 0.00058114384709 -7.2650205551e-05 -0.00030976577105 0.063481186183 
0.0072579055729 0.020770112651 0.024572439581 0.039384592815 0.026607957576 0.0293575721 0.018346901336 0.018271279979 0.036202503351 
0.054909061036 0.0094487962159 0.0094821752605 0.019876178132 0.027106888216 0.038254137667 0.039972936779 0.064271793009 0.034697830683 
0.050324285657 0.0048429727013 0.069808305684 0.050098320612 0.030311062327 0.043451086093 0.037263890675 0.030642059296 0.019126696425 
0.07190208663 0.075096849693 0.061945746268 0.070774139484 0.077567019909 0.090178791143 0.08781909179 0.084998676785 0.080028388122 
0.080357039645 0.097133813477 0.086224624946 0.097459307703 0.088193714028 0.081585503287 0.082715121078 0.096252970267 0.091197717616 
0.08987567688 0.088342558558 0.069723534672 0.059762389326 0.076060837254 0.076912922177 0.063119471833 0.044711965825 0.050742589606 
0.033269610354 0.023793978916 0.041527498049 0.043633811571 0.035693529417 0.05302900166 0.05507938441 0.037063005509 0.055903524953 
0.02737796637 0.028883129803 0.047510399044 0.059285256209 0.067853480196 0.066925967476 0.069560629284 0.078612814518 0.063549243239 
0.086050593244 0.084621024524 0.074601475668 0 0 0 -0.00032909833087 0 0 
0 0 0 0.058622297473 0.078634675487 0.039167523398 0.036720032096 0.047702726698 0.070351209052 
0 0 0 0 0 0 0.0762672165 0.084648049469 0.081794864897 
0.0839498245 0 0 0 0 0 0 0.037314531599 0.032263662018 
0.032175065654 0.027244733666 0.024815044003 0.063122774614 0.063070254572 0.082847690835 0.084997824707 0.080227807965 0.098576459079 
0.03771629429 0.019818737883 0 -9.5327123715e-06 0 -9.5327123715e-06 0.042000285747 0.043157798969 0.040424701052 
0.052032135312 0.050904200632 0.039318419933 0.088215460254 0.036717838964 0.089264281343 0.083831547849 0 0 
0 0 0 0 0 0.011871360828 0.012118533792 0.021124227887 0.0051166866128 
0.0056766396918 0 0 0 -3.4991392302e-05 0 0 0 0 
0.071951041139 0.069950172254 0.066811726944 0.067178448749 0.053021733866 0.06735505822 -2.8228461556e-05 0 0.068540496713 
0.085142704976 0.079374804215 0.078696000003 0.064513081427 0.040279386011 0.035406471679 0.04259567107 0.040136515509 0.033260041636 
0.034082242385 0.050937050163 0.067441664293 0.030621554128 0.02762332254 0.0013984939081 -5.5210929241e-05 0.0020962705858 -0.00013086267357 
0.016213040008 0.081064618962 0.0047718594352 0.021802324231 0.00057578733639 0.00052150030676 0.00075042973842 0.033347763577 0.036765764536 
0.028019137326 0.053315441905 0.047517599584 0.046562880803 0.034667680744 0.00059475887546 0.07540845548 0.088173032412 0.063973481762 
0.043300527809 0.017447292091 0.042889403755 0 0 0 0 0 -1.4622252373e-05 
-3.3017965664e-05 0.00038997226221 0 0 -0.00018082942986 0 0 0 0 
0 0 0 0.00025171941666 0.00030722940547 -3.6105635286e-05 -7.2868955313e-06 0.013693312206 0.013336248401 
-2.7440528245e-06 0.00078952249842 -7.9388564974e-06 0.00031325643098 0.00096325516206 0.00051829580444 0.037810196988 0.020016328952 -0.00024518875374 
0 0 0 0.063753063073 0.051283184132 0.053960527402 0.054172241677 0.059744958478 0.079525901088 
0.057593760743 0.089471889131 0.091005020838 0.084481410617 0 0 0 -0.00027574565717 0.038430246387 
0.032132628855 -3.1376118928e-05 0.038172836147 0.050546736368 0.067852537383 0.071878037444 0.045730508993 0.057424488482 0.056790164978 
0.001128253986 0.030023122911 0.034941785335 0 -7.0700653334e-05 0.061325483298 0.070117040628 0.048669004778 0.036326392472 
0 0.00097612618058 0.0008700042026 0.00073215473777 0.0010035046078 0.0013598152311 0.028885264386 0.028905843509 0.0064295931535 
0.045622586766 0.073748670019 0.039167470265 0.0014845326994 0.070513619984 0.078430768957 0.079333640721 0.071153753656 0.021140900702 
0.0036877907408 0.033604687094 0.049480836752 0.017069880454 0.015991566756 0.0041994306912 0.051442625104 0.074386774576 0.078394285363 
0.07472918371 0.079958711123 0.079132236851 0.051337074753 0.085658313119 0.080476913188 0.065992192489 0.086638311568 0 
0 0.069753468883 0.065713672449 0.081528106895 0.098649674006 0.058657315059 0.081562172548 0.096697530965 0.10006128481 
0.066087086935 0 0 0 0 -4.3739240377e-05 0.00081712085936 -0.00013594691198 0.081610511658 
0.086604010477 0.0926111607 0.085072123698 0.09184723903 0.046647077329 0.026332340274 0.067216848322 4.0396630635e-05 0.00023749129214 
0.0025027172289 0.0030348744285 0.0012742171252 0.081239298725 0.023931836064 0.046351135983 0.014720277588 0.090211826596 0.088564372738 
0.088958286038 0.085724847492 0.086669855118 0.077563112712 0.08012590614 0.018032750011 0.0033174146796 0.08825653529 0.099460860425 
0.082218057663 0.027901050536 0.032497388344 0.032290773575 0.076824792894 0.083334765957 0.082175542163 0.06921915813 0.059558435211 
0.059330225728 0.073882767759 0.094160946966 -0.00024909446546 0 0.044457046636 0 0 0 
0 0 0 0 0 0.079234644756 0.051023124027 0.054259055505 0.052257828237 
0.067382110851 0.075829267611 0.06054690654 0.044230617807 0.02246338618 0.027141220278 0.088666052368 0.081160151743 0.045018543284 
0.021309233934 0.042789888909 0.086364661349 0.084010926402 0.030356551632 0 0.00081277750491 0.086828077598 0.00061077681922 
0.00090502164921 0.082122858169 0 0 0 0 -9.4500063633e-05 0.03232860022 0.040158044494 
0.052453995658 0.054486713861 0.025674611071 0.01789094967 0.022045389481 0.020531483418 0.017594562329 0.0066012150573 0.0065829607419 
0.03561033102 0.083510076486 0.023970814239 0.00091218229765 0.020972183182 -4.8542305222e-05 0 0.025274452211 0.036676817431 
0.025375400207 0.030962664406 0.019686009091 0 0.022900047088 0.014553392107 0.014950327681 0 0.022294070759 
0.015502621885 0.01474026503 0.015771116307 0.019425259466 0.05403942648 0.037547871854 0.043472972685 0.00078004336319 0.00063456948922 
0.086756739186 0.087321130487 0.02791519234 0.068366010781 0.053018846742 0.053062616229 0.056128496951 0.079713193267 0.064040350465 
0.043799706958 0.053167228252 0.035371262858 0.083275869139 0.035678330603 0.046886928732 0.041365481207 0.033919555988 0.028484778617 
0.048411880325 0.047925752646 0.075662540365 0.063543852435 0.062754400009 0.071186756249 0.076120369579 0.063403353812 0 
-9.8884239122e-05 0.084126378175 0.028277300529 -0.00012185857964 -8.652718819e-06 -0.00029453408459 -0.00030181772379 0.0023640029681 0.0023460436319 
0.014080067071 0.0045912727041 0 0.082242379338 0.087387850457 0.086928268926 0.075823839638 0 -0.00063813772186 
-0.00078725719593 0.021312340886 0.054214819192 0.062853295991 0.070750134657 0.056963514058 0.051725484037 0.026749211332 0.052664283422 
0.084637602023 0.078817728056 0.040794621844 0.020753984942 0.030264800322 0.024557660788 0.027451298371 0.07630163145 0.05521637804 
0 0 -0.0024266799104 0.065366861602 0.088361480967 0.047974900616 0.059425289807 0 0.097175320078 
0.083895875112 0.082910339071 0.082153907236 0.023413138727 0.082292640228 0.027824827251 0.021150730247 0.022038453068 0.012192034974 
0.030950570199 0.0068354194927 0 0.0019253877422 0.01677177563 0.023867955728 -0.0029434049074 
von%20Mises%20Stress 1 1420 double
8762.5246602 8736.2528659 4970.9511585 4958.4600754 9719.6131571 9718.898658 1071.4694201 1123.5317288 15622.458269 
18175.79519 14229.472201 14993.135933 5505.1497656 4890.2363745 17982.166205 19241.289937 16177.434212 15924.916796 
8281.5385089 8155.973551 1.885888291e-11 1.04326786e-10 21620.034519 19612.139737 21571.552541 27704.020196 32397.102749 
37858.403973 33274.985468 31566.030316 23908.923009 11214.356706 9399.5994303 10615.987399 10583.548722 10861.261321 
11562.450701 18471.578874 19847.318241 19683.239876 24441.575917 30287.66058 33764.291705 36938.076931 32696.808719 
28424.988513 17135.422758 9132.4194332 10098.460257 10528.939289 10550.905138 11000.751061 10198.567435 21142.571252 
19622.653861 21669.357365 27257.395321 31260.517986 38235.035114 33448.358037 31011.699064 24126.163246 10875.49067 
9473.4203012 10615.54738 10566.572451 10848.644511 11326.974874 18142.927781 19855.823517 19593.038767 24273.552192 
29729.565697 33645.601905 37345.699527 34815.428175 28439.615779 17531.007428 9148.978893 10057.138454 10539.133765 
10509.31225 10940.089249 10060.907852 1586.2589222 13780.300297 12424.849356 12103.904795 12992.257801 10210.142709 
13750.501053 12407.338973 12086.124389 12974.071438 10211.177667 942.87056059 729.9665461 372.94053796 1445.2757763 
1931.346526 1172.4524203 486.30436518 776.83675043 2038.7755135 5554.3543432 862.01255141 343.37229675 1548.8448784 
2023.6307734 1166.9925738 560.98735587 898.91790463 2081.1119053 5520.7480668 19081.62379 7175.6750165 17718.905847 
3884.1238883 7287.0852469 17922.250084 3677.0713455 19808.292932 17744.138541 15799.743661 4191.9162309 16268.590013 
10832.466471 7557.3807744 16799.02548 10940.596625 5528.0306109 19531.4195 16424.111971 14097.732809 16937.578881 
15185.60616 13019.462209 12031.144655 15361.477064 18112.383317 13984.229331 14081.800556 15199.026612 13189.822721 
11974.732239 15309.563422 17650.380194 13552.226488 13638.952273 2864.428949 9559.0092266 8500.3237248 9193.6133552 
6706.6941832 10241.767796 8058.2673649 8773.8640348 7342.1255708 14402.752113 9500.2726846 8126.9814419 9292.3066333 
8444.1590461 9981.0436656 8524.1076054 8135.6971867 7372.5406632 13717.835413 25791.898219 27534.721038 17176.846788 
16015.588779 19816.88192 27903.989006 17652.832979 11420.897048 8078.7617498 26198.283982 28459.470707 16692.999755 
13902.29572 19936.098501 27622.011199 16765.974121 12945.752808 7484.7774567 11343.296286 21949.589733 20464.993579 
24560.876311 29966.143658 36626.41088 36387.739875 31339.038584 29179.775263 16058.949035 10599.02864 10873.828584 
10889.939519 11775.74794 9377.3953546 20485.536075 15076.554858 15016.228181 20429.978793 19958.959926 8390.262808 
8428.041369 10969.231137 10774.312923 20023.772938 22175.968333 21478.362383 22057.786289 20379.393584 19861.09558 
19478.076207 19956.442169 19779.714192 25994.806255 22969.819398 21276.412168 20467.413835 23001.118965 31171.688629 
28833.091087 27386.96215 25786.969874 28470.420212 36460.179916 32626.425742 31389.823306 30392.932308 32113.855416 
36586.560234 36727.971188 38227.470117 36788.501307 36610.713125 30702.860931 32269.213122 33238.712429 36684.896842 
32343.839847 26393.274047 30741.24901 31020.529286 30258.893878 30761.440997 13565.528604 20144.499261 23495.461202 
26600.970364 20657.110677 9020.4061225 9905.9216862 11187.264252 13133.884552 9628.99977 10452.016545 10080.892775 
9576.12207 10136.907759 9158.626685 10636.755347 10833.015651 10642.167274 10442.693033 10830.014482 10864.298471 
10564.585863 10473.613764 10619.622644 10581.305443 11767.565612 10965.843471 10838.89243 10870.136839 10983.93742 
11428.121575 11710.767097 10967.051893 14765.49321 13366.586625 8264.9385446 8261.078755 11476.244345 11473.262116 
11519.37502 11512.533381 14193.890479 14165.603559 13417.914795 12974.058945 13719.632297 12058.580727 12919.39895 
13385.390118 5542.2241319 1353.423945 554.56655079 789.35457502 1760.1908479 8373.7416851 8370.5406415 987.37758786 
764.52162401 988.07756445 973.98076053 1193.3899701 1247.8645824 395.23992442 733.60456659 893.10270306 640.60648082 
1186.2974197 510.49742139 391.5982443 368.46117884 521.71660711 1999.9364817 1867.0552594 1056.995276 1541.355304 
1940.3251132 1992.6681384 1928.0674241 5087.7696974 11728.703968 3329.8007089 3380.7455791 5309.8521417 5137.3316944 
17645.813132 14035.517628 9322.7709286 11071.802245 7493.5954602 13278.354814 14134.982887 17321.569392 10067.735021 
10923.717947 9522.1978073 12913.037129 18521.596057 16402.466834 17786.609054 17263.86458 7008.1838266 7001.3742824 
14354.074169 15128.095532 4983.4596741 13286.459425 6770.2333126 8055.6391968 15424.511586 15951.403354 14607.430124 
16746.475679 13293.969037 12474.51674 12386.013159 16827.193487 12366.32308 12276.682417 13454.492276 13438.923144 
13478.327149 13949.340724 16519.359715 17449.850717 15359.25329 12077.340399 11625.951023 16931.572808 15429.408999 
17127.424378 16074.291681 12066.868375 12037.86856 5280.3213289 10838.421007 8213.3487337 8461.2911622 10335.269365 
13367.240392 13044.607896 5716.1604929 7454.6349204 10165.593831 9946.491731 9654.9474245 10463.245941 8656.5981123 
8642.9295593 7960.8197549 7979.5408392 8305.9328299 8125.2361311 7939.5226046 8545.1280154 8216.7964331 9812.7206943 
10206.169486 8221.1065687 8240.6283782 9624.5950331 12215.432527 10759.116654 9686.1848434 14814.323212 23990.28436 
20764.660411 31051.607451 15238.484551 15236.494627 22464.431987 22681.594341 6398.3961738 6708.5133483 11021.592046 
8788.0313549 29797.683444 28754.030708 25435.434845 28479.722018 19654.523797 24915.980089 24392.721064 25861.181422 
28572.337029 14149.62741 11076.860616 12409.760299 16259.791653 20506.945064 14092.287861 14327.685382 24976.249843 
26962.764738 25607.657613 20748.423848 22651.125432 6639.0739532 18674.545231 5831.2029293 33121.355007 7646.9599622 
18949.361608 16247.189247 31800.454988 28678.588903 20388.616758 19374.345196 20096.28941 26119.412644 23333.78782 
4683.8032319 17055.432557 9500.1806154 28855.626398 27609.011508 22312.507775 24693.240793 35232.30921 17560.111155 
16133.401713 20600.121745 6122.7536346 4715.3698367 22115.694206 15538.257101 15415.284252 9678.05143 4617.0801179 
31940.230575 22159.4119 30823.096246 16638.351662 5228.6410321 5710.0620292 29645.131083 24982.286122 28892.466758 
11531.07515 20706.282008 21496.612391 7991.9071473 18433.372324 10245.966044 11767.39759 3632.4552731 22346.254857 
6393.4206921 18097.193924 3119.7955969 10443.919677 29251.333165 29557.105159 10482.793408 16927.873722 15183.498979 
5483.4811401 6807.1372905 8839.0243502 9475.1026075 8984.2788507 2243.7244949 3400.7961774 4939.1227426 1579.2385619 
1473.0075165 4618.1084012 11989.337397 17771.386656 8104.4902546 9278.6856983 14153.902563 17348.6337 12024.073759 
17499.670781 19616.301673 26204.790603 17806.561818 18734.026071 11261.017033 13670.554831 11009.750503 20144.252876 
18186.229013 17547.626646 20827.099797 23537.613367 7408.3071336 7711.2765454 11824.354403 12024.209181 10798.174981 
13014.603341 9287.3230185 10178.954305 5885.3157596 4948.7539772 7543.454284 21655.967072 21997.213988 17892.946947 
24036.921975 25439.250735 25062.147048 24338.321775 29014.300707 27172.138674 29053.629058 30370.038202 29454.818443 
31364.145542 31460.081374 34372.510719 37136.673515 32833.425478 31840.00948 30805.929212 28667.439387 33293.064745 
28783.246373 29101.63476 29581.346866 30600.7597 27677.0792 23957.266877 26907.633732 12327.033788 7657.6402741 
23893.599797 26492.966342 4843.8830008 5674.111793 5903.1047747 8777.4593499 8580.1493821 9404.0891957 6213.8019548 
10012.571753 10185.728676 8811.3266222 10596.643135 10670.286116 9864.0071984 10357.756996 10270.755766 10039.483111 
7860.9320075 2122.9117448 2023.6749967 4124.8074943 1136.1439759 1393.9223596 3853.3934992 1286.4926815 1865.6683018 
3888.2496091 3768.9032376 16355.617889 11959.542526 11531.363548 14514.643077 12394.877444 12043.964696 15758.637167 
11494.716212 16672.506354 12436.666936 15917.799146 10497.663597 12852.47383 15973.78837 15512.182278 15950.361687 
17838.428602 20397.635552 23233.618893 19615.301578 12948.983889 22015.746706 26853.673268 19858.188867 16051.789178 
17266.323031 18087.875538 15467.97982 24345.515268 22082.733528 26487.878306 27688.792746 28344.542329 27896.975161 
24970.777173 22587.068708 21382.353005 23925.297984 25761.402636 23623.69172 26348.36411 29652.930487 23086.990184 
25317.057182 22317.538668 27393.496983 27539.665063 33525.830691 30661.224274 27088.021109 29522.134249 27383.946457 
30399.502887 24393.759145 23309.575786 17108.422021 19316.838868 19887.01978 22597.31485 21380.907605 23960.363393 
21227.800477 25482.619299 21776.669355 18856.296778 17581.984835 18036.025564 17148.523512 24771.49607 24454.523489 
23346.410622 24865.028165 19698.485801 18794.580214 26612.655057 25034.048436 6977.3871422 5796.9248922 7393.7347901 
7410.9152103 5725.3700958 7136.1145497 7899.0947801 6335.993564 5169.7850032 21690.579855 19353.440454 16872.647426 
14785.226943 20646.967861 15260.121631 6814.6603446 5208.3164241 7639.1464417 5795.8598751 4676.9167589 4800.0211653 
30581.474639 32107.087362 32538.358083 32499.416332 6163.1717561 8544.2585654 8984.8206809 5333.9199936 6093.8364522 
8557.2094584 18371.74307 21671.233261 18044.88246 17434.004678 15682.421952 17334.367729 18957.675937 31762.415682 
33426.97201 28203.617814 27657.214002 21053.082506 15882.106085 25181.248408 27328.817173 25375.928341 20723.191253 
22543.025173 6825.4834405 18664.782398 5531.3099422 33244.265592 7773.0861879 18182.078432 16470.113356 32753.90981 
28969.720279 20214.771795 19046.661709 20003.640822 27045.313187 22244.267658 4963.8245948 16404.296688 9448.9065175 
29054.336125 28375.365022 21784.948706 24566.982551 34076.68982 17789.23672 16254.123148 20351.226377 6110.974937 
4711.7639205 22439.115051 15571.891594 15473.432446 4523.6355092 9468.4864881 31903.933816 21995.585928 30911.263667 
17217.55623 5394.7230259 5458.3103622 29774.299562 24232.554127 28708.191985 12790.839577 20544.482327 20737.10432 
8030.5352241 17631.305631 9657.0975918 11876.489395 3643.0489068 22110.030364 6441.4812794 18919.77221 3145.2862988 
10451.529848 29365.947943 29392.724368 17126.080075 10513.176751 15211.836979 6890.5568235 5588.2188245 8887.0164764 
9001.7557661 9492.3893231 2349.8616569 4883.0467625 3376.9476837 1403.0483108 1596.5641233 4511.653459 17889.868014 
12063.767419 8121.7360374 7878.8582971 17632.343799 13578.924548 11315.118554 20275.895249 16481.382403 18850.211662 
25668.330015 19799.122957 15782.70131 11317.554348 10937.060292 18122.965282 19421.936131 19742.421417 18109.751147 
22142.992043 7854.7353343 6969.0221661 11445.472908 10816.851769 12065.406198 12749.389126 10121.390731 9261.2039425 
5996.5824288 4806.6664275 7912.6547509 2053.6728789 2155.8227858 4060.8245203 1417.6681578 1150.0184309 3886.0507223 
1902.835057 1209.9330721 3786.4028615 3875.9563677 21756.03401 21437.174476 18007.008805 25426.574863 24077.677326 
24271.567228 25149.421846 29140.355888 28891.415722 27138.686467 30528.855294 31775.522837 30149.768282 31824.495272 
37357.284903 33392.44403 31821.213207 29931.856825 31996.074641 33156.739731 29073.633158 30028.197535 28358.97272 
29976.360932 32136.25605 24779.003698 28146.658169 27760.984217 8226.4066798 14840.177931 21408.932473 26398.580898 
5886.5551762 5003.5942693 5824.6046803 8692.7249 9325.8382519 8418.1564094 6155.843406 10157.720763 10029.459085 
8847.5872288 10685.162296 10577.066037 9901.5240111 10208.541319 10351.262326 10021.29674 7910.2447663 17078.016303 
10357.04345 11774.942199 15730.642323 12946.349481 12459.601916 14553.080627 11072.822003 11323.962218 16586.841045 
16822.566096 12547.907676 11158.928453 15902.995534 15570.666098 15819.292584 17109.14315 18974.853092 19472.569327 
23072.184045 13074.294963 27543.822496 21684.351914 20021.058637 18571.409477 15829.77379 18364.714371 14684.872442 
27473.307935 22969.080271 23146.066309 28586.179351 27086.54967 25912.240673 28154.97038 20775.70732 22227.175639 
23476.626252 26765.90145 23772.19711 26264.618898 30050.722913 22450.362482 22764.859422 24938.446382 26938.485303 
27928.511532 34208.511426 29225.249384 26917.561237 30817.610681 30855.323092 27616.871797 22967.23372 24301.282676 
19294.552683 16899.760486 21503.099561 22553.959432 19703.495931 24564.355953 25479.181678 20813.229162 20823.214575 
17952.520433 19861.924818 18053.612398 17762.851311 26085.337116 24161.600201 24066.182907 22703.536554 16562.276216 
21029.067216 25269.728801 24930.990954 5705.6477353 7153.411533 7479.5925756 7453.0423895 7881.4315966 7090.0893865 
5751.9711569 6372.6915707 5173.5917641 18401.540738 21284.428822 16834.856173 15432.747969 16498.621925 20535.096957 
5062.3036558 6613.1351399 7554.8513642 4638.9854798 5470.0377503 4726.242556 30779.350902 32444.057353 32294.47657 
32715.185179 8573.418698 6156.1993095 8944.2739939 5375.0193484 6080.5099919 8568.8382631 20255.040306 18530.105375 
17711.158499 17476.044423 16189.468725 17105.90082 18728.126221 31385.403078 33528.680746 28255.537847 26422.064452 
20905.550557 15860.008787 4802.5192654 6361.7248616 5021.5837986 5886.311971 22036.765597 22280.569636 21647.292913 
24666.160802 24100.385916 15596.846218 18895.925507 14664.438953 17776.577293 21455.741709 7417.7127152 5996.9080348 
6389.7614229 7428.959672 5665.5089114 5657.7649724 4608.9066257 12879.419249 12492.819864 15448.993679 11017.059328 
10775.38456 5106.7784254 3630.3631724 5257.0042645 7425.5925566 5242.4495124 1838.1047909 2598.4348503 2487.1365096 
16359.486838 21017.48513 24325.83684 26383.01427 25768.407205 29423.517239 7830.0379677 7602.6052425 23629.287525 
23808.79773 30020.202726 29588.92882 26471.543292 17987.123977 18791.524046 18082.986951 17121.253639 15445.694754 
15963.849531 24083.749511 28942.826921 18871.084739 18024.838801 8744.0032606 8595.2469897 10820.770931 8557.092742 
18596.279055 23541.711492 10977.887272 19315.813013 9818.2031684 9020.6184856 9799.6888426 22365.431924 17796.4706 
18818.424396 23820.92914 24409.229603 24115.517406 20621.153809 7507.1404932 16018.483105 20792.359372 19412.48795 
17103.849719 13899.872468 16782.931221 2079.5705728 1360.7087692 1380.6878429 3113.910359 3881.1672236 9009.8915611 
9348.031184 9806.4157178 4468.8181136 4219.4285074 6118.5901768 3600.7575664 1521.1722549 1503.07377 2083.7529917 
4102.3221659 1499.7140523 4392.179785 10162.493438 9752.71383 8046.5200035 8865.5187455 12895.712719 13481.681739 
9146.3089827 10544.90307 9869.5223053 10141.919529 10540.409354 10412.284565 20959.44742 15953.477281 10098.142975 
1303.4329599 1308.7586008 1382.001834 17433.613202 24372.130091 25128.424804 25168.005674 18753.01215 21478.20385 
18374.716187 27694.935154 26941.44919 29224.965678 1868.814208 1784.8543329 2002.4333019 5287.9133571 16331.836115 
15886.644716 9404.7486204 20006.813683 21930.393478 20168.493051 21408.651544 15908.032011 18145.259913 17813.813606 
11905.376247 18682.500533 20274.147085 5229.0077112 5646.7209475 16790.477035 20353.981652 17285.0147 15434.912419 
4720.5689857 9438.6630081 9445.4715745 10467.361541 10532.350062 10679.003496 17870.805726 18000.574895 13025.505824 
22384.973493 30815.821957 16689.956411 10707.481595 28397.477522 27752.001602 24481.656249 26918.712642 14499.563207 
11365.105548 14486.961676 15477.347909 11463.564163 11753.61924 9072.6975808 26551.054179 29530.575786 30979.82324 
29583.824686 31809.195528 31772.3198 24448.57763 20958.750305 21589.58894 18152.207038 21291.689064 1714.294119 
4537.8741052 28879.26566 28150.993331 22325.599277 25243.541922 19189.750585 22493.18176 24268.481189 26920.864031 
28163.937165 7927.7400033 5767.8989009 7109.0628227 6707.3390271 7215.5330261 10449.638736 9549.4398805 28957.380649 
31899.743419 36557.652655 34051.472968 36107.458121 17108.317467 16709.710776 28112.628644 9489.7689363 9333.3603765 
9889.1188318 10513.12026 11607.599306 28931.619894 16945.343751 18969.988637 13157.774674 33994.71296 32856.643529 
32832.957363 29073.419097 31611.410849 30273.343363 32199.273708 14424.313745 8387.1075873 25107.000815 26009.569697 
31657.093158 17448.824363 18664.592072 18415.41359 25698.731902 32568.373349 32221.867239 29270.301201 26304.307824 
26244.984223 30398.35195 25079.499311 7551.8591292 7013.2386485 22976.056705 8636.246595 7678.8028471 6181.5548484 
1507.6969189 1523.5738146 6740.3660424 6185.0875373 8552.4527982 20592.048316 21928.704669 26558.309552 25308.907417 
18933.244152 30725.861802 27181.89809 20747.027978 12412.551765 13682.937827 25491.00866 22658.358886 22144.984633 
17830.094369 19414.09609 33905.300529 32784.430627 14554.493697 5021.9591732 8088.9721546 25476.516476 10354.745253 
10427.927666 31061.795982 9005.859209 2064.2320058 3839.6739503 5349.784423 9918.1523793 17829.578028 21042.244075 
14949.123304 16456.164804 16287.02088 10925.893952 11924.954984 11741.992128 14918.825267 12080.85681 12079.103103 
19690.048432 22154.210617 14763.962646 10450.014538 14576.802536 4764.7268079 5828.0418569 12585.951875 11784.841444 
12540.886936 15152.223399 16506.890813 2005.6218158 16722.791643 15638.843463 15484.16705 1883.2785762 14905.171449 
11525.045705 12332.902774 11428.780955 15115.538342 24412.574824 21034.089409 20856.373277 7490.9092865 8981.247098 
27582.981832 33306.438292 13030.432524 28914.262991 24885.944109 24882.978136 27440.315555 30429.684652 27416.114436 
22691.871502 24771.710489 20238.620638 32244.48888 11407.661011 14810.315736 22037.894288 19530.987984 19004.393016 
22413.430649 22171.185242 22967.54093 28425.205478 27451.884924 29692.118865 30448.107114 17286.591365 5081.7221777 
8765.6064985 32696.361834 19903.232655 8238.2863291 8401.948121 5799.1022386 5899.928312 9887.9677 9927.8519136 
12537.671602 11740.006611 2383.4348848 28681.531346 32359.58043 32247.128164 29734.133583 6228.379135 4819.6110038 
4901.2124142 12788.425687 16843.537455 23710.499148 21812.843392 20713.19077 23423.855287 17451.360771 25233.879434 
33006.594085 22631.670637 21229.143153 11031.093593 13542.258531 12411.167625 17425.142118 30774.270746 25423.493372 
7049.8652494 5724.8027881 4886.4493519 19110.617126 29733.414843 18193.660462 17831.369582 7173.5807008 26932.668494 
32338.296221 30523.416894 32186.676762 11357.204109 31620.976879 12060.989568 13186.047795 11718.733531 11395.215574 
10658.049939 10463.140089 8192.0672813 10157.752511 12574.425284 15171.434975 2918.0445977 
