# vtk DataFile Version 4.1
vtk output
ASCII
DATASET UNSTRUCTURED_GRID
POINTS 949 float
-50.4035 -3.55271e-15 -3.85 -50.4035 -3.55271e-15 3.85 -38.605 -4.93315 -3.85 
-38.605 -4.93315 3.85 -31.9679 4.59652 -3.85 -31.9679 4.59652 3.85 
-21 0.45642 -3.85 -21 0.45642 -2.65 -21 0.45642 2.65 
-21 0.45642 3.85 -12.4448 15.4062 -3.85 -18 31.0321 -3.85 
-38.8249 32.9799 -3.85 -55 18.4356 -3.85 -36.5644 23.0321 -3.85 
-12.4448 15.4062 3.85 -18 31.0321 3.85 -38.8249 32.9799 3.85 
-55 18.4356 3.85 -36.5644 23.0321 3.85 -12.4448 15.4062 -2.65 
-1.86303e-15 9.03214 -2.65 -1.86303e-15 9.03214 2.65 -12.4448 15.4062 2.65 
-18 31.0321 -2.65 -18 31.0321 2.65 -5.41091e-15 25.0321 -2.65 
140 25.0321 -2.65 175 25.0321 -2.65 175 9.03214 -2.65 
140 9.03214 -2.65 140 9.03214 2.65 -5.41091e-15 25.0321 2.65 
140 25.0321 2.65 175 25.0321 2.65 175 9.03214 2.65 
-50.4035 -3.55271e-15 0 -38.605 -4.93315 0 -44.2479 -3.31518 -3.85 
-47.4226 -1.83752 -3.85 -41.4661 -4.26252 -3.85 -44.2479 -3.31518 3.85 
-47.4226 -1.83752 3.85 -41.4661 -4.26252 3.85 -31.9679 4.59652 3.10862e-15 
-31.9679 4.59652 -1.925 -31.9679 4.59652 1.925 -42.5535 1.95721 -3.85 
-46.4785 0.978607 -3.85 -37.2607 3.27687 -3.85 -42.5535 1.95721 3.85 
-46.4785 0.978607 3.85 -37.2607 3.27687 3.85 -21 0.45642 -3.25 
-21 0.45642 0 -21 0.45642 3.25 -29.1454 -4.38463 -3.85 
-33.8422 -5.22719 -3.85 -24.7819 -2.45346 -3.85 -29.1454 -4.38463 3.85 
-33.8422 -5.22719 3.85 -24.7819 -2.45346 3.85 -15.2356 8.15215 -3.85 
-17.8238 4.08407 -3.85 -13.6167 11.6932 -3.85 -12.1603 21.2193 -3.85 
-14.1099 26.7032 -3.85 -12.0179 18.2989 -3.85 -12.8666 24.0567 -3.85 
-15.843 29.0581 -3.85 -23.8189 34.053 -3.85 -31.4169 34.9819 -3.85 
-20.7848 32.7826 -3.85 -27.5731 34.8843 -3.85 -35.2178 34.3395 -3.85 
-46.7998 27.7988 -3.85 -42.9669 30.6272 -3.85 -51.2663 23.4381 -3.85 
-47.15 20.3928 -3.85 -51.075 19.4142 -3.85 -41.8572 21.7125 -3.85 
-28.5567 8.19815 -3.85 -27.2961 12.9959 -3.85 -28.4962 17.8092 -3.85 
-31.8616 21.4535 -3.85 -30.0354 6.18246 -3.85 -27.6242 10.5176 -3.85 
-27.5929 15.4781 -3.85 -29.9493 19.8433 -3.85 -34.1136 22.5391 -3.85 
-15.2356 8.15215 3.85 -17.8238 4.08407 3.85 -13.6167 11.6932 3.85 
-12.1603 21.2193 3.85 -14.1099 26.7032 3.85 -12.0179 18.2989 3.85 
-12.8666 24.0567 3.85 -15.843 29.0581 3.85 -23.8189 34.053 3.85 
-31.4169 34.9819 3.85 -20.7848 32.7826 3.85 -27.5731 34.8843 3.85 
-35.2178 34.3395 3.85 -46.7998 27.7988 3.85 -42.9669 30.6272 3.85 
-51.2663 23.4381 3.85 -47.15 20.3928 3.85 -51.075 19.4142 3.85 
-41.8572 21.7125 3.85 -28.5567 8.19815 3.85 -27.2961 12.9959 3.85 
-28.4962 17.8092 3.85 -31.8616 21.4535 3.85 -30.0354 6.18246 3.85 
-27.6242 10.5176 3.85 -27.5929 15.4781 3.85 -29.9493 19.8433 3.85 
-34.1136 22.5391 3.85 -36.5644 23.0321 3.10862e-15 -36.5644 23.0321 -1.925 
-36.5644 23.0321 1.925 -12.4448 15.4062 -3.25 -15.2356 8.15215 -2.65 
-17.8238 4.08407 -2.65 -13.6167 11.6932 -2.65 -1.86303e-15 9.03214 0 
-12.5871 6.26381 -2.65 -6.44398 8.33188 -2.65 -17.0428 3.72109 -2.65 
-12.5871 6.26381 2.65 -6.44398 8.33188 2.65 -17.0428 3.72109 2.65 
-15.2356 8.15215 2.65 -17.8238 4.08407 2.65 -13.6167 11.6932 2.65 
-12.4448 15.4062 3.25 -18 31.0321 -3.25 -12.1603 21.2193 -2.65 
-14.1099 26.7032 -2.65 -12.0179 18.2989 -2.65 -12.8666 24.0567 -2.65 
-15.843 29.0581 -2.65 -18 31.0321 0 -18 31.0321 3.25 
-38.8249 32.9799 0 -55 18.4356 0 -12.1603 21.2193 2.65 
-14.1099 26.7032 2.65 -12.0179 18.2989 2.65 -12.8666 24.0567 2.65 
-15.843 29.0581 2.65 -10.8599 27.0668 -2.65 -14.5655 28.8053 -2.65 
-5.52443 25.5452 -2.65 16.2336 25.0321 -2.65 36.6109 25.0321 -2.65 
57.2887 25.0321 -2.65 77.9665 25.0321 -2.65 98.6444 25.0321 -2.65 
119.322 25.0321 -2.65 8.1168 25.0321 -2.65 26.4223 25.0321 -2.65 
46.9498 25.0321 -2.65 67.6276 25.0321 -2.65 88.3055 25.0321 -2.65 
108.983 25.0321 -2.65 129.661 25.0321 -2.65 157.5 25.0321 -2.65 
148.75 25.0321 -2.65 166.25 25.0321 -2.65 175 17.0321 -2.65 
157.5 9.03214 -2.65 148.75 9.03214 -2.65 166.25 9.03214 -2.65 
16.2336 9.03214 -2.65 36.6109 9.03214 -2.65 57.2887 9.03214 -2.65 
77.9665 9.03214 -2.65 98.6444 9.03214 -2.65 119.322 9.03214 -2.65 
8.1168 9.03214 -2.65 26.4223 9.03214 -2.65 46.9498 9.03214 -2.65 
67.6276 9.03214 -2.65 88.3055 9.03214 -2.65 108.983 9.03214 -2.65 
129.661 9.03214 -2.65 140 9.03214 0 16.2336 9.03214 2.65 
36.6109 9.03214 2.65 57.2887 9.03214 2.65 77.9665 9.03214 2.65 
98.6444 9.03214 2.65 119.322 9.03214 2.65 8.1168 9.03214 2.65 
26.4223 9.03214 2.65 46.9498 9.03214 2.65 67.6276 9.03214 2.65 
88.3055 9.03214 2.65 108.983 9.03214 2.65 129.661 9.03214 2.65 
-10.8599 27.0668 2.65 -14.5655 28.8053 2.65 -5.52443 25.5452 2.65 
16.2336 25.0321 2.65 36.6109 25.0321 2.65 57.2887 25.0321 2.65 
77.9665 25.0321 2.65 98.6444 25.0321 2.65 119.322 25.0321 2.65 
8.1168 25.0321 2.65 26.4223 25.0321 2.65 46.9498 25.0321 2.65 
67.6276 25.0321 2.65 88.3055 25.0321 2.65 108.983 25.0321 2.65 
129.661 25.0321 2.65 157.5 25.0321 2.65 148.75 25.0321 2.65 
166.25 25.0321 2.65 175 17.0321 2.65 157.5 9.03214 2.65 
148.75 9.03214 2.65 166.25 9.03214 2.65 -5.41091e-15 25.0321 0 
140 25.0321 0 175 25.0321 0 175 9.03214 0 
-47.4226 -1.83752 0 -48.9399 -0.962292 -1.925 -48.9399 -0.962292 1.925 
-45.8568 -2.62271 -1.925 -45.8568 -2.62271 1.925 -41.4661 -4.26252 0 
-44.2479 -3.31518 0 -37.2939 3.2686 4.44089e-16 -46.4785 0.978607 4.44089e-16 
-48.441 0.489304 1.925 -48.441 0.489304 -1.925 -44.516 1.46791 -1.925 
-44.516 1.46791 1.925 -34.6309 3.93256 -1.925 -34.6309 3.93256 1.77636e-15 
-39.9237 2.61291 -1.925 -34.6309 3.93256 1.925 -39.9237 2.61291 1.925 
-42.5535 1.95721 0 -24.3476 -2.18783 -0.975449 -27.8167 -3.92622 1.47595 
-33.1414 -5.17417 2.66298 -33.1414 -5.17417 -1.18702 -28.4771 -4.1671 -1.18702 
-28.4771 -4.1671 2.66298 -22.6031 -0.955218 -2.41272 -22.6031 -0.955218 -1.81272 
-26.6738 -3.44516 -2.41272 -22.6031 -0.955218 0.837276 -24.1841 -2.08379 2.06298 
-24.1841 -2.08379 2.66298 -26.0399 -3.14136 0.250252 -24.1863 25.1654 -3.85 
-20.4368 17.327 -3.85 -30.3776 28.1762 -3.85 -22.4249 8.60135 -3.85 
-36.2454 0.329607 -3.85 -18.7494 22.3318 -3.85 -24.1405 20.3083 -3.85 
-27.4917 2.86094 -3.85 -40.8048 27.2992 -3.85 -35.6302 28.201 -3.85 
-17.913 13.4265 -3.85 -27.7609 22.7654 -3.85 -16.3409 17.9422 -3.85 
-22.6555 13.6867 -3.85 -20.7802 28.1616 -3.85 -25.8166 29.6842 -3.85 
-31.8552 -0.302156 -3.85 -24.9375 16.5539 -3.85 -43.4007 -0.678982 -3.85 
-35.2301 -2.61765 -3.85 -30.5003 -2.3434 -3.85 -40.5793 -1.48797 -3.85 
-39.3995 1.14341 -3.85 -37.4252 -2.30177 -3.85 -34.0503 0.0137258 -3.85 
-34.1066 2.46306 -3.85 -28.0242 5.52955 -3.85 -29.7298 3.72873 -3.85 
-31.9115 2.14718 -3.85 -29.6735 1.27939 -3.85 -28.3186 -0.761846 -3.85 
-24.2458 1.65868 -3.85 -21.7125 4.52889 -3.85 -18.8303 8.37675 -3.85 
-24.9583 5.73115 -3.85 -14.3928 16.6742 -3.85 -14.2506 19.5808 -3.85 
-16.5743 10.7893 -3.85 -15.1789 14.4163 -3.85 -17.1269 15.6843 -3.85 
-17.445 27.4324 -3.85 -19.3901 29.5969 -3.85 -22.2995 31.1073 -3.85 
-33.5235 31.5915 -3.85 -37.2276 30.5904 -3.85 -39.8149 30.1395 -3.85 
-43.8023 27.549 -3.85 -38.2175 27.7501 -3.85 -46.9749 24.0958 -3.85 
-36.0973 25.6166 -3.85 -33.7459 24.8273 -3.85 -43.9774 23.846 -3.85 
-38.6846 25.1657 -3.85 -15.4548 21.7756 -3.85 -16.4296 24.5175 -3.85 
-17.5451 20.137 -3.85 -19.7648 25.2467 -3.85 -24.8177 31.8686 -3.85 
-28.6167 32.333 -3.85 -23.2984 28.9229 -3.85 -30.8973 31.5791 -3.85 
-33.0039 28.1886 -3.85 -28.0971 28.9302 -3.85 -24.8605 10.7986 -3.85 
-25.4908 8.39975 -3.85 -26.7168 17.1816 -3.85 -26.1168 14.7749 -3.85 
-24.9758 13.3413 -3.85 -22.5402 11.144 -3.85 -23.7965 15.1203 -3.85 
-29.8113 22.1095 -3.85 -28.1285 20.2873 -3.85 -26.3183 19.0587 -3.85 
-25.9507 21.5368 -3.85 -24.539 18.4311 -3.85 -31.1196 24.8149 -3.85 
-29.0692 25.4708 -3.85 -20.169 11.0139 -3.85 -27.282 26.6708 -3.85 
-25.9736 23.9654 -3.85 -25.0014 27.4248 -3.85 -21.4678 23.7486 -3.85 
-21.4449 21.32 -3.85 -24.1634 22.7368 -3.85 -22.4832 26.6635 -3.85 
-19.5931 19.8294 -3.85 -22.2886 18.8177 -3.85 -18.3888 17.6346 -3.85 
-22.6871 16.9405 -3.85 -19.1749 15.3767 -3.85 -20.2843 13.5566 -3.85 
-21.5461 15.5068 -3.85 -24.1863 25.1654 3.85 -20.4368 17.327 3.85 
-30.3776 28.1762 3.85 -22.4249 8.60135 3.85 -36.2454 0.329607 3.85 
-18.7494 22.3318 3.85 -24.1405 20.3083 3.85 -27.4917 2.86094 3.85 
-40.8048 27.2992 3.85 -35.6302 28.201 3.85 -17.913 13.4265 3.85 
-27.7609 22.7654 3.85 -16.3409 17.9422 3.85 -22.6555 13.6867 3.85 
-20.7802 28.1616 3.85 -25.8166 29.6842 3.85 -31.8552 -0.302156 3.85 
-24.9375 16.5539 3.85 -43.4007 -0.678982 3.85 -30.5003 -2.3434 3.85 
-35.2301 -2.61765 3.85 -40.5793 -1.48797 3.85 -37.4252 -2.30177 3.85 
-39.3995 1.14341 3.85 -34.0503 0.0137258 3.85 -34.1066 2.46306 3.85 
-29.7298 3.72873 3.85 -28.0242 5.52955 3.85 -31.9115 2.14718 3.85 
-29.6735 1.27939 3.85 -24.2458 1.65868 3.85 -28.3186 -0.761846 3.85 
-18.8303 8.37675 3.85 -21.7125 4.52889 3.85 -24.9583 5.73115 3.85 
-14.2506 19.5808 3.85 -14.3928 16.6742 3.85 -15.1789 14.4163 3.85 
-16.5743 10.7893 3.85 -17.1269 15.6843 3.85 -19.3901 29.5969 3.85 
-17.445 27.4324 3.85 -22.2995 31.1073 3.85 -37.2276 30.5904 3.85 
-33.5235 31.5915 3.85 -43.8023 27.549 3.85 -39.8149 30.1395 3.85 
-38.2175 27.7501 3.85 -46.9749 24.0958 3.85 -33.7459 24.8273 3.85 
-36.0973 25.6166 3.85 -38.6846 25.1657 3.85 -43.9774 23.846 3.85 
-16.4296 24.5175 3.85 -15.4548 21.7756 3.85 -17.5451 20.137 3.85 
-19.7648 25.2467 3.85 -28.6167 32.333 3.85 -24.8177 31.8686 3.85 
-23.2984 28.9229 3.85 -33.0039 28.1886 3.85 -30.8973 31.5791 3.85 
-28.0971 28.9302 3.85 -25.4908 8.39975 3.85 -24.8605 10.7986 3.85 
-26.1168 14.7749 3.85 -26.7168 17.1816 3.85 -22.5402 11.144 3.85 
-24.9758 13.3413 3.85 -23.7965 15.1203 3.85 -28.1285 20.2873 3.85 
-29.8113 22.1095 3.85 -25.9507 21.5368 3.85 -26.3183 19.0587 3.85 
-24.539 18.4311 3.85 -31.1196 24.8149 3.85 -29.0692 25.4708 3.85 
-20.169 11.0139 3.85 -25.9736 23.9654 3.85 -27.282 26.6708 3.85 
-25.0014 27.4248 3.85 -24.1634 22.7368 3.85 -21.4449 21.32 3.85 
-21.4678 23.7486 3.85 -22.4832 26.6635 3.85 -22.2886 18.8177 3.85 
-19.5931 19.8294 3.85 -18.3888 17.6346 3.85 -22.6871 16.9405 3.85 
-19.1749 15.3767 3.85 -21.5461 15.5068 3.85 -20.2843 13.5566 3.85 
-29.625 19.4743 4.44089e-16 -27.5929 15.4781 4.44089e-16 -27.511 10.9957 4.44089e-16 
-33.3653 22.2541 -1.77636e-15 -29.5085 6.78536 -2.22045e-15 -30.6475 5.58903 4.44089e-16 
-30.6475 5.58903 -1.925 -29.0025 7.47145 -1.925 -30.6475 5.58903 1.925 
-29.0025 7.47145 1.925 -32.5964 21.8859 -1.925 -34.9326 22.7757 -1.925 
-34.9326 22.7757 4.44089e-16 -34.9326 22.7757 1.925 -32.5964 21.8859 1.925 
-27.9288 9.55767 -1.925 -27.3531 11.9904 -1.925 -28.2611 8.77255 -8.88178e-16 
-27.3666 14.2463 -1.925 -27.9714 16.672 -1.925 -27.2975 13.2416 4.44089e-16 
-29.0186 18.6702 -1.925 -30.669 20.5479 -1.925 -28.3821 17.5916 4.44089e-16 
-31.331 21.0851 -4.44089e-16 -27.3531 11.9904 1.925 -27.9288 9.55767 1.925 
-27.9714 16.672 1.925 -27.3666 14.2463 1.925 -30.669 20.5479 1.925 
-29.0186 18.6702 1.925 -17.8238 4.08407 -3.25 -15.2356 8.15215 -3.25 
-13.6167 11.6932 -3.25 -17.0428 3.72109 0 -12.5871 6.26381 0 
-6.44398 8.33188 0 -17.8238 4.08407 3.25 -15.2356 8.15215 3.25 
-13.6167 11.6932 3.25 -12.0179 18.2989 -3.25 -12.1603 21.2193 -3.25 
-15.843 29.0581 -3.25 -14.1099 26.7032 -3.25 -12.8666 24.0567 -3.25 
-21.769 33.2599 -0.228061 -27.3105 34.8505 -0.0398665 -34.1464 34.5976 -0.00434842 
-19.8233 32.2494 -1.43903 -19.8233 32.2494 -2.03903 -22.783 33.6846 -2.03903 
-36.5359 33.934 1.92283 -36.5359 33.934 -1.92717 -32.7883 34.8368 -1.92717 
-20.7848 32.7826 3.25 -32.7883 34.8368 1.92283 -19.8233 32.2494 1.21097 
-22.783 33.6846 1.81097 -29.3603 35.0219 -1.94493 -25.5468 34.5301 -1.94493 
-24.4821 34.2559 -0.133964 -30.7394 35.0185 -0.0221075 -29.3603 35.0219 1.90507 
-25.5468 34.5301 1.90507 -42.9669 30.6272 0 -46.7998 27.7988 0 
-51.2663 23.4381 0 -41.8904 21.7042 4.44089e-16 -51.075 19.4142 0 
-53.0375 18.9249 -1.925 -53.0375 18.9249 1.925 -49.1125 19.9035 -1.925 
-39.2274 22.3682 1.77636e-15 -39.2274 22.3682 -1.925 -44.5202 21.0485 -1.925 
-49.1125 19.9035 1.925 -39.2274 22.3682 1.925 -44.5202 21.0485 1.925 
-47.15 20.3928 0 -12.0179 18.2989 3.25 -15.843 29.0581 3.25 
-12.1603 21.2193 3.25 -14.1099 26.7032 3.25 -12.8666 24.0567 3.25 
6.78831 16.804 -2.65 -9.03398 10.7302 -2.65 -3.37118 16.3995 -2.65 
129.661 17.0321 -2.65 67.6276 17.0321 -2.65 46.9498 17.0321 -2.65 
88.3055 17.0321 -2.65 108.983 17.0321 -2.65 26.4223 17.0321 -2.65 
-7.12991 21.1297 -2.65 148.75 17.0321 -2.65 166.25 17.0321 -2.65 
-13.9114 7.20798 -2.65 -9.64512 21.1745 -2.65 -9.78737 18.268 -2.65 
-10.7394 13.0682 -2.65 -12.1348 9.44116 -2.65 -7.90801 15.9028 -2.65 
-6.20258 13.5648 -2.65 -5.25055 18.7646 -2.65 -10.8106 8.49698 -2.65 
-4.51699 9.88115 -2.65 3.39416 12.9181 -2.65 11.511 12.9181 -2.65 
-1.68559 12.7158 -2.65 1.70857 16.6017 -2.65 -12.4849 26.885 -2.65 
-3.56496 23.0809 -2.65 -8.99491 24.0982 -2.65 11.511 20.9181 -2.65 
3.39416 20.9181 -2.65 -1.68559 20.7158 -2.65 140 17.0321 -2.65 
134.831 13.0321 -2.65 134.831 21.0321 -2.65 144.375 21.0321 -2.65 
144.375 13.0321 -2.65 153.125 21.0321 -2.65 124.492 21.0321 -2.65 
170.625 13.0321 -2.65 170.625 21.0321 -2.65 161.875 21.0321 -2.65 
161.875 13.0321 -2.65 153.125 13.0321 -2.65 124.492 13.0321 -2.65 
-11.5101 24.143 -2.65 157.5 17.0321 -2.65 31.5166 21.0321 -2.65 
21.3279 21.0321 -2.65 16.2336 17.0321 -2.65 21.3279 13.0321 -2.65 
52.1193 21.0321 -2.65 41.7804 21.0321 -2.65 36.6109 17.0321 -2.65 
41.7804 13.0321 -2.65 31.5166 13.0321 -2.65 72.7971 21.0321 -2.65 
62.4582 21.0321 -2.65 57.2887 17.0321 -2.65 62.4582 13.0321 -2.65 
52.1193 13.0321 -2.65 93.4749 21.0321 -2.65 83.136 21.0321 -2.65 
77.9665 17.0321 -2.65 72.7971 13.0321 -2.65 83.136 13.0321 -2.65 
114.153 21.0321 -2.65 103.814 21.0321 -2.65 98.6444 17.0321 -2.65 
93.4749 13.0321 -2.65 103.814 13.0321 -2.65 119.322 17.0321 -2.65 
114.153 13.0321 -2.65 8.1168 9.03214 0 16.2336 9.03214 0 
129.661 9.03214 0 119.322 9.03214 0 26.4223 9.03214 0 
46.9498 9.03214 0 57.2887 9.03214 0 36.6109 9.03214 0 
67.6276 9.03214 0 77.9665 9.03214 0 88.3055 9.03214 0 
98.6444 9.03214 0 108.983 9.03214 0 6.78831 16.804 2.65 
-9.03398 10.7302 2.65 -3.37118 16.3995 2.65 129.661 17.0321 2.65 
67.6276 17.0321 2.65 88.3055 17.0321 2.65 108.983 17.0321 2.65 
46.9498 17.0321 2.65 26.4223 17.0321 2.65 -7.12991 21.1297 2.65 
148.75 17.0321 2.65 166.25 17.0321 2.65 -13.9114 7.20798 2.65 
-4.51699 9.88115 2.65 -10.8106 8.49698 2.65 11.511 12.9181 2.65 
3.39416 12.9181 2.65 1.70857 16.6017 2.65 -1.68559 12.7158 2.65 
-6.20258 13.5648 2.65 -9.78737 18.268 2.65 -9.64512 21.1745 2.65 
-12.1348 9.44116 2.65 -10.7394 13.0682 2.65 -7.90801 15.9028 2.65 
-5.25055 18.7646 2.65 -12.4849 26.885 2.65 134.831 21.0321 2.65 
134.831 13.0321 2.65 140 17.0321 2.65 144.375 13.0321 2.65 
144.375 21.0321 2.65 124.492 13.0321 2.65 153.125 13.0321 2.65 
-8.99491 24.0982 2.65 -3.56496 23.0809 2.65 3.39416 20.9181 2.65 
11.511 20.9181 2.65 -1.68559 20.7158 2.65 153.125 21.0321 2.65 
124.492 21.0321 2.65 170.625 21.0321 2.65 170.625 13.0321 2.65 
161.875 21.0321 2.65 161.875 13.0321 2.65 -11.5101 24.143 2.65 
31.5166 13.0321 2.65 21.3279 13.0321 2.65 16.2336 17.0321 2.65 
21.3279 21.0321 2.65 52.1193 13.0321 2.65 41.7804 13.0321 2.65 
41.7804 21.0321 2.65 36.6109 17.0321 2.65 31.5166 21.0321 2.65 
72.7971 13.0321 2.65 62.4582 13.0321 2.65 62.4582 21.0321 2.65 
57.2887 17.0321 2.65 52.1193 21.0321 2.65 93.4749 13.0321 2.65 
83.136 13.0321 2.65 72.7971 21.0321 2.65 77.9665 17.0321 2.65 
83.136 21.0321 2.65 114.153 13.0321 2.65 103.814 13.0321 2.65 
93.4749 21.0321 2.65 98.6444 17.0321 2.65 103.814 21.0321 2.65 
119.322 17.0321 2.65 114.153 21.0321 2.65 157.5 17.0321 2.65 
-14.5655 28.8053 0 -10.8599 27.0668 0 -5.52443 25.5452 0 
8.1168 25.0321 0 16.2336 25.0321 0 129.661 25.0321 0 
119.322 25.0321 0 36.6109 25.0321 0 26.4223 25.0321 0 
57.2887 25.0321 0 46.9498 25.0321 0 67.6276 25.0321 0 
98.6444 25.0321 0 88.3055 25.0321 0 77.9665 25.0321 0 
108.983 25.0321 0 148.75 25.0321 0 166.25 25.0321 0 
157.5 25.0321 0 175 17.0321 0 166.25 9.03214 0 
157.5 9.03214 0 148.75 9.03214 0 -48.9374 23.6065 -1.925 
-48.9374 23.6065 1.925 -24.9375 16.5539 0 -22.6871 16.9405 0 
-21.5461 15.5068 0 -23.7965 15.1203 0 -26.2652 16.016 1.925 
-26.2652 16.016 -1.925 -25.1242 14.5824 1.925 -24.539 18.4311 0 
-22.6555 13.6867 0 -20.4368 17.327 0 -25.1242 14.5824 -1.925 
-22.2886 18.8177 0 -25.8667 17.8932 -1.925 -24.1405 20.3083 0 
-19.5931 19.8294 0 -20.2843 13.5566 0 -18.3888 17.6346 0 
-17.5451 20.137 0 -16.3409 17.9422 0 -25.0833 12.3412 -1.925 
-25.0833 12.3412 1.925 -21.4449 21.32 0 -19.1749 15.3767 0 
-25.8667 17.8932 1.925 -15.4548 21.7756 -3.25 -14.2506 19.5808 -3.25 
-14.2506 19.5808 0.6 -17.1269 15.6843 0 -30.5631 22.5097 -1.925 
-31.8715 25.2152 -1.925 -30.5631 22.5097 1.925 -29.0692 25.4708 0 
-27.7609 22.7654 0 -17.445 27.4324 -3.25 -16.4296 24.5175 -3.25 
-14.1099 26.7032 0 -16.4296 24.5175 -0.6 -17.445 27.4324 -0.6 
-22.5402 11.144 0 -12.1603 21.2193 0 -14.2506 19.5808 3.25 
-15.4548 21.7756 -0.6 -18.7494 22.3318 0 -26.8827 19.8913 -1.925 
-26.8827 19.8913 1.925 -21.4678 23.7486 0 -24.1634 22.7368 0 
-25.9736 23.9654 0 -13.1351 23.9612 0 -24.968 9.79853 -1.925 
-28.6929 21.1199 1.925 -25.9507 21.5368 0 -17.913 13.4265 0 
-17.445 27.4324 3.25 -19.7648 25.2467 0 -16.4296 24.5175 3.25 
-31.8715 25.2152 1.925 -30.3776 28.1762 0 -20.7802 28.1616 0 
-15.4548 21.7756 3.25 -28.6929 21.1199 -1.925 -24.1863 25.1654 0 
-27.282 26.6708 0 -27.2812 18.0141 -1.925 -27.2812 18.0141 1.925 
-24.9583 5.73115 0 -27.4917 2.86094 0 -28.5001 4.82315 1.925 
-28.5001 4.82315 -1.925 -25.9667 7.69336 -1.925 -20.169 11.0139 0 
-36.7696 1.7991 1.925 -36.7696 1.7991 -1.925 -22.4249 8.60135 0 
-25.9667 7.69336 1.925 -22.4832 26.6635 0 -28.0971 28.9302 0 
-25.0014 27.4248 0 -24.968 9.79853 1.925 -34.4978 25.2276 -1.925 
-33.0039 28.1886 0 -32.262 31.3869 -1.92717 -28.8441 31.5134 -1.94493 
-28.8441 31.5134 1.90507 -32.262 31.3869 1.92283 -37.4252 -2.30177 0 
-36.2454 0.329607 0 -34.0503 0.0137258 0 -25.8166 29.6842 0 
-15.1789 14.4163 -0.6 -14.3928 16.6742 3.25 -14.3928 16.6742 -0.6 
-12.4849 26.885 0 -16.0549 28.8676 0 -34.8883 31.3993 -1.92717 
-34.4978 25.2276 1.925 -35.6302 28.201 0 -23.7928 31.472 -2.03903 
-21.2746 30.7107 -2.03903 -21.2746 30.7107 1.81097 -23.2984 28.9229 0 
-12.3026 18.3128 0 -19.3901 29.5969 -0.6 -35.2301 -2.61765 0 
-31.8552 -0.302156 0 -36.0973 25.6166 -1.925 -36.0973 25.6166 1.925 
-18.8303 8.37675 -0.6 -16.5743 10.7893 3.25 -16.5743 10.7893 -0.6 
-26.5636 32.2673 1.90507 -24.2458 1.65868 -0.6 -21.7125 4.52889 -0.6 
-24.2458 1.65868 3.25 -15.1789 14.4163 3.25 -37.9494 -0.832273 1.925 
-23.7928 31.472 1.81097 -34.8883 31.3993 1.92283 -19.3901 29.5969 3.25 
-21.7125 4.52889 3.25 -29.7298 3.72873 -1.925 -31.9115 2.14718 -1.925 
-29.6735 1.27939 0 -29.7298 3.72873 1.925 -26.5636 32.2673 -1.94493 
-9.64512 21.1745 0 124.492 21.0321 0 134.831 21.0321 0 
129.661 17.0321 0 72.7971 21.0321 0 62.4582 21.0321 0 
67.6276 17.0321 0 93.4749 21.0321 0 83.136 21.0321 0 
88.3055 17.0321 0 134.831 13.0321 0 124.492 13.0321 0 
-31.9115 2.14718 1.925 -25.9197 0.336554 -2.41272 41.7804 21.0321 0 
52.1193 21.0321 0 46.9498 17.0321 0 26.4223 17.0321 0 
31.5166 13.0321 0 21.3279 13.0321 0 108.983 17.0321 0 
114.153 13.0321 0 103.814 13.0321 0 93.4749 13.0321 0 
83.136 13.0321 0 72.7971 13.0321 0 62.4582 13.0321 0 
41.7804 13.0321 0 52.1193 13.0321 0 114.153 21.0321 0 
103.814 21.0321 0 -18.8303 8.37675 3.25 -34.5745 1.48322 1.925 
21.3279 21.0321 0 31.5166 21.0321 0 -19.3901 29.5969 -3.25 
-4.51699 9.88115 0 -9.03398 10.7302 0 -10.8106 8.49698 0 
-25.9197 0.336554 1.43728 161.875 21.0321 0 166.25 17.0321 0 
170.625 21.0321 0 -45.3632 -1.16829 1.925 -45.3632 -1.16829 -1.925 
-46.9506 -0.429458 2.22045e-16 -15.1789 14.4163 -3.25 -14.3928 16.6742 -3.25 
-12.4448 15.4062 0 -39.8149 30.1395 0 -40.8048 27.2992 0 
-43.8023 27.549 0 -41.3476 24.5017 -1.925 -41.3476 24.5017 1.925 
-18.8303 8.37675 -3.25 -16.5743 10.7893 -3.25 -15.2356 8.15215 0 
161.875 13.0321 0 170.625 13.0321 0 -38.6846 25.1657 -1.925 
-38.2175 27.7501 0 -24.2458 1.65868 -3.25 -21.7125 4.52889 -3.25 
-9.78737 18.268 0 -7.12991 21.1297 0 -5.25055 18.7646 0 
-29.836 -2.11419 -1.18702 -37.2276 30.5904 0 -18.1178 4.30429 0 
-43.4007 -0.678982 0 -7.90801 15.9028 0 -38.6846 25.1657 1.925 
153.125 21.0321 0 144.375 21.0321 0 148.75 17.0321 0 
153.125 13.0321 0 144.375 13.0321 0 -37.9494 -0.832273 -1.925 
-13.8402 11.7792 0 -3.37118 16.3995 0 -10.7394 13.0682 0 
-6.20258 13.5648 0 -40.5793 -1.48797 0 157.5 17.0321 0 
-8.99491 24.0982 0 -3.56496 23.0809 0 -46.9749 24.0958 0 
-11.5101 24.143 0 -27.6542 -0.53264 2.66298 -27.6542 -0.53264 -1.18702 
3.39416 12.9181 0 6.78831 16.804 0 11.511 12.9181 0 
3.39416 20.9181 0 11.511 20.9181 0 -28.1014 -1.24499 -2.41272 
-29.836 -2.11419 2.66298 -44.3451 24.7515 1.925 -1.68559 20.7158 0 
1.70857 16.6017 0 -12.1348 9.44116 0 -13.9114 7.20798 0 
16.2336 17.0321 0 36.6109 17.0321 0 57.2887 17.0321 0 
77.9665 17.0321 0 98.6444 17.0321 0 -1.68559 12.7158 0 
-34.1066 2.46306 -1.925 -44.3451 24.7515 -1.925 140 17.0321 0 
119.322 17.0321 0 
CELLS 415 4565
10 512 18 75 103 514 510 710 711 105 509 
10 18 75 13 512 510 77 145 514 710 513 
10 369 261 277 365 713 348 712 421 714 715 
10 369 277 445 365 712 717 716 421 715 718 
10 369 261 266 277 713 346 719 712 348 334 
10 277 261 273 365 348 351 329 715 714 720 
10 353 261 369 365 721 713 440 442 714 421 
10 273 445 277 365 722 717 329 720 718 715 
10 261 353 369 358 721 440 713 723 437 426 
10 445 266 277 369 724 334 717 716 719 712 
10 266 261 369 358 346 713 719 725 723 426 
10 261 357 353 358 726 438 721 723 434 437 
10 273 261 270 365 351 349 350 720 714 727 
10 261 364 353 357 728 439 721 726 407 438 
10 261 265 272 364 345 315 347 728 729 730 
10 446 445 273 365 464 722 731 732 718 720 
10 265 261 266 358 345 346 342 733 723 725 
10 261 365 353 362 714 442 721 734 443 441 
10 369 445 266 358 716 724 719 426 735 725 
10 137 272 265 364 737 315 736 738 730 729 
10 364 261 353 362 728 721 439 391 734 441 
10 270 261 272 364 349 347 299 739 728 730 
10 447 262 271 363 741 336 740 742 743 744 
10 138 265 274 147 746 316 745 747 748 749 
10 365 263 270 273 750 337 727 720 328 350 
10 137 364 265 146 738 729 736 751 752 753 
10 357 261 265 358 726 345 754 434 723 733 
10 266 445 444 358 724 467 755 725 735 756 
10 266 352 265 358 758 757 342 725 433 733 
10 260 271 262 363 339 336 338 759 744 743 
10 138 137 265 147 140 736 746 747 760 748 
10 364 261 265 357 728 345 729 407 726 754 
10 265 147 137 146 748 760 736 753 149 751 
10 446 273 263 365 731 328 761 732 720 750 
10 358 444 266 363 756 755 725 424 762 763 
10 365 261 270 362 714 349 727 443 734 764 
10 265 366 147 357 766 765 748 754 408 767 
10 354 262 447 363 769 741 768 428 743 742 
10 147 265 274 366 748 316 749 765 766 770 
10 357 265 364 146 754 729 407 771 753 752 
10 266 444 271 363 755 772 333 763 762 744 
10 364 270 261 362 739 349 728 391 764 734 
10 447 271 444 363 740 772 468 742 744 762 
10 262 352 260 363 774 773 338 743 430 759 
10 262 354 352 363 769 431 774 743 428 430 
10 83 444 277 445 465 775 325 463 467 717 
10 444 369 445 111 776 716 467 474 418 471 
10 357 265 352 358 754 757 435 434 733 433 
10 357 147 265 146 767 748 754 771 149 753 
10 260 265 266 352 341 342 343 773 757 758 
10 359 267 263 448 778 294 777 779 780 781 
10 270 263 365 362 337 750 727 764 782 443 
10 358 266 352 363 725 758 433 424 763 430 
10 444 266 277 445 755 334 775 467 724 717 
10 369 444 445 358 776 467 716 426 756 735 
10 50 5 235 356 52 244 245 375 377 783 
10 264 47 4 235 282 49 285 784 243 241 
10 271 260 266 363 339 343 333 744 759 763 
10 359 263 355 448 777 785 386 779 781 786 
10 352 366 265 357 436 766 757 435 408 754 
10 260 265 366 274 341 766 787 344 316 770 
10 366 265 260 352 766 341 787 436 757 773 
10 277 83 266 444 325 332 334 775 465 755 
10 358 369 444 111 426 776 756 425 418 474 
10 352 266 260 363 758 343 773 430 763 759 
10 352 262 367 354 774 788 432 431 769 414 
10 262 367 260 352 788 789 338 774 432 773 
10 362 263 365 355 782 750 443 429 785 419 
10 446 355 263 448 790 785 761 461 786 781 
10 447 269 262 354 791 321 741 768 792 769 
10 490 262 491 354 794 793 505 795 769 796 
10 356 264 3 368 798 797 374 376 799 372 
10 262 275 260 367 322 340 338 788 800 789 
10 270 364 272 23 739 730 299 801 802 803 
10 446 109 355 448 470 415 790 461 453 786 
10 446 263 81 448 761 324 459 461 781 451 
10 446 365 263 355 732 750 761 790 419 785 
10 151 25 147 138 687 150 804 554 805 747 
10 491 262 269 354 793 321 806 796 769 792 
10 354 447 269 361 768 791 792 412 807 808 
10 489 274 275 366 810 319 809 811 770 812 
10 364 137 272 23 738 737 730 802 813 803 
10 110 445 446 365 472 464 469 420 718 732 
10 446 82 273 445 460 327 731 464 462 722 
10 138 274 25 147 745 814 805 747 749 150 
10 260 275 274 366 340 319 344 787 812 770 
10 3 264 276 368 797 284 815 372 799 816 
10 367 366 260 352 411 787 789 432 436 773 
10 269 447 118 361 791 456 817 808 807 818 
10 263 362 270 132 782 764 337 819 820 821 
10 367 262 490 354 788 794 822 414 769 795 
10 267 263 8 359 294 824 823 778 777 825 
10 23 270 364 362 801 739 802 826 764 391 
10 235 264 3 356 784 797 827 783 798 374 
10 146 137 364 23 751 738 752 148 813 802 
10 366 275 489 367 812 809 811 411 800 828 
10 354 269 491 361 792 806 796 412 808 829 
10 359 355 109 448 386 415 379 779 786 453 
10 263 267 81 448 294 286 324 781 780 451 
10 147 274 25 366 749 814 150 765 770 830 
10 355 8 263 359 831 824 785 386 825 777 
10 276 44 267 359 833 832 289 834 835 778 
10 366 260 275 367 787 340 812 411 789 800 
10 490 354 491 99 795 796 505 506 413 499 
10 262 491 71 490 793 497 320 794 505 502 
10 490 275 262 367 836 322 794 822 800 788 
10 151 24 25 138 152 142 687 554 141 805 
10 623 137 146 23 837 751 635 634 813 148 
10 209 33 531 617 216 839 838 654 641 840 
10 156 618 157 532 842 841 163 585 843 584 
10 157 619 158 534 845 844 164 590 846 589 
10 31 617 193 531 642 646 200 847 840 848 
10 44 359 276 368 835 834 833 849 381 816 
10 267 6 56 247 291 58 290 850 253 255 
10 205 206 533 621 212 852 851 666 673 853 
10 536 175 174 622 583 181 578 854 855 856 
10 620 179 535 178 858 600 857 859 185 598 
10 619 191 178 534 675 611 860 846 861 597 
10 191 190 532 618 197 863 862 669 670 843 
10 533 189 621 190 864 665 853 865 196 664 
10 620 535 159 208 857 594 866 683 867 702 
10 263 355 362 132 785 429 782 819 868 820 
10 264 356 235 368 798 783 784 799 376 869 
10 622 205 154 536 668 695 870 854 871 576 
10 263 132 8 355 819 133 824 785 868 831 
10 277 273 82 445 329 327 326 717 722 462 
10 445 110 369 365 472 417 716 718 420 421 
10 84 262 271 447 335 336 330 454 741 740 
10 363 447 354 112 742 768 428 423 458 427 
10 25 274 138 24 814 745 805 142 872 141 
10 615 129 21 529 628 480 873 874 875 549 
10 266 83 271 444 332 331 333 755 465 772 
10 444 363 358 111 762 424 756 474 422 425 
10 8 247 267 359 256 850 823 825 876 778 
10 217 625 34 539 657 655 219 877 878 879 
10 41 38 236 228 234 881 880 232 231 882 
10 272 20 270 23 884 883 299 803 885 801 
10 270 23 132 362 801 134 821 764 826 820 
10 360 268 17 103 887 886 398 397 888 104 
10 268 14 78 511 312 80 311 889 517 518 
10 360 19 511 106 403 520 890 404 108 521 
10 270 122 263 132 892 891 337 821 893 819 
10 267 359 44 448 778 835 832 780 779 449 
10 171 625 539 29 894 878 570 173 895 567 
10 2 276 3 264 279 815 37 283 284 797 
10 269 118 268 361 817 896 307 808 818 897 
10 267 7 8 263 898 54 823 294 899 824 
10 623 137 20 537 837 139 900 901 541 542 
10 271 444 84 447 772 466 330 740 468 454 
10 363 444 447 112 762 468 742 423 473 458 
10 623 20 530 537 900 545 902 901 542 547 
10 103 512 18 106 711 514 105 400 519 107 
10 75 78 13 512 308 79 77 710 515 513 
10 2 56 248 276 57 251 250 279 280 903 
10 17 491 269 361 495 806 904 395 829 808 
10 20 272 137 23 884 737 139 885 803 813 
10 489 275 490 367 809 836 504 828 800 822 
10 84 269 262 447 310 321 335 454 791 741 
10 447 361 354 112 807 412 768 458 401 427 
10 3 50 235 356 373 245 827 374 375 783 
10 7 263 122 132 899 891 123 905 819 893 
10 273 446 263 82 731 761 328 327 460 323 
10 365 446 110 355 732 469 420 419 790 416 
10 38 236 47 41 881 239 278 234 880 906 
10 21 126 529 129 127 548 549 480 479 875 
10 147 25 151 201 150 687 804 640 202 688 
10 357 94 147 146 405 526 767 771 527 149 
10 623 23 20 137 634 885 900 837 813 139 
10 8 132 263 7 133 819 824 54 905 899 
10 20 623 616 23 900 639 907 885 634 638 
10 66 137 265 138 488 736 314 487 140 746 
10 268 17 269 361 886 904 307 897 395 808 
10 236 0 1 228 238 36 237 882 229 230 
10 360 268 118 361 887 896 908 399 897 818 
10 538 33 217 624 910 218 909 911 645 653 
10 221 624 31 538 647 644 222 912 911 913 
10 94 147 366 357 526 765 393 405 767 408 
10 361 491 354 99 829 796 412 396 499 413 
10 269 71 262 491 303 320 321 806 497 793 
10 265 274 66 138 316 300 314 746 745 487 
10 31 531 179 30 847 572 603 187 561 186 
10 179 531 31 193 572 847 603 604 848 200 
10 159 531 33 27 566 839 692 166 562 225 
10 206 618 157 156 671 841 698 696 842 163 
10 175 533 176 189 582 588 182 608 864 606 
10 192 620 179 193 680 858 613 199 679 604 
10 157 619 208 158 845 681 700 164 844 699 
10 206 207 157 618 213 701 698 671 676 841 
10 157 207 208 619 701 214 700 845 678 681 
10 156 533 155 206 579 580 162 696 852 697 
10 159 208 535 158 702 867 594 165 699 595 
10 620 208 159 209 683 702 866 685 215 693 
10 33 531 159 209 839 566 692 216 838 693 
10 264 2 47 235 283 281 282 784 914 243 
10 154 205 622 204 695 668 870 691 211 663 
10 533 206 205 155 852 212 851 580 697 694 
10 12 268 103 17 305 888 508 144 886 104 
10 174 622 189 188 856 660 605 602 661 195 
10 179 620 192 178 858 680 613 185 859 612 
10 189 533 176 190 864 588 606 196 865 607 
10 177 532 190 176 592 863 609 183 587 607 
10 178 534 191 177 597 861 611 184 593 610 
10 178 191 619 192 611 675 860 612 198 674 
10 190 532 177 191 863 592 609 197 862 610 
10 354 490 367 99 795 822 414 413 506 409 
10 3 2 248 276 37 250 249 815 279 903 
10 189 622 174 175 660 856 605 608 855 181 
10 34 29 539 625 706 567 879 655 895 878 
10 71 275 262 490 318 322 320 502 836 794 
10 23 270 122 20 801 892 915 885 883 124 
10 50 47 236 41 246 239 240 370 906 880 
10 530 20 623 616 545 900 902 916 907 639 
10 20 23 616 615 885 638 907 917 637 633 
10 154 536 205 155 576 871 695 161 575 694 
10 2 264 3 235 283 797 37 914 784 827 
10 529 20 616 615 543 907 918 874 917 633 
10 65 137 265 66 485 736 313 68 488 314 
10 94 357 93 146 405 406 96 527 771 525 
10 1 41 236 228 42 880 237 230 232 882 
10 137 138 151 147 140 554 573 760 747 804 
10 47 3 38 41 919 233 278 906 43 234 
10 538 217 221 624 909 686 912 911 653 647 
10 539 217 625 171 877 657 878 570 920 894 
10 122 270 23 132 892 801 915 893 821 134 
10 235 3 47 50 827 919 243 245 373 246 
10 360 17 268 361 398 886 887 399 395 897 
10 137 65 265 272 485 313 736 737 296 315 
10 357 364 93 146 407 387 406 771 752 525 
10 28 539 217 34 568 877 704 226 879 219 
10 221 625 29 35 658 895 707 223 656 227 
10 263 446 81 82 761 459 324 323 460 86 
10 355 446 110 109 790 469 416 415 470 114 
10 25 274 489 366 814 810 500 830 770 811 
10 511 268 118 360 889 896 516 890 887 908 
10 151 26 537 623 153 555 556 921 922 901 
10 78 512 103 106 515 711 923 522 519 400 
10 7 267 8 247 898 823 54 254 850 256 
10 616 20 529 530 907 543 918 916 545 546 
10 137 146 201 623 751 659 924 837 635 648 
10 29 625 221 171 895 658 707 173 894 708 
10 28 167 217 539 169 705 704 568 569 877 
10 359 247 267 248 876 850 778 925 259 926 
10 21 129 615 22 480 628 873 125 130 627 
10 614 528 21 188 928 550 927 629 929 601 
10 50 3 47 41 373 919 246 370 43 906 
10 3 47 2 235 919 281 37 827 243 914 
10 614 154 26 528 931 160 930 928 557 558 
10 137 147 201 146 760 640 924 751 149 659 
10 276 359 267 248 834 778 289 903 925 926 
10 367 490 489 98 822 504 828 410 507 501 
10 99 490 367 98 506 822 409 101 507 410 
10 70 275 71 490 317 318 73 503 836 502 
10 277 82 83 445 326 87 325 717 462 463 
10 445 111 369 110 471 418 716 472 115 417 
10 151 537 137 623 556 541 573 921 901 837 
10 6 62 122 263 63 476 475 292 293 891 
10 276 267 56 247 289 290 280 932 850 255 
10 276 368 359 248 816 381 834 903 933 925 
10 268 360 511 103 887 890 889 888 397 934 
10 11 274 138 66 301 745 486 69 300 487 
10 274 489 24 25 810 492 872 814 500 142 
10 490 70 275 489 503 317 836 504 494 809 
10 8 355 90 9 831 384 481 55 385 91 
10 90 355 8 132 384 831 481 482 868 133 
10 269 17 12 491 904 144 304 806 495 496 
10 31 538 171 221 913 571 709 222 912 708 
10 217 33 538 167 218 910 909 705 703 565 
10 0 236 38 228 238 881 39 229 882 231 
10 11 274 70 489 301 302 72 493 810 494 
10 361 17 491 99 395 495 829 396 102 499 
10 78 103 511 106 923 934 518 522 400 521 
10 367 489 366 98 828 811 411 410 501 394 
10 32 614 530 616 650 936 935 652 631 916 
10 34 35 29 625 220 227 706 655 656 895 
10 269 12 17 268 304 144 904 307 305 886 
10 23 20 122 615 885 124 915 637 917 937 
10 267 247 276 248 850 932 289 926 259 903 
10 22 614 21 188 630 927 125 194 629 601 
10 204 614 26 32 651 930 690 210 650 224 
10 122 20 529 615 124 543 544 937 917 874 
10 129 7 122 132 478 123 938 626 905 893 
10 209 193 617 531 684 646 654 838 848 840 
10 528 614 154 188 928 931 557 929 629 939 
10 539 29 34 28 567 706 879 568 170 226 
10 12 75 103 268 76 509 508 305 306 888 
10 205 175 536 622 940 583 871 668 855 854 
10 24 274 11 489 872 301 136 492 810 493 
10 50 236 1 41 240 237 51 370 880 42 
10 615 122 23 132 937 915 637 636 893 134 
10 33 624 538 31 645 911 910 643 644 913 
10 190 156 532 618 941 585 863 670 842 843 
10 619 178 158 534 860 596 844 846 597 589 
10 361 447 19 112 807 457 402 401 458 117 
10 269 84 14 447 310 89 309 791 454 455 
10 622 154 174 536 870 577 856 854 576 578 
10 6 263 122 7 292 891 475 53 899 123 
10 7 132 129 8 905 626 478 54 133 131 
10 167 33 538 27 703 910 565 168 225 563 
10 31 30 171 538 187 172 709 913 564 571 
10 167 217 539 171 705 877 569 574 920 570 
10 221 217 538 171 686 909 912 708 920 571 
10 217 167 538 171 705 565 909 920 574 571 
10 625 217 221 171 657 686 658 894 920 708 
10 189 205 533 621 667 851 864 665 666 853 
10 275 70 274 489 317 302 319 809 494 810 
10 201 623 26 151 648 922 689 688 921 153 
10 447 19 118 361 457 120 456 807 402 818 
10 14 118 269 447 119 817 309 455 456 791 
10 38 2 3 47 40 37 233 278 281 919 
10 138 274 11 24 745 301 486 141 872 136 
10 103 512 78 75 711 515 923 509 710 308 
10 59 9 359 248 61 382 383 252 258 925 
10 157 191 619 534 942 675 845 590 861 846 
10 208 620 535 178 683 857 867 943 859 598 
10 191 157 618 532 942 841 669 862 584 843 
10 179 159 620 535 599 866 858 600 594 857 
10 206 190 533 621 672 865 852 673 664 853 
10 33 31 531 617 643 847 839 641 642 840 
10 271 83 84 444 331 88 330 772 465 466 
10 444 112 363 111 473 423 762 474 116 422 
10 355 9 8 359 385 55 831 386 382 825 
10 623 530 26 537 902 559 922 901 547 555 
10 614 21 530 616 927 552 936 631 944 916 
10 528 530 26 614 553 559 558 928 936 930 
10 359 8 247 248 825 256 876 925 257 259 
10 529 616 21 615 918 944 549 874 633 873 
10 235 4 264 44 241 285 784 242 45 945 
10 10 65 137 272 67 485 484 295 296 737 
10 32 530 623 616 935 902 649 652 916 639 
10 269 12 71 491 304 74 303 806 496 497 
10 267 6 7 263 291 53 898 294 292 899 
10 21 528 174 188 550 551 180 601 929 602 
10 26 614 204 154 930 651 690 160 931 691 
10 0 47 38 236 48 278 39 238 239 881 
10 122 7 129 126 123 478 938 540 128 479 
10 75 511 78 103 946 518 308 509 934 923 
10 530 21 529 616 552 549 546 916 944 918 
10 511 103 360 106 934 397 890 521 400 404 
10 132 23 15 362 134 135 483 820 826 389 
10 122 270 10 20 892 298 477 124 883 121 
10 137 201 151 623 924 688 573 837 648 921 
10 25 366 94 147 830 393 524 150 765 526 
10 276 247 56 248 932 255 280 903 259 251 
10 366 489 25 98 811 500 830 394 501 498 
10 19 511 118 360 520 516 120 403 890 908 
10 118 14 268 511 119 312 896 516 517 889 
10 528 21 530 614 550 552 553 928 927 936 
10 10 270 122 62 298 892 477 64 297 476 
10 132 362 15 90 820 389 483 482 390 92 
10 511 75 268 103 946 306 889 934 509 888 
10 264 4 276 44 285 288 284 945 45 833 
10 94 366 25 16 393 830 524 97 392 143 
10 622 154 204 188 870 691 663 661 939 662 
10 201 147 137 151 640 760 924 688 804 573 
10 146 364 93 23 752 387 525 148 802 523 
10 154 614 204 188 931 651 691 939 629 662 
10 174 154 622 188 577 870 856 602 939 661 
10 531 31 27 30 847 947 562 561 187 560 
10 193 620 159 209 679 866 948 684 685 693 
10 159 193 209 531 948 684 693 566 848 838 
10 26 623 201 32 922 648 689 224 649 203 
10 26 614 530 32 930 936 559 224 650 935 
10 366 25 16 98 830 143 392 394 498 100 
10 533 205 189 175 851 667 864 582 940 608 
10 175 155 533 205 581 580 582 940 694 851 
10 622 205 175 189 668 940 855 660 667 608 
10 155 175 536 205 581 583 575 694 940 871 
10 154 174 528 188 577 551 557 939 602 929 
10 207 191 619 157 677 675 678 701 942 845 
10 158 178 619 208 596 860 844 699 943 681 
10 208 178 535 158 943 598 867 699 596 595 
10 190 176 532 156 607 587 863 941 586 585 
10 191 207 618 157 677 676 669 942 701 841 
10 156 176 533 190 586 588 579 941 607 865 
10 156 190 206 618 941 672 696 842 670 671 
10 33 27 531 31 225 562 839 643 947 847 
10 193 531 159 179 848 566 948 604 572 599 
10 533 190 206 156 865 672 852 579 941 696 
10 620 159 179 193 866 599 858 679 948 604 
10 90 362 355 132 390 429 384 482 820 868 
10 62 122 263 270 476 891 293 297 892 337 
10 538 27 31 30 563 947 913 564 560 187 
10 268 78 75 511 311 308 306 889 518 946 
10 191 534 157 177 861 590 942 610 593 591 
10 208 192 620 178 682 680 683 943 612 859 
10 157 532 191 177 584 862 942 591 592 610 
10 192 208 619 178 682 681 674 612 943 860 
10 33 31 538 27 643 913 910 225 947 563 
10 359 9 8 248 382 55 825 925 258 257 
10 137 20 10 272 139 121 484 737 884 295 
10 268 269 14 118 307 309 312 896 817 119 
10 360 118 19 361 908 120 403 399 818 402 
10 21 616 614 22 944 631 927 125 632 630 
10 4 267 276 44 287 289 288 45 832 833 
10 359 44 5 368 835 46 378 381 849 380 
10 15 93 364 23 95 387 388 135 523 802 
10 359 5 44 448 378 46 835 779 452 449 
10 44 4 267 448 45 287 832 449 450 780 
10 615 616 21 22 633 944 873 627 632 125 
10 270 10 20 272 298 121 883 299 295 884 
10 23 364 15 362 802 388 135 826 391 389 
10 81 267 4 448 286 287 85 451 780 450 
10 5 359 109 448 378 379 113 452 779 453 
10 267 7 6 247 898 53 291 850 254 253 
10 26 530 623 32 559 902 922 224 935 649 
10 615 529 122 129 874 544 937 628 875 938 
10 615 129 122 132 628 938 937 636 626 893 
10 359 368 59 248 381 371 383 925 933 252 
10 122 529 126 129 544 548 540 938 875 479 
10 248 368 3 276 933 372 249 903 816 815 
10 248 3 368 59 249 372 933 252 60 371 
10 368 5 235 44 380 244 869 849 46 242 
10 368 235 5 356 869 244 380 376 783 377 
10 264 368 44 276 799 849 945 284 816 833 
10 368 264 44 235 799 945 849 869 784 242 

CELL_TYPES 415
24
24
24
24
24
24
24
24
24
24
24
24
24
24
24
24
24
24
24
24
24
24
24
24
24
24
24
24
24
24
24
24
24
24
24
24
24
24
24
24
24
24
24
24
24
24
24
24
24
24
24
24
24
24
24
24
24
24
24
24
24
24
24
24
24
24
24
24
24
24
24
24
24
24
24
24
24
24
24
24
24
24
24
24
24
24
24
24
24
24
24
24
24
24
24
24
24
24
24
24
24
24
24
24
24
24
24
24
24
24
24
24
24
24
24
24
24
24
24
24
24
24
24
24
24
24
24
24
24
24
24
24
24
24
24
24
24
24
24
24
24
24
24
24
24
24
24
24
24
24
24
24
24
24
24
24
24
24
24
24
24
24
24
24
24
24
24
24
24
24
24
24
24
24
24
24
24
24
24
24
24
24
24
24
24
24
24
24
24
24
24
24
24
24
24
24
24
24
24
24
24
24
24
24
24
24
24
24
24
24
24
24
24
24
24
24
24
24
24
24
24
24
24
24
24
24
24
24
24
24
24
24
24
24
24
24
24
24
24
24
24
24
24
24
24
24
24
24
24
24
24
24
24
24
24
24
24
24
24
24
24
24
24
24
24
24
24
24
24
24
24
24
24
24
24
24
24
24
24
24
24
24
24
24
24
24
24
24
24
24
24
24
24
24
24
24
24
24
24
24
24
24
24
24
24
24
24
24
24
24
24
24
24
24
24
24
24
24
24
24
24
24
24
24
24
24
24
24
24
24
24
24
24
24
24
24
24
24
24
24
24
24
24
24
24
24
24
24
24
24
24
24
24
24
24
24
24
24
24
24
24
24
24
24
24
24
24
24
24
24
24
24
24
24
24
24
24
24
24
24
24
24
24
24
24
24
24
24
24
24
24
24
24
24
24
24
24
24
24
24
24
24
24
24
24
24
24
24
24
24
24
24
24
24
24

POINT_DATA 949
FIELD FieldData 8
Displacement 3 949 double
0 0 0 0 0 0 -2.4505517103e-09 -3.0626714682e-10 -5.5784165435e-10 
-2.7055666167e-09 -6.2302879794e-10 3.3547702089e-11 0 0 0 0 0 0 
-1.4579888063e-09 -9.3588430629e-09 4.1314997958e-09 -2.0377225277e-09 -9.276044625e-09 4.4486885767e-09 -6.656618271e-09 -9.241815278e-09 4.8057841262e-09 
-7.7525275301e-09 -9.4359647465e-09 5.0320384765e-09 -1.5813492123e-08 -6.7325027285e-09 6.1051294269e-09 1.1316663274e-08 -1.8047774739e-08 -2.2717973987e-08 
1.4737711285e-08 3.2496439096e-09 -2.7838760629e-09 -7.754423482e-09 3.0599253786e-08 9.5500176766e-09 0 0 0 
-1.7977970248e-08 1.8220252162e-10 7.6825622512e-09 2.5320206947e-08 -7.595895104e-09 -2.6612286273e-08 1.9196806045e-08 6.3514191836e-09 -2.4163723134e-09 
-4.4499579512e-09 3.3086812885e-08 9.531516862e-09 0 0 0 -2.6982509919e-08 3.8653889274e-09 5.2241048647e-09 
-1.0667425349e-05 -8.042013075e-06 -3.1584266642e-06 -1.0912464625e-05 -7.6733867954e-06 2.9298790122e-06 -2.4273301786e-08 2.3326004665e-09 8.950530377e-09 
1.3435718289e-08 -1.6430090948e-08 -2.2978366604e-08 2.2194838045e-08 -9.0679624364e-09 -2.6371830209e-08 8.675651821e-06 -7.3868130535e-06 2.2965979754e-06 
2.811752887e-05 -0.00051331650075 7.7016256043e-07 2.8120369039e-05 -0.00064385951927 1.0635630475e-06 -3.1557166315e-05 -0.00064385939708 1.1407151386e-06 
-3.1554561622e-05 -0.00051331643691 8.4694595839e-07 -3.1598991777e-05 -0.00051329088815 8.473084034e-07 9.4819203516e-06 -7.1699514513e-06 -2.7477827384e-06 
2.8073226798e-05 -0.00051329094858 7.6981459971e-07 2.8075919863e-05 -0.00064383396389 1.0635910245e-06 -3.1601630243e-05 -0.00064383383837 1.1407143125e-06 
0 0 0 -2.5695265952e-09 -5.4498462309e-10 -2.8136048945e-10 -1.0686543115e-09 6.8122116147e-11 -3.3249292708e-10 
-4.673712522e-10 6.4264453555e-11 -1.6510276947e-10 -1.70680461e-09 -6.6916710451e-12 -4.7727348605e-10 -1.0812160697e-09 -2.1778123335e-11 1.0114753215e-10 
-4.4234210232e-10 3.830205105e-11 1.0669997643e-10 -1.8159611977e-09 -2.1535776112e-10 6.7470792093e-11 0 0 0 
0 0 0 0 0 0 0 0 0 
0 0 0 0 0 0 0 0 0 
0 0 0 0 0 0 -1.7703784673e-09 -9.3607079855e-09 4.287959763e-09 
-4.5431036636e-09 -9.5699490173e-09 4.5155653878e-09 -7.1601770456e-09 -9.3277526788e-09 4.9214188815e-09 -4.0122364695e-09 -3.9647218311e-09 2.6436294317e-10 
-3.6009400005e-09 -1.650044803e-09 -4.676372521e-10 -3.2914100468e-09 -6.74805336e-09 1.8927227799e-09 -5.6407302348e-09 -4.5119261099e-09 8.3895082597e-10 
-4.4221909957e-09 -2.1035908212e-09 1.397921383e-10 -6.4203447976e-09 -7.1920032969e-09 2.4625159321e-09 1.6834635206e-08 -1.8919558708e-08 2.2307365156e-08 
2.4092787837e-09 -1.1272637293e-08 8.5916047918e-09 -7.7676322332e-09 -1.6288034536e-08 1.0386797979e-08 2.1378960667e-08 -2.6640764503e-08 -1.2029511108e-08 
2.652309426e-09 -2.6937555837e-08 -3.198258992e-08 7.8521587875e-09 -1.8474103409e-08 -2.7694393056e-09 1.0299179131e-08 -3.0017952044e-08 -2.5135338501e-08 
7.4475750882e-09 -2.1828576371e-08 -2.569399035e-08 1.3322875291e-08 -1.1866399065e-08 -1.6591289049e-08 1.490758182e-08 -5.2716644642e-09 -9.071522185e-09 
1.2335444641e-08 -1.4711221058e-08 -1.988034083e-08 1.4265650295e-08 -8.6334096243e-09 -1.2750878837e-08 1.5220785424e-08 -1.3631507446e-09 -5.7346697272e-09 
7.7434953216e-09 1.6982431588e-08 2.9477227253e-09 1.2210595475e-08 1.0248205464e-08 2.7055724838e-10 5.0810595064e-10 2.4423491084e-08 6.3031442821e-09 
-4.5301968342e-09 1.7603082687e-08 5.5328717473e-09 -6.1429362706e-09 2.4110022865e-08 7.5414763752e-09 -2.3959924681e-09 8.924297146e-09 2.5794796618e-09 
5.7861723301e-10 -5.8089195523e-09 -4.3173770045e-10 -4.1993052181e-10 -6.4395998958e-09 9.220311091e-10 1.57503208e-09 -5.6708816844e-09 6.4993573284e-10 
3.4866554269e-09 -4.3911108136e-09 3.3039956694e-10 7.080102679e-10 -3.9730240862e-09 -6.5186717955e-10 -5.7992111163e-12 -6.4742210168e-09 3.5788660331e-10 
1.3920667873e-10 -6.0111132238e-09 1.0279912398e-09 2.8897287168e-09 -5.2095340404e-09 2.7230566051e-10 2.7717060471e-09 -2.7231188596e-09 1.0975339954e-09 
-9.7622465865e-09 -1.1142583867e-08 6.9640263828e-09 -7.7570249362e-09 -1.1279674925e-08 9.6879776157e-09 -1.8315615378e-08 -8.1827837997e-09 1.0525390378e-08 
2.7558218985e-08 -3.3129064437e-09 -1.2715347531e-08 3.0859856853e-08 -7.6009071651e-09 -2.1354837849e-08 1.1635045465e-08 -2.3787737226e-09 -1.1850081764e-09 
3.0137713641e-08 -7.3315387899e-09 -2.1581488933e-08 2.737183737e-08 -7.8497903857e-09 -2.8196742854e-08 2.2316043887e-08 -5.4390433079e-09 -1.7008482161e-08 
2.1246355244e-08 -8.7103845727e-10 -8.9581095196e-09 2.3253649553e-08 -6.7774930778e-09 -2.0954833252e-08 2.1758020882e-08 -3.3401764186e-09 -1.2865550282e-08 
2.0520396016e-08 2.2835373081e-09 -5.3960066797e-09 1.1186280145e-08 1.9548734355e-08 3.0085000688e-09 1.610238345e-08 1.2808671509e-08 5.3032258458e-10 
3.8574138044e-09 2.6940083472e-08 6.3141175032e-09 -1.1978187091e-09 2.002580755e-08 5.526249348e-09 -2.8106178609e-09 2.6613225552e-08 7.5244813217e-09 
5.3651261293e-10 1.1416340689e-08 2.8300474201e-09 -3.2313421678e-09 -4.5260115067e-09 5.6376746271e-10 -2.2787629026e-09 -3.3936762375e-09 2.5858617979e-10 
4.6752734188e-09 1.5327267604e-11 8.1107061422e-10 7.8420751336e-09 1.1846667226e-09 -1.7765909125e-10 -1.8358322241e-09 -3.1983725672e-09 7.8474304417e-10 
-3.4048198347e-09 -4.4067455104e-09 4.06326945e-10 9.3179116045e-10 -1.4131000406e-09 6.487234862e-10 7.1008759587e-09 8.7167550538e-10 4.392168131e-10 
5.8345276358e-09 1.0595191607e-09 -1.8168656829e-09 0 0 0 0 0 0 
0 0 0 -2.0199303478e-08 -2.6302454089e-09 5.8710920837e-09 1.7788252283e-08 -1.8185831681e-08 2.2033205375e-08 
1.0883967488e-09 -1.1398432993e-08 8.2118881517e-09 -1.3143165098e-08 -1.6127972854e-08 1.0442984638e-08 -1.0827339396e-05 -8.168007048e-06 -5.5272786406e-08 
1.7633323832e-08 -3.8601242861e-08 4.2909662511e-08 -1.9374142349e-06 -1.4057797201e-06 -9.1707592197e-07 -1.9690478267e-09 -1.4144747471e-08 5.0581669301e-09 
-4.5324206044e-08 -1.9914505555e-08 -1.2316097017e-08 -1.3382349736e-06 -1.3043328319e-06 9.8453821785e-07 -1.0704967877e-08 -1.3881590293e-08 8.9809285314e-09 
-9.7389495491e-09 -1.2296194164e-08 6.5434121545e-09 -6.8043361083e-09 -1.2266840308e-08 9.5568975783e-09 -2.1719778607e-08 -9.866435158e-09 1.0851126664e-08 
-2.0037157134e-08 5.0312419061e-10 8.1788591044e-09 1.2369390157e-08 -1.7275932378e-08 -2.282403822e-08 2.8722913187e-08 -2.3390344872e-08 -1.1605574923e-08 
5.2295439647e-09 -2.5274376213e-08 -3.2574520689e-08 1.1326794011e-08 -1.1907054595e-08 -1.4361249372e-09 1.464766951e-08 -2.8248615078e-08 -2.5490623176e-08 
9.3282392763e-09 -2.133827794e-08 -2.5587474676e-08 1.6979656529e-08 -1.3950129257e-08 -2.4745119533e-08 2.3625527264e-08 -8.3529234711e-09 -2.6493117085e-08 
1.6882165042e-08 4.902462792e-09 -2.5339510315e-09 -6.1005020566e-09 3.1852419424e-08 9.54311232e-09 3.346331094e-08 -7.0449704129e-09 -1.28287732e-08 
3.2932510193e-08 -9.6214305805e-09 -2.0959561215e-08 1.613375368e-08 -1.4010686257e-09 -1.1645194462e-09 3.2972354833e-08 -1.0232467319e-08 -2.1527555441e-08 
2.6418455006e-08 -1.1832425227e-08 -2.7825683506e-08 6.2200708606e-09 -2.4031107808e-08 -6.2695729396e-08 7.7064046605e-09 -2.2934287046e-08 -3.2824140812e-08 
1.843343979e-06 -1.3772642459e-06 1.0203658769e-06 2.7678322408e-05 -5.2683852482e-05 -2.6340076074e-07 2.8021318769e-05 -0.00012816341456 -1.0507900313e-07 
2.8056050607e-05 -0.00020508059525 7.7674321534e-08 2.8079551867e-05 -0.00028207309159 2.5055826702e-07 2.8097703138e-05 -0.00035911915883 4.2366429686e-07 
2.8110270304e-05 -0.0004362049322 5.9693495674e-07 2.3643229508e-05 -2.5571928704e-05 7.8378131606e-07 2.7962855127e-05 -9.0307646688e-05 -1.7623541687e-07 
2.8042656753e-05 -0.00016660873858 -9.8995874998e-09 2.8068476867e-05 -0.00024356922072 1.6414107675e-07 2.8089267903e-05 -0.00032059032765 3.3702375926e-07 
2.8104681912e-05 -0.00039765790887 5.104006389e-07 2.8114647108e-05 -0.00047475834095 6.8353943013e-07 2.8119954838e-05 -0.00057858709155 9.1680885489e-07 
2.811917344e-05 -0.0005459512489 8.4346412694e-07 2.812030289e-05 -0.00061122325868 9.9018320412e-07 -1.7184002844e-06 -0.00064385939677 1.1021312233e-06 
-3.1556789544e-05 -0.00057858696385 9.9383438562e-07 -3.1556092057e-05 -0.00054595110571 9.2037345255e-07 -3.1557110304e-05 -0.00061122314376 1.0672901994e-06 
-3.1029305616e-05 -5.2710439064e-05 -3.9320492531e-07 -3.1455958022e-05 -0.00012816713661 -2.0085859275e-08 -3.1493013653e-05 -0.00020508071036 1.5243570371e-07 
-3.1516591052e-05 -0.00028207310834 3.2609204147e-07 -3.153458681e-05 -0.0003591191824 4.9971193994e-07 -3.1547320177e-05 -0.00043620493078 6.7347359489e-07 
-2.6459688684e-05 -2.5921306354e-05 -1.8931073074e-06 -3.1371880174e-05 -9.0319479551e-05 -1.6458287431e-07 -3.1478510103e-05 -0.00016660992999 6.5130185226e-08 
-3.1505521228e-05 -0.00024356928123 2.3931229613e-07 -3.1526282454e-05 -0.00032059026229 4.1282353645e-07 -3.1541581271e-05 -0.00039765792937 5.8656775122e-07 
-3.1551627118e-05 -0.00047475834946 7.6022407148e-07 -3.1576781625e-05 -0.00051330369302 8.4712654323e-07 -3.115479123e-05 -5.2680240535e-05 -2.5569466302e-07 
-3.1499417214e-05 -0.00012813539283 -2.1236918858e-08 -3.1537620851e-05 -0.00020505506173 1.5446203648e-07 -3.1560964246e-05 -0.00028204751291 3.276884241e-07 
-3.1579091547e-05 -0.00035909355954 5.0089072675e-07 -3.1591679196e-05 -0.00043617933029 6.7422481354e-07 -2.6528975263e-05 -2.5744709278e-05 1.2276497897e-06 
-3.1456379385e-05 -9.0281750024e-05 -1.1225343929e-07 -3.1522673457e-05 -0.00016658310582 6.7756904912e-08 -3.1549932118e-05 -0.00024354376363 2.41126969e-07 
-3.157072394e-05 -0.00032056475571 4.1421329691e-07 -3.1586108908e-05 -0.0003976323842 5.8753908408e-07 -3.1595987348e-05 -0.00047473272517 7.6077988883e-07 
4.6882132203e-08 2.1058961999e-08 -1.4876520186e-08 3.5546663449e-08 -9.1509049106e-09 -3.0202281397e-08 1.4823666827e-06 -1.2394242385e-06 -1.0358549461e-06 
2.753381381e-05 -5.272451663e-05 -3.9597526776e-07 2.7969803332e-05 -0.00012813963148 -1.0668554032e-07 2.8011768637e-05 -0.00020505534085 7.5634226206e-08 
2.8035182733e-05 -0.00028204753917 2.4895663357e-07 2.805313262e-05 -0.00035909358599 4.2249350223e-07 2.8065902612e-05 -0.00043617933376 5.9616591941e-07 
2.3796043336e-05 -2.5095396077e-05 -2.0028089577e-06 2.7900700933e-05 -9.0295358002e-05 -2.2343764431e-07 2.7995876346e-05 -0.00016658434203 -1.2506014486e-08 
2.802414734e-05 -0.00024354382762 1.6233481908e-07 2.8044881349e-05 -0.0003205646902 3.3563336202e-07 2.8060215609e-05 -0.00039763240459 5.094260491e-07 
2.8070169518e-05 -0.00047473272058 6.8297573957e-07 2.8075489612e-05 -0.00057856153261 9.1674530907e-07 2.8074683612e-05 -0.00054592571134 8.4328675537e-07 
2.8075817951e-05 -0.0006111977244 9.9017740596e-07 -1.7628484596e-06 -0.00064383384634 1.1021435555e-06 -3.1601315766e-05 -0.00057856141479 9.9391672729e-07 
-3.1600495592e-05 -0.00054592560242 9.2058051425e-07 -3.160158764e-05 -0.00061119759475 1.067318714e-06 9.0946673165e-06 -7.423709589e-06 -2.0597687102e-07 
2.8095384895e-05 -0.00051330375442 7.6998877339e-07 2.8098148143e-05 -0.0006438467414 1.063577419e-06 -3.1579399731e-05 -0.00064384661785 1.1407152539e-06 
-4.3503933636e-10 3.0360045474e-12 -2.3232847377e-11 -1.8867269192e-10 8.7664758674e-12 -2.7945237123e-11 -1.8423577879e-10 9.8682079088e-12 1.9509602264e-11 
-7.2638843674e-10 9.5208031938e-12 -1.4385710538e-10 -7.3088685376e-10 -5.7177842386e-12 2.2913563737e-11 -1.7463941056e-09 -1.7909788652e-10 -2.1068737042e-10 
-1.0531177644e-09 -3.4800442389e-11 -1.0598141072e-10 0 0 0 0 0 0 
0 0 0 0 0 0 0 0 0 
0 0 0 0 0 0 0 0 0 
0 0 0 0 0 0 0 0 0 
0 0 0 -4.2816493056e-09 -7.1688266748e-09 2.2516805159e-09 -5.2790347133e-09 -5.2332251486e-09 9.6727809438e-10 
-4.5042073178e-09 -2.3314548929e-09 1.0063857136e-10 -3.9755612375e-09 -2.1371790071e-09 -2.161737819e-10 -4.5907377075e-09 -4.6081093893e-09 5.7436280162e-10 
-5.4922656134e-09 -4.86909317e-09 8.9404828487e-10 -3.124673887e-09 -8.2561312223e-09 3.1380710087e-09 -3.4260837666e-09 -8.2742044261e-09 3.2190758466e-09 
-4.1570290143e-09 -5.6035242674e-09 1.125915933e-09 -5.1314476424e-09 -8.3465637321e-09 3.4067593914e-09 -5.6351809372e-09 -7.4402692759e-09 2.5407403477e-09 
-5.9641942506e-09 -7.4720007433e-09 2.6056098578e-09 -4.9599676537e-09 -6.2090449566e-09 1.5302210628e-09 7.0970070927e-09 -1.098575142e-08 -7.7200915086e-09 
4.8909745996e-10 -1.1156733064e-08 -9.3078795066e-10 8.7000871186e-09 -6.2296879795e-09 -5.2917347438e-09 7.9606456401e-10 -9.8699534264e-09 3.3972195829e-09 
-1.149033785e-09 -3.4674506178e-10 -1.2679278114e-10 6.3672138352e-09 -1.7331769836e-08 -9.4126020495e-09 3.651860787e-09 -9.5027132135e-09 -2.7369904915e-09 
-7.5486279068e-10 -5.4282281122e-09 8.3453784187e-10 7.2062760754e-09 6.7656669543e-09 5.6115572002e-10 8.5963585762e-09 -1.2946929327e-09 -2.0107010079e-09 
-4.9897348679e-09 -1.3528062825e-08 2.6652881e-09 4.9440889647e-09 -7.1925911517e-09 -3.0057270059e-09 1.5263455991e-09 -1.3335438454e-08 -1.4817966628e-09 
-7.8419965758e-10 -9.7728213923e-09 1.4487251989e-09 9.4198240808e-09 -1.4266534702e-08 -1.5586952763e-08 1.0259172092e-08 -1.007976018e-08 -1.0583322942e-08 
-2.1472799854e-09 -2.1094624606e-09 1.0090459345e-10 7.238052676e-10 -8.0087410874e-09 7.1761497481e-11 -6.3522610952e-10 6.4593121696e-11 -1.9760595158e-10 
-2.3859625968e-09 -9.3075376008e-10 -3.1889271123e-10 -3.0259154785e-09 -3.0783623095e-09 1.8517965307e-10 -1.1452268213e-09 1.966607048e-11 -3.1012217833e-10 
-5.0063036174e-10 1.6004505164e-11 -1.2804635037e-10 -1.8845857898e-09 -3.6113370113e-10 -3.499118768e-10 -1.6015835579e-09 -9.904703246e-10 -6.4405624188e-11 
-5.6123951192e-10 -3.5798411256e-10 5.2652525433e-11 3.6165063125e-10 -5.5242204326e-09 2.6130907824e-10 -7.220296172e-10 -3.9188661616e-09 1.0279541877e-10 
-1.2542059551e-09 -1.4660306243e-09 1.56431324e-10 -1.6015653907e-09 -3.6935310085e-09 3.4369198404e-10 -2.460052395e-09 -4.5509538141e-09 6.7960031442e-10 
-8.2049732795e-10 -7.2616246368e-09 2.3513205487e-09 1.0781424355e-09 -9.158259627e-09 4.4924618009e-09 5.5149442574e-09 -1.4426744972e-08 7.8704496412e-09 
3.4467059942e-10 -7.5329336227e-09 1.9355372048e-09 -5.5396358792e-09 -8.6782763288e-09 1.072701463e-10 1.0776256667e-08 -1.6912161886e-08 -4.4406371427e-09 
-1.5892974823e-09 -1.8586641149e-08 8.7170654689e-09 -9.9398350279e-09 -1.4787930984e-08 1.4244518685e-09 -5.0502039061e-09 -1.2786194049e-08 6.8410750209e-10 
6.5204749286e-09 -1.9940434423e-08 -2.0647509113e-08 9.8133956292e-09 -1.6153220882e-08 -1.9177122169e-08 1.0955233805e-08 -1.3218923334e-08 -1.6254722693e-08 
1.2150676514e-08 -3.4033119979e-09 -5.3214473894e-09 1.163392051e-08 9.4373510705e-10 -2.4925147739e-09 1.1283920252e-08 4.9005668926e-09 -1.0243860965e-09 
7.4173020653e-09 1.1812860339e-08 1.7361664005e-09 8.071330903e-09 2.3107686748e-09 -6.5395721905e-10 1.5974911141e-09 1.7314248844e-08 4.2345058615e-09 
5.4052048806e-09 -1.4718127263e-09 -2.0775578425e-10 5.1040377741e-09 -3.2619440374e-09 -7.7630287155e-10 1.1759833773e-09 1.2310547383e-08 2.9330912721e-09 
3.9607793425e-09 3.6203552484e-09 3.6671086983e-10 1.1983671725e-08 -2.2525275273e-08 -1.0503374992e-08 7.342730959e-09 -2.4203595279e-08 -1.7190706525e-08 
6.3325502118e-09 -1.5821166705e-08 -5.233548202e-09 6.8359754836e-09 -1.6844847673e-08 -1.3677796701e-08 1.1671862873e-08 -1.1025919024e-08 -1.3577628775e-08 
1.2291061392e-08 -7.8132221256e-09 -9.8648020218e-09 9.7946014006e-09 -1.2259975882e-08 -1.2732042236e-08 1.1853869325e-08 -5.8799199161e-09 -7.3005497227e-09 
8.5634254869e-09 -3.9847140766e-09 -3.4665919633e-09 9.5369803859e-09 -8.1171465128e-09 -7.7054222302e-09 -1.3245698088e-10 -7.8534531876e-09 1.5867437018e-09 
5.638177325e-10 -7.3248762847e-09 1.4223401157e-09 1.1905788655e-09 -6.767293929e-09 1.8859248827e-10 -1.6503075721e-10 -6.9558478786e-09 8.6580338974e-10 
-5.3668244842e-10 -7.7358629908e-09 1.1855469793e-09 -2.6150082044e-10 -9.996589798e-09 2.5065761764e-09 -2.1943626595e-10 -8.8150128718e-09 6.8790604511e-10 
4.1603481246e-09 -5.6386686094e-09 -1.2454283808e-09 3.3073752676e-09 -6.3445412369e-09 -1.0242075766e-09 2.5581590839e-09 -7.3768398287e-09 -1.0385005847e-09 
4.3928431733e-09 -8.3238279198e-09 -2.9726307217e-09 2.1363861833e-09 -8.6184481187e-09 -1.125646587e-09 5.5823325471e-09 -5.2473277494e-09 -2.3248746487e-09 
6.5937385146e-09 -6.7957302752e-09 -4.2373393926e-09 -4.525381316e-10 -1.289774505e-08 3.8015798621e-09 7.8512137364e-09 -8.5015639032e-09 -6.5505150422e-09 
6.0228353364e-09 -8.9998574436e-09 -5.1341637878e-09 8.6713093524e-09 -1.0608973999e-08 -9.3105069756e-09 6.4292173355e-09 -1.3934224127e-08 -8.5994117549e-09 
4.6870543602e-09 -1.271661471e-08 -5.349947151e-09 5.4641788547e-09 -1.0256167657e-08 -5.1194591266e-09 8.3775631504e-09 -1.2784871056e-08 -1.1191597432e-08 
4.0085508848e-09 -1.3449630144e-08 -4.2519257484e-09 2.4525785736e-09 -1.0401601413e-08 -2.0099848588e-09 6.2978454238e-10 -1.2642530938e-08 -1.3593386693e-09 
7.3988626734e-10 -9.7290970199e-09 -4.7269184555e-10 -2.5328589862e-09 -1.1893173673e-08 8.2333831399e-10 -2.2615960954e-09 -1.1829052961e-08 1.9556040612e-09 
-7.6618480602e-10 -1.0435984957e-08 4.7340956515e-10 1.4591864827e-08 -2.6338861566e-09 -7.9112114677e-09 1.6788005388e-09 -2.2952386337e-09 -3.777026992e-10 
1.4378647305e-08 -8.9974732882e-10 -5.7451728451e-09 -5.5155759765e-09 -7.5203004705e-09 3.348481473e-09 -1.4740066331e-09 -4.817013132e-10 3.2779393419e-11 
1.5581756431e-08 -2.3513066102e-09 -8.485568306e-09 7.6984009612e-09 -2.0391766987e-09 -2.87863642e-09 -3.7551413588e-09 -5.1909592329e-09 1.5010559038e-09 
1.0829834319e-08 9.420664052e-09 4.2492190529e-10 1.281785e-08 1.91982729e-09 -2.4943646328e-09 -9.262681752e-09 -5.17509787e-09 4.6108372564e-09 
1.0052837644e-08 -5.1123234561e-10 -3.1467232581e-09 3.2332367406e-09 7.4650069388e-10 -2.6109765136e-10 -3.1036249731e-09 -4.9322780328e-09 1.7163162667e-09 
2.1329413234e-08 -5.5202676596e-09 -1.5562151791e-08 1.8473599082e-08 -3.3589657486e-09 -1.0867375449e-08 -3.334550869e-09 -2.3870686217e-09 3.6859674655e-10 
1.7983210141e-09 -2.7872545806e-09 -9.5915182322e-12 -6.1309385008e-10 -9.6456607358e-12 7.6133867948e-11 -4.5163253784e-09 -3.4851732781e-09 6.4535341222e-10 
-2.9638145258e-09 -1.2128148914e-09 9.9899618038e-11 -1.2185783913e-09 -1.53721059e-10 6.3710272206e-11 -2.1701209486e-09 -6.0689372542e-10 3.5205908516e-11 
-5.4018697937e-10 -7.0494233295e-11 2.0382812565e-11 -2.2849620721e-09 -1.1575212839e-09 1.4125281732e-10 -1.0164392888e-09 -3.9853377268e-10 2.9407048885e-11 
-2.2978771117e-09 -3.6115012406e-09 7.8205993944e-10 -2.8185826847e-09 -4.6116245352e-09 1.2510233869e-09 -2.1814008889e-09 -1.4327211254e-09 1.4408033135e-10 
-3.5963198795e-09 -3.6136399235e-09 8.1601246312e-10 -5.7227276089e-09 -7.3333818791e-09 2.9188921812e-09 -4.7491621758e-09 -4.8414895387e-09 1.2183369307e-09 
-7.7897678314e-09 -1.0014580995e-08 5.7771050113e-09 -6.1740514486e-09 -8.8114838625e-09 4.6147707115e-09 -4.307533954e-09 -6.3767221597e-09 2.4141144499e-09 
1.6151044223e-08 1.9648092334e-09 -5.998637647e-09 -5.5782666484e-09 3.29690228e-09 4.4214548607e-09 -1.4203216113e-08 -3.5731359375e-09 7.5847074089e-09 
-1.3171742907e-08 -9.4844546425e-09 7.5075640726e-09 -5.2360157148e-09 -2.0098093457e-09 2.8795888726e-09 2.4068019836e-08 -6.7492175025e-09 -2.0699370261e-08 
2.5626842498e-08 -6.7131122595e-09 -2.060318249e-08 2.1870388736e-08 -5.7078875869e-09 -1.6774763243e-08 1.6080200838e-08 4.1883356733e-09 -2.5505584891e-09 
1.7583030526e-08 6.709002264e-10 -5.4591742002e-09 1.09173847e-08 1.4387148052e-08 1.7765130097e-09 1.5381873912e-08 7.7474001652e-09 -9.4341348727e-10 
1.1944544927e-08 5.3140080352e-09 -9.9036353627e-10 4.9181826989e-09 1.9808064728e-08 4.2280351429e-09 8.7953742378e-09 8.4922062466e-10 -2.2139645199e-09 
8.3072538821e-09 1.4855536798e-10 -1.7168277708e-09 6.9012836504e-09 5.8899478931e-09 1.7523530019e-10 4.4325680073e-09 1.4875767634e-08 3.0384766958e-09 
2.5103324283e-08 -4.8826810054e-09 -1.7199918808e-08 2.1081857373e-08 -1.6785301246e-09 -1.2399680523e-08 1.0918539693e-08 -7.7224805685e-10 -5.0804878658e-09 
1.9421294803e-08 -4.3162042126e-09 -1.261689159e-08 1.9531225754e-08 -2.4411142607e-09 -1.0055663896e-08 2.0759738899e-08 -4.5125548086e-09 -1.3916560873e-08 
1.9680474406e-08 -4.4270227215e-09 -1.3041040178e-08 1.3402745387e-08 2.5558667762e-10 -4.0978658343e-09 1.8081073528e-08 -1.0255236317e-09 -7.4869419292e-09 
1.6410998723e-08 -2.0854344166e-09 -8.0920425017e-09 -4.0922636202e-09 -5.575007843e-09 1.8514677777e-09 -3.9817877365e-09 -5.3830401778e-09 1.6607677353e-09 
-4.3782166196e-10 -3.153357782e-09 6.1422875846e-10 3.348216123e-09 -1.6213506237e-09 2.0456627719e-10 -4.8650561572e-09 -6.4194948275e-09 2.5646301403e-09 
-2.4307196022e-09 -4.3376478538e-09 1.0506694924e-09 -7.1170539492e-10 -3.8055701072e-09 7.6535528354e-10 7.5493723776e-09 -1.4257459197e-10 -9.450492708e-10 
8.7509464412e-09 5.0985334118e-10 -1.6139777938e-09 9.1215080466e-09 -1.2483737689e-09 -3.1059248069e-09 5.9367200054e-09 -1.3367443021e-09 -1.0027596486e-09 
4.7141402981e-09 -2.2704181466e-09 -1.1893305819e-09 1.0030891233e-08 1.3268103085e-10 -3.1598701988e-09 1.1926492497e-08 -7.5326879977e-10 -4.6030382992e-09 
-7.0848225954e-09 -7.4555692499e-09 4.0979024947e-09 1.2177028071e-08 -1.5192913944e-09 -5.3081968377e-09 1.4311840802e-08 -1.8213359497e-09 -6.8824955627e-09 
1.6627061751e-08 -3.0746853534e-09 -9.5290852761e-09 1.1407655374e-08 -2.1326138879e-09 -5.2780712264e-09 1.0751559971e-08 -2.0459073737e-09 -5.146284736e-09 
1.4831933174e-08 -2.9415159011e-09 -8.4863993668e-09 1.7975737641e-08 -3.897341249e-09 -1.1324649764e-08 5.3143260103e-09 -2.2116342432e-09 -1.9105985522e-09 
8.3908238152e-09 -1.5739846776e-09 -3.8670362819e-09 2.1321871964e-09 -1.2356761233e-09 -4.6741409188e-10 1.7221896622e-09 -2.9400840219e-09 -1.7588430312e-10 
-3.7527808121e-09 -3.3192379947e-09 2.1545674747e-09 -1.4647337332e-09 -3.6950552442e-09 1.092134322e-09 -5.5413154321e-09 -5.2468194232e-09 2.9442618522e-09 
4.7285314039e-09 -2.2888732122e-09 3.943710442e-10 7.0643101667e-10 -3.8679472576e-09 8.9870812541e-10 -1.7140011884e-09 -5.3792099235e-09 5.8475737626e-10 
4.7967069327e-09 -1.1918988408e-09 1.1682641784e-12 -8.3878786803e-10 -4.2668738833e-09 3.0603992696e-11 -2.9507616794e-10 -2.4972607749e-09 -6.9378745277e-11 
1.4565370606e-10 -2.6353062971e-09 -3.0807538298e-10 -2.630704543e-10 -5.1045455153e-09 -2.4204158771e-10 -8.6569380141e-10 -2.306288065e-09 1.6205732993e-10 
-2.0586067589e-09 -4.5274714679e-09 3.4073973586e-10 4.4038604373e-09 -2.7140082225e-09 2.299392374e-10 2.7702797924e-09 -3.7776110732e-10 3.2698455656e-10 
2.7716253759e-09 -2.9435578995e-10 9.3747357161e-11 3.8756283704e-09 1.2997253135e-09 9.408352931e-11 6.7284734552e-09 -1.1867893204e-10 -2.27202843e-10 
-7.8851599824e-10 -5.9951496693e-09 1.6776912967e-10 -8.4107897011e-10 -6.1121823577e-09 7.4451200953e-10 -1.4812963441e-09 -5.1565253446e-09 3.4452584485e-10 
-2.211861399e-10 -5.5553807594e-09 9.8918385897e-10 1.4294452249e-09 -4.681157993e-09 8.7623743926e-10 -9.9355343997e-10 -4.8029125777e-09 8.7610853157e-10 
3.0841133986e-09 -4.1524007401e-09 5.3764714219e-10 4.3568071863e-09 -3.5340361045e-09 2.7025145815e-10 2.9227804739e-09 -3.0209725067e-09 5.9972762474e-10 
5.491624244e-09 -1.788018141e-09 5.3782706086e-11 -2.1885224188e-09 -4.3805703929e-09 5.2221234123e-10 -2.6027534959e-09 -4.9697176207e-09 4.5787672958e-10 
2.2614434877e-09 -1.7320352578e-09 7.9492978583e-10 -5.5305543307e-10 -3.1731411619e-09 7.2632947143e-10 6.5567864378e-09 -5.7079061463e-10 1.7313347253e-10 
4.9046226181e-09 -9.3805740729e-10 5.9844753007e-10 1.8931282709e-09 -1.1398324876e-08 8.5051221837e-09 1.639338122e-08 -1.8240527798e-08 2.2087395045e-08 
-9.2110938374e-09 -1.5882288847e-08 1.047595745e-08 -9.7558451153e-09 -1.4433957393e-08 6.3386536689e-09 1.8492468459e-08 -2.7656605029e-08 3.2925823223e-08 
-1.566052567e-06 -1.3335012409e-06 -3.3790437306e-07 -7.2079582582e-09 -1.1682711614e-08 9.6286195134e-09 -9.6456330718e-09 -1.1538152764e-08 6.7876696058e-09 
-1.8702824055e-08 -8.9181859187e-09 1.0545343874e-08 9.2395561988e-09 -1.6384686781e-08 -2.224883051e-09 2.4087434981e-08 -2.4661945457e-08 -1.1857150419e-08 
8.5700102266e-09 -2.1546268336e-08 -2.5615320905e-08 4.3366082697e-09 -2.5916213407e-08 -3.2186605213e-08 1.2555142453e-08 -2.8282576733e-08 -2.523539512e-08 
1.7130281099e-08 -1.0346939067e-08 -1.9140776528e-08 1.7893456694e-08 -6.1856711119e-09 -1.3015380272e-08 1.7934472062e-08 -5.0101574587e-10 -6.4421602304e-09 
1.5218449435e-08 -1.3525328277e-08 -2.1190673193e-08 1.4475345086e-08 -1.4088462174e-08 -2.1058264244e-08 1.5254573897e-08 -1.1206986849e-08 -1.7801602098e-08 
1.88633527e-08 2.8714574951e-09 -4.3044318852e-09 1.6356780752e-08 1.1722984213e-09 -4.48118363e-09 1.6572445392e-08 -2.8274389596e-09 -7.7198614685e-09 
2.2192057231e-08 -7.3684758733e-09 -2.0894677907e-08 1.9479898675e-08 -8.0942704694e-10 -7.6452915666e-09 1.913140381e-08 -1.0039492076e-08 -2.2305282577e-08 
1.9851681985e-08 -7.6980440131e-09 -1.805595035e-08 1.6308192842e-08 -5.8560866013e-09 -1.0953870479e-08 1.5868997486e-08 -8.9281596451e-09 -1.4796327247e-08 
1.759621961e-08 -8.2663286224e-09 -1.6027782939e-08 1.8030121124e-08 -3.5349457812e-09 -9.5918464779e-09 1.970726476e-08 -3.4272161266e-09 -1.0943937108e-08 
1.9806168064e-08 -5.9420009804e-09 -1.4936201676e-08 1.4109875038e-08 1.1585646963e-08 4.3566483205e-10 9.4691795038e-09 1.8280555788e-08 2.9696821706e-09 
2.1793501201e-09 2.5696894295e-08 6.3074463035e-09 -8.1775102778e-10 1.019784934e-08 2.6837770405e-09 -4.4833599376e-09 2.5369151818e-08 7.5352188978e-09 
-6.1195781231e-09 2.7990339721e-08 8.5439215003e-09 -4.4648088013e-09 2.9238233568e-08 8.5326348695e-09 -4.5084690602e-09 2.1486188334e-08 6.5343343747e-09 
-3.2066759599e-10 5.4285765684e-09 1.2074000974e-09 -6.1866819715e-10 4.9616801503e-09 1.2049977924e-09 -2.6390628763e-09 1.389661731e-08 4.0925402118e-09 
-2.8365043707e-09 2.2725320742e-08 6.529534113e-09 2.0936320119e-10 5.8605807969e-09 1.2969044717e-09 -9.7628272618e-10 1.5163955903e-08 4.1506344844e-09 
-2.8648920611e-09 1.8851075526e-08 5.5257469598e-09 1.2232475709e-08 -3.0069304547e-09 -8.2020352541e-10 2.6524475721e-08 -9.6585641969e-09 -2.7992935872e-08 
2.948893539e-08 -5.5070615313e-09 -1.271427412e-08 3.1392151173e-08 -8.5948831025e-09 -2.1186108124e-08 3.0717988639e-08 -8.6190891854e-09 -2.14779653e-08 
-2.4878179452e-06 -1.8277451185e-05 -5.4170120757e-07 -2.8359905453e-07 3.195281666e-09 -2.2566456704e-07 -2.8320376651e-07 -3.1017802159e-07 -3.4397707041e-07 
-1.7184933325e-06 -0.00047475790051 7.218816069e-07 -1.7184793194e-06 -0.00024356792724 2.016659067e-07 -1.7176993269e-06 -0.00016660722446 2.6578673966e-08 
-1.7184863488e-06 -0.00032058925006 3.7494665287e-07 -1.7184714419e-06 -0.00039765720645 5.4847039486e-07 -1.7073353107e-06 -9.0286873584e-05 -1.789108849e-07 
2.2856412432e-07 -6.80696996e-09 1.5173369506e-07 -1.7184592052e-06 -0.000545951007 8.8193582597e-07 -1.7184157147e-06 -0.00061122315515 1.0287315772e-06 
2.467881618e-08 -2.5178768695e-08 3.839481039e-08 7.0187887379e-08 -1.4927173826e-08 2.8569190543e-08 3.7574234813e-08 9.0975835583e-09 1.9685516735e-08 
-8.226605918e-08 3.0238400142e-08 -5.403049073e-08 -3.1569027786e-08 -1.616575806e-08 -2.0665593334e-08 -8.147889727e-08 1.684670182e-08 -7.3628999943e-08 
-4.0158073214e-07 -8.165508583e-08 -2.521944174e-07 7.3402477736e-08 -1.1031341541e-07 2.4968650278e-08 -7.8047822174e-08 -1.5458501894e-08 -5.7744073115e-08 
-2.7977425414e-06 -1.818025523e-06 -1.6120796986e-06 -1.0506534458e-05 -1.0391320126e-05 -2.0764005195e-06 -1.6606155627e-05 -3.5345861092e-05 -5.0525253974e-07 
-3.9361965244e-06 -2.954816732e-06 -1.8545710802e-06 -1.8371537088e-06 -5.382627026e-06 -6.4324574126e-07 5.4088587312e-09 -2.4586261452e-08 -4.6436493448e-08 
2.2501523788e-06 -1.5867965135e-06 1.0648972254e-06 1.5994786536e-07 -3.8363301856e-08 8.7165928571e-08 1.2393779756e-05 -3.5373559e-05 -3.4572790626e-07 
7.3271422783e-06 -9.6353636456e-06 8.4565045143e-07 2.2123565034e-06 -1.8660609428e-06 9.8423127936e-07 -1.7184518891e-06 -0.00051331615214 8.0855766671e-07 
-1.6635805255e-05 -0.00049403660011 7.8439435157e-07 1.3198806054e-05 -0.00049403661839 7.4603226528e-07 1.3199946442e-05 -0.00052963350019 8.2602764269e-07 
-1.6636912081e-05 -0.00052963344558 8.6446069633e-07 1.3200530435e-05 -0.00056226893686 8.9937807636e-07 1.3196977656e-05 -0.00045548059688 6.5940952881e-07 
-1.6637766577e-05 -0.00062754127796 1.084722465e-06 1.3200951186e-05 -0.00062754133744 1.0461504862e-06 1.3200858297e-05 -0.00059490506851 9.7275714317e-07 
-1.6637696108e-05 -0.00059490501036 1.0112909557e-06 -1.6637422789e-05 -0.00056226886858 9.3787549815e-07 -1.6633967035e-05 -0.00045548060091 6.9768501915e-07 
2.5076407538e-08 -2.7441973058e-08 -3.1135099318e-08 -1.7184496897e-06 -0.0005785868965 9.5532058723e-07 1.314953387e-05 -0.00010921282587 -1.3558125151e-07 
1.3066642442e-05 -7.1416562522e-05 -2.3658897398e-07 -1.705215779e-06 -5.2628193124e-05 -3.358577766e-07 -1.6462059919e-05 -7.1418314662e-05 -2.6165253551e-07 
1.3165772408e-05 -0.00018584102205 5.2732143103e-08 1.3158216249e-05 -0.00014737930073 -3.8149751802e-08 -1.7162075229e-06 -0.00012815831469 -6.579842975e-08 
-1.6592809471e-05 -0.00014738107386 1.3928344001e-09 -1.6573809434e-05 -0.00010921768967 -9.5452496361e-08 1.317777224e-05 -0.0002628183828 2.2614354413e-07 
1.3171919691e-05 -0.0002243218981 1.3960471097e-07 -1.718422372e-06 -0.00020507906375 1.1494924729e-07 -1.6608905682e-05 -0.00022432194838 1.7710353498e-07 
-1.6602088929e-05 -0.00018584138344 9.0081207612e-08 1.3187505637e-05 -0.00033985261443 3.9931953102e-07 1.3182968596e-05 -0.00030132932606 3.1272566981e-07 
-1.7184750991e-06 -0.00028207187992 2.8832202997e-07 -1.6614763424e-05 -0.00026281840581 2.6386663012e-07 -1.6619994378e-05 -0.00030132932138 3.5053530726e-07 
1.3194464756e-05 -0.00041692998428 5.7274964735e-07 1.3191393071e-05 -0.00037838684286 4.8606113693e-07 -1.7184959945e-06 -0.00035911826273 4.6169339577e-07 
-1.6624417878e-05 -0.00033985261185 4.3729159974e-07 -1.6628300036e-05 -0.0003783868525 5.2409087316e-07 -1.718457219e-06 -0.00043620434464 6.3518646269e-07 
-1.663144867e-05 -0.00041692998196 6.1093515713e-07 -2.6714167742e-05 -2.6020238143e-05 -4.2521064919e-07 -3.1103011523e-05 -5.2721284426e-05 -3.2053806103e-07 
-3.1573842803e-05 -0.0004747455833 7.6049456136e-07 -3.1569508942e-05 -0.00043619219235 6.7385180231e-07 -3.1418324051e-05 -9.030586925e-05 -1.3807619692e-07 
-3.1500753447e-05 -0.00016659663269 6.6462421364e-08 -3.1515325613e-05 -0.00020506809133 1.534486245e-07 -3.1479092e-05 -0.0001281526901 -1.9985625932e-08 
-3.1527769227e-05 -0.00024355667439 2.4023036837e-07 -3.1538788307e-05 -0.00028206044526 3.2689046095e-07 -3.1548505851e-05 -0.00032057762148 4.1352497309e-07 
-3.1556849194e-05 -0.00035910646663 5.0030085783e-07 -3.1563880831e-05 -0.00039764523786 5.8706029665e-07 -2.6415542791e-06 -1.8398733177e-05 -4.2389668605e-07 
-7.2329635241e-08 6.4927811488e-08 5.5031050289e-08 -1.4092499689e-07 -2.9533944167e-07 1.1871089348e-07 -1.762928394e-06 -0.00047473232616 7.2188098755e-07 
-1.7629223073e-06 -0.00024354241216 2.0168010648e-07 -1.7629278229e-06 -0.00032056367991 3.7494121146e-07 -1.7629430838e-06 -0.00039763163864 5.4846629464e-07 
-1.7637995794e-06 -0.00016658109319 2.6609549731e-08 -1.7751368665e-06 -9.0272221067e-05 -1.7883149801e-07 1.3130320435e-07 -4.7154478893e-08 -1.2414926887e-07 
-1.7629141915e-06 -0.0005459254616 8.8194536998e-07 -1.7628764436e-06 -0.00061119760673 1.0287407914e-06 -2.2811207689e-08 -1.5431695097e-08 1.0317425979e-09 
-2.8336116914e-06 -2.0955883558e-06 1.3665552347e-06 -2.0115214775e-08 1.8395224812e-08 4.3044323943e-08 -1.6735193713e-05 -3.5379490061e-05 -3.5968847046e-07 
-1.0106011196e-05 -1.0288258687e-05 1.4148466853e-06 -1.6096877199e-06 -5.4539448223e-06 4.4527212169e-09 -3.947756695e-06 -2.7313041719e-06 1.6108157166e-06 
-1.5556788996e-07 -1.2140176316e-07 7.5076915037e-08 4.4482560275e-08 -2.0276440791e-09 -3.0852670253e-08 7.8181396175e-08 -1.7050181964e-08 -4.2579260022e-08 
-2.6947310085e-08 9.7881170773e-11 2.791105382e-08 -6.8587382347e-08 2.3407723002e-08 1.9114622036e-08 -6.1803019709e-08 -4.4393036661e-08 8.2608874241e-09 
1.6400574689e-07 -1.5450509321e-07 -5.1801716794e-08 4.2046914636e-08 3.2467077676e-09 -2.1622278639e-08 1.3154366416e-05 -0.00049401104502 7.4581916661e-07 
-1.6680208034e-05 -0.00049401104057 7.8461528732e-07 -1.7629511457e-06 -0.00051329060388 8.0856418011e-07 -1.668133582e-05 -0.00052960790089 8.646067453e-07 
1.3155500988e-05 -0.00052960795281 8.259007359e-07 -1.6678391974e-05 -0.00045545499737 6.9802584289e-07 -1.6681894642e-05 -0.00056224332904 9.3793999124e-07 
7.5121434699e-08 -1.3845772083e-08 -5.6347299913e-08 2.3371573705e-06 -1.6083811523e-06 -1.2830170375e-06 7.5700956679e-06 -9.6499764208e-06 -1.5965672249e-06 
1.2299379523e-05 -3.5372444833e-05 -4.6860690064e-07 2.5392529811e-06 -1.7809087602e-06 -1.2379541071e-06 1.3156085568e-05 -0.00056224339151 8.9933511507e-07 
1.3152554401e-05 -0.0004554550015 6.5905724942e-07 1.315649905e-05 -0.00062751578834 1.0461689494e-06 -1.6682232427e-05 -0.00062751572255 1.0847287225e-06 
1.3156390412e-05 -0.00059487952647 9.7274229842e-07 -1.6682171787e-05 -0.00059487946243 1.011328785e-06 4.5188791829e-08 -8.9573130456e-09 -2.7665995101e-08 
-1.662816755e-05 -0.00010918933739 -9.6736749226e-08 -1.6568611284e-05 -7.1405404858e-05 -2.1880172059e-07 -1.7960600298e-06 -5.261551353e-05 -3.4360678596e-07 
1.3008332618e-05 -7.1415028571e-05 -2.7498167211e-07 -1.6647052958e-05 -0.00018581540461 9.1167813976e-08 -1.6638554148e-05 -0.00014735311194 2.147661211e-09 
1.3110008559e-05 -0.00014735455029 -3.9327599253e-08 -1.7652598447e-06 -0.00012812963201 -6.5703576677e-08 1.3087272704e-05 -0.00010919187805 -1.3567526027e-07 
-1.6659202621e-05 -0.00026279285357 2.6469073264e-07 -1.6653362577e-05 -0.00022429640479 1.7807469992e-07 1.3127519725e-05 -0.0002242965 1.3862776276e-07 
-1.7629831756e-06 -0.00020505363539 1.1495105333e-07 1.3120479202e-05 -0.00018581571238 5.1564603812e-08 -1.6668945151e-05 -0.00033982703175 4.379218905e-07 
-1.6664356421e-05 -0.00030130376466 3.5129998062e-07 1.3133392069e-05 -0.00026279286294 2.2531624565e-07 -1.7629431179e-06 -0.0002820463287 2.8832107721e-07 
1.3138581876e-05 -0.00030130375523 3.1196094281e-07 -1.6675939242e-05 -0.00041690440529 6.1135508628e-07 -1.667275532e-05 -0.00037836127474 5.2465071351e-07 
1.3143029582e-05 -0.000339827033 3.9869870865e-07 -1.7629183203e-06 -0.00035909269431 4.61682659e-07 1.3146837223e-05 -0.00037836128807 4.8550721701e-07 
-1.7629622592e-06 -0.0004361787592 6.3520287286e-07 1.3150088488e-05 -0.00041690440592 5.7232145702e-07 -1.762879623e-06 -0.00057856135318 9.5533741648e-07 
1.7843503396e-08 -1.7503521855e-08 -2.9255292198e-08 -2.1794827651e-08 -3.1880555043e-08 -7.2584368676e-08 1.4625635521e-06 -1.3917487995e-06 8.8016824308e-08 
2.3761704714e-05 -2.556979444e-05 -5.5343345985e-07 2.7621776855e-05 -5.2738240914e-05 -3.3539588195e-07 2.8092442684e-05 -0.00047474557988 6.8326435666e-07 
2.8088097806e-05 -0.00043619219376 5.9654817565e-07 2.7996195725e-05 -0.00012815254009 -1.0595263784e-07 2.7941356868e-05 -9.0303859784e-05 -1.9670154799e-07 
2.8033894621e-05 -0.00020506815056 7.6663759114e-08 2.8019669662e-05 -0.00016659680215 -1.094278241e-08 2.8046350151e-05 -0.00024355667676 1.6322338993e-07 
2.8075430307e-05 -0.00035910647242 4.2307572717e-07 2.806711049e-05 -0.00032057762345 3.3633377498e-07 2.8057373689e-05 -0.00028206044765 2.497567335e-07 
2.8082447508e-05 -0.00039764523457 5.0990635283e-07 2.8096955671e-05 -0.00054593849359 8.4336938222e-07 2.8098069434e-05 -0.0006112104925 9.901792783e-07 
2.809772823e-05 -0.00057857432016 9.1677684044e-07 -1.7406259208e-06 -0.00064384662054 1.1021389166e-06 -3.1579359094e-05 -0.00061121037008 1.0673066768e-06 
-3.1579060291e-05 -0.00057857419739 9.9387399718e-07 -3.1578318229e-05 -0.00054593836901 9.2047992631e-07 1.6221562974e-09 2.1199829074e-08 5.244942122e-09 
3.2983561364e-09 2.246084256e-08 5.2427502404e-09 1.4086477744e-09 -5.3846881165e-09 1.8853800233e-10 1.3961016649e-09 -6.3517611746e-09 -1.4001119309e-10 
-8.5545876037e-10 -7.1773412242e-09 9.6821290479e-10 -3.0387645654e-10 -6.3134432421e-09 8.4205270703e-10 1.2020117946e-09 -3.447774976e-09 5.1002025492e-10 
7.9248132279e-10 -5.8783140386e-09 5.7887541383e-10 -6.6613450145e-10 -4.5435505844e-09 8.7846075376e-10 3.5777017114e-09 -5.4019051872e-09 -9.6661260574e-10 
-1.7255377493e-09 -7.4055549294e-09 1.654151739e-09 1.3204659287e-09 -6.8858866647e-09 -3.7566861659e-10 -2.852650517e-10 -6.7832398698e-09 9.3539443162e-10 
3.9840134033e-09 -6.351810039e-09 -1.7206302192e-09 2.3975278206e-09 -6.1461983907e-09 -3.4545519566e-10 5.8580313042e-09 -5.7126554667e-09 -2.5821239064e-09 
6.4546670873e-09 -7.6355365039e-09 -3.539672778e-09 -3.5607005803e-09 -8.6758085647e-09 2.4373683664e-09 1.4823148117e-09 -7.1334234282e-09 -4.4091572891e-10 
8.4278769424e-09 -8.5821914782e-09 -4.7878973594e-09 2.2076173661e-09 -6.9171218835e-09 -6.7445624898e-10 -1.0448819569e-09 -7.1101612367e-09 1.3162962277e-09 
-2.3814339594e-09 -5.3549858434e-09 1.3298573423e-09 7.8649362709e-09 -7.4309668994e-09 -4.8140156487e-09 -2.8650164716e-09 -7.912210182e-09 1.7064775103e-09 
3.5742566168e-09 -3.1927628199e-09 -3.8449663933e-10 1.331601531e-08 -2.0711042192e-08 -1.0402239558e-08 1.1539337811e-08 -1.5477201585e-08 -4.3078633825e-09 
1.3312325287e-08 -7.0385370946e-09 -4.0741902912e-09 -4.581628454e-09 -7.8219603898e-09 2.2925713519e-09 5.310125856e-09 -3.8343914012e-09 -1.1538717383e-09 
6.8747150156e-09 -3.5101830182e-09 -2.2620914292e-09 7.5234766818e-09 -9.2198945254e-10 -1.5532369131e-09 9.3249719038e-09 -3.8100236581e-09 -4.3239450685e-09 
7.5130732883e-09 -3.9334288526e-09 -2.9679963275e-09 7.9593596437e-09 -1.9219520447e-08 -2.0705557137e-08 8.3606185045e-09 -2.2420069349e-08 -1.7200287542e-08 
1.0392356529e-08 -2.1560030196e-08 -3.159037027e-08 1.4181828417e-08 -1.570306627e-08 -1.5002210818e-08 1.3290340475e-08 -1.6133195299e-08 -1.9383115495e-08 
-2.7643748099e-09 -8.2019826333e-09 2.4392459551e-09 2.8027065392e-08 -1.5796756272e-08 -9.1824968209e-09 1.5979809129e-08 -5.8347683473e-10 -5.4436676354e-09 
1.399399681e-08 -1.4126100673e-08 -9.9327870415e-09 1.1128868108e-08 -9.8431626325e-09 -8.0632479964e-09 4.1287039744e-09 -5.6699663251e-09 -1.2476076956e-09 
6.1355467679e-09 -2.4474929945e-09 -1.2844996474e-09 1.0756252971e-08 -8.6052584441e-09 -8.2001028917e-09 8.4826232888e-09 -6.2030388304e-09 -4.9380941502e-09 
9.0527808644e-09 -5.3478022355e-09 -5.0291397833e-09 1.7532369507e-08 -2.1260637069e-08 -2.2889171533e-08 -9.7582690505e-10 -7.3639934889e-09 1.6484577319e-09 
7.1789803168e-09 -1.4665664464e-09 -1.2419366822e-09 6.8346773332e-09 -4.8297281994e-09 -2.9011760759e-09 -6.6689314198e-09 -9.7202210272e-09 3.6902437287e-09 
2.5161999984e-08 -7.7579229399e-09 -2.0361057517e-08 1.2721521878e-08 -1.0999762407e-08 -1.2197635009e-08 2.3902178885e-08 -5.8033040164e-09 -1.6754012047e-08 
9.0867813598e-09 -9.9662464453e-10 -2.8325157417e-09 1.1520069059e-08 -3.5295811006e-09 -5.3987863703e-09 1.4423085318e-08 -1.0689638041e-08 -1.4980767128e-08 
2.0975899477e-08 -3.4205305061e-09 -1.2200434124e-08 4.874953434e-09 -4.6425348954e-09 -1.2358348579e-09 1.0770917198e-08 -6.9163052527e-09 -7.5669579505e-09 
1.1038261987e-08 -5.1798805691e-09 -6.5282882204e-09 2.5460125321e-09 -5.1769241384e-09 4.7612604598e-11 3.9119283794e-09 -2.2843720941e-09 3.9341775379e-11 
-2.0313986027e-09 -7.019797182e-09 2.0517231427e-09 -2.2324468512e-09 -5.2954448422e-09 1.0298832391e-09 -2.0360476909e-09 -4.5576497747e-09 8.4409169639e-10 
-6.3627416827e-10 -4.9261760819e-09 3.4075704262e-10 -6.3735468673e-10 -6.6969436061e-09 1.2756015841e-09 -3.8671307628e-09 -1.0442557064e-08 3.5840229387e-09 
-6.9294506266e-10 -2.0671727399e-10 -3.3535742358e-11 -5.8036881381e-10 -1.7530964664e-10 -4.5157740242e-11 -2.5032069257e-09 -8.7816146516e-09 3.1427511137e-09 
-2.8092374383e-09 -5.8559554305e-09 1.5573471255e-09 1.2748155804e-08 -8.7194661546e-09 -1.1074819762e-08 1.2849799566e-08 -5.1250824511e-09 -7.7423101581e-09 
1.2477007428e-08 -6.9201463481e-09 -9.1953113367e-09 -3.1878577836e-09 -6.1488033673e-09 1.7251369996e-09 6.0478277894e-09 -1.7784992159e-09 -8.0856175864e-10 
1.0907112967e-08 -1.7643738133e-09 -3.6910937483e-09 1.3224887904e-08 -3.4644408635e-09 -6.0743729798e-09 1.3367703688e-08 -6.2443258979e-09 -9.0148361268e-09 
1.6849195342e-08 -3.5496181051e-09 -9.1213280344e-09 1.6072291691e-08 -1.2311003611e-09 -6.1768815991e-09 -2.0211047988e-09 -5.4831840805e-10 -1.8254951319e-10 
-1.2902252548e-09 -4.4749283505e-10 -9.6323582218e-11 -1.940907748e-09 -1.1448606252e-09 -3.2675856627e-11 1.4105514782e-08 -6.7964016396e-09 -1.0544648433e-08 
-1.2658085815e-08 -1.021834181e-08 4.0064781713e-09 -6.7690031864e-09 2.2488128906e-09 4.5976992487e-09 -6.5219325707e-09 -5.8803127466e-09 1.7595087209e-09 
-2.3758598647e-09 -2.927767848e-08 -4.6314136093e-08 1.5279082129e-08 -1.689688238e-08 -2.5850362209e-08 1.3399919868e-08 -8.6809064153e-10 -4.2462521787e-09 
7.6194262759e-09 -7.3161549836e-11 -1.8009626061e-09 1.0632357638e-08 5.2765834234e-10 -2.153584675e-09 1.3515857662e-08 -1.0378719058e-08 -1.4497624473e-08 
1.3109086509e-08 -1.2557087317e-08 -1.7394758995e-08 1.8873243776e-08 -8.4187676763e-09 -1.7571637039e-08 1.4253877194e-08 -8.557849662e-09 -1.2635110426e-08 
6.4244009444e-09 -9.3800593894e-09 2.5813742663e-09 1.4170132147e-08 -1.3266785027e-08 -1.9219040268e-08 -2.6547714732e-09 -1.1397528133e-09 -1.5935423147e-10 
-2.6861309488e-09 -2.2908649675e-09 1.535494284e-10 5.8228954251e-09 -5.1487755962e-10 -5.4678830127e-10 7.4097077578e-09 6.9380938741e-10 -9.9897203832e-10 
-1.4498218909e-09 -1.2642110676e-08 5.0131092992e-09 -1.2545016191e-08 -9.5402368495e-09 7.2965366041e-09 -6.7855429371e-09 -1.5345134186e-08 5.9052991991e-09 
1.8145035892e-08 -5.0783317404e-09 -1.2006770621e-08 -2.9096479629e-09 -7.2996932981e-09 2.4993208492e-09 -1.8795445099e-09 -9.1748066801e-09 4.1102754946e-09 
-5.402247275e-09 -7.293215259e-09 2.8202854814e-09 -1.3538783431e-08 -3.7651650022e-09 7.3696696805e-09 -1.4620872492e-09 -3.4803941696e-10 -6.2548653462e-11 
1.8325605415e-08 -6.8474139534e-09 -1.4697518654e-08 1.5903562655e-08 9.6546029302e-10 -4.2709022819e-09 2.2454245839e-08 -7.4470250278e-09 -2.0486135525e-08 
-5.5381613849e-09 -8.8177950319e-09 4.499681992e-09 -1.0034917058e-09 -3.6504313979e-09 1.7428662325e-10 -1.3976964822e-09 -1.4266508199e-09 1.0464498576e-10 
-2.561727459e-09 -3.672156223e-09 4.6896976315e-10 -1.9436163101e-09 -3.4178709136e-09 4.621648697e-10 1.4100193871e-08 -8.0738890297e-09 -1.189239273e-08 
4.7536903657e-08 -3.0054886291e-08 -2.4611892482e-08 1.3174792909e-05 -0.00045546785705 6.5922552089e-07 1.317659695e-05 -0.00049402387092 7.4593446541e-07 
-1.7407125242e-06 -0.00047474515969 7.2188138206e-07 1.3155569883e-05 -0.00026280577041 2.2572660885e-07 1.3149726306e-05 -0.00022430934901 1.3911306391e-07 
-1.7407007268e-06 -0.0002435553201 2.01671202e-07 1.3165300022e-05 -0.00033983992477 3.9899943256e-07 1.3160759568e-05 -0.00030131665612 3.1234785777e-07 
-1.7407107997e-06 -0.00032057658033 3.7494164962e-07 -1.6658000934e-05 -0.0004940238598 7.8449454205e-07 -1.6656192253e-05 -0.00045546785607 6.9786259438e-07 
-1.9014834675e-09 -1.4895992338e-09 1.1687948924e-10 -2.4402957422e-09 -6.2106557437e-09 1.5372734515e-09 1.3134100352e-05 -0.00014736737764 -3.8732941294e-08 
1.3143167218e-05 -0.00018582859625 5.2192507504e-08 -1.7407278843e-06 -0.00016659433143 2.6610186681e-08 -1.7408643574e-06 -9.0281995009e-05 -1.7880579697e-07 
-1.6602186748e-05 -0.00010920429207 -9.4259823915e-08 -1.6522260078e-05 -7.1420913158e-05 -2.4414542098e-07 -1.7407021768e-06 -0.00039764450349 5.4847151448e-07 
-1.6653708339e-05 -0.00041691726938 6.1115406001e-07 -1.6650535153e-05 -0.00037837415375 5.2436423057e-07 -1.6646696724e-05 -0.00033983993618 4.3761322602e-07 
-1.6642185967e-05 -0.00030131665553 3.5091961679e-07 -1.6636997267e-05 -0.00026280577072 2.6427403219e-07 -1.6631126319e-05 -0.00022430932001 1.7758480818e-07 
-1.6615528825e-05 -0.00014736688493 1.5175428343e-09 -1.6624604686e-05 -0.00018582854381 9.0562653434e-08 1.3172290811e-05 -0.00041691727209 5.7252946352e-07 
1.3169124079e-05 -0.00037837414469 4.857843424e-07 -7.4164474247e-09 -1.0295584729e-08 5.6487091207e-09 -1.2862251165e-09 -6.0820644498e-10 -7.7094220921e-12 
1.3048189527e-05 -7.1422560428e-05 -2.5395630901e-07 1.3120630102e-05 -0.00010920495719 -1.3575331176e-07 1.0759786468e-08 -1.5509144205e-08 -1.9132497552e-08 
-2.601369105e-06 -2.262225964e-06 -2.0447946092e-07 -7.4351994777e-08 -3.7888774053e-09 6.6546931687e-09 3.031243987e-08 -2.2179851046e-08 7.1565355839e-08 
-4.2001623648e-09 -6.3015851638e-09 1.7831345713e-09 1.3178621678e-05 -0.00059489229775 9.7274879256e-07 -1.740646301e-06 -0.00061121038208 1.028736211e-06 
1.317873064e-05 -0.00062752856159 1.0461601516e-06 -5.1880807896e-10 2.3428252103e-12 1.1347562112e-11 -5.2189075315e-10 1.3526168369e-11 -9.7270480173e-11 
-2.4490067494e-10 7.2482027587e-12 -1.5123720506e-11 -1.1118282052e-08 -1.2770368091e-08 1.4997239545e-09 -7.6610448599e-09 -7.1859572244e-09 3.0539644786e-10 
-2.6159483082e-08 -3.3190965451e-09 6.2876459239e-09 1.3245360529e-08 6.4174075571e-09 -9.1636783585e-10 8.9377777562e-09 8.1165703541e-09 5.3033803875e-10 
9.1172055549e-09 1.3150944102e-08 1.7631116161e-09 3.2688250464e-09 8.5899327503e-09 1.5903637245e-09 4.8319483846e-09 9.9303605871e-09 1.6079411984e-09 
4.4382498911e-09 -1.433758874e-08 7.5941959553e-09 -2.048103201e-09 -1.6875969268e-08 8.6211686906e-09 5.8063102945e-09 -1.6467565463e-08 1.1132542062e-08 
-1.6659933672e-05 -0.00059489223779 1.0113098938e-06 -1.665999679e-05 -0.00062752850125 1.0847251125e-06 4.5787801527e-09 4.0702641764e-09 3.7329526134e-10 
9.9548834834e-09 3.9387881567e-09 -7.3578035048e-10 -1.1712199276e-09 -7.2595340733e-09 2.3121255649e-09 6.6137927109e-10 -9.2055337673e-09 4.6418434791e-09 
1.3735833934e-08 -2.7167300424e-08 -2.4811429615e-09 1.3736129261e-07 -1.0844484777e-07 8.6460936963e-09 1.455693198e-07 -2.8130420587e-07 -3.9661139937e-08 
-3.5306404942e-09 -3.6544360017e-09 4.023962056e-10 1.37872835e-08 2.7470203787e-09 -2.4351357002e-09 -2.8664110683e-09 -1.2465197361e-08 7.4179806717e-09 
-6.0603531674e-10 -1.3403197221e-11 -5.428086595e-11 -5.0408148357e-08 -7.7418366278e-08 -8.4599568916e-09 6.2234335975e-09 5.2608571209e-09 1.7939388549e-10 
1.3178319763e-05 -0.00056225617216 8.9936226366e-07 1.3177736192e-05 -0.00052962074767 8.259557036e-07 -1.740687894e-06 -0.00054593824961 8.8194068558e-07 
-1.6659678105e-05 -0.00056225610533 9.3790104106e-07 -1.6659118664e-05 -0.00052962069601 8.6454412448e-07 -1.3640112176e-09 -2.7334649816e-10 -1.926253692e-10 
-1.7491631531e-08 -1.8520439264e-08 5.7313144082e-09 -1.9481538302e-07 -5.310924408e-07 -1.0198710298e-07 -5.9099633086e-08 -1.2571192558e-09 -4.738759735e-09 
-2.1987239804e-07 -1.9645260436e-07 -3.4510961726e-08 -1.1873390428e-09 -1.4419008666e-10 -1.1796644555e-10 -1.7406657262e-06 -0.00057857413316 9.553266691e-07 
1.3575023642e-08 -3.393980037e-08 -5.5327996207e-08 1.9880408802e-06 -1.787573386e-06 1.5888676677e-07 3.2795815674e-09 1.8575479117e-08 4.2290912544e-09 
1.7516578431e-08 -2.3617227261e-08 -2.3565572831e-08 -4.5216183712e-09 -5.2508366296e-09 1.2970526805e-09 -3.2106290837e-09 -5.070979023e-09 9.6001653662e-10 
-1.0267014683e-05 -1.0764229413e-05 -3.674995025e-07 -2.5655912746e-06 -1.846608295e-05 -4.8607108084e-07 -1.6681037784e-05 -3.5436302536e-05 -4.3705668857e-07 
7.4474709033e-06 -9.8912290879e-06 -3.253794465e-07 1.2343037343e-05 -3.543226419e-05 -4.2633126743e-07 -3.0819554714e-09 -4.7174338189e-09 7.729797665e-10 
-4.4057567993e-09 -3.8693983102e-09 6.6916793735e-10 5.1815241768e-09 1.482064625e-08 2.8762390584e-09 2.3647926714e-06 -2.1085609291e-06 -1.4293731073e-07 
-1.735161987e-06 -5.8684137806e-06 -3.6283571862e-07 1.2211727222e-08 -1.7830117291e-08 3.1031903235e-08 1.0644670192e-08 -2.2282653987e-08 1.2239953538e-08 
-1.7374264158e-06 -5.2623023382e-05 -3.3441856309e-07 -1.7407074821e-06 -0.00012814379542 -6.5530699591e-08 -1.7407245104e-06 -0.00020506655925 1.1497231706e-07 
-1.7407033942e-06 -0.00028205923623 2.8832377677e-07 -1.7407026171e-06 -0.00035910558029 4.6168126259e-07 -3.7918762862e-06 -3.1868676718e-06 -1.3351072177e-07 
-6.1834349163e-10 -3.7947743097e-10 1.1467839198e-11 3.5622942271e-09 1.3536226504e-08 2.8414328688e-09 -1.7407096418e-06 -0.00051330340518 8.0856054412e-07 
-1.7407028188e-06 -0.00043619161653 6.351950627e-07 
Displacement%20Magnitude 1 949 double
0 0 2.5318354136e-09 2.7765772183e-09 0 0 1.0333584344e-08 1.0487523399e-08 1.2361928551e-08 
1.3208350579e-08 1.8239126389e-08 3.114314343e-08 1.5346344366e-08 3.2979512632e-08 0 1.9551531263e-08 3.7510322352e-08 2.036410428e-08 
3.4718714353e-08 0 2.7754068976e-08 1.3727475983e-05 1.3658218776e-05 2.5975877244e-08 3.1280533025e-08 3.5641439465e-08 1.1623523729e-05 
0.0005140865866 0.0006444741786 0.00064463329047 0.00051428608 0.00051426330811 1.2201037962e-05 0.00051405865091 0.00064444670964 0.00064460994074 
0 2.6417113559e-09 1.1212556384e-09 4.9982470113e-10 1.77229138e-09 1.0861552833e-09 4.5663822394e-10 1.8299306939e-09 0 
0 0 0 0 0 0 0 0 1.0447185881e-08 
1.1515817203e-08 1.2747371069e-08 5.6468529688e-09 3.9884961249e-09 7.7428679291e-09 7.2718053667e-09 4.8990212683e-09 9.9503629812e-09 3.374867678e-08 
1.4376809406e-08 2.0821185168e-08 3.6214630055e-08 4.1899316436e-08 2.0263728395e-08 4.0483771776e-08 3.4527297334e-08 2.436352407e-08 1.8229617568e-08 
2.7637133915e-08 2.0991175556e-08 1.6322283105e-08 1.8895866524e-08 1.5943574201e-08 2.5228846907e-08 1.9000101927e-08 2.5998129442e-08 9.5936215676e-09 
5.8536092891e-09 6.5188135291e-09 5.9213209327e-09 5.6167414145e-09 4.0879248707e-09 6.4841078203e-09 6.0999693998e-09 5.9635498948e-09 4.0376121168e-09 
1.63693707e-08 1.6770790457e-08 2.2653996557e-08 3.0530490424e-08 3.8290124762e-08 1.193470116e-08 3.7786160285e-08 4.0073594769e-08 2.8581068424e-08 
2.3074099014e-08 3.2027670327e-08 2.5496875009e-08 2.1340526783e-08 2.2723048894e-08 2.05822754e-08 2.7937713195e-08 2.0808824319e-08 2.7798941818e-08 
1.1774117755e-08 5.58964991e-09 4.0959328099e-09 4.745129293e-09 7.9330410561e-09 3.7703698332e-09 5.583664181e-09 1.8127130642e-09 7.1676473809e-09 
6.2020395431e-09 0 0 0 2.1199051256e-08 3.365424984e-08 1.4090563836e-08 2.3278965298e-08 1.3562841613e-05 
6.0350883976e-08 2.563360838e-06 1.5150448279e-08 5.1015266644e-08 2.1122198e-06 1.9696496226e-08 1.6995875142e-08 1.6973763647e-08 2.6207675886e-08 
2.1647968408e-08 3.1183270724e-08 3.8817564896e-08 4.1560096501e-08 1.6496565295e-08 4.077144032e-08 3.4598511727e-08 3.3094346689e-08 3.6466726229e-08 
1.776126532e-08 3.3806267781e-08 3.6523994976e-08 4.0204792753e-08 1.6236289806e-08 4.0685565179e-08 4.0152331367e-08 6.7430986264e-08 4.0777376266e-08 
2.5171254142e-06 5.9512580381e-05 0.00013119095311 0.00020699081756 0.00028346737557 0.00036021692166 0.00043711015374 3.4835903208e-05 9.4537946752e-05 
0.00016895224908 0.00024518122199 0.00032181870477 0.00039865015507 0.00047559056226 0.00057927074404 0.00054667555783 0.00061187057769 0.00064386263318 
0.00057944774864 0.00054686309426 0.00061203817021 6.11666805e-05 0.00013197080209 0.00020748477271 0.00028382854031 0.0003605014106 0.00043734474802 
3.7089258602e-05 9.5612919313e-05 0.0001695575702 0.00024559855435 0.00032213691683 0.00039890731279 0.00047580623524 0.00051427472427 6.1203710175e-05 
0.00013195034154 0.000207466199 0.00028380803615 0.00036047978365 0.00043732241761 3.6987615608e-05 9.5604972633e-05 0.00016953941924 0.00024557895098 
0.0003221158872 0.00039888537256 0.00047578361211 5.3504439566e-08 4.7534010399e-08 2.1923911363e-06 5.9482286046e-05 0.0001311567247 0.00020695979733 
0.00028343755538 0.00036018795128 0.00043708175608 3.4641619858e-05 9.450793995e-05 0.00016892043174 0.00024515092323 0.00032178929228 0.00039862158045 
0.00047556235854 0.00057924305827 0.00054664776712 0.00061184302751 0.00064383720306 0.0005794246644 0.00054684019802 0.00061201495025 1.1741672118e-05 
0.0005140726484 0.00064446044373 0.00064462161539 4.3566983681e-10 1.909323756e-10 1.8552851073e-10 7.4055767735e-10 7.3126829376e-10 1.7681508965e-09 
1.0590090443e-09 0 0 0 0 0 0 0 0 
0 0 0 0 8.6483907067e-09 7.4960309412e-09 5.0728388108e-09 4.5187777513e-09 6.5298880136e-09 
7.3940768323e-09 9.3688195263e-09 9.5164572277e-09 7.0673942248e-09 1.0373181315e-08 9.6730673836e-09 9.9091680225e-09 8.0929039843e-09 1.5187299195e-08 
1.12061713e-08 1.1937461405e-08 1.0468562476e-08 1.2068915387e-09 2.072507503e-08 1.0541762783e-08 5.5436388483e-09 9.9004828141e-09 8.9228094849e-09 
1.4663209011e-08 9.231022587e-09 1.350405017e-08 9.9106917907e-09 2.3134826443e-08 1.7856620671e-08 3.0117810255e-09 8.0417024058e-09 6.6838057549e-10 
2.5808550205e-09 4.3205058147e-09 1.1866368408e-09 5.1699397591e-10 1.9505177443e-09 1.8842105619e-09 6.6776845015e-10 5.5422093971e-09 3.9861517356e-09 
1.9356521197e-09 4.0404587848e-09 5.2177480767e-09 7.6767907718e-09 1.0257598332e-08 1.7334634643e-08 7.7852547201e-09 1.0296191169e-08 2.0539430023e-08 
2.059068542e-08 1.7874906609e-08 1.3764422285e-08 2.9435644224e-08 2.6925662356e-08 2.3642611778e-08 1.3694497969e-08 1.1935299422e-08 1.2344706517e-08 
1.4056113015e-08 8.4210269243e-09 1.789598365e-08 5.605857202e-09 6.106891734e-09 1.2709663181e-08 5.378589219e-09 2.7591978913e-08 3.0581859218e-08 
1.7826960898e-08 2.2749979703e-08 2.102748859e-08 1.7590649478e-08 2.0207575924e-08 1.5112435358e-08 1.0061185923e-08 1.4704271289e-08 8.0132407549e-09 
7.4829642807e-09 6.8738135182e-09 7.0114670627e-09 7.8445602747e-09 1.0309370223e-08 8.844536106e-09 7.1171744433e-09 7.2277891382e-09 7.8765745868e-09 
9.8701426429e-09 8.95035609e-09 8.0063679223e-09 1.0373735234e-08 1.3453944685e-08 1.3297646155e-08 1.1984640891e-08 1.656585269e-08 1.7591114805e-08 
1.4570610927e-08 1.269862541e-08 1.8944348639e-08 1.4664238943e-08 1.0874212282e-08 1.2730986557e-08 9.7686333789e-09 1.2187733204e-08 1.2201053155e-08 
1.0474776265e-08 1.6806163819e-08 2.868649676e-09 1.5510063011e-08 9.9090274847e-09 1.5510661489e-09 1.7897615644e-08 8.4681855557e-09 6.5802973496e-09 
1.4360180402e-08 1.3198669265e-08 1.1568869063e-08 1.0546220672e-08 3.3285515003e-09 6.0749976209e-09 2.6974020692e-08 2.1694615993e-08 4.1174251255e-09 
3.3170526924e-09 6.1787820291e-10 5.7410895071e-09 3.2039189187e-09 1.2298871731e-09 2.2536602187e-09 5.4514848313e-10 2.5653186064e-09 1.0921734158e-09 
4.3514133543e-09 5.5476615541e-09 2.6138015998e-09 5.1631179061e-09 9.7492580557e-09 6.8904939737e-09 1.3940848528e-08 1.1707146017e-08 8.0650717817e-09 
1.7340713896e-08 7.8444812786e-09 1.6493223907e-08 1.7883322101e-08 6.3045401297e-09 3.2454359413e-08 3.3560275049e-08 2.8147585438e-08 1.6811316525e-08 
1.8423236756e-08 1.8147598084e-08 1.724860236e-08 1.3110745778e-08 2.0842846027e-08 9.109413952e-09 8.4841047468e-09 9.0746850975e-09 1.5816714655e-08 
3.0819712375e-08 2.4515591993e-08 1.206740374e-08 2.355848603e-08 2.210303587e-08 2.539686155e-08 2.4020581425e-08 1.4017539473e-08 1.9596714472e-08 
1.8416054616e-08 7.1592783797e-09 6.8985436583e-09 3.2423186267e-09 3.7257450816e-09 8.4531658572e-09 5.0820756656e-09 3.9464740111e-09 7.609630013e-09 
8.9131329152e-09 9.716332385e-09 6.1674189629e-09 5.3658572981e-09 1.0517659571e-08 1.2806115678e-08 1.1071270429e-08 1.3370310866e-08 1.5984830214e-08 
1.9409181814e-08 1.2749144245e-08 1.2094049172e-08 1.7339484758e-08 2.1600095018e-08 6.0649628026e-09 9.3721567245e-09 2.5083049367e-09 3.4118860732e-09 
5.4537020171e-09 4.1220911615e-09 8.179484619e-09 5.2681570155e-09 4.0333282861e-09 5.6758823688e-09 4.9425723676e-09 4.3486451256e-09 2.5155903349e-09 
2.6572475841e-09 5.1170474995e-09 2.4687350961e-09 4.9851743448e-09 5.178098052e-09 2.8149729098e-09 2.7887884686e-09 4.088842485e-09 6.7333543541e-09 
6.049109316e-09 6.2145382081e-09 5.3761222592e-09 5.6470933583e-09 4.9723581786e-09 4.9822368296e-09 5.2003126647e-09 5.616423764e-09 4.2460091626e-09 
5.7756244934e-09 4.9246048648e-09 5.6286828023e-09 2.9573613486e-09 3.3018554854e-09 6.5838609885e-09 5.0292558268e-09 1.4347224401e-08 3.3004739388e-08 
2.1138520128e-08 1.8538990541e-08 4.6807788095e-08 2.0844485044e-06 1.676754981e-08 1.6499686823e-08 2.3249385909e-08 1.8941421917e-08 3.6455563276e-08 
3.4551865645e-08 4.155037718e-08 3.9929449227e-08 2.7692508097e-08 2.2974734889e-08 1.9062993819e-08 2.9386737461e-08 2.9179973865e-08 2.5984526477e-08 
1.9560150232e-08 1.6999987261e-08 1.8499638333e-08 3.1358721366e-08 2.0942113257e-08 3.1053625291e-08 2.7917136356e-08 2.0499711767e-08 2.3462063333e-08 
2.5196209227e-08 2.0726423432e-08 2.2801137124e-08 2.5508465056e-08 1.8262135499e-08 2.0800555103e-08 2.6549271595e-08 1.0576743691e-08 2.684164496e-08 
2.9898276684e-08 3.0783350657e-08 2.2905896797e-08 5.5704655337e-09 5.143251883e-09 1.4725131949e-08 2.3814297713e-08 6.0060137725e-09 1.575203013e-08 
1.9852066252e-08 1.2623304899e-08 3.9754749821e-08 3.2581863107e-08 3.8835426459e-08 3.8460193939e-08 1.8453939962e-05 3.6244051977e-07 5.4289502062e-07 
0.00047476155955 0.00024357407297 0.00016661608097 0.00032059407517 0.00039766129784 9.0303192327e-05 2.7442851161e-07 0.00054595442388 0.00061122643647 
5.2126536676e-08 7.7235734615e-08 4.3383276933e-08 1.0296290237e-07 4.1048775827e-08 1.1110288788e-07 4.8118256581e-07 1.3483473905e-07 9.8309744211e-08 
3.7055878191e-06 1.4922407292e-05 3.9055724052e-05 5.2596595793e-06 5.7237725789e-06 5.2821282914e-08 2.952137362e-06 1.8615305979e-07 3.7483516121e-05 
1.2134346758e-05 3.0570273063e-06 0.0005133196654 0.00049431723371 0.00049421346133 0.00052979860837 0.00052989538667 0.00056242459071 0.00045567221681 
0.00062776273181 0.0006276810414 0.00059505230817 0.00059513847716 0.00056251574557 0.00045578476657 4.8490024849e-08 0.00057859023713 0.00011000168161 
7.2602469114e-05 5.2656882482e-05 7.3291497105e-05 0.00018630680562 0.0001479655311 0.00012816982219 0.00014831217839 0.00011046811308 0.00026314864081 
0.00022470832857 0.00020508629544 0.00022493604344 0.00018658150302 0.00034010861397 0.00030161772362 0.00028207726198 0.00026334318754 0.00030178751964 
0.00041713910598 0.00037861702544 0.00035912267126 0.0003402592545 0.00037875240616 0.00043620819208 0.00041726201383 3.7294508379e-05 6.121302069e-05 
0.00047579497135 0.00043733364453 9.5615271648e-05 0.00016954863582 0.00020747568864 0.0001319622886 0.0002455889077 0.00028381842224 0.00032212651338 
0.00036049069254 0.00039889642566 1.859222633e-05 1.1169428515e-07 3.4810561154e-07 0.00047473614833 0.00024354887619 0.00032056874672 0.00039763592497 
0.00016659043282 9.0289849861e-05 1.8675416277e-07 0.0005459290204 0.00061120101482 2.7559987347e-08 3.7799892836e-06 5.094919023e-08 3.9139550347e-05 
1.449073912e-05 5.6865304454e-06 5.0635494147e-06 2.1113100117e-07 5.4172841636e-08 9.0642334463e-08 3.8796830114e-08 7.4950112e-08 7.6541473792e-08 
2.3119932246e-07 4.7392057091e-08 0.00049418671189 0.00049429318544 0.00051329426824 0.00052987125153 0.0005297719632 0.00045576080418 0.00056249153451 
9.4920775194e-08 3.1137320411e-06 1.2368404111e-05 3.7452692594e-05 3.3394568549e-06 0.00056239801092 0.00045564534721 0.00062765456467 0.00062773836553 
0.00059502578755 0.00059511418439 5.3737023075e-08 0.00011044825356 7.3302787102e-05 5.2647280664e-05 7.2590623625e-05 0.00018655963463 0.00014828951779 
0.00014793659913 0.00012814180839 0.00010997345747 0.0002633204948 0.00022491385772 0.00022468037498 0.00020506124625 0.00018627836321 0.00034023588438 
0.00030176444917 0.00026312093335 0.00028205198569 0.00030159023951 0.00041723823393 0.00037872880832 0.00034008132931 0.00035909731848 0.00037858993563 
0.00043618278451 0.00041711213846 0.00057856482766 3.8479033413e-08 8.2218458258e-08 2.0208423556e-06 3.4910446677e-05 5.9534839394e-05 0.00047557651098 
0.00043709601577 0.00013117496611 9.4528012816e-05 0.00020697548526 0.00016893666415 0.00024516622767 0.00036020253652 0.00032180411505 0.00028345259696 
0.00039863594474 0.00054666167689 0.00061185680359 0.00057925690911 0.00064384991673 0.00061202656116 0.00057943621454 0.00054685166199 2.1899168059e-08 
2.3299249597e-08 5.5690844169e-09 6.5048883935e-09 7.2926999779e-09 6.3765946424e-09 3.686747252e-09 5.9596727534e-09 4.6753909337e-09 6.5509441394e-09 
7.7817698702e-09 7.0214095692e-09 6.8533701216e-09 7.6927512582e-09 6.6063025666e-09 8.5801123017e-09 1.060629192e-08 9.6896340193e-09 7.2991365028e-09 
1.2946315362e-08 7.2921218324e-09 7.3060801306e-09 6.0096274125e-09 1.1842771562e-08 8.5862363606e-09 4.8080019189e-09 2.6729573888e-08 1.9780236928e-08 
1.5599937035e-08 9.3504153401e-09 6.6506701927e-09 8.0436402829e-09 7.7372676598e-09 1.0962111213e-08 8.9848280437e-09 2.9350663851e-08 2.9468785909e-08 
3.9633161242e-08 2.5937942805e-08 2.8506460791e-08 8.9924528376e-09 3.3457019459e-08 1.689166251e-08 2.2226986421e-08 1.6904304902e-08 7.1239904266e-09 
6.7294201417e-09 1.6030880771e-08 1.1611087909e-08 1.1655216733e-08 3.5823356104e-08 7.6090768919e-09 7.4317549915e-09 8.8575341575e-09 1.2352135114e-08 
3.3284895594e-08 2.0775326514e-08 2.9760534482e-08 9.5700575541e-09 1.3202909836e-08 2.3381983134e-08 2.4505896853e-08 6.8443837586e-09 1.4869659991e-08 
1.3830869007e-08 5.769314544e-09 4.5302414157e-09 7.5903689379e-09 5.8383400472e-09 5.062623081e-09 4.9787720343e-09 6.8470748544e-09 1.1698158778e-08 
7.2389884462e-10 6.0794790382e-10 9.657105434e-09 6.6790238102e-09 1.9005162435e-08 1.5853302041e-08 1.6974035773e-08 7.1376689308e-09 6.3555528909e-09 
1.164913307e-08 1.4959880269e-08 1.7290297227e-08 1.9485733178e-08 1.7262329929e-08 2.1021041861e-09 1.3690176325e-09 2.2536407098e-09 1.8877135193e-08 
1.6753910385e-08 8.4861888935e-09 8.9559786396e-09 5.4843653866e-08 3.4455713767e-08 1.4083397722e-08 7.8297174722e-09 1.0861094752e-08 2.2373585608e-08 
2.5141722922e-08 2.7126323158e-08 2.0881949654e-08 1.1658556289e-08 2.7316144289e-08 2.8934826458e-09 3.5336863472e-09 5.8711317035e-09 7.5088671353e-09 
1.3676849443e-08 1.7367584656e-08 1.7787335235e-08 2.2342656994e-08 8.246100789e-09 1.0227616038e-08 9.5041714331e-09 1.5867802478e-08 1.5042416342e-09 
2.4468999699e-08 1.6495333431e-08 3.129429799e-08 1.1343362763e-08 3.7898576255e-09 1.9999596474e-09 4.5019008806e-09 3.958924388e-09 2.013534594e-08 
6.1390542031e-08 0.00045565884009 0.00049420012562 0.00047474889978 0.00026313493294 0.00022469450084 0.00024356162395 0.00034009507316 0.00030160409548 
0.00032058152553 0.00049430524828 0.00045577284217 2.4183064465e-09 6.8476636703e-09 0.00014795151261 0.00018629281455 0.00016660342766 9.0298954607e-05 
0.00011045912771 7.3307513404e-05 0.00039764869172 0.00041725019954 0.00037874069692 0.00034024768366 0.00030177609647 0.0002633319818 0.00022492509185 
0.0001483006223 0.00018657071951 0.00041712569904 0.00037860355939 1.3889228634e-08 1.4227963892e-09 7.2605109199e-05 0.00010999041794 2.6876737551e-08 
3.453490898e-06 7.4745298585e-08 8.0823201864e-08 7.7801612044e-09 0.00059503904765 0.00061121372637 0.00062766780147 5.1893745171e-10 5.3105033826e-10 
2.4547424295e-10 1.699846078e-08 1.0508228041e-08 2.710847558e-08 1.4746607248e-08 1.2084860114e-08 1.6099047502e-08 9.3274550985e-09 1.1159984833e-08 
1.6820711198e-08 1.9060892294e-08 2.0708149224e-08 0.00059512633173 0.00062775054918 6.1377216868e-09 1.0731035832e-08 7.7083406586e-09 1.0330826945e-08 
3.0543271217e-08 1.7522318526e-07 3.1921072841e-07 5.0972784401e-09 1.4267627454e-08 1.4785935713e-08 6.0860895758e-10 9.2769368482e-08 8.1510689824e-09 
0.00056241130864 0.00052978530679 0.000545941737 0.00056250364666 0.00052988334123 1.4044035897e-09 2.6111526363e-08 5.7481613e-07 5.9302637577e-08 
2.9686445334e-07 1.2018655773e-09 0.00057857754029 6.6312732415e-08 2.6782401229e-06 1.9331044786e-08 3.7682093443e-08 7.0497279141e-09 6.0782068997e-09 
1.4880029611e-05 1.8649792042e-05 3.9168604488e-05 1.238576229e-05 3.7523028594e-05 5.6877173877e-09 5.9017558392e-09 1.5961594506e-08 3.171546097e-06 
6.1303113445e-06 3.7815583861e-08 2.7561606173e-08 5.2652759436e-05 0.00012815563453 0.00020507397948 0.00028206475484 0.00035911009592 4.9550253723e-06 
7.2559169344e-10 1.4282615617e-08 0.00051330699353 0.0004361955523 
Stress%20xx%20component 1 949 double
-25443485.828 -25596594.589 -113436248.38 -108531684.12 -200958884.21 -193876743.75 -100177465.92 -82527071.299 -106750415.97 
-110215495.97 -22512354.793 66950381.49 -70448876.821 -122557.52811 373306979.73 -8261126.0821 90594630.512 -65712866.013 
557556.50533 370209050.83 -193920746.18 -633606925.88 -598606381.82 -162957934.68 79714003.873 97937228.204 704573225.19 
110581025.04 -2300127.2209 -168996.59618 -109842327.59 -110320643.59 713277516.53 109167008.15 1085349.4244 765908.26358 
-20397529.781 -110462267.73 -67504323.286 -45801328.864 -87887662.174 -67352065.882 -46006416.187 -89475942.66 -180844439.18 
-179839071.3 -201205050.1 -39404842.744 -39706848.509 -35215662.201 -43697562.207 -38615243.449 -39031697.279 -107968166.64 
-72819654.832 -118114429.12 -90221905.873 -116260068.56 -72363841.93 -94533762.33 -111346397.86 -80464231.583 -128505069.46 
-127558242.43 -64487753.84 108742562.45 150157003.4 17463868.113 131414478.76 114868209.35 23459453.61 -55074117.79 
45723486.118 -9993697.903 -75356627.419 3668399.0088 -19442817.699 -706634.57465 378557.16454 451163.90415 -70603388.471 
-54351882.398 9131055.0465 -30104165.385 231206466.86 -265101830.1 -3442691.6207 -14737242.906 63635736.327 686272778.37 
-144235327.6 -140220492.34 -66100814.821 103346765.3 153528849.48 39217933.169 129240986.34 126788763.34 24217860.306 
-53325334.1 49782036.5 -8848544.3043 -70456482.622 -235999.72158 -24763493.794 -200834.30055 2598923.6089 1229145.5607 
-73143861.493 -56481683.779 9643782.4955 -31492595.82 235000515.55 -265326396.33 -4024096.5527 -13422438.548 63243042.136 
691577878.05 284054764.55 314396122.23 306417415.93 -52826161.076 -243403008.48 -160072806.89 -276076698.75 -558277838.36 
-445994951.47 -558046021.46 -265596319.46 -328799070.19 -631771079.88 -311616680.92 -299347316.08 -210076553.71 -277129405.25 
-51745339.968 80367695.121 290521491.13 293554307.9 80314806.966 359580597.45 189989794.51 86437487.31 95359672.904 
-71636513.336 -12757.437372 294049225.07 314901610.46 93979833.091 347304110.82 198228628.55 461232620.03 287275382.31 
704130358.88 942587713.1 741724809.83 611614008.31 491897745.91 372136405.98 239549632.96 645742713.33 698370600.28 
683523675.49 555518015.29 429685328.94 297576390.92 171404447.46 26090788.969 66218608.03 9293800.6564 -101499.31344 
-25058994.543 -62371903.443 -10514277.486 -872335262.47 -767281240.45 -621695178.55 -492661735.05 -363119517.97 -242312901.14 
-674587201.24 -753501090.29 -681322270.85 -555633785.22 -426328715.83 -300890332.91 -170939805.16 -110093916.28 -904913631.98 
-727620291.53 -617211694.03 -491261126.91 -362443098.71 -229589839.72 -595443190.7 -686908161.78 -683755984.56 -555204491.53 
-428960471.93 -297790002.28 -173240577.08 564849515.87 394691899.88 661946686.76 799363357.82 752381070.86 625960325.63 
491477710.73 359031810.82 228408990.86 566525608.89 684384125.13 684629801.8 554362813.44 425341577 302422546.67 
173394719.44 26895700.72 61239730.098 9897201.3646 1099710.5314 -29175970.176 -65131779.847 -8751535.6756 570684290.09 
109770373.5 -399250.49636 313603.16227 -49775442.062 -37480904.236 -37657056.135 -57180254.062 -57641161.277 -90734844.339 
-69590332.703 -40612379.446 -32402151.967 -29434756.652 -29153080.441 -36773979.879 -39909340.867 -22489784.271 -13398112.735 
-38354368.656 -37531392.642 -39972701.003 -40270459.827 -69780660.267 -86573978.064 -111673765.19 -113246685.69 -92740253.945 
-92254060.001 -64805744.612 -62756015.651 -79522716.82 -80446723.613 -78724642.968 -77308508.462 -71900399.504 155916822.04 
15746177.196 125716965.67 -125030200.37 -90616238.582 155263440.06 73943047.858 -121056632.34 53620277.665 -31237847.465 
-113971684.33 138217267.38 46561887.611 -38508992.49 144789332.49 99183005.607 -110388761.73 -7273689.7434 -53533629.293 
-112093876.2 -103882375.99 -71834112.989 -66138192.329 -99631945.24 -116398484.44 -69227003.828 -87976314.273 -207595556.43 
-123230868.83 -112846257.53 -103203953.48 -112126048.35 -133733682.72 -129620652.14 -157900998.56 2722959.379 75531770.105 
-136318435.33 -66058129.854 -22064051.605 150561343.61 106933196.15 91884872.313 -8460886.3903 -15531825.987 -6563189.8055 
17743095.49 54013617.349 -1941145.5015 264640203.81 81519104.535 29868565.238 -14010221.566 141553844.78 164830481.08 
96177623.41 161698109.85 61973202.021 23895904.581 122679839.45 23819329.828 70749315.351 106316151.54 -48516493.778 
-82684708.957 -17426524.689 -8722923.6522 -16764854.036 -72767575.717 -20156827.183 162425551.82 52853986.824 33420300.132 
107980014.89 35648758.292 210296136.13 168411449.97 -123659528.38 145069796.84 160248602.02 130515956.2 148020200.65 
109794183.38 112424323.83 159035985.76 85546365.164 43840884.287 23648398.912 5353301.7749 -43465551.529 -66898864.29 
-13005445.325 159536210.65 15284204.292 122112442.26 -120599581.31 -83310059.699 150868173.6 77949306.698 -125023396.82 
68357614.823 -41605057.4 -100672834.58 145609755.15 44228117.122 -40685081.109 156682559.55 102143363.28 -130038707.59 
-7399651.5379 -54982425.101 -110052367.4 -113042109.36 -72880253.733 -92418043.319 -64867051.972 -109419409.65 -70774487.939 
-209542364.85 -96078210.629 -115006841.4 -104476088.34 -123717620.85 -97709132.973 -142468607.41 -135081197.3 -153579031.17 
84041865.8 15541434.671 -60486970.601 -128741944.53 -26994363.938 132525772.53 159375146.47 94585978.742 -10160189.725 
-11986035.284 15305869.823 -4230704.0525 62649425.252 -2812546.2403 77326298.783 267762973.16 -14107131.405 31441325.708 
159276527.11 122922902.31 94997532.162 165088147.02 26106317.126 63797254.661 127244784.38 65690743.021 27519296.895 
106456030.57 -83278175.446 -49367962.852 -7005172.4829 -18508627.715 -74419362.178 -17294035.362 -23312109.196 54661273.275 
169917020.24 107169020.43 33289922.549 35578014.817 212490839.41 167242510.62 -117806789.46 161905133.22 150831318.29 
136253639.9 114023283.71 113432258.14 155017312.87 162299203.8 44799857.908 84979693.855 25480030.328 4119145.7449 
-41314488.492 -14720093.357 -68833451.712 -2956089.8328 -26752594.496 8530822.1889 440603079.37 -161183579.06 -351216573.24 
-343021716.61 -97335299.136 -338447575.81 -98003425.786 307184810 870125675.26 899456676.57 868261856.85 309704161.35 
-10716483.513 15195227.167 -43341801.136 -5020049.3733 -18641237.308 -3011715.7836 -20327984.103 83374407.509 -27176681.441 
175399741.33 15265638.104 -12293576.703 -19869066.681 -5040089.1907 86368935.557 -21731178.527 -147413337.95 -153239809.41 
-106146098.93 -293819347.05 -324965320.82 -421430179.41 -150557545.66 -174965674.35 -106394646.24 45847198.168 147553794.11 
135585908.88 189798084.9 166320326.77 38257053.617 -11772653.976 -73729038.516 58649257.09 50705371.614 30544734.286 
-75570802.206 -77285169.855 -66116777.006 47281363.03 -65382983.963 53871472.033 31207308.393 -31591571.128 8765848.6035 
16245457.506 -41709233.914 -31376350.249 9228807.4463 -30221595.861 1876509.7346 550395.07923 -27368747.756 -374066.75584 
83389.51279 -109424.26156 447705.85503 -140255038.25 -122345021.86 -9101937.6909 1075360.9285 -124171674.05 -6913394.9707 
3290464.4504 30624274.47 141888514.13 143012560.36 198548906.98 171569010.4 -160651528.38 -706776133.66 -34264595.26 
295692.28098 -246671.65204 38312.095179 2877071.8584 -1425687.5664 35146766.058 731101299.79 324337.09947 -134367.6541 
-418040304.08 588895012.34 283619416.06 -525090836.72 -523747715.25 -266101629.54 -588185638.71 346768342.96 -572295943.55 
-711486124.6 -604850687.85 -685332709.44 -616111287.03 -133073863.66 482743483.84 704943498.79 647660433.38 575185972.74 
676940341.87 609522028.47 -137090.24823 -61644637.509 64967337.523 45415971.837 -47815247.492 14336729.902 107926551.83 
-348285.41739 -1630533.0638 9890841.9875 -8598974.8482 -16068283.662 -110645185.91 467481513.68 838600.75934 427130070.03 
493551972.95 67145261.779 -514978299.18 320988680.47 368859167.73 -9340812.8537 -363045107.59 -420111120.42 259831480.29 
296179709.1 -3689966.0969 -301230558.74 -317806631.78 193480832.39 232204243.06 -1170511.515 -252409127.44 -234645546.16 
123564853.26 171351584.53 311327.65121 -187545660.97 -167828491.51 -182456.41653 -129508440.1 -600684281.36 -853009035.6 
-173044384.8 -233476725.86 -673555693.11 -679243402.42 -619743834.1 -744317573.43 -554123009.37 -492250942.92 -427728960.71 
-362381753.94 -302324118.4 22418213.089 -618175173.19 -360675569.89 -232880.7788 -86057.716703 -2440411.1312 716958.69098 
-1641481.055 -26259395.901 636723236.02 1116772.938 363383.46925 -505038330.67 -685009265.48 -427084695.82 -598131366.83 
-593503728.95 -256473828.03 -645597752.78 -581292377.09 280403692.3 548165407.4 -492611417.17 -521365959.67 -283713813.36 
341708769.85 593884238.91 65951858.107 -66042569.405 -489159.20764 -43232404.242 43729050.601 -107148156.84 -18039182.608 
532155835 628757274.97 679048723.44 596131948.26 692745659.53 19021761.745 107557376.73 591042.50017 516006.70448 
7750455.6813 -9242133.464 578539823.57 -449763293.69 -515949398.79 -57237273.585 521375664.69 -320558641.54 -364761103.13 
365994017.92 6554749.6074 434521018.47 -259155614.77 -295268429.83 302545035.8 2024760.8815 320015327.03 -192541955.12 
-237144003.6 254393915.51 1364055.1733 235933005.77 -129308863.08 -175042761.33 190182910.22 53343.888159 172953042.7 
9488.6919214 127578472.66 -570778.09267 234597611.82 412374978.44 557657504.26 629139390.9 846675636.69 176293045.21 
235323968.84 741037898.97 722376348.6 616563371.56 685310252.88 555759100.42 363868745.05 425308597.53 491860388.68 
300184218.52 59781530.442 8598622.318 27466904.124 -308463.78896 -8826148.1651 -26377645.478 -61264277.175 -987344.45086 
-519938.44078 -5141836.5816 4997619.2494 -14973432.204 -19956368.94 -17337921.913 -18171884.124 -26160950.11 27278010.402 
-39118537.669 16232020.085 -25103779.351 47859513.23 12341590.036 72263302.775 86407835.307 -71651502.12 26238072.214 
94577182.762 42877857.504 -20867379.857 -20781189.808 108344070.16 -43235599.521 15007350.856 191399355.65 129788413.25 
157097197.52 -38726116.119 224387242.29 237195207.15 228504596.21 152335209.2 132781496.13 176841601.73 214263909.37 
287386027.84 241705574.97 209835086.04 -80484828.416 319416788.63 131665902.28 206471465.68 152223187.02 49173093.284 
49238947.429 149279706.72 115182635.38 151433493.08 349225500.85 -51822515.766 72068236.921 104865027.94 -105693744.04 
201760919.75 160389879.95 219464303.4 232095052.65 118854214.57 148975020.81 175430492.64 66531228.352 154637421.09 
147350689.88 -11257394.092 -12943172.623 -150203378.69 -122818252.18 -145667392.77 -136235414.45 -100776002.48 -116048306.2 
-63055335.165 -64679773.417 -117766251.12 -102891147.83 155501603.66 105687020.57 132602867.44 -52914007.375 178313040.99 
86230134.591 10987247.002 44802082.297 45058591.77 20416897.016 -94659436.567 -82923000.021 -117189852.84 99824722.974 
-140929303.94 -18304781.317 -32751086.26 333949045.94 228035626.08 -16470372.92 171133621.83 -27893027.058 72424949.239 
98840188.384 96602854.123 120572553.27 83826969.041 134537835.05 -109544116.03 -113062388.68 199679721.32 175590441.91 
-190977653.36 -171916558.62 -204652900.92 43759551.216 -124588403.93 -141398190.22 -125519308.91 -114271434.44 -74477471.698 
73150032.15 -19704443.159 134325338.53 -133744945.31 -192748200.14 -123075460.56 -105247671.9 -188571771.76 44295744.847 
448475189.22 107750147.4 63790111.273 -295793.95484 254605515.12 299749053.7 -1190016.6068 192270404.98 236258536.63 
533808.90409 -64350184.728 -106100388.32 -111188558 -101571122.22 363542913.77 319993687.73 -2361319.485 -2803388.1202 
-427590187.82 -491842678.52 653181.12354 -128166724.55 -170858198.72 -195211562.55 -234469297.36 -255984992.46 -300600304.43 
-365854808.66 -321098442.31 130215381.84 171193642.6 -174787168.8 -110512737.04 497593605.51 432377895.73 119008953.36 
-622574216.3 -587312408.73 -386763970.45 -101356984 9300249.6773 398395.87261 -85077.936683 -49226290.782 -49173401.65 
-41348793.356 -128936018.79 -23446125.847 -182414618.51 -2075126.1394 61430820.025 12105988.292 26017930.174 31826966.855 
-148156464.26 -179499536.18 -266569987.46 -9475329.9926 784406.68077 18434318.156 57815559.008 -109448831.51 -139994811.88 
273908343.23 675565644.53 468027210.88 -103617208.61 -15437045.507 -229074658.73 -52616487.707 -266681973.2 11266412.537 
19272187.624 45032731.206 1001722.0369 -17598033.236 -45100296.624 -75007370.162 -266095199.97 -232200154.34 -472777809.65 
-610075287.43 -72875500.294 -1085718.4602 517766553.5 643079502.43 2233757.3379 434403463.14 -97655182.282 -98937137.28 
-650181827.58 -55475198.35 -646185218.87 628372132.63 620883731.17 -99800697.288 -107395580.21 -3451465.5574 643455306.86 
-66687628.29 -379229731.44 -298255305.41 1210060.5456 1435935.6214 698298.25846 857534.71473 231175.32553 -673796905.31 
-64992553.963 849760.90801 -248365.26562 -1777629.5005 
Stress%20xy%20component 1 949 double
22847293.253 22977214.436 21049410.029 24158560.662 -59467131.094 -51171907.869 -81733581.98 -96962426.52 -88873839.377 
-76191552.721 43518918.678 -51283134.343 -40387812.521 -28304.204709 133192177.65 47622624.187 -60890121.079 -38463415.774 
455520.61999 135389074.17 163865018.35 19036642.8 8399708.0803 131678320.45 -70885827.045 -74722235.077 -25054108.202 
-19452066.315 692062.35417 209590.85454 -13669895.375 -15345301.891 -7749384.249 -12374467.194 100673.56202 235699.24577 
20151972.193 21812478.368 29387755.784 26285251.984 26515603.464 29912906.329 26611120.985 27087610.1 -43213329.219 
-40147537.024 -68269436.971 50217971.579 38175152.49 69758330.696 50716008.437 37668799.765 73546025.398 -86318444.538 
-96585228.596 -83122743.88 -39125074.179 -6321234.3834 -48415143.251 -43391305.472 -4694586.8798 -52392590.116 -98663792.55 
-96916447.334 -32410612.055 22455944.772 -91199021.268 31754375.214 -43225670.868 -76276715.429 -9013499.8639 4815244.5853 
-30383892.306 2510361.9337 -14496814.985 -73722.499459 -25656495.405 1279161.7835 -740948.52955 -1913362.5989 23170154.522 
-51849927.973 21426268.291 32055858.73 -46436404.42 -160475021.28 -4176227.8393 32407092.232 -6397111.8207 83269478.06 
-87125609.857 -97446081.548 -22666461.682 11358810.699 -77209613.047 32618188.932 -29568696.884 -75541098.616 -7680671.7978 
6862682.9286 -31711889.139 2605420.7651 -16229909.401 98957.897636 -23680731.265 2085671.7767 -2466978.5031 -2417396.0607 
23518889.553 -51223552.34 22985433.837 32778673.451 -45222688.483 -158480143.51 -3441289.1392 33540266.23 -5939263.8541 
86003129.53 143563761.36 137536352.26 138673169.31 68896359.51 -128468863.37 -115634746 -23232514.334 14440129.748 
-207755119.27 -54695725.929 -139600922.15 -223098650.78 -144292124.1 -150046789.37 -94072239.014 -108960968.93 -798481.86084 
63111396.157 -58334938.454 45272277.144 -101159663.63 109813220.99 -43448024.965 -95666808.444 -76149018.878 -62612039.412 
-36351449.267 259302.34431 40175239.721 -99168962.166 107173911.47 -24594334.715 -104110857.37 -176885020.78 -151683202.24 
-54328147.306 -9746423.4328 -12841437.363 -19195014.887 -16044015.759 -14488305.152 -16319590.637 -8992896.1783 2432679.3738 
-9770599.078 -11040268.349 -9941269.0282 -9365562.038 -9605963.7305 -5195751.5377 -7263951.9337 -2143579.895 -515008.56354 
-8386984.4128 -7203214.797 -2794724.5756 -12956030.915 -16994121.183 -12692172.173 -13483464.746 -16561132.046 -11903313.639 
-17153515.863 5859429.9061 -9061897.4235 -9613099.4496 -9092074.3051 -9674751.707 -8782244.9473 -13707894.828 -10081139.838 
-9349827.3969 -17165583.657 -16536120.119 -12806956.012 -18931948.73 -2360003.4584 -1416163.9674 -9151534.9636 -10399871.746 
-9160116.867 -9486492.1454 -10461523.27 -194395960.13 -134976214.68 -89993611.348 -17344759.508 -14631116.149 -12098645.371 
-14542823.394 -16502459.446 -14143920.178 -23594411.921 2046653.1611 -8963547.4423 -9149704.7276 -9961431.1303 -9346475.3061 
-9234915.7819 -7971571.4879 -7226208.7428 -2772356.5816 -399237.72397 -6310137.7654 -7540652.071 -2493056.7446 -14722893.111 
-14933607.466 328688.00161 281179.8944 25102452.65 23583952.189 23696665.671 26892082.763 27084017.832 26345661.964 
30000758.066 67374162.004 35912830.473 29615368.264 29438590.15 42590002.575 43524481.319 79470678.966 85843500.612 
57650583.145 89528889.11 57152743.814 49196710.278 -47036518.99 -45176051.613 -9589722.2731 -11136266.678 -40414063.553 
-45099566.911 -49283859.387 -54355426.406 -42520599.46 -58118982.742 -52116262.439 -49968136.364 -44658804.346 22973660.155 
59591463.152 78382608.04 -36306933.815 37685154.623 37015704.234 16915741.77 -30289450.216 -6441036.5437 34523948.216 
44424902.824 10032008.506 81773730.9 40942024.276 -7106388.8982 26596442.317 -45608180.774 38952420.281 39890519.268 
1366468.8286 -40362960.335 36129258.149 46020974.17 27278215.159 -654501.37325 63877127.321 -22111966.207 -83353184.955 
-42096672.22 -49272835.215 -48858484.853 -65011416.125 -61385725.049 -58505378.338 -47985823.287 67435993.868 60722766.127 
-28022163.041 51775220.773 66165700.531 -49199425.953 -25398510.82 -12636590.436 13758088.131 -9176691.7941 -31532689.801 
1641611.6722 -24173970.12 -526618.39791 114190750.18 29098371.658 6925985.2147 28467403.107 32942011.986 -18616125.642 
56140327.171 10763587.263 9553007.6087 19213127.164 7797509.3437 38296387.415 78694291.324 49357201.404 -10764383.356 
-53717595.253 36793475.999 32062964.299 32305664.365 4323504.4627 43403062.619 -17059587.26 10076640.744 13242371.192 
10429066.951 24181778.798 44151066.272 49525106.726 4962800.478 49127269.705 14226420.383 24545474.889 26492271.034 
28792131.258 19844696.33 5497582.481 48263730.888 41019212.55 71680013.456 51019830.043 52609631.737 41403283.117 
50432530.393 19685321.64 65218471.507 87326008.023 -38487132.238 38107561.646 47234761.066 21187773.628 -36763173.463 
5863158.6719 22229529.859 43852352.748 10663279.191 84770775.613 41591207.397 -11355126.795 27182388.12 -40218986.808 
40985899.804 40295596.974 -37482139.111 1945531.3434 37010743.864 30205802.308 44936943.049 3648695.4659 64620331.919 
-93199845.923 -30118543.413 -13149952.049 -48024064.616 -60363192.213 -52278205.21 -58047541.35 -64379610.122 -50928697.026 
51770898.124 80395406.341 48614425.704 -16720235.394 68544675.731 -35341762.799 -42044921.405 -11007321.472 -16833709.226 
10572103.98 1877994.1276 -25118825.746 -24763098.751 -1196490.3296 28853640.116 112513324.7 33450008.769 7003835.0125 
-7174085.7022 39815038.519 64219764.339 12470167.883 19984746.144 9687689.3904 9103155.6267 81769626.398 42257606.53 
50816841.735 -52308711.91 -11190296.74 33506147.049 38539952.617 5205251.8467 35480819.231 44568816.023 12667198.95 
-17188515.616 14407821.872 14943176.497 27792727.013 48576242.11 48246329.5 2783331.2349 13990606.172 50643190.561 
25677029.522 22634001.797 36772614.628 28417455.043 3714036.8993 45586666.847 55652670.66 73385138.2 55006194.801 
56313756.762 53129429.738 42459009.13 9247233.524 35320834.446 -1445509.3524 -24334344.327 -109980411.78 -183291338.14 
-206384906.24 -77582281.631 -205708321.12 -77742518.291 -46249602.851 102124607.5 132745456.18 100848442.6 -44795557.315 
-18202120.776 9280683.7615 -47312448.63 26076394.442 40864987.938 20510316.039 21119113.54 -29470295.426 35495927.953 
-62006403.312 9927234.5001 -17785355.461 40497219.688 25882776.069 -29308209.814 21082198.637 -98857955.391 -98918433.908 
-38956878.892 -144400115.54 -215527271.64 -112454738.2 -99530579.243 -84255752.087 -24802041.095 41124580.139 28228328.022 
-83783273.636 -95729928.835 -37012125.997 -23799017.235 196742.05122 -13828991.511 -42123720.579 -37882645.896 -16900390.203 
-22262998.027 -22291200.931 -5910675.8549 -29985953.612 -3825102.4877 -39953338.406 -15720698.908 3156051.9111 -2278285.5291 
-8199268.7619 -1286728.7441 3590039.0671 -2065293.4043 -21857103.617 635781.42508 1066688.6329 7715089.8007 -1502470.3048 
-832431.26688 -474632.67207 -2408213.4465 20077841.676 22081024.388 4283333.3479 -3256360.8629 21555603.628 3326306.9446 
-1681491.7624 54753131.056 -83615808.86 22682373.949 -78971952.241 -23764555.627 -40783308.811 -66944546.558 53046940.362 
-18222141.204 -18272973.154 -17919716.949 -19086597.511 -18923508.557 -32352119.352 46339850.743 -15172744.628 -5131911.4381 
-149555390.58 76030766.124 159304899.66 86593265.066 -79091845.721 231065015.97 8097288.2764 103699054.84 -152215135.73 
-16910731.875 -33600249.157 -32998603.719 4510381.1756 -18285516.358 -145347368.92 -11203442.43 -59279574.684 -20574910.397 
-58646935.415 -4550980.3653 -21157605.948 -16023157.444 -18964899.01 -17101162.17 -13718296.568 -10137250.961 -17015489.909 
-2748616.8806 -2384533.9905 -5889932.3105 -7268143.7975 -11660925.006 -14971233.641 -69945611.468 -10325614.813 -19292552.916 
-20769567.611 -43345849.557 -29735376.479 -18868539.762 -14750038.366 -28698151.512 -19909377.931 -20771908.038 -19164634.786 
-19127542.619 -22736923.799 -16006703.16 -15073084.273 -16775607.802 -19332357.772 -22609991.572 -15774649.912 -16730784.666 
-17310968.263 -16255944.659 -21640434.562 -16833981.306 -18402564.152 -22223411.738 -17490044.772 9342706.3416 -2510032.2226 
-7470875.438 -14458384.525 4785974.9707 -5948625.7106 -14670604.963 -11587604.72 -7883206.2356 -14803017.781 -8837932.7219 
-14448829.973 -7574508.6641 -17351447.221 -115864242.36 46926637.538 -20348854.704 -17747373.71 -17837572.29 -18047686.988 
-19758080.403 -31871749.743 -110742347.22 -16287799.529 -4881811.0597 -121753945.48 -39033138.064 -196082422.66 -3791332.6333 
-31616478.112 -31560403.041 19564526.154 -76435318.228 101834785.14 24090185.438 -57501031.131 64009678.033 201867752.87 
43900971.966 -136438795.47 -17819875.213 -19205530.658 -19750600.323 -16733236.269 -15054470.383 -19174748.544 -11089274.377 
-155956024.8 -51977656.85 -22198913.604 1203075.1822 55922574.243 -12170746.557 -16805257.459 -2536310.3369 -2352942.3306 
-6913815.2911 -5485964.0883 -51310416.405 -15542791.653 -32851506.79 -61046288.87 -24626710.675 -18938078.08 -16778770.536 
-19165013.9 -25472888.472 -17731278.032 -18191028.161 -18871821.157 -14921478.666 -22026927.76 -17408954.627 -16063408.39 
-17375208.364 -15980555.134 -22123773.872 -16093310.031 -18237438.19 -15578467.673 -17441104.183 -22922590.503 -17671780.906 
-21802951.728 -15560115.064 -9619722.8248 -150097697.39 -211974934.38 -109737532.51 -17259441.512 -2663062.2373 -7708785.0307 
-14875949.195 -12452170.489 9930153.2016 -14857462.193 -7038951.6008 -7765966.1718 -15259191.248 -8274067.2267 -14500434.543 
-9136471.83 -5319658.4478 -1911882.5968 -6558523.7088 -384603.7202 -2092912.1867 -7031283.663 -6247654.2727 686239.58855 
1148483.2743 40412371.351 50887971.167 48519025.152 41217253.029 35518215.434 35257199.769 37251046.915 31308475.294 
38241591.929 61605176.974 37062445.801 42722396.981 25735806.158 20476639.331 52307168.846 39472310.247 71613863.175 
57112906.624 81954795.48 17948739.833 18850617.737 32417517.31 53310783.7 26946192.376 41643535.194 67522331.321 
76985702.708 65648102.139 -16315981.675 55357592.194 -9731351.4009 42988310.61 12282210.653 -48914169.154 -21679033.421 
-115297763.6 -20379220.385 -51443788.158 2477642.9056 39790482.112 62927949.816 42002889.594 37375317.99 9630285.6361 
11838524.505 24097769.135 19969793.183 15725893.663 -47571384.645 -20794593.223 5540730.9106 15003857.849 41756066.475 
-41577272.381 7503124.9579 -7475868.4033 61500373.283 76218871.885 -12978051.108 45641579.087 5236210.8937 20562608.36 
44592579.7 29808489.906 30417571.282 -52010943.107 -34958100.284 -57703531.242 -46712761.019 -66067802.644 -75142.129071 
53898499.378 52431535.673 -38016768.075 -65095496.753 4996910.9313 46249382.871 24860261.6 -22190135.958 37860644.177 
75808419.388 28185576.568 34423444.996 34752873.694 33085769.068 29733635.392 39231223.692 3028598.5312 25064814.337 
69112262.409 96658652.996 98955724.349 -180227496.88 -93495493.163 3298708.0292 32520967.279 23346290.089 548371.6042 
-18309576.654 -19595073.547 6073028.6304 114127979.44 -38970184.875 4111449.9868 -38495452.663 100401809.32 87512802.094 
-57314488.713 -16635114.252 -19650410.527 12780859.327 -68419815.565 -64320647.956 -64801004.757 62221032.525 39970927.484 
921454.02078 -107985.08671 -37389697.526 -63481292.626 -65572680.933 -45231113.269 -52777790.714 -71004850.459 13557640.423 
-7781613.0835 -15806942.756 -15548003.063 -18987041.176 -16114122.694 -17406776.468 -17639885.167 -15884685.991 -16039937.154 
-18586542.334 -17256907.459 -18338636.834 -15037887.552 -53023260.179 -18290106.358 -15216386.273 -18440201.641 -32199597.797 
-14340567.285 -19699748.439 -18580674.524 -15177652.465 -17416910.927 -17446638.688 -16762442.03 -17239814.604 -16006625.916 
-14280061.395 -18388316.498 -17741941.489 -16732224.184 -55928231.812 14193225.25 -20673209.959 -16434653.346 -31825243.218 
-45467860.735 -121025630.31 -173460019.24 -47711817.373 -6007553.5949 -4885995.8889 -2529564.2652 32842464.2 32240137.4 
30388357.552 67849985.042 95552137.455 152909868.7 -29011505.74 627483.49376 959322.74914 14234738.475 14608868.422 
-57017030.732 -29566487.858 -119571715.72 -6380657.3058 -2357603.444 39628613.595 -20999741.962 -69593303.366 -64587718.005 
44437069.391 -65027754.488 -19820771.046 -42325486.636 -9578867.2573 -110918503.77 39493697.779 135710590.53 43165891.357 
-11889941.358 -13874673.355 -15511977.725 -10714745.326 -14849767.618 39609097.964 -15782598.179 41099834.43 14999733.622 
-68337872.849 36233315.808 -10320393.017 -145855766.31 -72694587.631 -118224.96435 -80239093.006 -48771873.982 -48513592.288 
-32142160.861 -15133275.443 2440560.1513 -8658669.9275 24920908.541 -48794157.024 -41363442.342 1678654.2217 -24585852.486 
-30841919.622 -114314197.41 -149132490.52 -39071119.15 -27987852.902 -23198100.894 -22451583.837 -22713436.256 -736740.41836 
62276067.575 2427381.5224 -21652227.329 -23342694.23 
Stress%20xz%20component 1 949 double
-2107141.289 2173521.2822 1573131.5958 -466753.08228 -24887418.109 29951186.372 881972.88779 -15139538.051 12591206.647 
1802185.3038 -20322355.923 -5345910.6108 -501959.53045 152865.04511 58128814.841 12021363.967 559658.08037 -1619655.9811 
138130.88502 -60072903.421 -29671168.985 -11975779.226 6039496.7275 20396313.93 14517471.956 -20278058.349 7872357.1168 
654207.43067 18414.708387 -61843.497125 722198.46623 -527462.18266 -1312363.8824 1061500.31 -90384.146232 -153885.41324 
-7206.3368855 362309.84144 -921971.82133 -855186.89736 -451792.66289 521708.06512 870325.27551 166888.26811 -2152587.6661 
-13675771.991 14720590.713 -1975940.8822 -2903716.8238 -807567.67064 3298805.188 2976322.8325 1343292.3548 -4236581.5425 
-567336.33795 8603107.1766 1730998.9093 2386526.2893 -1204150.208 -1280072.3838 -897859.44719 -943863.36236 -9381373.3166 
-3815277.6655 -21823552.46 20724058.64 19841908.08 -2948299.1656 21942507.013 295403.73496 -978566.69346 687731.18654 
380910.36701 159283.86158 464318.38257 -267317.27336 -1284818.1648 388470.89431 -1688773.8394 -146189.83191 1855381.4679 
13392268.645 -2446981.7303 3082748.2296 -29657665.464 -9148909.5688 -790889.35174 -2387371.4693 874273.34123 28306484.659 
20281731.812 11784121.714 17720061.228 -37511850.752 -26818841.172 -27373764.44 -24008079.581 -14529684.819 289894.35176 
-1341412.3278 -1008660.0427 -878179.92197 -2555043.0381 803932.12764 2003944.2146 -199799.66607 1231236.8874 429806.37135 
-4347124.0784 -13853424.838 2593859.6421 -3220863.8603 31535026.326 8127913.712 1065243.003 2126878.2325 -162578.62329 
-25772413.971 -1765322.6475 18440949.508 -21627613.118 -58346108.383 -35992630.812 -23365910.779 -49658120.871 -11155957.158 
-5257984.463 -59176756.82 13390548.624 11787906.6 93860224.585 -2286777.467 49994885.121 36364452.897 60975548.533 
55412983.714 7133270.251 52255790.294 60671059.28 11501641.208 78754311.283 37699649.677 1163278.3176 -7346141.7661 
-1776273.6395 47506.894 -79953623.755 -35974109.378 -45086861.614 -70781881.251 -32298784.823 -14667001.394 13926157.644 
82118763.891 -4305017.8803 -3103767.3296 355990.28938 -430664.74619 -79085.792325 -292215.60707 -50728329.579 -4294628.7555 
493033.3012 1282545.7418 1103649.2299 -1152245.0231 206545.71925 -1087211.4612 -303403.39767 -332160.48096 276968.39926 
-256637.67673 853252.84558 -353592.21273 1457909.3255 -1062278.4911 2322706.8925 1059734.5187 592632.00288 1009553.1845 
41071670.404 2233431.8026 -1067523.0204 692058.62712 1129183.7175 -1104345.7871 783638.13656 447730.35049 -10932125.714 
-482904.09248 -351179.21733 63943.779444 -1656037.3848 -72245.406588 -13785356.634 10467257.288 1837614.3277 1268037.0103 
-787241.02772 -348038.29983 1387355.3568 13739476.279 41834747.599 -77634116.385 10791421.53 -24243.242072 1299311.4523 
474998.84629 -240389.35556 722940.21223 30887375.406 -21757558.606 -1986220.5516 777839.03134 275628.01209 996658.93451 
-979205.73448 258076.80892 -744514.76665 -511387.63142 295180.6674 -363028.31469 904306.59939 160253.84629 10426930.524 
4642953.8271 49179.878614 -182749.31295 -108139.49103 -1252775.2247 1194409.7159 -225610.53927 -56866.688149 -622668.6709 
-758442.9752 -24847.998397 2328.6409403 1189644.0359 -1162077.3356 -523586.61615 1588310.5894 898245.03979 -3225647.6571 
-1805000.453 6254095.0248 1759885.0923 267003.81503 -486317.21465 -2063501.8627 -894222.846 996598.70339 829207.91618 
-2252658.2031 -89632.700445 -5768387.82 2336696.1205 -612383.32366 98376.124006 -2685131.693 -1038872.2077 1024846.486 
-52851.422275 146234.7883 1060067.5219 2356466.0976 -6221014.4362 1354434.2272 710118.00314 -125408.52933 2500332.2084 
3168466.5506 -4624791.9755 -6432486.0987 -1750439.9301 -243272.4264 -259714.52779 -1304491.8767 756148.09537 -669498.23823 
1013723.0325 -532396.79126 -1231131.2797 23355.439367 2141570.4627 2707896.7894 1045303.9098 14876400.401 -19492017.34 
-6476629.4249 -2649464.1456 -951730.57792 -1187019.471 14856270.613 11967717.17 1257286.7409 -17490426.254 -16077777.789 
12566183.855 23015871.53 3711874.2035 -5499056.2729 -10469311.952 465342.25657 1313828.6445 1924076.0429 -42204.99173 
583202.55635 3039903.2294 646206.74004 43186386.946 -31733298.996 -6077393.7422 7237881.1583 -23281790.545 -34164318.961 
-13574200.437 -8100393.3219 -433642.44189 657203.12152 199025.89333 -2352715.2998 4291425.8057 -3532133.4223 -121286.44054 
-2559490.6456 849555.96392 -1540257.2865 -2427096.4821 -1278081.2788 119108.94468 -8223060.0577 -5288807.3124 6824896.0923 
798054.56625 1932409.8544 10080608.833 6332896.653 -711998.84633 -1215540.2144 3175696.7266 -275713.6102 3552453.497 
3789481.9882 1109838.2489 13190.144812 1838158.417 253957.98732 1337179.9564 448121.02375 -2593724.8297 -3083874.1323 
2162.2178965 -660764.97792 854520.41636 -2155039.9452 -9527884.7041 -3518536.9608 21401082.574 -1431956.0317 393527.68493 
1609939.9576 -1213679.5645 -10501476.931 5328203.3671 3361772.9196 2147085.6204 3510891.004 826682.29326 162224.52487 
-365640.33184 1747668.6524 203965.49981 151181.9117 1449507.8827 -1226105.8694 312992.20557 -4588086.7506 5778408.8165 
20603983.864 -12977972.717 8075777.9984 3152641.959 -499577.55992 1018211.5376 -14220572.608 -4070690.5421 -2860870.5621 
-2740082.7414 -1133570.0835 -29246370.779 -11331441.16 -7220147.4488 6088751.9002 3813700.7526 1339853.3206 -619607.05365 
1097364.2576 1000280.4347 429936.98389 -946134.3942 -1890081.6754 37118715.155 -41146447.019 -8929984.7829 6733550.6603 
35387196.301 21555446.599 10359788.444 20682304.284 -84381.91577 732717.05313 -1569553.2396 -2062713.3707 1002968.8062 
2602317.1305 -160359.80093 226564.50588 1807897.439 -431489.24674 414046.01499 2693703.5886 1470259.7146 5264297.8524 
10495299.918 3726367.7695 -5967960.3763 -1512410.2174 -14684567.892 -5541786.3979 -14398122.039 910215.47757 515044.36433 
-288310.41545 -78266.959724 -1161161.0131 -1183736.5601 -2122576.9293 -281014.02 -2125643.368 -19146.96278 236060.17159 
3404061.4717 2227413.8622 4053083.4464 -205301.51672 -577380.28768 490101.43997 -732812.31177 232133.47244 -1459279.9299 
-15884918.313 15566577.177 14005358.156 -16128140.534 -38899268.706 35572390.379 -1783494.129 -35648096.323 38942382.729 
3352459.579 -835613.55398 689579.56151 1723545.5587 2388508.9078 257899.89118 118868.22743 -6465650.3365 -218065.23033 
-1166871.527 1416076.9301 -2748878.3235 -2663421.2658 -1998347.2739 7067920.826 -257531.70439 -45688788.606 -49418502.303 
-90113778.775 -43702027.483 10114754.726 43859731.994 26938455.843 72706183.754 90934070.489 66322745.825 87285862.187 
49534448.654 71934940.977 105002532.25 241406.39244 -495241.88737 35682.68844 7931982.1214 3630415.0281 -702858.14809 
-1257956.2184 1249517.6929 523709.45619 -5333927.3372 -633771.66781 -5602329.4925 136549.69229 1482208.6046 -519883.74021 
-638030.3829 245198.59856 -2363979.4108 -227040.81274 -776295.41325 112980.3208 27876.81284 517763.34749 -346421.92618 
22059.956784 -27267.527848 -280764.54876 -380487.83437 1944040.5718 -1472398.0584 56170.537951 -3123806.5415 2667732.4422 
303706.94388 -6007997.3471 -32097624.964 -88884121.285 -87199746.543 -105119976.6 16638955.219 -23405124.943 -6274415.696 
-746413.26721 -660479.32074 96870.168825 -93512.681808 279613.05479 995420.92744 16486867.695 -191039.29796 235220.97931 
39366682.077 -9477055.9727 -34204844.336 22990280.275 33937247.961 -45611928.632 -60044090.12 21839290.341 -54854483.268 
-63832125.755 33965629.471 46703642.451 -19815865.555 4786276.8704 2910645.3995 42019815.576 36246425.864 -21301769.599 
-12566575.735 29337246.205 -2931470.7543 1552660.97 -360740.85311 -457251.93943 1483067.8864 -721540.7884 -1129979.655 
331784.21065 270160.98552 -273378.33035 567591.64395 77872.207923 395246.31476 -32571102.038 1326548.3576 -6541243.7632 
1431240.8339 -8986569.7888 497497.05477 -1266358.8041 -176588.04794 5455530.3593 112629.70263 3271895.124 -2403650.8177 
-1072734.0034 -3139748.4669 1538496.159 1582874.2286 696240.89936 -2183898.4505 -2650259.2293 -80449.867854 852801.1752 
666590.48296 -969304.03152 1682556.3352 -562601.63703 2004208.6372 -913733.31074 161448.68127 -22076647.279 -5335017.4903 
1716943.1158 3405627.849 -6587216.6502 2692937.407 1115805.7441 -5849084.6987 2079729.5133 1434318.3335 129250.4596 
-1117796.1508 -1486702.1494 -10758594.128 10446072.503 28667593.426 2012.5247216 -703759.5624 -46245.574034 101644.87263 
-194549.43847 6783223.1048 -13636456.802 -40958.153928 288316.38563 -17015608.193 29206675.205 27617340.004 -29364147.807 
-8244110.3016 3179738.2861 18429655.495 40482303.791 -9634290.9536 -39818087.145 7589330.9118 14770015.205 24024902.598 
-24668441.76 66422013.745 528745.02879 -526401.30565 -847384.97249 -728255.24143 375664.17172 87680.024532 356076.38753 
-52274933.858 -48433930.055 -2329827.2375 32603067.464 -35365557.808 184014.2823 -242730.85109 143123.17706 -302823.84577 
1162520.0484 10630.765278 -11654225.477 61311.057693 11154360.562 -19859311.053 -14908386.63 -66082.659037 -219290.25542 
90761.698516 3213200.9726 6045636.2477 -981768.45393 -2687853.5811 284451.64369 -1667383.5457 33466.584242 -997842.32797 
-392257.45497 1499618.1841 -2898612.8405 1656738.9297 -663080.04943 -881776.32273 -208096.39806 2548089.7107 912631.1131 
-2181416.4834 1152095.3195 1171126.4445 -44226744.331 6788372.6055 -62470408.251 30141006.662 -3088240.2111 -598273.96414 
1968061.0548 -3192773.6497 4109406.7484 3665811.1906 -572915.70154 1950709.9309 -1944932.9978 1186228.0532 366894.70776 
-31561.034603 -940650.17777 -853386.92282 -551470.02308 -117675.99789 -104335.62446 -1774862.0398 1159245.3722 12111.149566 
-356805.65469 -376690.90028 89793.959671 71691.716558 369405.61094 -2053268.7006 1259375.4778 258405.51664 52114.535655 
317511.00624 559051.69744 -361524.00931 181582.85486 -419565.29979 -416194.17193 -1209845.5202 -807466.94461 -48666.375359 
2398489.2265 2136621.1253 -1214824.1987 1337699.4708 853015.49571 1891448.1836 -280498.16866 30589080.748 32308730.417 
1047645.4285 -1007502.5527 -12941065.723 -8770188.5044 11971815.832 -695879.12654 833877.76338 32419122.323 16741343.218 
-1261268.7528 1840593.59 427098.16915 -225804.35255 -6307866.0806 -27822318.729 1803404.1188 -1913399.0088 987795.14852 
-849712.12552 1009003.8982 -335271.96095 153751.70435 302501.94623 -384572.57287 5699299.6002 420060.51947 3265065.3911 
-23816436.777 188611.07598 -16529358.886 5763366.995 -205089.55461 -408952.47889 -33846006.099 -6192533.3595 427099.46272 
-1408320.1671 -2483407.7541 2823858.7324 -2886187.1598 1520382.6243 -5933026.0869 8822212.7748 1177449.3736 2476094.0422 
-2620594.804 1486445.0392 1016995.8564 -1676070.2165 -145525.33737 -125103.5768 617339.88854 578999.05881 -10233863.122 
1647436.6581 -866212.72461 -563336.75644 -645974.36398 1308301.9045 431756.56673 -454179.49191 2744942.2074 433765.37323 
-3968957.1655 16755876.233 2677844.3266 -44604198.487 10500888.883 -34297.970533 12704739.704 -975177.62289 -374430.34711 
1626782.7729 -1872600.2345 -65347.961986 7873114.1479 -871848.27594 262856.51375 -751794.58977 7684639.0941 -7606159.3145 
-119444.21597 31922612.792 129639.42453 -282470.81033 2316544.3404 1990433.8196 2852835.678 12022998.964 -277516.61824 
-227340.62318 -78560.226444 -5126586.3116 631971.6524 -2360799.1776 -602176.97104 -1504239.8134 3506236.0034 297977.99692 
15093257.758 442730.97998 -480354.0307 -329390.30038 553697.63404 94905.813444 -568848.35554 -11528.023282 897266.22564 
-228557.76372 -468808.17466 -576924.48567 1018356.1247 -1198066.6707 706950.87013 -83440.602051 -104875.62484 4958606.2328 
-1701350.9561 -6753486.6646 117918.60492 -430260.58599 176859.42893 -738142.60567 1445371.3014 -194868.40507 791135.0797 
403520.69328 -862183.75229 327641.19368 -1460862.9635 16689335.176 -2157799.4948 13511287.617 -2353373.5893 5999086.2582 
7733714.8367 -1527172.732 -1191348.4679 15304.917108 -411587.64126 185197.63857 127207.1538 392999.16079 -536421.94028 
-54697.912476 -11262995.76 -24987991.953 -9626290.7385 -307109.20988 370967.42404 402341.10825 -2398807.7206 3649429.6991 
-25145498.971 -31076202.664 -1319234.6253 -305844.63109 -29703.877186 1341270.5006 -892363.26582 -5854626.913 -3506964.5878 
28211719.152 15940948.482 17728613.048 -1127159.9645 -191469.47415 4764202.9335 775362.60546 15516180.518 -3075097.2767 
320273.22992 48366.26623 -255536.21205 -520948.42884 -128496.15229 2090460.6103 7182882.0049 -9488198.6485 -29839350.008 
26578616.169 -473599.15411 439554.9669 11466331.56 -29126021.769 -273425.14028 41419655.733 -355781.29833 -662751.17822 
-3533934.3107 -7902058.5288 8675874.7347 11590264.497 -8178892.2024 -874437.59592 -859739.11756 1473278.3444 25078736.829 
-20651186.467 -8853568.8135 -14211998.216 16147752.482 -953004.38318 -1268814.234 -712999.11149 868002.89689 13330655.818 
-1498469.1229 -2014636.6444 -1910744.3893 -1671357.8359 
Stress%20yy%20component 1 949 double
-20905273.305 -21258307.667 -1336215.1509 -392034.69779 101993055.62 105240237.34 -56667621.953 -84415390.079 -60277601.364 
-51223517.045 15513601.056 31446421.444 -18852960.964 -372272.90653 157348094.09 22992305.563 32422474.846 -17846904.899 
1152539.8017 166554602.6 -45794803.847 53443201.371 47770546.823 -27297607.201 42589776.255 48802893.408 -36136729.745 
-5482804.6707 -7093827.7914 212571.3875 900060.57831 380105.45065 4265056.0525 -3420927.5469 -8220690.6317 340240.28745 
-15083011.739 -2199479.6039 -12719688.244 -16489609.807 -4752253.2427 -12559791.374 -17172663.085 -4246948.3305 146238433.51 
144808412.57 126770079.73 -21263968.794 -30359612.649 42073418.125 -29337004.13 -28479183.498 39300150.104 -61605910.937 
-78022473.355 -55922338.747 -14695946.554 -3863315.5855 -26673944.316 -12979562.808 -574909.42086 -21494540.128 -47070526.385 
-69425762.963 -10470626.721 -54704827.02 33506928.121 -26752296.196 -3107302.5304 47512901.944 1173787.5563 3147420.6869 
15350533.469 4369316.1934 -13012486.567 -4176891.4636 -8120535.0705 -1346904.6053 -1932248.349 2365357.0227 19197326.735 
-21477882.593 9177780.5357 -77256887.698 -14187864.057 -92749631.381 23887348.571 -48406177.633 -23878481.545 106680130.2 
-49758020.994 -65832369.369 -3465952.3695 -40282400.257 21028248.798 -15257900.859 -10181539.376 40437617.772 3743655.9373 
3191377.4125 17298345.991 4164697.7026 -13560246.947 -7334764.0789 -10934132.198 211334.99605 -2353642.4157 2907523.6502 
22035222.167 -24964362.583 11239332.774 -75447217.642 -15700582.643 -100106105.58 23171350.647 -45536742 -23220611.449 
112163491.65 173829004.28 161689788.36 165574599.85 11858184.644 -48196185.456 -75388096.707 -49169607.692 83852136.368 
-43686721.367 40498363.5 -96332473.075 -50429412.557 -163340762.46 -86436579.956 -50049353.91 -76433651.049 -39042625.712 
3457379.6402 39922627.29 -28081888.815 58401303.766 -26784023.639 41579878.246 54005676.31 53520453.784 34116613.64 
-21789261.717 789257.40217 -2376377.4136 28090703.531 -23136117.466 34712589.582 44378963.399 72454329.298 57371291.427 
109968597.41 14716663.358 -1889418.0154 -3031270.2785 -98137.25748 3310407.4073 2845683.5458 65272518.925 10852967.977 
-3754954.3833 173697.11095 -678939.70403 2037172.1395 -1684915.6171 -7339919.1897 -6088057.4127 -7436518.0743 -3660482.5648 
1047746.3644 -747677.39399 229153.24951 -16202411.055 -725807.37139 -1535596.34 -1952278.9387 -512040.86888 -2582744.394 
-67269992.875 370824.89407 -3944747.4652 -1574381.1894 -1895793.2279 921581.83386 2444268.9107 790057.82003 -4588970.8478 
4727302.0869 193413.98542 823764.49587 1623850.5164 2997202.0759 14591716.357 -30619449.875 1425689.2926 -838089.32921 
1738197.8252 1719481.0069 -547803.24533 113492477.88 139155881.17 85076633.684 44486881.719 -2297890.9397 3063129.1188 
386079.7789 -2291372.8019 -3312896.4035 -22971208.455 19605497.968 -2120196.2776 -2406018.3456 1983936.1678 -1713587.9497 
385996.09526 -8065029.9435 -7410062.9791 -7448328.1074 -3499138.2133 -787232.4676 608639.45601 504317.86825 -96232219.23 
-4269702.492 -8353498.0658 300984.26112 -13085604.799 -15200841.887 -15450823.944 -12405396.045 -12421496.066 -6400458.7754 
-13516805.666 26700483.181 -15910758.213 -19346617.226 -18810045.94 -16351037.572 -20731269.514 94762317.45 133507549.38 
3878330.4217 119209214.97 8146.478059 -16995875.857 -29328940.01 -16783196.199 -9282296.6569 -8383406.2831 -14713953.565 
-15993160.542 -33081707.906 -38024575.198 -22222396.311 -36122296.469 -25533030.111 -24537877.179 -18569843.601 -71570454.644 
-32950880.042 -8563783.3106 -9197028.2788 26073257.36 -60494064.805 -50785547.571 -3107987.8007 -47563794.075 84277544.593 
-8256046.8523 -77370237.141 -41013296.391 -25404292.226 -44325268.815 -34450413.59 33247301.348 -21951223.305 -17615002.965 
29328137.779 2970087.9165 -9635440.6797 -10067738.353 8771763.0568 32643827.936 109626393.77 5218203.7966 648131.27137 
147428702.72 -24474631.586 -9921837.1888 -25455102.873 -27275810.563 -29739618.729 905266.10371 -21598220.113 -56588310.66 
-18826388.041 20973203.175 -20002329.433 -6396207.6429 -16947529.446 -15871660.019 25585090.586 15146856.423 -16886634.852 
-20016060.633 25438231.964 339088.03112 175288576.66 24757106.348 -28696090.092 -31417494.69 -71341034.793 -30877172.416 
-42138706.502 -46947022.408 -17467810.372 -14918083.315 -36673092.724 6209929.2521 41236063.665 -20201826.268 -18883750.198 
-14983151.605 -54300944.492 -7037922.6767 -15124336.595 -17843578.424 -21095095.866 -38131728.073 -62583986.485 -45230349.526 
-64578981.196 -32725168.935 -14325767.828 -41401220.063 -20333020.211 -48227879.45 -72760628.253 -53524253.07 -65531304.791 
-52226721.319 -66067789.644 -51024818.621 -43914934.558 -40033562.74 -36517095.64 -25887764.279 -25787466.375 -20143635.955 
-26973919.688 -70902220.606 -28007614.686 -3930368.0362 -6350403.4821 25165644.457 -61375235.561 -45124397.652 -12188994.769 
-54045772.312 89177639.653 -5067752.9446 -71617326.235 -27470572.057 -20220258.099 -37155806.983 -31916634.543 55662356.876 
-22526819.068 -19237038.5 5995150.3285 26279855.411 -9680845.7708 10800535.447 -7741027.2486 55035993.559 107318686.15 
-14183919.417 11284199.775 154070155.85 -17021859.467 -30304235.703 -9916361.3776 -25218551.343 -29918555.77 5606520.1311 
-31236443.73 -2116529.1785 22443915.668 -12307640.569 -14561599.466 -3673173.3791 -15013916.328 -10483439.822 16861704.516 
32269855.684 -26071867.734 -15338308.849 33092815.799 1302943.6065 15370623.088 181065748.77 -24832888.689 -33100033.129 
-40317699.908 -73847350.569 -37143006.551 -48408597.711 -14850549.393 -17814784.181 -32831939.673 41432808.566 6071313.021 
-20079197.468 -18077314.006 -16276108.116 -5256796.244 -52410166.282 -13904923.921 -11596233.702 -20195750.948 -61547829.035 
-37015807.31 -64684067.854 -41612508.981 -32178904.824 -14534910.958 -40232241.588 -13888586.073 -69731513.535 -49723759.561 
-53150037.267 -62862712.618 -50075728.922 -62619698.816 -53694279.62 -37195341.715 -41112686.675 -28941532.338 -25425695.602 
-19358864.236 -22539773.106 -17376970.879 -57969766.278 -47752870.699 26849809.832 22621296.65 -89835732.468 -163826606.66 
-137442771.77 -59328179.022 -136389122.82 -61503141.147 -4952909.4555 151752924.24 219767332.44 152586826.95 -6976808.1082 
22157835.044 25102211.605 -19332542.075 -18215393.081 -92796894.931 4551745.1449 -65935958.111 -4282026.3132 -73122378.019 
16944274.985 26216690.158 19477921.566 -92852654.292 -18421623.851 -4427006.55 -65964891.392 -76491218.946 -50886131.556 
-25246842.43 -119976002 -57511831.02 -15831994.862 -73064750.521 -53430515.953 -18861980.948 -25288243.413 -38013586.91 
57620335.37 47647765.478 5942385.9185 11108931.596 -3675395.6338 4478912.5269 27069264.204 25119343.142 6519368.7465 
-18919953.179 -12559929.719 3586564.3262 11883808.565 2648676.8246 14143127.479 6758480.7541 394607.98836 1631849.5651 
2684117.6061 5693251.0612 176964.90745 1939341.6214 -13594271.496 -5454598.2864 868197.12212 -5029530.5834 764356.78069 
555550.48831 790174.74272 2395034.2022 -1183632.9667 21547685.077 -8458994.9663 3224542.0201 27780025.5 -7108544.2248 
3891899.8978 -21585519.372 54520929.234 -34512544.64 31314079.083 9007476.3704 21482418.477 -207521586.85 54117025.328 
379991.19082 388884.26639 429157.98654 -553459.08847 215842.16163 2619890.3931 115824461 -4471953.8658 -3308640.7945 
11980477.161 17347656.48 -65154403.847 -98233853.67 -125503803.14 64405694.257 -62466112.591 58499496.586 -127555070.33 
-68653807.763 55557626.567 -50118082.759 4726725.7345 41194413.167 81398828.003 52186850.461 156846733.78 18922902.258 
-7574326.6792 22764234.378 -2069095.2096 -3500185.3613 2826621.125 -10600726.625 2048000.0834 -3901337.6982 -6714413.2091 
-1310813.3945 -5193776.4084 -7984843.4192 1470194.0692 -5000612.9934 7056159.6635 30832024.375 -3579058.541 9890446.8778 
-12972129.201 1577704.0896 24143098.609 7498920.7769 -7697771.79 -2831211.7707 10957414.029 -743810.36288 7596701.4659 
-6302849.52 -225861.29139 6200762.818 -4960291.9788 4944866.7121 -7956575.0462 290500.61197 -5837710.9351 6179238.9912 
6075921.6638 -6005057.896 401317.34087 -6122622.562 7857108.4448 345384.70784 -6597284.9918 1068184.9133 -36384568.421 
141007.71102 553459.02091 1368905.0918 2255237.7798 338825.36564 -415649.75991 -384559.50993 979861.6237 -255643.26426 
-726351.005 -234123.63584 -24205008.215 -89937191.561 -6460931.4915 367985.93466 -80032.922785 537587.46415 -729202.25292 
1148340.6243 -5782560.7237 52648750.152 -3937418.8056 -4375929.5828 -17065713.3 -71840404.497 -58849772.32 21661589.382 
32471212.739 21931290.436 -26778767.981 -58938598.091 -18163396.73 18231700.508 -76542057.411 -109512079.81 -30573465.127 
18752159.866 126511943.08 5187912.1603 -5997951.0079 -2005628.6417 4388494.3876 -10264782.221 5446083.5091 -4219057.8442 
72965849.855 49260789.362 1691926.8905 19164523.389 129146491.26 -3125806.2702 -4763056.3043 -6241733.8811 -1988994.9224 
-8938770.389 -104620.47397 94754545.634 -2898094.1803 20960148.323 -1024456.3276 -29835955.664 -6600289.681 11526878.389 
-9578689.8697 472349.75411 -2249058.0654 -7124453.881 6686730.1449 -7132119.3579 -665901.39829 7960683.2017 -6235382.0914 
6319674.6979 5349545.2151 -25871.786351 -4730895.6048 -6709203.0187 5350594.3413 7464555.3367 -734583.92335 -6619410.0685 
201594.88971 5306104.0335 -3564043.8972 64875413.368 24724314.965 13368825.561 39303432.892 31057766.986 490226.90804 
635783.6738 831798.782 -151981.67716 227346.50367 -88582.942803 -288400.1253 -928947.80417 -175734.47217 266109.86578 
409228.80155 -8365474.6962 -7703112.8603 -8348229.6149 -3687822.6233 309478.80536 648283.10638 514617.47952 -791373.74648 
119643.15369 -27306180.712 -27451198.45 -26230316.62 -20731554.83 -32623840.166 -33630130.249 -27422566.298 -39864529.883 
-23106422.11 -30357452.245 -31909605.017 -38200026.139 -42740412.398 -47911981.18 -41771536.077 -19967784.173 -33211929.394 
-42272706.429 -31219608.945 -5723805.5972 -5432295.8264 -51115062.465 -23882851.398 -40823326.91 -53975361.09 -37404165.35 
-29915371.68 -22925507.416 -22780669.156 9544423.0835 -19868693.211 -42639451.935 -72433533.389 4412481.3936 -16244916.032 
14951288.078 -17927146.959 -7829065.7888 -18514273.186 -22534723.288 -29373114.349 -40442125.234 -51190665.229 -51654613.23 
-50733173.252 -58556536.273 -59803728.328 -70057750.924 -2920077.0087 -1207510.6992 -56627916.055 -62145777.344 -10856552.851 
-8623832.5736 -43495904.371 -20558400.905 3775719.908 -6628668.5173 -36464806.237 -46617919.677 -58802911.638 -69805319.01 
-47225102.988 -52876768.794 -51818172.497 -2499532.4532 -6091264.3843 -18145612.402 -21104035.35 -18223805.274 -20820976.551 
26532483.37 29163574.075 -11476356.656 -22400538.644 -53344499.531 -24808194.333 -46990462.426 95779.569251 50354392.676 
55591020.465 11186825.224 -2662629.6695 -3389185.7343 15915117.524 11779117.358 31320816.31 48537632.707 -31460856.042 
194251.55467 -22502800.712 -21384335.555 7776215.0709 70822132.262 26661719.619 38139921.401 78370899.023 -12904716.416 
-10038899.405 -7828517.6623 -35245884.105 -26581224.108 -4082114.935 30474389.216 47934624.595 185606371.34 175702199.41 
-30841411.424 -23043806.342 -22942719.041 -17400307.32 -24441005.024 -31443223.097 -27536168.417 3625371.7898 14500229.6 
-13838966.305 30072882.411 -586317.65808 -28396017.688 2324308.2769 142363375.95 -18010166.494 4039133.8702 -16683031.335 
-25086559.619 -5171650.8307 4551936.5741 233270.52764 6450596.444 -5659155.1268 146558.72354 5845863.0285 -6100785.7273 
346125.78489 -5324561.8349 6485135.5544 161982097.26 -18493518.834 -12233924.581 7019782.1531 34975.26615 -1004488.2305 
-5071048.7591 26118374.715 -282173.94602 -6763434.1517 6167738.3028 -6508161.0639 5654699.7427 -5877478.6927 6061447.2021 
9820853.713 -7359643.3957 6539717.5501 -6001582.3055 -30449571.931 35841814.504 -42494007.457 7150284.4398 -7019794.9927 
19486216.919 -88049619.607 -126127369.63 -23980935.391 -7530323.3073 -3833902.2924 -5749299.6597 -13895196.285 -13438042.692 
-15395423.371 -2776947.0068 -36920239.461 -28160940.996 -9343473.8538 -36634623.705 -24862628.944 -15353692.409 -18989107.931 
-31954032.83 -32641071.999 -30195440.087 364426.3895 -2232572.3741 -13342015.804 19389205.191 -23111532.605 -30554590.128 
-52783600.487 96275957.846 106779264.76 3117958.8773 12252182.906 -80615116.063 -13268606.937 -8221015.3065 -6508355.1714 
-3412531.8686 -9983329.8059 -4114071.7552 -4336850.6273 3752980.3251 13640692.957 -33026160.061 6795142.3994 -81257244.153 
-102651551.33 -7052459.4754 -3733953.2207 62663066.907 20879659.64 2233363.1853 13786498.696 -13474296.141 -8234903.7614 
-25800953.367 -6087784.6824 8052519.0359 -43122605.028 33023218.188 -14208837.533 3952446.4596 -5234819.1965 45588115.341 
-57491595.405 -19761033.967 33352076.114 -10190236.742 -717402.1954 -354818.59572 -310274.49827 889946.43023 -40537133.068 
137846476.82 -6178923.1623 -2021750.4838 -928704.17212 
Stress%20yz%20component 1 949 double
7163032.0227 -7207679.6746 -499750.71047 -801886.90138 -7786211.2615 13784059.861 -2990250.7579 -10345983.062 4417405.5812 
476468.19185 14274595.74 -1572007.514 -2050330.7997 38574.079978 47379888.163 -12905267.749 1675370.5227 1886958.0339 
-231781.18977 -47151132.927 -1167270.3028 7567902.9659 20368930.502 -17700828.827 -11729035.411 10691295.487 12594660.163 
-131889.66651 -227066.54943 -159875.34117 -150489.39247 -157204.52472 -4037765.1214 -68791.992137 186977.41878 41321.395056 
28227.147651 -802067.30394 144015.51562 3677314.0774 -1981856.3644 -998352.56167 -3675708.0763 -260582.58288 -1526819.6728 
-1053713.8906 258524.75294 5974656.3129 11019596.875 3238977.0159 -8919774.3058 -11299053.782 -5387651.3647 -4803133.5871 
-8996822.6856 4746145.512 3114731.1345 1297280.2573 888432.56713 -572941.42612 -1995283.0863 -2029231.4188 -13787792.52 
-3426601.9737 -8581591.4832 394050.49102 -17575650.896 13255497.075 -12775197.641 -4413059.7203 299023.85791 -354017.29246 
-924597.86481 -186956.5124 1030472.4991 1219722.8036 -3351026.29 -224074.49517 -2137507.0202 555822.21484 1509045.9198 
15380717.366 -6890453.6837 660878.4378 3067480.607 -3022594.8431 4258824.4 -8667588.632 14887618.498 33799914.329 
15259391.371 7081997.9584 4067343.8033 -2508448.0621 17037496.791 -8998499.2704 10645519.582 8546812.6019 23951.597177 
98996.417995 2145331.0684 -109396.11927 1458016.6265 -614796.88201 -242366.09669 332865.81351 3158460.7711 -895405.34438 
-825174.89475 -14511826.566 7744526.8161 563518.06946 -4307693.6074 -596541.65536 -3207916.4148 9652416.3707 -14079058.628 
-33857812.996 -35934.845441 25247648.62 -24801158.957 50011446.545 -36517993.743 -16433169.978 -17593111.763 21103699.017 
-21753479.596 -7033765.9298 4111819.0485 11856273.302 6107346.2092 857519.39652 29238288.997 13775756.637 8579003.2513 
-44110548.372 -7988774.8907 -846783.98961 -31574707.507 11567292.979 -29786275.67 -17845839.95 1573282.4814 5884824.9489 
328700.26094 15860.99196 -10306470.389 24558733.534 -32113597.003 16276918.702 15989705.135 -23007165.12 -8417657.3091 
54557651.962 -3639231.1513 -409058.59137 -265417.24011 -202111.69362 -232715.50882 -131509.95059 49971838.766 14468853.12 
1740448.877 -944262.17877 518048.07489 -2120919.8792 1408472.7287 145812.94772 -1055847.7414 -383773.37317 -134945.96887 
-224573.2847 -991407.5463 -137842.21651 5766729.7696 2346959.2786 702848.34974 -42978.139061 13161.412913 -435580.11041 
51614452.625 6437983.4267 -3221497.4187 -1774397.0339 -2048116.0588 -1683131.4745 1566124.6369 -91531.957456 1987904.421 
-888012.28816 212196.35124 27574.915088 155690.91537 29236.134309 -2145863.7157 13032357.907 -1853381.7134 -1001407.212 
-1988515.2691 -2365144.4384 773068.76928 22433131.362 29173633.115 -3225033.5816 -6485225.6697 1448135.2657 305126.93765 
-70420.840002 -436866.6681 -256868.25139 3616691.4926 18754840.543 2587165.8165 -1659042.7809 1352128.6042 -2206358.1964 
894772.1828 94147.379978 -1087989.0506 -246941.01817 55322.725232 258592.47508 -443545.07592 -266136.31838 3551128.0475 
-287641.46642 399844.48847 4136.4199455 65961.855908 2796745.5782 -2741005.6561 976755.66863 -828460.6452 -829288.95723 
-633584.05732 -772169.69503 135369.67559 -3763719.9997 3837415.04 4182646.9437 -6004853.8816 -3602664.0792 -4116807.8749 
2195222.3555 6633176.6596 -3524793.5176 -2188858.8707 -2324785.6826 89454.153229 -242269.12928 545725.35988 673397.06241 
2339.0597758 -3301114.7641 -5959933.6179 967275.18091 1075618.8033 3435062.489 1006148.4036 -1273553.4049 739876.63336 
785371.47806 -2529939.8243 3225276.1987 4366220.0024 4159399.8924 506935.11783 -2242702.1605 -731730.42291 -6205216.344 
3919894.4079 1004295.7154 -1938112.3195 395662.26204 2074889.0467 -1161720.9865 3386840.3877 -454452.6803 3179806.4456 
226991.44783 2136723.4964 319399.62593 6453857.4811 1151285.6367 4517811.6865 3186008.3306 6339660.714 -3164870.2642 
9742334.8725 2240708.1338 -630901.71425 -761753.89401 7505788.2011 6821974.1704 -23285.197669 -4420336.3761 -582347.91688 
7767849.4438 8171562.1028 -3530951.0459 3484241.111 4728098.6095 -781469.66202 -1240993.674 -815404.21163 -2459070.274 
3586134.9062 3384791.7663 1103504.2582 35440326.609 -24098576.038 -6226098.3969 9933907.4807 888975.90259 3223579.1672 
2576296.0963 8127365.8917 156332.57357 28902.899941 -3180267.0317 -2223510.1797 -12553602.299 -3336382.2734 -1805015.2606 
1839129.6944 -1312173.7793 -3209828.0718 -639745.20506 3306159.718 -65103.248939 5882822.7367 2899908.9845 -2287123.9858 
1294270.5841 -1825224.8318 2980126.3473 -4748578.7697 6776640.933 111249.98843 2147497.1879 462923.51922 238206.19101 
1080751.9884 2191863.8918 133602.94828 1561225.099 1011106.5419 3444441.0264 -184861.84268 2893961.7553 1232187.9978 
1166938.3227 -507283.10827 -945838.19297 3410202.9279 -5157548.1645 -5477325.3614 -6648859.8105 -88847.977006 824525.7247 
1860247.0602 6690498.0581 -4299721.2491 -951968.54357 -1975859.2946 285363.53008 -3006039.3178 837324.77497 -2100712.4626 
679596.74012 -5657731.0534 1515660.6106 -1067589.8876 -3231540.7115 -2701127.0989 -5501103.7643 -6232376.0786 8269484.8652 
239509.4383 -6900442.0826 5118888.8339 -892130.56711 -1007911.9487 -321643.50824 -5631046.2029 -2639915.2032 2849758.7375 
8059946.3052 4620371.3424 -5841697.6304 -4951696.3636 1501109.5166 -4721948.0716 -1245644.8946 -1679222.9828 2129799.7081 
1889601.4608 -4664787.1278 3339580.6045 2907080.7944 -1032309.8439 25396229.502 -34551585.312 -8721271.5887 5897140.5083 
-1585964.4315 255718.63828 -191328.23106 -10493661.024 350642.57107 -371720.70502 937771.21995 8505845.7424 442679.43089 
2525994.9181 -924238.93155 2095549.9306 3688921.195 1744726.12 -2368780.6227 863702.92009 808005.47355 -2546265.6583 
-6425679.9863 -763950.74791 2820510.1799 1564366.8686 -5748619.5641 2214686.5671 -13441382.071 -2565545.0168 -3339626.2513 
320350.16587 287596.17183 -187465.8078 2053682.6523 1868107.1609 -91347.466515 -352697.33504 -4345188.0624 1115370.9852 
-2034459.0355 492319.87107 442302.63181 588404.75602 938962.96731 1617730.1966 -897698.86912 2118134.024 3325925.0093 
-9001550.7996 17226762.781 10029631.484 -14898819.196 41085.586417 17510305.413 -1461847.7476 -20133080.979 -2054994.0764 
9600346.7052 -3564103.3063 1334873.3592 -8130938.0878 -2778158.0954 1541222.3239 4754330.9575 13384034.803 872823.35433 
546887.91459 5691774.2443 -7482197.0337 4424837.7886 10090315.152 -12626686.834 -3093512.032 -24424400.008 -33594585.154 
-31138866.283 4574342.241 -6741349.7171 -21609217.975 15353039.48 36051478.663 24482968.19 34436118.423 6736175.2799 
-23834450.156 -34908072.938 -16576433.87 259182.56497 97980.244392 -456317.3169 -6359499.8295 -2967807.6463 -742511.70314 
539771.77724 313048.60892 233151.07357 4358479.7957 -998837.57743 3655950.7055 957462.24599 -618661.4618 627948.43269 
-124742.56769 -487222.37909 342801.61018 -967102.90218 -1206427.6212 733853.27251 1085.1942413 192443.55377 221563.70487 
212162.86943 -51451.043949 619728.94195 899186.06528 10235394.5 -3004848.5983 -1144870.8103 -10179116.782 4080788.0637 
-943835.67295 -49473585.882 17792166.119 -12301782.868 33911533.781 8304273.831 27512305.712 2841846.9417 15730695.913 
401094.49488 -251175.12263 -447744.0995 76154.605219 812611.31191 -3866668.2067 -43672503.203 -112180.73916 -176976.98951 
-30665444.338 -73502496.188 -75278024.023 -60315542.562 -56365025.466 -136571933.74 -51514910.163 14003479.638 -14399423.565 
41701032.998 35195770.723 15805233.117 23619867.569 122539736.59 -20860337.58 20466365.767 -13671967.617 -51658717.718 
77837672.115 43889189.813 -55614.149822 124464.17559 496489.29906 -556297.19592 -510277.36095 -113121.17592 331482.04482 
-209898.05785 -254887.0076 -84823.998458 48739.486746 -255409.22355 623660.91242 -42605888.808 -148582.24603 -1342382.1478 
4569599.123 -336544.07533 1124748.9943 66184.39669 -1542363.4525 -1010052.1819 -1439292.1221 -1804945.8259 -1192603.1712 
338435.0957 -43766.863895 307038.07784 -313981.24455 -229521.65283 878633.23455 -69665.891412 -823891.87855 262802.627 
-961709.64939 150765.3695 -971929.83804 -1508757.0693 887418.24121 -1342546.8743 -833135.89547 -35806917.989 2249404.5451 
183823.26711 200822.92124 -12709547.426 584723.37462 1843356.2365 807081.13806 -254458.4498 1700635.4882 61088.744337 
1597360.0479 -867963.09974 -33829081.604 -3791694.6743 12623815.598 144107.08309 -134393.62394 211145.12315 564959.6642 
44187.736415 1676131.7513 18099652.986 163544.17446 -48995.514819 45616144.58 -7120122.7743 -2460260.6719 38464387.03 
-3391009.4814 -90201218.165 -2261573.6924 1371016.2478 4925062.676 7085272.6695 22469788.021 6825341.9496 -8450356.4543 
36315414.977 45163940.393 913171.49012 403229.42483 -41534.263962 -254161.23755 -633935.94679 113559.78688 326387.96018 
-1550517.2597 -11507962.999 -37374785.405 -9058828.552 -77755022.74 231684.77102 -535884.48495 168245.6501 111523.79705 
-394869.05631 42508.395269 18256462.674 422522.82515 12037538.546 18898912.043 26824970.771 -14218.525904 -1458506.7241 
-35939.690117 -196092.40706 8572911.187 743529.6915 -817841.68856 -696600.73943 860249.29916 1277499.9677 87032.417902 
-1654471.2017 -17304.266318 -88674.171536 198392.58836 -107828.14994 -174854.71592 405137.34421 -206952.54728 -1396100.7049 
-526938.15685 -117050.23185 373808.59468 -19482441.281 -11100568.675 -19753577.568 -16735268.39 -17770468.079 131714.78578 
432788.90666 -1248943.464 -7473377.9295 -371439.71497 -283374.7152 -214356.90593 407265.85696 -108730.12602 -134637.03412 
-71963.933332 -291140.12486 73543.766835 703148.34839 -36966.668222 -24202.228548 360836.74526 108788.5989 126225.02081 
463801.50592 327764.55212 47445.338336 -3896.4594627 358241.11448 1775066.0117 -700337.67975 4304672.3098 608053.46953 
195459.96947 -633213.00369 -4330348.2458 -459691.6564 1692476.4386 -333531.3904 35623.929146 214954.00213 -2162896.0531 
-3723538.6513 766241.31066 -93268.220922 1440706.6307 -546196.57327 -230799.99948 -1064505.1176 2179635.8114 11174422.156 
-3214835.6668 -2123691.0613 1702424.4108 -546875.29661 -1306137.9703 500361.89744 935660.94607 -14456594.585 -11242322.379 
-3551115.6823 10122458.923 3516707.7596 -185004.52021 -4659745.8272 -8449543.7532 -1634710.0728 -1122234.1256 1331406.0938 
-1283498.6245 -1205916.4145 -55523.529971 97380.444617 5366821.957 1233623.5421 -4251060.2198 672948.93887 -345439.81807 
6556939.7922 -996453.96188 6731859.572 1174583.5143 1684089.8406 471333.86963 -8448677.4642 5180644.2431 -75730.177171 
1482493.4442 2436592.7108 -1424443.4361 1116768.104 -2131298.1985 507083.85242 1216139.8562 3240277.9459 -909309.74911 
-4705573.1024 2849062.9964 -630215.98197 -3605985.753 771146.47108 521048.54982 -169116.2407 534730.13358 -14257143.797 
-3936671.3793 -1741493.9819 -2605570.3464 3486762.6206 677032.57916 261096.52431 -202582.73988 962003.10563 -263936.55076 
3576440.9293 -20980542.59 7020980.7448 -16272831.176 4325022.3872 -1724828.101 13429034.63 -523493.18005 -1121885.4931 
-538375.13948 1724851.5394 96025.795168 1410521.8924 3285979.0291 529444.84222 -1530723.1141 9015882.1692 -6381576.3171 
7775890.3029 12571061.3 10274507.096 262643.98961 1370331.2054 2191883.8348 1839418.9416 -18999948.03 -892152.45883 
1465017.4545 1674476.4906 2918378.9953 1043876.6547 1057876.5977 4933570.1291 2891401.2932 -352018.03705 409702.71028 
22130712.569 -39021.619788 197711.06558 236288.29471 -68262.980179 -112635.77054 68517.567439 198426.54994 342229.83127 
564252.31721 -142966.8529 441393.84997 -2818935.1013 -2612519.842 95535.731688 307743.49983 -17956.886444 -6022109.869 
2811613.474 -10818397.812 1091138.3563 -34545.943505 566245.7535 528683.388 447893.45843 224875.76502 109173.73186 
61795.877289 -100531.65362 721091.08833 553770.12577 5512306.4445 -2533528.8613 -9699216.3337 -3121968.4799 -5493533.3347 
-18565652.663 1258692.2843 -6691537.1584 1211258.5597 -14723.402074 -41613.431814 86857.291921 -538878.12031 608279.21079 
144253.46771 16479754.043 12093018.243 9090404.8693 -493796.14752 -1418518.606 -190615.05387 350099.62528 590466.96235 
-13346329.284 -19447860.048 -370326.36974 -52837.380296 20908.662575 2294129.2939 2625420.027 -2593201.8749 -2027265.8691 
31536485.772 -10350355.857 -5942680.259 -8633.6575629 1253663.4799 848816.70833 2543953.9562 55983326.794 -2099646.7914 
90889.382696 -211969.069 149728.55348 240874.19113 -8332.8255113 191407.45824 -4113062.5756 5754468.4904 4862984.6247 
54845063.792 2393263.9601 57320.882414 6865791.7727 -15551477.303 728088.46801 14131611.713 1351605.1873 -1866337.7544 
-16666735.405 819409.29369 -33227938.493 -36235578.042 30520453.979 378468.74322 325246.96937 -635398.96873 51318430.748 
-4670426.2866 -1486438.3598 9722285.2845 2659633.5166 334694.51211 105580.00814 -51863.473765 -336515.15021 -12736821.724 
-721993.26038 -466214.32224 -111204.86854 -425311.66566 
Stress%20zz%20component 1 949 double
-11349020.553 -11391440.146 1466019.1393 1588816.9186 -19051953.81 -15470998.459 4171686.8349 31163219.955 8548152.6381 
1285165.8952 -5868978.422 -3192851.0089 -3033665.894 -134509.94332 151417892.67 -7004408.9316 -271186.85925 -4476699.9591 
-417895.31796 152384221.39 -76986677.771 -22303433.623 14960983.888 -20882970.824 -16407654.377 -21900536.652 155343588.19 
-659366.20016 472447.35827 -114875.88216 564639.34468 460973.15692 102929509.42 62087.773704 154611.35696 60293.008697 
-10644162.456 147101.08673 5391218.7579 156400.48759 3579166.3179 4448868.3672 -131801.76447 4625866.6572 -7472192.3609 
-10509197.62 -22330491.113 -14235545.563 -21171936.052 2057326.7772 -21296573.142 -20310053.797 80535.847526 5642063.6961 
10227222.557 2216033.8808 203374.32497 -2558755.6131 2981111.0182 -846200.93675 -147573.87893 4233680.3008 1930323.2522 
-2713305.2945 -1501174.0279 3012836.8936 1750871.7145 4540190.2945 7725783.9085 2432254.5004 427283.51755 -123017.83679 
-625005.84806 1183995.2086 -1597921.2727 358017.798 693921.3433 -301602.01072 1995371.5916 782858.27129 -5607028.2216 
9847154.7468 2757556.8716 -6124125.1241 -20010152.362 -42545917.427 6140207.7486 35433.453773 -1409494.6984 102645976.23 
1177110.319 -1663816.1217 -3163981.5996 12737333.716 427151.1111 2598675.8741 3461502.9738 385104.1433 2486743.7004 
75449.831566 1281007.8439 1016720.5267 -308525.31736 2202323.7984 2096323.4477 1149757.9378 2899633.1921 517736.99457 
-5826316.7599 9180558.7943 2670404.0463 -5508954.1618 -20356301.484 -42356361.685 5825380.8348 909369.8398 -998286.87529 
103701226.96 115869470.86 152879397.49 150725188.4 -40213546.29 -45787657.472 11611544.798 -88355769.536 62778364.701 
44095489.61 -53702269.169 28303917.129 -965014.08336 -64154214.8 -10839193.184 -12214421.041 -211405.63284 -29801471.13 
-33296212.773 -5466101.9452 53672292.125 14384969.594 38438693.113 59864414.513 -10724.709176 -15499989.437 -829085.28025 
-5403714.1285 -324635.63197 37117961.745 29498868.325 10701458.113 44801372.488 -1811621.1871 -83928091.574 8287720.791 
98428362.495 -60665311.436 -1591667.3092 -187170.31415 -77413.884108 490284.29178 127020.66393 11964106.771 15439983.033 
707155.21291 -538014.69933 461604.12715 -2023440.743 128547.71304 284432.00151 569715.08982 -212781.70866 363613.26116 
-257456.47645 618563.71348 -138910.13535 -3357823.0882 5020937.3425 457717.72744 -480849.40167 -387315.23339 -524991.4281 
-62507894.884 -13563462.094 -1381518.3581 1335440.0325 1049190.5351 1134257.0944 -690375.46576 691789.05505 36542330.781 
3863747.5699 203160.90416 -16458.357308 521392.10002 -180882.96618 30779171.665 -22687353.11 -1092671.2542 -883672.26304 
-928024.21667 -841141.10736 246345.94683 92946294.248 128687304.34 72012912.092 -18989941.44 -8081637.1191 -526746.88758 
-30954.871997 401207.9467 15939.903157 -68518824.955 24380617.029 -772473.24637 976697.20111 -1076495.0092 1889504.945 
-487228.26727 12737.467098 511279.80662 313515.25984 39650.686137 193727.74022 -978147.38119 -347773.22559 -7542779.3681 
-494637.55522 -41285.046096 108060.56677 -6195914.9942 -7909831.5353 -7899333.1948 431213.98371 -959567.06292 1592184.1605 
454924.90557 -5497627.6747 -14317790.899 -13196951.166 -13065690.801 -14638310.61 -18207391.469 21681759.954 33727364.825 
-9020443.1898 24952595.505 -11822969.098 -17179900.705 3512578.2473 783649.47628 -1942613.6604 -1809857.3357 1720094.0038 
212853.53079 10472897.125 14406555.94 977797.91984 9191260.3061 4498721.842 5154000.8752 5638124.0177 1008746.5857 
-666693.84362 104132.32699 4716094.9735 -9978413.3487 -16418990.278 -16961.381841 6811770.1709 -2023726.6828 -34590451.396 
20219209.384 467030.96152 -3970877.0903 -1346357.6618 -2960519.641 145814.44262 -3285593.457 3067423.7139 -3491119.6222 
1983120.279 1062751.5125 -1735057.3131 -14570111.784 -1352218.7794 -12777980.541 14145713.18 26422981.608 -12878949.445 
14635874.819 -7079968.8488 -2617637.249 -1597150.13 4765443.003 2447816.524 -5185540.5806 -9385253.8319 -10801711.673 
5851279.8125 28198161.676 22325027.066 738557.98187 -3148379.9201 860615.94573 3338003.6792 81647.458862 767360.43035 
-1318744.9984 -5630292.7025 81564.014423 62306847.42 -61069684.392 2193325.2976 -12142093.249 -15646971.856 -24464044.747 
-10394845.519 -9404867.7564 -412693.0296 -1662238.3125 317022.54517 -58225.976103 -6723437.4393 2281865.7272 -4526274.8007 
-5372863.258 2423704.5046 5140243.1398 -3642366.9962 2902683.2999 271671.91688 -3867821.3422 -4171368.801 2722643.8367 
1926184.8783 3765892.9812 2691269.5373 9323557.4377 3187185.4472 -159769.52979 5829909.7853 717187.16619 -3101430.7826 
-807356.37641 -1371717.4256 3701521.8452 -3925062.6204 -578508.62516 -1011119.4578 804985.43729 4334003.877 1687039.2852 
1239145.4241 490943.80076 -173272.32515 -949673.78242 -229448.23442 -4025341.6583 -12327057.238 1342022.673 7876168.089 
-739596.0218 -35540608.947 13549173.32 -1777692.3904 -5231353.7152 240681.28757 -2002982.6942 -1109897.1959 -4194822.024 
2894090.5294 -5862271.4786 -1917247.4983 684799.66599 -3902059.2384 600652.48562 -12945745.482 -2347408.0976 16787716.15 
-12290196.094 29097922.795 13950091.118 -584064.11846 -3966970.3953 -492864.10043 7085657.8428 788987.7747 -4021880.5344 
-1522682.8433 5033745.0556 24492175.241 6984986.1845 12948114.963 -1012054.1269 -4420446.3332 3592891.1396 -1494595.1304 
3213685.0225 -2184721.8787 -1151610.9732 -5973831.5284 238055.00628 -63275192.945 65263294.234 -12034944.371 1686409.4143 
-26928849.058 -17051576.752 -7039751.9703 -7428977.3791 -1617083.4756 -1095665.4933 218211.04017 -5595061.6838 -457727.37737 
-46915.800552 -5578001.7749 -4688546.0664 4678440.71 2053695.6123 500703.15771 -3283305.5771 499475.81265 -4835991.8274 
-1821986.4411 -1912446.7443 3292400.3161 2347772.0011 2153763.7764 7537865.4502 1240442.7682 1465540.0265 1299136.1155 
357208.74221 -2001022.9962 2878204.5818 3306736.1644 1774430.5335 -553036.39761 485358.19419 -312300.07099 113522.08404 
-605868.65117 1562545.4323 447444.14927 -19639006.983 -6995310.4297 15113041.427 19275609.288 -15358535.122 -111604471.09 
-90624192.02 2708408.9813 -87812908.965 1053499.1004 -8273763.8742 221335848.99 238249590.39 220382844.89 -11501981.42 
15469461.195 9637656.6351 7913366.2794 908019.69739 -11807750.003 9074767.9074 -14312811.085 -10510707.831 -19374223.913 
4180929.5323 9774305.3357 14244513.442 -11047094.166 872764.10163 -8040628.8191 -12915476.671 -10408256.186 -4502886.8442 
-30088800.096 -34318399.167 46129810.627 92957958.086 -4626523.915 -9653629.1694 -33022002.083 28144213.69 25016179.382 
9645494.3803 12330276.354 38514747.596 -3784650.2661 -432080.543 -1095725.4223 -11287742.596 -3223683.9295 -1637925.2618 
-5337939.7782 -3169160.2706 -531989.01642 -2842990.1894 -627220.93796 -15389597.689 -1078935.1694 -1375604.7241 958702.62399 
-1302692.3117 1327805.5917 -669105.42939 1231094.7524 -871953.31252 2026754.2252 230574.00539 652604.49231 -1682487.605 
-298229.46052 -1219837.0141 -376856.09243 -41808972.477 -21534599.887 2284946.1419 -364080.31778 -20139172.354 5232482.6621 
1173576.5334 333759.19727 5434507.1134 33952896.248 19700906.885 42368198.018 25411296.459 119840418.05 21523557.308 
-3637.3766761 55694.050987 1088798.0337 -1957787.9878 2123456.0751 -7031656.5577 -54556140.407 -145180.17918 340575.17443 
-42507806.965 -25669.537853 -22864865.379 -18637632.228 111238240.53 86254420.538 100455173.6 -97526768.546 102430279.91 
-64993665.313 -35633000.17 -6466798.1735 -1638289.1581 -26084766.418 36288521.23 112910625.56 -45771892.118 29656766.809 
93285845.063 80366305.319 -248033.46743 -1149909.5773 3502256.434 -4238331.8914 1566316.6967 1602516.5759 -4781219.4386 
39229.195747 391151.7634 -1015699.069 2014429.7286 -2686008.9609 2784236.2811 4606495.5619 256929.76574 -4298362.2909 
-7995176.5957 -13540535.38 4742372.9574 5746416.1447 -3140182.5149 -1538029.04 8416997.4532 1269785.8737 4684485.4353 
-4179323.7056 -345682.29643 2043598.4597 -1255966.3637 -23855.548736 -4885572.4208 -85968.661689 -2986438.8501 2375093.6139 
726471.78251 -2123207.8433 -1400861.5627 -984981.85641 4329639.8948 1475815.9829 199069.26485 35688125.874 8673967.9609 
-225218.60101 -478556.26804 -1353246.3732 284851.34663 -81158.972221 -225329.37822 678366.75855 -182959.56333 530660.2123 
-28424.970053 -750703.06339 -30744213.814 -37115748.419 33920162.153 -48015.067478 363064.80015 944421.58438 -1419403.3276 
142123.33774 4025464.2009 -77700293.848 3115.8839954 -587028.93049 -48214303.176 -52070973.792 -36468546.057 21927219.863 
13157386.423 12949502.194 -27375729.802 -2187746.649 -13972331.399 15712147.225 -40186948.498 -38499012.025 -3597288.7073 
9842675.5615 171679393.53 23526.425052 681256.51543 -31432.29107 -99448.603208 -132823.62561 -364302.37487 502832.98942 
-17639468.414 -14040199.417 86606082.665 -26893428.86 120479235.14 -263411.36444 -267521.9578 -81358.496009 127490.65019 
-1869939.1804 704050.08147 56434191.686 10905511.517 19296749.363 23838483.864 18927858.203 189277.47186 226038.16877 
-142369.12546 -1670504.429 -10900584.898 -4399309.8359 3982984.0675 -3009835.3666 -1242073.4881 -596083.05927 -2510577.6991 
3845719.4137 2032588.48 110610.30293 -2074485.5253 -5012308.105 3172367.0479 5619783.5346 140488.02712 -3955929.8 
1013768.6504 1852004.0453 708349.97716 -47824548.38 -31257955.4 439050.99932 11301878.56 -11666605.164 733976.50279 
-255922.86466 -984830.51397 4957989.5108 387621.84716 512174.23707 307387.10441 720615.44678 -593063.03084 -70544.017556 
-290586.78432 -1001064.2645 -209285.13158 -134806.42525 -9281.1179616 272046.08017 -112025.29632 818475.83207 -1263775.6613 
217688.41093 420644.00582 267166.40231 251752.47473 1608189.9075 -186068.09201 -2344582.7876 -995551.85933 -1571488.9025 
897399.7686 -295010.3694 -3114206.7837 466902.35759 -3022424.2043 -391767.29625 1440875.4959 1969594.4604 -1799030.2557 
-9689321.3834 65750.716004 3544111.2129 3843974.8746 -2677114.7532 -1476957.5653 -2371950.6017 3775439.8153 15105363.664 
10632716.661 2753740.232 4487500.0052 4198044.447 2213831.4928 294631.7731 -3895599.9905 -5294197.3871 -16406671.93 
7391555.3548 -728352.14934 -465430.85632 1543034.5848 37274708.114 -7629847.3224 -16270466.141 -1086324.4472 -5043370.7944 
-3869021.3907 -2227662.5708 -1217702.3353 78485.998557 44003349.469 5786303.7979 -10489009.095 -2076332.8892 3740001.0809 
-4443366.4153 -1230702.7549 -8604443.8149 -6362735.666 -820481.69756 -1397254.6417 3970084.8197 -12555890.772 219445.76706 
503807.9563 -9038320.7828 -8461131.6789 -1652198.2814 3416991.4899 10850445.187 14171790.535 6760511.447 -281200.0955 
-4824118.0625 -6640022.6622 877565.44341 -783284.92687 670388.23659 -3117414.5282 1160304.2176 3075666.5953 -33460383.944 
3438571.8108 -3168627.1836 -48234.152937 551827.44849 831004.41846 -2901293.4165 -3417746.9731 -5604560.8415 -501877.2768 
14099631.621 -7491725.9261 2708069.7658 -27783360.464 -1649105.0016 -1382709.2739 -43908327.821 -15179932.118 -148450.17518 
578345.31086 -904848.11624 -1392455.0378 19101948.269 -11068395.042 1132787.9658 991194.55091 53381719.688 49588863.791 
14100901.468 2511297.7183 9237372.3846 -1203563.6271 1586644.7212 3903523.4959 4021458.8938 8326110.8831 -953607.28945 
-1058775.9004 1150208.0589 -5211487.7412 5695886.6618 -18966451.676 16399420.448 -7231034.2844 -18416211.343 -1172422.2 
-13560706.377 -1553462.1977 1489855.0601 -75975.31269 2340451.0248 -1355990.7963 621273.20509 1998662.6519 -2301515.6441 
-234311.93294 -2105258.8873 2815934.3974 21057448.546 -2402692.2623 -5034607.7984 1739919.0025 647216.89699 1459418.7232 
8268721.2297 18211818.691 -268105.56554 -2480154.2527 1975087.0659 -3723284.6933 1734428.7574 -2204897.5266 2271690.2805 
2099008.885 -3202349.7718 2846265.0546 -1031477.9223 2886572.1946 -16657261.183 -33988646.032 -4735304.0727 -5142416.6763 
-5997980.7139 93735583.926 134054121.48 1483309.4041 -775226.93065 -179431.66595 -77581.64571 -4335915.8642 -3401298.2873 
-10584736.637 -128504.72841 -27933123.878 -35768201.289 2663719.2295 1455406.2114 -2199992.3881 6141485.0473 6708443.1888 
-3646152.1396 -10896646.238 -21336718.323 614911.17771 -149325.18912 -11972485.316 7192431.8749 5204110.7183 10718465.153 
-69111653.112 -79668716.291 -16668598.97 -2412729.3816 -4631253.2818 7332205.5975 -4356977.9625 39138468.188 -7935810.6669 
1426839.0676 -1335470.9808 -52024.372723 -470407.43926 2505609.1778 -753309.50175 -34289916.819 39178418.664 -61137262.444 
73857239.537 -3052453.8965 -9938.0629405 -113198730.99 38890882.542 2107126.2105 79447007.225 357476.67309 1729977.9179 
-41554553.833 -43900666.895 53745449.298 28854963.713 -32911673.232 -4380767.7256 -683763.71617 3992329.135 47975465.527 
-123391521.03 -18742945.707 -80234964.03 -46330980.266 466238.80669 -210482.11274 112867.69534 -321773.62624 -66575983.029 
22646334.253 2074130.7089 -2558.3219463 255049.86737 
