# vtk DataFile Version 4.1
vtk output
ASCII
DATASET UNSTRUCTURED_GRID
POINTS 13895 float
0 0 10 0 0 0 0 10 10 
0 10 0 10 0 10 10 0 0 
10 10 10 10 10 0 30 0 10 
30 0 0 30 10 10 30 10 0 
10 0 20 10 10 20 30 0 20 
30 10 20 0 0 1.42857 0 0 2.85714 
0 0 4.28571 0 0 5.71429 0 0 7.14286 
0 0 8.57143 0 0 0.714286 0 0 2.14286 
0 0 3.57143 0 0 5 0 0 6.42857 
0 0 7.85714 0 0 9.28571 0 1.42857 10 
0 2.85714 10 0 4.28571 10 0 5.71429 10 
0 7.14286 10 0 8.57143 10 0 0.714286 10 
0 2.14286 10 0 3.57143 10 0 5 10 
0 6.42857 10 0 7.85714 10 0 9.28571 10 
0 10 1.42857 0 10 2.85714 0 10 4.28571 
0 10 5.71429 0 10 7.14286 0 10 8.57143 
0 10 0.714286 0 10 2.14286 0 10 3.57143 
0 10 5 0 10 6.42857 0 10 7.85714 
0 10 9.28571 0 1.42857 0 0 2.85714 0 
0 4.28571 0 0 5.71429 0 0 7.14286 0 
0 8.57143 0 0 0.714286 0 0 2.14286 0 
0 3.57143 0 0 5 0 0 6.42857 0 
0 7.85714 0 0 9.28571 0 10 0 1.42857 
10 0 2.85714 10 0 4.28571 10 0 5.71429 
10 0 7.14286 10 0 8.57143 10 0 0.714286 
10 0 2.14286 10 0 3.57143 10 0 5 
10 0 6.42857 10 0 7.85714 10 0 9.28571 
10 1.42857 10 10 2.85714 10 10 4.28571 10 
10 5.71429 10 10 7.14286 10 10 8.57143 10 
10 0.714286 10 10 2.14286 10 10 3.57143 10 
10 5 10 10 6.42857 10 10 7.85714 10 
10 9.28571 10 10 10 1.42857 10 10 2.85714 
10 10 4.28571 10 10 5.71429 10 10 7.14286 
10 10 8.57143 10 10 0.714286 10 10 2.14286 
10 10 3.57143 10 10 5 10 10 6.42857 
10 10 7.85714 10 10 9.28571 10 1.42857 0 
10 2.85714 0 10 4.28571 0 10 5.71429 0 
10 7.14286 0 10 8.57143 0 10 0.714286 0 
10 2.14286 0 10 3.57143 0 10 5 0 
10 6.42857 0 10 7.85714 0 10 9.28571 0 
1.42857 0 0 2.85714 0 0 4.28571 0 0 
5.71429 0 0 7.14286 0 0 8.57143 0 0 
0.714286 0 0 2.14286 0 0 3.57143 0 0 
5 0 0 6.42857 0 0 7.85714 0 0 
9.28571 0 0 1.42857 0 10 2.85714 0 10 
4.28571 0 10 5.71429 0 10 7.14286 0 10 
8.57143 0 10 0.714286 0 10 2.14286 0 10 
3.57143 0 10 5 0 10 6.42857 0 10 
7.85714 0 10 9.28571 0 10 1.42857 10 0 
2.85714 10 0 4.28571 10 0 5.71429 10 0 
7.14286 10 0 8.57143 10 0 0.714286 10 0 
2.14286 10 0 3.57143 10 0 5 10 0 
6.42857 10 0 7.85714 10 0 9.28571 10 0 
1.42857 10 10 2.85714 10 10 4.28571 10 10 
5.71429 10 10 7.14286 10 10 8.57143 10 10 
0.714286 10 10 2.14286 10 10 3.57143 10 10 
5 10 10 6.42857 10 10 7.85714 10 10 
9.28571 10 10 30 0 1.42857 30 0 2.85714 
30 0 4.28571 30 0 5.71429 30 0 7.14286 
30 0 8.57143 30 0 0.714286 30 0 2.14286 
30 0 3.57143 30 0 5 30 0 6.42857 
30 0 7.85714 30 0 9.28571 30 1.42857 10 
30 2.85714 10 30 4.28571 10 30 5.71429 10 
30 7.14286 10 30 8.57143 10 30 0.714286 10 
30 2.14286 10 30 3.57143 10 30 5 10 
30 6.42857 10 30 7.85714 10 30 9.28571 10 
30 10 1.42857 30 10 2.85714 30 10 4.28571 
30 10 5.71429 30 10 7.14286 30 10 8.57143 
30 10 0.714286 30 10 2.14286 30 10 3.57143 
30 10 5 30 10 6.42857 30 10 7.85714 
30 10 9.28571 30 1.42857 0 30 2.85714 0 
30 4.28571 0 30 5.71429 0 30 7.14286 0 
30 8.57143 0 30 0.714286 0 30 2.14286 0 
30 3.57143 0 30 5 0 30 6.42857 0 
30 7.85714 0 30 9.28571 0 11.4286 0 0 
12.8571 0 0 14.2857 0 0 15.7143 0 0 
17.1429 0 0 18.5714 0 0 20 0 0 
21.4286 0 0 22.8571 0 0 24.2857 0 0 
25.7143 0 0 27.1429 0 0 28.5714 0 0 
10.7143 0 0 12.1429 0 0 13.5714 0 0 
15 0 0 16.4286 0 0 17.8571 0 0 
19.2857 0 0 20.7143 0 0 22.1429 0 0 
23.5714 0 0 25 0 0 26.4286 0 0 
27.8571 0 0 29.2857 0 0 11.4286 0 10 
12.8571 0 10 14.2857 0 10 15.7143 0 10 
17.1429 0 10 18.5714 0 10 20 0 10 
21.4286 0 10 22.8571 0 10 24.2857 0 10 
25.7143 0 10 27.1429 0 10 28.5714 0 10 
10.7143 0 10 12.1429 0 10 13.5714 0 10 
15 0 10 16.4286 0 10 17.8571 0 10 
19.2857 0 10 20.7143 0 10 22.1429 0 10 
23.5714 0 10 25 0 10 26.4286 0 10 
27.8571 0 10 29.2857 0 10 11.4286 10 0 
12.8571 10 0 14.2857 10 0 15.7143 10 0 
17.1429 10 0 18.5714 10 0 20 10 0 
21.4286 10 0 22.8571 10 0 24.2857 10 0 
25.7143 10 0 27.1429 10 0 28.5714 10 0 
10.7143 10 0 12.1429 10 0 13.5714 10 0 
15 10 0 16.4286 10 0 17.8571 10 0 
19.2857 10 0 20.7143 10 0 22.1429 10 0 
23.5714 10 0 25 10 0 26.4286 10 0 
27.8571 10 0 29.2857 10 0 11.4286 10 10 
12.8571 10 10 14.2857 10 10 15.7143 10 10 
17.1429 10 10 18.5714 10 10 20 10 10 
21.4286 10 10 22.8571 10 10 24.2857 10 10 
25.7143 10 10 27.1429 10 10 28.5714 10 10 
10.7143 10 10 12.1429 10 10 13.5714 10 10 
15 10 10 16.4286 10 10 17.8571 10 10 
19.2857 10 10 20.7143 10 10 22.1429 10 10 
23.5714 10 10 25 10 10 26.4286 10 10 
27.8571 10 10 29.2857 10 10 10 0 11.4286 
10 0 12.8571 10 0 14.2857 10 0 15.7143 
10 0 17.1429 10 0 18.5714 10 0 10.7143 
10 0 12.1429 10 0 13.5714 10 0 15 
10 0 16.4286 10 0 17.8571 10 0 19.2857 
10 1.42857 20 10 2.85714 20 10 4.28571 20 
10 5.71429 20 10 7.14286 20 10 8.57143 20 
10 0.714286 20 10 2.14286 20 10 3.57143 20 
10 5 20 10 6.42857 20 10 7.85714 20 
10 9.28571 20 10 10 11.4286 10 10 12.8571 
10 10 14.2857 10 10 15.7143 10 10 17.1429 
10 10 18.5714 10 10 10.7143 10 10 12.1429 
10 10 13.5714 10 10 15 10 10 16.4286 
10 10 17.8571 10 10 19.2857 30 0 11.4286 
30 0 12.8571 30 0 14.2857 30 0 15.7143 
30 0 17.1429 30 0 18.5714 30 0 10.7143 
30 0 12.1429 30 0 13.5714 30 0 15 
30 0 16.4286 30 0 17.8571 30 0 19.2857 
30 1.42857 20 30 2.85714 20 30 4.28571 20 
30 5.71429 20 30 7.14286 20 30 8.57143 20 
30 0.714286 20 30 2.14286 20 30 3.57143 20 
30 5 20 30 6.42857 20 30 7.85714 20 
30 9.28571 20 30 10 11.4286 30 10 12.8571 
30 10 14.2857 30 10 15.7143 30 10 17.1429 
30 10 18.5714 30 10 10.7143 30 10 12.1429 
30 10 13.5714 30 10 15 30 10 16.4286 
30 10 17.8571 30 10 19.2857 11.4286 0 20 
12.8571 0 20 14.2857 0 20 15.7143 0 20 
17.1429 0 20 18.5714 0 20 20 0 20 
21.4286 0 20 22.8571 0 20 24.2857 0 20 
25.7143 0 20 27.1429 0 20 28.5714 0 20 
10.7143 0 20 12.1429 0 20 13.5714 0 20 
15 0 20 16.4286 0 20 17.8571 0 20 
19.2857 0 20 20.7143 0 20 22.1429 0 20 
23.5714 0 20 25 0 20 26.4286 0 20 
27.8571 0 20 29.2857 0 20 11.4286 10 20 
12.8571 10 20 14.2857 10 20 15.7143 10 20 
17.1429 10 20 18.5714 10 20 20 10 20 
21.4286 10 20 22.8571 10 20 24.2857 10 20 
25.7143 10 20 27.1429 10 20 28.5714 10 20 
10.7143 10 20 12.1429 10 20 13.5714 10 20 
15 10 20 16.4286 10 20 17.8571 10 20 
19.2857 10 20 20.7143 10 20 22.1429 10 20 
23.5714 10 20 25 10 20 26.4286 10 20 
27.8571 10 20 29.2857 10 20 0 4.99412 4.99079 
0 2.78473 2.67202 0 2.67859 7.21108 0 7.32141 2.78892 
0 7.21108 7.32141 0 5 2.10976 0 2.10976 5 
0 5 7.89024 0 7.89024 5 0 1.82924 1.80106 
0 1.80271 8.16971 0 8.19729 1.83029 0 8.16971 8.19729 
0 1.44406 3.67335 0 3.66044 1.38239 0 8.61713 3.66074 
0 3.6792 8.55221 0 6.3208 1.44779 0 1.38287 6.33926 
0 6.33926 8.61713 0 8.55221 6.3208 0 4.37369 3.55488 
0 3.55488 5.62631 0 6.44512 4.37369 0 5.62631 6.44512 
0 3.21021 4.25289 0 5.71471 3.23755 0 4.29285 6.75342 
0 6.74824 5.70038 0 4.99902 0.948026 0 0.947856 5.00066 
0 9.05195 4.99904 0 5.00096 9.05195 0 3.95471 2.42976 
0 2.43152 6.04416 0 7.56848 3.95584 0 6.04416 7.56848 
0 8.96789 2.54705 0 1.03211 2.54705 0 2.54705 1.03211 
0 2.54705 8.96789 0 1.03211 7.45295 0 7.45295 1.03211 
0 8.96789 7.45295 0 7.45295 8.96789 0 1.08623 1.08288 
0 8.91693 1.08636 0 1.08307 8.91364 0 8.91364 8.91693 
0 0.541537 9.45682 0 0.541537 8.74254 0 1.25582 9.45682 
0 0.543116 1.25572 0 0.543116 0.541439 0 1.2574 0.541439 
0 9.45682 9.45846 0 8.74254 9.45846 0 9.45682 8.74418 
0 8.74418 0.543179 0 9.45846 0.543179 0 9.45846 1.25746 
0 0.516055 2.70209 0 0.516055 1.98781 0 1.05917 1.81496 
0 0.722031 3.97953 0 0.722031 3.26525 0 1.23809 3.1102 
0 0.473928 5.35747 0 0.473928 4.64319 0 1.19596 4.33701 
0 0.691434 6.74106 0 0.691434 6.02677 0 1.16536 5.66996 
0 0.516055 8.01219 0 0.516055 7.29791 0 1.20749 6.89611 
0 1.05759 8.1833 0 1.98781 0.516055 0 2.70209 0.516055 
0 1.81664 1.05749 0 3.25879 0.691194 0 3.97308 0.691194 
0 3.10374 1.20725 0 4.64237 0.474013 0 5.35665 0.474013 
0 4.32973 1.16521 0 6.01754 0.723897 0 6.73183 0.723897 
0 5.65991 1.19791 0 7.29791 0.516055 0 8.01219 0.516055 
0 6.88688 1.23995 0 8.18494 1.05923 0 2.70209 9.48394 
0 1.98781 9.48394 0 1.81506 8.94077 0 3.98246 9.2761 
0 3.26817 9.2761 0 3.11312 8.76005 0 5.35762 9.52597 
0 4.64334 9.52597 0 4.34008 8.80208 0 6.74106 9.30857 
0 6.02677 9.30857 0 5.67011 8.83454 0 8.01219 9.48394 
0 7.29791 9.48394 0 6.89611 8.79251 0 8.1833 8.94241 
0 9.48394 1.98781 0 9.48394 2.70209 0 8.94241 1.8167 
0 9.30857 3.25894 0 9.30857 3.97323 0 8.79251 3.10389 
0 9.52597 4.64238 0 9.52597 5.35666 0 8.83454 4.32989 
0 9.2761 6.01754 0 9.2761 6.73183 0 8.80208 5.65992 
0 9.48394 7.29791 0 9.48394 8.01219 0 8.76005 6.88688 
0 8.94077 8.18494 0 4.68391 4.27284 0 3.79195 3.90388 
0 4.10217 4.62184 0 5.35442 4.11417 0 5.0442 3.39621 
0 4.2745 5.30855 0 3.38254 4.9396 0 3.92387 6.18987 
0 4.64349 5.87211 0 5.71962 4.68224 0 6.07992 3.80562 
0 5.87118 5.34558 0 6.59668 5.03703 0 5.31021 5.71796 
0 4.95958 6.59927 0 6.18727 6.07275 0 2.30698 2.23654 
0 1.43068 2.17405 0 1.90842 2.60953 0 2.66589 1.85206 
0 2.18814 1.41659 0 2.11439 3.17269 0 2.32713 3.96312 
0 2.99747 3.46245 0 3.22258 2.0272 0 3.36972 2.55089 
0 3.80758 1.90607 0 3.57921 3.11345 0 4.1642 2.99232 
0 2.24065 7.69039 0 2.17488 8.5688 0 2.61282 8.08948 
0 1.85535 7.33202 0 1.41741 7.81133 0 3.1789 7.88164 
0 3.98603 7.65281 0 3.48572 6.98225 0 2.03073 6.77517 
0 2.55506 6.62762 0 1.9072 6.19171 0 3.11674 6.41869 
0 2.9932 5.83523 0 7.75935 2.30961 0 8.14465 2.66798 
0 8.58259 2.18867 0 7.82512 1.4312 0 7.38718 1.91052 
0 7.96927 3.22483 0 7.44494 3.37238 0 8.0928 3.80829 
0 6.8211 2.11836 0 6.01775 2.34267 0 6.51806 3.01324 
0 6.88326 3.58131 0 7.0068 4.16477 0 7.69039 7.75935 
0 8.5688 7.82512 0 8.08948 7.38718 0 7.33202 8.14465 
0 7.81133 8.58259 0 6.77517 7.96927 0 6.62762 7.44494 
0 6.19171 8.0928 0 7.88164 6.8211 0 7.65022 6.01059 
0 6.97966 6.51089 0 6.41869 6.88326 0 5.83523 7.0068 
0 4.33022 1.74607 0 4.99951 1.52889 0 4.47736 2.26976 
0 5.6604 1.77878 0 5.35736 2.67365 0 4.68685 2.83232 
0 1.77691 4.33668 0 2.65998 4.62645 0 1.52881 5.00033 
0 1.74631 5.66963 0 2.27064 5.52208 0 2.83232 5.31315 
0 4.3396 8.22122 0 4.64643 7.32183 0 5.00048 8.4711 
0 5.66963 8.25369 0 5.52208 7.72936 0 5.31315 7.16768 
0 8.25369 4.33037 0 8.4711 4.99952 0 7.72936 4.47792 
0 8.22122 5.6604 0 7.31924 5.35019 0 7.16768 4.68685 
0 1.45774 1.44197 0 1.44289 8.54168 0 8.55711 1.45832 
0 8.54168 8.55711 10 4.99412 4.99079 10 2.78473 2.67202 
10 2.67859 7.21108 10 7.32141 2.78892 10 7.21108 7.32141 
10 5 2.10976 10 2.10976 5 10 7.89024 5 
10 5 7.89024 10 1.82924 1.80106 10 1.80271 8.16971 
10 8.19729 1.83029 10 8.16971 8.19729 10 1.44406 3.67335 
10 3.66044 1.38239 10 8.61713 3.66074 10 3.6792 8.55221 
10 6.3208 1.44779 10 1.38287 6.33926 10 6.33926 8.61713 
10 8.55221 6.3208 10 4.37369 3.55488 10 3.55488 5.62631 
10 6.44512 4.37369 10 5.62631 6.44512 10 3.21021 4.25289 
10 5.71471 3.23755 10 4.29285 6.75342 10 6.74824 5.70038 
10 4.99902 0.948026 10 9.05195 4.99904 10 0.947856 5.00066 
10 5.00096 9.05195 10 3.95471 2.42976 10 2.43152 6.04416 
10 7.56848 3.95584 10 6.04416 7.56848 10 8.96789 2.54705 
10 2.54705 1.03211 10 1.03211 2.54705 10 2.54705 8.96789 
10 7.45295 1.03211 10 1.03211 7.45295 10 8.96789 7.45295 
10 7.45295 8.96789 10 1.08623 1.08288 10 8.91693 1.08636 
10 1.08307 8.91364 10 8.91364 8.91693 10 0.541537 9.45682 
10 1.25582 9.45682 10 0.541537 8.74254 10 1.2574 0.541439 
10 0.543116 0.541439 10 0.543116 1.25572 10 9.45682 9.45846 
10 9.45682 8.74418 10 8.74254 9.45846 10 9.45846 0.543179 
10 8.74418 0.543179 10 9.45846 1.25746 10 2.70209 0.516055 
10 1.98781 0.516055 10 1.81664 1.05749 10 3.97308 0.691194 
10 3.25879 0.691194 10 3.10374 1.20725 10 5.35665 0.474013 
10 4.64237 0.474013 10 4.32973 1.16521 10 6.73183 0.723897 
10 6.01754 0.723897 10 5.65991 1.19791 10 8.01219 0.516055 
10 7.29791 0.516055 10 6.88688 1.23995 10 8.18494 1.05923 
10 9.48394 2.70209 10 9.48394 1.98781 10 8.94241 1.8167 
10 9.30857 3.97323 10 9.30857 3.25894 10 8.79251 3.10389 
10 9.52597 5.35666 10 9.52597 4.64238 10 8.83454 4.32989 
10 9.2761 6.73183 10 9.2761 6.01754 10 8.80208 5.65992 
10 9.48394 8.01219 10 9.48394 7.29791 10 8.76005 6.88688 
10 8.94077 8.18494 10 1.98781 9.48394 10 2.70209 9.48394 
10 1.81506 8.94077 10 3.26817 9.2761 10 3.98246 9.2761 
10 3.11312 8.76005 10 4.64334 9.52597 10 5.35762 9.52597 
10 4.34008 8.80208 10 6.02677 9.30857 10 6.74106 9.30857 
10 5.67011 8.83454 10 7.29791 9.48394 10 8.01219 9.48394 
10 6.89611 8.79251 10 8.1833 8.94241 10 0.516055 1.98781 
10 0.516055 2.70209 10 1.05917 1.81496 10 0.722031 3.26525 
10 0.722031 3.97953 10 1.23809 3.1102 10 0.473928 4.64319 
10 0.473928 5.35747 10 1.19596 4.33701 10 0.691434 6.02677 
10 0.691434 6.74106 10 1.16536 5.66996 10 0.516055 7.29791 
10 0.516055 8.01219 10 1.20749 6.89611 10 1.05759 8.1833 
10 4.10217 4.62184 10 3.79195 3.90388 10 4.68391 4.27284 
10 5.0442 3.39621 10 5.35442 4.11417 10 3.38254 4.9396 
10 4.2745 5.30855 10 4.64349 5.87211 10 3.92387 6.18987 
10 6.07992 3.80562 10 5.71962 4.68224 10 6.59668 5.03703 
10 5.87118 5.34558 10 4.95958 6.59927 10 5.31021 5.71796 
10 6.18727 6.07275 10 2.18814 1.41659 10 2.66589 1.85206 
10 2.30698 2.23654 10 1.90842 2.60953 10 1.43068 2.17405 
10 2.99747 3.46245 10 2.32713 3.96312 10 2.11439 3.17269 
10 3.80758 1.90607 10 3.36972 2.55089 10 3.22258 2.0272 
10 3.57921 3.11345 10 4.1642 2.99232 10 2.61282 8.08948 
10 2.17488 8.5688 10 2.24065 7.69039 10 1.41741 7.81133 
10 1.85535 7.33202 10 3.48572 6.98225 10 3.98603 7.65281 
10 3.1789 7.88164 10 1.9072 6.19171 10 2.55506 6.62762 
10 2.03073 6.77517 10 3.11674 6.41869 10 2.9932 5.83523 
10 8.58259 2.18867 10 8.14465 2.66798 10 7.75935 2.30961 
10 7.38718 1.91052 10 7.82512 1.4312 10 8.0928 3.80829 
10 7.44494 3.37238 10 7.96927 3.22483 10 6.51806 3.01324 
10 6.01775 2.34267 10 6.8211 2.11836 10 6.88326 3.58131 
10 7.0068 4.16477 10 8.08948 7.38718 10 8.5688 7.82512 
10 7.69039 7.75935 10 7.81133 8.58259 10 7.33202 8.14465 
10 6.19171 8.0928 10 6.62762 7.44494 10 6.77517 7.96927 
10 6.97966 6.51089 10 7.65022 6.01059 10 7.88164 6.8211 
10 6.41869 6.88326 10 5.83523 7.0068 10 4.99951 1.52889 
10 4.33022 1.74607 10 4.47736 2.26976 10 5.35736 2.67365 
10 5.6604 1.77878 10 4.68685 2.83232 10 2.65998 4.62645 
10 1.77691 4.33668 10 1.52881 5.00033 10 1.74631 5.66963 
10 2.27064 5.52208 10 2.83232 5.31315 10 8.4711 4.99952 
10 8.25369 4.33037 10 7.72936 4.47792 10 7.31924 5.35019 
10 8.22122 5.6604 10 7.16768 4.68685 10 4.64643 7.32183 
10 4.3396 8.22122 10 5.00048 8.4711 10 5.66963 8.25369 
10 5.52208 7.72936 10 5.31315 7.16768 10 1.45774 1.44197 
10 1.44289 8.54168 10 8.55711 1.45832 10 8.54168 8.55711 
4.99079 0 4.99412 2.67202 0 2.78473 7.21108 0 2.67859 
2.78892 0 7.32141 7.32141 0 7.21108 2.10976 0 5 
5 0 2.10976 5 0 7.89024 7.89024 0 5 
1.80106 0 1.82924 8.16971 0 1.80271 1.83029 0 8.19729 
8.19729 0 8.16971 3.67335 0 1.44406 1.38239 0 3.66044 
3.66074 0 8.61713 8.55221 0 3.6792 1.44779 0 6.3208 
6.33926 0 1.38287 8.61713 0 6.33926 6.3208 0 8.55221 
3.55488 0 4.37369 5.62631 0 3.55488 4.37369 0 6.44512 
6.44512 0 5.62631 4.25289 0 3.21021 3.23755 0 5.71471 
6.75342 0 4.29285 5.70038 0 6.74824 0.948026 0 4.99902 
5.00066 0 0.947856 4.99904 0 9.05195 9.05195 0 5.00096 
2.42976 0 3.95471 6.04416 0 2.43152 3.95584 0 7.56848 
7.56848 0 6.04416 2.54705 0 8.96789 1.03211 0 2.54705 
2.54705 0 1.03211 8.96789 0 2.54705 1.03211 0 7.45295 
7.45295 0 1.03211 7.45295 0 8.96789 8.96789 0 7.45295 
1.08288 0 1.08623 1.08636 0 8.91693 8.91364 0 1.08307 
8.91693 0 8.91364 0.543179 0 8.74418 0.543179 0 9.45846 
1.25746 0 9.45846 0.541439 0 0.543116 0.541439 0 1.2574 
1.25572 0 0.543116 8.74418 0 9.45682 9.45846 0 9.45682 
9.45846 0 8.74254 9.45682 0 0.541537 8.74254 0 0.541537 
9.45682 0 1.25582 0.516055 0 1.98781 0.516055 0 2.70209 
1.05749 0 1.81664 0.691194 0 3.25879 0.691194 0 3.97308 
1.20725 0 3.10374 0.474013 0 4.64237 0.474013 0 5.35665 
1.16521 0 4.32973 0.723897 0 6.01754 0.723897 0 6.73183 
1.19791 0 5.65991 0.516055 0 7.29791 0.516055 0 8.01219 
1.23995 0 6.88688 1.05923 0 8.18494 2.70209 0 0.516055 
1.98781 0 0.516055 1.81496 0 1.05917 3.97953 0 0.722031 
3.26525 0 0.722031 3.1102 0 1.23809 5.35747 0 0.473928 
4.64319 0 0.473928 4.33701 0 1.19596 6.74106 0 0.691434 
6.02677 0 0.691434 5.66996 0 1.16536 8.01219 0 0.516055 
7.29791 0 0.516055 6.89611 0 1.20749 8.1833 0 1.05759 
1.98781 0 9.48394 2.70209 0 9.48394 1.8167 0 8.94241 
3.25894 0 9.30857 3.97323 0 9.30857 3.10389 0 8.79251 
4.64238 0 9.52597 5.35666 0 9.52597 4.32989 0 8.83454 
6.01754 0 9.2761 6.73183 0 9.2761 5.65992 0 8.80208 
7.29791 0 9.48394 8.01219 0 9.48394 6.88688 0 8.76005 
8.18494 0 8.94077 9.48394 0 2.70209 9.48394 0 1.98781 
8.94077 0 1.81506 9.2761 0 3.98246 9.2761 0 3.26817 
8.76005 0 3.11312 9.52597 0 5.35762 9.52597 0 4.64334 
8.80208 0 4.34008 9.30857 0 6.74106 9.30857 0 6.02677 
8.83454 0 5.67011 9.48394 0 8.01219 9.48394 0 7.29791 
8.79251 0 6.89611 8.94241 0 8.1833 4.27284 0 4.68391 
3.90388 0 3.79195 4.62184 0 4.10217 4.11417 0 5.35442 
3.39621 0 5.0442 5.30855 0 4.2745 4.9396 0 3.38254 
6.18987 0 3.92387 5.87211 0 4.64349 4.68224 0 5.71962 
3.80562 0 6.07992 5.34558 0 5.87118 5.03703 0 6.59668 
5.71796 0 5.31021 6.59927 0 4.95958 6.07275 0 6.18727 
2.23654 0 2.30698 1.85206 0 2.66589 1.41659 0 2.18814 
2.17405 0 1.43068 2.60953 0 1.90842 3.17269 0 2.11439 
3.96312 0 2.32713 3.46245 0 2.99747 2.0272 0 3.22258 
2.55089 0 3.36972 1.90607 0 3.80758 3.11345 0 3.57921 
2.99232 0 4.1642 7.69039 0 2.24065 8.5688 0 2.17488 
8.08948 0 2.61282 7.33202 0 1.85535 7.81133 0 1.41741 
7.88164 0 3.1789 7.65281 0 3.98603 6.98225 0 3.48572 
6.77517 0 2.03073 6.62762 0 2.55506 6.19171 0 1.9072 
6.41869 0 3.11674 5.83523 0 2.9932 2.30961 0 7.75935 
2.66798 0 8.14465 2.18867 0 8.58259 1.4312 0 7.82512 
1.91052 0 7.38718 3.22483 0 7.96927 3.37238 0 7.44494 
3.80829 0 8.0928 2.11836 0 6.8211 2.34267 0 6.01775 
3.01324 0 6.51806 3.58131 0 6.88326 4.16477 0 7.0068 
7.75935 0 7.69039 7.82512 0 8.5688 7.38718 0 8.08948 
8.14465 0 7.33202 8.58259 0 7.81133 7.96927 0 6.77517 
7.44494 0 6.62762 8.0928 0 6.19171 6.8211 0 7.88164 
6.01059 0 7.65022 6.51089 0 6.97966 6.88326 0 6.41869 
7.0068 0 5.83523 1.74607 0 4.33022 1.52889 0 4.99951 
2.26976 0 4.47736 1.77878 0 5.6604 2.67365 0 5.35736 
2.83232 0 4.68685 4.33668 0 1.77691 4.62645 0 2.65998 
5.00033 0 1.52881 5.66963 0 1.74631 5.52208 0 2.27064 
5.31315 0 2.83232 4.33037 0 8.25369 4.99952 0 8.4711 
4.47792 0 7.72936 5.6604 0 8.22122 5.35019 0 7.31924 
4.68685 0 7.16768 8.22122 0 4.3396 7.32183 0 4.64643 
8.4711 0 5.00048 8.25369 0 5.66963 7.72936 0 5.52208 
7.16768 0 5.31315 1.44197 0 1.45774 8.54168 0 1.44289 
1.45832 0 8.55711 8.55711 0 8.54168 4.99079 10 4.99412 
2.67202 10 2.78473 7.21108 10 2.67859 2.78892 10 7.32141 
7.32141 10 7.21108 5 10 2.10976 2.10976 10 5 
7.89024 10 5 5 10 7.89024 1.80106 10 1.82924 
8.16971 10 1.80271 1.83029 10 8.19729 8.19729 10 8.16971 
1.38239 10 3.66044 3.67335 10 1.44406 8.55221 10 3.6792 
3.66074 10 8.61713 1.44779 10 6.3208 6.33926 10 1.38287 
8.61713 10 6.33926 6.3208 10 8.55221 3.55488 10 4.37369 
5.62631 10 3.55488 4.37369 10 6.44512 6.44512 10 5.62631 
4.25289 10 3.21021 3.23755 10 5.71471 6.75342 10 4.29285 
5.70038 10 6.74824 5.00066 10 0.947856 0.948026 10 4.99902 
4.99904 10 9.05195 9.05195 10 5.00096 2.42976 10 3.95471 
6.04416 10 2.43152 3.95584 10 7.56848 7.56848 10 6.04416 
1.03211 10 2.54705 2.54705 10 1.03211 8.96789 10 2.54705 
2.54705 10 8.96789 7.45295 10 1.03211 7.45295 10 8.96789 
1.03211 10 7.45295 8.96789 10 7.45295 1.08288 10 1.08623 
8.91364 10 1.08307 1.08636 10 8.91693 8.91693 10 8.91364 
1.25746 10 9.45846 0.543179 10 9.45846 0.543179 10 8.74418 
0.541439 10 0.543116 1.25572 10 0.543116 0.541439 10 1.2574 
9.45846 10 8.74254 9.45846 10 9.45682 8.74418 10 9.45682 
8.74254 10 0.541537 9.45682 10 0.541537 9.45682 10 1.25582 
1.98781 10 0.516055 2.70209 10 0.516055 1.81496 10 1.05917 
3.26525 10 0.722031 3.97953 10 0.722031 3.1102 10 1.23809 
4.64319 10 0.473928 5.35747 10 0.473928 4.33701 10 1.19596 
6.02677 10 0.691434 6.74106 10 0.691434 5.66996 10 1.16536 
7.29791 10 0.516055 8.01219 10 0.516055 6.89611 10 1.20749 
8.1833 10 1.05759 9.48394 10 1.98781 9.48394 10 2.70209 
8.94077 10 1.81506 9.2761 10 3.26817 9.2761 10 3.98246 
8.76005 10 3.11312 9.52597 10 4.64334 9.52597 10 5.35762 
8.80208 10 4.34008 9.30857 10 6.02677 9.30857 10 6.74106 
8.83454 10 5.67011 9.48394 10 7.29791 9.48394 10 8.01219 
8.79251 10 6.89611 8.94241 10 8.1833 2.70209 10 9.48394 
1.98781 10 9.48394 1.8167 10 8.94241 3.97323 10 9.30857 
3.25894 10 9.30857 3.10389 10 8.79251 5.35666 10 9.52597 
4.64238 10 9.52597 4.32989 10 8.83454 6.73183 10 9.2761 
6.01754 10 9.2761 5.65992 10 8.80208 8.01219 10 9.48394 
7.29791 10 9.48394 6.88688 10 8.76005 8.18494 10 8.94077 
0.516055 10 2.70209 0.516055 10 1.98781 1.05749 10 1.81664 
0.691194 10 3.97308 0.691194 10 3.25879 1.20725 10 3.10374 
0.474013 10 5.35665 0.474013 10 4.64237 1.16521 10 4.32973 
0.723897 10 6.73183 0.723897 10 6.01754 1.19791 10 5.65991 
0.516055 10 8.01219 0.516055 10 7.29791 1.23995 10 6.88688 
1.05923 10 8.18494 4.62184 10 4.10217 3.90388 10 3.79195 
4.27284 10 4.68391 3.39621 10 5.0442 4.11417 10 5.35442 
4.9396 10 3.38254 5.30855 10 4.2745 5.87211 10 4.64349 
6.18987 10 3.92387 3.80562 10 6.07992 4.68224 10 5.71962 
5.03703 10 6.59668 5.34558 10 5.87118 6.59927 10 4.95958 
5.71796 10 5.31021 6.07275 10 6.18727 1.41659 10 2.18814 
1.85206 10 2.66589 2.23654 10 2.30698 2.60953 10 1.90842 
2.17405 10 1.43068 1.90607 10 3.80758 2.55089 10 3.36972 
2.0272 10 3.22258 3.46245 10 2.99747 3.96312 10 2.32713 
3.17269 10 2.11439 3.11345 10 3.57921 2.99232 10 4.1642 
8.08948 10 2.61282 8.5688 10 2.17488 7.69039 10 2.24065 
7.81133 10 1.41741 7.33202 10 1.85535 6.98225 10 3.48572 
7.65281 10 3.98603 7.88164 10 3.1789 6.19171 10 1.9072 
6.62762 10 2.55506 6.77517 10 2.03073 6.41869 10 3.11674 
5.83523 10 2.9932 2.18867 10 8.58259 2.66798 10 8.14465 
2.30961 10 7.75935 1.91052 10 7.38718 1.4312 10 7.82512 
3.80829 10 8.0928 3.37238 10 7.44494 3.22483 10 7.96927 
3.01324 10 6.51806 2.34267 10 6.01775 2.11836 10 6.8211 
3.58131 10 6.88326 4.16477 10 7.0068 7.38718 10 8.08948 
7.82512 10 8.5688 7.75935 10 7.69039 8.58259 10 7.81133 
8.14465 10 7.33202 8.0928 10 6.19171 7.44494 10 6.62762 
7.96927 10 6.77517 6.51089 10 6.97966 6.01059 10 7.65022 
6.8211 10 7.88164 6.88326 10 6.41869 7.0068 10 5.83523 
4.62645 10 2.65998 4.33668 10 1.77691 5.00033 10 1.52881 
5.66963 10 1.74631 5.52208 10 2.27064 5.31315 10 2.83232 
1.52889 10 4.99951 1.74607 10 4.33022 2.26976 10 4.47736 
2.67365 10 5.35736 1.77878 10 5.6604 2.83232 10 4.68685 
7.32183 10 4.64643 8.22122 10 4.3396 8.4711 10 5.00048 
8.25369 10 5.66963 7.72936 10 5.52208 7.16768 10 5.31315 
4.99952 10 8.4711 4.33037 10 8.25369 4.47792 10 7.72936 
5.35019 10 7.31924 5.6604 10 8.22122 4.68685 10 7.16768 
1.44197 10 1.45774 8.54168 10 1.44289 1.45832 10 8.55711 
8.55711 10 8.54168 4.99667 4.98492 0 2.67202 2.78473 0 
7.21527 2.67202 0 2.78892 7.32141 0 7.32141 7.21108 0 
2.10976 5 0 5 2.10976 0 5 7.89024 0 
7.89024 5 0 1.80106 1.82924 0 8.17076 1.80106 0 
1.83029 8.19729 0 8.19729 8.16971 0 1.38239 3.66044 0 
3.67335 1.44406 0 8.55594 3.67335 0 3.66074 8.61713 0 
1.44779 6.3208 0 6.33956 1.38239 0 8.61713 6.33926 0 
6.3208 8.55221 0 3.55488 4.37369 0 5.62631 3.55488 0 
4.37369 6.44512 0 6.44512 5.62631 0 3.24581 5.70587 0 
4.25387 3.20867 0 5.70063 6.74784 0 6.78826 4.25191 0 
5.00067 0.947832 0 0.948026 4.99902 0 4.99904 9.05195 0 
9.05214 5.00066 0 2.42976 3.95471 0 3.95584 7.56848 0 
6.04529 2.42976 0 7.56848 6.04416 0 1.03211 2.54705 0 
8.96789 2.54705 0 2.54705 1.03211 0 2.54705 8.96789 0 
1.03211 7.45295 0 7.45295 8.96789 0 7.45295 1.03211 0 
8.96789 7.45295 0 1.08288 1.08623 0 1.08636 8.91693 0 
8.91377 1.08288 0 8.91693 8.91364 0 0.541439 1.2574 0 
0.541439 0.543116 0 1.25572 0.543116 0 1.25746 9.45846 0 
0.543179 9.45846 0 0.543179 8.74418 0 9.45688 0.541439 0 
9.45688 1.25572 0 8.7426 0.541439 0 9.45846 9.45682 0 
8.74418 9.45682 0 9.45846 8.74254 0 2.70209 9.48394 0 
1.98781 9.48394 0 1.8167 8.94241 0 3.97323 9.30857 0 
3.25894 9.30857 0 3.10389 8.79251 0 5.35666 9.52597 0 
4.64238 9.52597 0 4.32989 8.83454 0 6.73183 9.2761 0 
6.01754 9.2761 0 5.65992 8.80208 0 8.01219 9.48394 0 
7.29791 9.48394 0 6.88688 8.76005 0 8.18494 8.94077 0 
0.516055 2.70209 0 0.516055 1.98781 0 1.05749 1.81664 0 
0.691194 3.97308 0 0.691194 3.25879 0 1.20725 3.10374 0 
0.474013 5.35665 0 0.474013 4.64237 0 1.16521 4.32973 0 
0.723897 6.73183 0 0.723897 6.01754 0 1.19791 5.65991 0 
0.516055 8.01219 0 0.516055 7.29791 0 1.23995 6.88688 0 
1.05923 8.18494 0 9.48394 1.98781 0 9.48394 2.70209 0 
8.94083 1.81496 0 9.27797 3.26525 0 9.27797 3.97953 0 
8.76191 3.1102 0 9.52607 4.64319 0 9.52607 5.35747 0 
8.80404 4.33701 0 9.30857 6.02677 0 9.30857 6.74106 0 
8.83464 5.66996 0 9.48394 7.29791 0 9.48394 8.01219 0 
8.79251 6.89611 0 8.94241 8.1833 0 1.98781 0.516055 0 
2.70209 0.516055 0 1.81496 1.05917 0 3.26525 0.722031 0 
3.97953 0.722031 0 3.1102 1.23809 0 4.64319 0.473916 0 
5.35748 0.473916 0 4.33701 1.19595 0 6.02692 0.691194 0 
6.74121 0.691194 0 5.67012 1.16511 0 7.29791 0.516055 0 
8.01219 0.516055 0 6.89626 1.20725 0 8.18336 1.05749 0 
4.27577 4.67931 0 3.40035 5.03978 0 4.12124 5.3454 0 
4.62527 4.0968 0 3.90437 3.79118 0 5.31149 4.2699 0 
4.94009 3.38178 0 5.89246 4.61841 0 6.20728 3.9034 0 
4.68518 5.71502 0 3.80975 6.0755 0 5.03716 6.59648 0 
5.34865 5.86638 0 5.7209 5.30561 0 6.07288 6.18707 0 
6.61669 4.93911 0 2.23654 2.30698 0 1.41659 2.18814 0 
1.85206 2.66589 0 2.60953 1.90842 0 2.17405 1.43068 0 
2.0272 3.22258 0 1.90607 3.80758 0 2.55089 3.36972 0 
3.17269 2.11439 0 3.46294 2.9967 0 3.96361 2.32637 0 
3.11345 3.57921 0 2.99232 4.1642 0 7.69302 2.23654 0 
8.09158 2.60953 0 8.56932 2.17405 0 7.81186 1.41659 0 
7.33411 1.85206 0 7.88561 3.17269 0 7.00177 3.46196 0 
7.6721 3.96263 0 6.77742 2.0272 0 6.19242 1.90607 0 
6.63028 2.55089 0 6.42079 3.11345 0 5.8358 2.99232 0 
2.30961 7.75935 0 2.18867 8.58259 0 2.66798 8.14465 0 
1.91052 7.38718 0 1.4312 7.82512 0 3.22483 7.96927 0 
3.80829 8.0928 0 3.37238 7.44494 0 2.11836 6.8211 0 
3.01737 6.51364 0 2.3468 6.01334 0 3.58131 6.88326 0 
4.16477 7.0068 0 7.75935 7.69039 0 7.38718 8.08948 0 
7.82512 8.5688 0 8.58259 7.81133 0 8.14465 7.33202 0 
7.96927 6.77517 0 8.0928 6.19171 0 7.44494 6.62762 0 
6.8211 7.88164 0 6.51102 6.97946 0 6.01071 7.65002 0 
6.88326 6.41869 0 7.0068 5.83523 0 1.74607 4.33022 0 
1.52889 4.99951 0 2.26976 4.47736 0 1.77878 5.6604 0 
2.67779 5.35294 0 2.83232 4.68685 0 4.33668 1.77691 0 
4.62694 2.65921 0 5.00034 1.52879 0 5.66978 1.74607 0 
5.52264 2.26976 0 5.31315 2.83232 0 4.33037 8.25369 0 
4.99952 8.4711 0 4.47792 7.72936 0 5.6604 8.22122 0 
5.35032 7.31904 0 4.68685 7.16768 0 8.22309 4.33668 0 
7.33925 4.62596 0 8.47119 5.00033 0 8.25369 5.66963 0 
7.72936 5.52208 0 7.16768 5.31315 0 1.44197 1.45774 0 
8.54226 1.44197 0 1.45832 8.55711 0 8.55711 8.54168 0 
4.99412 4.99079 10 2.78473 2.67202 10 2.67859 7.21108 10 
7.32141 2.78892 10 7.21108 7.32141 10 5 2.10976 10 
2.10976 5 10 7.89024 5 10 5 7.89024 10 
1.82924 1.80106 10 1.80271 8.16971 10 8.19729 1.83029 10 
8.16971 8.19729 10 1.44406 3.67335 10 3.66044 1.38239 10 
8.61713 3.66074 10 3.6792 8.55221 10 6.3208 1.44779 10 
1.38287 6.33926 10 6.33926 8.61713 10 8.55221 6.3208 10 
4.37369 3.55488 10 3.55488 5.62631 10 6.44512 4.37369 10 
5.62631 6.44512 10 3.21021 4.25289 10 5.71471 3.23755 10 
4.29285 6.75342 10 6.74824 5.70038 10 4.99902 0.948026 10 
9.05195 4.99904 10 0.947856 5.00066 10 5.00096 9.05195 10 
3.95471 2.42976 10 2.43152 6.04416 10 7.56848 3.95584 10 
6.04416 7.56848 10 8.96789 2.54705 10 1.03211 2.54705 10 
2.54705 1.03211 10 2.54705 8.96789 10 1.03211 7.45295 10 
7.45295 1.03211 10 8.96789 7.45295 10 7.45295 8.96789 10 
1.08623 1.08288 10 8.91693 1.08636 10 1.08307 8.91364 10 
8.91364 8.91693 10 0.543116 0.541439 10 0.543116 1.25572 10 
1.2574 0.541439 10 0.541537 9.45682 10 1.25582 9.45682 10 
0.541537 8.74254 10 9.45846 1.25746 10 9.45846 0.543179 10 
8.74418 0.543179 10 9.45682 9.45846 10 9.45682 8.74418 10 
8.74254 9.45846 10 9.48394 2.70209 10 9.48394 1.98781 10 
8.94241 1.8167 10 9.30857 3.97323 10 9.30857 3.25894 10 
8.79251 3.10389 10 9.52597 5.35666 10 9.52597 4.64238 10 
8.83454 4.32989 10 9.2761 6.73183 10 9.2761 6.01754 10 
8.80208 5.65992 10 9.48394 8.01219 10 9.48394 7.29791 10 
8.76005 6.88688 10 8.94077 8.18494 10 1.98781 9.48394 10 
2.70209 9.48394 10 1.81506 8.94077 10 3.26817 9.2761 10 
3.98246 9.2761 10 3.11312 8.76005 10 4.64334 9.52597 10 
5.35762 9.52597 10 4.34008 8.80208 10 6.02677 9.30857 10 
6.74106 9.30857 10 5.67011 8.83454 10 7.29791 9.48394 10 
8.01219 9.48394 10 6.89611 8.79251 10 8.1833 8.94241 10 
0.516055 1.98781 10 0.516055 2.70209 10 1.05917 1.81496 10 
0.722031 3.26525 10 0.722031 3.97953 10 1.23809 3.1102 10 
0.473928 4.64319 10 0.473928 5.35747 10 1.19596 4.33701 10 
0.691434 6.02677 10 0.691434 6.74106 10 1.16536 5.66996 10 
0.516055 7.29791 10 0.516055 8.01219 10 1.20749 6.89611 10 
1.05759 8.1833 10 2.70209 0.516055 10 1.98781 0.516055 10 
1.81664 1.05749 10 3.97308 0.691194 10 3.25879 0.691194 10 
3.10374 1.20725 10 5.35665 0.474013 10 4.64237 0.474013 10 
4.32973 1.16521 10 6.73183 0.723897 10 6.01754 0.723897 10 
5.65991 1.19791 10 8.01219 0.516055 10 7.29791 0.516055 10 
6.88688 1.23995 10 8.18494 1.05923 10 4.10217 4.62184 10 
3.79195 3.90388 10 4.68391 4.27284 10 5.0442 3.39621 10 
5.35442 4.11417 10 3.38254 4.9396 10 4.2745 5.30855 10 
4.64349 5.87211 10 3.92387 6.18987 10 6.07992 3.80562 10 
5.71962 4.68224 10 6.59668 5.03703 10 5.87118 5.34558 10 
4.95958 6.59927 10 5.31021 5.71796 10 6.18727 6.07275 10 
1.90842 2.60953 10 1.43068 2.17405 10 2.30698 2.23654 10 
2.18814 1.41659 10 2.66589 1.85206 10 2.99747 3.46245 10 
2.32713 3.96312 10 2.11439 3.17269 10 3.80758 1.90607 10 
3.36972 2.55089 10 3.22258 2.0272 10 3.57921 3.11345 10 
4.1642 2.99232 10 2.61282 8.08948 10 2.17488 8.5688 10 
2.24065 7.69039 10 1.41741 7.81133 10 1.85535 7.33202 10 
3.48572 6.98225 10 3.98603 7.65281 10 3.1789 7.88164 10 
1.9072 6.19171 10 2.55506 6.62762 10 2.03073 6.77517 10 
3.11674 6.41869 10 2.9932 5.83523 10 8.58259 2.18867 10 
8.14465 2.66798 10 7.75935 2.30961 10 7.38718 1.91052 10 
7.82512 1.4312 10 8.0928 3.80829 10 7.44494 3.37238 10 
7.96927 3.22483 10 6.51806 3.01324 10 6.01775 2.34267 10 
6.8211 2.11836 10 6.88326 3.58131 10 7.0068 4.16477 10 
8.08948 7.38718 10 8.5688 7.82512 10 7.69039 7.75935 10 
7.81133 8.58259 10 7.33202 8.14465 10 6.19171 8.0928 10 
6.62762 7.44494 10 6.77517 7.96927 10 6.97966 6.51089 10 
7.65022 6.01059 10 7.88164 6.8211 10 6.41869 6.88326 10 
5.83523 7.0068 10 4.99951 1.52889 10 4.33022 1.74607 10 
4.47736 2.26976 10 5.35736 2.67365 10 5.6604 1.77878 10 
4.68685 2.83232 10 2.65998 4.62645 10 1.77691 4.33668 10 
1.52881 5.00033 10 1.74631 5.66963 10 2.27064 5.52208 10 
2.83232 5.31315 10 8.4711 4.99952 10 8.25369 4.33037 10 
7.72936 4.47792 10 7.31924 5.35019 10 8.22122 5.6604 10 
7.16768 4.68685 10 4.64643 7.32183 10 4.3396 8.22122 10 
5.00048 8.4711 10 5.66963 8.25369 10 5.52208 7.72936 10 
5.31315 7.16768 10 1.45774 1.44197 10 1.44289 8.54168 10 
8.55711 1.45832 10 8.54168 8.55711 10 30 4.99412 4.99079 
30 2.78473 2.67202 30 2.67859 7.21108 30 7.32141 2.78892 
30 7.21108 7.32141 30 5 2.10976 30 2.10976 5 
30 5 7.89024 30 7.89024 5 30 1.82924 1.80106 
30 1.80271 8.16971 30 8.19729 1.83029 30 8.16971 8.19729 
30 1.44406 3.67335 30 3.66044 1.38239 30 8.61713 3.66074 
30 3.6792 8.55221 30 6.3208 1.44779 30 1.38287 6.33926 
30 6.33926 8.61713 30 8.55221 6.3208 30 4.37369 3.55488 
30 3.55488 5.62631 30 6.44512 4.37369 30 5.62631 6.44512 
30 3.21021 4.25289 30 5.71471 3.23755 30 4.29285 6.75342 
30 6.74824 5.70038 30 4.99902 0.948026 30 0.947856 5.00066 
30 9.05195 4.99904 30 5.00096 9.05195 30 3.95471 2.42976 
30 2.43152 6.04416 30 7.56848 3.95584 30 6.04416 7.56848 
30 8.96789 2.54705 30 1.03211 2.54705 30 2.54705 1.03211 
30 2.54705 8.96789 30 1.03211 7.45295 30 7.45295 1.03211 
30 8.96789 7.45295 30 7.45295 8.96789 30 1.08623 1.08288 
30 8.91693 1.08636 30 1.08307 8.91364 30 8.91364 8.91693 
30 0.541537 8.74254 30 0.541537 9.45682 30 1.25582 9.45682 
30 0.543116 0.541439 30 0.543116 1.25572 30 1.2574 0.541439 
30 8.74254 9.45846 30 9.45682 9.45846 30 9.45682 8.74418 
30 9.45846 1.25746 30 9.45846 0.543179 30 8.74418 0.543179 
30 0.516055 1.98781 30 0.516055 2.70209 30 1.05917 1.81496 
30 0.722031 3.26525 30 0.722031 3.97953 30 1.23809 3.1102 
30 0.473928 4.64319 30 0.473928 5.35747 30 1.19596 4.33701 
30 0.691434 6.02677 30 0.691434 6.74106 30 1.16536 5.66996 
30 0.516055 7.29791 30 0.516055 8.01219 30 1.20749 6.89611 
30 1.05759 8.1833 30 1.98781 9.48394 30 2.70209 9.48394 
30 1.81506 8.94077 30 3.26817 9.2761 30 3.98246 9.2761 
30 3.11312 8.76005 30 4.64334 9.52597 30 5.35762 9.52597 
30 4.34008 8.80208 30 6.02677 9.30857 30 6.74106 9.30857 
30 5.67011 8.83454 30 7.29791 9.48394 30 8.01219 9.48394 
30 6.89611 8.79251 30 8.1833 8.94241 30 9.48394 2.70209 
30 9.48394 1.98781 30 8.94241 1.8167 30 9.30857 3.97323 
30 9.30857 3.25894 30 8.79251 3.10389 30 9.52597 5.35666 
30 9.52597 4.64238 30 8.83454 4.32989 30 9.2761 6.73183 
30 9.2761 6.01754 30 8.80208 5.65992 30 9.48394 8.01219 
30 9.48394 7.29791 30 8.76005 6.88688 30 8.94077 8.18494 
30 2.70209 0.516055 30 1.98781 0.516055 30 1.81664 1.05749 
30 3.97308 0.691194 30 3.25879 0.691194 30 3.10374 1.20725 
30 5.35665 0.474013 30 4.64237 0.474013 30 4.32973 1.16521 
30 6.73183 0.723897 30 6.01754 0.723897 30 5.65991 1.19791 
30 8.01219 0.516055 30 7.29791 0.516055 30 6.88688 1.23995 
30 8.18494 1.05923 30 4.10217 4.62184 30 3.79195 3.90388 
30 4.68391 4.27284 30 5.0442 3.39621 30 5.35442 4.11417 
30 3.38254 4.9396 30 4.2745 5.30855 30 4.64349 5.87211 
30 3.92387 6.18987 30 6.07992 3.80562 30 5.71962 4.68224 
30 6.59668 5.03703 30 5.87118 5.34558 30 4.95958 6.59927 
30 5.31021 5.71796 30 6.18727 6.07275 30 1.90842 2.60953 
30 1.43068 2.17405 30 2.30698 2.23654 30 2.18814 1.41659 
30 2.66589 1.85206 30 2.99747 3.46245 30 2.32713 3.96312 
30 2.11439 3.17269 30 3.80758 1.90607 30 3.36972 2.55089 
30 3.22258 2.0272 30 3.57921 3.11345 30 4.1642 2.99232 
30 2.61282 8.08948 30 2.17488 8.5688 30 2.24065 7.69039 
30 1.41741 7.81133 30 1.85535 7.33202 30 3.48572 6.98225 
30 3.98603 7.65281 30 3.1789 7.88164 30 1.9072 6.19171 
30 2.55506 6.62762 30 2.03073 6.77517 30 3.11674 6.41869 
30 2.9932 5.83523 30 8.58259 2.18867 30 8.14465 2.66798 
30 7.75935 2.30961 30 7.38718 1.91052 30 7.82512 1.4312 
30 8.0928 3.80829 30 7.44494 3.37238 30 7.96927 3.22483 
30 6.51806 3.01324 30 6.01775 2.34267 30 6.8211 2.11836 
30 6.88326 3.58131 30 7.0068 4.16477 30 8.08948 7.38718 
30 8.5688 7.82512 30 7.69039 7.75935 30 7.81133 8.58259 
30 7.33202 8.14465 30 6.19171 8.0928 30 6.62762 7.44494 
30 6.77517 7.96927 30 6.97966 6.51089 30 7.65022 6.01059 
30 7.88164 6.8211 30 6.41869 6.88326 30 5.83523 7.0068 
30 4.99951 1.52889 30 4.33022 1.74607 30 4.47736 2.26976 
30 5.35736 2.67365 30 5.6604 1.77878 30 4.68685 2.83232 
30 2.65998 4.62645 30 1.77691 4.33668 30 1.52881 5.00033 
30 1.74631 5.66963 30 2.27064 5.52208 30 2.83232 5.31315 
30 4.64643 7.32183 30 4.3396 8.22122 30 5.00048 8.4711 
30 5.66963 8.25369 30 5.52208 7.72936 30 5.31315 7.16768 
30 8.4711 4.99952 30 8.25369 4.33037 30 7.72936 4.47792 
30 7.31924 5.35019 30 8.22122 5.6604 30 7.16768 4.68685 
30 1.45774 1.44197 30 1.44289 8.54168 30 8.55711 1.45832 
30 8.54168 8.55711 19.1939 0 5.28152 25 0 5 
14.6154 0 5 22.1429 0 3.26531 22.0884 0 6.75839 
16.9765 0 7.04858 16.9688 0 2.95278 27.2569 0 2.81987 
27.128 0 7.36486 12.6736 0 2.74811 12.6086 0 7.26216 
19.4202 0 2.4682 19.4202 0 7.5318 24.4897 0 2.29855 
24.4002 0 7.46181 12.1613 0 5 27.8902 0 5 
14.989 0 2.14912 14.989 0 7.85088 17.2969 0 5 
21.2409 0 5 23.6946 0 4.94985 21.1296 0 1.76225 
21.1296 0 8.23775 22.9936 0 2.07494 23.0131 0 8.20211 
17.7786 0 8.6451 17.7773 0 1.35512 28.2455 0 1.60659 
28.2499 0 8.37841 26.0095 0 8.37941 25.8902 0 1.75506 
11.7895 0 1.81069 11.7372 0 8.23794 15.6367 0 6.45784 
15.5707 0 3.59493 28.6368 0 3.71178 28.5534 0 6.27932 
11.3676 0 6.31536 11.3919 0 3.64662 20.6206 0 3.63055 
20.6216 0 6.3969 18.2239 0 3.68122 18.3066 0 6.2176 
16.3503 0 1.44241 16.3503 0 8.55759 26.4183 0 4.22684 
13.6643 0 1.43002 13.6595 0 8.57073 25.6684 0 6.40307 
23.5345 0 6.31869 13.3883 0 5.81731 13.3883 0 4.18269 
23.3615 0 3.46484 25.7466 0 3.04957 15.9834 0 5.08585 
19.0775 0 1.23965 19.0777 0 8.76039 26.7764 0 5.71235 
24.8933 0 8.73908 24.8177 0 0.995243 14.2183 0 6.79488 
14.2184 0 3.20789 27.1469 0 1.16021 27.1483 0 8.8317 
24.7851 0 3.83161 10.9626 0 5 22.0281 0 1.0328 
22.0281 0 8.9672 15.0003 0 0.965567 14.9999 0 9.03449 
29.0478 0 4.99935 16.549 0 4.12245 22.2222 0 5.61168 
19.3845 0 4.10745 19.5267 0 6.12499 27.5506 0 3.93962 
15.9805 0 2.49348 15.9805 0 7.50652 22.1429 0 4.36715 
11.0522 0 2.56332 11.0655 0 7.52356 23.7088 0 9.07739 
23.6424 0 0.996238 24.5516 0 6.02765 16.84 0 5.96198 
18.3213 0 7.5716 18.3081 0 2.41418 28.9679 0 7.45295 
28.9679 0 2.54705 12.5253 0 1.02427 12.5253 0 8.97573 
20.3908 0 1.08626 20.3908 0 8.91374 29.0756 0 0.995602 
29.0873 0 8.98629 21.9744 0 2.19717 21.9605 0 7.80547 
20.098 0 5.09024 11.0682 0 1.07188 11.0188 0 8.98673 
23.0712 0 7.21703 18.3605 0 4.76552 12.3815 0 6.09871 
12.4038 0 3.89436 25.5849 0 7.48387 20.6158 0 7.50757 
20.6199 0 2.4957 10.5094 0 8.77908 10.5094 0 9.49337 
11.2237 0 9.49337 10.5341 0 0.535941 10.5341 0 1.25023 
11.2484 0 0.535941 29.5437 0 9.49315 29.5437 0 8.77886 
28.8294 0 9.49315 29.5378 0 1.21209 29.5378 0 0.497801 
28.8235 0 0.497801 10.5261 0 1.99595 10.5261 0 2.71023 
11.0602 0 1.8176 10.696 0 3.25188 10.696 0 3.96617 
11.2221 0 3.10497 10.4813 0 4.64286 10.4813 0 5.35714 
11.1773 0 4.32331 10.6838 0 6.01482 10.6838 0 6.72911 
11.1651 0 5.65768 10.5328 0 7.33321 10.5328 0 8.04749 
11.2166 0 6.91946 11.0422 0 8.25515 29.4839 0 2.70209 
29.4839 0 1.98781 29.0217 0 1.77132 29.3184 0 3.99875 
29.3184 0 3.28446 28.8023 0 3.12941 29.5239 0 5.35682 
29.5239 0 4.64253 28.8423 0 4.35556 29.2767 0 6.71109 
29.2767 0 5.9968 28.8006 0 5.63934 29.4839 0 8.01219 
29.4839 0 7.29791 28.7607 0 6.86614 29.0276 0 8.21962 
12.6912 0 0.512136 11.9769 0 0.512136 11.7967 0 1.04808 
13.975 0 0.715012 13.2607 0 0.715012 13.0948 0 1.22715 
15.3573 0 0.482783 14.643 0 0.482783 14.3323 0 1.19779 
16.7466 0 0.721205 16.0323 0 0.721205 15.6753 0 1.20399 
18.1744 0 0.677562 17.4601 0 0.677562 17.0638 0 1.39877 
19.5388 0 0.619825 18.8245 0 0.619825 18.4274 0 1.29739 
20.9097 0 0.543129 20.1954 0 0.543129 19.7342 0 1.16295 
22.4426 0 0.516401 21.7283 0 0.516401 21.2094 0 1.05953 
23.9641 0 0.498119 23.2498 0 0.498119 22.8352 0 1.01452 
25.266 0 0.497621 24.5517 0 0.497621 24.2301 0 0.99574 
27.1449 0 0.580103 26.4306 0 0.580103 25.8023 0 0.877528 
25.354 0 1.37515 26.5185 0 1.45763 27.8591 0 0.580103 
28.4085 0 0.803295 27.6962 0 1.3834 28.6605 0 1.3011 
11.9769 0 9.48786 12.6912 0 9.48786 11.7721 0 8.98123 
13.2583 0 9.28536 13.9726 0 9.28536 13.0924 0 8.77323 
14.6428 0 9.51724 15.3571 0 9.51724 14.3297 0 8.80261 
16.0323 0 9.2788 16.7466 0 9.2788 15.6751 0 8.79604 
17.4607 0 9.32255 18.175 0 9.32255 17.0644 0 8.60135 
18.8246 0 9.38019 19.5389 0 9.38019 18.4281 0 8.70275 
20.1954 0 9.45687 20.9097 0 9.45687 19.7343 0 8.83707 
21.7283 0 9.4836 22.4426 0 9.4836 21.2094 0 8.94047 
23.283 0 9.5387 23.9972 0 9.5387 22.8684 0 9.02229 
24.5895 0 9.36954 25.3038 0 9.36954 24.3011 0 8.90823 
26.4313 0 9.41585 27.1456 0 9.41585 25.8619 0 9.18971 
25.4514 0 8.55925 26.5789 0 8.60556 27.8598 0 9.41585 
28.4107 0 9.1892 27.6991 0 8.60505 28.6686 0 8.68235 
18.7502 0 5.74956 19.3603 0 5.70326 18.9166 0 6.1713 
18.3335 0 5.49156 18.7772 0 5.02352 19.2892 0 4.69449 
19.7413 0 4.59884 19.646 0 5.18588 18.8725 0 4.43648 
19.8124 0 5.60761 24.3473 0 4.97492 24.2399 0 4.39073 
24.8926 0 4.4158 24.7758 0 5.51382 24.1231 0 5.48875 
25.7091 0 4.61342 26.5973 0 4.96959 25.8882 0 5.35617 
25.6017 0 4.02922 25.3342 0 5.70154 26.2224 0 6.05771 
25.11 0 6.21536 15.126 0 5.72892 15.2994 0 5.04292 
15.8101 0 5.77184 14.9275 0 6.62636 14.4168 0 5.89744 
15.0931 0 4.29747 15.7771 0 4.34039 14.4169 0 4.10395 
14.8946 0 3.40141 14.0019 0 5.40865 13.3883 0 5 
14.0019 0 4.59135 13.8033 0 6.30609 13.8034 0 3.69529 
22.5682 0 2.67012 23.1775 0 2.76989 22.7522 0 3.36507 
22.0586 0 2.73124 22.484 0 2.13605 21.3818 0 3.44793 
22.1429 0 3.81623 21.3818 0 3.99885 20.6203 0 3.06313 
21.3814 0 2.8805 22.7522 0 3.91599 21.2972 0 2.34644 
21.355 0 6.57765 21.4219 0 6.00429 22.1553 0 6.18504 
21.3521 0 7.13298 20.6187 0 6.95223 22.8115 0 6.53854 
22.8784 0 5.96519 23.3029 0 6.76786 22.5798 0 6.98771 
22.0245 0 7.28193 22.5159 0 7.51125 21.2882 0 7.65652 
17.3776 0 7.84684 16.6634 0 7.80309 17.6489 0 7.31009 
18.0499 0 8.10835 16.3066 0 6.75321 16.4785 0 7.27755 
15.8086 0 6.98218 16.2384 0 6.20991 16.9083 0 6.50528 
17.6416 0 6.63309 17.5733 0 6.08979 18.3139 0 6.8946 
16.1654 0 8.03206 17.3731 0 2.15395 16.6596 0 2.19759 
18.0427 0 1.88465 17.6385 0 2.68348 16.2698 0 3.27385 
16.7589 0 3.53762 16.0599 0 3.85869 15.7756 0 3.0442 
16.4746 0 2.72313 17.5964 0 3.317 17.3865 0 3.90184 
18.266 0 3.0477 16.1654 0 1.96794 27.7512 0 2.21323 
27.2019 0 1.99004 28.6067 0 2.07682 28.1124 0 2.68346 
26.5736 0 2.28746 26.5018 0 2.93472 25.8184 0 2.40231 
27.9469 0 3.26582 28.0937 0 3.8257 27.4037 0 3.37974 
26.8376 0 3.52335 26.0824 0 3.6382 26.9844 0 4.08323 
27.6889 0 7.87164 27.1381 0 8.09828 28.0479 0 7.40891 
28.6089 0 7.91568 26.5687 0 7.87214 25.7972 0 7.93164 
26.3565 0 7.42436 27.8407 0 6.82209 26.9522 0 6.53861 
27.6649 0 5.99583 26.3982 0 6.88397 25.6266 0 6.94347 
12.2316 0 2.2794 11.8629 0 2.65571 11.4209 0 2.18701 
12.1574 0 1.41748 12.5995 0 1.88619 12.0328 0 3.19736 
12.5387 0 3.32123 11.8979 0 3.77049 13.1689 0 2.08907 
13.9413 0 2.31896 13.446 0 2.978 13.031 0 3.4654 
12.8961 0 4.03852 12.1729 0 7.75005 11.4014 0 7.88075 
11.8371 0 7.39286 12.567 0 8.11895 12.1312 0 8.60683 
11.9881 0 6.78876 11.8745 0 6.20703 12.495 0 6.68044 
13.1341 0 7.91645 13.4134 0 7.02852 13.9389 0 7.6828 
12.9985 0 6.53974 12.8849 0 5.95801 20.0204 0 3.04937 
20.0026 0 3.869 19.4024 0 3.28782 20.0201 0 2.48195 
18.8221 0 3.07471 18.8042 0 3.89434 18.8642 0 2.44119 
19.2489 0 1.85392 18.6928 0 1.82692 19.9055 0 1.77723 
20.5054 0 1.79098 20.0209 0 6.96435 19.4735 0 6.8284 
20.0742 0 6.26095 20.018 0 7.51968 18.8634 0 6.8747 
18.8707 0 7.5517 19.249 0 8.1461 18.6995 0 8.16599 
19.9055 0 8.22277 20.5033 0 8.21066 23.7416 0 2.18674 
23.9256 0 2.88169 23.318 0 1.53559 24.066 0 1.64739 
25.1899 0 2.0268 25.1181 0 2.67406 24.6537 0 1.6469 
24.6374 0 3.06508 24.0733 0 3.64822 25.2659 0 3.44059 
23.7066 0 7.83196 24.0545 0 8.2696 23.3609 0 8.63975 
23.0421 0 7.70957 23.7357 0 7.33942 25.0343 0 6.93244 
24.4759 0 6.74473 24.9926 0 7.47284 23.9674 0 6.89025 
24.0431 0 6.17317 24.6468 0 8.10044 25.2391 0 8.11147 
11.7645 0 5.65768 11.5619 0 5 12.2714 0 5.54935 
11.7766 0 4.32331 12.2825 0 4.44718 12.7748 0 5.40865 
12.7748 0 4.59135 28.2635 0 4.35589 28.469 0 4.99968 
27.7204 0 4.46981 28.2218 0 5.63966 27.3333 0 5.35617 
27.1543 0 4.61342 15.2799 0 2.87202 14.6037 0 2.6785 
15.4847 0 2.3213 15.6697 0 1.79576 14.9946 0 1.55734 
14.3266 0 1.78957 15.3129 0 7.15436 14.6036 0 7.32288 
15.4847 0 7.6787 15.6697 0 8.20424 14.9945 0 8.44269 
14.3243 0 8.2108 17.7604 0 4.34061 16.9229 0 4.56123 
18.2922 0 4.22337 17.8287 0 4.88276 17.8017 0 5.6088 
17.0685 0 5.48099 16.6402 0 5.04292 16.2662 0 4.60415 
16.4117 0 5.52391 20.9308 0 4.31528 21.6919 0 4.68357 
20.6695 0 5.04512 20.3593 0 4.36039 20.9313 0 5.69845 
21.7315 0 5.30584 20.3598 0 5.74357 22.1825 0 4.98941 
23.6146 0 5.63427 22.9584 0 5.28077 23.5281 0 4.20734 
22.9187 0 4.6585 21.5788 0 1.39752 20.7602 0 1.42425 
22.0012 0 1.61499 21.552 0 1.97971 20.8747 0 2.12897 
21.5788 0 8.60248 20.7602 0 8.57575 21.545 0 8.02161 
21.9943 0 8.38634 20.8727 0 7.87266 22.5108 0 1.55387 
22.5206 0 8.58465 22.4868 0 8.00379 11.4289 0 1.44129 
11.378 0 8.61234 19.1939 10 5.28152 25.1974 10 5.09291 
14.6154 10 5 22.0884 10 3.24161 22.1429 10 6.73469 
16.9765 10 7.04858 16.9688 10 2.95278 27.2569 10 2.81987 
27.128 10 7.36486 12.6736 10 2.74811 12.6086 10 7.26216 
19.4202 10 2.4682 19.4202 10 7.5318 24.4476 10 7.49415 
24.3255 10 2.38309 12.1613 10 5 27.8902 10 5 
14.989 10 2.14912 14.989 10 7.85088 17.2969 10 5 
21.2409 10 5 23.1204 10 5.12455 21.1296 10 1.76225 
21.1296 10 8.23775 23.0145 10 1.80525 22.9886 10 7.90038 
17.7786 10 8.6451 17.7773 10 1.35512 28.2455 10 1.60659 
28.2499 10 8.37841 26.0095 10 8.37941 25.8707 10 1.76512 
11.7895 10 1.81069 11.7372 10 8.23794 15.6367 10 6.45784 
15.5707 10 3.59493 28.6368 10 3.71178 28.5534 10 6.27932 
11.3676 10 6.31536 11.3919 10 3.64662 20.6216 10 3.63124 
20.6368 10 6.37847 18.2239 10 3.68122 18.3066 10 6.2176 
16.3503 10 1.44241 16.3503 10 8.55759 26.4538 10 4.24312 
13.6643 10 1.43002 13.6595 10 8.57073 25.6684 10 6.40307 
23.5397 10 3.70978 13.3883 10 5.81731 13.3883 10 4.18269 
23.239 10 6.49031 25.7328 10 3.06843 15.9834 10 5.08585 
19.0775 10 1.23965 19.0777 10 8.76039 26.8272 10 5.77732 
24.7554 10 1.22036 24.899 10 8.74293 14.2183 10 6.79488 
14.2184 10 3.20789 27.1483 10 8.8317 27.1457 10 1.16082 
10.9626 10 5 22.0281 10 1.0328 22.0281 10 8.9672 
15.0003 10 0.965567 14.9999 10 9.03449 29.0478 10 4.99935 
24.7571 10 3.85433 16.549 10 4.12245 22.2239 10 4.4093 
24.284 10 5.87233 19.3846 10 4.10753 19.5278 10 6.12364 
27.5314 10 3.94814 15.9805 10 2.49348 15.9805 10 7.50652 
22.1429 10 5.63285 11.0522 10 2.56332 11.0655 10 7.52356 
23.7088 10 0.922609 23.6634 10 8.99481 16.84 10 5.96198 
18.3213 10 7.5716 18.3081 10 2.41418 28.9679 10 2.54705 
28.9679 10 7.45295 12.5253 10 1.02427 12.5253 10 8.97573 
20.3908 10 1.08626 20.3908 10 8.91374 29.0756 10 0.995602 
29.0873 10 8.98629 21.9741 10 7.80155 21.9608 10 2.19575 
20.101 10 5.08707 11.0682 10 1.07188 11.0188 10 8.98673 
23.0712 10 2.78297 24.1797 10 4.73078 18.3605 10 4.76553 
12.3815 10 6.09871 12.4038 10 3.89436 25.5877 10 7.48575 
20.6209 10 7.50477 20.6158 10 2.49422 10.5094 10 9.49337 
10.5094 10 8.77908 11.2237 10 9.49337 10.5341 10 1.25023 
10.5341 10 0.535941 11.2484 10 0.535941 29.5437 10 8.77886 
29.5437 10 9.49315 28.8294 10 9.49315 29.5378 10 0.497801 
29.5378 10 1.21209 28.8235 10 0.497801 10.5261 10 2.71023 
10.5261 10 1.99595 11.0602 10 1.8176 10.696 10 3.96617 
10.696 10 3.25188 11.2221 10 3.10497 10.4813 10 5.35714 
10.4813 10 4.64286 11.1773 10 4.32331 10.6838 10 6.72911 
10.6838 10 6.01482 11.1651 10 5.65768 10.5328 10 8.04749 
10.5328 10 7.33321 11.2166 10 6.91946 11.0422 10 8.25515 
29.4839 10 1.98781 29.4839 10 2.70209 29.0217 10 1.77132 
29.3184 10 3.28446 29.3184 10 3.99875 28.8023 10 3.12941 
29.5239 10 4.64253 29.5239 10 5.35682 28.8423 10 4.35556 
29.2767 10 5.9968 29.2767 10 6.71109 28.8006 10 5.63934 
29.4839 10 7.29791 29.4839 10 8.01219 28.7607 10 6.86614 
29.0276 10 8.21962 11.9769 10 0.512136 12.6912 10 0.512136 
11.7967 10 1.04808 13.2607 10 0.715012 13.975 10 0.715012 
13.0948 10 1.22715 14.643 10 0.482783 15.3573 10 0.482783 
14.3323 10 1.19779 16.0323 10 0.721205 16.7466 10 0.721205 
15.6753 10 1.20399 17.4601 10 0.677562 18.1744 10 0.677562 
17.0638 10 1.39877 18.8245 10 0.619825 19.5388 10 0.619825 
18.4274 10 1.29739 20.1954 10 0.543129 20.9097 10 0.543129 
19.7342 10 1.16295 21.7283 10 0.516401 22.4426 10 0.516401 
21.2094 10 1.05953 23.283 10 0.461304 23.9972 10 0.461304 
22.8684 10 0.977705 24.5206 10 0.610179 25.2348 10 0.610179 
24.2321 10 1.07148 26.43 10 0.580409 27.1443 10 0.580409 
25.313 10 1.49274 25.7925 10 0.88256 26.5082 10 1.46297 
27.8586 10 0.580409 27.6956 10 1.3837 28.4085 10 0.803295 
28.6605 10 1.3011 12.6912 10 9.48786 11.9769 10 9.48786 
11.7721 10 8.98123 13.9726 10 9.28536 13.2583 10 9.28536 
13.0924 10 8.77323 15.3571 10 9.51724 14.6428 10 9.51724 
14.3297 10 8.80261 16.7466 10 9.2788 16.0323 10 9.2788 
15.6751 10 8.79604 18.175 10 9.32255 17.4607 10 9.32255 
17.0644 10 8.60135 19.5389 10 9.38019 18.8246 10 9.38019 
18.4281 10 8.70275 20.9097 10 9.45687 20.1954 10 9.45687 
19.7343 10 8.83707 22.4426 10 9.4836 21.7283 10 9.4836 
21.2094 10 8.94047 23.9746 10 9.4974 23.2603 10 9.4974 
22.8458 10 8.981 25.3066 10 9.37146 24.5923 10 9.37146 
24.2812 10 8.86887 27.1456 10 9.41585 26.4313 10 9.41585 
25.4542 10 8.56117 25.8619 10 9.18971 26.5789 10 8.60556 
27.8598 10 9.41585 27.6991 10 8.60505 28.4107 10 9.1892 
28.6686 10 8.68235 18.9172 10 6.17062 19.3609 10 5.70258 
18.7502 10 5.74956 18.7772 10 5.02353 18.3335 10 5.49156 
19.6474 10 5.1843 19.7428 10 4.5973 19.2893 10 4.69453 
18.8726 10 4.43653 19.8144 10 5.60536 26.0123 10 5.43512 
26.6405 10 5.01022 25.8256 10 4.66802 25.6055 10 4.04873 
24.9772 10 4.47362 26.2478 10 6.0902 25.4329 10 5.74799 
24.7407 10 5.48262 24.9762 10 6.1377 24.4684 10 4.29256 
24.6885 10 4.91185 24.2319 10 5.30156 15.8101 10 5.77184 
15.2994 10 5.04292 15.126 10 5.72892 14.4168 10 5.89744 
14.9275 10 6.62636 15.7771 10 4.34039 15.0931 10 4.29747 
14.8946 10 3.40141 14.4169 10 4.10395 14.0019 10 4.59135 
13.3883 10 5 14.0019 10 5.40865 13.8033 10 6.30609 
13.8034 10 3.69529 21.4228 10 4.02027 22.1562 10 3.82546 
21.355 10 3.43643 21.3521 10 2.86791 20.6187 10 3.06273 
22.8818 10 4.05954 22.814 10 3.4757 23.3054 10 3.24638 
22.5798 10 3.01229 22.516 10 2.48936 22.0246 10 2.71868 
21.2883 10 2.34499 23.1138 10 7.19534 22.6909 10 6.6125 
22.5657 10 7.31754 22.0585 10 7.26812 22.4814 10 7.85096 
22.1429 10 6.18377 21.3898 10 6.00566 21.3898 10 6.55658 
20.6289 10 6.94162 21.3819 10 7.11973 22.6909 10 6.06158 
21.2975 10 7.65316 16.6634 10 7.80309 17.3776 10 7.84684 
18.0499 10 8.10835 17.6489 10 7.31009 15.8086 10 6.98218 
16.4785 10 7.27755 16.3066 10 6.75321 16.9083 10 6.50528 
16.2384 10 6.20991 17.5733 10 6.08979 17.6416 10 6.63309 
18.3139 10 6.8946 16.1654 10 8.03206 16.6596 10 2.19759 
17.3731 10 2.15395 17.6385 10 2.68348 18.0427 10 1.88465 
16.0599 10 3.85869 16.7589 10 3.53762 16.2698 10 3.27385 
16.4746 10 2.72313 15.7756 10 3.0442 17.3865 10 3.90184 
17.5964 10 3.317 18.266 10 3.0477 16.1654 10 1.96794 
27.2013 10 1.99034 27.7512 10 2.21323 28.1124 10 2.68346 
28.6067 10 2.07682 25.8018 10 2.41677 26.4949 10 2.94415 
26.5638 10 2.29249 27.3941 10 3.384 28.0841 10 3.82996 
27.9469 10 3.26582 26.0933 10 3.65577 26.8554 10 3.53149 
26.9926 10 4.09563 27.1381 10 8.09828 27.6889 10 7.87164 
28.6089 10 7.91568 28.0479 10 7.40891 26.5687 10 7.87214 
26.3579 10 7.42531 25.7986 10 7.93258 27.6903 10 6.02832 
26.9776 10 6.57109 27.8407 10 6.82209 26.3982 10 6.88397 
25.628 10 6.94441 11.4209 10 2.18701 11.8629 10 2.65571 
12.2316 10 2.2794 12.5995 10 1.88619 12.1574 10 1.41748 
12.0328 10 3.19736 11.8979 10 3.77049 12.5387 10 3.32123 
13.446 10 2.978 13.9413 10 2.31896 13.1689 10 2.08907 
13.031 10 3.4654 12.8961 10 4.03852 11.8371 10 7.39286 
11.4014 10 7.88075 12.1729 10 7.75005 12.1312 10 8.60683 
12.567 10 8.11895 11.9881 10 6.78876 12.495 10 6.68044 
11.8745 10 6.20703 13.9389 10 7.6828 13.4134 10 7.02852 
13.1341 10 7.91645 12.9985 10 6.53974 12.8849 10 5.95801 
19.4024 10 3.28786 20.0031 10 3.86938 20.0209 10 3.04972 
20.018 10 2.48121 18.8043 10 3.89438 18.8221 10 3.07471 
18.8642 10 2.44119 18.6928 10 1.82692 19.2489 10 1.85392 
19.9055 10 1.77723 20.5033 10 1.79024 20.0823 10 6.25106 
19.474 10 6.82772 20.0285 10 6.95514 20.0206 10 7.51829 
18.8634 10 6.8747 18.8707 10 7.5517 18.6995 10 8.16599 
19.249 10 8.1461 19.9055 10 8.22277 20.5058 10 8.20926 
23.8433 10 6.99223 23.7181 10 7.69727 23.326 10 8.44759 
24.0555 10 8.24448 24.3658 10 6.68324 25.058 10 6.94861 
25.0176 10 7.48995 23.7615 10 6.18132 24.6733 10 8.11854 
25.2433 10 8.11434 24.0171 10 1.65285 23.3617 10 1.36393 
23.67 10 2.09417 23.0429 10 2.29411 23.6983 10 2.58303 
25.0291 10 2.72576 25.0981 10 2.0741 24.5404 10 1.80172 
24.1484 10 3.78206 24.5413 10 3.11871 23.9326 10 3.04644 
25.2449 10 3.46138 11.5619 10 5 11.7645 10 5.65768 
12.2714 10 5.54935 11.7766 10 4.32331 12.2825 10 4.44718 
12.7748 10 4.59135 12.7748 10 5.40865 28.469 10 4.99968 
28.2635 10 4.35589 27.7108 10 4.47407 27.3587 10 5.38866 
28.2218 10 5.63966 27.172 10 4.62156 14.6037 10 2.6785 
15.2799 10 2.87202 15.4847 10 2.3213 14.9946 10 1.55734 
15.6697 10 1.79576 14.3266 10 1.78957 14.6036 10 7.32288 
15.3129 10 7.15436 15.4847 10 7.6787 14.9945 10 8.44269 
15.6697 10 8.20424 14.3243 10 8.2108 16.9229 10 4.56123 
17.7604 10 4.34061 17.8287 10 4.88276 18.2922 10 4.22337 
17.0685 10 5.48099 17.8017 10 5.6088 16.2662 10 4.60415 
16.6402 10 5.04292 16.4117 10 5.52391 21.7324 10 4.70465 
20.9313 10 4.31562 20.3613 10 4.35915 20.6709 10 5.04353 
21.6919 10 5.31643 20.9389 10 5.68923 20.3689 10 5.73277 
22.1834 10 5.02108 22.6722 10 4.76693 23.3301 10 4.41717 
23.6501 10 4.92767 23.8597 10 4.22028 23.7022 10 5.49844 
23.1797 10 5.80743 22.6317 10 5.3787 20.7602 10 1.42425 
21.5788 10 1.39752 21.5452 10 1.979 21.9944 10 1.61428 
20.8727 10 2.12823 20.7602 10 8.57575 21.5788 10 8.60248 
22.0011 10 8.38437 21.5519 10 8.01965 20.8752 10 7.87126 
22.5213 10 1.41903 22.4876 10 2.0005 22.5083 10 8.43379 
11.4289 10 1.44129 11.378 10 8.61234 19.1939 5.28152 0 
25 5 0 14.6154 5 0 22.1233 6.75766 0 
22.1429 3.26531 0 16.9765 7.04858 0 16.9492 2.92351 0 
27.2569 2.81987 0 27.128 7.36486 0 12.6736 2.74811 0 
12.6736 7.25189 0 19.4202 7.5318 0 19.3621 2.49227 0 
24.4897 2.29855 0 24.5551 7.48746 0 12.1613 5 0 
27.8902 5 0 14.989 2.14912 0 14.989 7.85088 0 
17.2969 5 0 21.2409 5 0 23.6946 4.94985 0 
21.1296 8.23775 0 21.1296 1.76225 0 22.8739 8.28546 0 
22.9936 2.07494 0 17.7786 8.6451 0 17.9183 1.60465 0 
28.2455 1.60659 0 28.2499 8.37841 0 25.8902 1.75506 0 
26.0095 8.37941 0 11.7895 8.18931 0 11.7895 1.81069 0 
15.6367 6.45784 0 15.6117 3.57375 0 28.6368 3.71178 0 
28.5534 6.27932 0 11.3919 6.35338 0 11.3919 3.64662 0 
20.6229 6.39688 0 20.6338 3.66218 0 18.3066 6.2176 0 
18.2512 3.68608 0 16.3503 1.44241 0 16.3503 8.55759 0 
26.4183 4.22684 0 13.6643 1.43002 0 13.6643 8.56998 0 
25.6684 6.40307 0 23.598 6.31316 0 13.3883 5.81731 0 
13.3883 4.18269 0 23.3615 3.46484 0 25.7466 3.04957 0 
16.0131 5.05949 0 19.2407 1.02207 0 19.0777 8.76039 0 
26.7764 5.71235 0 24.8177 0.995243 0 24.9118 8.74213 0 
14.2213 6.7944 0 14.2202 3.20697 0 27.1469 1.16021 0 
27.1483 8.8317 0 24.7851 3.83161 0 10.9626 5 0 
22.0281 8.9672 0 22.0281 1.0328 0 15.0003 0.965567 0 
15.0003 9.03443 0 29.0478 4.99935 0 16.8244 4.04856 0 
22.2287 5.6053 0 19.5268 6.12499 0 19.3824 4.11466 0 
27.5506 3.93962 0 15.9805 2.49348 0 15.9805 7.50652 0 
22.1429 4.36715 0 11.0522 2.56332 0 11.0522 7.43668 0 
23.6602 8.93665 0 23.6424 0.996238 0 24.6475 6.02865 0 
16.846 5.9567 0 18.3213 7.5716 0 17.9747 2.68702 0 
28.9679 2.54705 0 28.9679 7.45295 0 12.5253 1.02427 0 
12.5253 8.97573 0 20.3908 8.91374 0 20.3947 1.07906 0 
29.0756 0.995602 0 29.0873 8.98629 0 21.9744 2.19717 0 
22.0282 7.82507 0 20.1001 5.0967 0 11.0682 8.92812 0 
11.0682 1.07188 0 23.4189 7.4199 0 18.3623 4.7664 0 
12.4038 6.10565 0 12.4038 3.89436 0 25.594 7.48536 0 
20.568 7.49204 0 20.6174 2.49865 0 10.5341 1.25023 0 
10.5341 0.535941 0 11.2484 0.535941 0 10.5341 9.46406 0 
10.5341 8.74977 0 11.2484 9.46406 0 28.8235 0.497801 0 
29.5378 0.497801 0 29.5378 1.21209 0 29.5437 9.49315 0 
28.8294 9.49315 0 29.5437 8.77886 0 10.5261 2.71023 0 
10.5261 1.99595 0 11.0602 1.8176 0 10.696 3.96617 0 
10.696 3.25188 0 11.2221 3.10497 0 10.4813 5.35714 0 
10.4813 4.64286 0 11.1773 4.32331 0 10.696 6.74812 0 
10.696 6.03383 0 11.1773 5.67669 0 10.5261 8.00405 0 
10.5261 7.28977 0 11.2221 6.89503 0 11.0602 8.1824 0 
11.9769 0.512136 0 12.6912 0.512136 0 11.7967 1.04808 0 
13.2607 0.715012 0 13.975 0.715012 0 13.0948 1.22715 0 
14.643 0.482783 0 15.3573 0.482783 0 14.3323 1.19779 0 
16.0323 0.721205 0 16.7466 0.721205 0 15.6753 1.20399 0 
17.5306 0.802324 0 18.2449 0.802324 0 17.1343 1.52353 0 
18.9061 0.511034 0 19.6203 0.511034 0 18.5795 1.31336 0 
20.1974 0.539531 0 20.9116 0.539531 0 19.8177 1.05057 0 
21.7283 0.516401 0 22.4426 0.516401 0 21.2114 1.05593 0 
23.2498 0.498119 0 23.9641 0.498119 0 22.8352 1.01452 0 
24.5517 0.497621 0 25.266 0.497621 0 24.2301 0.99574 0 
26.4306 0.580103 0 27.1449 0.580103 0 25.8023 0.877528 0 
25.354 1.37515 0 26.5185 1.45763 0 27.8591 0.580103 0 
28.4085 0.803295 0 27.6962 1.3834 0 28.6605 1.3011 0 
12.6912 9.48786 0 11.9769 9.48786 0 11.7967 8.95192 0 
13.975 9.28499 0 13.2607 9.28499 0 13.0948 8.77285 0 
15.3573 9.51722 0 14.643 9.51722 0 14.3323 8.80221 0 
16.7466 9.2788 0 16.0323 9.2788 0 15.6753 8.79601 0 
18.175 9.32255 0 17.4607 9.32255 0 17.0644 8.60135 0 
19.5389 9.38019 0 18.8246 9.38019 0 18.4281 8.70275 0 
20.9097 9.45687 0 20.1954 9.45687 0 19.7343 8.83707 0 
22.4426 9.4836 0 21.7283 9.4836 0 21.2094 8.94047 0 
23.973 9.46833 0 23.2587 9.46833 0 22.8442 8.95193 0 
25.313 9.37107 0 24.5987 9.37107 0 24.286 8.83939 0 
27.1456 9.41585 0 26.4313 9.41585 0 25.8619 9.18971 0 
25.4606 8.56077 0 26.5789 8.60556 0 27.8598 9.41585 0 
28.4107 9.1892 0 27.6991 8.60505 0 28.6686 8.68235 0 
29.4839 1.98781 0 29.4839 2.70209 0 29.0217 1.77132 0 
29.3184 3.28446 0 29.3184 3.99875 0 28.8023 3.12941 0 
29.5239 4.64253 0 29.5239 5.35682 0 28.8423 4.35556 0 
29.2767 5.9968 0 29.2767 6.71109 0 28.8006 5.63934 0 
29.4839 7.29791 0 29.4839 8.01219 0 28.7607 6.86614 0 
29.0276 8.21962 0 18.7502 5.74956 0 18.9167 6.17129 0 
19.3603 5.70326 0 18.7781 5.02396 0 18.3345 5.492 0 
19.8135 5.61085 0 19.647 5.18911 0 19.2882 4.69809 0 
19.7413 4.60568 0 18.8724 4.44053 0 24.3473 4.97492 0 
24.8926 4.4158 0 24.2399 4.39073 0 24.171 5.48925 0 
24.8237 5.51433 0 25.7091 4.61342 0 25.8882 5.35617 0 
26.5973 4.96959 0 25.6017 4.02922 0 25.3342 5.70154 0 
26.2224 6.05771 0 25.1579 6.21586 0 15.126 5.72892 0 
15.8249 5.75866 0 15.3142 5.02974 0 14.4183 5.8972 0 
14.929 6.62612 0 15.1135 4.28687 0 15.8124 4.31662 0 
14.9159 3.39036 0 14.4178 4.10349 0 14.0019 5.40865 0 
14.0019 4.59135 0 13.3883 5 0 13.8048 6.30585 0 
13.8043 3.69483 0 21.3731 6.57727 0 22.176 6.18148 0 
21.4258 6.00109 0 20.5955 6.94446 0 21.3457 7.12485 0 
22.8606 6.53541 0 22.9133 5.95923 0 22.7711 7.08878 0 
23.5084 6.86653 0 22.0758 7.29136 0 22.7236 7.62248 0 
21.2981 7.65855 0 22.5682 2.67012 0 22.7522 3.36507 0 
23.1775 2.76989 0 22.484 2.13605 0 22.0586 2.73124 0 
21.3883 3.46374 0 21.3883 4.01466 0 22.1429 3.81623 0 
21.3801 2.88198 0 20.6256 3.08042 0 22.7522 3.91599 0 
21.2959 2.34791 0 17.3776 7.84684 0 16.6634 7.80309 0 
18.0499 8.10835 0 17.6489 7.31009 0 16.3066 6.75321 0 
15.8086 6.98218 0 16.4785 7.27755 0 16.9113 6.50264 0 
16.2413 6.20727 0 17.6416 6.63309 0 17.5763 6.08715 0 
18.3139 6.8946 0 16.1654 8.03206 0 17.4338 2.26408 0 
16.6497 2.18296 0 17.462 2.80526 0 17.9465 2.14583 0 
16.2804 3.24863 0 16.218 3.81116 0 16.8868 3.48604 0 
16.4648 2.70849 0 15.7961 3.03361 0 17.6002 3.30479 0 
17.5378 3.86732 0 18.113 3.18655 0 16.1654 1.96794 0 
27.7512 2.21323 0 27.2019 1.99004 0 28.1124 2.68346 0 
28.6067 2.07682 0 26.5736 2.28746 0 25.8184 2.40231 0 
26.5018 2.93472 0 27.9469 3.26582 0 27.4037 3.37974 0 
28.0937 3.8257 0 26.8376 3.52335 0 26.0824 3.6382 0 
26.9844 4.08323 0 27.6889 7.87164 0 27.1381 8.09828 0 
28.6089 7.91568 0 28.0479 7.40891 0 26.5687 7.87214 0 
26.361 7.42511 0 25.8017 7.93239 0 27.8407 6.82209 0 
27.6649 5.99583 0 26.9522 6.53861 0 26.3982 6.88397 0 
25.6312 6.94422 0 12.2316 2.2794 0 11.4209 2.18701 0 
11.8629 2.65571 0 12.5995 1.88619 0 12.1574 1.41748 0 
12.0328 3.19736 0 11.8979 3.77049 0 12.5387 3.32123 0 
13.1689 2.08907 0 13.4469 2.97754 0 13.9422 2.3185 0 
13.031 3.4654 0 12.8961 4.03852 0 12.2316 7.7206 0 
11.8629 7.34429 0 11.4209 7.81299 0 12.1574 8.58252 0 
12.5995 8.11381 0 12.0328 6.80264 0 12.5387 6.67877 0 
11.8979 6.22951 0 13.1689 7.91093 0 13.9428 7.68219 0 
13.4474 7.02314 0 13.031 6.5346 0 12.8961 5.96148 0 
20.0216 6.96434 0 20.0749 6.26093 0 19.4735 6.82839 0 
19.9941 7.51192 0 18.8634 6.8747 0 18.8707 7.5517 0 
19.249 8.1461 0 18.6995 8.16599 0 19.9055 8.22277 0 
20.4794 8.20289 0 18.6402 2.04846 0 19.3014 1.75717 0 
18.6684 2.58964 0 19.998 3.07723 0 19.3723 3.30346 0 
20.0081 3.88842 0 19.9898 2.49546 0 18.8067 3.08917 0 
18.8168 3.90037 0 19.8784 1.78567 0 20.5061 1.78885 0 
23.7416 2.18674 0 23.9256 2.88169 0 24.066 1.64739 0 
23.318 1.53559 0 25.1899 2.0268 0 25.1181 2.67406 0 
24.6537 1.6469 0 24.0733 3.64822 0 24.6374 3.06508 0 
25.2659 3.44059 0 25.1117 6.94526 0 24.6013 6.75806 0 
25.0745 7.48641 0 24.0765 6.90031 0 24.1227 6.17091 0 
23.987 7.45368 0 24.7334 8.11479 0 24.1076 8.21206 0 
25.2529 8.11375 0 23.5396 8.17828 0 11.7766 5.67669 0 
11.5619 5 0 12.2825 5.55282 0 11.7766 4.32331 0 
12.2825 4.44718 0 12.7748 5.40865 0 12.7748 4.59135 0 
28.2635 4.35589 0 28.469 4.99968 0 27.7204 4.46981 0 
28.2218 5.63966 0 27.3333 5.35617 0 27.1543 4.61342 0 
15.3003 2.86143 0 14.6046 2.67805 0 15.4847 2.3213 0 
15.6697 1.79576 0 14.9946 1.55734 0 14.3266 1.78957 0 
15.3129 7.15436 0 14.6052 7.32264 0 15.4847 7.6787 0 
15.6697 8.20424 0 14.9946 8.44266 0 14.3266 8.21043 0 
17.8017 5.6088 0 17.0714 5.47835 0 17.8296 4.8832 0 
17.7741 4.34304 0 17.0607 4.52428 0 18.3068 4.22624 0 
16.655 5.02974 0 16.4188 4.55403 0 16.4295 5.5081 0 
20.9319 5.69844 0 21.7348 5.30265 0 20.6705 5.04835 0 
20.3615 5.74679 0 20.9374 4.33109 0 21.6919 4.68357 0 
20.367 4.37944 0 22.1858 4.98623 0 23.6463 5.6315 0 
22.9617 5.27758 0 23.5281 4.20734 0 22.9187 4.6585 0 
21.5788 8.60248 0 20.7602 8.57575 0 22.0281 8.39613 0 
21.5789 8.03141 0 20.8488 7.86489 0 21.5788 1.39752 0 
20.7621 1.42065 0 21.552 1.97971 0 22.0012 1.61499 0 
20.8735 2.13045 0 22.451 8.62633 0 23.267 8.61105 0 
22.451 8.05526 0 23.1464 7.85268 0 22.5108 1.55387 0 
11.4289 8.55871 0 11.4289 1.44129 0 19.1939 5.28152 10 
25 5 10 14.6154 5 10 22.1233 6.75766 10 
22.1429 3.26531 10 16.9765 7.04858 10 16.9492 2.92351 10 
27.2569 2.81987 10 27.128 7.36486 10 12.6736 2.74811 10 
12.6736 7.25189 10 19.4202 7.5318 10 19.3621 2.49227 10 
24.4897 2.29855 10 24.5551 7.48746 10 12.1613 5 10 
27.8902 5 10 14.989 2.14912 10 14.989 7.85088 10 
17.2969 5 10 21.2409 5 10 23.6946 4.94985 10 
21.1296 8.23775 10 21.1296 1.76225 10 22.8739 8.28546 10 
22.9936 2.07494 10 17.7786 8.6451 10 17.9183 1.60465 10 
28.2455 1.60659 10 28.2499 8.37841 10 25.8902 1.75506 10 
26.0095 8.37941 10 11.7895 8.18931 10 11.7895 1.81069 10 
15.6367 6.45784 10 15.6117 3.57375 10 28.6368 3.71178 10 
28.5534 6.27932 10 11.3919 6.35338 10 11.3919 3.64662 10 
20.6229 6.39688 10 20.6338 3.66218 10 18.3066 6.2176 10 
18.2512 3.68608 10 16.3503 1.44241 10 16.3503 8.55759 10 
26.4183 4.22684 10 13.6643 1.43002 10 13.6643 8.56998 10 
25.6684 6.40307 10 23.598 6.31316 10 13.3883 5.81731 10 
13.3883 4.18269 10 23.3615 3.46484 10 25.7466 3.04957 10 
16.0131 5.05949 10 19.2407 1.02207 10 19.0777 8.76039 10 
26.7764 5.71235 10 24.8177 0.995243 10 24.9118 8.74213 10 
14.2213 6.7944 10 14.2202 3.20697 10 27.1469 1.16021 10 
27.1483 8.8317 10 24.7851 3.83161 10 10.9626 5 10 
22.0281 8.9672 10 22.0281 1.0328 10 15.0003 0.965567 10 
15.0003 9.03443 10 29.0478 4.99935 10 16.8244 4.04856 10 
22.2287 5.6053 10 19.5268 6.12499 10 19.3824 4.11466 10 
27.5506 3.93962 10 15.9805 2.49348 10 15.9805 7.50652 10 
22.1429 4.36715 10 11.0522 2.56332 10 11.0522 7.43668 10 
23.6602 8.93665 10 23.6424 0.996238 10 24.6475 6.02865 10 
16.846 5.9567 10 18.3213 7.5716 10 17.9747 2.68702 10 
28.9679 2.54705 10 28.9679 7.45295 10 12.5253 1.02427 10 
12.5253 8.97573 10 20.3908 8.91374 10 20.3947 1.07906 10 
29.0756 0.995602 10 29.0873 8.98629 10 21.9744 2.19717 10 
22.0282 7.82507 10 20.1001 5.0967 10 11.0682 8.92812 10 
11.0682 1.07188 10 23.4189 7.4199 10 18.3623 4.7664 10 
12.4038 6.10565 10 12.4038 3.89436 10 25.594 7.48536 10 
20.568 7.49204 10 20.6174 2.49865 10 11.2484 0.535941 10 
10.5341 0.535941 10 10.5341 1.25023 10 10.5341 9.46406 10 
11.2484 9.46406 10 10.5341 8.74977 10 29.5378 1.21209 10 
29.5378 0.497801 10 28.8235 0.497801 10 29.5437 9.49315 10 
29.5437 8.77886 10 28.8294 9.49315 10 29.4839 2.70209 10 
29.4839 1.98781 10 29.0217 1.77132 10 29.3184 3.99875 10 
29.3184 3.28446 10 28.8023 3.12941 10 29.5239 5.35682 10 
29.5239 4.64253 10 28.8423 4.35556 10 29.2767 6.71109 10 
29.2767 5.9968 10 28.8006 5.63934 10 29.4839 8.01219 10 
29.4839 7.29791 10 28.7607 6.86614 10 29.0276 8.21962 10 
12.6912 0.512136 10 11.9769 0.512136 10 11.7967 1.04808 10 
13.975 0.715012 10 13.2607 0.715012 10 13.0948 1.22715 10 
15.3573 0.482783 10 14.643 0.482783 10 14.3323 1.19779 10 
16.7466 0.721205 10 16.0323 0.721205 10 15.6753 1.20399 10 
18.2449 0.802324 10 17.5306 0.802324 10 17.1343 1.52353 10 
19.6203 0.511034 10 18.9061 0.511034 10 18.5795 1.31336 10 
20.9116 0.539531 10 20.1974 0.539531 10 19.8177 1.05057 10 
22.4426 0.516401 10 21.7283 0.516401 10 21.2114 1.05593 10 
23.9641 0.498119 10 23.2498 0.498119 10 22.8352 1.01452 10 
25.266 0.497621 10 24.5517 0.497621 10 24.2301 0.99574 10 
27.1449 0.580103 10 26.4306 0.580103 10 25.354 1.37515 10 
25.8023 0.877528 10 26.5185 1.45763 10 27.8591 0.580103 10 
27.6962 1.3834 10 28.4085 0.803295 10 28.6605 1.3011 10 
11.9769 9.48786 10 12.6912 9.48786 10 11.7967 8.95192 10 
13.2607 9.28499 10 13.975 9.28499 10 13.0948 8.77285 10 
14.643 9.51722 10 15.3573 9.51722 10 14.3323 8.80221 10 
16.0323 9.2788 10 16.7466 9.2788 10 15.6753 8.79601 10 
17.4607 9.32255 10 18.175 9.32255 10 17.0644 8.60135 10 
18.8246 9.38019 10 19.5389 9.38019 10 18.4281 8.70275 10 
20.1954 9.45687 10 20.9097 9.45687 10 19.7343 8.83707 10 
21.7283 9.4836 10 22.4426 9.4836 10 21.2094 8.94047 10 
23.2587 9.46833 10 23.973 9.46833 10 22.8442 8.95193 10 
24.5987 9.37107 10 25.313 9.37107 10 24.286 8.83939 10 
26.4313 9.41585 10 27.1456 9.41585 10 25.4606 8.56077 10 
25.8619 9.18971 10 26.5789 8.60556 10 27.8598 9.41585 10 
27.6991 8.60505 10 28.4107 9.1892 10 28.6686 8.68235 10 
10.5261 1.99595 10 10.5261 2.71023 10 11.0602 1.8176 10 
10.696 3.25188 10 10.696 3.96617 10 11.2221 3.10497 10 
10.4813 4.64286 10 10.4813 5.35714 10 11.1773 4.32331 10 
10.696 6.03383 10 10.696 6.74812 10 11.1773 5.67669 10 
10.5261 7.28977 10 10.5261 8.00405 10 11.2221 6.89503 10 
11.0602 8.1824 10 19.3603 5.70326 10 18.9167 6.17129 10 
18.7502 5.74956 10 18.3345 5.492 10 18.7781 5.02396 10 
19.647 5.18911 10 19.8135 5.61085 10 19.7413 4.60568 10 
19.2882 4.69809 10 18.8724 4.44053 10 24.2399 4.39073 10 
24.8926 4.4158 10 24.3473 4.97492 10 24.8237 5.51433 10 
24.171 5.48925 10 26.5973 4.96959 10 25.8882 5.35617 10 
25.7091 4.61342 10 25.6017 4.02922 10 26.2224 6.05771 10 
25.3342 5.70154 10 25.1579 6.21586 10 15.3142 5.02974 10 
15.8249 5.75866 10 15.126 5.72892 10 14.929 6.62612 10 
14.4183 5.8972 10 15.8124 4.31662 10 15.1135 4.28687 10 
14.4178 4.10349 10 14.9159 3.39036 10 13.3883 5 10 
14.0019 4.59135 10 14.0019 5.40865 10 13.8048 6.30585 10 
13.8043 3.69483 10 21.4258 6.00109 10 22.176 6.18148 10 
21.3731 6.57727 10 21.3457 7.12485 10 20.5955 6.94446 10 
22.9133 5.95923 10 22.8606 6.53541 10 23.5084 6.86653 10 
22.7711 7.08878 10 22.7236 7.62248 10 22.0758 7.29136 10 
21.2981 7.65855 10 23.1775 2.76989 10 22.7522 3.36507 10 
22.5682 2.67012 10 22.0586 2.73124 10 22.484 2.13605 10 
22.1429 3.81623 10 21.3883 4.01466 10 21.3883 3.46374 10 
20.6256 3.08042 10 21.3801 2.88198 10 22.7522 3.91599 10 
21.2959 2.34791 10 16.6634 7.80309 10 17.3776 7.84684 10 
17.6489 7.31009 10 18.0499 8.10835 10 16.4785 7.27755 10 
15.8086 6.98218 10 16.3066 6.75321 10 16.2413 6.20727 10 
16.9113 6.50264 10 17.5763 6.08715 10 17.6416 6.63309 10 
18.3139 6.8946 10 16.1654 8.03206 10 16.6497 2.18296 10 
17.4338 2.26408 10 17.9465 2.14583 10 17.462 2.80526 10 
16.8868 3.48604 10 16.218 3.81116 10 16.2804 3.24863 10 
15.7961 3.03361 10 16.4648 2.70849 10 17.5378 3.86732 10 
17.6002 3.30479 10 18.113 3.18655 10 16.1654 1.96794 10 
27.2019 1.99004 10 27.7512 2.21323 10 28.6067 2.07682 10 
28.1124 2.68346 10 26.5018 2.93472 10 25.8184 2.40231 10 
26.5736 2.28746 10 28.0937 3.8257 10 27.4037 3.37974 10 
27.9469 3.26582 10 26.0824 3.6382 10 26.8376 3.52335 10 
26.9844 4.08323 10 27.1381 8.09828 10 27.6889 7.87164 10 
28.0479 7.40891 10 28.6089 7.91568 10 26.5687 7.87214 10 
25.8017 7.93239 10 26.361 7.42511 10 26.9522 6.53861 10 
27.6649 5.99583 10 27.8407 6.82209 10 26.3982 6.88397 10 
25.6312 6.94422 10 11.8629 2.65571 10 11.4209 2.18701 10 
12.2316 2.2794 10 12.1574 1.41748 10 12.5995 1.88619 10 
12.0328 3.19736 10 12.5387 3.32123 10 11.8979 3.77049 10 
13.9422 2.3185 10 13.4469 2.97754 10 13.1689 2.08907 10 
13.031 3.4654 10 12.8961 4.03852 10 11.4209 7.81299 10 
11.8629 7.34429 10 12.2316 7.7206 10 12.5995 8.11381 10 
12.1574 8.58252 10 12.0328 6.80264 10 11.8979 6.22951 10 
12.5387 6.67877 10 13.4474 7.02314 10 13.9428 7.68219 10 
13.1689 7.91093 10 13.031 6.5346 10 12.8961 5.96148 10 
19.4735 6.82839 10 20.0749 6.26093 10 20.0216 6.96434 10 
19.9941 7.51192 10 18.8634 6.8747 10 18.8707 7.5517 10 
18.6995 8.16599 10 19.249 8.1461 10 19.9055 8.22277 10 
20.4794 8.20289 10 19.3014 1.75717 10 18.6402 2.04846 10 
18.6684 2.58964 10 20.0081 3.88842 10 19.3723 3.30346 10 
19.998 3.07723 10 19.9898 2.49546 10 18.8168 3.90037 10 
18.8067 3.08917 10 19.8784 1.78567 10 20.5061 1.78885 10 
23.9256 2.88169 10 23.7416 2.18674 10 23.318 1.53559 10 
24.066 1.64739 10 25.1181 2.67406 10 25.1899 2.0268 10 
24.6537 1.6469 10 24.6374 3.06508 10 24.0733 3.64822 10 
25.2659 3.44059 10 24.6013 6.75806 10 25.1117 6.94526 10 
25.0745 7.48641 10 24.1227 6.17091 10 24.0765 6.90031 10 
23.987 7.45368 10 24.1076 8.21206 10 24.7334 8.11479 10 
25.2529 8.11375 10 23.5396 8.17828 10 11.5619 5 10 
11.7766 5.67669 10 12.2825 5.55282 10 11.7766 4.32331 10 
12.2825 4.44718 10 12.7748 4.59135 10 12.7748 5.40865 10 
28.469 4.99968 10 28.2635 4.35589 10 27.7204 4.46981 10 
27.3333 5.35617 10 28.2218 5.63966 10 27.1543 4.61342 10 
14.6046 2.67805 10 15.3003 2.86143 10 15.4847 2.3213 10 
14.9946 1.55734 10 15.6697 1.79576 10 14.3266 1.78957 10 
14.6052 7.32264 10 15.3129 7.15436 10 15.4847 7.6787 10 
14.9946 8.44266 10 15.6697 8.20424 10 14.3266 8.21043 10 
17.0714 5.47835 10 17.8017 5.6088 10 17.8296 4.8832 10 
17.0607 4.52428 10 17.7741 4.34304 10 18.3068 4.22624 10 
16.4188 4.55403 10 16.655 5.02974 10 16.4295 5.5081 10 
21.7348 5.30265 10 20.9319 5.69844 10 20.3615 5.74679 10 
20.6705 5.04835 10 21.6919 4.68357 10 20.9374 4.33109 10 
20.367 4.37944 10 22.1858 4.98623 10 22.9617 5.27758 10 
23.6463 5.6315 10 23.5281 4.20734 10 22.9187 4.6585 10 
20.7602 8.57575 10 21.5788 8.60248 10 21.5789 8.03141 10 
22.0281 8.39613 10 20.8488 7.86489 10 20.7621 1.42065 10 
21.5788 1.39752 10 22.0012 1.61499 10 21.552 1.97971 10 
20.8735 2.13045 10 23.267 8.61105 10 22.451 8.62633 10 
22.451 8.05526 10 23.1464 7.85268 10 22.5108 1.55387 10 
11.4289 8.55871 10 11.4289 1.44129 10 10 5 15 
10 2.78892 12.6786 10 2.67859 17.2111 10 7.32141 12.7889 
10 7.21108 17.3214 10 2.10976 15 10 5 12.1098 
10 5 17.8902 10 7.89024 15 10 1.83029 11.8027 
10 8.19729 11.8303 10 1.80271 18.1697 10 8.16971 18.1973 
10 3.6792 18.5522 10 1.44779 13.6792 10 3.66074 11.3829 
10 8.61713 13.6607 10 1.38287 16.3393 10 8.55221 16.3208 
10 6.3208 11.4478 10 6.33926 18.6171 10 3.55488 15.6263 
10 4.37369 13.5549 10 6.44512 14.3737 10 5.62631 16.4451 
10 5.70679 13.246 10 3.24602 14.2932 10 4.29321 16.754 
10 6.75398 15.7068 10 5.00096 19.0519 10 0.948051 15.001 
10 9.05195 14.999 10 4.99904 10.9481 10 3.95584 12.4315 
10 7.56848 13.9558 10 2.43152 16.0442 10 6.04416 17.5685 
10 2.54705 11.0321 10 2.54705 18.9679 10 1.03211 12.547 
10 8.96789 12.547 10 7.45295 11.0321 10 7.45295 18.9679 
10 1.03211 17.453 10 8.96789 17.453 10 1.08636 11.0831 
10 1.08307 18.9136 10 8.91693 11.0864 10 8.91364 18.9169 
10 0.541537 19.4568 10 0.541537 18.7425 10 1.25582 19.4568 
10 0.543179 11.2558 10 0.543179 10.5415 10 1.25746 10.5415 
10 9.45682 19.4585 10 8.74254 19.4585 10 9.45682 18.7442 
10 9.45846 10.5432 10 9.45846 11.2575 10 8.74418 10.5432 
10 0.516055 12.7021 10 0.516055 11.9878 10 1.05923 11.8151 
10 0.723897 13.9825 10 0.723897 13.2682 10 1.23995 13.1131 
10 0.474025 15.3576 10 0.474025 14.6433 10 1.19792 14.3401 
10 0.691434 16.7411 10 0.691434 16.0268 10 1.16546 15.6701 
10 0.516055 18.0122 10 0.516055 17.2979 10 1.20749 16.8961 
10 1.05759 18.1833 10 2.70209 19.4839 10 1.98781 19.4839 
10 1.81506 18.9408 10 3.98246 19.2761 10 3.26817 19.2761 
10 3.11312 18.76 10 5.35762 19.526 10 4.64334 19.526 
10 4.34008 18.8021 10 6.74106 19.3086 10 6.02677 19.3086 
10 5.67011 18.8345 10 8.01219 19.4839 10 7.29791 19.4839 
10 6.89611 18.7925 10 8.1833 18.9424 10 9.48394 11.9878 
10 9.48394 12.7021 10 8.94241 11.8167 10 9.30857 13.2589 
10 9.30857 13.9732 10 8.79251 13.1039 10 9.52597 14.6424 
10 9.52597 15.3567 10 8.83454 14.3299 10 9.2761 16.0175 
10 9.2761 16.7318 10 8.80208 15.6599 10 9.48394 17.2979 
10 9.48394 18.0122 10 8.76005 16.8869 10 8.94077 18.1849 
10 1.98781 10.5161 10 2.70209 10.5161 10 1.8167 11.0576 
10 3.25894 10.6914 10 3.97323 10.6914 10 3.10389 11.2075 
10 4.64238 10.474 10 5.35666 10.474 10 4.32989 11.1655 
10 6.01754 10.7239 10 6.73183 10.7239 10 5.65992 11.1979 
10 7.29791 10.5161 10 8.01219 10.5161 10 6.88688 11.24 
10 8.18494 11.0592 10 4.27744 15.3132 10 4.12301 14.6466 
10 3.40045 14.9598 10 3.92404 16.1901 10 4.64661 15.877 
10 4.68685 14.2774 10 5.35339 14.123 10 5.04024 13.4004 
10 3.80985 13.924 10 5.72256 14.6868 10 6.07596 13.8099 
10 5.87699 15.3534 10 6.59955 15.0402 10 5.31315 15.7226 
10 4.95976 16.5996 10 6.19015 16.076 10 2.30961 12.2406 
10 2.66798 11.8554 10 2.18867 11.4174 10 1.4312 12.1749 
10 1.91052 12.6128 10 2.11836 13.1789 10 2.34691 13.9862 
10 3.01747 13.4859 10 3.22483 12.0307 10 3.37238 12.5551 
10 3.80829 11.9072 10 3.58131 13.1167 10 4.16477 12.9932 
10 2.24065 17.6904 10 2.17488 18.5688 10 2.61282 18.0895 
10 1.85535 17.332 10 1.41741 17.8113 10 3.1789 17.8816 
10 3.98621 17.6531 10 3.4859 16.9825 10 2.03073 16.7752 
10 2.55506 16.6276 10 1.9072 16.1917 10 3.11674 16.4187 
10 2.9932 15.8352 10 7.75935 12.3096 10 8.14465 12.668 
10 8.58259 12.1887 10 7.82512 11.4312 10 7.38718 11.9105 
10 7.96927 13.2248 10 7.44494 13.3724 10 8.0928 13.8083 
10 6.8211 12.1184 10 6.01379 12.3469 10 6.5141 13.0175 
10 6.88326 13.5813 10 7.0068 14.1648 10 7.69039 17.7593 
10 7.33202 18.1446 10 7.81133 18.5826 10 8.5688 17.8251 
10 8.08948 17.3872 10 7.88164 16.8211 10 7.65309 16.0138 
10 6.98253 16.5141 10 6.77517 17.9693 10 6.62762 17.4449 
10 6.19171 18.0928 10 6.41869 16.8833 10 5.83523 17.0068 
10 1.77878 14.3396 10 2.67789 14.6466 10 1.5289 15.0005 
10 1.74631 15.6696 10 2.27064 15.5221 10 2.83232 15.3132 
10 4.33037 11.7463 10 4.99952 11.5289 10 4.47792 12.2706 
10 5.6604 11.7788 10 5.35339 12.6779 10 4.68685 12.8323 
10 4.3396 18.2212 10 4.64661 17.3221 10 5.00048 18.4711 
10 5.66963 18.2537 10 5.52208 17.7294 10 5.31315 17.1677 
10 8.25369 14.3304 10 8.4711 14.9995 10 7.72936 14.4779 
10 8.22122 15.6604 10 7.32211 15.3534 10 7.16768 14.6868 
10 1.45832 11.4429 10 8.55711 11.4583 10 1.44289 18.5417 
10 8.54168 18.5571 30 4.99079 14.9941 30 2.67202 12.7847 
30 2.78892 17.3214 30 7.21108 12.6786 30 7.32141 17.2111 
30 5 12.1098 30 2.10976 15 30 5 17.8902 
30 7.89024 15 30 1.80106 11.8292 30 1.83029 18.1973 
30 8.16971 11.8027 30 8.19729 18.1697 30 1.38239 13.6604 
30 3.67335 11.4441 30 3.66074 18.6171 30 8.55221 13.6792 
30 6.33926 11.3829 30 1.44779 16.3208 30 8.61713 16.3393 
30 6.3208 18.5522 30 3.55488 14.3737 30 5.62631 13.5549 
30 4.37369 16.4451 30 6.44512 15.6263 30 6.75342 14.2929 
30 4.25289 13.2102 30 3.23755 15.7147 30 5.70038 16.7482 
30 0.948026 14.999 30 4.99904 19.0519 30 5.00066 10.9479 
30 9.05195 15.001 30 2.42976 13.9547 30 6.04416 12.4315 
30 3.95584 17.5685 30 7.56848 16.0442 30 2.54705 11.0321 
30 8.96789 12.547 30 2.54705 18.9679 30 1.03211 12.547 
30 7.45295 11.0321 30 8.96789 17.453 30 1.03211 17.453 
30 7.45295 18.9679 30 1.08288 11.0862 30 1.08636 18.9169 
30 8.91364 11.0831 30 8.91693 18.9136 30 0.543179 18.7442 
30 0.543179 19.4585 30 1.25746 19.4585 30 0.541439 10.5431 
30 0.541439 11.2574 30 1.25572 10.5431 30 8.74418 19.4568 
30 9.45846 19.4568 30 9.45846 18.7425 30 9.45682 11.2558 
30 9.45682 10.5415 30 8.74254 10.5415 30 0.516055 11.9878 
30 0.516055 12.7021 30 1.05749 11.8166 30 0.691194 13.2588 
30 0.691194 13.9731 30 1.20725 13.1037 30 0.474013 14.6424 
30 0.474013 15.3567 30 1.16521 14.3297 30 0.723897 16.0175 
30 0.723897 16.7318 30 1.19791 15.6599 30 0.516055 17.2979 
30 0.516055 18.0122 30 1.23995 16.8869 30 1.05923 18.1849 
30 1.98781 19.4839 30 2.70209 19.4839 30 1.8167 18.9424 
30 3.25894 19.3086 30 3.97323 19.3086 30 3.10389 18.7925 
30 4.64238 19.526 30 5.35666 19.526 30 4.32989 18.8345 
30 6.01754 19.2761 30 6.73183 19.2761 30 5.65992 18.8021 
30 7.29791 19.4839 30 8.01219 19.4839 30 6.88688 18.76 
30 8.18494 18.9408 30 9.48394 12.7021 30 9.48394 11.9878 
30 8.94077 11.8151 30 9.2761 13.9825 30 9.2761 13.2682 
30 8.76005 13.1131 30 9.52597 15.3576 30 9.52597 14.6433 
30 8.80208 14.3401 30 9.30857 16.7411 30 9.30857 16.0268 
30 8.83454 15.6701 30 9.48394 18.0122 30 9.48394 17.2979 
30 8.79251 16.8961 30 8.94241 18.1833 30 2.70209 10.5161 
30 1.98781 10.5161 30 1.81496 11.0592 30 3.97953 10.722 
30 3.26525 10.722 30 3.1102 11.2381 30 5.35747 10.4739 
30 4.64319 10.4739 30 4.33701 11.196 30 6.74106 10.6914 
30 6.02677 10.6914 30 5.66996 11.1654 30 8.01219 10.5161 
30 7.29791 10.5161 30 6.89611 11.2075 30 8.1833 11.0576 
30 3.90388 13.792 30 4.62184 14.1022 30 4.27284 14.6839 
30 4.11417 15.3544 30 3.39621 15.0442 30 6.18987 13.9239 
30 5.87211 14.6435 30 5.30855 14.2745 30 4.9396 13.3825 
30 3.80562 16.0799 30 4.68224 15.7196 30 5.34558 15.8712 
30 5.03703 16.5967 30 6.59927 14.9596 30 5.71796 15.3102 
30 6.07275 16.1873 30 2.17405 11.4307 30 2.60953 11.9084 
30 2.23654 12.307 30 1.85206 12.6659 30 1.41659 12.1881 
30 2.55089 13.3697 30 1.90607 13.8076 30 2.0272 13.2226 
30 3.96312 12.3271 30 3.46245 12.9975 30 3.17269 12.1144 
30 3.11345 13.5792 30 2.99232 14.1642 30 2.66798 18.1446 
30 2.18867 18.5826 30 2.30961 17.7593 30 1.4312 17.8251 
30 1.91052 17.3872 30 3.37238 17.4449 30 3.80829 18.0928 
30 3.22483 17.9693 30 2.34267 16.0178 30 3.01324 16.5181 
30 2.11836 16.8211 30 3.58131 16.8833 30 4.16477 17.0068 
30 8.5688 12.1749 30 8.08948 12.6128 30 7.69039 12.2406 
30 7.33202 11.8554 30 7.81133 11.4174 30 7.65281 13.986 
30 6.98225 13.4857 30 7.88164 13.1789 30 6.62762 12.5551 
30 6.19171 11.9072 30 6.77517 12.0307 30 6.41869 13.1167 
30 5.83523 12.9932 30 8.14465 17.332 30 8.58259 17.8113 
30 7.75935 17.6904 30 7.82512 18.5688 30 7.38718 18.0895 
30 7.44494 16.6276 30 8.0928 16.1917 30 7.96927 16.7752 
30 6.01059 17.6502 30 6.51089 16.9797 30 6.8211 17.8816 
30 6.88326 16.4187 30 7.0068 15.8352 30 4.62645 12.66 
30 4.33668 11.7769 30 5.00033 11.5288 30 5.66963 11.7463 
30 5.52208 12.2706 30 5.31315 12.8323 30 1.52889 14.9995 
30 1.74607 14.3302 30 2.26976 14.4774 30 2.67365 15.3574 
30 1.77878 15.6604 30 2.83232 14.6868 30 4.99952 18.4711 
30 4.33037 18.2537 30 4.47792 17.7294 30 5.35019 17.3192 
30 5.6604 18.2212 30 4.68685 17.1677 30 7.32183 14.6464 
30 8.22122 14.3396 30 8.4711 15.0005 30 8.25369 15.6696 
30 7.72936 15.5221 30 7.16768 15.3132 30 1.44197 11.4577 
30 1.45832 18.5571 30 8.54168 11.4429 30 8.55711 18.5417 
19.1939 0 15.2815 25.1974 0 15.0929 14.6154 0 15 
22.1429 0 16.7347 22.0884 0 13.2416 16.96 0 17.0784 
16.9688 0 12.9528 27.128 0 17.3649 27.2569 0 12.8199 
12.6086 0 17.2622 12.6736 0 12.7481 19.3621 0 17.5077 
19.4202 0 12.4682 24.4476 0 17.4942 24.3255 0 12.3831 
12.1613 0 15 27.8902 0 15 14.989 0 12.1491 
14.989 0 17.8509 17.2969 0 15 21.2409 0 15 
23.1204 0 15.1245 21.1296 0 18.2378 21.1296 0 11.7622 
22.9886 0 17.9004 23.0145 0 11.8053 17.9183 0 18.3954 
17.7773 0 11.3551 28.2455 0 11.6066 28.2499 0 18.3784 
25.8707 0 11.7651 26.0095 0 18.3794 11.7895 0 11.8107 
11.7372 0 18.2379 15.6343 0 16.4621 15.5707 0 13.5949 
28.5534 0 16.2793 28.6368 0 13.7118 11.3676 0 16.3154 
11.3919 0 13.6466 20.6553 0 16.3499 20.6216 0 13.6312 
18.2291 0 16.1709 18.2239 0 13.6812 16.3503 0 11.4424 
16.3503 0 18.5576 26.4538 0 14.2431 13.6643 0 11.43 
13.6595 0 18.5707 25.6684 0 16.4031 23.5397 0 13.7098 
13.3883 0 15.8173 13.3883 0 14.1827 23.239 0 16.4903 
25.7328 0 13.0684 15.9833 0 15.086 19.0775 0 11.2396 
19.2407 0 18.9779 26.8272 0 15.7773 24.899 0 18.7429 
24.7554 0 11.2204 14.2182 0 16.7951 14.2184 0 13.2079 
27.1457 0 11.1608 27.1483 0 18.8317 10.9626 0 15 
22.0281 0 18.9672 22.0281 0 11.0328 15.0003 0 10.9656 
14.9999 0 19.0345 29.0478 0 14.9994 24.7571 0 13.8543 
16.549 0 14.1225 22.2239 0 14.4093 24.284 0 15.8723 
19.5311 0 16.1281 19.3846 0 14.1075 27.5314 0 13.9481 
15.9805 0 17.5065 15.9805 0 12.4935 22.1429 0 15.6329 
11.0522 0 12.5633 11.0655 0 17.5236 23.7088 0 10.9226 
23.6634 0 18.9948 16.8207 0 15.9595 18.0475 0 17.3003 
18.3081 0 12.4142 28.9679 0 17.453 28.9679 0 12.547 
12.5253 0 11.0243 12.5253 0 18.9757 20.3908 0 11.0863 
20.3947 0 18.9209 29.0756 0 10.9956 29.0873 0 18.9863 
21.9741 0 17.8015 21.9608 0 12.1958 20.1046 0 15.0831 
11.0682 0 11.0719 11.0188 0 18.9867 23.0712 0 12.783 
24.1797 0 14.7308 18.3549 0 14.7621 12.3815 0 16.0987 
12.4038 0 13.8944 25.5877 0 17.4858 20.6187 0 17.502 
20.6158 0 12.4942 10.5094 0 18.7791 10.5094 0 19.4934 
11.2237 0 19.4934 10.5341 0 10.5359 10.5341 0 11.2502 
11.2484 0 10.5359 29.5437 0 19.4931 29.5437 0 18.7789 
28.8294 0 19.4931 29.5378 0 11.2121 29.5378 0 10.4978 
28.8235 0 10.4978 10.5261 0 11.9959 10.5261 0 12.7102 
11.0602 0 11.8176 10.696 0 13.2519 10.696 0 13.9662 
11.2221 0 13.105 10.4813 0 14.6429 10.4813 0 15.3571 
11.1773 0 14.3233 10.6838 0 16.0148 10.6838 0 16.7291 
11.1651 0 15.6577 10.5328 0 17.3332 10.5328 0 18.0475 
11.2166 0 16.9195 11.0422 0 18.2551 29.4839 0 12.7021 
29.4839 0 11.9878 29.0217 0 11.7713 29.3184 0 13.9987 
29.3184 0 13.2845 28.8023 0 13.1294 29.5239 0 15.3568 
29.5239 0 14.6425 28.8423 0 14.3556 29.2767 0 16.7111 
29.2767 0 15.9968 28.8006 0 15.6393 29.4839 0 18.0122 
29.4839 0 17.2979 28.7607 0 16.8661 29.0276 0 18.2196 
11.9769 0 19.4879 12.6912 0 19.4879 11.7721 0 18.9812 
13.2583 0 19.2854 13.9726 0 19.2854 13.0924 0 18.7732 
14.6428 0 19.5172 15.3571 0 19.5172 14.3297 0 18.8026 
16.0323 0 19.2788 16.7466 0 19.2788 15.6751 0 18.796 
17.5306 0 19.1977 18.2449 0 19.1977 17.1343 0 18.4765 
18.9061 0 19.489 19.6203 0 19.489 18.5795 0 18.6866 
20.1974 0 19.4605 20.9116 0 19.4605 19.8177 0 18.9494 
21.7283 0 19.4836 22.4426 0 19.4836 21.2114 0 18.9441 
23.2603 0 19.4974 23.9746 0 19.4974 22.8458 0 18.981 
24.5923 0 19.3715 25.3066 0 19.3715 24.2812 0 18.8689 
26.4313 0 19.4158 27.1456 0 19.4158 25.8619 0 19.1897 
25.4542 0 18.5612 26.5789 0 18.6056 27.8598 0 19.4158 
28.4107 0 19.1892 27.6991 0 18.6051 28.6686 0 18.6824 
12.6912 0 10.5121 11.9769 0 10.5121 11.7967 0 11.0481 
13.975 0 10.715 13.2607 0 10.715 13.0948 0 11.2271 
15.3573 0 10.4828 14.643 0 10.4828 14.3323 0 11.1978 
16.7466 0 10.7212 16.0323 0 10.7212 15.6753 0 11.204 
18.1744 0 10.6776 17.4601 0 10.6776 17.0638 0 11.3988 
19.5388 0 10.6198 18.8245 0 10.6198 18.4274 0 11.2974 
20.9097 0 10.5431 20.1954 0 10.5431 19.7342 0 11.163 
22.4426 0 10.5164 21.7283 0 10.5164 21.2094 0 11.0595 
23.9972 0 10.4613 23.283 0 10.4613 22.8684 0 10.9777 
25.2348 0 10.6102 24.5206 0 10.6102 24.2321 0 11.0715 
27.1443 0 10.5804 26.43 0 10.5804 25.7925 0 10.8826 
25.313 0 11.4927 26.5082 0 11.463 27.8586 0 10.5804 
28.4085 0 10.8033 27.6956 0 11.3837 28.6605 0 11.3011 
18.7115 0 15.7262 19.3625 0 15.7048 18.8801 0 16.1495 
18.292 0 15.4665 18.7744 0 15.0218 19.6492 0 15.1823 
19.8178 0 15.6056 19.2893 0 14.6945 19.7446 0 14.5953 
18.8698 0 14.4348 25.8256 0 14.668 26.6405 0 15.0102 
26.0123 0 15.4351 24.9772 0 14.4736 25.6055 0 14.0487 
25.4329 0 15.748 26.2478 0 16.0902 24.9762 0 16.1377 
24.7407 0 15.4826 24.6885 0 14.9118 24.4684 0 14.2926 
24.2319 0 15.3016 15.1249 0 15.7311 15.2994 0 15.043 
15.8088 0 15.7741 14.9262 0 16.6286 14.4168 0 15.8975 
15.0931 0 14.2975 15.777 0 14.3405 14.4169 0 14.1039 
14.8946 0 13.4014 14.0019 0 15.4087 13.3883 0 15 
14.0019 0 14.5913 13.8032 0 16.3062 13.8034 0 13.6953 
22.5657 0 17.3175 22.6909 0 16.6125 23.1138 0 17.1953 
22.4814 0 17.851 22.0585 0 17.2681 21.3991 0 16.5423 
21.3991 0 15.9914 22.1429 0 16.1838 21.3808 0 17.1184 
20.637 0 16.926 22.6909 0 16.0616 21.2964 0 17.6518 
21.355 0 13.4364 22.1562 0 13.8255 21.4228 0 14.0203 
20.6187 0 13.0627 21.3521 0 12.8679 22.814 0 13.4757 
22.8818 0 14.0595 22.5798 0 13.0123 23.3054 0 13.2464 
22.0246 0 12.7187 22.516 0 12.4894 21.2883 0 12.345 
17.4392 0 17.7369 16.6551 0 17.818 17.5038 0 17.1893 
17.9829 0 17.8478 16.2972 0 16.7703 16.4702 0 17.2925 
15.8074 0 16.9843 16.2275 0 16.2108 16.8904 0 16.5189 
17.5946 0 16.6246 17.5249 0 16.0652 18.1383 0 16.7356 
16.1654 0 18.0321 17.3731 0 12.154 16.6596 0 12.1976 
18.0427 0 11.8847 17.6385 0 12.6835 16.2698 0 13.2739 
16.7589 0 13.5376 16.0599 0 13.8587 15.7756 0 13.0442 
16.4746 0 12.7231 17.5964 0 13.317 17.3865 0 13.9018 
18.266 0 13.0477 16.1654 0 11.9679 27.6889 0 17.8716 
27.1381 0 18.0983 28.0479 0 17.4089 28.6089 0 17.9157 
26.5687 0 17.8721 25.7986 0 17.9326 26.3579 0 17.4253 
27.8407 0 16.8221 26.9776 0 16.5711 27.6903 0 16.0283 
26.3982 0 16.884 25.628 0 16.9444 27.7512 0 12.2132 
27.2013 0 11.9903 28.6067 0 12.0768 28.1124 0 12.6835 
26.5638 0 12.2925 26.4949 0 12.9441 25.8018 0 12.4168 
27.9469 0 13.2658 28.0841 0 13.83 27.3941 0 13.384 
26.8554 0 13.5315 26.0933 0 13.6558 26.9926 0 14.0956 
12.1729 0 17.7501 11.4014 0 17.8808 11.8371 0 17.3929 
12.567 0 18.1189 12.1312 0 18.6068 11.9881 0 16.7888 
11.8745 0 16.207 12.495 0 16.6804 13.1341 0 17.9164 
13.4134 0 17.0286 13.9388 0 17.6829 12.9985 0 16.5397 
12.8849 0 15.958 12.2316 0 12.2794 11.8629 0 12.6557 
11.4209 0 12.187 12.1574 0 11.4175 12.5995 0 11.8862 
12.0328 0 13.1974 12.5387 0 13.3212 11.8979 0 13.7705 
13.1689 0 12.0891 13.9413 0 12.319 13.446 0 12.978 
13.031 0 13.4654 12.8961 0 14.0385 18.6402 0 17.9515 
19.3014 0 18.2428 18.7048 0 17.404 20.0087 0 16.9288 
19.4466 0 16.8179 20.0932 0 16.239 19.9904 0 17.5049 
18.7956 0 16.8393 19.8784 0 18.2143 20.5067 0 18.2115 
20.0209 0 13.0497 20.0031 0 13.8694 19.4024 0 13.2879 
20.018 0 12.4812 18.8221 0 13.0747 18.8043 0 13.8944 
18.8642 0 12.4412 19.2489 0 11.8539 18.6928 0 11.8269 
19.9055 0 11.7772 20.5033 0 11.7902 23.7181 0 17.6973 
23.8433 0 16.9922 24.0555 0 18.2445 23.326 0 18.4476 
25.058 0 16.9486 24.3658 0 16.6832 25.0176 0 17.49 
23.7615 0 16.1813 24.6733 0 18.1185 25.2433 0 18.1143 
23.67 0 12.0942 23.3617 0 11.3639 24.0171 0 11.6528 
23.6983 0 12.583 23.0429 0 12.2941 25.0981 0 12.0741 
25.0291 0 12.7258 24.5404 0 11.8017 23.9326 0 13.0464 
24.5413 0 13.1187 24.1484 0 13.7821 25.2449 0 13.4614 
11.7645 0 15.6577 11.5619 0 15 12.2714 0 15.5494 
11.7766 0 14.3233 12.2825 0 14.4472 12.7748 0 15.4087 
12.7748 0 14.5913 28.2218 0 15.6397 27.3587 0 15.3887 
28.469 0 14.9997 28.2635 0 14.3559 27.7108 0 14.4741 
27.172 0 14.6216 15.2799 0 12.872 14.6037 0 12.6785 
15.4847 0 12.3213 15.6697 0 11.7958 14.9946 0 11.5573 
14.3266 0 11.7896 15.3117 0 17.1565 14.6036 0 17.323 
15.4847 0 17.6787 15.6697 0 18.2042 14.9945 0 18.4427 
14.3243 0 18.2108 17.763 0 15.5854 17.0588 0 15.4797 
17.8259 0 14.8811 17.7604 0 14.3406 16.9229 0 14.5612 
18.2894 0 14.2217 16.6401 0 15.043 16.2662 0 14.6042 
16.402 0 15.5228 20.9481 0 15.675 21.6919 0 15.3164 
20.3799 0 15.7165 20.6727 0 15.0415 20.9313 0 14.3156 
21.7324 0 14.7047 20.3631 0 14.3572 22.1834 0 15.0211 
23.3301 0 14.4172 22.6722 0 14.7669 23.8597 0 14.2203 
23.6501 0 14.9277 23.1797 0 15.8074 23.7022 0 15.4984 
22.6317 0 15.3787 21.5788 0 18.6025 20.7621 0 18.5793 
21.5519 0 18.0196 22.0011 0 18.3844 20.8741 0 17.8699 
21.5788 0 11.3975 20.7602 0 11.4243 21.9944 0 11.6143 
21.5452 0 11.979 20.8727 0 12.1282 22.5083 0 18.4338 
22.5213 0 11.419 22.4876 0 12.0005 11.4289 0 11.4413 
11.378 0 18.6123 19.1939 10 15.2815 25.1974 10 15.0929 
14.6154 10 15 22.1233 10 13.2423 22.1429 10 16.7347 
16.96 10 17.0784 16.9688 10 12.9528 27.2569 10 12.8199 
27.128 10 17.3649 12.6086 10 17.2622 12.6736 10 12.7481 
19.3621 10 17.5077 19.4202 10 12.4682 24.5799 10 12.4551 
24.4476 10 17.4942 12.1613 10 15 27.8902 10 15 
14.989 10 12.1491 14.989 10 17.8509 17.2969 10 15 
21.2409 10 15 23.1204 10 15.1245 21.1296 10 18.2378 
21.1296 10 11.7622 22.9886 10 17.9004 22.8739 10 11.7145 
17.9183 10 18.3954 17.7773 10 11.3551 28.2455 10 11.6066 
28.2499 10 18.3784 25.901 10 11.7737 26.0095 10 18.3794 
11.7895 10 11.8107 11.7372 10 18.2379 15.6343 10 16.4621 
15.5707 10 13.5949 28.6368 10 13.7118 28.5534 10 16.2793 
11.3676 10 16.3154 11.3919 10 13.6466 20.6553 10 16.3499 
20.6229 10 13.6313 18.2291 10 16.1709 18.2239 10 13.6812 
16.3503 10 11.4424 16.3503 10 18.5576 26.4538 10 14.2431 
13.6643 10 11.43 13.6595 10 18.5707 25.6684 10 16.4031 
23.567 10 13.7073 13.3883 10 15.8173 13.3883 10 14.1827 
23.239 10 16.4903 25.7735 10 13.0799 15.9833 10 15.086 
19.0775 10 11.2396 19.2407 10 18.9779 26.8272 10 15.7773 
24.899 10 18.7429 24.8379 10 11.0303 14.2182 10 16.7951 
14.2184 10 13.2079 27.1475 10 11.1613 27.1483 10 18.8317 
10.9626 10 15 22.0281 10 18.9672 22.0281 10 11.0328 
15.0003 10 10.9656 14.9999 10 19.0345 29.0478 10 14.9994 
24.8031 10 13.8579 16.549 10 14.1225 22.2239 10 14.4093 
24.284 10 15.8723 19.5311 10 16.1281 19.3848 10 14.1075 
27.5314 10 13.9481 15.9805 10 17.5065 15.9805 10 12.4935 
22.1429 10 15.6329 11.0522 10 12.5633 11.0655 10 17.5236 
23.6634 10 18.9948 23.6577 10 11.0485 16.8207 10 15.9595 
18.0475 10 17.3003 18.3081 10 12.4142 28.9679 10 12.547 
28.9679 10 17.453 12.5253 10 11.0243 12.5253 10 18.9757 
20.3947 10 18.9209 20.3908 10 11.0863 29.0756 10 10.9956 
29.0873 10 18.9863 21.9741 10 17.8015 22.0282 10 12.1749 
20.1048 10 15.0831 11.0682 10 11.0719 11.0188 10 18.9867 
23.4186 10 12.5779 24.1944 10 14.731 18.3549 10 14.7621 
12.3815 10 16.0987 12.4038 10 13.8944 25.5877 10 17.4858 
20.6187 10 17.502 20.568 10 12.5092 10.5094 10 19.4934 
10.5094 10 18.7791 11.2237 10 19.4934 10.5341 10 11.2502 
10.5341 10 10.5359 11.2484 10 10.5359 29.5437 10 18.7789 
29.5437 10 19.4931 28.8294 10 19.4931 28.8235 10 10.4978 
29.5378 10 10.4978 29.5378 10 11.2121 10.5261 10 12.7102 
10.5261 10 11.9959 11.0602 10 11.8176 10.696 10 13.9662 
10.696 10 13.2519 11.2221 10 13.105 10.4813 10 15.3571 
10.4813 10 14.6429 11.1773 10 14.3233 10.6838 10 16.7291 
10.6838 10 16.0148 11.1651 10 15.6577 10.5328 10 18.0475 
10.5328 10 17.3332 11.2166 10 16.9195 11.0422 10 18.2551 
11.9769 10 10.5121 12.6912 10 10.5121 11.7967 10 11.0481 
13.2607 10 10.715 13.975 10 10.715 13.0948 10 11.2271 
14.643 10 10.4828 15.3573 10 10.4828 14.3323 10 11.1978 
16.0323 10 10.7212 16.7466 10 10.7212 15.6753 10 11.204 
17.4601 10 10.6776 18.1744 10 10.6776 17.0638 10 11.3988 
18.8245 10 10.6198 19.5388 10 10.6198 18.4274 10 11.2974 
20.1954 10 10.5431 20.9097 10 10.5431 19.7342 10 11.163 
21.7283 10 10.5164 22.4426 10 10.5164 21.2094 10 11.0595 
23.2574 10 10.5243 23.9717 10 10.5243 22.8429 10 11.0407 
24.5618 10 10.5151 25.2761 10 10.5151 24.2478 10 11.0394 
26.4309 10 10.5807 27.1452 10 10.5807 25.3695 10 11.402 
25.8076 10 10.8868 26.5242 10 11.4675 27.8595 10 10.5807 
27.6965 10 11.384 28.4085 10 10.8033 28.6605 10 11.3011 
29.4839 10 11.9878 29.4839 10 12.7021 29.0217 10 11.7713 
29.3184 10 13.2845 29.3184 10 13.9987 28.8023 10 13.1294 
29.5239 10 14.6425 29.5239 10 15.3568 28.8423 10 14.3556 
29.2767 10 15.9968 29.2767 10 16.7111 28.8006 10 15.6393 
29.4839 10 17.2979 29.4839 10 18.0122 28.7607 10 16.8661 
29.0276 10 18.2196 12.6912 10 19.4879 11.9769 10 19.4879 
11.7721 10 18.9812 13.9726 10 19.2854 13.2583 10 19.2854 
13.0924 10 18.7732 15.3571 10 19.5172 14.6428 10 19.5172 
14.3297 10 18.8026 16.7466 10 19.2788 16.0323 10 19.2788 
15.6751 10 18.796 18.2449 10 19.1977 17.5306 10 19.1977 
17.1343 10 18.4765 19.6203 10 19.489 18.9061 10 19.489 
18.5795 10 18.6866 20.9116 10 19.4605 20.1974 10 19.4605 
19.8177 10 18.9494 22.4426 10 19.4836 21.7283 10 19.4836 
21.2114 10 18.9441 23.9746 10 19.4974 23.2603 10 19.4974 
22.8458 10 18.981 25.3066 10 19.3715 24.5923 10 19.3715 
24.2812 10 18.8689 27.1456 10 19.4158 26.4313 10 19.4158 
25.4542 10 18.5612 25.8619 10 19.1897 26.5789 10 18.6056 
27.8598 10 19.4158 27.6991 10 18.6051 28.4107 10 19.1892 
28.6686 10 18.6824 18.8801 10 16.1495 19.3625 10 15.7048 
18.7115 10 15.7262 18.7744 10 15.0218 18.292 10 15.4665 
19.818 10 15.6056 19.6494 10 15.1823 19.7448 10 14.5953 
19.2894 10 14.6945 18.8698 10 14.4348 26.0123 10 15.4351 
26.6405 10 15.0102 25.8256 10 14.668 25.6285 10 14.0505 
25.0002 10 14.4754 26.2478 10 16.0902 25.4329 10 15.748 
24.7407 10 15.4826 24.9762 10 16.1377 24.4987 10 14.2944 
24.6959 10 14.912 24.2392 10 15.3017 15.8088 10 15.7741 
15.2994 10 15.043 15.1249 10 15.7311 14.4168 10 15.8975 
14.9262 10 16.6286 15.777 10 14.3405 15.0931 10 14.2975 
14.8946 10 13.4014 14.4169 10 14.1039 14.0019 10 14.5913 
13.3883 10 15 14.0019 10 15.4087 13.8032 10 16.3062 
13.8034 10 13.6953 21.4234 10 14.0203 22.1736 10 13.8258 
21.3731 10 13.4368 21.3457 10 12.8758 20.5955 10 13.0702 
22.8955 10 14.0583 22.8452 10 13.4748 23.4928 10 13.1426 
22.7709 10 12.9101 22.7234 10 12.3764 22.0758 10 12.7086 
21.2981 10 12.3421 23.1138 10 17.1953 22.6909 10 16.6125 
22.5657 10 17.3175 22.0585 10 17.2681 22.4814 10 17.851 
22.1429 10 16.1838 21.3991 10 15.9914 21.3991 10 16.5423 
20.637 10 16.926 21.3808 10 17.1184 22.6909 10 16.0616 
21.2964 10 17.6518 16.6551 10 17.818 17.4392 10 17.7369 
17.9829 10 17.8478 17.5038 10 17.1893 15.8074 10 16.9843 
16.4702 10 17.2925 16.2972 10 16.7703 16.8904 10 16.5189 
16.2275 10 16.2108 17.5249 10 16.0652 17.5946 10 16.6246 
18.1383 10 16.7356 16.1654 10 18.0321 16.6596 10 12.1976 
17.3731 10 12.154 17.6385 10 12.6835 18.0427 10 11.8847 
16.0599 10 13.8587 16.7589 10 13.5376 16.2698 10 13.2739 
16.4746 10 12.7231 15.7756 10 13.0442 17.3865 10 13.9018 
17.5964 10 13.317 18.266 10 13.0477 16.1654 10 11.9679 
27.2022 10 11.9906 27.7512 10 12.2132 28.1124 10 12.6835 
28.6067 10 12.0768 25.8372 10 12.4268 26.5152 10 12.9499 
26.579 10 12.2968 27.3941 10 13.384 28.0841 10 13.83 
27.9469 10 13.2658 26.1137 10 13.6615 26.8554 10 13.5315 
26.9926 10 14.0956 27.1381 10 18.0983 27.6889 10 17.8716 
28.6089 10 17.9157 28.0479 10 17.4089 26.5687 10 17.8721 
26.3579 10 17.4253 25.7986 10 17.9326 27.6903 10 16.0283 
26.9776 10 16.5711 27.8407 10 16.8221 26.3982 10 16.884 
25.628 10 16.9444 11.8371 10 17.3929 11.4014 10 17.8808 
12.1729 10 17.7501 12.1312 10 18.6068 12.567 10 18.1189 
11.9881 10 16.7888 12.495 10 16.6804 11.8745 10 16.207 
13.9388 10 17.6829 13.4134 10 17.0286 13.1341 10 17.9164 
12.9985 10 16.5397 12.8849 10 15.958 11.4209 10 12.187 
11.8629 10 12.6557 12.2316 10 12.2794 12.5995 10 11.8862 
12.1574 10 11.4175 12.0328 10 13.1974 11.8979 10 13.7705 
12.5387 10 13.3212 13.446 10 12.978 13.9413 10 12.319 
13.1689 10 12.0891 13.031 10 13.4654 12.8961 10 14.0385 
19.3014 10 18.2428 18.6402 10 17.9515 18.7048 10 17.404 
20.0932 10 16.239 19.4466 10 16.8179 20.0087 10 16.9288 
19.9904 10 17.5049 18.7956 10 16.8393 19.8784 10 18.2143 
20.5067 10 18.2115 19.4025 10 13.2879 20.0039 10 13.8694 
20.0216 10 13.0497 19.9941 10 12.4887 18.8044 10 13.8944 
18.8221 10 13.0747 18.8642 10 12.4412 18.6928 10 11.8269 
19.2489 10 11.8539 19.9055 10 11.7772 20.4794 10 11.7977 
25.1767 10 12.7675 25.2404 10 12.1144 24.7089 10 11.7427 
24.185 10 13.7826 24.6915 10 13.1565 24.0735 10 13.0812 
23.9992 10 12.5165 25.2883 10 13.4689 24.1188 10 11.7518 
23.5381 10 11.8132 23.8433 10 16.9922 23.7181 10 17.6973 
23.326 10 18.4476 24.0555 10 18.2445 24.3658 10 16.6832 
25.058 10 16.9486 25.0176 10 17.49 23.7615 10 16.1813 
24.6733 10 18.1185 25.2433 10 18.1143 11.5619 10 15 
11.7645 10 15.6577 12.2714 10 15.5494 11.7766 10 14.3233 
12.2825 10 14.4472 12.7748 10 14.5913 12.7748 10 15.4087 
28.469 10 14.9997 28.2635 10 14.3559 27.7108 10 14.4741 
27.3587 10 15.3887 28.2218 10 15.6397 27.172 10 14.6216 
14.6037 10 12.6785 15.2799 10 12.872 15.4847 10 12.3213 
14.9946 10 11.5573 15.6697 10 11.7958 14.3266 10 11.7896 
14.6036 10 17.323 15.3117 10 17.1565 15.4847 10 17.6787 
14.9945 10 18.4427 15.6697 10 18.2042 14.3243 10 18.2108 
17.0588 10 15.4797 17.763 10 15.5854 17.8259 10 14.8811 
16.9229 10 14.5612 17.7604 10 14.3406 18.2894 10 14.2217 
16.2662 10 14.6042 16.6401 10 15.043 16.402 10 15.5228 
21.6919 10 15.3164 20.9481 10 15.675 20.6729 10 15.0415 
20.38 10 15.7165 21.7324 10 14.7047 20.9319 10 14.3156 
20.3639 10 14.3572 22.1834 10 15.0211 22.6722 10 14.7669 
23.3437 10 14.4159 23.6574 10 14.9278 23.8807 10 14.2192 
23.7022 10 15.4984 23.1797 10 15.8074 22.6317 10 15.3787 
20.7621 10 18.5793 21.5788 10 18.6025 22.0011 10 18.3844 
21.5519 10 18.0196 20.8741 10 17.8699 20.7602 10 11.4243 
21.5788 10 11.3975 21.5789 10 11.9686 22.0281 10 11.6039 
20.8488 10 12.1357 22.5083 10 18.4338 23.2658 10 11.3815 
22.451 10 11.3737 22.451 10 11.9447 23.1462 10 12.1462 
11.4289 10 11.4413 11.378 10 18.6123 19.2857 5 10 
25.2246 4.93384 10 21.7086 3.12356 10 22.0884 6.75839 10 
16.96 7.0784 10 27.133 7.21573 10 12.6086 7.26216 10 
19.3621 7.50773 10 24.428 2.30364 10 24.5278 7.50869 10 
23.3724 4.86855 10 23.0133 8.22111 10 23.1104 1.88109 10 
17.9183 8.39535 10 28.2503 8.36754 10 25.9901 8.34907 10 
25.8829 1.75566 10 11.7372 8.23794 10 15.6343 6.4621 10 
28.5532 6.31977 10 11.3676 6.31536 10 20.6352 6.37625 10 
20.6236 3.69488 10 18.303 6.39516 10 18.152 3.92604 10 
26.4451 4.37369 10 13.6595 8.57073 10 24.4181 3.64816 10 
25.7329 3.20673 10 16.0129 5.05985 10 19.2407 8.97793 10 
26.8272 5.77732 10 24.8453 8.98703 10 24.768 1.16205 10 
14.2182 6.79506 10 23.0336 3.2015 10 27.1464 1.16024 10 
27.1477 8.82344 10 14.9999 9.03449 10 29.0405 5.00322 10 
16.549 4.12245 10 22.1796 5.61392 10 19.4303 6.04634 10 
19.5225 3.99913 10 27.5573 3.97633 10 22.0265 4.2504 10 
11.0655 7.52356 10 23.7088 0.922609 10 23.7088 9.07739 10 
16.9728 5.88711 10 18.1359 7.34416 10 18.0187 2.70509 10 
20.3947 8.92094 10 29.0874 8.9855 10 21.9875 7.80093 10 
22.055 2.21835 10 20.1631 5.12199 10 11.0188 8.98673 10 
23.0712 7.21703 10 18.2547 5.35048 10 12.3815 6.09871 10 
25.8298 7.36914 10 20.5489 2.50941 10 20.615 7.50501 10 
10.5094 9.49337 10 10.5094 8.77908 10 11.2237 9.49337 10 
29.5437 9.49275 10 28.8294 9.49275 10 29.5437 8.77847 10 
10.6838 6.72911 10 10.6838 6.01482 10 11.1651 5.65768 10 
10.5328 8.04749 10 10.5328 7.33321 10 11.2166 6.91946 10 
11.0422 8.25515 10 11.7721 8.98123 10 13.9726 9.28536 10 
13.2583 9.28536 10 13.0924 8.77323 10 15.3571 9.51724 10 
14.6428 9.51724 10 14.3297 8.80261 10 15.6751 8.79604 10 
18.2449 9.19768 10 17.5306 9.19768 10 17.1343 8.47647 10 
19.6203 9.48897 10 18.9061 9.48897 10 18.5795 8.68664 10 
20.9116 9.46047 10 20.1974 9.46047 10 19.8177 8.94944 10 
21.2114 8.94407 10 23.9972 9.5387 10 23.283 9.5387 10 
22.8684 9.02229 10 25.2798 9.49352 10 24.5655 9.49352 10 
24.2771 9.03221 10 27.1453 9.41172 10 26.431 9.41172 10 
25.8522 9.17453 10 25.4177 8.66805 10 26.5689 8.58625 10 
27.8595 9.41172 10 28.4108 9.18377 10 27.699 8.59549 10 
28.6688 8.67652 10 23.283 0.461304 10 23.9972 0.461304 10 
22.8684 0.977705 10 24.5269 0.581027 10 25.2412 0.581027 10 
24.2384 1.04233 10 26.4303 0.580122 10 27.1446 0.580122 10 
25.7986 0.877831 10 25.3255 1.45886 10 26.5147 1.45795 10 
27.8589 0.580122 10 27.696 1.38342 10 29.5203 4.64447 10 
29.5203 5.35875 10 28.8387 4.3575 10 29.2766 6.01703 10 
29.2766 6.73131 10 28.7969 5.6615 10 28.7606 6.88636 10 
29.0276 8.21923 10 18.7189 4.46302 10 19.4041 4.49956 10 
18.8372 3.96258 10 18.2034 4.63826 10 18.7702 5.17524 10 
19.358 5.52317 10 19.7967 5.58417 10 19.7244 5.061 10 
18.8425 5.69841 10 19.8428 4.56056 10 24.2985 4.90119 10 
24.8213 4.291 10 23.8952 4.25836 10 24.0099 5.4486 10 
24.936 5.48124 10 25.8349 4.65377 10 26.089 3.79021 10 
25.4787 4.07028 10 26.0259 5.35558 10 26.6361 5.07551 10 
25.4465 5.66845 10 26.2478 6.0902 10 25.0755 3.42745 10 
15.1249 5.73105 10 15.8236 5.76098 10 15.3141 5.02992 10 
14.4168 5.89753 10 14.9262 6.62858 10 15.8123 4.3168 10 
13.8032 6.30618 10 21.1661 3.40922 10 21.325 3.97264 10 
21.8675 3.68698 10 21.1287 2.81648 10 20.5862 3.10214 10 
22.3711 3.16253 10 22.53 3.72595 10 22.5443 2.70992 10 
21.8818 2.67096 10 21.3019 2.36388 10 21.3618 6.56732 10 
22.134 6.18615 10 21.4074 5.99509 10 20.6251 6.94063 10 
21.3517 7.1317 10 22.8432 6.53577 10 22.8888 5.96354 10 
22.5798 6.98771 10 23.3346 6.76509 10 22.038 7.27966 10 
22.5294 7.50898 10 21.3013 7.65297 10 17.4392 7.73688 10 
16.6551 7.818 10 18.0271 7.86976 10 17.5479 7.21128 10 
16.2972 6.77025 10 15.8074 6.98431 10 16.4702 7.29246 10 
16.9664 6.48275 10 16.3036 6.1746 10 17.6315 6.73678 10 
17.6379 6.14114 10 18.2194 6.86966 10 17.484 2.8143 10 
17.9685 2.15487 10 16.0803 3.8481 10 16.7491 3.52298 10 
17.5506 3.42477 10 17.3505 4.02425 10 18.0854 3.31557 10 
27.2017 1.99006 10 26.5699 2.28776 10 25.8079 2.48119 10 
26.4949 3.0133 10 27.4071 3.3981 10 28.097 3.84406 10 
26.851 3.59678 10 27.0012 4.17501 10 27.6916 7.79163 10 
27.1403 8.01959 10 28.6091 7.91025 10 28.0505 7.33434 10 
26.5616 7.7824 10 26.4814 7.29243 10 25.91 7.8591 10 
27.8431 6.76775 10 27.6902 6.04855 10 26.9801 6.49653 10 
26.4007 6.8094 10 25.7491 6.88611 10 12.1729 7.75005 10 
11.8371 7.39286 10 11.4014 7.88075 10 12.1312 8.60683 10 
12.567 8.11895 10 11.9881 6.78876 10 12.495 6.68044 10 
11.8745 6.20703 10 13.1341 7.91645 10 13.9388 7.68289 10 
13.4134 7.02861 10 12.9985 6.53974 10 12.8849 5.95801 10 
18.6402 7.95154 10 19.3014 8.24283 10 18.749 7.42594 10 
19.9987 6.94199 10 20.0328 6.2113 10 19.3962 6.77703 10 
19.9886 7.50637 10 18.8326 6.95145 10 18.8667 6.22075 10 
19.8784 8.21433 10 20.5048 8.21297 10 18.6904 2.59868 10 
19.9929 3.09358 10 19.4423 3.2457 10 20.073 3.847 10 
19.9555 2.50084 10 18.7571 3.20916 10 20.4718 1.79423 10 
23.7692 2.09237 10 23.072 2.5413 10 23.7308 2.75257 10 
24.0684 1.61312 10 23.4096 1.40185 10 25.1555 2.02965 10 
25.0805 2.75518 10 24.598 1.73285 10 24.423 2.9759 10 
23.7258 3.42483 10 23.7705 7.8649 10 23.361 8.64925 10 
24.1183 8.29304 10 23.7995 7.36286 10 23.0422 7.71907 10 
25.259 7.92888 10 24.6866 8.24786 10 25.1788 7.43892 10 
25.0981 6.95588 10 24.5877 6.76867 10 24.0629 6.91093 10 
11.7645 5.65768 10 12.2714 5.54935 10 28.4654 5.00161 10 
27.7238 4.48817 10 28.2217 5.65989 10 27.3587 5.38866 10 
27.1677 4.68685 10 15.3117 7.15649 10 14.6036 7.32297 10 
14.9945 8.44269 10 14.3243 8.2108 10 17.7245 4.46302 10 
16.9229 4.56123 10 17.7758 5.17524 10 16.6549 5.02992 10 
16.2809 4.59115 10 16.4928 5.47348 10 17.1348 5.44355 10 
17.6138 5.6188 10 20.938 5.68813 10 21.7103 5.30696 10 
20.702 5.061 10 20.3992 5.74912 10 20.9323 4.34744 10 
21.6337 4.6252 10 20.3934 4.40844 10 22.103 4.93216 10 
23.4852 5.59085 10 22.776 5.24123 10 23.203 4.03503 10 
22.6994 4.55948 10 20.7621 8.57935 10 22.0078 8.38406 10 
21.5586 8.01934 10 20.8723 7.87138 10 21.5923 1.9903 10 
22.0415 1.62558 10 20.8392 2.13583 10 22.5207 8.59415 10 
22.5004 8.01102 10 22.5827 2.04972 10 22.5693 1.45695 10 
11.378 8.61234 10 18.2789 5.87282 10 19.2857 5 20 
25 5 20 14.6154 5 20 22.1429 6.73469 20 
22.0884 3.24161 20 16.96 7.0784 20 16.9492 2.92351 20 
27.2569 7.18013 20 27.128 2.63514 20 12.6736 2.74811 20 
12.6086 7.26216 20 19.3621 7.50773 20 19.3621 2.49227 20 
24.4897 7.70145 20 24.4002 2.53819 20 12.1613 5 20 
27.8902 5 20 14.989 2.14912 20 14.989 7.85088 20 
17.2969 5 20 21.2409 5 20 23.6946 5.05015 20 
21.1296 8.23775 20 21.1296 1.76225 20 22.9936 7.92506 20 
23.0131 1.79789 20 17.9183 8.39535 20 17.9183 1.60465 20 
28.2499 1.62159 20 28.2455 8.39341 20 26.0095 1.62059 20 
25.8902 8.24494 20 11.7372 8.23794 20 11.7895 1.81069 20 
15.6343 6.4621 20 15.6117 3.57375 20 28.5534 3.72068 20 
28.6368 6.28822 20 11.3676 6.31536 20 11.3919 3.64662 20 
20.6553 6.34995 20 20.6352 3.66315 20 18.303 6.39516 20 
18.152 3.92604 20 16.3503 1.44241 20 16.3503 8.55759 20 
26.4183 5.77316 20 13.6643 1.43002 20 13.6595 8.57073 20 
25.6684 3.59693 20 23.5345 3.68131 20 13.3883 5.81731 20 
13.3883 4.18269 20 23.3615 6.53516 20 25.7466 6.95043 20 
16.0129 5.05985 20 19.2407 1.02207 20 19.2407 8.97793 20 
26.7764 4.28765 20 24.8177 9.00476 20 24.8933 1.26092 20 
14.2182 6.79506 20 14.2202 3.20697 20 27.1483 1.1683 20 
27.1469 8.83979 20 24.7851 6.16839 20 10.9626 5 20 
22.0281 8.9672 20 22.0281 1.0328 20 15.0003 0.965567 20 
14.9999 9.03449 20 29.0478 5.00065 20 16.549 4.12245 20 
22.2233 4.39342 20 19.432 6.0441 20 19.5236 3.99589 20 
27.5506 6.06038 20 15.9805 2.49348 20 15.9805 7.50652 20 
22.1429 5.63285 20 11.0522 2.56332 20 11.0655 7.52356 20 
23.7088 0.922609 20 23.6424 9.00376 20 24.5516 3.97235 20 
16.9728 5.88711 20 18.1359 7.34416 20 18.0187 2.70509 20 
28.9679 7.45295 20 28.9679 2.54705 20 12.5253 1.02427 20 
12.5253 8.97573 20 20.3947 1.07906 20 20.3947 8.92094 20 
29.0873 1.01371 20 29.0756 9.0044 20 21.9744 7.80283 20 
21.9605 2.19453 20 20.1672 5.11443 20 11.0682 1.07188 20 
11.0188 8.98673 20 23.0712 2.78297 20 18.2549 5.35022 20 
12.3815 6.09871 20 12.4038 3.89436 20 25.5849 2.51613 20 
20.5656 7.48731 20 20.5617 2.51212 20 10.5341 0.535941 20 
10.5341 1.25023 20 11.2484 0.535941 20 10.5094 8.77908 20 
10.5094 9.49337 20 11.2237 9.49337 20 29.5437 1.22114 20 
29.5437 0.506853 20 28.8294 0.506853 20 29.5378 9.5022 20 
29.5378 8.78791 20 28.8235 9.5022 20 10.5261 1.99595 20 
10.5261 2.71023 20 11.0602 1.8176 20 10.696 3.25188 20 
10.696 3.96617 20 11.2221 3.10497 20 10.4813 4.64286 20 
10.4813 5.35714 20 11.1773 4.32331 20 10.6838 6.01482 20 
10.6838 6.72911 20 11.1651 5.65768 20 10.5328 7.33321 20 
10.5328 8.04749 20 11.2166 6.91946 20 11.0422 8.25515 20 
29.4839 2.70209 20 29.4839 1.98781 20 29.0276 1.78038 20 
29.2767 4.0032 20 29.2767 3.28891 20 28.7607 3.13386 20 
29.5239 5.35747 20 29.5239 4.64318 20 28.8006 4.36066 20 
29.3184 6.71554 20 29.3184 6.00125 20 28.8423 5.64444 20 
29.4839 8.01219 20 29.4839 7.29791 20 28.8023 6.87059 20 
29.0217 8.22868 20 12.6912 0.512136 20 11.9769 0.512136 20 
11.7967 1.04808 20 13.975 0.715012 20 13.2607 0.715012 20 
13.0948 1.22715 20 15.3573 0.482783 20 14.643 0.482783 20 
14.3323 1.19779 20 16.7466 0.721205 20 16.0323 0.721205 20 
15.6753 1.20399 20 18.2449 0.802324 20 17.5306 0.802324 20 
17.1343 1.52353 20 19.6203 0.511034 20 18.9061 0.511034 20 
18.5795 1.31336 20 20.9116 0.539531 20 20.1974 0.539531 20 
19.8177 1.05057 20 22.4426 0.516401 20 21.7283 0.516401 20 
21.2114 1.05593 20 23.9972 0.461304 20 23.283 0.461304 20 
22.8684 0.977705 20 25.3038 0.630462 20 24.5895 0.630462 20 
24.3011 1.09177 20 27.1456 0.58415 20 26.4313 0.58415 20 
25.4514 1.44075 20 25.8619 0.810293 20 26.5789 1.39444 20 
27.8598 0.58415 20 27.6991 1.39495 20 28.4107 0.810796 20 
28.6686 1.31765 20 11.9769 9.48786 20 12.6912 9.48786 20 
11.7721 8.98123 20 13.2583 9.28536 20 13.9726 9.28536 20 
13.0924 8.77323 20 14.6428 9.51724 20 15.3571 9.51724 20 
14.3297 8.80261 20 16.0323 9.2788 20 16.7466 9.2788 20 
15.6751 8.79604 20 17.5306 9.19768 20 18.2449 9.19768 20 
17.1343 8.47647 20 18.9061 9.48897 20 19.6203 9.48897 20 
18.5795 8.68664 20 20.1974 9.46047 20 20.9116 9.46047 20 
19.8177 8.94944 20 21.7283 9.4836 20 22.4426 9.4836 20 
21.2114 8.94407 20 23.2498 9.50188 20 23.9641 9.50188 20 
22.8352 8.98548 20 24.5517 9.50238 20 25.266 9.50238 20 
24.2301 9.00426 20 26.4306 9.4199 20 27.1449 9.4199 20 
25.354 8.62485 20 25.8023 9.12247 20 26.5185 8.54237 20 
27.8591 9.4199 20 27.6962 8.6166 20 28.4085 9.19671 20 
28.6605 8.6989 20 18.8378 3.96096 20 19.4047 4.49794 20 
18.7189 4.46302 20 18.7703 5.17511 20 18.2035 4.63813 20 
19.7265 5.05722 20 19.7996 5.57927 20 19.3589 5.52205 20 
18.8435 5.69716 20 19.8454 4.55516 20 24.8926 5.5842 20 
24.2399 5.60927 20 24.3473 5.02508 20 24.1231 4.51125 20 
24.7758 4.48618 20 25.8882 4.64383 20 26.5973 5.03041 20 
25.7091 5.38658 20 25.6017 5.97078 20 26.2224 3.94229 20 
25.3342 4.29846 20 25.11 3.78464 20 15.3141 5.02992 20 
15.8236 5.76098 20 15.1249 5.73105 20 14.9262 6.62858 20 
14.4168 5.89753 20 15.8123 4.3168 20 15.1135 4.28687 20 
14.4178 4.10349 20 14.9159 3.39036 20 13.3883 5 20 
14.0019 4.59135 20 14.0019 5.40865 20 13.8032 6.30618 20 
13.8043 3.69483 20 22.7522 6.63493 20 23.1775 7.23011 20 
22.5682 7.32988 20 22.484 7.86395 20 22.0586 7.26876 20 
21.3991 5.9914 20 22.1429 6.18377 20 21.3991 6.54232 20 
21.3542 7.111 20 20.6104 6.91863 20 22.7522 6.08401 20 
21.27 7.64507 20 22.1559 3.81752 20 21.4293 4.02828 20 
21.3618 3.45238 20 20.5985 3.08763 20 21.3251 2.87686 20 
22.8789 4.03737 20 22.8115 3.46146 20 22.5798 3.01229 20 
23.3029 3.23214 20 22.5159 2.48875 20 22.0245 2.71807 20 
21.2611 2.35332 20 16.6551 7.818 20 17.4392 7.73688 20 
17.5479 7.21128 20 18.0271 7.86976 20 16.4702 7.29246 20 
15.8074 6.98431 20 16.2972 6.77025 20 16.3036 6.1746 20 
16.9664 6.48275 20 17.6379 6.14114 20 17.6315 6.73678 20 
18.2194 6.86966 20 16.1654 8.03206 20 16.6497 2.18296 20 
17.4338 2.26408 20 17.9685 2.15487 20 17.484 2.8143 20 
16.7491 3.52298 20 16.0803 3.8481 20 16.2804 3.24863 20 
15.7961 3.03361 20 16.4648 2.70849 20 17.3505 4.02425 20 
17.5506 3.42477 20 18.0854 3.31557 20 16.1654 1.96794 20 
27.2019 8.00996 20 27.7512 7.78677 20 28.1124 7.31654 20 
28.6067 7.92318 20 25.8184 7.59769 20 26.5018 7.06528 20 
26.5736 7.71254 20 27.4037 6.62026 20 28.0937 6.1743 20 
27.9469 6.73418 20 26.0824 6.3618 20 26.8376 6.47665 20 
26.9844 5.91677 20 27.1381 1.90172 20 27.6889 2.12836 20 
28.6089 2.08432 20 28.0479 2.59109 20 26.5687 2.12786 20 
26.3565 2.57564 20 25.7972 2.06836 20 27.6649 4.00417 20 
26.9522 3.46139 20 27.8407 3.17791 20 26.3982 3.11603 20 
25.6266 3.05653 20 11.8629 2.65571 20 11.4209 2.18701 20 
12.2316 2.2794 20 12.1574 1.41748 20 12.5995 1.88619 20 
12.0328 3.19736 20 12.5387 3.32123 20 11.8979 3.77049 20 
13.9422 2.3185 20 13.4469 2.97754 20 13.1689 2.08907 20 
13.031 3.4654 20 12.8961 4.03852 20 11.4014 7.88075 20 
11.8371 7.39286 20 12.1729 7.75005 20 12.567 8.11895 20 
12.1312 8.60683 20 11.9881 6.78876 20 11.8745 6.20703 20 
12.495 6.68044 20 13.4134 7.02861 20 13.9388 7.68289 20 
13.1341 7.91645 20 12.9985 6.53974 20 12.8849 5.95801 20 
19.3014 8.24283 20 18.6402 7.95154 20 18.749 7.42594 20 
19.3971 6.77592 20 20.0437 6.19702 20 20.0087 6.92884 20 
19.9639 7.49752 20 18.8675 6.21963 20 18.8326 6.95145 20 
19.8784 8.21433 20 20.4801 8.20412 20 19.3014 1.75717 20 
18.6402 2.04846 20 18.6904 2.59868 20 20.0794 3.82952 20 
19.4429 3.24408 20 19.9987 3.07771 20 19.9619 2.5022 20 
18.7571 3.20916 20 19.8784 1.78567 20 20.4782 1.79559 20 
23.9256 7.11831 20 23.7416 7.81326 20 24.066 8.35261 20 
23.318 8.46441 20 25.1181 7.32594 20 25.1899 7.9732 20 
24.6537 8.3531 20 24.0733 6.35178 20 24.6374 6.93492 20 
25.2659 6.55941 20 23.3609 1.36025 20 24.0545 1.7304 20 
23.7066 2.16804 20 23.7357 2.66058 20 23.0421 2.29043 20 
24.4759 3.25527 20 25.0343 3.06756 20 24.9926 2.52716 20 
24.0431 3.82683 20 23.9674 3.10975 20 24.6468 1.89956 20 
25.2391 1.88853 20 11.5619 5 20 11.7645 5.65768 20 
12.2714 5.54935 20 11.7766 4.32331 20 12.2825 4.44718 20 
12.7748 4.59135 20 12.7748 5.40865 20 27.3333 4.64383 20 
28.2218 4.36034 20 28.469 5.00032 20 28.2635 5.64411 20 
27.7204 5.53019 20 27.1543 5.38658 20 14.6046 2.67805 20 
15.3003 2.86143 20 15.4847 2.3213 20 14.9946 1.55734 20 
15.6697 1.79576 20 14.3266 1.78957 20 14.6036 7.32297 20 
15.3117 7.15649 20 15.4847 7.6787 20 14.9945 8.44269 20 
15.6697 8.20424 20 14.3243 8.2108 20 16.9229 4.56123 20 
17.7245 4.46302 20 17.7759 5.17511 20 16.2809 4.59115 20 
16.6549 5.02992 20 17.1348 5.44355 20 16.4928 5.47348 20 
17.6139 5.61866 20 21.6919 5.31643 20 20.9481 5.67497 20 
20.4112 5.73219 20 20.7041 5.05722 20 21.7321 4.69671 20 
20.938 4.33157 20 20.4012 4.38879 20 22.1831 5.01314 20 
22.959 4.72179 20 23.6146 4.36573 20 23.5281 5.79266 20 
22.9187 5.3415 20 20.7621 8.57935 20 21.5788 8.60248 20 
21.552 8.02029 20 22.0012 8.38501 20 20.8476 7.86253 20 
20.7621 1.42065 20 21.5788 1.39752 20 21.9943 1.61366 20 
21.545 1.97839 20 20.8457 2.13718 20 22.5108 8.44613 20 
22.5206 1.41535 20 22.4868 1.99621 20 11.378 8.61234 20 
11.4289 1.44129 20 18.279 5.87269 20 5 5 5 
6.94937 3.05063 6.52269 3.95465 2.98492 7.01549 2.95388 5.82136 7.04612 
2.93499 7.06554 4.31682 6.52667 3.05126 3.05103 3.05111 3.4733 3.05111 
6.93474 6.02896 2.94001 7.06001 6.0276 6.93524 4.34671 5.71365 2.54736 
2.23262 7.76801 2.23262 4.91019 7.40248 6.15676 2.19358 7.80642 7.80642 
4.70167 2.54371 4.67564 7.2944 7.52168 4.99258 7.85499 7.85499 7.85499 
7.85531 7.85531 2.14469 2.13458 2.13459 7.86589 2.28316 2.27829 5.52957 
5.44407 7.75929 2.5238 7.37765 4.77521 4.92528 2.65631 4.8155 4.94135 
5.06298 4.96797 7.28682 2.0262 2.0262 2.0262 7.97384 2.02647 2.02615 
7.97289 2.02711 7.97289 7.95453 4.33876 7.92 7.92096 4.34158 2.04575 
5.76315 8.04166 7.96998 2.1598 5.54285 2.1598 4.86401 2.15107 2.17784 
7.80468 2.19532 4.65684 5.66688 2.05367 7.94633 2.10404 3.92927 6.79703 
5.65463 6.82546 4.33626 5.92016 4.61086 1.914 2.60962 1.82896 3.76778 
3.9783 8.16208 7.54726 4.87444 3.9667 3.38814 3.89229 7.26573 1.76826 
8.41421 6.85529 3.52261 2.07351 8.13887 5.80812 1.71311 3.82093 1.90232 
6.79144 8.3526 6.4142 1.62221 5.67858 8.2372 1.91267 6.32956 5.63669 
6.22724 3.78136 8.02245 8.33951 6.0372 8.13628 8.1355 6.03998 1.66055 
8.33667 2.05645 6.28936 6.33482 1.47625 1.64972 6.34128 3.29388 4.83521 
3.97906 1.64973 8.14086 4.41446 8.28015 4.0708 1.61664 8.18368 4.13121 
8.06904 3.67818 3.69726 5.65534 1.75919 6.09114 3.81072 6.17142 5.55147 
3.49582 4.40569 8.15187 4.31547 6.43454 8.1629 4.13967 4.09461 1.7142 
5.34704 3.63623 6.21367 3.83107 4.48955 6.16955 1.56132 6.63823 3.35689 
5.7818 8.34618 5.06016 6.81216 8.38032 3.51275 5.73633 6.27674 1.78795 
8.32956 6.0983 5.67157 6.15432 1.67117 4.11823 6.00933 6.00486 8.34299 
3.91861 1.61045 5.93238 6.38871 4.60964 3.60342 1.76428 3.42845 4.27706 
1.59657 4.97932 3.64316 8.33774 4.08488 6.22445 6.5045 3.15833 1.40361 
5.87854 6.12766 5.8029 3.09724 5.61484 3.59031 8.29974 5.24561 3.34057 
3.29022 3.3288 4.81522 8.2059 8.5937 5.7898 6.61821 4.60889 6.32916 
3.61771 7.99174 5.42532 4.6789 8.56264 1.43801 7.08571 1.40381 5.73265 
6.57133 8.64037 2.04684 2.98892 8.6029 3.46042 1.40923 1.40997 4.62065 
8.63721 8.2018 4.19563 1.89655 4.05033 8.44365 4.72015 3.29605 8.42468 
1.33202 8.66739 1.565 2.81683 4.56587 1.27965 2.83631 6.56807 8.60042 
1.30977 2.03046 6.62973 3.32579 2.78653 1.6996 4.28794 6.81098 3.62641 
1.53011 5.34706 6.74597 3.07716 7.29579 6.6715 7.00391 6.15628 4.44291 
1.28418 8.71582 8.37709 7.85786 7.29117 6.45928 3.35575 1.51949 2.5031 
3.06245 7.51687 2.00044 3.77652 7.94143 0.88413 2.94668 8.19257 1.11631 
3.45576 8.16533 1.83531 4.16982 8.58989 0.719005 4.28559 7.91418 1.60313 
7.50788 1.09766 3.66771 7.88926 2.1109 3.34149 7.59246 1.01324 2.35237 
6.6827 0.835583 3.39841 7.06408 1.84882 3.07219 6.9795 1.93324 4.38753 
3.04461 2.55975 7.44069 3.72523 3.6953 7.58368 2.8152 3.27014 8.00888 
3.42737 2.71532 8.14529 4.10798 3.85087 8.28828 4.3374 3.14048 7.72009 
3.05682 1.89216 8.00338 3.96685 2.31732 7.57817 4.3496 2.47289 8.28277 
3.10088 1.94437 5.73098 3.02659 1.87252 6.89914 2.20887 2.20644 6.69773 
1.79647 2.15437 6.07965 1.72218 2.08252 7.24781 2.61419 1.82045 6.28106 
5.9851 6.71504 6.546 6.41158 7.03463 7.45261 5.33667 7.72207 7.06337 
5.45976 6.70367 7.24988 5.88624 7.02326 8.15648 6.53467 6.01623 7.63912 
4.67335 5.35683 3.77368 5.00067 6.26956 3.44181 5.32732 5.91273 4.66813 
5.69435 4.80482 4.30171 6.02167 5.71755 3.96984 5.36771 5.16165 3.07539 
5.3811 9.02083 8.51096 5.38206 8.5468 8.98499 5 9.52597 9.52597 
4.48867 9.08104 8.2996 4.48963 8.60702 8.77363 4.87073 8.10187 7.75862 
9.45682 8.54332 9.09865 9.08486 8.1835 9.09865 8.01235 8.02614 8.9275 
8.9275 8.01235 8.02614 8.38432 8.38596 8.9275 9.09865 9.45682 8.54332 
9.09865 9.08486 8.1835 8.9275 8.38432 8.38596 8.02614 8.9275 8.01235 
8.1835 9.09865 9.08486 8.54332 9.09865 9.45682 8.38596 8.9275 8.38432 
9.09865 8.54332 0.543179 9.09865 8.1835 0.915145 8.92765 8.0263 1.98749 
8.0263 8.01251 1.07235 8.92765 8.38612 1.61553 9.45682 9.09865 1.45668 
9.08486 9.09865 1.8165 8.01251 8.92765 1.9737 8.38447 8.92765 1.61388 
8.54332 9.45682 0.901353 8.1835 9.08486 0.901353 8.38612 8.38447 1.07235 
5.39436 6.76507 5.97983 5.94393 6.06626 7.07294 6.46928 6.07763 6.36907 
0.91462 1.80188 9.08486 0.91462 1.44207 9.45682 1.06729 1.60883 8.38977 
1.98191 1.96783 8.93295 1.06729 1.96865 8.0178 9.16478 6.07123 6.62002 
8.33453 6.06775 6.90392 9.16975 6.04068 7.85238 8.92893 6.66766 7.01388 
8.09868 6.66418 7.29778 8.09371 6.69473 6.06542 2.45965 2.4033 8.93295 
3.14027 3.53885 9.07594 3.75244 2.98404 9.21234 1.4578 0.900531 9.45846 
1.82976 0.900531 9.09865 1.98243 1.06729 8.03159 1.61047 1.06729 8.39141 
4.55845 1.07553 2.69402 4.78284 2.34739 3.42674 4.47728 1.27185 3.94292 
5.20361 0.835583 3.66422 5.428 2.10744 4.39694 5.50916 1.91112 3.14803 
0.915145 0.901353 8.1835 0.543179 0.901353 8.54332 6.81989 2.04039 7.95961 
6.30813 2.55215 7.23451 7.46113 2.53887 7.24779 7.5293 1.71546 6.85277 
7.01754 2.22722 6.12767 6.3763 1.72874 6.83949 5.1624 6.2197 8.25295 
4.61283 6.91851 7.15983 5.097 6.2811 6.9829 5.53616 5.48642 7.81491 
4.68923 5.70125 7.72486 5.47076 5.54782 6.54486 3.38189 2.16087 9.07043 
6.29469 6.42721 3.63813 5.64072 5.8713 2.74369 6.66172 5.3193 3.27172 
6.92573 7.1901 6.67472 6.2773 8.19713 7.19209 5.85081 7.87754 6.28548 
2.38017 4.37238 5.86919 1.05202 3.74207 6.21167 1.32815 4.18519 5.28383 
2.21029 4.12198 4.6092 0.88214 3.49166 4.95168 1.93416 3.67886 5.53705 
7.16568 2.62329 3.85393 7.25026 2.53887 2.53859 6.3405 2.36121 3.58463 
4.02871 2.0316 3.58937 3.80432 0.759746 2.85666 4.10988 1.83528 2.34047 
1.05202 4.4617 5.89391 1.32815 4.90481 4.96607 0.765056 5.17059 5.86838 
2.09321 5.08128 5.84366 1.81708 4.63816 6.7715 3.95756 2.81218 2.61447 
3.87639 3.0085 3.86338 3.20343 2.49639 2.77711 4.93722 4.48335 4.19407 
3.76537 4.3911 4.16474 3.82815 4.90775 4.97067 4.04862 5.30742 4.29516 
2.87677 5.21517 4.26583 3.98584 4.79077 3.48923 3.65565 2.18633 4.22171 
2.83037 2.65113 3.40945 2.98268 1.67423 3.13544 2.18695 2.6287 4.02242 
0.88214 3.10659 3.47454 1.30481 2.30684 3.2199 2.00942 1.61946 4.19422 
0.704615 2.09735 3.64634 1.58676 2.41921 4.44886 6.49415 1.02684 7.5787 
7.64715 1.01356 7.59198 7.20356 0.701905 6.47186 1.09679 7.50875 7.56391 
0.956334 6.77032 6.47905 2.05312 7.06799 6.72156 1.86185 6.57674 7.2762 
1.72139 5.83831 6.19133 0.765056 6.27907 7.03369 4.14511 4.1644 4.90761 
4.08233 3.64775 4.10168 2.97327 4.07215 4.87828 3.44061 7.93431 2.61434 
2.61077 8.18546 2.84652 3.83391 8.58277 2.44921 7.69479 6.06295 6.3034 
7.69976 6.0324 7.53576 7.69888 5.05624 6.57985 8.33862 5.06104 7.18037 
8.33365 5.09159 5.94801 2.46175 1.06729 7.59365 3.35376 0.805226 6.6269 
2.04935 1.01523 6.97557 6.33499 7.24013 6.10855 2.53604 1.13914 6.42549 
2.31791 1.92758 2.89699 1.0131 2.40546 2.34911 1.89524 2.72733 3.15163 
3.19373 4.47182 4.20276 5.38158 7.96595 8.98499 4.48915 8.02616 8.77363 
4.64397 5.90549 4.31321 4.31732 6.26232 3.08689 4.97129 6.81822 3.98133 
1.03676 7.67498 6.56476 2.13355 7.97265 6.80727 1.99309 7.23422 5.72241 
2.66493 6.69143 2.91146 3.49477 6.44029 2.67929 3.26028 7.2895 2.92951 
4.09012 7.03836 2.69734 3.69259 6.21291 3.60836 6.52887 6.74391 0.893974 
6.79582 7.06602 1.96632 7.58836 7.53319 1.07235 6.94637 7.92572 1.02342 
7.21332 8.24784 2.09577 6.15383 7.45855 1.91739 5.03931 7.2381 8.06644 
4.61057 4.84018 2.96775 5.63157 4.28817 3.49578 3.96688 2.03975 9.07043 
4.33743 2.86291 9.21234 4.83945 8.22644 0.719005 5.06148 8.16096 1.9809 
5.22203 7.82477 1.2619 5.78566 8.2653 1.02342 6.0077 8.19983 2.28532 
5.62511 8.6015 1.74243 2.63537 7.5511 7.23896 2.49491 6.81267 6.1541 
2.30363 6.32142 6.70874 2.95298 8.88401 1.83834 3.66705 9.30857 0.722031 
4.17613 9.28132 1.44104 3.01612 6.34019 3.95357 2.5838 7.41678 3.27472 
3.61147 6.93826 3.97162 3.02605 6.40429 1.96403 2.19621 6.65543 2.19621 
2.62852 5.57885 2.87506 1.80106 0.91462 0.91462 1.44197 0.91462 0.543116 
1.55454 1.0131 1.55622 1.91363 1.92772 1.0131 1.91363 1.0131 1.92772 
8.14702 5.18798 8.02814 7.50727 5.18318 7.42762 8.14613 4.21182 7.07222 
2.24199 5.58421 6.89605 2.57373 6.81389 7.42627 3.01552 6.55857 6.85881 
9.45682 0.91462 1.44207 9.08486 0.91462 1.80188 8.98692 1.92786 1.91361 
8.07178 1.01324 1.91443 8.44374 1.01324 1.55461 9.52597 0.473928 5.00081 
8.90234 1.57159 4.82875 8.42831 1.09766 4.8289 8.69431 1.02823 5.64516 
8.07068 2.12589 5.4731 9.16834 1.50215 5.64501 4.93234 1.54945 1.08892 
4.93233 1.07553 1.56285 5.00066 0.473916 0.473928 5.66775 1.21204 0.824862 
5.66774 0.738125 1.29879 5.59942 1.81366 1.91378 7.15433 1.75136 1.83794 
6.77295 0.738125 2.16416 6.24457 1.57371 2.88398 8.19729 0.915145 9.08486 
8.55711 0.915145 9.45682 8.08509 1.01356 8.0713 8.44491 1.01356 8.44327 
8.08509 1.9287 8.98644 2.47436 6.43213 1.0799 2.51077 7.54471 1.11631 
3.34061 7.29357 0.88413 5.66111 1.90643 7.01874 6.30235 2.40491 6.30692 
6.37052 1.5815 5.9119 3.07418 4.54407 3.32071 3.96278 3.72 3.21963 
3.17067 3.40105 3.93317 2.34064 3.36117 9.22183 2.01556 3.09246 8.15477 
2.69618 4.22801 8.29776 9.03452 3.61653 4.66179 7.93686 2.93675 4.17705 
8.90234 2.8751 5.14157 9.16887 3.81988 5.92538 8.07121 3.1401 5.44064 
8.20339 3.88153 4.96086 0.900531 0.91462 1.81515 0.900531 0.543116 1.45606 
1.0131 1.55622 1.55454 1.0131 1.92772 1.91363 9.08538 1.81515 0.900531 
9.45688 1.45606 0.900531 8.44381 1.55467 1.01308 8.0723 1.91377 1.01308 
6.43075 2.26376 2.35038 9.45682 8.91528 9.45846 9.45846 9.45682 8.91528 
8.91528 9.45846 9.45682 8.91528 9.45682 0.541537 9.45846 8.91528 0.543179 
9.45682 9.45846 1.08472 4.54668 8.42139 2.75441 4.15338 7.77294 2.91953 
3.70169 8.44152 3.76561 4.48953 0.824866 8.01555 4.82297 1.8517 8.04359 
5.33344 1.02684 7.91829 5.32767 0.879597 6.99069 4.8172 1.70446 7.116 
9.09865 1.45668 9.45682 9.09865 1.8165 9.08486 8.98644 1.55509 8.44327 
8.98644 1.91491 8.0713 2.43327 6.07546 6.34141 6.33553 6.15285 2.36398 
5.69548 6.5511 3.0621 5.04152 5.9952 2.16766 0.900531 1.82924 0.900531 
0.900531 1.45774 0.541439 5.69534 2.60116 2.61443 5.61417 2.79748 3.86334 
8.17024 0.900531 0.901353 8.5422 0.900531 0.541537 5.90366 7.80507 8.98499 
6.48711 7.68153 8.98499 6.02674 6.78667 9.1715 6.6102 6.66314 9.1715 
6.48837 0.879597 6.65111 9.09865 0.901353 8.16971 9.45846 0.901353 8.54168 
0.543179 0.541537 8.91528 8.26302 1.01324 2.85268 8.17844 1.09766 4.16802 
1.90789 6.7425 8.02181 0.811103 6.44483 7.7793 1.57616 5.51282 7.49159 
4.78806 3.2552 4.03189 4.86922 3.05888 2.78299 5.70056 3.50898 3.21959 
4.92926 8.01972 3.2973 4.66818 7.51251 2.14603 7.72845 6.62553 0.830276 
7.9954 6.94764 1.90262 6.93591 6.15836 1.72425 7.96371 3.18294 7.94644 
8.97726 3.50868 7.56554 8.98644 2.35285 7.59198 8.15531 3.05599 7.09867 
9.16887 3.38173 6.71776 6.22342 3.83106 2.48252 5.39209 3.38096 2.04592 
5.3973 4.28878 2.65107 5.68426 2.6547 1.79072 6.51559 3.1048 2.22732 
6.21233 3.8846 1.65881 7.7615 4.1473 8.96 7.63797 3.56384 8.96 
6.89786 3.8686 9.01123 6.77433 3.28514 9.01123 7.09089 4.06006 7.97122 
8.09725 6.9461 7.99564 7.77529 6.6793 9.06814 7.53303 7.5882 8.9275 
6.93216 6.92993 8.09899 7.17442 6.02103 8.23964 0.474013 4.99902 0.474013 
1.55391 5.27094 1.0799 1.0799 5.27094 1.55391 0.856555 4.40998 1.42517 
1.93645 4.68189 2.03106 1.33057 4.40998 0.95116 6.80907 7.94833 7.91248 
9.48394 7.81133 9.09865 8.41144 7.65397 8.9275 9.09865 9.48394 7.81133 
8.9275 8.41144 7.65397 7.81133 9.09865 9.48394 7.65397 8.9275 8.41144 
9.16478 5.8623 6.05834 9.16975 5.83175 7.2907 9.16887 4.85559 6.33479 
9.48394 9.09865 2.18867 8.4116 8.92765 2.34587 9.09865 7.81133 0.516055 
8.92765 7.65413 1.5884 7.81133 9.48394 0.901353 7.65413 8.4116 1.07235 
7.85199 6.04207 0.830276 6.6524 6.16045 0.893974 8.26773 7.346 5.73068 
7.75015 8.05769 5.39119 7.81198 6.80999 5.33207 7.57613 7.40642 5.72593 
8.03188 7.94243 6.12454 7.4575 6.9413 7.39512 7.64715 2.40802 8.98644 
6.49415 2.4213 8.97316 5.94706 2.91751 7.98439 7.10007 2.90423 7.99767 
4.00843 5.39466 7.16647 4.43685 5.56969 6.41915 3.3823 5.99639 6.2988 
3.63467 6.12795 7.60451 4.0631 6.30298 6.85719 3.33114 9.30145 2.45224 
0.516055 0.901353 7.81133 1.58335 1.06729 7.65942 3.10389 9.30857 0.516055 
2.54705 9.48394 0.516055 2.38983 8.36795 1.11631 2.38983 8.88401 1.63236 
8.28583 3.99975 8.96 7.19982 4.35623 8.96 6.33618 4.07753 9.01123 
6.22722 5.18928 9.1715 6.11829 4.89311 8.18272 6.98193 5.17181 8.13149 
9.2761 0.722031 3.67628 8.98692 1.73527 2.84975 8.90234 1.81969 4.16509 
2.28804 5.74997 7.64166 7.53512 6.03447 2.30028 7.39502 6.94213 2.54235 
0.811103 5.86137 7.90284 0.765056 5.69561 7.15722 1.32716 6.56577 9.1186 
1.61285 7.62969 8.90321 1.93421 7.01051 9.30021 2.51494 7.18724 8.20342 
2.22926 6.12332 8.41881 8.96048 4.14815 2.23776 8.96048 3.56315 2.35888 
8.96048 4.00101 1.71407 2.70281 5.62436 1.0799 3.25325 5.62825 2.35358 
3.79626 5.70976 1.27368 3.56905 6.4858 0.88413 4.1195 6.48969 2.15781 
6.85946 4.03455 4.88025 7.07298 2.7446 4.74602 7.59116 3.48527 4.79106 
7.85769 4.43005 5.57486 7.33951 3.68938 5.52983 4.12828 1.27185 4.52467 
3.08225 0.914479 4.07074 3.73674 0.805226 5.15304 3.26411 1.7197 4.85008 
4.31014 2.07708 5.30401 3.58177 5.13976 1.91351 3.03132 5.13587 0.639825 
2.48831 5.05436 1.71973 3.1189 2.6316 6.27253 3.93663 2.29768 6.47394 
7.72334 4.2267 4.31127 9.16834 2.36752 6.75022 8.15478 2.04178 7.13113 
8.33721 3.07066 6.25691 6.18264 5.11858 0.957002 6.92056 4.47622 1.97988 
7.18304 4.98394 1.02288 7.29031 5.83314 0.830276 8.02823 5.19078 1.85315 
7.02783 5.32542 1.78728 7.32322 8.1038 7.13459 4.50184 3.12284 1.94602 
5.02992 4.35274 1.8141 4.50706 4.03066 2.55117 9.16478 6.65469 6.49649 
8.92893 7.25112 6.89034 2.93639 8.17931 8.90321 2.92716 8.90321 8.21177 
3.66997 9.2761 9.30857 3.82875 8.35715 8.77363 3.81952 9.08104 8.0822 
3.08594 7.98425 7.67684 0.765056 4.45097 6.18614 6.1894 6.89412 2.7319 
6.64969 7.8073 2.33424 5.5902 7.01802 2.15587 9.03452 3.23145 3.18464 
7.995 4.00988 2.87151 9.03452 3.81645 3.06351 8.97726 4.98253 7.18256 
7.45195 3.6947 7.22134 7.64355 3.56775 6.37357 4.14688 7.29831 7.85508 
3.99733 7.49337 9.08145 3.4073 7.36508 8.07384 3.25775 7.56014 9.30021 
3.57589 6.5013 8.38166 2.38211 3.64712 2.47672 1.86966 2.92357 1.96426 
2.53866 2.74975 2.53866 2.4077 3.45087 3.66409 1.73869 3.62469 3.08969 
4.65773 7.16239 9.08145 5.32209 3.62647 1.5589 6.06252 5.44319 2.69569 
0.856555 3.30283 2.28717 8.26489 2.84991 1.01308 8.98692 2.84345 1.70427 
9.27797 3.6669 0.691194 8.23845 4.00747 1.02288 7.9474 3.18403 2.03595 
4.33701 0.722031 0.473928 4.26868 1.79756 1.08892 9.16478 6.99427 5.33578 
8.6472 7.70596 4.99629 9.10295 8.24197 5.3949 8.92893 7.5907 5.72964 
3.61846 4.85472 2.65225 3.59539 3.78395 2.38265 2.93397 4.01958 2.16538 
3.47825 4.33024 1.49692 2.95703 5.09036 2.43498 8.02144 2.85232 2.86171 
7.29785 3.36472 3.37415 0.900531 2.18814 0.516055 1.0131 2.28662 1.52916 
3.72197 5.66425 3.06884 3.38399 0.824866 7.73113 3.94883 1.63009 7.03662 
2.57533 7.71733 6.23981 2.24816 6.85188 3.83686 1.89697 7.20312 2.79475 
2.32928 6.12653 3.4736 7.81133 0.516055 0.901353 7.7134 1.52929 1.01308 
2.54705 9.48394 9.48394 3.10389 9.48394 9.30857 2.37031 8.38715 8.90321 
2.37031 8.90321 8.38715 6.64363 4.90448 7.47885 9.16975 6.62414 7.72885 
1.09679 7.62969 8.38715 0.516055 7.45295 9.48394 0.811103 6.56577 8.60255 
7.64302 2.55354 6.40603 0.856555 3.88782 2.16604 0.88214 3.69158 3.35341 
9.48394 0.901353 7.81133 8.47039 1.01356 7.71292 5.38158 9.02083 7.93011 
4.48915 9.08104 7.71875 1.86056 6.09054 2.75835 9.30857 3.66997 9.2761 
8.98644 2.85316 8.26255 8.29501 2.84393 8.98644 8.97726 4.00898 8.2361 
6.64532 3.17226 5.67895 7.37702 2.62298 5.58976 5.13343 5.16226 2.23068 
5.82825 5.4438 1.85098 6.15443 4.61025 2.75871 3.02934 3.45709 6.90626 
2.11931 3.03193 7.33146 2.79993 4.16748 7.47445 9.2761 0.473928 4.33993 
2.85371 4.1444 3.99623 1.0799 5.93183 1.8038 1.11631 7.04441 1.84021 
0.780659 6.47951 2.40234 0.691194 0.722031 3.6669 1.70429 1.0131 2.84332 
1.0131 1.73513 2.84978 1.30481 1.63651 3.72057 1.996 0.914479 3.71411 
8.68882 4.88467 4.95804 9.03452 4.33615 4.34403 9.16887 4.5395 5.60762 
5.73176 9.02083 7.35911 5.30528 8.70124 6.4525 4.44424 7.78228 6.85201 
4.83934 9.08104 7.14775 2.17405 0.91462 0.516055 2.28662 1.0131 1.52916 
1.14158 2.91658 5.57794 2.1936 3.10378 6.1633 2.02372 2.85337 4.90332 
6.42745 5.31991 2.42701 4.24319 4.90413 2.13078 0.704615 1.42701 4.147 
9.08486 0.516055 2.17488 8.98692 1.52929 2.2866 7.0879 8.9275 8.2036 
7.09712 8.23606 8.9275 6.33003 9.30857 9.2761 6.04198 9.02083 8.26109 
6.05121 8.3294 8.98499 1.39581 0.704983 4.14055 5.01214 6.54386 2.70718 
0.88214 4.21129 4.63393 8.98692 2.4056 2.34908 4.36046 6.78695 5.85412 
3.44394 6.7336 6.11148 3.99367 7.34913 6.41413 3.69631 6.86516 7.4172 
7.82512 0.915145 9.48394 7.71292 1.01356 8.47039 1.32437 9.09184 3.33913 
1.92463 7.97584 3.18191 1.63236 8.88401 2.38983 2.01052 9.30145 3.00373 
2.30278 8.39329 3.79582 2.00029 3.9898 7.62034 4.932 2.13041 1.08892 
5.66741 1.793 0.824862 1.08288 0.543116 0.543116 1.55454 1.55622 1.0131 
7.84746 1.09766 4.82842 8.11346 1.02823 5.64468 9.45682 0.543116 1.08298 
8.98692 1.55635 1.55451 7.23917 2.5924 1.71488 7.53022 3.41584 0.701803 
7.21273 3.74996 1.72468 1.50254 6.00892 9.1186 2.10959 6.45366 9.30021 
8.91693 0.543179 9.45682 8.44491 1.55673 8.98644 7.33373 8.11781 2.82872 
6.87345 7.20464 3.22638 6.12811 8.06981 3.01827 8.97726 4.66938 7.90512 
9.16975 5.5186 8.01326 7.9056 4.67079 1.02288 8.01287 5.51999 0.830276 
2.86373 8.99587 5.21266 2.84561 8.06531 5.61672 2.09163 9.06944 5.40406 
2.54934 9.30145 4.23021 2.53122 8.37089 4.63427 3.30332 8.29732 4.44287 
7.54387 5.86879 9.06814 7.35138 5.01957 8.96 6.37878 5.85262 9.1715 
0.900531 0.516055 2.18814 1.0131 1.52916 2.28662 9.48394 2.18814 0.900531 
8.47087 2.28676 1.01308 7.45894 6.65938 6.69726 7.85643 7.57308 7.15714 
7.32465 7.82188 6.43674 7.27905 1.09766 4.47484 6.45387 0.835583 4.20554 
9.16887 4.54244 7.05735 2.60546 4.50808 2.60546 6.09073 5.95152 0.893974 
6.89611 9.30857 9.48394 7.45295 9.48394 9.48394 7.65397 8.41144 8.9275 
9.09865 2.18867 9.48394 8.98644 2.28708 8.47039 1.03676 8.34554 6.06446 
1.09679 8.17931 7.06361 1.73888 8.26112 8.09175 0.642091 8.63401 7.34894 
1.67885 8.42735 7.0926 9.16834 2.80567 5.95784 9.45682 0.516055 1.81506 
8.1833 0.516055 0.541537 5.24516 2.85297 1.08892 4.88299 3.82474 0.857098 
6.0654 3.3566 0.701803 4.80499 2.37205 6.55331 4.78697 1.68482 6.01176 
9.52597 5 9.52597 9.30857 4.33085 9.52597 8.50324 4.6689 8.96 
8.97726 4.66986 8.48597 9.52607 4.33055 0.691194 9.52607 4.99984 0.474013 
8.48655 4.67112 1.02288 8.96048 4.6703 1.49689 0.541439 0.543116 1.08456 
9.45688 1.08456 0.541439 1.78232 8.2177 1.89881 1.18207 9.3337 2.05603 
1.47433 8.42554 2.84811 4.81077 2.51929 7.48091 9.45846 1.08472 9.45682 
0.541439 1.08623 0.541439 8.9137 0.541439 0.541537 9.45846 0.541537 8.91364 
4.17637 0.824866 7.29299 5.01451 0.879597 6.26813 4.14615 0.805226 6.18875 
1.84021 7.04441 1.11631 0.723897 6.3208 0.723897 1.8038 5.93183 1.0799 
1.84507 8.16128 4.96967 1.8632 9.09184 4.56561 4.85084 3.77185 4.83782 
5.02436 3.08997 5.44466 5.17352 4.31811 5.60684 4.31863 3.48251 5.51444 
3.99595 2.93625 4.74543 3.69274 4.90024 0.857098 5.71848 6.51229 0.893974 
6.13598 7.6941 1.02342 9.31861 8.04602 4.59782 7.96581 7.86174 4.59411 
8.48338 7.15005 4.9336 2.49125 8.90321 7.56391 2.43122 9.06944 6.56476 
2.93304 8.64789 6.99645 2.96196 7.83422 3.88862 3.63843 7.70694 3.54342 
1.76065 9.06944 6.06446 1.82069 8.90321 7.06361 1.36599 9.35791 7.34894 
5.07775 9.17309 5.75264 5.346 7.87433 5.60846 4.64194 8.70124 6.30094 
3.9957 8.99587 5.93522 4.26395 7.69711 5.79104 4.69976 8.16896 5.24274 
8.69573 5.51812 9.06814 9.16975 5.51908 8.59412 3.38361 9.08104 7.43433 
3.52773 7.72894 7.10938 8.59382 5.52032 0.830276 9.06775 5.5195 1.30429 
3.71422 7.08158 5.4884 4.63617 7.4086 4.88079 4.73268 6.49844 4.94386 
4.04933 6.4912 4.58894 3.95282 7.40136 4.52587 6.42273 4.19512 7.1758 
6.83911 5.31824 6.6322 6.31377 5.30688 7.33607 4.58906 4.06289 6.19161 
4.41554 4.74477 5.58477 3.56065 3.90917 5.49238 5.28241 7.11397 5.24651 
0.691194 0.516055 3.10374 0.516055 0.516055 2.54705 1.52916 1.0131 2.28662 
9.48394 3.10374 0.691194 9.48394 2.54705 0.516055 8.98692 2.28676 1.52913 
3.62244 3.15686 5.91535 2.69713 3.62903 5.80612 2.78669 2.80354 5.1724 
8.37188 6.47679 4.59709 7.8543 7.18848 4.2576 8.52571 7.52854 3.85912 
0.723897 5.65991 0.474013 2.94992 2.57888 4.2915 6.24591 9.1763 6.58122 
7.28637 4.47382 7.12458 5.64511 4.37466 7.65464 5.61068 4.38608 9.01123 
5.02855 4.97938 8.64341 4.89157 4.13201 7.85575 4.85714 4.14342 9.21234 
5.4737 3.53871 8.22357 9.30857 3.10389 9.48394 9.48394 2.54705 9.48394 
8.47039 2.28708 8.98644 5.50173 5.49783 9.1715 5.33295 1.50085 8.97316 
5.33296 1.02684 8.49914 4.99903 0.474013 9.52597 4.48904 1.29888 9.07043 
4.48905 0.824866 8.5964 2.92358 0.914479 4.74125 2.44639 2.05362 4.64868 
2.76036 1.13914 5.62214 3.57808 0.805226 5.82355 4.2794 4.68683 7.71935 
4.24497 4.69824 9.07594 4.6548 5.71267 9.08145 3.90564 5.42011 8.15739 
1.49951 9.09184 3.89583 2.18566 9.30145 3.56043 3.60441 2.46962 5.3738 
7.04292 7.93714 5.70339 6.28662 8.34939 5.73718 6.5381 7.93393 5.02637 
6.58647 6.82467 5.39774 5.83017 7.23692 5.43153 4.932 1.07553 2.1438 
5.66741 0.738125 1.87974 2.52725 3.37862 4.54614 5.54935 7.29237 3.43003 
4.866 7.28514 3.0751 8.90234 2.15254 4.82842 9.16834 2.0831 5.64468 
0.956334 7.1099 5.31835 1.03676 8.01456 5.40406 0.808319 8.03696 4.56561 
1.76465 7.25662 4.88395 1.75462 5.65444 4.63993 1.57895 5.80877 3.50003 
1.73699 6.48389 4.49679 2.50495 5.9722 4.6135 2.34691 5.29708 3.61674 
7.42785 5.18527 2.49288 4.84623 1.27185 4.83488 5.57256 0.835583 4.55618 
2.13478 5.27143 1.0799 1.91143 4.41047 0.95116 7.20516 3.48603 4.26624 
8.11035 4.7936 2.69316 9.14987 4.60016 2.88516 8.18439 4.46189 3.51892 
1.06729 2.40659 7.53848 1.05202 3.30393 7.00405 0.948274 3.36446 7.82736 
0.654887 2.79267 6.12802 1.70691 2.97986 6.71338 5.69473 7.24339 8.98499 
1.86548 1.13914 5.92519 1.37878 1.01523 6.47526 7.49867 8.47315 6.102 
6.99385 8.46994 5.42498 2.80279 4.70284 9.07594 2.55901 5.04213 8.19454 
1.86598 5.33929 9.1186 2.47303 5.78403 9.30021 3.16606 5.48688 8.37614 
7.92239 4.66938 8.96 8.11487 5.5186 9.06814 6.23339 7.60289 3.9245 
9.16834 2.24399 6.16676 1.99814 7.98806 8.90321 2.31951 7.36889 9.30021 
5.24516 1.07553 2.86636 5.89031 0.835583 3.83655 4.32816 2.76431 5.84556 
4.65084 3.31057 6.61458 8.90234 2.70276 4.45486 9.03452 2.56112 3.68531 
9.03452 3.44419 3.97508 9.14987 5.11987 4.16568 7.83869 5.01041 4.13292 
5.8406 4.78843 6.80799 3.96745 0.824866 7.85467 3.93722 0.805226 6.75043 
6.58831 3.416 7.27257 1.14158 2.19402 5.26479 1.14158 2.35491 5.78687 
2.42383 6.69755 4.97676 2.96756 4.20941 6.48329 3.89286 3.73723 6.59252 
8.42156 8.39775 4.99272 1.0799 5.27143 2.13478 0.856555 4.41047 2.00604 
0.654887 2.23099 6.33694 5.03455 7.5528 4.20353 4.01608 8.13594 4.74806 
4.3512 7.54557 3.84861 5.49985 8.55742 0.719005 6.44606 8.59629 1.02342 
5.81782 6.22499 9.1715 2.28449 5.57253 5.28902 0.956334 5.66184 5.31374 
6.8682 6.70941 6.13109 5.66915 9.30857 9.52597 6.26761 9.17309 4.67651 
7.02391 8.76084 4.64272 7.47966 9.29685 5.04133 2.12644 4.89741 4.29226 
5.74109 9.17309 5.9042 2.19646 1.13914 5.26479 2.35969 0.914479 4.38389 
4.46589 9.28132 2.32411 4.33368 9.14007 3.6405 3.62091 9.30145 3.33531 
2.03145 7.98265 1.11631 1.58116 8.43234 0.782502 1.93953 8.81764 0.782502 
0.516055 7.45295 0.516055 0.723897 6.88688 0.516055 1.11631 7.61048 1.63236 
1.63236 7.61048 1.11631 0.691434 6.89611 9.48394 0.691434 6.33926 9.30857 
0.811103 6.00892 8.42717 3.45398 5.89313 4.57089 4.40536 5.58571 5.27574 
7.5882 8.9275 7.53303 6.54228 9.02083 7.59053 7.05642 9.1763 6.81264 
5.66996 0.473916 0.691434 6.33704 0.738125 1.5163 9.52597 0.691434 5.67011 
9.16834 1.71966 6.31431 8.41144 8.9275 7.65397 9.48394 9.48394 7.45295 
9.10295 8.78079 6.62138 8.5869 9.29685 6.62138 8.03045 8.22434 6.8224 
8.20376 8.92765 2.91195 7.68218 9.19016 3.59597 8.24626 8.02855 3.17016 
7.72468 8.29106 3.85419 8.59471 9.1009 3.93742 6.3208 0.723897 9.2761 
7.14684 1.73745 8.98644 7.14684 1.01356 8.26255 5.99384 1.02684 8.24927 
5.99384 1.75073 8.97316 9.48394 7.45295 9.48394 8.9275 7.65397 8.41144 
9.48394 9.48394 2.54705 8.92765 8.4116 2.34587 7.45295 9.48394 0.516055 
7.65413 8.92765 1.5884 9.48394 7.45295 0.516055 8.4116 7.65413 1.07235 
0.808319 7.3144 4.25245 0.956334 6.38734 5.00519 0.780659 6.54167 3.86529 
1.58898 7.41095 3.74405 7.10405 6.11298 5.73723 4.66232 7.84131 5.11378 
5.03149 4.98398 6.14341 5.43927 5.56383 5.40145 4.84463 6.14954 5.67718 
4.97089 6.43983 9.08145 7.67447 6.44212 3.23131 7.61318 7.6178 3.51768 
6.96932 6.09262 3.69146 6.90803 7.2683 3.97783 7.70906 6.50578 3.98276 
8.80255 9.1009 3.37134 9.31861 8.58485 3.37134 1.8462 1.84413 5.07511 
1.75949 0.704983 4.81033 5.67064 4.14694 4.91761 5.60786 3.63029 4.11168 
5.52148 2.91879 4.75543 0.516055 0.516055 7.45295 1.06729 1.58335 7.65942 
7.66673 6.12729 5.05724 7.14915 6.83898 4.71775 6.44122 6.14197 5.12291 
2.46329 4.78294 0.639825 2.26497 4.1934 1.59099 5.75225 2.63404 0.701803 
4.176 9.08104 6.99619 3.79801 8.07691 6.48629 1.81496 0.543116 0.516055 
0.543116 1.08298 9.45682 0.516055 1.81506 9.45682 6.69174 8.51034 2.77979 
1.51077 9.06944 5.40357 1.03676 8.59541 5.40358 0.474013 9.52597 4.99903 
1.28233 9.09184 4.56512 0.808319 8.61781 4.56513 5.68363 1.02684 7.34728 
5.67786 0.879597 6.41969 7.22381 3.69642 2.54839 0.541439 1.81664 0.516055 
1.0863 0.541439 9.45846 1.8167 0.516055 9.45846 8.18494 0.543179 9.48394 
0.516055 9.48394 2.54705 0.808319 8.57578 3.33913 0.666012 8.81764 2.05603 
7.8536 5.43676 5.29842 9.16478 5.54621 5.33118 8.31465 5.67196 4.50607 
9.48394 0.541537 8.1833 6.32927 6.49087 4.38959 0.654887 2.35452 6.9204 
4.30416 6.59398 9.08145 3.56458 6.66075 9.30021 8.9275 8.2036 7.0879 
9.10295 8.57295 6.0553 8.92893 7.92169 6.39004 9.16478 6.27171 5.02263 
9.2071 6.6502 3.94815 9.31861 7.32346 4.28466 7.71119 1.73013 6.01101 
4.67169 5.34929 1.27368 4.56817 4.53976 0.857098 0.798287 5.71222 4.00843 
5.45842 4.79789 0.957002 5.3665 5.63083 0.893974 3.23352 5.49346 5.24641 
1.03676 7.44356 5.75425 0.956334 6.5389 5.66853 6.11346 9.17309 5.34323 
6.61828 9.1763 6.02025 7.32551 9.29685 5.70805 0.798287 4.98672 4.31698 
1.93953 9.3337 1.29856 7.16351 3.91292 5.72399 1.18207 8.06017 0.782502 
5.84416 3.46505 5.52444 1.68043 4.20389 3.96011 0.516055 2.54705 0.516055 
1.52916 2.28662 1.0131 6.0615 5.49779 7.11103 7.48798 0.701905 5.36633 
7.44519 1.79957 5.19474 4.44703 4.72876 6.72818 3.8209 5.33048 5.86051 
2.34081 1.06729 8.41689 2.34081 1.58335 8.93295 2.54705 0.516055 9.48394 
3.26305 0.824866 8.55437 3.26305 1.34092 9.07043 7.45295 0.516055 0.516055 
7.7134 1.01324 1.52913 0.798287 4.46702 3.03646 0.798287 4.98966 2.87646 
1.65484 4.40013 2.77274 3.39247 5.15545 6.60784 5.61331 8.33024 3.79177 
9.48394 0.516055 7.45295 8.98644 1.52961 7.71292 2.0232 9.09184 4.04296 
2.70934 9.30145 3.70757 8.13476 7.3553 2.83365 9.16478 6.42327 5.68597 
8.92893 7.0197 6.07983 9.14987 5.84537 3.85713 8.35697 6.05045 3.43159 
7.59456 2.34924 1.01308 6.85989 2.91517 0.701803 5.65992 0.723897 9.52597 
3.67335 0.722031 0.722031 4.26868 1.07553 1.81095 6.00195 5.57814 4.72146 
6.69631 5.38296 4.02317 5.09813 8.31317 4.56548 5.71822 7.58582 4.69821 
6.29698 8.36325 4.28645 7.65182 5.70095 3.89174 4.54692 3.42547 9.21234 
6.47452 7.17357 4.66442 5.76659 6.47656 5.06958 4.84848 8.87965 2.867 
2.00315 4.52517 9.22183 1.75938 4.86445 8.34043 6.62809 5.45144 5.36409 
7.19078 5.46575 4.6841 6.18949 0.738125 2.04062 6.09924 0.835583 3.27488 
8.96048 4.67079 2.07775 9.06775 5.51999 1.88515 9.48394 1.81664 0.541439 
0.541439 0.516055 1.81664 2.27582 7.62461 4.22402 1.54344 8.44276 9.18854 
1.15815 8.08439 9.18854 6.78279 9.19016 3.9028 7.05328 7.951 4.25266 
9.48394 8.1833 9.45846 9.45846 9.48394 8.1833 0.516055 0.541537 8.1833 
8.1833 9.48394 0.541537 9.45846 1.8167 9.48394 9.48394 9.45846 1.8167 
8.1833 9.45846 9.48394 9.45846 8.1833 0.516055 2.62329 4.26029 0.639825 
2.07143 3.88782 0.95116 2.87777 3.37062 0.849799 2.51945 3.30373 1.80096 
3.07131 3.6762 1.48962 2.45232 8.88401 2.50867 2.83047 9.30145 3.12257 
2.00202 9.3337 2.17487 7.35461 4.29675 1.02288 6.35421 4.43139 0.957002 
5.50119 2.69771 6.15241 5.50696 2.84495 7.08 6.33719 1.42932 0.824862 
2.52896 4.87531 6.92158 2.80509 5.31843 5.99374 3.24369 4.65252 5.55545 
2.02686 5.86137 9.1186 2.63392 6.30612 9.30021 4.13299 6.85543 0.88413 
4.3602 6.07939 1.27368 5.05501 6.36093 0.893974 4.81431 6.77124 1.7781 
8.4769 1.02823 6.31431 6.43398 3.17257 3.94312 6.18882 4.88761 4.96264 
5.8091 4.80444 5.66458 6.99793 4.69205 5.62722 6.47974 3.95138 5.58218 
3.58629 8.99587 4.89951 3.2719 9.30145 3.91706 9.48394 0.516055 2.54705 
9.48394 0.722031 3.1102 8.47087 1.01324 2.2866 2.34911 1.0131 2.40546 
2.64082 0.914479 3.27625 0.666012 8.06017 1.29856 4.63282 2.62334 6.07303 
1.87819 5.26109 2.90148 2.32384 4.22631 3.34714 5.33344 2.08171 8.97316 
4.48953 1.87974 9.07043 6.33941 0.691194 0.691434 0.642091 8.08439 8.67249 
9.30857 0.691434 6.33926 6.88318 4.69243 4.26435 0.88214 2.7691 4.63853 
4.4547 0.805226 5.46325 8.6537 6.74508 9.06814 9.16975 6.74508 8.55209 
7.76366 9.29685 6.50044 9.06775 6.74647 1.34633 8.5517 6.74647 0.830276 
1.11631 7.54471 2.51077 0.780659 6.97982 3.07291 0.808319 7.87608 4.04353 
5.02038 9.14007 3.81284 5.53519 8.87965 3.03934 6.21923 9.19016 3.53381 
7.85142 0.701905 6.03595 7.32709 0.701905 5.88841 3.19559 6.09719 9.30021 
0.654887 2.07011 5.81486 6.88688 0.516055 9.2761 7.45295 0.516055 9.48394 
7.71292 1.52961 8.98644 1.58335 2.34082 8.93295 1.06729 2.34082 8.41689 
0.516055 2.54705 9.48394 1.46433 3.29869 9.22183 0.948274 3.29869 8.70577 
5.17851 2.15145 5.38339 5.74411 8.87965 2.47766 5.22203 8.87965 2.31678 
5.78714 3.70879 7.11806 5.19352 2.67486 8.18551 5.03359 3.46614 7.31918 
3.22485 5.11352 7.599 2.42521 4.93584 7.74489 7.82904 1.02823 6.75022 
9.14987 5.12281 2.72516 2.54705 0.516055 0.516055 2.28662 1.52916 1.0131 
8.92765 7.58836 2.46681 9.31861 7.76161 3.49228 7.47797 4.34688 6.2768 
7.47388 5.35359 6.00036 9.2071 7.08835 3.15577 9.06775 6.68069 2.22474 
8.27485 6.44763 2.59158 5.6908 2.64561 8.97316 5.97098 3.50945 9.01123 
6.30774 9.32018 2.23918 6.09882 9.32018 2.80086 0.474013 0.473928 4.99984 
0.474013 0.691434 5.66914 1.17863 0.704983 4.80984 0.704615 1.39642 5.47996 
0.704615 1.17891 4.81066 4.55894 2.67987 1.08892 4.19677 3.65164 0.857098 
6.36499 3.95176 4.21932 0.88214 3.90107 3.91597 1.91561 8.84185 9.18854 
3.52535 5.016 9.07594 0.691194 4.32973 0.474013 1.54775 3.74069 0.95116 
2.75745 6.88957 9.30021 4.99985 9.52597 0.473928 5.66915 9.52597 0.691434 
4.83978 9.28132 1.19293 5.50908 9.28132 1.41044 4.83897 8.80729 0.719005 
6.2478 2.48252 4.47672 0.704615 1.75986 4.81033 5.77323 4.08287 0.957002 
6.27489 2.79405 0.701803 0.780659 7.10335 3.65637 4.0949 2.4688 1.93872 
3.49957 2.11529 0.849799 3.51455 1.48178 1.25155 3.34077 2.15301 2.10135 
6.1482 3.34343 6.36818 1.91561 9.35791 8.67249 3.93475 3.98028 9.07594 
5.32306 0.879597 5.54263 5.90483 1.71518 5.10469 0.723897 9.52597 5.65992 
0.856555 3.18399 1.46722 1.37261 3.18399 0.95116 6.24837 5.36827 6.06603 
5.78566 9.32018 2.0783 6.39304 0.701905 6.24045 9.03452 4.02594 3.62607 
9.14987 4.80965 3.44772 2.79565 5.94052 4.62909 1.05202 4.11106 6.77523 
0.948274 4.17159 7.59854 2.89509 6.19471 7.82327 8.9275 7.53303 7.5882 
7.53319 8.92765 2.41164 7.01162 9.19016 3.09567 8.65228 1.02823 6.87116 
6.89389 1.25418 0.824862 6.77505 2.07413 0.824862 5.3863 9.17309 5.02714 
4.30425 8.99587 5.20972 6.89389 0.738125 1.34092 1.06729 2.90689 8.20905 
0.948274 3.86477 8.49793 3.81975 1.51606 9.07043 9.16887 4.18887 6.48894 
2.9514 1.2758 1.25155 2.9514 0.759746 1.76761 2.69098 1.77285 2.26465 
9.16834 1.54428 6.87116 0.808319 8.4004 3.89598 0.808319 7.75254 3.46007 
5.70406 9.17309 4.30752 8.41152 9.29685 6.06453 7.37052 9.32018 1.92477 
7.01214 9.32018 1.53948 3.51455 0.759746 1.97358 0.765056 4.81996 6.7497 
8.92765 7.08805 1.79624 9.06775 6.18039 1.55417 0.654887 1.53128 7.04134 
0.654887 1.91658 7.39972 3.60792 9.08104 6.63098 3.42763 8.99587 5.57002 
3.96707 9.08104 7.55787 8.2036 7.0879 8.9275 8.44586 6.179 9.06814 
2.51969 0.914479 3.86125 0.765056 5.48668 6.59555 8.04807 9.29685 5.3949 
2.34911 2.40546 1.0131 2.19256 3.30283 0.95116 7.01214 8.80413 1.02342 
4.44615 7.57799 0.88413 4.79646 7.00678 0.88413 5.36816 7.08349 0.893974 
4.83945 9.28132 1.77388 6.45769 3.83045 3.32723 7.15483 4.47561 2.82459 
1.71333 4.6987 7.59481 5.20501 4.3021 6.75025 5.98262 4.12256 6.27141 
0.765056 6.04765 6.22317 6.41966 2.31729 1.52666 0.691194 9.48394 3.10374 
0.691194 9.30857 3.66059 1.17094 1.01523 7.04134 4.50882 3.97644 7.15115 
0.666012 8.43234 1.69765 0.666012 7.9944 2.17696 3.93517 6.03042 9.08145 
9.52597 5.66915 9.30857 9.16975 6.18823 8.37671 9.30857 5.66914 0.474013 
8.37632 6.18962 0.830276 9.31861 8.40947 3.92819 2.9989 2.78563 0.849799 
2.50425 7.60221 5.06247 1.56654 9.3337 1.69712 3.92407 7.4171 0.88413 
0.691194 3.66044 0.691194 0.856555 3.74069 1.64235 4.32988 0.474013 9.30857 
3.8199 0.824866 8.379 4.86008 2.7029 9.21234 4.1629 2.44814 0.849799 
1.55724 9.35791 8.28719 2.03655 9.35791 7.84925 1.15815 9.35791 7.91502 
0.642091 8.84185 7.91502 0.642091 7.96345 7.84925 0.642091 8.44276 8.28719 
4.89539 6.73647 2.53558 8.21762 5.6428 2.50056 0.948274 4.52517 8.16695 
0.765056 5.17353 7.31811 3.37286 6.61848 4.93415 2.8617 6.25049 5.59408 
6.78379 3.82976 6.42592 2.57841 0.759746 2.16617 3.27635 7.52864 4.87107 
1.42851 0.704983 5.47073 1.3595 1.72021 5.62519 0.811103 5.33929 8.06372 
3.00607 7.18066 5.49416 3.18845 3.12991 2.37536 3.73273 3.44057 1.7069 
3.34743 7.64376 6.04841 3.66344 4.44762 7.16071 0.473928 5.00081 9.52597 
0.811103 5.33977 8.64458 1.28503 5.33962 9.1186 1.4222 4.52549 9.22183 
0.948274 4.52565 8.7478 4.70263 9.14007 4.53246 7.3512 9.19016 4.25637 
8.26373 9.1009 4.59782 2.676 2.40636 1.8629 7.22887 4.14391 3.65034 
6.42203 2.27036 0.701803 7.88719 9.29685 5.91698 1.91949 0.704983 4.28768 
9.2071 6.285 3.38008 9.06775 5.87735 2.44905 9.14987 5.48016 3.28906 
7.17996 9.1763 6.22918 5.99831 2.52654 5.46318 6.7135 2.34884 5.28393 
6.62001 1.53749 4.92544 0.691194 9.52597 4.32974 3.18585 4.46978 0.639825 
3.44033 3.58011 0.849799 9.30857 9.48394 6.89611 2.93642 1.90932 0.849799 
4.17788 0.759746 2.30643 3.35301 4.32929 9.07594 2.55338 4.15161 9.22183 
2.65553 9.06944 5.76141 9.31861 7.88514 4.07574 7.61724 5.63728 3.14029 
7.34422 4.92763 3.472 4.31737 8.06556 0.719005 3.10374 0.691194 9.48394 
3.66059 0.691194 9.30857 9.2071 7.21188 3.73923 3.78983 2.9976 0.849799 
6.89626 0.691194 0.516055 3.1102 0.516055 0.722031 9.48394 0.691434 6.89611 
0.691434 5.67011 9.52597 1.0799 5.62878 2.69867 0.780659 6.17647 3.29722 
2.95673 6.93193 7.63596 3.84728 4.23415 0.857098 9.48394 9.30857 3.10389 
5.21743 3.2668 9.21234 6.64638 3.70512 0.701803 0.516055 3.10374 0.691194 
0.723897 0.691434 6.33003 0.654887 1.70666 6.48449 6.29972 0.835583 4.87227 
6.05023 0.879597 5.85872 6.76542 0.701905 5.67948 6.91957 0.701905 5.01275 
6.8912 9.32018 2.36272 6.33003 9.2761 0.691434 3.01388 0.759746 2.64392 
9.52597 9.52597 5 9.30857 9.52597 5.66915 9.10295 8.82282 5.39442 
8.62893 9.29685 5.39538 9.48394 6.89611 9.30857 9.30857 6.89611 0.516055 
0.723897 9.2761 6.3208 9.52597 9.30857 4.33085 8.84458 9.1009 4.5983 
9.31861 8.62688 4.59733 6.45529 9.32018 1.71486 0.473928 4.33993 9.2761 
3.98467 9.14007 4.22225 1.67031 3.86184 9.22183 0.798287 4.67651 3.59902 
0.798287 5.34702 3.44036 9.30857 9.2761 6.33003 4.33085 9.52597 9.30857 
3.67473 7.67284 4.19381 9.30857 6.33003 0.723897 9.2761 9.30857 3.66997 
9.2761 6.33003 9.30857 0.88214 3.31933 4.26498 0.704615 2.31009 4.43677 
3.45531 0.759746 3.4384 0.722031 3.1102 9.48394 0.722031 3.67628 9.2761 
4.48231 9.28132 0.719005 6.89611 9.48394 0.691434 0.541537 8.1833 9.48394 
0.541537 8.91364 9.45846 1.18363 8.81473 9.18854 0.642091 8.81473 8.64701 
0.516055 0.691434 6.89611 1.8167 9.48394 9.45846 1.08472 9.45682 9.45846 
1.18527 9.35791 8.64701 0.543179 8.91693 0.543179 0.543179 8.18494 0.516055 
1.20919 8.79216 0.782502 0.666012 8.79216 1.32568 1.8167 9.45846 0.516055 
1.08462 9.45846 0.543116 1.20745 9.3337 1.32562 0.704615 0.704983 4.45318 
0.666012 9.3337 1.49679 0.541439 9.45846 1.0863 0.516055 9.2761 6.88688 
0.516055 9.48394 7.45295 0.543179 9.45682 8.91693 0.642091 9.35791 8.47426 
3.15735 8.64789 6.1931 7.50903 8.48701 4.65127 2.69168 7.76798 9.30021 
9.16887 3.88204 7.38833 2.18867 0.516055 9.09865 0.516055 2.17488 9.08486 
5.45408 1.07553 2.30468 18.793 5 5 23.7086 5.11767 5.0851 
14.3955 5.57106 5.57106 16.2515 3.18909 3.18909 16.2616 3.16631 6.83369 
26.3912 3.46206 3.46206 26.835 6.82272 3.51999 16.2678 6.83167 3.16833 
12.9835 2.97701 6.31088 13.0608 3.47617 3.06501 21.3209 3.35344 3.3534 
21.2595 3.49303 6.70655 16.3991 7.10478 7.10478 21.2387 6.70614 3.46167 
26.1338 3.6089 6.75971 21.406 6.78645 6.75345 13.0694 6.5533 2.9722 
25.9687 6.81101 6.61069 12.5645 5.49097 7.45191 24.0424 6.8449 2.79962 
18.9386 5.86969 2.53665 18.9843 2.53929 5.85161 19.071 7.45568 5.8175 
12.5467 7.4433 5.49419 23.7112 2.61698 7.43157 19.008 4.65283 7.5263 
23.86 2.62089 4.00936 23.7297 7.5965 5.14174 18.8275 2.63301 2.63547 
23.7165 5.99538 7.47588 12.2398 7.76277 7.768 23.3452 4.47859 2.42518 
27.6706 5.50398 7.67062 27.2394 5.20646 5.29399 27.6864 2.31358 5.50885 
27.8646 4.42363 2.13001 21.5465 1.97554 8.02446 16.4756 4.63798 5.01991 
14.7997 5.01779 3.33422 21.5512 8.03265 1.96735 12.0642 2.04357 7.94039 
12.0328 2.02908 2.02908 21.5688 1.94696 1.94696 28.0319 1.74695 2.08829 
21.42 4.98285 4.96742 14.8755 2.99441 5.01408 18.0059 2.19306 7.8255 
22.8212 7.87749 7.91099 27.7467 2.18656 7.81738 27.7456 7.81295 7.81295 
12.0114 7.99216 2.00784 17.9734 7.82657 2.17012 12.0825 2.08124 4.40331 
19.5007 6.78315 7.88448 14.5165 7.49359 4.41254 15.2662 5.12057 7.72649 
27.7363 7.73628 5.44284 15.6533 1.8359 8.1641 15.6525 8.16166 1.83834 
15.6483 1.85042 1.85042 14.2158 7.29955 6.91972 16.9928 7.78453 5.05793 
12.3137 5.06511 4.61871 20.9079 8.08844 8.08844 25.6713 5.28885 2.21072 
11.8209 4.33875 1.81701 24.973 2.09275 5.77148 25.0767 2.16964 2.16964 
16.9847 2.17949 5.00313 16.9556 5.00152 2.16904 20.8879 5.06175 2.12063 
20.946 2.12708 5.07764 21.8526 5.099 7.96661 19.4555 7.75796 3.72153 
27.8969 7.9474 2.05574 25.6122 5.24647 7.95606 21.5271 8.08424 4.96658 
25.754 7.93483 4.88799 25.1259 8.05268 8.04999 17.1365 5.20085 6.88139 
25.5236 5.44322 4.23144 22.9925 3.33029 5.6868 22.7932 8.19096 3.46786 
25.7274 7.90725 2.0735 12.9848 3.73537 8.15771 23.4261 8.21408 1.74706 
18.0878 8.05841 7.40556 12.894 8.20191 3.82627 25.6151 2.01103 7.96615 
28.0596 3.93754 6.55007 19.8277 2.914 7.91556 27.0251 1.77227 3.86818 
14.7192 3.56072 2.03334 14.7559 6.44017 2.00392 19.5956 4.25153 3.39372 
22.3878 6.28187 1.95674 24.3303 4.31465 6.73437 14.4446 2.15566 3.32907 
17.9261 3.56483 4.05749 17.9174 6.42823 4.06295 27.1665 3.85434 8.22986 
23.3006 2.70042 1.76479 20.1254 5.48897 6.24993 27.2785 6.18492 1.80266 
17.4272 3.93009 8.22875 15.6682 8.20698 8.35192 25.0168 3.77623 4.93664 
19.7848 7.4294 1.9574 13.5544 5.0148 1.9457 18.5832 4.23625 1.75413 
11.8725 6.12585 1.71028 27.7854 8.2739 3.77474 18.6011 1.74678 4.23394 
13.8473 8.06841 2.24353 13.8942 2.18724 7.71365 28.1437 4.07186 4.0128 
14.5719 3.8419 6.61115 22.7456 5.69417 3.64659 15.8855 6.35265 4.88068 
26.4983 3.31215 1.64438 20.101 3.73604 5.06167 11.8486 1.66562 6.08584 
19.9425 6.35797 4.67417 17.7053 6.37068 8.23114 23.4105 4.19537 8.31754 
22.22 1.78423 3.77174 20.3091 1.80488 3.37104 22.2425 1.78192 6.33419 
11.5761 7.20411 3.44549 20.3226 3.32924 1.7944 26.3708 6.81164 8.34761 
17.7035 3.77224 5.97893 22.4685 6.36146 5.3872 17.3574 2.35185 1.64912 
14.9728 3.46773 8.29725 15.3892 8.26376 5.85595 15.1208 1.77723 6.3881 
13.643 1.68943 5.22712 24.0169 8.41027 6.70127 22.506 4.88606 6.34756 
25.6211 5.21836 5.9669 22.7786 3.99734 4.08105 24.8306 4.18525 3.26472 
24.5032 8.22954 3.72934 25.0358 3.62883 8.1559 11.7674 4.36067 6.23267 
28.315 5.88082 3.99384 17.7141 6.3917 5.77536 13.3059 3.66208 4.76167 
11.5194 4.52593 8.47149 19.8658 1.5755 1.67964 11.52 8.4716 4.70544 
20.5359 8.25208 6.35214 24.1598 5.68812 1.57808 20.3215 1.72572 6.69121 
25.302 1.64285 4.11709 13.9642 6.20556 8.32232 26.9469 5.09127 3.38577 
28.3517 6.25233 6.20729 26.6889 3.61932 5.1173 13.7858 2.07713 1.66554 
20.3901 4.41104 8.47727 16.3701 6.44408 1.5363 21.9609 3.71886 1.83864 
26.6199 8.45456 6.61032 15.513 1.51449 4.48133 26.4665 1.55384 6.50724 
11.406 3.54909 3.22138 16.2967 3.62331 1.51658 11.509 6.63303 6.64804 
13.0153 8.57226 6.57887 24.4584 6.40504 6.04481 17.1611 1.70487 3.25458 
21.1456 8.35935 3.54114 15.8968 8.3449 3.87173 21.7569 6.69899 8.365 
28.5628 4.5362 8.55993 28.5568 1.44621 4.44671 19.3261 8.31075 8.44587 
13.3433 6.34169 4.57586 15.3681 4.98727 1.51703 13.0654 3.46019 1.37477 
11.9476 6.43261 8.53909 24.6379 3.7094 1.66712 23.7115 1.48334 2.81266 
24.2305 1.45804 8.574 16.9617 1.63805 6.61001 11.679 3.59153 4.81387 
17.8522 8.37025 3.74758 23.4812 1.608 5.25674 16.2682 8.60204 7.02959 
24.8029 6.55638 8.50177 28.6206 5.54462 1.3815 13.787 7.88754 8.45194 
21.9746 3.51295 8.13758 22.642 7.69645 6.30842 15.7572 5.83274 6.38466 
11.7879 5.63861 3.22653 17.3179 4.99535 3.71826 26.2276 8.52482 3.47024 
19.2825 1.54994 8.5074 24.248 6.37138 4.29156 26.3264 6.48064 5.10929 
16.6182 5.25809 8.54629 12.6816 5.86644 5.9254 28.6562 6.61334 7.97415 
28.6641 2.02948 6.62625 11.5085 8.63645 8.65569 19.0338 8.6275 4.90846 
15.5438 6.58059 8.3827 13.0695 1.34001 3.44619 13.3066 6.78014 1.39938 
13.6172 8.50525 5.15748 19.7338 3.68867 6.56163 28.5117 7.10484 4.49875 
20.7184 5.27152 3.63233 19.7227 5.56024 1.33794 11.5423 2.96836 6.83427 
26.4169 1.34133 2.45172 18.7807 5.98048 6.79582 28.3273 3.29543 1.52063 
20.9231 6.48577 1.55772 13.2855 4.4664 6.06423 21.6534 3.47486 4.96953 
13.2799 4.93769 3.44467 24.2303 1.3151 1.3151 22.8647 1.41202 7.63226 
16.3199 3.03496 8.68072 11.4664 6.36545 5.01068 18.923 5.64342 8.60465 
28.6044 6.57954 2.5921 19.6501 1.39709 5.20516 15.0021 4.47287 4.72895 
28.228 2.63186 3.57659 13.2293 1.28392 6.65588 17.4951 8.66438 6.16617 
17.5403 6.42027 2.48057 19.8131 6.13606 7.0672 20.989 5.29399 7.10827 
20.6766 5.94108 7.92554 19.9454 5.59709 8.18088 21.1213 4.75502 8.22194 
20.2578 4.95001 7.3636 17.4173 3.71267 2.47161 18.2546 3.90054 2.90581 
17.0888 3.37696 3.62329 16.8044 2.77047 2.4191 17.6417 2.95834 2.8533 
17.9703 3.29405 1.70162 13.48 5.53102 6.51148 13.9154 5.30577 7.5892 
14.8309 5.34581 6.64878 14.1799 5.88831 6.94669 14.6152 5.66306 8.02441 
13.2644 5.84826 7.88712 18.3768 3.09892 3.34648 18.7053 3.43463 2.1948 
18.0924 2.49243 2.14229 26.0095 9.18971 9.18971 26.8776 8.90648 8.09618 
26.8776 8.09618 8.90648 25.5677 8.21605 9.025 26.4358 7.93281 7.93147 
25.5677 9.02634 8.2147 18.6454 1.26965 6.03461 18.4951 2.36617 6.83855 
18.1562 1.09653 7.02155 19.314 0.86286 6.45441 19.1637 1.95939 7.25836 
19.6529 2.13251 6.27141 25.6691 7.52613 3.62467 24.2728 7.53722 3.26448 
25.4387 6.83381 3.15981 25.5415 6.59705 3.90578 24.1452 6.60814 3.54559 
24.3756 7.30046 4.01045 13.8405 5.01873 5.81765 12.925 4.97868 6.75807 
14.2758 4.79348 6.89536 16.3224 7.62778 9.17596 16.878 8.1327 7.87874 
17.5322 7.5535 8.70278 17.3409 6.70963 9.11557 17.8966 7.21455 7.81835 
16.6868 7.28883 8.29153 26.2531 6.05579 2.86536 24.8568 6.06687 2.50517 
26.2812 7.36499 2.79675 24.8849 7.37607 2.43656 25.6993 6.59805 2.14211 
24.783 6.14406 3.51553 26.1793 6.13297 3.87572 25.5974 5.36604 3.22108 
13.9302 4.24698 3.19962 13.7527 2.81592 3.19704 14.6221 3.58673 3.33164 
14.9009 4.74533 4.03158 14.7234 3.31427 4.02901 14.0314 3.97452 3.89698 
15.3286 9.10349 8.1014 14.942 7.75327 7.63582 14.6024 8.64978 7.3853 
15.6286 9.30102 7.44024 15.242 7.9508 6.97466 15.9682 8.40451 7.69076 
23.6229 1.30849 6.87513 24.3421 2.35486 6.60152 24.2538 1.04637 6.04508 
23.5079 0.804001 5.78772 24.2271 1.85038 5.51411 23.5962 2.11249 6.34416 
21.6293 5.94273 7.36003 20.4534 6.7848 7.31897 20.7657 6.13771 6.50169 
17.8328 1.17592 2.03165 18.5678 1.3165 2.52483 19.0869 0.78775 2.04691 
19.3466 2.10426 2.15756 18.6116 1.96367 1.66438 18.8078 9.0292 6.7646 
18.5794 7.75704 6.61153 19.2994 8.72784 5.97057 20.0319 9.12604 6.23789 
19.8035 7.85388 6.08482 19.3119 8.15524 6.87885 19.8483 3.99379 4.22769 
19.3511 2.74141 4.64781 19.0984 2.99916 3.81383 19.9524 3.02821 3.38238 
19.4551 1.77583 3.80249 20.205 2.77046 4.21635 23.1996 0.706008 6.97548 
23.1729 1.51001 6.4445 23.2879 2.0145 7.53192 15.5256 4.10344 3.26166 
15.348 2.67238 3.25908 15.6268 3.83098 3.95902 26.1901 7.59553 9.17381 
27.0582 7.31229 8.08028 25.7484 7.43216 8.1988 25.1153 8.06839 2.90142 
14.1255 4.42797 7.9421 12.7747 4.61317 7.80481 14.9191 4.48123 7.16882 
13.5682 4.66643 7.03153 13.7784 3.78864 7.38443 20.6233 9.17967 4.31411 
21.3364 8.22179 4.25386 20.8141 9.04212 5.02682 19.5674 9.31375 4.99776 
20.2805 8.35587 4.93752 20.0897 8.49343 4.2248 20.3006 8.05865 3.63133 
20.4913 7.9211 4.34405 19.2446 8.19273 4.31499 17.4409 4.28317 3.11326 
16.6036 4.0953 2.67906 17.7694 4.61888 1.96158 15.3268 1.40073 9.08205 
15.3266 0.917951 8.59929 15.0001 0.482783 9.51724 14.4472 1.5764 8.85683 
14.4471 1.09362 8.37407 14.7738 2.01157 7.93888 26.4942 1.97822 4.81297 
25.1375 1.8678 4.94428 26.3297 2.20317 5.64016 27.1877 2.96645 5.31307 
25.831 2.85604 5.44439 25.9955 2.63109 4.6172 13.1833 3.56913 3.91334 
13.8752 2.90887 4.04537 14.154 4.06748 4.74531 27.3558 2.04293 4.68851 
26.1636 1.70756 3.99263 26.857 2.6958 4.49274 15.3922 7.16263 3.79043 
15.0575 7.45004 2.70593 14.1819 7.781 3.32803 15.2067 7.91925 4.14214 
14.872 8.20666 3.05763 16.0823 7.58829 3.52003 14.6601 2.57504 4.17157 
14.0907 3.32825 4.88787 14.9388 3.73364 4.87151 28.8681 8.39412 5.22094 
28.3921 8.86814 5.2211 29.5239 9.52597 4.9992 28.8927 8.66293 4.38689 
28.4166 9.13695 4.38705 27.7608 8.00509 4.60879 24.8858 5.9073 4.2615 
24.9669 8.96741 4.80938 24.7418 7.76567 5.01486 23.9547 8.79825 4.93626 
24.3414 9.11477 4.23006 24.1164 7.91302 4.43554 25.1286 8.08218 4.30866 
14.7499 8.11504 2.04094 15.9601 7.49666 2.50334 15.7746 8.25328 2.85504 
14.0014 7.59355 7.68583 14.388 8.94377 8.15141 14.7276 8.04726 8.40193 
19.2115 3.44227 3.0146 18.7143 2.18989 3.43471 19.5683 2.21895 3.00326 
14.7594 4.28925 2.68378 15.4853 3.3749 2.61122 14.5819 2.85819 2.6812 
23.4251 8.79825 5.13315 22.9568 9.09548 4.29621 23.2614 7.89373 4.3048 
23.4864 9.09548 4.09932 17.4399 3.92978 1.63535 16.2741 3.4062 2.35284 
16.827 2.98758 1.58285 15.5118 6.63592 2.58613 14.6362 6.96688 3.20823 
14.3016 7.25429 2.12372 20.6288 6.74107 8.12474 21.8047 5.899 8.1658 
21.0735 5.55501 8.42114 25.7197 1.82329 6.13936 27.0764 1.93371 6.00805 
25.8843 1.59835 5.31217 21.1044 4.20759 2.73702 21.8168 5.37796 2.88361 
22.0332 4.52381 3.5 21.6409 3.53615 2.59602 22.3532 4.70652 2.74261 
21.4244 4.3903 1.97963 16.6261 4.31241 1.84281 22.7621 4.84575 3.86382 
22.0497 3.67539 3.71723 22.3697 3.8581 2.95984 26.7458 1.66306 5.18771 
21.0315 8.16816 5.65936 20.3184 9.12604 5.7196 19.7849 8.43979 5.6303 
26.2945 7.37878 4.20399 25.001 7.1531 4.58977 23.6482 8.21025 3.5986 
23.0619 4.23797 3.25311 23.0454 5.08638 3.03588 22.653 4.09873 2.13191 
14.3056 6.43531 6.24539 13.3902 6.39526 7.18581 14.09 6.75256 7.62102 
21.5814 6.74272 7.55923 27.1828 8.13375 7.21163 26.3147 9.22728 7.49487 
25.8729 8.25362 7.33016 11.2733 7.99776 5.90749 10.7545 7.59262 6.48442 
12.0278 7.03817 6.07111 12.781 8.00778 6.03653 12.2621 7.60265 6.61346 
11.5076 8.56223 6.44984 15.2042 7.30091 1.92113 23.1471 2.38768 0.882395 
22.4347 2.32369 1.85588 22.2812 2.01095 0.973482 23.612 1.69502 0.657548 
22.8996 1.63103 1.63103 23.7655 2.00776 1.53994 18.2046 7.815 8.70278 
18.0133 6.97114 9.11557 11.8744 7.1979 7.20802 11.1199 8.15749 7.0444 
12.6275 8.16752 7.17344 13.89 3.51845 2.54918 16.0337 7.65588 7.72835 
17.2435 7.5816 7.25517 17.0522 6.73773 7.66796 22.1166 4.77017 2.2729 
13.4745 4.97047 8.24002 15.5635 3.09175 4.10158 18.7131 1.09653 7.67865 
18.1636 1.09653 7.69855 21.7704 2.56884 3.56257 22.7603 2.24233 2.76827 
22.3107 3.02693 2.5591 23.0396 3.34888 2.92292 22.4993 2.89078 3.9264 
13.793 7.02345 3.69237 14.6581 6.25569 3.87338 13.9345 5.78555 3.15321 
13.9127 6.49674 2.48806 14.7778 5.72898 2.66907 15.5337 5.92473 3.25127 
21.0196 4.31248 3.49287 20.8032 5.16663 2.87648 21.732 5.48285 3.63946 
27.455 5.35522 6.4823 26.6866 4.40768 6.02685 26.9022 4.55644 7.21516 
26.6459 5.36117 6.81876 25.8774 4.41363 6.3633 26.4302 5.21241 5.63044 
21.7985 1.48988 0.973482 23.1292 1.17395 0.657548 13.9287 4.15415 6.33769 
18.2636 2.6558 4.14571 18.7609 3.90818 3.7256 19.0135 3.65044 4.55958 
17.1781 1.81773 8.91275 17.1781 1.09653 8.19154 16.3503 0.721205 9.2788 
16.0018 1.63916 9.08205 16.0018 0.917951 8.36084 16.8296 2.01448 7.9948 
24.0879 4.33192 2.84495 24.4365 5.51507 3.03217 23.6938 5.66175 2.6124 
23.7966 5.42499 3.35837 24.5393 5.27831 3.77814 24.0557 1.30849 7.44669 
24.6866 1.04637 6.61664 21.7985 0.973482 1.48988 22.2812 0.973482 2.01095 
23.1292 0.657548 1.17395 23.612 0.657548 1.69502 17.6456 1.08975 5.61037 
17.9845 2.35939 5.42737 18.4539 0.87339 5.22577 18.7927 2.14304 5.04278 
17.7929 1.96314 4.61854 17.9471 5.4356 2.35284 17.6311 5.60956 1.08452 
18.6226 6.04364 1.26832 18.7609 5.05297 2.14539 18.4449 5.22692 0.877063 
18.2395 6.14498 2.50861 17.248 5.71089 2.32481 17.9234 6.31893 1.24029 
11.4289 0.535941 0.905345 11.7895 0.905345 0.905345 11.5505 1.55048 1.01454 
11.9111 1.91989 1.01454 11.9111 1.01454 1.91989 25.1413 7.69735 1.03675 
24.2987 7.16618 1.39981 24.3574 6.58779 0.789039 24.1011 6.26651 2.18885 
24.9436 6.79768 1.82579 23.04 2.20256 3.89055 23.5803 2.66066 2.88707 
23.3193 3.30911 4.0452 25.6698 5.84596 1.10536 25.6979 7.15516 1.03675 
24.9141 6.0456 0.789039 24.9155 5.48848 1.8944 22.4841 2.79394 9.06879 
22.8429 3.06496 7.78457 23.3524 2.34596 8.71578 22.9291 1.74348 8.81613 
22.4196 2.46248 7.88492 13.8001 4.36769 9.07885 14.9408 5.06028 8.86324 
14.2898 5.60278 9.16116 12.4527 8.09703 2.91706 12.143 9.10095 3.73645 
11.7017 8.99608 2.82723 11.7938 7.59813 2.72667 11.484 8.60205 3.54606 
12.2351 7.70301 3.63588 17.6341 0.819023 6.41381 16.9732 1.90877 5.80657 
17.973 2.08867 6.23081 23.2096 7.09532 8.95549 23.2689 6.93643 7.69343 
23.6572 6.15427 8.73794 22.6774 6.50608 9.1825 22.7367 6.34719 7.92044 
22.2891 7.28824 8.13799 18.6296 4.16945 8.76315 19.4179 3.78342 7.72093 
19.0395 3.30004 8.95778 17.8392 3.80808 9.11438 18.6275 3.42204 8.07216 
18.2176 4.29146 7.87753 17.9332 8.35176 8.70278 16.7234 8.42604 9.17596 
12.0333 7.95745 5.09982 10.76 8.5119 5.51312 12.2676 8.52193 5.64216 
23.394 6.26954 3.22311 23.4968 6.03278 3.96908 27.0967 3.77322 6.65489 
27.8651 4.72076 7.11035 27.6495 4.572 5.92203 14.7941 4.23387 9.14862 
15.1195 4.29415 8.01187 13.9788 3.60155 8.22748 13.5386 5.71875 5.74823 
13.4487 6.58299 6.42256 12.6231 5.6787 6.68865 11.456 9.2358 4.17603 
12.207 8.33675 4.26586 11.5481 7.83785 4.07547 19.8708 0.86286 7.11151 
23.6324 0.706008 7.54704 23.7881 4.93971 3.45566 13.1866 4.77634 9.07885 
12.9764 5.65414 8.72595 13.6763 6.01143 9.16116 10.8948 0.91462 1.80588 
10.8948 0.543116 1.44678 11.0164 1.55766 1.55598 11.0164 1.92916 1.91507 
23.1664 9.09548 3.58882 25.0077 1.00552 7.71398 24.6632 2.314 7.69886 
25.2941 2.05189 6.86881 17.8547 2.98265 6.90221 18.3558 4.21253 6.75262 
18.507 3.42294 7.6759 18.8698 2.94086 7.19356 19.3709 4.17075 7.04397 
18.7186 3.73045 6.27028 21.1296 9.11888 9.11888 21.5788 9.4836 9.11888 
21.0187 8.1631 9.04422 21.468 8.52782 9.04422 21.0187 9.04422 8.1631 
18.14 7.02208 1.08506 18.456 6.84813 2.35338 19.0457 6.8235 0.978702 
19.3617 6.64954 2.24703 18.8791 7.62798 2.06376 19.0776 9.38019 0.619825 
18.5255 8.91328 1.70488 18.5256 8.29348 1.08506 19.4313 8.0949 0.978702 
19.4312 8.7147 1.59853 26.0448 4.75784 1.10536 26.7679 4.85624 2.17037 
27.1414 4.32523 1.06501 26.8484 5.20588 0.90133 27.5715 5.30427 1.96634 
26.4749 5.73688 2.00669 17.1618 8.19208 1.08506 17.1618 8.91328 1.80626 
16.3503 9.2788 0.721205 16.0014 8.35962 0.919172 16.0014 9.08083 1.64038 
16.8129 7.99411 2.00423 17.9903 2.44004 8.91275 18.1286 2.93957 8.91275 
18.9012 2.80051 8.95778 18.9168 2.55353 7.87053 10.8948 1.44846 0.541439 
10.8948 1.81997 0.900531 21.7485 4.63443 3.85669 28.124 7.42056 4.9708 
29.2559 8.07839 4.7489 28.1486 7.68937 4.13675 23.7343 7.52949 2.27334 
23.9906 7.85077 0.873532 24.5768 8.06066 1.91028 14.456 6.53233 4.9918 
14.3662 7.39657 5.66613 15.1405 5.96185 5.22587 15.0507 6.8261 5.9002 
15.201 6.92312 4.64661 29.0719 4.01329 3.22128 28.0041 4.24774 3.07141 
28.9323 4.18917 2.27989 29.114 3.29329 3.00317 28.0463 3.52775 2.8533 
28.1859 3.35186 3.7947 14.741 6.21006 7.3231 24.2597 6.27588 7.98882 
24.2004 6.43477 9.25089 23.8121 7.21693 8.20638 20.0618 6.59001 8.94224 
20.5065 5.40396 9.23864 21.1899 6.54793 9.1825 14.8025 7.78166 6.38784 
14.9529 7.87868 5.13425 15.6374 7.3082 5.36832 17.7346 0.852434 2.83438 
17.2593 2.02836 2.45185 17.9943 2.16894 2.94503 24.0214 9.11477 3.71956 
18.754 9.0292 7.46868 19.9781 9.12604 6.94197 17.5673 1.17592 1.50212 
18.8215 0.78775 1.51738 23.1471 1.35021 1.91986 10.8948 1.8067 9.08486 
10.8948 1.44688 9.45682 11.0321 1.56332 8.42702 11.9269 1.92713 8.97019 
11.0321 1.92314 8.05505 22.482 8.93874 7.32284 22.3977 8.93874 7.85627 
21.5254 9.04422 7.41157 21.441 9.04422 7.94499 21.8646 7.98296 7.99972 
22.0281 0.516401 0.516401 26.4734 6.29399 0.90133 26.503 7.04608 1.93808 
14.0715 5.67974 3.95504 13.2063 6.4475 3.77403 13.9299 6.91764 4.4942 
12.3629 5.24549 8.72595 12.5731 4.36769 9.07885 24.7623 1.04637 5.89956 
17.4838 1.91555 7.21776 15.5238 4.23994 5.81553 15.4167 3.5041 6.72242 
16.3686 3.90214 5.9268 16.1164 5.23536 5.70228 16.0094 4.49953 6.60917 
15.1645 4.83732 6.4979 19.2555 1.26965 5.9883 19.9241 0.86286 6.4081 
19.5884 0.698544 5.66507 19.9858 1.5614 5.94819 19.3172 1.96819 5.52839 
21.1296 0.881123 0.881123 21.5788 0.516401 0.881123 21.3492 0.973482 1.8546 
21.3492 1.8546 0.973482 19.3513 0.774971 8.0196 18.6442 1.8715 8.16645 
19.802 1.63783 7.59931 24.8854 8.17255 5.79463 24.9928 7.61064 6.65598 
25.8614 7.37292 5.74934 26.1869 8.19469 5.74915 26.2943 7.63278 6.6105 
25.3184 8.43241 6.65579 17.7166 3.06157 8.02713 11.0164 2.84476 1.70573 
11.5425 2.2962 1.01454 10.5261 3.11188 0.691194 10.9105 3.99959 1.5997 
11.4366 3.45104 0.908503 11.9268 3.18392 1.92304 22.0406 5.35215 8.9833 
22.7845 5.54719 7.72124 22.9726 5.80034 8.73794 22.8196 4.90034 9.15877 
23.5635 5.09538 7.89671 22.6315 4.64719 8.14207 22.27 2.02524 9.01223 
21.7606 2.74424 8.08102 22.2056 1.69378 7.82836 17.7568 7.12342 2.32535 
28.1449 8.86814 5.86108 27.741 7.77462 6.6279 28.1495 8.90648 7.04613 
27.5867 9.22728 6.44482 27.1781 8.09542 6.02658 25.2509 4.73705 2.73772 
25.1771 4.81423 3.74808 17.7786 9.32255 9.32255 17.9332 9.0292 8.02533 
16.7234 9.10349 8.49851 24.4635 8.79825 5.11733 25.4757 8.96741 4.99045 
29.0298 3.30807 6.88057 27.9031 3.06205 7.18372 28.8733 2.43258 7.51423 
29.2814 3.6074 7.88551 28.1547 3.36138 8.18865 28.3112 4.23687 7.555 
16.608 6.20039 0.768149 16.6629 5.7228 1.85267 16.9008 5.47911 1.08452 
17.1931 6.18848 1.24029 16.9552 6.43218 2.00844 17.5654 3.85116 7.10384 
23.5364 3.04091 8.71578 22.6681 3.48889 9.06879 23.7525 5.08336 2.00163 
24.4952 4.93668 2.4214 16.3636 3.91354 4.1045 15.6756 3.81619 5.01699 
16.6181 2.68429 4.09611 15.9301 2.58695 5.0086 16.7302 3.40874 5.01152 
15.5686 3.08036 5.92388 16.6232 2.6729 5.91841 23.1086 3.75152 6.88956 
22.7492 4.10818 6.01718 23.3518 2.97363 6.55918 22.4835 3.42162 6.91219 
22.2403 4.1995 7.24257 16.0766 6.59216 4.0245 15.3426 5.68522 4.10745 
13.1352 4.10088 7.11097 11.7634 0.905345 9.11897 11.4027 0.535941 9.11897 
11.5662 1.55773 8.97019 11.9007 1.02179 8.08916 22.9582 4.54072 7.33255 
23.5608 3.40618 7.87456 22.6925 3.85416 8.22756 14.0528 4.33994 4.04795 
16.656 0.819023 7.5838 16.3075 1.73697 7.38706 25.9775 8.21603 2.77187 
26.5313 7.67377 3.49512 25.3654 8.37718 3.59979 18.1473 7.69908 1.08506 
19.053 7.5005 0.978702 29.1227 1.34483 9.45682 29.1227 1.70465 9.08486 
28.8733 1.99463 7.99354 27.9961 1.89658 8.90869 28.8733 1.63482 8.36551 
19.1952 4.38374 8.76315 19.6051 3.51433 8.95778 29.1249 8.27406 9.09865 
29.1249 8.64603 9.45846 28.8728 7.99133 8.00512 28.8728 8.3633 8.36494 
27.9978 8.09568 8.90648 29.1249 9.45682 8.64767 29.1249 9.08486 8.28785 
27.9978 8.90648 8.09568 21.1296 9.11888 0.881123 20.7602 9.45687 0.881123 
20.971 8.4732 0.983673 21.3404 9.01633 1.8648 21.3404 8.1352 0.983673 
21.5788 0.881123 9.4836 21.1296 0.881123 9.11888 21.338 1.86889 9.01223 
21.338 0.987769 8.13111 21.7873 0.987769 8.49583 18.4546 0.87339 3.32406 
17.8811 1.72582 3.74426 29.1249 0.901353 8.27406 29.1249 0.541537 8.64603 
27.9983 1.09328 8.09789 24.3153 0.72902 8.01791 23.9708 2.03751 8.00279 
24.9228 1.73454 8.27008 13.2278 7.53116 7.34386 12.4022 6.62687 7.60995 
12.4607 6.8146 6.8467 23.3526 0.74167 2.4438 22.6402 1.71515 2.37981 
23.5061 2.09188 2.28872 22.6308 3.20964 1.80171 25.873 4.42769 7.35789 
26.6414 5.37522 7.81334 25.6166 5.23241 6.96148 16.3107 9.08083 2.39556 
17.4711 8.91328 2.56145 16.4328 9.17245 3.41226 16.9351 8.08573 3.02093 
11.7123 1.01454 2.83785 12.0576 2.05516 3.2162 11.7372 1.04062 4.02497 
12.2307 0.670003 3.5464 12.576 1.71062 3.92475 12.5511 1.68454 2.73763 
29.2767 9.52597 5.63918 29.1227 1.34641 0.541439 29.1227 1.71791 0.900531 
28.1387 1.67677 1.04414 29.0159 1.78809 1.94468 29.0159 1.41659 1.58558 
11.2823 5.76757 7.51019 11.2823 5.55864 6.94852 10.7545 6.33859 7.10826 
10.7545 6.12967 6.54658 12.0368 6.062 7.04997 15.8144 0.925211 2.17195 
15.6095 0.925211 2.72268 16.5708 0.852434 2.87403 16.3659 0.852434 3.42475 
16.4047 1.77764 2.5525 26.6041 6.00874 5.95234 26.8197 6.1575 7.14065 
25.7949 6.01469 6.28879 23.9709 1.39922 2.06388 23.386 3.83011 9.15877 
20.7219 8.17026 7.22029 21.3394 9.12604 6.54342 22.3925 8.84823 6.52155 
21.589 7.97427 6.33028 21.775 7.89245 7.19843 11.4289 9.09466 0.535941 
11.7895 9.09466 0.905345 11.5398 8.99608 1.53986 11.9005 8.99608 1.90927 
11.9005 8.09073 1.00392 23.793 6.9511 1.66257 17.4105 9.18513 3.35018 
17.9128 8.09841 2.95885 16.8745 8.35758 3.80966 19.2544 5.71799 7.70539 
19.5667 5.0709 6.88811 19.6991 4.53193 8.00179 26.5789 9.41585 9.18971 
27.4469 8.32232 8.90648 21.9928 6.15215 9.1825 26.8572 7.31198 7.21182 
27.7081 6.65846 7.74178 28.0112 5.87815 6.93896 28.0487 7.03264 7.01012 
27.1602 6.53167 6.40899 10.6838 9.2761 6.31808 11.4438 9.2358 5.5104 
12.1914 9.28613 6.44712 22.6284 7.84037 5.05416 22.3238 9.04212 5.04556 
22.1602 8.1376 4.21722 21.9922 6.20016 3.55413 22.7694 6.94257 3.55723 
22.0159 7.44855 3.46477 21.8536 6.5338 4.42444 22.6308 7.27621 4.42753 
22.6071 6.02781 4.5169 11.8037 8.88138 7.04168 14.217 8.64978 6.8573 
14.8037 9.13188 6.32541 15.2432 9.30102 6.91224 15.8287 8.4329 6.44277 
22.7316 7.78697 7.1097 10.8686 0.901353 8.20382 10.8686 0.541537 8.57579 
23.2376 6.64534 4.39417 23.0991 6.97898 5.26447 16.3351 2.23868 9.34036 
15.9866 2.43543 8.42241 17.1629 2.61401 8.25311 27.1814 3.86789 1.8872 
26.4583 3.76949 0.822188 26.0848 4.3005 1.92755 17.1206 7.32912 2.66922 
26.8525 7.27365 6.02677 28.044 6.99431 5.82507 28.9323 3.60418 2.40102 
29.114 2.70829 3.1243 20.7602 9.45687 9.11888 20.6493 8.50109 9.04422 
26.5777 2.58658 5.81227 29.1637 3.62507 1.9752 28.0959 3.85953 1.82532 
29.1637 3.04008 2.09633 20.6742 6.57221 5.71381 20.7348 7.2211 4.82037 
21.4666 7.43534 5.86001 21.9372 6.57395 6.07033 21.9978 7.22285 5.17689 
21.2055 6.35971 5.03069 29.1227 0.543116 1.34473 29.1227 0.91462 1.70383 
28.1387 0.873474 1.84744 12.0953 6.24973 6.28672 22.787 5.04195 1.21259 
22.8665 5.38023 2.19096 22.3083 5.94359 0.978372 22.0948 4.66208 0.919318 
22.1743 5.00036 1.89769 15.0003 9.51722 0.482783 15.3264 8.59804 0.919172 
15.3264 9.08083 1.40196 14.4238 9.03421 1.60455 14.4238 8.55142 1.12176 
18.9783 0.698544 5.71138 19.1256 1.57193 4.71955 19.773 6.02015 9.30233 
19.6566 5.02723 8.54096 19.2119 6.21329 8.24456 10.7881 7.91062 3.55312 
10.696 9.30857 3.65368 10.76 8.54437 4.18309 21.413 5.88465 5.86044 
20.6812 5.67041 4.8208 21.9442 5.67215 5.17731 18.6888 8.72784 6.01755 
18.1972 9.0292 6.81158 15.0763 5.7019 5.97786 14.9865 6.56615 6.65219 
15.8213 6.09269 5.63267 15.3498 3.0271 1.01667 15.1837 2.70557 1.94188 
15.8144 2.17195 0.925211 16.1386 3.05839 0.75829 15.9725 2.73687 1.6835 
15.5079 3.59201 1.77496 23.1201 7.64869 8.95549 24.1109 6.98814 9.25089 
20.7621 0.539531 0.881123 20.9818 1.51301 0.973482 16.7928 5.91351 3.4433 
16.0588 5.00657 3.52624 16.6017 5.674 4.29947 20.7727 5.23591 5.60868 
20.0339 5.92347 5.46205 14.6144 6.34717 4.72827 15.5732 7.04825 6.12031 
11.0164 1.73657 2.85122 10.696 0.722031 3.65999 11.0413 1.76265 4.03833 
10.8948 8.1933 0.915145 10.8948 8.55312 0.543179 11.0057 8.09473 1.91907 
11.0057 8.45454 1.5471 15.3212 0.917951 8.00749 14.4416 1.09362 7.78227 
23.8704 4.25501 7.52595 24.0207 3.46581 7.08297 23.4181 4.60035 6.54096 
19.8755 2.56656 5.13342 19.9796 1.60099 4.2881 16.6991 4.18358 6.85754 
16.8061 4.91942 5.95065 16.4468 5.5168 6.63302 10.8948 2.17887 0.516055 
11.0164 2.28806 1.5306 27.7956 5.7294 5.75064 23.6614 3.82247 6.21058 
10.6838 9.48394 6.88416 10.5328 9.48394 7.48826 11.1199 8.36533 7.61048 
11.6527 8.88138 7.64578 19.0146 5.88892 0.668971 19.3307 5.71497 1.93729 
19.7538 6.49482 1.64767 20.3471 7.23205 3.5916 19.1971 6.81382 3.12909 
20.0887 6.28791 2.99916 20.5906 6.53205 4.06792 19.4406 6.11383 3.60541 
19.699 7.05796 4.19785 24.3735 3.12291 7.79373 24.1987 3.54684 9.07795 
24.2231 3.9121 8.23672 23.8667 7.20283 7.08857 24.5714 8.23147 7.37563 
24.4212 7.02403 7.76294 24.0875 6.20021 6.76034 24.7921 7.22886 7.0474 
24.2376 7.40766 6.37304 20.971 7.51926 6.5528 20.2392 7.30502 5.51315 
25.2136 6.60803 6.32775 25.1062 7.16994 5.4664 18.3439 3.15576 5.91527 
19.359 3.11398 6.20662 23.9736 7.96508 7.98049 24.2724 7.73629 9.025 
24.9644 7.30453 8.27588 14.3321 0.715012 9.51724 13.7792 1.80863 8.85683 
24.5113 4.72092 8.1368 24.6644 5.62092 7.71597 25.2075 5.90142 8.22892 
24.1067 5.37588 8.40966 28.1917 2.94917 8.90869 27.4566 3.02045 8.02362 
27.9017 3.78306 9.11493 28.5998 4.12399 9.27997 27.8647 4.19527 8.3949 
11.2823 5.24549 7.67108 26.5807 6.65168 4.31464 25.2872 6.42601 4.70042 
26.0402 7.20773 4.99864 10.8948 9.45846 1.44852 10.8948 9.09865 1.82049 
19.1238 1.3165 2.55184 19.0107 0.87339 3.35107 23.4225 7.81699 0.873532 
22.907 7.24797 1.8519 22.9034 6.85088 0.978372 23.7894 6.55401 0.789039 
23.2738 5.98499 1.76741 11.9507 9.2358 5.40208 12.6984 9.28613 6.33879 
24.0068 8.79825 5.50704 25.6109 3.82366 3.36339 24.9537 3.17744 2.71718 
25.7339 2.81585 2.81585 25.8466 2.55246 3.78958 25.1894 1.90625 3.14337 
25.0663 2.91405 3.69091 12.042 5.00845 7.9617 11.8403 4.76297 9.23574 
12.2521 4.13065 8.3146 25.5534 2.85083 6.26559 24.9225 3.11294 7.09564 
25.8745 2.80997 7.36293 15.6377 4.82789 4.17707 16.7847 4.09222 3.45368 
16.8968 4.81667 4.36909 23.7056 5.47262 8.73794 23.5525 4.57261 9.15877 
24.4683 2.39527 3.0895 24.3453 3.40307 3.63704 24.581 2.13187 4.06322 
28.8728 8.18258 7.06687 29.2767 9.2761 6.30006 28.8681 8.14424 5.88182 
27.873 3.12556 6.02946 29.0298 3.74621 6.08819 28.8432 2.93423 5.56758 
27.9151 3.19272 4.76083 29.0719 3.81337 4.81956 28.1017 4.0047 5.28144 
10.5328 0.901353 7.84664 11.5649 1.02179 7.73198 23.9888 6.98394 4.71665 
23.5206 7.28117 3.87971 21.3829 7.39519 4.21413 18.6968 8.91328 2.31916 
19.6025 8.7147 2.2128 15.5117 5.47665 7.05557 24.8336 9.37107 0.610179 
25.3196 8.32469 1.03675 25.2414 8.95362 1.64693 24.0908 9.10704 1.48371 
24.1689 8.4781 0.873532 15.3187 1.99977 0.925211 14.8541 2.85492 1.01667 
14.5976 5.29443 4.45264 13.8694 5.95638 5.07346 20.5118 7.06777 2.70954 
19.6201 7.59368 2.83946 19.4378 8.87898 3.09486 18.7144 7.79226 2.94582 
15.3682 6.97335 1.00196 15.8165 7.83409 0.919172 16.0113 7.30287 1.68732 
16.1753 6.9753 0.768149 15.563 6.44213 1.77011 14.0026 8.94377 7.62341 
22.8812 8.84823 5.71648 23.1859 7.64648 5.72508 22.0846 7.89035 5.6375 
15.8777 5.00965 2.75163 16.6117 5.91659 2.66868 17.1368 4.99844 2.94365 
13.1866 3.95903 9.07885 13.6763 5.19412 9.16116 23.2407 8.40707 8.95549 
24.3931 8.49467 9.025 18.684 2.34266 8.91275 19.5949 2.70314 8.95778 
11.0682 0.535941 0.535941 11.5505 1.01454 1.55048 29.0298 4.46583 5.77043 
28.6197 5.10029 5.14239 29.0719 4.53299 4.5018 27.6916 4.63916 4.6534 
19.153 4.89825 1.54603 12.1574 0.512136 0.905345 12.279 1.52668 1.01454 
22.5879 7.05945 9.1825 24.7867 9.02634 7.77207 23.6344 8.93874 7.70257 
24.2322 9.20514 7.09771 23.4191 8.14388 7.30613 25.925 5.96193 4.67036 
28.3573 2.3668 8.90869 28.7654 3.54163 9.27997 15.7639 4.14344 7.28009 
24.8426 9.20514 6.55217 25.7112 8.96741 5.64553 26.1441 9.22728 6.5067 
26.7451 7.83556 5.16541 26.1039 8.96741 4.56555 27.0951 8.86814 4.84298 
27.1196 9.13695 4.00893 26.7697 8.10436 4.33136 25.232 3.96178 6.74704 
24.6516 3.2037 6.25292 19.7807 3.30133 7.2386 19.5067 6.90682 5.24584 
20.2385 7.12106 6.28548 20.5235 2.93156 5.06965 20.6276 1.96598 4.22434 
20.2981 1.76208 5.1414 15.3208 8.00627 0.919172 14.8725 7.14553 1.00196 
19.2859 7.11941 6.85099 19.5982 6.47232 6.03371 17.0644 0.721205 9.32255 
17.8922 1.09653 8.2353 12.2561 5.96179 7.9955 10.9738 6.23839 8.05379 
11.7283 6.53282 7.59357 12.1884 3.691 9.07885 12.5245 2.88947 8.04905 
11.7281 2.8451 8.97019 11.4557 4.08628 9.23574 11.7918 3.28475 8.20594 
23.612 1.76649 9.287 23.796 2.46144 9.287 23.1943 5.64671 0.789039 
27.0568 6.50382 2.66133 10.5261 2.55518 0.516055 19.7343 9.38019 0.543129 
20.0878 8.7147 1.52183 25.5848 3.61887 7.4578 25.3255 2.81993 8.06102 
24.6306 6.48071 7.27329 23.2686 9.14273 9.4974 22.451 9.14273 9.4836 
22.4247 8.93874 8.43909 22.8476 8.08147 8.95549 23.2423 8.93874 8.4529 
25.9908 8.22982 4.17911 20.6924 4.491 6.47824 21.556 4.29602 7.33658 
20.8248 3.95203 7.59191 13.7795 6.82062 5.74779 27.2651 2.52955 1.86633 
26.8226 2.23618 0.822188 27.5894 1.45358 1.04414 27.2244 1.54414 2.27 
26.7819 1.25077 1.22586 26.4576 2.32674 2.04805 19.3732 9.15537 7.98884 
19.931 8.28141 7.399 18.707 8.18458 7.92571 15.9993 0.925211 1.64642 
16.7557 0.852434 2.34849 29.1759 5.62323 5.59904 28.2057 5.09494 6.37868 
24.0164 0.804001 5.6422 10.8948 0.516055 2.17887 11.0164 1.5306 2.28806 
16.1806 5.49531 4.95029 15.7389 4.55543 4.87443 24.1004 2.45776 8.71578 
24.7627 2.96369 9.07795 14.4837 4.70648 6.09111 27.6131 3.89594 7.38996 
19.4716 0.78775 1.45964 20.0183 7.51762 7.11831 18.7943 7.42078 7.64502 
19.4134 7.54695 8.16517 20.0878 8.17157 0.978702 20.668 7.73103 1.96238 
20.4572 7.83358 0.978702 23.3229 3.58951 2.09498 14.0329 9.03421 2.72571 
14.3675 8.7468 3.81022 15.0576 9.17245 3.53981 18.8019 0.774971 8.0395 
15.9714 6.84269 7.74374 15.606 7.39379 8.36731 16.6245 6.47564 8.30692 
27.8133 8.86814 5.22142 27.8378 9.13695 4.38737 15.8179 5.90947 2.34268 
15.0839 5.00253 2.42563 16.1618 4.99439 1.84303 16.2014 5.16071 7.30394 
15.3208 9.08083 1.99373 15.8165 9.08083 2.16591 15.4429 9.17245 3.01043 
15.9386 9.17245 3.18261 21.0812 0.987769 7.76601 20.206 0.774971 8.37258 
19.9491 0.774971 8.00749 20.4145 1.76274 8.26593 17.06 7.60096 3.45796 
22.9929 6.29751 0.978372 23.8789 6.00064 0.789039 11.5145 7.55232 5.67674 
12.0065 6.90438 5.25243 11.4932 7.41853 4.85806 11.4877 6.49924 5.82936 
24.3601 1.87829 9.287 24.6331 2.54344 8.36495 27.5018 2.50321 8.90869 
26.6809 2.0988 7.89176 26.436 2.41545 8.98308 27.2117 3.3371 9.11493 
26.3908 2.93269 8.09801 10.5341 0.543116 1.07738 14.7237 3.41815 5.81261 
26.9007 0.886136 4.79026 26.0392 0.821427 4.91472 26.6214 0.77692 6.1098 
15.8098 4.08818 2.35306 23.5476 1.43503 8.10313 10.5341 1.07906 0.541439 
28.8733 2.3668 8.39263 29.4839 2.54705 9.48394 29.2814 3.54163 8.76391 
10.8837 4.68033 7.06146 12.166 4.92582 6.84229 11.6434 4.4433 7.35208 
10.7597 4.76297 8.18087 25.7905 6.02874 7.28338 17.0638 9.2788 0.677562 
17.8753 8.91328 1.76262 19.1943 4.62577 4.19686 19.2671 5.06061 2.96518 
18.8658 5.43484 3.76832 19.3677 5.67898 4.83709 19.7691 5.30475 4.03394 
10.703 2.49657 3.44737 11.7194 2.78908 2.62523 11.7443 2.81516 3.81234 
17.0644 9.2788 9.32255 16.3503 9.2788 9.2788 16.0093 9.10349 8.45475 
16.0093 8.38229 9.17596 19.8647 0.902442 2.91962 29.0159 1.38953 2.31767 
28.2943 1.59658 3.2675 29.2784 1.23916 3.49688 29.114 1.83199 3.06182 
28.3924 2.03903 4.01165 28.13 2.18941 2.83244 23.6618 9.46833 9.4974 
24.3947 9.02634 8.5224 26.9402 2.89773 7.28854 27.7165 2.25007 6.66311 
26.9101 2.96124 6.13428 10.696 3.65353 0.691194 11.6064 3.99269 0.908503 
24.2487 5.75311 9.25089 10.703 3.60476 2.30188 11.6135 3.94392 2.51919 
22.744 4.42287 1.21259 22.0519 4.043 0.919318 17.9008 9.33219 6.19189 
17.7915 8.3614 6.78586 18.2831 8.06003 5.99184 20.7109 3.54474 4.20754 
20.4582 3.80249 3.37356 20.815 2.57916 3.36222 13.4583 7.31086 2.60787 
27.1483 9.41585 9.41585 27.4469 8.90648 8.32232 28.112 5.89165 8.83531 
27.0207 6.15781 8.00912 27.4621 6.54548 9.17381 28.6048 6.44633 8.98708 
27.5135 6.71249 8.16088 28.1634 6.05866 7.82239 24.8503 9.11477 4.41112 
10.5341 1.07748 9.45682 18.4552 3.05206 4.95455 19.5426 3.13767 5.45664 
21.7605 2.08635 9.01223 21.9745 2.85506 9.06879 10.696 0.516055 3.09683 
10.5261 0.516055 2.55518 11.5425 1.01454 2.2962 10.8948 2.17887 9.48394 
11.0321 2.29531 8.45414 12.0404 9.28613 7.05122 23.8733 8.00339 5.92151 
23.5687 9.20514 5.91291 23.3295 8.05336 6.50484 16.9825 3.46927 6.40631 
17.0896 4.20511 5.49942 17.3441 2.97586 5.49103 25.5473 7.43185 7.33034 
10.9243 2.04857 6.065 11.7638 2.62857 5.44985 10.8395 3.01153 5.42902 
10.7711 2.69994 6.43922 11.6107 3.27994 5.82407 11.6955 2.31699 6.46006 
22.2136 1.86754 5.16719 22.8506 1.69612 4.51424 21.583 1.95566 4.42469 
21.2997 2.80097 5.02358 21.9367 2.62955 4.37064 22.5673 2.54143 5.11314 
21.4449 2.6502 2.65018 21.8944 1.8656 2.85935 14.787 4.15739 5.67005 
26.1698 6.81133 7.47915 18.9655 5.14813 8.06548 20.2003 8.7147 2.22581 
21.0835 9.01633 2.23078 20.8807 9.17967 3.01768 21.3484 8.196 2.75424 
20.4652 7.89437 2.74927 21.5943 1.9545 5.70591 22.8619 1.69496 5.79547 
21.948 2.62839 5.65186 28.2477 0.803295 9.1892 26.4566 3.45196 9.11493 
25.6809 2.5303 8.98308 25.3912 3.3392 9.07795 26.1012 3.74159 8.19288 
27.5285 1.75961 2.97823 27.8309 0.886136 3.78998 28.3343 0.873474 2.90003 
28.5968 0.723103 4.07924 27.7909 1.60924 4.15744 21.6378 5.67181 2.03869 
21.5583 5.33353 1.06032 17.9505 4.6158 2.7362 17.622 4.28009 3.88788 
21.8827 4.18955 6.52706 22.1793 4.99253 7.15708 21.3157 5.18752 6.29874 
18.8237 7.94117 9.22293 18.5157 7.34072 8.33851 10.7545 7.26164 5.82402 
10.76 8.18092 4.85272 10.7332 7.12785 5.00534 25.3858 6.6837 7.55623 
24.094 7.00077 5.59328 23.6026 3.54974 3.21727 14.4182 7.95965 1.12176 
17.2009 4.1014 4.5387 17.4554 2.87216 4.53031 28.2499 9.1892 9.1892 
18.6852 4.70962 8.76315 17.8948 4.34824 9.11438 15.8823 2.35179 3.83521 
15.5807 1.68245 3.16588 15.9499 2.51976 2.51976 16.7063 2.44698 3.22183 
16.3371 1.60968 3.86796 16.3145 7.60512 0.919172 17.475 7.43758 1.08506 
17.1717 7.13533 1.85321 16.6733 6.74633 0.768149 24.2696 4.65146 4.17491 
23.2271 5.40592 4.36585 23.9783 5.74453 4.68833 19.0948 2.56264 1.31774 
18.3598 2.42206 0.824558 19.614 2.03389 0.83982 18.4808 0.87339 4.49973 
19.0053 0.698544 4.98534 12.1312 0.512136 9.11897 12.2948 1.53392 8.97019 
10.8948 9.48394 2.17887 11.0057 8.48002 2.27744 26.3001 2.58137 6.63348 
27.1066 1.8702 7.16231 25.6607 7.6963 1.03675 26.4362 6.83514 0.90133 
24.683 3.97174 7.44513 11.0435 0.535941 9.49337 11.5415 1.02179 8.46356 
23.1096 8.20252 2.60746 23.2487 9.10704 2.26502 22.9322 9.09548 3.12542 
23.7872 9.11477 3.25616 23.9646 8.22181 2.7382 25.3207 1.04637 6.08727 
25.6417 1.00552 7.18461 26.0674 0.77692 6.45516 26.0408 1.78244 7.2367 
28.2455 0.803295 0.803295 20.9687 0.987769 8.4691 19.8366 0.774971 8.71057 
14.7724 3.65482 7.4542 19.8863 4.26285 9.23864 20.1089 3.66252 8.19642 
15.062 5.71372 1.76048 15.0464 2.00304 2.58974 14.9788 1.83508 3.9052 
10.9243 1.88769 5.54292 10.8395 2.85064 4.90694 22.4853 3.05501 7.06906 
22.126 3.41166 6.19667 22.9769 2.19945 6.88288 22.6175 2.55611 6.01049 
21.751 2.63748 6.52037 17.6379 1.97825 0.824558 17.8478 0.802324 0.677562 
18.892 1.59007 0.83982 24.1887 2.43503 1.96722 24.249 3.16515 2.83824 
23.9693 3.20491 1.71596 24.8573 2.93952 1.91838 13.102 6.98416 8.04516 
20.9786 5.98883 3.547 19.8285 5.5706 3.08449 21.0809 6.59596 2.50969 
19.9309 6.17773 2.04718 20.8208 5.87865 2.59502 21.617 3.50299 7.42206 
17.701 3.30855 9.11438 24.0656 3.44283 2.51476 24.7343 3.94732 2.46592 
28.8681 7.81326 5.22142 29.2559 7.49754 4.74938 10.5261 2.55518 9.48394 
10.696 3.09683 9.48394 11.5582 2.30345 8.97019 13.7053 7.84775 4.1194 
13.5562 9.10095 3.51708 13.3706 8.13516 3.0349 23.3582 6.36642 4.83938 
14.9355 9.08083 2.52312 15.5419 0.757244 4.03813 12.1574 9.48786 0.905345 
12.2684 8.48394 1.00392 18.4728 4.50132 0.877063 19.0425 5.16332 0.668971 
22.1086 2.64743 7.23588 11.0682 9.46406 0.535941 11.5398 8.46014 1.00392 
18.6702 9.31375 5.56303 19.0524 8.04159 5.36298 19.2808 9.31375 5.51605 
13.4745 2.67576 4.9944 14.0438 1.92255 4.27809 13.3563 1.51472 4.33665 
13.7571 1.74783 3.38763 13.1877 2.50104 4.10393 29.2784 1.77798 4.72336 
28.1216 1.87989 4.97778 28.8432 2.21167 5.25442 29.114 2.37081 4.28829 
27.9572 2.47272 4.54272 10.5094 0.541537 8.95019 18.9727 3.36426 0.877063 
19.8424 2.91076 0.897201 19.575 2.98113 2.21494 19.4529 3.78274 1.77426 
21.7716 0.973482 2.07207 22.0972 0.892117 2.98446 22.843 0.74167 2.50491 
22.9658 1.63379 3.2922 22.7272 8.01957 0.873532 22.4887 8.12337 1.85721 
21.7897 7.92886 0.983673 22.208 7.05347 0.978372 21.9695 7.15726 1.96205 
21.082 2.23709 9.01223 19.9499 2.0243 9.2537 20.206 1.65609 9.2537 
20.3304 5.81474 4.15325 23.8758 9.10704 2.06508 25.0265 8.95362 2.2283 
24.4143 9.11477 3.05621 18.428 6.14896 3.2998 18.3552 5.71411 4.53148 
18.9299 6.3931 4.36856 23.2368 2.46915 5.47177 22.3229 3.40257 5.32816 
20.3908 9.45687 0.543129 22.0281 9.4836 9.4836 22.4247 8.42234 8.95549 
21.384 9.04212 4.98329 21.1933 9.17967 4.27057 20.4966 3.59085 6.63409 
19.9296 4.58882 6.40578 20.0619 4.04985 7.51945 19.9133 5.46572 2.32864 
20.9055 5.77376 1.83917 19.6558 6.77719 0.978702 19.6247 5.84261 0.668971 
26.4922 8.95362 2.44669 26.8122 7.92732 2.06462 27.5769 8.9737 2.4378 
26.7423 9.26241 3.14505 27.0622 8.23611 2.76299 12.9835 5.16642 5.99482 
29.3184 9.52597 4.35541 28.2111 9.13695 3.74326 17.1408 1.08975 5.00157 
17.1293 0.819023 5.80501 18.6427 5.20491 9.30233 18.1751 4.78676 8.4167 
15.0436 4.27399 1.77518 22.377 9.09548 2.83181 22.6934 9.10704 1.97141 
23.5199 4.71422 1.21259 23.9272 5.31898 0.789039 20.5441 7.35866 4.10766 
13.6168 9.28613 6.68687 13.6155 7.93591 6.7493 13.4011 8.2299 7.5154 
15.3796 5.15281 5.5568 13.0651 2.40809 3.2556 21.468 9.04422 8.52782 
18.0554 4.99768 4.35913 18.4568 4.62344 3.55599 18.1283 5.43252 3.12746 
22.9049 8.93874 7.90569 23.5027 9.20514 7.30083 12.6942 2.87166 4.58249 
12.8628 1.88534 4.81522 22.5667 5.98802 2.80167 16.8444 3.5482 7.53122 
16.3467 4.52533 7.97762 17.2819 4.56547 7.55507 27.2878 0.886136 3.9039 
28.0537 0.723103 4.19317 20.354 6.95759 1.75756 22.5613 6.39091 7.11467 
23.0925 6.17842 6.43154 23.1113 5.44072 6.91172 22.4873 5.62376 5.86738 
21.956 5.83626 6.55051 24.2052 4.59769 9.15877 25.3061 5.12323 8.97803 
24.9014 5.77819 9.25089 23.2151 6.56338 2.37818 16.2602 6.81459 9.19135 
17.9454 7.1274 3.11654 18.6864 7.09309 3.89224 17.4912 1.09653 7.43704 
16.9691 0.819023 6.8293 12.668 6.12496 9.26955 12.0544 5.71631 9.26955 
10.696 3.66291 9.2761 11.0321 2.86139 8.2463 10.7597 4.10257 8.51185 
17.1263 5.00076 1.08452 16.3189 6.63788 2.35231 15.8691 5.71568 1.52666 
15.1654 3.56723 1.01667 15.9542 3.59853 0.75829 10.8948 7.82113 0.516055 
11.0057 7.72256 1.51998 12.1757 6.26913 9.26955 18.4979 0.802324 0.619825 
12.5716 2.77871 3.73416 10.5328 0.541537 8.2186 15.8324 4.30529 1.51681 
14.1478 7.31551 0.699689 13.577 7.42428 1.82145 14.0313 6.61015 1.70165 
25.1594 2.70954 4.52687 24.9949 2.93449 5.35406 25.8529 3.69778 5.02697 
18.911 7.17738 8.94224 18.603 6.57692 8.05781 20.157 4.76153 3.51303 
28.8353 5.77407 7.61955 29.1759 6.14825 6.88788 28.504 6.43284 7.09072 
29.3281 6.32875 7.77132 21.3293 5.84449 4.21455 13.9165 1.07783 3.75588 
13.5157 0.844716 4.70491 14.4507 0.757244 4.33201 14.578 1.60196 4.85423 
19.643 0.78775 2.07392 13.0124 6.10406 5.25063 28.2777 2.96365 2.54861 
21.7649 2.83291 1.8928 12.945 6.8925 5.03502 13.3812 7.37143 6.20695 
12.6141 6.65487 5.70979 23.9364 1.15567 0.657548 24.8177 0.497621 0.497621 
25.354 0.497621 0.877528 24.524 1.15517 0.657548 25.0603 0.657548 1.53508 
24.524 0.657548 1.15517 24.8405 7.77007 9.025 24.679 7.02192 9.25089 
23.9364 0.657548 1.15567 17.7779 9.32255 0.677562 17.876 8.23584 1.08506 
14.1806 3.82521 9.14862 23.9827 2.71152 5.72914 11.7967 9.48786 0.535941 
16.8539 1.17592 1.54576 16.5029 2.10113 1.74977 21.8133 6.494 2.70921 
22.5905 7.23642 2.7123 26.4277 7.63606 1.03675 27.2033 6.77489 0.90133 
21.2377 5.74794 8.9833 17.6343 4.81899 5.00996 18.2482 4.38612 5.48946 
18.2535 5.69585 5.38768 17.7088 5.08197 5.87714 17.0949 5.51484 5.39764 
19.1527 4.87904 9.30233 22.024 7.24145 6.53094 22.5553 7.02895 5.84781 
23.1793 6.84592 6.89215 17.6415 0.819023 7.0908 23.2436 4.55751 4.58308 
23.8046 4.09129 3.67289 29.3103 5.27231 1.74563 28.2426 4.98413 1.75576 
28.9323 4.71181 2.11989 29.3022 5.78977 2.35093 28.2345 5.50159 2.36105 
28.6125 6.06208 1.9868 18.9005 4.82642 6.26315 18.8943 5.31665 7.16106 
18.2421 4.87636 6.38737 18.7868 5.49024 5.89791 15.3187 0.925211 1.99977 
26.8184 1.97081 8.90869 25.7527 1.88304 8.98308 20.9706 1.5273 9.01223 
19.8386 1.3145 9.2537 17.42 4.48654 6.43016 17.4253 5.79628 6.32838 
14.4182 9.03421 2.19632 10.5341 8.92252 0.543179 29.4839 0.91462 2.17405 
28.4999 0.873474 2.31767 15.0077 1.07783 3.462 27.3743 3.77843 5.83369 
27.4163 3.84559 4.56505 17.8484 0.802324 9.32255 17.9621 1.89885 8.91275 
10.5341 9.45846 1.07912 29.0719 4.22278 3.78384 28.9323 4.39866 2.84245 
28.0898 5.15222 3.06193 29.1575 5.12726 3.77436 28.2293 4.97634 4.00332 
19.0894 4.24389 2.57392 27.141 0.886136 3.34402 10.8837 4.99349 6.3389 
15.7482 0.757244 4.78359 15.3169 1.64586 5.43472 15.5521 0.888614 5.73697 
16.4726 0.819023 5.84793 16.0412 1.70764 6.49906 16.2374 1.57627 5.54567 
24.0046 3.55326 5.31172 24.6736 4.04544 5.8355 21.3394 9.12604 5.9925 
21.835 9.04212 5.29972 22.3925 8.84823 5.97064 28.8353 5.56514 7.05787 
29.0298 4.78192 6.4976 29.1759 5.93932 6.32621 23.4178 7.51793 3.13374 
26.2238 5.5006 1.10536 27.0275 5.94863 0.90133 21.5467 5.0495 8.9833 
20.8155 4.70552 9.23864 11.6382 5.49685 6.44035 17.6176 5.71179 3.89061 
27.4186 4.67916 7.95024 26.6502 3.73162 7.49478 26.3894 4.5504 8.09296 
13.1704 4.20693 3.25484 14.0398 4.97774 3.38945 13.2929 4.29989 4.10317 
21.4989 5.8495 9.1825 10.4813 0.473928 5.00033 11.5226 1.04062 4.70165 
11.0413 1.51455 4.70198 10.9243 1.30674 5.54325 11.9656 1.87343 5.24457 
11.4056 0.832809 5.54292 25.704 3.61915 4.19935 26.5401 3.54069 4.28968 
18.1408 8.91328 2.29215 28.8733 2.93288 8.18479 29.2814 4.1077 8.55607 
21.1922 7.53274 3.50141 17.7289 6.42425 3.27176 25.6 1.00552 7.72501 
26.0257 0.77692 6.99555 25.5281 3.96812 0.833561 25.1546 4.49912 1.93892 
25.5681 3.51078 1.65575 13.2289 0.670003 3.81444 28.8728 7.51201 7.56718 
29.1759 6.7317 6.76435 29.3281 6.91221 7.64778 28.2009 7.21315 7.89355 
27.4368 8.90648 7.58891 26.8739 9.22728 6.98759 28.7623 0.723103 3.49688 
20.0874 1.69019 2.52534 27.3205 5.06799 1.06501 25.0436 0.821427 3.97435 
24.5068 1.5631 3.46487 24.2483 0.74167 3.32213 24.1332 0.804001 4.54417 
23.5964 1.54567 4.0347 24.3916 1.62543 4.68692 19.1591 0.511034 0.619825 
19.5532 1.29878 0.83982 28.8432 2.76189 4.88087 29.0719 3.64103 4.13285 
29.114 2.92103 3.91474 29.4839 0.516055 2.54705 18.6222 6.60751 9.30233 
18.3142 6.00705 8.4179 23.9916 4.094 2.04615 15.3243 0.925211 1.40799 
15.3243 1.40799 0.925211 15.0003 0.482783 0.482783 14.393 1.03857 1.31555 
14.393 1.52135 0.832769 14.717 1.96378 1.75798 25.151 0.821427 4.55854 
24.9865 1.04637 5.38574 25.7332 0.77692 5.75362 27.4878 6.47137 5.36841 
26.7829 5.84355 5.20164 27.0313 7.10846 5.27607 27.339 6.36648 5.65829 
12.9559 6.31908 8.43071 13.9178 9.25263 4.18269 14.0669 7.99942 4.78501 
13.2556 8.35358 4.49188 26.3407 9.26241 3.85668 27.0065 8.39936 3.62249 
22.451 9.14273 0.516401 22.9442 9.14273 0.902626 23.2203 9.10704 1.77616 
23.15 8.24977 0.873532 22.7271 9.10704 1.38993 15.5506 0.888614 6.94731 
15.3871 1.80656 7.2761 15.8169 0.917951 7.83531 16.4711 0.819023 7.05827 
29.1227 9.45846 1.34647 29.1227 9.09865 1.71844 28.0712 8.9737 1.83116 
28.9484 8.07234 1.94301 28.9484 8.43216 1.57105 14.3323 9.28499 0.482783 
13.7558 8.3192 1.12176 27.8774 4.71181 1.06501 27.7076 4.18162 1.06501 
23.6424 0.498119 0.498119 22.8352 0.516401 0.498119 29.1249 8.64767 0.543179 
29.1249 8.28785 0.915145 28.0734 8.1629 1.02787 23.3534 3.97172 1.21259 
22.6612 3.59185 0.919318 23.6279 9.20514 6.59579 22.9405 8.84823 6.39936 
27.2817 8.86814 5.61008 26.2906 8.96741 5.33265 20.2451 4.75387 9.23864 
19.5116 5.37006 9.30233 12.6943 3.81486 9.07885 11.9616 4.21014 9.23574 
19.406 2.72665 6.88358 20.0746 2.31986 7.30339 22.1136 7.33197 7.33222 
15.7338 9.17245 3.73333 27.0244 3.62589 0.822188 20.1065 4.99142 4.98371 
19.7557 5.13576 4.31617 21.0692 5.12718 4.29988 20.7605 4.35945 5.01455 
19.447 4.36802 5.03084 20.4097 4.50378 4.347 25.5243 0.821427 3.58333 
25.4117 1.08482 2.60961 24.7291 0.74167 2.93112 24.3941 1.82649 2.49115 
26.1943 2.5336 0.822188 26.1536 1.54819 1.22586 26.7081 2.61717 3.66512 
12.8292 3.24174 9.07885 18.2644 8.64594 5.53731 23.2913 9.14273 0.461304 
23.5674 9.10704 1.33484 15.9422 5.18933 8.13639 16.8774 5.22947 7.71384 
17.0227 4.59409 8.38752 26.4954 7.6331 7.47897 17.7038 4.14241 0.877063 
16.89 4.52504 1.08452 16.5605 3.83594 0.75829 29.5437 8.94997 9.45846 
29.0873 9.49315 9.49315 29.5437 9.45682 8.95161 28.6686 9.49315 9.1892 
16.4841 1.08975 5.04449 16.2489 1.84699 4.74223 17.1191 2.3198 9.34036 
28.8927 8.44552 3.71774 29.2559 7.86098 4.07975 17.3326 2.70514 6.29447 
19.1407 6.38181 7.34015 19.453 5.73473 6.52287 18.9258 6.71808 6.30666 
14.9981 2.38582 5.70109 15.6912 2.47177 6.6109 16.0527 1.97836 5.69562 
15.1963 6.44901 1.00196 16.0034 6.45096 0.768149 24.6071 9.20514 5.89709 
28.8353 5.25199 7.78043 26.7217 0.886136 4.04751 25.8601 0.821427 4.17196 
22.4247 7.85128 8.95549 21.468 7.95676 9.04422 19.2634 4.34433 5.78082 
12.3425 8.99608 2.37797 12.7838 9.10095 3.28719 28.6627 0.497801 9.1892 
29.5378 1.03934 9.45682 29.0815 0.497801 9.49315 29.5437 0.541537 8.94997 
26.8781 1.09328 8.0984 27.4373 1.09328 7.59112 26.3716 1.00552 7.66551 
25.8123 1.00552 8.17278 22.1722 8.11181 2.7176 21.756 9.01633 2.08155 
27.4368 7.58891 8.90648 26.7494 7.08825 9.17381 23.0301 8.93874 7.20065 
23.7858 2.05212 3.41101 23.6706 2.11445 4.63305 29.332 2.35404 6.91866 
28.3618 2.98351 6.58816 28.2054 2.10802 7.22181 15.6397 5.09003 8.86324 
15.493 4.26361 9.14862 15.7955 4.36291 8.42177 16.3157 5.15879 9.27314 
13.7769 1.09362 8.14219 12.3689 2.39584 8.97019 21.0596 7.76234 0.983673 
20.1764 7.46072 0.978702 24.4036 5.85839 0.789039 21.963 4.93446 5.65749 
27.4475 1.09328 8.32454 26.3817 1.00552 8.39893 14.7168 1.07783 2.73909 
14.3874 1.03857 1.90733 14.1152 2.1164 2.4973 29.4839 7.81133 9.09865 
28.3568 7.63295 8.90648 26.1943 5.47941 8.97803 27.2235 5.60816 8.83531 
26.9715 4.78334 9.11493 19.3223 2.02111 9.2537 19.5551 2.23197 8.21148 
28.8432 2.37255 5.7765 27.5213 8.9737 1.60828 26.4366 8.95362 1.61716 
15.8243 7.85675 9.17596 15.7621 7.04356 9.19135 26.1475 6.64583 5.85999 
29.5378 0.543116 1.03924 28.6605 0.803295 0.497801 29.5378 1.04092 0.541439 
29.0756 0.497801 0.497801 17.0566 6.74824 6.44007 17.7097 6.38119 7.00325 
17.901 7.22505 6.59046 20.3158 2.56706 2.58272 19.9591 3.79039 2.59406 
20.8217 3.34134 2.5739 11.287 9.31822 8.08963 11.8741 8.19961 8.21185 
10.7542 8.80217 8.05432 26.4114 3.61411 5.93851 12.2684 8.99608 1.51606 
12.5253 9.48786 0.512136 13.1863 9.03421 1.6339 13.1863 8.52207 1.12176 
12.9294 8.03029 2.12568 21.3397 4.23794 5.83699 11.1199 7.60786 8.36794 
11.1199 7.96624 7.98265 10.7542 8.0447 8.81179 10.7542 8.40308 8.42649 
11.7335 5.47927 8.50529 11.8407 9.2358 4.85272 12.5883 9.28613 5.78944 
10.7711 3.32378 7.69324 11.8033 2.50596 7.38733 11.5308 3.74714 7.65288 
16.3336 7.85341 7.06719 17.178 8.33022 7.21758 18.5523 8.47793 9.22293 
27.4468 1.67338 8.90869 26.381 1.58562 8.98308 19.4592 5.24449 5.62496 
12.4242 8.88138 7.51508 12.8119 9.28613 6.92052 29.332 2.79218 6.12628 
29.332 2.2305 6.33521 28.1753 2.17153 6.06755 27.5124 7.65613 1.02787 
27.5877 7.06616 1.9292 20.7644 9.04422 7.79661 27.6444 2.28341 1.04414 
26.8776 3.06601 0.822188 27.6444 0.873474 2.45408 13.8507 4.61657 5.16637 
12.8098 4.3636 4.69019 13.3546 5.31808 5.09489 13.8377 5.25437 4.50787 
12.7968 5.0014 4.03169 18.428 9.32255 0.619825 13.0134 7.82516 8.10997 
13.1978 8.94377 7.85705 20.1132 4.61251 5.6558 25.3971 9.02634 7.22653 
22.2126 8.15905 0.983673 20.6871 2.44477 7.97001 20.2226 2.70632 8.95778 
21.296 3.0058 9.06879 20.9012 3.21347 8.02657 18.243 6.17558 7.51348 
18.4343 7.01944 7.10069 18.2474 6.18609 6.28559 27.1476 0.580103 9.41585 
19.6025 7.4806 0.978702 29.4839 7.45295 9.48394 28.8728 7.63295 8.39042 
29.1575 5.43747 4.49232 27.7772 5.54364 4.64391 28.3334 6.06657 5.10057 
27.2314 1.15679 5.6106 23.5502 7.05075 6.17661 24.2796 9.46833 9.37146 
24.9054 9.37107 9.37146 25.0188 8.3974 9.025 25.0124 9.02634 8.39646 
17.065 0.852434 3.10368 15.0001 9.51722 9.51724 15.3341 9.10349 8.6932 
15.3342 8.62071 9.17596 14.3936 8.46099 9.22597 14.3935 8.94377 8.74321 
28.9484 8.45764 2.30139 28.9484 8.28226 2.85824 28.8927 8.6209 3.16089 
27.8411 8.11065 2.91524 22.7567 3.04788 4.48944 22.216 3.7361 4.52529 
20.2043 7.4358 7.98646 20.7379 7.79024 9.04422 20.0344 7.1376 8.94224 
21.1624 7.09551 9.1825 21.3324 7.39372 8.22672 17.8043 3.01896 0.824558 
18.4172 3.96116 0.877063 17.2739 3.65469 0.75829 17.516 5.69353 4.74681 
20.7833 1.06354 4.35409 21.4203 0.892117 3.70115 20.4649 0.902442 3.50079 
21.2646 1.79456 3.57139 25.5753 3.69257 5.84818 18.0319 7.6201 5.43771 
18.4942 6.94195 4.94023 17.4551 7.10638 4.56044 18.0133 8.20602 4.98319 
18.4756 7.52787 4.4857 23.4262 2.97559 4.84808 22.8855 3.66381 4.88392 
22.7747 7.48587 0.873532 22.2556 6.51976 0.978372 24.9712 4.78056 7.34522 
24.0234 5.15501 7.10512 24.6688 5.60687 6.72139 24.9757 4.7665 6.35063 
17.1337 2.67968 7.3296 20.8884 9.12604 5.67607 28.9323 5.06917 2.68378 
29.1575 5.79776 3.61569 29.3022 6.14713 2.91482 28.4597 6.23018 3.29297 
13.6619 0.715012 9.28536 12.8619 1.02179 8.25556 12.8642 1.7368 8.97019 
12.9792 2.1154 7.82702 25.7875 2.7409 1.90701 25.4835 1.96235 1.08482 
25.7468 1.75549 2.31068 17.2584 6.73443 1.24029 12.6489 9.10095 3.86031 
25.0353 5.82576 7.00044 25.0397 5.8117 6.00585 21.1335 2.74026 4.21552 
23.3311 3.08263 0.882395 14.6988 5.02197 5.15 14.141 4.70528 4.08681 
21.8755 9.04212 4.68794 22.5086 9.09548 3.93858 28.8733 1.60934 7.63516 
29.332 1.53079 7.0396 29.332 1.91609 7.39798 12.2636 3.35186 7.49599 
12.3825 8.88138 8.37186 13.1562 8.94377 8.71383 12.0169 9.31822 8.81571 
12.6477 8.262 8.55381 23.5365 0.74167 3.13875 23.4213 0.804001 4.36079 
21.0935 1.06354 5.03882 21.7305 0.892117 4.38587 26.7235 9.22728 6.19382 
20.0942 2.45237 1.73702 15.4438 5.41276 4.80481 29.3281 7.03315 8.47102 
29.3281 7.39153 8.08572 28.1796 2.52119 1.80446 29.0159 2.26584 2.38015 
22.0281 0.516401 9.4836 21.7873 1.50417 9.01223 18.6286 2.11848 9.2537 
15.1943 2.25445 4.74771 10.9105 4.14673 2.12338 10.703 3.7519 2.82557 
27.6266 2.20207 3.72238 17.4692 0.852434 2.30485 29.3184 9.30857 3.68626 
24.3943 5.35985 6.38959 28.1199 1.15679 5.89408 27.51 0.77692 6.39328 
28.6088 1.01474 6.45279 27.5653 1.79166 6.56675 13.2839 2.46767 8.85683 
13.4395 2.9613 7.93568 26.7972 0.77692 6.93605 13.9295 2.98571 5.66248 
13.7777 3.40946 6.46102 14.0521 2.37712 6.34949 14.8463 2.80956 6.49963 
20.494 5.07923 1.06032 20.2114 4.21297 0.897201 20.6053 4.1955 1.95752 
20.3053 5.311 1.72929 20.0227 4.44474 1.56617 19.9114 5.32847 0.668971 
18.8283 6.37483 5.22477 19.3616 6.16922 5.73499 25.7301 8.95362 2.57097 
25.118 9.11477 3.39888 22.4464 1.22241 8.81613 24.1505 9.20514 6.2868 
18.3926 6.92369 5.79643 17.1631 1.17592 2.30095 10.5328 0.516055 7.48826 
11.0321 1.53784 7.69667 27.5226 8.38955 1.02787 27.147 9.41585 0.580409 
26.4379 8.36947 1.03675 16.6959 7.44466 6.08135 16.4392 7.06859 4.9693 
16.1423 6.72871 5.99273 15.8941 7.68427 6.48037 16.191 8.02414 5.45694 
11.0164 2.4069 2.35055 10.703 3.16691 2.9467 26.4041 2.4017 2.95689 
25.8595 1.49209 3.2844 25.3568 9.02634 7.76787 24.8023 9.20514 7.09351 
28.9323 4.04203 1.7562 29.3103 4.60253 1.38194 29.1637 3.47794 1.45151 
28.4739 4.42003 1.45107 18.0723 4.92684 7.20385 17.9586 5.59066 6.8386 
12.6468 1.66375 7.29813 13.4444 0.641961 7.6133 13.5618 1.73558 7.18476 
27.6584 9.13695 3.86144 26.1038 9.22728 7.04804 24.7832 1.08482 2.2341 
24.1006 0.74167 2.5556 25.9802 9.26241 3.26933 15.6172 3.31702 7.56547 
15.0468 2.62248 7.34267 21.395 7.3694 2.71451 12.9993 9.25263 5.6281 
12.8892 9.25263 5.07874 13.3162 8.53876 5.86818 17.4209 5.78577 7.55627 
18.3567 5.51176 7.87872 17.5663 5.15038 8.22995 10.4813 0.722031 4.33668 
29.3184 4.3554 0.474013 29.5239 4.99919 0.474013 28.6287 4.6282 0.690751 
28.8342 5.27199 0.690751 29.3103 5.27182 1.16476 29.1637 2.56234 1.66085 
16.9124 1.08975 5.48255 16.9009 0.819023 6.28599 18.4125 0.87339 3.95758 
17.6925 0.852434 3.4679 15.3074 7.20217 7.01225 16.0781 6.46876 6.74472 
20.934 1.85063 7.35784 20.4686 0.86286 7.09939 12.7883 8.03843 9.22597 
13.2303 7.56972 9.22597 12.091 7.94417 9.32784 11.649 8.41288 9.32784 
17.9401 4.61812 0.877063 13.1562 8.43164 9.22597 12.0169 8.80609 9.32784 
26.4447 3.38711 2.55322 26.0312 4.37546 2.83639 26.669 4.27667 3.42392 
26.3091 5.19006 2.79824 26.7226 4.20171 2.51507 20.6802 3.61454 5.88411 
27.4057 4.75745 2.75789 19.2632 7.60682 4.76951 14.4335 2.82749 8.00545 
14.233 3.01457 7.1624 14.5075 1.98223 7.05088 22.5536 1.59697 6.98323 
11.7967 0.535941 0.512136 20.2308 3.28809 8.95778 20.512 4.03661 9.23864 
21.3042 3.58757 9.06879 21.1824 3.96199 8.30743 14.566 8.7468 4.70627 
15.2561 9.17245 4.43587 15.405 5.85058 8.0546 14.8798 6.94007 7.65121 
15.6505 6.20667 7.38368 29.114 3.50278 3.56573 14.2022 8.41801 6.21741 
23.4634 6.38325 5.71601 26.9642 4.41289 5.20564 27.3207 6.18073 4.55156 
27.575 6.35177 3.75692 27.6734 6.96378 4.00938 28.4134 6.49283 4.2463 
27.4191 6.79274 4.80402 16.6116 2.40218 6.72185 14.2593 2.34192 5.1206 
13.3133 2.33322 5.769 14.3819 1.73333 5.80761 23.9997 3.58712 0.833561 
17.6661 2.51943 0.824558 10.9105 4.66938 1.96338 10.703 4.27454 2.66557 
12.5253 0.512136 0.512136 12.279 1.01454 1.52668 28.9484 7.6344 2.42233 
28.8927 7.79765 3.28183 27.9389 3.61753 0.760317 27.4128 3.30379 1.58251 
12.8379 8.28107 1.00392 13.4854 7.67506 0.699689 12.659 7.38615 1.70361 
22.1814 0.892117 3.51852 22.9272 0.74167 3.03898 15.0549 0.888614 7.11949 
29.4839 9.09865 2.18867 28.4324 8.9737 2.30139 11.9564 1.85459 7.01311 
10.9243 1.34886 6.7694 10.7711 2.00023 7.14361 25.5146 3.58573 2.56459 
24.1663 4.32962 0.833561 27.3659 7.38506 2.78787 18.9022 3.75414 5.5203 
19.9174 3.71235 5.81165 24.4165 2.35682 4.89042 24.4384 3.19856 4.473 
14.1163 9.25263 5.07874 21.1569 7.43745 7.42095 22.6375 2.4488 0.882395 
21.7716 2.07207 0.973482 21.9676 2.95802 0.919318 23.4822 5.64555 6.19619 
12.8285 5.7034 4.59728 13.3116 5.63969 4.01026 12.5468 2.75263 2.54705 
12.2334 3.51263 3.1432 17.8148 3.66853 5.01821 26.5736 6.26199 9.17381 
11.241 4.76297 9.23574 10.7597 4.76345 8.76172 10.4813 5.00048 9.52597 
11.4551 5.71631 9.26955 10.9738 5.71679 8.79552 17.8158 6.40996 4.91916 
29.3281 5.80667 7.9322 27.8921 6.9891 8.98708 15.9575 2.5011 7.4989 
15.3131 2.65182 8.23067 13.0924 0.512136 9.28536 12.5253 0.512136 9.48786 
12.2948 1.02179 8.45806 17.8848 7.39924 3.90527 17.4225 8.07739 4.40276 
18.443 8.49888 4.32802 11.0413 2.0955 4.70165 11.8808 2.83638 4.60859 
16.2908 3.10063 7.7572 18.6538 8.06411 3.73455 21.8945 1.87873 7.17933 
22.1655 0.890961 6.54629 21.8175 0.987769 7.39143 21.2049 0.86286 6.7248 
21.282 1.75382 6.5127 29.2784 1.44513 4.06003 29.114 2.03796 3.62497 
23.2535 1.20413 8.81613 24.6161 5.28045 4.65827 19.4583 5.42088 0.668971 
20.3908 9.45687 9.45687 20.6493 9.04422 8.50109 29.4839 9.48394 2.54705 
17.3534 7.08811 5.41664 16.7998 6.37217 5.32802 29.4839 9.48394 7.45295 
29.4839 9.2761 6.88688 28.3568 8.90648 7.63295 28.8728 8.39042 7.63295 
17.1473 2.86099 9.34036 16.8736 3.48252 8.45473 10.5261 9.48394 2.55518 
11.5318 8.99608 2.28558 11.1199 7.48692 7.5447 21.7897 8.49993 0.983673 
22.7908 0.892117 3.61829 14.4416 2.16818 8.85683 15.3212 1.99251 9.08205 
14.9809 2.80843 9.14862 12.3532 1.01454 2.38859 12.8716 0.670003 3.09715 
26.7924 4.04059 9.11493 26.0152 4.73665 8.97803 25.324 4.43765 8.05598 
25.727 3.92783 9.07795 14.754 6.39307 8.35251 26.721 1.5568 3.15995 
10.9738 6.38593 8.57811 10.9738 5.71631 8.21467 13.9165 7.9024 6.0386 
14.5032 8.3845 5.50672 20.1302 1.32728 0.83982 20.4977 1.66887 0.83982 
20.7173 1.76123 1.8133 12.0937 7.09769 8.15355 11.6228 9.31822 8.44681 
12.0585 9.31822 7.95893 28.3766 9.13695 3.16089 25.0179 4.31442 9.07795 
27.2856 7.2795 4.48142 27.896 1.01474 6.99556 17.949 0.87339 4.61697 
17.0729 1.94218 4.12885 17.229 0.852434 4.12729 16.9471 7.88458 6.63548 
17.6046 7.52804 5.97076 18.0059 6.29414 9.11557 18.6148 5.93051 9.30233 
25.9915 6.02905 8.15184 10.9105 4.66889 1.38252 11.3918 4.66938 0.908503 
10.4813 4.99951 0.474013 10.9362 5.56243 1.32915 11.4175 5.56292 0.85514 
11.8467 5.2323 1.76364 10.5341 1.80946 0.516055 27.3586 3.89698 9.11493 
23.9364 1.22714 9.287 24.3627 4.44695 5.01087 23.8977 3.88678 4.50885 
24.9237 3.98074 4.10068 11.9619 9.2358 4.2999 10.5341 9.48394 1.80946 
22.0587 3.38913 9.06879 13.4389 2.58212 7.01227 17.3621 4.46504 9.11438 
18.11 5.32171 9.30233 19.7356 4.649 1.93738 20.2418 4.65664 2.75717 
29.332 2.06962 5.81313 20.47 2.91395 0.897201 20.9457 2.6381 1.87068 
21.0931 2.22281 0.973482 21.2891 3.10875 0.919318 21.1417 3.52405 1.81652 
22.8885 0.890961 6.32644 11.4571 0.832809 6.8047 21.4321 0.890961 6.36555 
20.7838 1.06354 5.73727 20.4715 0.86286 6.54406 20.6338 1.9264 5.88443 
25.4835 1.08482 1.96235 25.8902 0.877528 0.877528 26.1536 0.670665 2.10339 
25.0603 1.53508 0.657548 24.6535 1.74237 1.74237 28.8681 7.24226 5.57161 
29.1759 7.40227 6.26405 29.1759 6.50029 5.95383 13.2297 1.03857 2.20682 
12.9093 2.05311 1.84731 13.4277 1.70857 2.55586 29.3184 3.68611 0.691194 
28.482 3.50361 0.760317 20.117 8.1996 8.26715 12.005 0.832809 5.54292 
12.1151 0.832809 6.09227 12.9022 0.844716 5.11356 13.0123 0.844716 5.66291 
12.7458 1.67752 5.65648 13.2957 4.06424 5.41295 12.7996 4.76575 5.34147 
20.5784 9.12604 6.92845 23.3277 0.498119 9.10105 22.5206 0.516401 9.10105 
22.9389 0.706008 7.91719 19.2249 5.8842 9.30233 14.0538 3.8717 1.01667 
14.1368 4.28776 1.98952 13.4714 4.59874 0.972849 13.2269 3.82144 0.687383 
13.3099 4.23749 1.66023 13.8923 3.51045 1.70405 27.6309 5.48605 3.6898 
27.7756 5.83541 2.98893 14.3874 2.11313 0.832769 14.2525 2.81893 1.84944 
27.3102 7.54831 3.64737 15.6863 9.13188 5.4709 16.4881 8.89226 5.07189 
16.7393 9.33219 5.62601 17.2439 8.22446 5.61205 16.4421 8.46407 6.01106 
21.4432 7.46837 9.1825 21.8925 7.26203 9.1825 10.9738 6.94278 8.75349 
11.728 7.53453 8.59739 27.1279 3.94285 2.79604 27.2675 3.76696 3.73743 
27.3096 3.04696 3.51933 19.5138 6.45407 8.94224 26.0818 0.670665 2.75064 
10.76 8.02004 4.33064 10.7881 7.38629 3.70067 11.5213 6.78478 4.22809 
10.7332 6.96696 4.48326 19.422 0.698544 5.24334 10.7545 6.69063 6.17421 
10.7332 6.55685 5.35553 20.1353 0.698544 4.41786 13.4714 5.41605 0.972849 
14.1552 5.72748 1.97481 14.0721 6.12874 1.00196 13.3475 6.29872 0.699689 
13.4305 5.89747 1.67254 28.8353 4.89842 7.21202 29.0298 4.1152 6.65175 
14.3315 1.07783 3.26848 14.8657 0.757244 3.84461 12.9496 8.88138 8.16936 
13.7233 8.94377 8.51133 15.2922 3.52074 9.14862 16.1149 4.41592 9.27314 
15.9658 3.30435 9.34036 16.4691 4.14652 8.6135 15.6464 3.25134 8.48898 
12.2432 1.04062 4.14883 12.1219 1.04062 4.70165 12.7367 0.670003 3.67027 
12.6154 0.670003 4.22309 23.0885 5.73957 5.23615 23.1073 5.00187 5.71633 
24.0835 5.76136 5.56495 12.3761 4.04802 7.19519 11.6549 3.66451 6.53347 
15.0023 9.13188 5.42798 15.643 8.30433 4.86384 23.5879 0.804001 5.1033 
17.1618 5.81439 8.38871 25.7991 8.95362 1.91931 26.0491 9.26241 2.61768 
15.9993 1.64642 0.925211 16.3503 0.721205 0.721205 16.8539 1.89713 0.824558 
29.3022 6.95047 2.69051 28.2506 7.26347 2.32392 28.1949 7.42672 3.18342 
11.1569 4.7194 4.0868 11.8599 4.3071 3.92005 10.703 3.96139 3.38813 
10.8939 5.00615 3.3907 11.5969 4.59385 3.22396 12.0508 5.35186 3.92262 
10.8939 5.31931 2.66814 11.8044 4.98868 2.52177 14.1292 0.844716 5.11356 
15.0642 0.757244 4.74067 19.6592 4.90589 2.36583 10.4813 5.66963 9.30857 
24.7252 6.29252 9.25089 24.3532 6.38821 5.16819 25.3924 6.44284 5.57705 
21.1028 2.81006 5.89209 20.7905 2.60938 6.69888 20.0276 2.70719 6.62642 
20.3399 2.90787 5.81963 18.9928 0.87339 4.17069 19.8468 0.902442 3.73924 
12.2245 5.11355 6.07903 11.6169 5.36306 5.62167 12.074 6.11595 5.46804 
16.1877 5.54542 7.46547 16.5086 6.18144 7.82554 16.081 5.91934 8.4645 
16.1146 9.13188 5.90896 17.1676 9.33219 6.06407 10.8395 3.98261 4.18438 
11.9964 4.32832 4.71629 11.5425 3.57031 4.01763 14.0021 1.03857 2.43672 
11.9911 4.66938 0.908503 12.1124 4.11655 0.908503 12.6134 4.23009 0.687383 
12.7346 3.67727 0.687383 12.4432 3.89947 1.59589 20.4455 0.698544 5.10258 
21.7535 0.987769 7.91497 26.2353 5.26725 3.80861 25.9574 4.45264 3.84675 
26.1063 4.53127 4.67437 26.8179 4.3553 4.25154 10.5261 7.44482 0.516055 
11.5318 7.71442 1.00392 15.7785 5.82004 9.19135 16.7678 6.15282 6.99309 
25.3912 9.37107 0.88256 12.9817 7.37761 3.39924 16.9576 5.12905 9.27314 
17.7706 5.45076 8.57547 22.0828 5.33851 4.30701 29.1637 2.92124 1.27637 
21.403 2.73429 7.36551 23.3505 4.22398 5.38595 23.6845 9.46833 0.461304 
23.5432 8.57537 0.873532 19.9652 2.33318 5.46462 20.7609 4.36197 1.06032 
20.4782 3.49571 0.897201 25.4606 9.37107 9.18971 27.5844 5.59246 0.90133 
16.7356 6.11222 6.08001 10.7545 6.92205 6.98472 21.2973 3.69052 0.919318 
10.9243 1.52424 6.21255 10.7711 2.17561 6.58677 28.9484 7.70018 1.54392 
28.4324 7.70018 1.02787 29.4839 7.45295 0.516055 29.3022 7.01625 1.8121 
28.7861 7.01625 1.29605 10.5341 0.516055 1.80946 21.0644 5.03087 1.06032 
21.6009 4.35943 0.919318 10.6838 9.52597 5.6572 10.4813 9.52597 4.99952 
11.2413 9.2358 4.85272 10.76 8.76178 4.85224 13.1747 5.7455 3.20844 
14.4886 6.61728 1.00196 13.764 6.78727 0.699689 28.7942 6.49879 0.690751 
29.3103 6.49879 1.20681 27.1127 5.6381 2.59421 27.9415 6.38223 2.19738 
10.5341 1.80946 9.48394 10.5341 8.19054 0.516055 12.6877 4.67677 1.88135 
12.8579 5.0074 0.972849 12.0169 5.56292 0.85514 12.7135 5.57032 1.82799 
12.5686 8.48843 4.93146 20.3928 0.539531 9.45687 21.9401 6.72832 9.1825 
13.8756 7.04655 8.38713 12.1381 6.11575 0.85514 12.6304 5.97158 0.85514 
12.5896 6.45299 1.55483 12.8552 6.44289 0.699689 19.8525 3.72195 0.897201 
19.5526 4.83745 0.668971 27.2115 2.60451 2.77518 12.8054 0.641961 6.37729 
12.539 1.47477 6.37086 13.4362 1.48668 5.9415 29.1227 2.07682 9.48394 
27.5284 4.42717 9.11493 27.7804 5.25199 8.83531 28.2265 4.7681 9.27997 
28.1167 5.02009 8.11528 13.1412 9.10095 4.00448 13.5028 9.25263 4.67009 
18.9828 4.17545 0.877063 18.5523 9.15537 8.54549 20.8836 9.17967 3.58619 
20.2651 9.17967 3.82434 16.6689 2.42266 0.824558 25.2702 4.60973 4.58404 
27.4577 0.886136 4.43409 27.7883 1.15679 5.25442 28.2235 0.723103 4.72336 
12.4408 3.90746 2.44101 12.5491 2.74463 1.70192 13.0631 3.46818 2.21989 
25.3356 5.14442 1.10536 24.819 4.3547 0.833561 19.9471 7.90139 9.22293 
22.0993 4.49009 4.52424 15.8912 7.34877 4.37621 26.3815 5.32484 4.76271 
27.0931 5.14887 4.33988 18.6362 9.18513 3.10789 18.0802 9.18513 3.08088 
18.0381 9.18513 3.7144 11.7243 6.66498 2.57789 10.7881 7.26276 3.11721 
10.9362 6.72363 2.2496 11.8302 5.88223 2.46841 10.8939 6.48001 3.00773 
11.682 6.42136 3.33601 24.3989 4.69876 1.6226 16.4448 8.06472 4.46483 
22.1814 0.892117 4.06944 22.2211 0.892117 4.69171 22.812 0.804001 4.81194 
22.8517 0.804001 5.43421 29.1249 9.48394 7.91568 12.3364 1.02179 7.60128 
12.919 0.641961 6.95902 15.9401 9.17245 4.47879 21.3704 4.16814 4.16041 
13.6025 3.47117 9.07885 14.0572 2.69711 8.85683 12.5504 4.63822 2.63084 
12.343 4.24339 3.33303 12.5339 5.28815 3.3356 23.6218 0.72902 8.38805 
12.3532 2.38859 1.01454 13.644 0.670003 3.32704 28.4999 2.147 1.04414 
28.2864 2.45101 0.760317 28.6476 2.92124 0.760317 13.2604 9.03421 2.49582 
12.4567 7.50733 8.884 10.7332 5.99588 5.7279 21.5759 6.04554 0.778858 
21.6555 6.38382 1.75723 25.9401 9.18971 0.88256 25.8685 8.14333 1.03675 
17.5322 9.0292 7.22707 17.0234 9.30102 7.83735 16.6224 9.30102 7.03909 
13.6643 9.28499 0.715012 13.7558 9.03421 1.83678 25.0524 2.15479 8.98308 
25.1594 5.65875 1.10536 17.0926 6.62995 3.61564 16.9015 6.39044 4.47182 
16.6303 7.3081 4.11313 26.238 0.77692 7.44333 18.3595 4.28241 4.52874 
13.4233 2.77665 2.36527 28.5551 0.723103 5.36302 28.6104 1.73784 5.53648 
17.0638 0.721205 0.677562 26.1225 3.18086 0.822188 25.4117 2.60961 1.08482 
25.1923 3.37949 0.833561 12.6872 4.27064 3.84186 12.3699 3.53385 3.93944 
17.1533 2.63768 0.824558 16.6229 3.27341 0.75829 22.4464 0.706008 8.29973 
19.4605 7.15748 8.94224 19.3732 7.92128 9.22293 10.8395 3.5732 5.22009 
10.7711 3.26162 6.23029 15.3787 0.888614 6.42297 16.2992 0.819023 6.53393 
22.7218 2.98286 0.882395 22.0519 3.49208 0.919318 13.1064 2.13047 6.48338 
14.175 1.53057 6.52199 26.891 5.957 3.45288 27.4585 3.12559 4.34695 
12.5264 4.41353 6.14845 25.9737 5.8495 5.53809 26.5776 9.18971 0.580409 
16.904 6.62597 2.82445 22.6423 4.4417 5.21431 21.5367 4.22885 4.96848 
22.0797 4.18046 5.65855 10.7597 5.43259 8.54431 22.5643 5.05026 5.02626 
27.6962 0.803295 0.580103 27.5894 0.873474 1.62425 28.0567 4.23791 9.27997 
10.696 5.6762 0.474013 11.6322 6.23961 0.85514 28.5581 5.40776 9.27997 
28.6095 5.57477 8.26705 12.3425 7.62203 1.00392 12.9901 7.01601 0.699689 
13.0948 9.28499 0.512136 18.2046 9.0292 7.48858 21.8198 9.01633 2.60448 
22.4408 9.09548 3.35474 25.9499 0.877528 9.18971 26.5782 0.580103 9.18971 
19.8741 0.698544 5.1477 14.3323 0.482783 0.715012 13.725 1.03857 1.54778 
13.9177 9.25263 5.97618 12.2286 0.832809 6.674 28.2251 7.11336 1.02787 
27.916 6.23212 0.90133 17.6963 7.39526 3.11408 10.9738 6.82184 7.93025 
16.7321 5.6074 9.27314 17.2756 6.16369 9.11557 16.1949 6.26865 9.19135 
21.4871 3.41415 4.16147 20.8772 3.60545 5.0156 14.5965 3.33735 9.14862 
29.3022 7.38842 2.21119 15.6753 0.482783 0.721205 14.1771 5.01629 2.63996 
13.3119 5.78405 2.45895 14.0849 5.0074 0.972849 14.6673 4.28036 1.01667 
14.9917 4.99364 0.758515 14.4612 5.00103 1.73136 27.6991 9.1892 9.41585 
27.6969 0.803295 9.41585 12.3755 3.66884 6.27178 12.9842 3.35619 7.2343 
13.1345 3.7217 6.18756 24.7832 2.2341 1.08482 24.5638 3.00397 0.833561 
29.3103 5.93271 1.41465 29.3022 6.45017 2.01994 20.3229 6.02301 1.44783 
12.8485 1.01454 1.72955 11.942 7.059 1.85906 11.0057 7.65678 2.39838 
10.8939 5.31637 4.10866 11.1569 5.02961 4.80475 11.8901 5.71528 4.8147 
10.7332 5.67979 5.00074 11.6272 6.00203 4.11861 16.4844 5.0305 1.08452 
16.1549 4.3414 0.75829 24.0194 4.71616 5.90973 11.0321 2.36108 7.57573 
21.082 5.74289 0.778858 13.1555 1.5507 0.832769 13.1555 1.03857 1.3449 
11.4623 6.78126 0.85514 10.9362 6.7894 1.3712 12.0614 7.32371 4.46984 
12.7203 7.82261 4.66023 13.1186 7.2718 4.20106 12.4597 6.7729 4.01067 
13.0819 7.97428 5.32584 27.0372 6.01459 4.40699 13.3374 9.28613 7.5748 
20.2829 9.17967 3.00467 15.6753 9.2788 0.482783 15.6753 0.482783 9.2788 
28.3573 1.09328 7.63516 29.4839 0.516055 7.45295 28.816 1.01474 7.0396 
19.1716 6.58761 9.30233 28.8121 7.03315 8.98708 14.3321 9.28499 9.51724 
13.7256 8.22876 9.22597 14.6857 5.72008 1.00196 13.9996 4.2492 2.73901 
29.4839 9.30857 3.10389 10.4813 4.33022 0.691194 12.5253 9.48786 9.48786 
26.6366 5.78596 4.24753 12.4924 3.62681 4.78777 15.0796 5.7903 9.19135 
16.1916 5.75179 0.768149 25.5723 5.33079 5.09917 26.155 4.41884 5.5421 
21.9136 4.30597 8.05209 10.9362 5.56292 1.91002 27.5453 4.58157 3.69929 
20.225 6.30538 0.778858 29.2767 0.691434 6.30929 29.2784 1.41454 5.39298 
29.332 1.70617 6.48275 24.9105 3.73022 9.07795 27.7921 3.05765 0.760317 
10.696 6.34632 9.30857 11.6698 6.393 9.26955 25.3918 0.877528 9.36954 
25.2542 1.00552 8.35261 29.1575 6.16297 4.18377 29.1759 6.34873 5.29049 
29.2559 6.77498 4.43622 28.4317 6.67858 5.35302 21.0944 0.973482 2.22133 
12.2629 2.97268 6.57258 12.4161 2.32132 6.19836 12.533 2.52913 5.3571 
12.3313 3.28427 5.56238 13.4172 4.97624 2.69518 13.3076 4.24549 2.50535 
16.7213 4.65333 9.27314 16.5722 3.54176 9.34036 12.4048 6.35357 4.79327 
25.319 4.49729 5.45177 12.273 6.68887 0.85514 14.0562 1.09362 7.25426 
14.6695 0.888614 6.59149 12.8673 7.16008 8.49551 22.4765 0.706008 7.19533 
22.4126 0.706008 7.71887 28.2554 5.27231 0.690751 27.9495 5.86477 1.59208 
10.7881 8.086 2.99627 21.226 0.902442 3.31817 23.8952 2.49949 0.882395 
12.5656 5.99015 3.90119 10.7711 2.82347 7.02268 13.5157 0.844716 5.52221 
24.6301 9.11477 3.79183 25.2555 8.96741 4.37116 25.4923 9.26241 3.66228 
16.6346 2.97923 9.34036 13.3189 6.72872 9.16116 12.3106 6.84225 9.26955 
11.8686 7.31096 9.26955 11.4999 6.93464 9.26955 11.2803 8.03656 9.32784 
11.0057 7.15648 1.72782 10.9362 6.22332 1.57904 19.1139 9.31375 5.09499 
27.7197 6.70113 3.05605 24.2078 9.46833 0.610179 17.5746 9.18513 4.37379 
17.1448 8.89226 5.02896 18.1654 9.31375 4.95423 14.6654 7.23407 8.41732 
25.4533 0.670665 2.37513 27.5212 9.13695 3.2973 24.36 1.80682 0.657548 
10.6838 0.473928 5.65801 11.6081 0.832809 6.2006 24.5799 5.34406 0.789039 
13.1447 3.31955 5.53628 12.2287 3.5534 0.687383 21.617 9.17967 3.39138 
21.9694 8.27516 3.5045 24.6648 5.16802 5.526 24.991 5.92413 5.13813 
20.2416 2.03707 0.83982 15.6906 5.02338 0.758515 21.5532 9.17967 2.86845 
27.1469 0.580103 0.580103 26.7819 0.670665 1.80596 14.388 7.86921 9.22597 
15.3286 8.02893 9.17596 15.2664 7.21574 9.19135 12.5276 9.10095 4.41313 
17.5436 2.63485 3.65603 17.396 9.33219 5.58308 10.8837 4.67739 5.61173 
12.0406 4.71289 5.42569 10.7597 4.40939 7.61246 10.8837 4.32676 6.49305 
10.7711 3.6306 6.79385 13.3088 0.641961 6.23659 21.2094 9.45687 0.516401 
21.2114 0.539531 9.4836 20.1358 0.698544 5.80103 29.2784 1.19703 4.72368 
21.2665 4.38909 9.23864 21.9977 4.73307 8.9833 22.0587 3.94005 9.06879 
16.6305 8.19328 6.04376 22.8458 9.4836 9.4974 21.4564 3.48395 5.83804 
16.7668 1.08975 4.56279 16.855 0.852434 3.68852 17.5011 5.68534 9.11557 
13.2297 2.41262 0.832769 13.9389 3.75199 5.68641 16.7709 8.89226 4.59019 
16.2229 9.17245 3.99709 16.3092 9.30102 7.79359 28.1088 4.14772 0.760317 
17.2006 9.18513 3.93502 24.0978 4.01349 9.15877 20.939 1.87592 2.659 
12.6712 5.3267 2.58611 14.1438 4.46963 5.39659 17.1882 3.4268 9.11438 
29.2814 4.7681 8.22509 20.4645 0.902442 2.93337 29.2767 6.30929 9.30857 
29.2814 5.43773 8.58853 29.3281 6.4763 8.29564 13.3669 0.670003 2.43811 
25.8888 4.63826 3.32525 12.3228 6.87871 3.20885 12.4286 6.09596 3.09937 
22.8352 0.498119 9.4836 15.5129 9.13188 6.1569 15.9525 9.30102 6.74372 
16.8816 8.63321 6.59788 26.5185 0.877528 0.580103 25.3599 7.76902 9.025 
25.9824 7.1485 9.17381 18.8237 9.15537 8.00873 11.0413 2.64572 4.3281 
10.703 3.37965 3.73714 18.5305 0.774971 8.57625 18.6004 1.57729 9.2537 
16.031 0.757244 4.30189 10.5261 7.44482 9.48394 10.8395 4.29283 4.90233 
12.5239 2.51029 7.12564 15.4766 2.98061 9.14862 15.6545 2.59204 9.34036 
16.1502 2.76422 9.34036 28.5581 6.84219 3.54542 21.2372 7.25921 1.76253 
20.4977 0.78775 1.72094 20.2428 0.78775 2.08767 15.6753 9.51722 9.2788 
22.7767 4.28126 9.15877 20.5436 3.20352 7.31106 12.4977 5.46577 5.27206 
22.9679 0.706008 7.42465 16.5541 9.30102 6.49578 14.4697 3.38384 1.01667 
14.003 2.64205 0.832769 10.9362 5.92028 2.47391 10.8939 5.67666 3.23204 
28.2477 9.1892 0.803295 27.6969 9.41585 0.803295 27.3312 0.670665 2.02915 
26.8369 0.670665 2.63579 24.7115 3.7705 0.833561 10.6838 0.516055 6.88416 
21.7897 9.01633 1.50007 23.6756 0.498119 9.5387 23.9696 0.72902 8.8257 
20.2039 6.91314 0.978702 20.773 6.44133 0.778858 18.6184 9.18513 3.92756 
19.4201 8.87898 3.91453 19.2092 9.31375 4.50799 12.4709 6.33958 2.34124 
11.7232 3.9761 5.52327 20.5864 9.12604 6.3653 12.5404 7.27273 2.49002 
17.4291 5.70781 3.09942 19.0777 9.38019 9.38019 18.4281 9.38019 9.32255 
19.2019 8.53557 9.22293 19.2019 9.15537 8.60313 10.6838 0.691434 6.32731 
25.5868 6.68401 8.42469 20.7456 6.98891 0.778858 21.4757 7.15542 0.778858 
29.2559 6.92654 5.09957 21.6848 9.17967 3.97522 25.7125 9.26241 4.28157 
12.8695 3.10415 0.687383 13.7238 0.641961 6.72538 15.4899 4.28051 0.758515 
10.8939 6.04187 3.80011 10.7332 6.40529 4.69219 24.5619 0.72902 8.65654 
24.9077 0.72902 8.02893 14.8681 0.888614 5.69405 15.8169 2.16469 9.08205 
13.6428 3.33358 0.687383 13.9306 0.844716 6.011 15.8243 9.10349 7.92922 
16.1243 9.30102 7.26806 22.6569 0.890961 6.77561 10.7881 6.45941 3.34152 
17.1258 3.98933 9.11438 29.2559 7.33666 4.2273 29.3022 6.51233 3.48289 
29.3022 7.07401 3.27397 13.4802 7.42347 4.86667 29.2814 4.76858 8.80594 
19.792 4.84628 9.23864 19.0585 5.46247 9.30233 13.4256 2.76866 1.52015 
13.6643 0.715012 0.715012 13.725 1.75358 0.832769 18.8519 5.81195 7.70023 
10.4813 9.30857 4.33037 24.2406 0.804001 5.12837 19.8585 9.15537 8.67981 
19.9735 9.15537 7.97532 15.5024 5.72256 0.758515 26.8795 9.26241 3.70919 
12.4822 4.02896 5.43905 19.1592 0.511034 9.38019 18.498 0.802324 9.38019 
19.1801 0.774971 8.6339 19.2616 1.28601 9.2537 14.0041 7.34097 9.22597 
14.8825 6.68749 9.19135 19.5173 0.698544 4.6563 13.6619 9.28499 9.28536 
24.36 0.657548 1.80682 13.5028 9.25263 5.4874 10.696 6.33709 0.723897 
29.5239 5.00016 9.52597 29.5239 5.6693 9.30857 10.696 6.90317 0.516055 
29.5239 0.473928 5 29.5239 0.691434 5.6693 13.2018 9.28613 6.19809 
26.0196 6.60735 9.17381 25.6403 5.82477 8.97803 25.2356 6.47973 9.25089 
18.1064 9.18513 4.25656 18.6972 9.31375 4.83699 14.8005 6.3317 9.16116 
15.5903 6.51922 9.19135 19.8585 8.61225 9.22293 14.0928 6.49998 9.16116 
10.8395 3.40087 4.53338 25.1984 7.02087 9.25089 29.4839 0.543116 1.81496 
29.4839 1.81664 0.541439 29.4839 9.45846 1.8167 29.5378 9.45846 1.04098 
13.0948 0.512136 0.715012 13.188 6.66672 2.18579 25.0603 1.60655 9.287 
13.0924 9.48786 9.28536 28.8023 0.723103 4.72303 17.9082 9.33219 6.86888 
29.5437 8.95161 0.543179 29.4839 8.18494 0.543179 10.7881 6.82461 3.90959 
29.4839 0.541537 8.1833 29.4839 8.1833 9.45846 10.7597 4.40582 9.23574 
10.8837 3.95777 5.92949 18.6289 9.31375 4.29484 22.2324 0.890961 5.97294 
17.9278 9.33219 5.46585 17.2358 9.33219 6.60738 10.5261 6.88797 9.30857 
21.5232 6.62172 0.778858 22.0281 9.4836 0.516401 20.1728 5.97856 0.668971 
28.587 5.91197 0.690751 19.7343 9.45687 9.38019 16.1275 5.85797 9.27314 
28.8053 4.76778 9.27997 24.5241 1.22664 9.287 26.4176 0.670665 3.33928 
29.2814 4.41453 7.65668 29.2814 4.41096 9.27997 10.5328 9.45682 8.22024 
10.5094 9.45682 8.95183 10.7542 8.77504 8.78631 11.2636 9.31822 8.82121 
10.5341 8.19054 9.48394 10.5341 8.92088 9.45846 11.2883 8.78228 9.32784 
29.4839 3.10374 0.691194 29.4839 2.54705 0.516055 29.2784 0.723103 4.36621 
29.4839 6.89611 9.30857 29.4839 0.691434 6.89611 28.6664 9.49315 0.803295 
29.0815 9.49315 0.497801 19.8157 0.511034 0.543129 20.1283 0.78775 1.38295 
19.8157 0.511034 9.45687 29.3103 5.62945 0.690751 20.3928 0.539531 0.543129 
24.258 0.657548 0.657548 10.5261 9.30857 3.11203 11.4685 9.31822 9.32784 
29.3184 3.69549 9.2761 11.0435 9.46406 9.49337 29.3184 0.722031 3.69256 
24.8555 0.497621 9.36954 24.2633 0.497621 9.5387 29.3184 0.516055 3.12941 
29.3184 3.12941 9.48394 29.2767 6.30006 0.723897 19.9957 8.00502 5.03683 
12.0588 3.01175 0.687383 12.8484 7.21935 6.25214 21.5841 1.06354 5.34466 
21.5531 5.77669 2.79454 11.3142 8.60205 3.00441 27.8756 6.15565 4.89637 
20.4572 8.7147 1.85983 16.2 3.69891 8.263 20.7621 0.539531 9.11888 
27.3592 3.37875 2.49135 28.2587 6.74601 1.71862 29.0159 2.147 1.5602 
21.2094 9.4836 9.45687 21.1417 0.902442 2.7841 21.5788 9.11888 0.516401 
21.2094 0.516401 0.543129 11.7721 0.512136 9.49337 22.8684 9.4836 0.461304 
29.4839 2.18814 0.900531 29.2767 6.86614 0.516055 29.5378 1.77132 9.48394 
29.4839 0.901353 7.81133 20.5116 5.79124 0.778858 28.8927 7.92119 3.86529 
29.5437 9.48394 8.21962 29.4839 7.82512 0.915145 18.7881 5 14.9997 
23.7073 4.88588 15.0816 14.3941 4.4259 15.5741 16.2531 3.18545 13.1855 
16.2687 6.83144 16.8314 16.2687 6.83144 13.1686 26.835 3.17762 13.52 
26.2214 6.58319 13.4129 21.2383 3.3253 13.3545 12.9778 3.75933 12.9756 
16.3841 2.89045 17.1096 13.0596 6.93645 13.48 21.3135 6.69622 13.5345 
21.184 3.39238 16.7049 26.1637 6.40816 16.7394 13.0547 7.02406 16.5654 
21.5451 6.63668 16.7912 25.9739 3.19696 16.6216 12.5632 2.54695 15.4909 
24.0307 2.76374 13.2033 18.9263 7.34355 16.4107 23.555 7.46295 14.6482 
12.5454 4.50483 17.4446 18.7522 5.85097 12.5226 23.5608 2.52456 17.4274 
18.774 3.22779 12.4581 18.8676 2.4748 14.8713 17.8606 4.94349 17.504 
23.8206 5.80379 12.5945 18.8769 2.63974 17.3866 23.8219 5.69465 17.5168 
12.2175 2.18558 17.7899 27.6771 4.49402 17.6771 27.2589 4.78294 15.2981 
22.7297 2.36755 15.1812 22.5519 7.85928 12.13 27.7059 7.7059 15.5148 
12.0794 2.07457 12.0746 16.4675 5.37198 15 14.832 7.04161 15 
19.1806 7.62505 14.0568 27.8109 5.54722 12.1891 21.3383 1.65526 11.866 
14.8665 5.01537 13.3816 21.407 4.92468 15.0015 21.5594 1.95084 18.0492 
12.0375 7.96643 12.019 27.7948 7.83275 12.3161 27.7501 7.81641 17.8203 
27.7468 2.18603 17.814 20.119 5.12717 17.724 15.6524 8.16133 18.1613 
14.5155 5.58883 17.4955 12.0125 8.00386 18.0039 27.8347 2.59543 15.4715 
21.5923 8.09861 18.0986 15.2579 2.27159 15.1253 12.0886 5.58599 12.0874 
25.7441 4.70251 12.3023 14.4497 2.20722 12.2072 24.3413 7.8135 16.7828 
16.7916 5.00125 12.1157 15.6524 8.16133 11.8387 17.9561 7.85506 12.1249 
20.7797 8.22485 11.5354 14.1882 3.03953 17.2796 12.3129 5.37996 15.067 
21.7965 5.06933 12.1303 17.155 7.76566 15 17.6867 7.77347 18.0193 
11.8188 8.18483 14.3376 24.7803 7.77875 12.2001 25.6203 7.77176 15.0776 
20.9256 7.91708 15.2215 27.8963 2.05371 12.0537 25.3916 2.15306 14.796 
17.0197 3.37547 15.1893 25.6394 4.78278 17.9115 20.7581 1.93466 15.3627 
25.5278 4.50333 14.299 12.9788 1.82948 13.7562 25.38 1.92346 18.0768 
11.8555 6.11794 18.1742 14.5502 6.58869 12.2496 22.1 4.69756 17.983 
27.2971 3.79812 11.8309 25.6206 2.73725 12.0042 20.0966 4.89212 13.5587 
26.9691 8.24427 13.9126 16.0457 4.53621 18.1141 19.9182 1.83462 13.3049 
27.9425 1.77106 13.8517 16.2373 1.99326 11.7662 27.1681 6.14653 18.2281 
28.0625 6.07417 16.5058 14.5793 8.10151 13.4244 19.8905 7.06373 18.1313 
22.8912 4.26945 13.4717 22.5746 8.09629 16.1462 23.8027 4.05205 11.7843 
17.7038 1.87598 13.4037 28.0782 6.17423 14.0881 17.7212 4.30006 13.6049 
20.1336 6.22702 15.4884 25.915 7.56668 18.217 24.2618 3.24956 15.835 
23.3772 1.78956 11.804 20.0937 4.36667 11.7533 15.6682 1.64046 18.207 
23.2902 7.32991 18.2521 17.5355 1.74736 15.9946 17.8073 6.28597 14.0707 
11.8576 8.2853 16.1275 25.2668 4.91232 16.0942 26.3233 7.03578 11.686 
17.4564 1.62163 17.7799 15.1491 3.9461 11.8195 19.5014 4.04032 16.3862 
24.0183 4.06014 18.2715 24.8623 6.1965 14.5634 14.5349 3.27017 13.7843 
13.4204 8.17248 15.2018 14.6497 7.99383 16.5955 17.7614 6.01857 16.067 
20.4405 6.27157 11.9985 13.838 7.48046 18.2525 11.8617 3.91806 11.6519 
23.1257 6.3326 15.9831 22.8065 4.11808 16.4347 20.275 3.56256 14.8315 
22.537 1.7526 13.4747 19.2864 1.72698 11.6391 26.3988 8.15908 16.62 
13.7624 5.0895 11.6134 17.5685 3.39127 18.3729 22.1967 3.49446 11.5967 
26.4669 3.28425 18.3053 24.7944 1.63468 16.4061 22.8367 5.98755 14.033 
16.9746 6.21258 18.2934 15.9512 4.41627 16.3713 13.9513 1.65632 16.1754 
26.4921 1.54122 16.7901 22.1456 8.27713 13.8477 20.2595 3.40841 18.254 
26.6671 6.39373 15.0743 23.9143 1.57928 14.3565 28.2421 4.3532 13.7874 
11.766 3.76712 14.3636 16.2556 8.43249 16.2733 20.412 8.08289 16.8516 
26.4991 1.59787 12.9397 13.8261 8.18744 11.7706 11.5194 1.52853 14.5494 
21.3047 6.14747 18.4098 18.5993 8.48807 15.3047 17.2148 3.38497 11.7967 
24.5191 8.41136 18.4858 19.792 1.57017 18.4298 19.937 1.50034 16.7598 
13.8981 5.69893 14.5831 17.5356 6.36416 11.499 18.7529 5.85091 18.5275 
15.4429 1.70921 13.5148 11.4062 6.7789 13.5521 11.5261 3.32374 16.6609 
13.9266 4.28318 18.3981 15.6739 8.4291 14.6338 19.1038 8.45764 18.4576 
28.5647 5.46895 18.5618 13.343 5.42387 16.3437 11.7861 5.95939 16.5267 
28.564 8.5609 14.4444 15.2264 5.84605 16.0447 17.7819 3.57486 16.6185 
11.9537 3.54253 18.5365 21.7495 6.51349 15.1281 13.2471 3.06925 11.5239 
16.0269 3.07985 18.5864 26.8132 5.06781 13.4746 11.9218 1.4639 16.4281 
23.701 8.4021 13.2914 22.6851 6.32591 11.4936 26.4329 3.40221 15.0773 
16.9704 8.36226 13.4166 11.5616 6.81427 15.1665 21.2997 5.04321 16.6154 
11.6724 5.18595 13.5964 13.2882 5.33385 13.1354 21.9676 1.63374 16.4666 
15.6522 4.03018 14.6551 18.9167 4.25407 18.4975 25.358 8.4615 13.5945 
15.412 5.49239 11.4351 13.0647 6.78768 11.7045 20.595 8.11939 13.5118 
28.6103 4.4886 11.3937 28.3829 3.97759 16.2465 13.2786 4.24181 14.4586 
18.0389 8.56204 16.7405 13.7587 1.51259 17.8407 24.7023 6.41707 16.1251 
13.0695 8.62003 13.4462 16.7245 1.91839 14.6463 20.2809 2.84667 12.1457 
18.2868 4.63224 11.4962 24.8962 1.47857 12.7255 24.4263 4.46737 13.1715 
12.6961 4.05777 15.9082 13.2622 8.46105 17.1674 22.6879 3.2438 18.5349 
25.0744 5.99577 11.572 24.3526 8.59133 15.2928 19.2782 8.44903 12.7253 
28.6356 3.35795 17.5775 25.0654 6.20722 18.4103 19.1837 5.56673 16.5457 
19.0659 3.63783 13.9006 28.6742 7.96676 16.6396 16.2969 1.32045 16.8959 
15.4795 6.61606 18.1538 23.0032 1.47274 18.4588 26.8287 1.41689 14.9811 
26.3343 8.53255 12.3043 22.5439 3.88049 14.9265 17.7764 1.9496 11.8643 
19.3256 6.10287 14.0866 28.727 6.70764 12.0524 11.2828 4.64444 15.9271 
11.5589 3.19986 12.963 28.7961 1.37727 15.0313 19.123 6.99146 11.4822 
27.9793 1.47905 16.4905 24.2925 6.9966 13.4061 22.8463 8.71475 18.7057 
13.377 6.01344 18.4607 11.5463 1.32664 18.6925 13.955 3.03868 15.1618 
23.647 8.77127 11.8302 26.6614 4.98322 16.6712 13.5886 2.68374 18.7722 
18.4672 2.14768 18.7128 16.3612 4.94679 13.5585 16.1558 6.86885 11.3236 
28.6486 3.23507 12.3078 27.5967 2.92592 11.9423 28.9482 2.36287 12.4192 
29.121 3.51261 13.2861 28.0692 3.20346 12.9206 27.7696 4.07566 12.8091 
22.7165 6.48138 19.1261 23.556 6.51228 17.8845 22.9824 5.66375 18.7584 
21.7238 5.89016 19.2049 22.5633 5.92106 17.9633 22.2974 6.73869 18.331 
27.9537 4.14336 11.6123 29.3051 3.58031 12.0892 28.4262 4.4209 12.5905 
18.2015 2.11108 15.433 18.3647 0.873681 15.6381 19.0307 1.2374 15.0764 
19.4023 1.98757 15.8156 19.5654 0.750168 16.0207 18.7362 1.62385 16.3772 
23.9846 4.06772 15.4583 24.1462 3.00665 14.5192 23.869 3.82481 14.1425 
24.0668 4.67662 14.1265 24.2285 3.61555 13.1874 24.3441 3.85846 14.5033 
22.961 5.1961 17.7499 22.1215 5.16521 18.9915 21.7024 5.42251 18.1964 
24.8948 3.87644 15.067 24.7792 3.63353 13.7512 24.9771 4.48535 13.7352 
27.3887 2.47434 13.6859 27.9194 1.91239 12.9527 27.3657 2.61567 12.7869 
27.5386 3.76541 13.6537 28.0923 3.06213 13.8196 26.8896 1.90469 11.0269 
26.7585 2.39548 12.029 25.7517 2.24646 11.0021 26.191 1.67677 11.4699 
26.0598 2.16756 12.472 27.1977 1.82579 12.4967 28.9712 2.22154 13.3182 
28.9712 2.10041 13.9032 29.121 3.39148 13.8711 25.4328 2.97068 13.3617 
24.7111 2.4584 13.9997 26.1133 2.66534 14.158 26.1814 3.84047 13.9095 
25.4597 3.32819 14.5475 23.1256 4.38318 15.004 23.4028 3.56503 15.3808 
23.2873 3.32211 14.0649 24.6175 4.6946 14.6903 25.6307 3.82249 13.3457 
23.7621 2.00112 15.7936 23.9574 0.817342 15.7653 22.9251 1.18378 15.1529 
23.322 1.97342 14.7688 23.5174 0.789639 14.7405 24.3544 1.60698 15.3813 
26.2278 2.95743 12.7621 24.8256 2.75049 12.6038 25.0234 3.60231 12.5879 
10.4813 5.00048 19.526 10.9278 5.55945 18.6131 11.4091 5.55897 19.0871 
11.4581 4.27127 19.2682 11.9046 4.83023 18.3554 10.9768 4.27175 18.7942 
15.3261 9.08067 18.5979 15.3261 8.59791 19.0807 14.9999 9.51724 19.5172 
14.419 8.74023 18.6435 14.419 8.25747 19.1262 14.7452 7.8209 18.2069 
21.6018 4.997 13.5659 21.555 5.88277 12.8324 21.3602 5.81045 14.268 
22.1219 5.45611 14.5173 22.0751 6.34189 13.7838 22.3166 5.52844 13.0817 
20.705 5.79417 13.5466 20.7518 4.9084 14.2801 20.9466 4.98072 12.8445 
28.2533 3.27116 11.7237 13.6593 6.9357 14.8924 13.4764 6.36149 15.5742 
13.2375 7.59827 15.8836 12.491 7.49338 15.1841 12.3082 6.91917 15.8659 
12.7299 6.2566 14.8748 24.8267 2.70131 15.3155 17.496 1.6845 16.8873 
17.752 0.810814 17.5401 17.7915 0.873681 16.6475 18.9923 0.750168 17.0301 
18.6967 1.56098 17.2699 22.7816 9.04814 17.0233 23.458 7.95489 16.4645 
23.6649 8.90675 17.3416 22.9174 9.35738 18.303 23.5938 8.26412 17.7443 
22.7104 8.40552 17.426 15.5676 5.9234 13.2751 14.8493 6.02849 14.1908 
15.5503 6.93652 14.0843 15.4095 6.71006 12.7091 14.6911 6.81515 13.6248 
14.7084 5.80203 12.8156 17.7241 6.89602 17.0431 18.3439 6.68106 16.2388 
18.3065 7.55851 17.215 18.2198 6.81219 18.2734 18.8396 6.59723 17.4691 
18.2571 5.93474 17.2972 23.9257 7.49789 11.1 23.6661 7.81902 12.1651 
22.8116 7.53815 11.065 22.8782 6.77147 10.7468 22.6185 7.0926 11.8118 
23.7327 7.05233 11.8469 23.0995 8.31527 11.9801 23.3591 7.99415 10.9151 
24.2137 8.27501 12.0151 22.9844 1.18378 15.8357 24.0167 0.817342 16.4482 
22.1491 4.59706 14.2366 22.3439 4.66939 12.801 22.864 5.1285 13.7524 
17.3307 6.99302 18.1563 17.368 6.11557 17.1802 17.8638 6.03174 18.4104 
13.4789 6.31769 14.0316 13.24 7.55447 14.3409 12.3106 6.87536 14.3232 
23.5917 6.1149 18.7584 23.3259 6.93253 19.1261 21.4939 4.58079 13.5152 
25.6204 4.05464 16.3579 24.7643 4.08094 15.9646 25.1179 3.22326 16.2283 
24.9961 3.62855 17.4466 24.1401 3.65485 17.0533 24.6426 4.48623 17.1829 
16.3681 6.10171 14.0843 15.6497 6.2068 15 15.667 5.19367 14.1908 
18.2748 5.50928 15.5333 17.3906 4.69702 15.6281 17.9039 4.18774 15.0945 
18.285 4.28743 15.8091 17.4008 3.47517 15.9039 17.7717 4.79671 16.3428 
20.3382 1.88464 14.3338 20.5782 2.57996 13.3297 20.9982 2.62998 14.3586 
21.6476 1.84363 14.4187 21.8876 2.53895 13.4146 21.2276 1.79361 13.3898 
25.5061 2.44516 13.4001 28.9712 2.66297 14.1127 29.121 3.95404 14.0805 
14.3651 6.37027 14.7915 14.3823 5.35715 13.9823 14.2242 6.14381 13.4163 
17.6278 5.18599 14.9998 16.7436 4.37373 15.0946 17.1145 5.69527 15.5335 
22.6033 0.816869 16.4784 22.3487 2.00065 15.8239 23.381 1.63421 16.4363 
23.2993 4.57766 14.2767 23.461 3.51659 13.3375 22.7176 4.07497 14.1991 
23.5341 3.68382 16.1349 24.0366 4.5152 16.2644 23.4124 4.08911 17.3531 
24.1891 7.04595 11.1 23.1415 6.31953 10.7468 24.3362 6.15447 10.786 
23.8798 6.16084 11.5328 24.9273 6.88726 11.886 27.0661 3.48787 12.6754 
11.4289 0.535941 10.9053 11.7895 0.905345 10.9053 11.5738 1.57323 11.0373 
11.9345 1.94263 11.0373 11.9345 1.03729 11.9426 14.2911 3.73271 16.4268 
14.723 2.65556 16.2024 14.826 3.34874 15.3497 15.1727 4.42108 15.9727 
15.6046 3.34393 15.7483 15.0697 3.7279 16.8254 15.2861 2.96499 17.1946 
15.821 2.58102 16.1174 16.1677 3.65336 16.7404 20.2699 0.917311 13.4681 
20.6899 0.967332 14.497 21.5793 0.876302 13.553 16.7119 7.29855 14.0843 
16.8112 6.56882 15 15.9935 7.40363 15 17.9436 2.92514 15.0303 
18.8278 3.7374 14.9355 18.3247 3.02483 15.7449 19.2594 8.71348 11.3627 
18.6171 8.15204 12.4251 18.5984 8.4165 11.0624 19.1818 7.98469 10.7411 
18.5395 7.42326 11.8035 19.2006 7.72024 12.1037 17.1247 4.47342 15.8093 
23.9201 4.87739 17.8942 24.5443 5.30348 16.8055 23.3142 4.90636 16.9758 
25.8067 3.98987 17.2665 25.4531 4.84755 17.0028 24.8288 4.42146 18.0915 
27.9365 7.00349 13.2021 29.0391 6.69265 13.3833 28.8974 7.52192 12.4973 
28.1794 8.19683 13.3802 29.282 7.88599 13.5615 28.3211 7.36756 14.2663 
15.1677 2.27339 16.6425 14.6046 1.96396 15.6504 16.3405 2.10545 17.0027 
15.7774 1.79602 16.0106 15.1241 1.48839 16.5356 14.0697 2.34792 16.7275 
15.2425 2.17999 17.0877 10.8948 0.915145 11.8067 10.8948 0.543179 11.4469 
11.0397 1.58046 11.5788 11.0397 1.95243 11.9386 24.4635 2.12115 12.9644 
25.1439 1.81581 13.7608 25.2584 2.10791 12.3649 24.7674 2.86076 17.0245 
24.4704 2.22401 17.7521 25.6769 2.56021 17.3492 24.6991 2.9918 18.1741 
23.7896 3.29235 17.8495 10.9278 5.55897 18.0322 10.9768 4.27127 18.2134 
20.6674 4.10871 13.4566 21.3226 4.12499 14.178 22.0648 3.79738 13.4131 
21.5174 4.19731 12.7424 23.6588 4.36841 13.3216 13.7971 0.914738 14.3781 
14.1183 2.05053 14.4407 14.9366 1.13579 15.0626 15.0291 0.854606 14.2574 
15.3504 1.9904 14.32 14.2108 1.76934 13.6355 10.8948 1.44852 10.5415 
10.8948 1.82049 10.9014 12.6838 6.20201 15.8162 13.1055 5.53944 14.825 
11.9373 6.09711 15.1167 23.7901 8.90675 16.6366 22.9068 9.04814 16.3183 
19.1845 3.25756 15.6288 19.1448 4.52016 15.6929 18.6417 3.80759 16.5024 
14.2833 0.828161 15.5877 13.465 1.7429 14.9658 24.5392 0.817342 16.1392 
24.0992 0.789639 15.1144 13.4669 2.43408 14.459 14.6064 2.65513 15.1435 
13.9531 2.3475 15.6686 17.0647 5.88747 17.1677 17.4176 5.57804 17.8987 
16.6217 6.52201 17.5624 16.11 5.62385 16.6014 16.4629 5.31442 17.3323 
16.9059 4.67988 16.9377 29.1251 8.64059 10.5415 29.1251 8.26863 10.9014 
28.8974 8.00123 12.0594 28.0225 8.10015 11.158 28.8974 8.3732 11.6996 
25.0193 3.19271 11.0021 25.6823 3.71988 12.1533 25.0811 4.17534 11.1512 
24.1104 3.8501 10.8921 24.7734 4.37728 12.0433 24.7116 3.39465 11.8942 
26.667 2.38774 13.2299 25.9453 1.87547 13.8679 25.6977 1.53822 12.8326 
20.6101 7.24821 11.767 21.2644 6.51498 10.9993 21.434 7.49162 10.7677 
21.7324 7.27538 11.5145 22.3868 6.54215 10.7468 21.5628 6.29874 11.7461 
16.5101 5.37439 18.2037 16.9531 4.73985 17.809 15.9984 4.47624 17.2427 
16.1572 5.68382 17.4727 26.2204 3.24061 17.4634 25.9235 2.60385 18.191 
25.2426 3.6722 18.2884 20.9995 0.967332 15.1814 21.8889 0.876302 14.2374 
20.1298 2.98749 15.8745 19.8129 2.20473 15.117 20.3476 1.7175 16.0613 
19.7192 2.77033 16.573 20.0102 8.60139 10.7677 20.0289 8.33694 12.1304 
19.9513 7.60816 11.5088 29.1227 9.45682 11.3448 29.1227 9.08486 11.7046 
28.0201 8.91638 11.9613 19.0535 7.4843 15.2337 18.3668 6.81476 15.2407 
18.494 6.95551 14.0637 19.2531 6.86396 14.0717 18.5665 6.19442 14.0786 
19.126 6.72321 15.2486 12.9758 1.27348 15.6541 13.1835 0.914738 14.7867 
12.771 2.18822 14.6235 13.2572 2.10164 15.8331 13.6698 0.828161 15.9964 
19.1591 9.48897 10.6198 18.5168 8.92753 11.6823 19.1778 9.22451 11.9825 
26.8604 2.6915 17.2178 27.7907 2.39073 16.6428 26.9043 2.89619 16.0466 
27.1784 3.58728 16.434 28.1088 3.28651 15.859 28.0648 3.08181 17.0302 
13.9458 6.98903 14.24 13.8049 6.76257 12.8648 23.9113 2.88706 16.6312 
18.2857 2.17539 14.1375 18.0293 0.937988 14.0829 18.6112 1.2374 14.8167 
17.796 2.1966 14.7588 17.5397 0.959197 14.7042 17.2141 1.89718 14.025 
18.0407 7.5546 15.7053 18.1678 7.69535 14.5284 17.4812 7.02581 14.5353 
17.7844 6.15227 15.0688 18.5435 6.06072 15.0768 27.3047 3.27745 17.0995 
28.5092 3.66777 16.912 28.1912 2.77199 17.6957 18.4444 6.59754 19.2637 
17.9113 7.55881 19.0097 18.6198 7.9009 19.2288 18.3953 8.11555 18.2385 
18.9283 7.15427 18.4926 24.8091 8.88938 11.6152 24.8128 8.38289 11.1 
24.8416 9.49352 10.5151 25.5861 9.26628 11.6673 25.5898 8.75979 11.1522 
25.5573 8.15565 12.2522 19.0132 7.20395 19.0656 19.3217 6.45732 18.3294 
19.4971 7.76069 18.2945 17.9452 0.873681 15.3784 17.13 1.83288 15.3205 
25.021 6.19349 13.0037 25.5418 6.38985 13.9882 24.3415 6.00015 13.579 
24.1235 5.13558 12.883 24.6443 5.33193 13.8675 25.3238 5.52528 13.2922 
15.6132 2.07119 10.8831 16.1089 2.24337 10.8831 15.5648 3.21979 10.9098 
15.6932 2.96968 11.7929 15.0691 3.04761 10.9098 27.9063 6.94529 17.163 
29.0313 6.69779 16.8584 28.875 7.56891 17.5157 28.1574 6.64268 18.1911 
29.2824 6.39518 17.8864 28.3136 5.77156 17.5338 23.7582 5.3724 18.7584 
22.8973 4.87386 18.9915 13.5617 1.10361 12.4777 13.2646 2.14089 12.1409 
12.3765 1.03729 12.4113 12.8262 0.914738 13.2521 12.5291 1.95202 12.9154 
13.7142 2.01835 12.9817 13.8194 7.51898 13.4522 14.5647 7.3451 12.837 
14.7056 7.57156 14.2122 24.1776 2.07962 16.9168 23.1453 2.44605 16.3043 
22.7642 2.07915 16.947 24.7824 5.25315 12.4484 25.9827 5.64285 12.8576 
25.0852 4.58494 12.7369 28.03 4.23581 16.9618 26.8255 3.84549 17.1493 
28.1563 3.92599 17.6273 14.1745 3.73229 15.3679 14.0716 3.0391 16.2207 
15.424 7.46647 13.2965 23.3802 2.56565 14.1923 23.4958 2.80856 15.5081 
22.6368 3.12402 15.0538 18.9667 3.05632 14.3859 18.927 4.31892 14.4501 
18.0428 3.50665 14.5449 18.9664 6.73801 13.2897 19.8105 6.94831 13.0277 
19.5964 6.06127 12.2606 18.9376 6.42121 12.0024 19.7817 6.63151 11.7404 
19.1518 7.30825 12.7695 14.725 1.58639 11.1036 14.725 1.10361 11.5864 
15.0003 0.482783 10.4828 15.6188 1.47942 10.8831 15.6188 0.996632 11.3659 
15.3435 2.10024 11.9867 29.3635 6.95936 12.3655 28.2609 7.2702 12.1842 
28.4026 6.44094 13.0702 21.1296 0.881123 19.1189 21.5788 0.881123 19.4836 
21.7937 0.975421 18.5082 21.3445 1.85654 19.0246 21.3445 0.975421 18.1435 
19.2294 8.03704 13.391 19.8593 7.3603 12.3619 25.6947 0.961729 18.2281 
26.5634 2.05474 17.9454 26.8781 1.09301 18.0967 26.2508 0.770608 17.5848 
27.1194 1.86362 17.302 25.936 1.73234 17.4334 23.2838 2.25817 13.339 
22.7141 3.01103 13.4732 23.1137 3.1291 12.4 22.544 3.88196 12.5342 
22.3669 2.62353 12.5357 21.5788 0.881123 10.5164 21.1296 0.881123 10.8811 
21.2339 0.827629 11.8141 21.2339 1.70875 10.933 21.6832 0.827629 11.4494 
12.3622 1.27348 15.2454 12.57 0.914738 14.3781 12.063 6.77621 12.0532 
11.7281 5.95067 11.0437 11.7026 7.14089 11.0095 12.5511 7.37706 11.8617 
12.2162 6.55152 10.8522 12.5766 6.18683 11.896 18.8899 8.05656 14.6807 
18.7628 7.91581 15.8577 17.8771 8.12686 15.1524 16.3503 9.2788 10.7212 
16.0013 9.08067 11.6405 16.0013 8.35946 10.9193 17.1532 8.20632 11.0624 
16.8042 8.00819 11.9818 17.1532 8.92753 11.7836 29.1249 1.35397 19.4585 
29.1249 1.72594 19.0986 28.8734 2.00816 18.0056 27.9983 1.90381 18.907 
28.8734 1.63619 18.3654 29.1227 8.29535 19.0849 29.1227 8.65517 19.4568 
28.875 8.00685 17.995 28.875 8.36667 18.367 27.9978 8.10491 18.9102 
21.1055 9.0493 17.8003 21.3609 9.0493 18.1682 19.8612 9.22882 17.9798 
20.1167 9.22882 18.3477 20.3481 8.27812 18.2781 29.1249 0.915145 18.2879 
29.1249 0.543179 18.6477 27.9983 1.09301 18.0962 26.2896 3.94006 12.9112 
22.9324 7.7131 17.1992 23.8158 7.5717 17.5175 23.0682 8.02233 18.4789 
23.3999 1.26228 16.9589 22.6835 6.16566 17.154 22.4177 6.98329 17.5217 
21.4249 6.39207 17.6005 24.4302 8.11243 17.6343 23.7538 9.20568 18.1931 
23.6827 8.56306 18.5957 25.1943 1.94965 11.0021 25.0243 2.52045 11.0021 
24.6621 1.8911 11.3628 24.8321 1.32031 11.3628 29.1249 9.45846 18.646 
29.1249 9.09865 18.2741 28 8.9082 18.0994 19.055 6.45514 16.4782 
18.4726 5.79265 16.3064 18.9683 5.70882 17.5366 25.6947 1.77202 19.0384 
26.8781 1.90331 18.907 27.1069 2.73514 18.0596 26.2382 2.45242 19.1526 
10.8948 9.45846 11.4485 10.8948 9.09865 11.8205 11.0187 8.08186 11.9246 
11.9135 8.98322 11.9148 11.0187 8.44168 11.5527 18.1666 2.13068 17.5832 
18.2062 2.19355 16.6906 19.4069 2.07004 17.0732 16.3149 5.88911 13.3635 
15.6139 4.98108 13.47 16.4143 5.15938 14.2793 17.0151 6.425 16.4492 
17.811 5.48103 16.7855 16.8563 5.21742 16.2191 27.5214 1.60698 11.0269 
26.8228 1.37906 11.4699 23.9026 2.0466 10.902 24.0726 1.47581 10.902 
24.1367 1.63406 12.2648 17.4582 6.89211 15.5335 11.4027 9.11897 10.5359 
11.7634 9.11897 10.9053 11.5528 8.98322 11.5454 11.8873 8.10219 11.0095 
15.2806 5.06252 17.8048 15.1169 3.78787 17.6968 14.3518 4.31418 17.3875 
15.2334 5.00255 16.9334 21.7175 3.40988 12.4756 24.4989 2.26341 11.9041 
19.5713 3.01868 14.8514 20.5166 2.74861 15.0971 19.8882 3.80144 15.6089 
16.2094 4.89412 15.6857 16.8666 3.99556 16.4949 19.083 0.750168 16.4654 
19.734 0.750168 16.444 22.3488 8.0682 12.9888 22.4912 7.13234 13.9403 
22.6943 6.92342 13.0815 23.4222 7.42794 12.7681 23.5646 6.49208 13.7196 
23.2191 7.63687 13.6269 21.7439 2.15111 15.272 21.984 2.84643 14.2678 
22.6334 2.06008 14.328 11.2816 2.48924 15.7675 11.2816 3.05092 15.5586 
10.7631 3.43931 16.1436 12.0447 2.93535 16.0759 10.7631 2.87763 16.3526 
26.0532 4.03351 18.1084 21.3609 8.16818 19.0493 21.0789 7.79296 19.0493 
20.1167 8.3477 19.2288 19.8347 7.97247 19.2288 27.8886 2.18324 14.6616 
28.9173 3.07515 14.9226 28.0384 3.47431 14.6295 25.3194 0.581027 10.8826 
24.7617 0.581027 10.6102 25.3835 0.739283 12.2453 24.8258 0.739283 11.9729 
19.1261 1.2374 14.4894 18.5442 0.937988 13.7556 24.1154 3.17784 10.8921 
23.59 2.9208 11.7942 12.0084 5.55897 19.0871 12.0575 4.27127 19.2682 
20.9935 9.0493 18.5098 19.7493 9.22882 18.6893 19.8878 7.87222 13.7843 
20.5178 7.19548 12.7551 19.9366 8.28421 13.1185 18.3067 5.3972 18.0157 
21.1095 4.91237 17.8535 21.6705 4.84878 18.9915 20.6799 5.06359 18.862 
20.1892 4.26779 17.989 20.7502 4.2042 19.127 21.1798 4.05298 18.1185 
21.4962 7.06542 12.0643 21.6658 8.04207 11.8327 13.2028 2.61255 17.5347 
13.3757 2.79324 16.3852 12.3904 2.36627 16.6404 11.8718 2.75466 17.2254 
12.8571 3.18163 16.9703 26.2856 5.23992 11.1512 26.7775 5.12487 12.2457 
27.319 5.66227 11.0945 26.5752 6.40655 10.843 27.0671 6.2915 11.9375 
26.0337 5.86915 11.9942 20.9436 2.08233 10.933 20.208 1.74461 10.8196 
19.9176 2.11819 10.8196 20.3123 1.69112 11.7525 25.3896 1.61711 11.3628 
18.8722 2.55727 16.1289 19.1892 3.34003 16.8864 14.057 1.81862 11.1036 
12.8718 1.7523 11.0373 12.6633 2.57191 11.7992 13.4557 2.24963 10.762 
13.8484 2.63823 11.8656 17.8823 0.873681 16.0828 24.6541 7.64372 11.1 
23.6065 6.9173 10.7468 20.012 6.64538 16.8098 20.8393 6.43185 16.1398 
20.7178 6.8502 17.4612 19.5371 6.31523 17.3385 20.3644 6.1017 16.6685 
19.6587 5.89687 16.0171 27.554 4.67267 12.01 27.0622 4.78772 10.9155 
26.5206 4.25031 12.0666 19.0389 5.97692 13.3046 19.883 6.18722 13.0425 
27.5236 7.20925 14.0003 27.382 8.03851 13.1143 27.7665 8.40259 14.1785 
14.4548 5.00736 16.5348 10.8686 8.21762 10.9151 10.8686 8.57743 10.5432 
16.3114 8.2618 12.6276 16.6603 9.18113 12.4295 17.4632 8.10866 12.7707 
16.7119 7.29855 15.9157 17.1538 7.69674 16.786 17.597 8.16385 15.8703 
17.9002 7.2903 16.4038 12.6297 3.30236 15.6995 13.4421 3.54865 16.5939 
12.1111 3.69075 16.2845 16.3135 7.18695 18.2273 16.4776 6.85955 19.1467 
15.8164 7.83393 19.0807 15.5659 7.3887 18.1575 15.73 7.06129 19.0769 
16.2271 6.41432 18.2236 11.2727 4.75241 17.6674 12.2004 5.31138 17.8094 
12.2495 4.02368 17.9905 19.9603 7.11113 13.7992 27.2502 9.12214 13.9304 
27.803 9.12214 13.8122 28.0477 9.28045 14.1963 28.6004 9.28045 14.0781 
20.9786 7.35978 16.8214 20.1512 7.57331 17.4914 20.2728 7.15496 16.17 
15.1828 5.53545 14.7915 21.8226 5.66712 17.3871 25.636 4.60292 13.3006 
20.9543 7.4078 13.5231 20.877 6.48389 12.7665 20.3195 6.39954 13.8105 
21.9327 7.27775 12.8323 21.9993 6.51106 12.5141 22.7609 6.15673 12.7633 
14.0574 3.66135 17.8388 14.2211 4.93601 17.9468 14.9861 4.40969 18.2561 
20.7621 0.881123 19.4605 20.977 0.975421 18.485 11.2816 2.32836 15.2454 
20.5152 8.95854 15.1523 20.0531 7.77107 14.6392 19.6427 8.81253 14.5699 
20.3499 9.0597 14.2974 20.7603 8.01824 14.3666 25.1951 5.34991 14.4312 
25.8746 5.54326 13.8559 13.8685 4.92488 15.9589 13.9292 5.50635 16.9196 
13.7656 4.2317 16.8116 19.4084 7.20364 17.271 19.53 6.78528 15.9495 
19.6692 7.71322 16.6311 10.8948 2.17887 10.5161 11.0397 2.31081 11.5533 
14.3739 0.756296 17.8458 14.7135 1.57653 18.0238 15.3286 0.820229 18.0289 
15.643 0.660225 17.3734 15.9826 1.48045 17.5514 15.0278 1.41652 17.3683 
27.9024 6.21738 19.114 27.4591 6.98147 18.0242 28.1934 7.05231 18.9102 
28.6008 5.87859 19.2809 27.8664 5.80774 18.3949 25.7456 1.36863 11.8847 
25.8768 0.877831 10.8826 26.1849 0.798937 12.3524 24.8433 3.82854 19.1358 
25.5242 2.76019 19.0384 26.0676 3.44059 19.1526 11.0682 0.535941 10.5359 
11.5738 1.03729 11.5732 11.0187 8.29178 12.8399 11.5449 8.98322 12.2912 
10.5261 9.30857 13.112 10.9094 8.40098 13.9992 11.4355 9.09242 13.4504 
11.9281 8.07563 13.1783 15.3207 9.08067 18.0061 14.4135 8.74023 18.0517 
14.1256 9.23053 17.5091 13.5501 7.97076 17.7099 14.4573 8.31119 17.6644 
19.9286 9.11243 11.3875 16.0013 8.35946 19.0807 16.8336 7.63999 19.0097 
17.0185 8.16553 19.0097 16.6696 7.9674 18.0903 19.352 9.24404 15.1939 
19.7624 8.20258 15.2631 25.6479 6.28948 12.4924 24.4475 5.89978 12.0833 
25.4093 5.34914 11.9371 14.3297 9.28536 19.5172 13.7488 8.02559 19.1262 
23.1265 8.13069 12.7107 22.9233 8.33962 13.5695 23.9968 7.69935 13.3487 
20.9771 0.827629 12.1801 20.208 0.863491 11.7007 19.9511 0.863491 12.0667 
25.9508 5.88655 10.786 25.6989 6.51578 11.629 18.006 0.937988 12.9089 
18.811 1.8553 13.3543 19.1132 0.917311 12.8595 18.7972 0.863491 12.0266 
19.6023 1.7808 12.472 18.4951 1.80148 12.5214 10.5328 7.86043 10.9151 
11.5515 7.745 11.0095 27.6607 5.42856 15.9019 29.0313 5.53248 15.7499 
28.6295 4.88687 15.1461 27.6685 5.47858 14.6931 29.0391 5.58251 14.5411 
28.0703 6.1242 15.2969 12.0413 2.03774 15.0201 11.8403 0.764265 14.7747 
12.2491 1.679 14.1528 13.6348 4.85352 17.3709 22.9661 5.22534 16.2089 
23.4738 6.01362 16.75 22.2127 5.68791 16.2992 22.5608 5.36893 17.0661 
22.0531 4.58064 16.525 27.6153 6.11035 17.3669 25.257 6.7899 13.4095 
24.5774 6.59655 13.9848 24.0566 6.4002 13.0003 20.3427 3.71635 16.5455 
20.9711 2.66352 16.0338 20.5605 2.44636 16.7323 24.8011 6.75223 10.786 
12.1574 0.905345 10.5121 12.3024 1.03729 11.5494 19.3929 2.15471 14.0881 
19.6514 0.917311 13.7062 12.1853 0.914738 13.7014 11.7357 1.03729 12.8606 
11.4557 0.764265 14.098 11.7994 1.80155 13.312 22.4533 4.40782 17.2088 
21.6999 4.87039 17.2992 19.8081 4.1829 10.8766 19.4338 3.79723 12.1057 
19.1482 3.61346 11.229 19.9017 3.4229 11.0729 19.5274 3.03723 12.3019 
20.1873 3.60667 11.9495 23.3287 5.89567 13.3138 23.1863 6.83154 12.3623 
23.2529 6.06485 12.0441 18.9475 6.12279 15.7777 19.7296 6.16495 14.7875 
28.359 7.63468 18.9102 28.7663 6.46095 19.2809 20.7295 3.47747 15.7682 
21.8639 3.63644 15.8157 21.4094 3.72153 14.879 21.651 2.90758 15.1446 
24.9645 8.90675 17.1343 25.3701 7.98629 16.7014 25.9933 9.07954 17.0529 
25.0534 9.20568 17.9858 25.459 8.28522 17.5529 10.7631 4.16187 17.2756 
12.0358 3.91428 17.0528 11.7399 3.43314 17.5987 10.9609 1.94771 16.2361 
11.724 2.39382 16.5445 12.2425 2.00543 15.9595 11.378 9.49337 19.119 
11.7372 9.11897 19.119 11.8749 8.1209 19.0019 11.8749 9.00193 18.1209 
11.5157 8.4953 19.0019 20.7621 9.11888 19.4605 21.1296 9.11888 19.1189 
15.151 8.07758 17.3784 15.3151 8.99692 17.051 15.8164 9.08067 17.8339 
15.954 8.29691 17.2173 16.118 9.21624 16.8899 15.4526 8.21316 16.4344 
12.6863 6.1582 14.2735 10.8686 9.45682 18.5774 10.8686 9.08486 18.2176 
11.0063 8.08679 18.1006 11.0063 8.45875 18.4604 24.8962 0.630462 19.3715 
25.1367 1.59219 19.0384 25.1395 0.961729 18.4098 23.9511 0.736369 18.6009 
24.1916 1.6981 18.2678 23.9483 1.36683 19.2294 16.4855 3.89587 15.7803 
10.5341 0.543179 11.0775 24.0881 2.41442 15.0958 23.9725 2.17151 13.7799 
20.0976 4.96234 15.0006 20.7703 5.57585 15.2449 19.4609 5.61351 15.244 
19.8175 5.13367 15.9373 20.4542 4.4825 15.6939 20.98 0.827629 12.7486 
20.6282 1.74494 12.5854 21.9376 1.70393 12.6704 10.5341 1.07912 10.5415 
16.6713 4.7681 19.057 17.5788 4.97175 18.752 17.4327 4.19564 19.1865 
17.7145 4.16738 17.9385 16.8071 3.96374 18.2435 23.0648 7.77962 15.3972 
22.8475 9.04814 15.6354 23.3377 8.73147 14.8864 22.8503 7.87004 14.2479 
22.633 9.13857 14.4861 22.3601 8.18671 14.9969 20.8645 0.827629 11.4761 
19.8386 0.863491 11.3627 28.1297 8.85295 15.8971 27.4761 9.07954 16.4497 
27.0524 7.93249 16.0674 28.1901 7.83633 16.0772 27.5365 8.06292 16.6298 
28.6138 8.98338 16.4595 27.5102 3.50247 19.1526 28.1501 2.95335 18.907 
28.5945 3.53931 18.7887 27.5513 3.3211 17.9414 21.1296 9.11888 10.8811 
20.7621 9.46047 10.8811 20.5872 8.5729 10.7677 20.9546 9.11243 11.6488 
20.9546 8.2313 10.7677 13.7569 2.54982 13.7703 14.8964 2.77088 14.4548 
14.9889 2.48969 13.6496 16.2531 7.71322 10.6618 15.9041 7.51509 11.5811 
17.0559 7.36196 11.7242 13.3668 3.77218 17.3621 12.3814 3.34521 17.6173 
10.8948 0.516055 12.1789 11.0397 1.55334 12.3108 19.5316 4.28128 14.9156 
20.841 4.24362 14.9165 10.8686 8.57579 19.4585 10.8686 8.20382 19.0986 
20.6973 7.86493 10.7677 20.5277 6.88829 10.9993 28.2479 9.18377 10.8033 
10.8948 9.48394 12.1789 11.0187 8.46716 12.283 21.9569 2.87997 15.943 
24.0663 0.894781 11.5122 26.116 0.798937 13.0041 25.5622 1.07653 13.9322 
25.3145 0.739283 12.897 24.3004 6.79127 12.3973 27.967 3.75495 10.9155 
28.2666 2.88275 11.0269 28.6235 4.10019 10.6968 15.7476 6.33874 16.4381 
15.636 5.19113 17.0794 15.5888 5.13116 16.208 10.5328 9.08486 17.8604 
11.539 9.00193 17.7637 18.4826 7.9528 16.5756 18.7631 4.53938 12.4903 
18.2367 5.07552 13.0638 18.2476 3.76392 13.0315 18.9199 3.43281 13.1793 
18.3935 3.96895 13.7528 18.9091 4.7444 13.2116 23.1958 6.72525 14.3406 
23.9237 7.22978 14.0271 10.883 2.93844 14.6818 12.1646 3.15704 14.9272 
11.6427 2.64783 14.4565 10.7597 1.81914 14.7747 14.6559 9.08067 18.366 
13.7488 8.74023 18.4116 16.0261 2.26545 17.6583 14.9282 2.33999 17.7433 
14.8194 8.99692 17.2232 24.0874 8.13998 10.9151 12.6208 4.2813 16.6764 
13.1835 0.914738 13.9694 14.4156 0.854606 13.8487 16.0013 9.08067 18.3595 
16.3062 9.08067 17.6199 11.7218 7.37267 12.7855 10.7031 7.69802 13.6064 
11.6125 7.48187 13.9448 10.6838 6.31808 10.7239 11.0187 7.14362 11.7334 
11.0443 5.95339 11.7676 15.508 2.61448 19.2932 15.8476 2.36016 18.3967 
15.3286 1.89479 19.1035 14.2888 2.41643 19.3861 14.6284 2.1621 18.4896 
14.8077 2.88179 18.6793 27.146 0.580122 10.5804 27.521 1.02686 11.6073 
26.8224 0.798937 12.0503 20.0047 6.09545 17.9277 20.832 5.88193 17.2576 
19.6514 5.34695 17.1349 15.1075 3.05969 17.933 13.8884 2.86163 18.0259 
28.875 7.63468 18.3941 29.4839 7.45295 19.4839 29.2824 6.46095 18.7649 
13.6698 0.828161 15.1791 21.7296 7.48667 13.6911 13.236 4.394 17.9213 
12.9442 4.96435 16.8941 10.9309 3.93695 12.0417 11.7671 4.552 12.6242 
10.8362 4.5709 13.014 10.7795 3.57785 12.6972 11.6157 4.19291 13.2797 
11.7103 3.55896 12.3074 22.9571 1.77108 12.6394 23.704 2.27665 12.5037 
22.787 2.64201 11.7003 25.7385 3.95462 11.1512 25.6767 2.97199 11.0021 
21.3836 8.01289 10.7677 10.5261 9.48394 12.5552 22.5404 2.81655 14.2006 
23.1211 0.736369 17.4746 22.4854 1.55324 17.4627 23.282 1.99865 17.9431 
22.544 0.816869 15.7956 13.9433 7.03284 15.7827 14.1262 7.60705 15.1009 
18.6525 2.21604 10.8196 19.0302 2.47738 12.0486 18.3964 2.96644 11.229 
17.8976 2.32735 10.9322 18.2752 2.5887 12.1612 18.5314 1.83829 11.7517 
23.8565 4.55515 19.1358 23.0592 4.37885 18.1272 17.038 6.5587 13.6196 
17.1374 5.82898 14.5353 10.5328 7.84664 19.0986 11.539 7.76371 19.0019 
23.4107 9.20105 14.208 23.628 7.93253 13.9698 18.4093 0.810814 17.6438 
19.6496 0.750168 17.1338 27.8029 6.68999 12.2526 27.0081 7.20797 12.8645 
27.0162 6.06521 12.801 27.9446 5.86072 13.1386 27.1498 6.37871 13.7505 
10.696 9.30857 13.6537 11.6054 9.09242 13.9921 25.3852 8.06391 11.1 
26.1622 8.44081 11.1522 16.6078 9.21624 16.6759 22.2744 9.04814 16.9739 
22.3587 9.04814 16.4405 17.1358 5.60629 19.1467 23.2242 0.894781 12.2935 
22.8041 0.876302 13.1289 23.9837 0.739283 12.7542 23.7166 1.61559 13.1001 
10.9309 4.45903 11.8808 10.8362 5.09298 12.8531 28.1153 4.10735 18.8386 
27.072 3.88914 17.9912 17.2995 5.64361 13.0932 16.5302 5.91635 12.6421 
16.9022 6.5978 12.3338 17.1636 5.68271 11.8073 17.6715 6.32506 12.7848 
10.8931 5.47969 17.2085 12.1658 5.23211 16.9857 10.6414 4.82222 16.9087 
11.9141 4.57463 16.6859 11.5345 5.30191 16.2269 23.7365 9.29566 15.2087 
24.0268 8.49671 14.2921 23.9538 8.02714 14.9705 10.7031 6.54985 12.4999 
11.7474 6.18244 12.8198 24.4871 4.8991 15.5879 23.7646 5.29026 16.2992 
23.2569 4.50198 15.7581 26.1569 7.86288 17.4185 25.7513 8.78334 17.8514 
25.217 7.98902 18.3514 27.5766 2.43679 11.0269 26.4388 2.77856 11.0021 
14.7194 1.10361 12.1782 15.6132 0.996632 11.9577 28.2477 9.19671 19.1892 
21.7675 2.57486 11.7313 21.9527 3.30901 10.7983 21.5235 2.38941 10.933 
20.8096 2.25097 12.0059 20.9947 2.98512 11.0729 21.2388 3.17057 11.8712 
28.2499 0.810796 19.1892 19.2837 3.83907 15.1434 25.414 9.17453 10.5151 
20.1431 5.1208 18.862 20.2134 4.26142 19.127 13.956 8.22744 16.8814 
18.7886 7.4186 18.0753 28.8974 7.64285 11.6741 29.3635 7.0803 11.5422 
29.3635 7.43868 11.9275 17.3234 7.42593 19.0097 29.3178 3.07344 17.4494 
28.2351 2.97669 16.5245 28.9173 2.69218 16.3965 28.9897 2.13399 16.906 
27.907 2.03724 15.981 28.3074 2.4185 17.034 29.1914 4.48419 15.6203 
27.8209 4.38027 15.7723 28.2227 5.02588 16.3761 12.8718 1.03729 11.7523 
14.057 1.10361 11.8186 13.0844 1.92095 16.9827 17.1124 7.34325 12.6467 
17.8817 7.07051 13.0978 17.7458 7.10961 11.8119 14.245 3.15442 14.4731 
24.3944 8.90675 17.1385 24.4833 9.20568 17.99 26.5085 0.580122 10.8826 
27.3348 2.88652 14.4958 17.3234 8.88673 17.5489 16.9711 8.10298 17.1463 
22.2408 5.69762 11.812 18.5222 5.25511 17.0249 23.0383 0.876302 13.5923 
24.218 0.739283 13.2176 10.696 0.516055 13.0968 10.5261 0.516055 12.5552 
11.5658 1.03729 12.3189 18.5683 7.74006 13.0908 18.3542 6.85301 12.3237 
18.2798 6.06847 13.2966 19.0652 9.24404 15.7164 19.5057 8.28548 16.0782 
19.9716 9.04144 16.4899 18.785 9.28102 16.4343 19.2255 8.32247 16.7961 
18.3191 8.52506 16.0226 25.1281 7.69009 17.4999 17.7719 5.42611 12.3191 
18.1439 6.10756 12.0108 11.0397 1.76118 12.8769 10.696 0.723897 13.6629 
10.7597 1.48816 14.1143 26.2723 6.80949 12.5494 26.8325 7.69154 18.0186 
26.5215 8.78334 17.7909 27.439 8.9082 17.5926 27.0744 7.98774 17.2202 
26.7634 9.07954 16.9925 10.5328 8.22024 10.5432 10.5328 9.45682 18.2202 
12.3533 4.75241 18.7223 13.044 4.64159 19.199 12.9612 5.25914 17.9527 
13.6518 5.14831 18.4294 12.7692 5.50672 19.2304 26.6631 7.73883 15.2962 
26.2237 8.88588 15.4275 27.2665 8.85295 15.6461 27.3375 7.97508 14.7137 
26.8981 9.12214 14.8449 26.2947 8.00802 14.4951 13.8522 7.50895 16.5804 
14.5826 6.79133 17.0455 13.7851 6.30645 17.0305 14.1405 6.43506 16.3051 
14.8709 5.71744 16.7701 14.938 6.91994 16.3201 27.4475 1.09301 18.3228 
26.2641 0.961729 18.4542 27.4475 1.67716 18.907 26.2641 1.54588 19.0384 
10.5328 7.48826 10.5161 10.6838 6.88416 10.5161 11.0187 7.70969 11.5256 
27.113 9.12214 13.3662 18.0755 7.99366 13.7367 17.3889 7.32412 13.7436 
24.8901 2.23082 19.0384 23.9805 2.53137 18.7137 24.2092 3.29917 19.1358 
27.472 6.38147 11.0945 26.7282 7.12575 10.843 28.269 6.12743 12.1207 
27.5252 6.87171 11.8692 27.93 6.96169 11.0262 28.2158 8.91638 13.0139 
10.5341 9.45846 11.0791 15.3207 8.00611 19.0807 14.4135 7.66567 19.1262 
12.1312 9.11897 10.5121 12.2814 8.98322 11.5216 17.8212 4.25918 17.0613 
24.6529 1.86617 14.5763 14.3323 0.715012 10.4828 11.8208 6.03866 17.3505 
29.121 4.30305 13.4988 29.3051 4.37075 12.3019 20.8665 1.36716 10.933 
19.8405 1.40302 10.8196 23.4636 8.34381 15.7195 17.0638 9.2788 10.6776 
17.8667 8.92753 11.74 15.2529 7.73535 14.8169 15.9713 7.63027 13.9012 
16.4144 8.09738 14.8169 18.1068 4.62703 19.2488 18.3886 4.59878 18.0008 
18.2426 3.82267 18.4352 29.0313 6.25965 16.066 27.8842 6.89003 16.0103 
28.8529 7.07551 15.5706 29.0391 6.30967 14.8572 27.892 6.94006 14.8015 
21.8911 3.60289 14.1405 15.5503 6.93652 15.9157 16.2621 7.63196 16.5524 
15.5438 7.73705 15.6367 16.7053 8.09907 15.6367 11.0063 7.60747 17.6626 
10.9288 7.74819 16.7245 11.935 8.14458 17.0657 11.8993 6.98163 17.2653 
11.8218 7.12234 16.3271 10.8931 6.58523 16.9241 14.7194 2.17817 11.1036 
10.4813 4.99952 10.474 10.6838 5.6572 10.474 11.0443 5.29251 11.5177 
11.5256 5.29299 11.0437 19.2827 8.81253 14.0822 19.9899 9.0597 13.8096 
24.0042 1.26228 17.4608 23.7254 0.736369 17.9765 29.1914 3.76623 15.3101 
28.3125 4.1654 15.0169 14.7994 3.07666 12.0134 20.4149 2.67804 11.0729 
13.6643 0.715012 10.715 21.9952 3.75523 16.5698 23.1837 3.32132 16.9311 
22.3724 2.95847 17.0662 21.5758 2.51306 16.5857 22.387 2.87591 16.4506 
12.6551 0.731951 16.1227 12.1516 0.731951 16.2634 12.0415 0.731951 15.714 
13.5451 4.24183 15.7411 13.0196 4.74082 16.1259 26.233 2.36909 16.7058 
27.1634 2.06832 16.1308 29.4839 7.82512 19.0849 18.0249 5.42545 19.2637 
18.5039 5.60056 19.2637 18.5858 4.80214 19.2488 18.8348 5.05249 18.5125 
28.4321 2.30038 11.0269 28.7891 3.51782 10.6968 23.9167 3.40789 12.4938 
19.6571 6.92604 14.7726 21.3717 2.67161 17.377 22.5601 2.2377 17.7383 
21.9359 3.31809 17.6199 23.1243 2.88418 17.9812 22.1236 2.59732 18.292 
24.621 0.817342 16.9501 19.423 5.10882 12.1379 18.5195 5.24161 12.0094 
18.5304 3.93002 11.9771 19.1902 4.49946 11.6247 17.9639 0.937988 13.5425 
26.8711 4.0859 10.9155 26.0946 4.5381 11.1512 26.0328 3.55547 11.0021 
26.4589 3.26768 11.9176 27.1483 0.58415 19.4158 20.4473 3.53578 19.127 
21.3676 4.18035 18.9915 21.6615 3.45347 19.2674 22.3939 3.97068 18.2589 
21.4737 3.3261 18.3944 27.1131 6.24116 16.6226 26.9569 7.11228 17.2799 
26.2813 7.28362 16.6797 27.2307 7.11662 16.5629 22.3354 6.48464 16.3871 
23.208 6.83125 17.1176 27.728 7.76115 16.6676 19.7755 5.58564 18.862 
20.3683 6.09578 19.2049 20.7118 5.63732 18.0669 19.4359 5.48904 18.1258 
20.0288 5.99919 18.4687 19.0924 5.94751 19.2637 12.9402 3.91286 18.4673 
11.0435 9.49337 10.5359 11.5282 8.47658 11.0095 21.7635 1.79229 17.2579 
29.4839 9.08486 12.1749 28.3813 8.91638 12.4315 10.5328 8.2186 19.4585 
20.6873 8.17212 12.5236 26.613 9.07954 16.1987 26.0096 7.96542 15.8488 
14.9768 3.68152 18.4922 13.7576 3.48346 18.5851 17.0943 4.83602 14.3025 
17.3704 3.83777 14.3971 18.2546 4.65003 14.3023 12.235 5.84235 11.0437 
12.7231 6.44319 10.8522 17.9944 3.30638 12.1274 17.6168 3.04503 10.8984 
17.4956 2.66729 11.8305 17.458 7.46673 11.0624 16.5579 6.97363 10.6618 
16.3503 9.2788 19.2788 17.0185 8.88673 18.2884 27.277 3.30899 10.9155 
11.7967 0.535941 10.5121 22.7681 3.24282 15.8079 22.0599 7.36648 16.4687 
22.8502 7.21444 16.0647 16.9777 7.30245 17.4254 11.8819 1.75611 18.2412 
12.6525 1.41962 18.2666 12.9881 1.84909 17.8153 12.9031 2.43466 18.2811 
13.6737 2.09816 18.3064 12.5674 2.00519 18.7324 19.7493 8.68929 19.2288 
20.5976 6.6056 18.2706 19.6612 6.55392 19.0656 19.0569 5.55144 14.5431 
18.7023 8.81253 13.869 18.4116 9.24404 14.493 17.5972 9.18113 13.5489 
17.7848 8.42517 14.3606 23.0288 5.59723 10.7468 23.5965 5.33617 11.2973 
24.2234 5.43216 10.786 15.3207 9.08067 11.9939 15.8164 9.08067 12.1661 
14.7841 9.05075 12.7868 15.2799 9.05075 12.9589 15.1158 8.13142 12.6315 
20.7167 5.63512 16.0519 21.3534 4.98394 15.8084 20.4006 4.54176 16.5008 
20.7904 8.95854 15.7857 21.7501 8.00669 15.6839 21.6149 9.04814 16.2481 
20.5337 9.04144 16.6008 21.4933 8.08959 16.4989 20.6688 7.99999 16.0366 
16.1388 2.82353 15.1573 16.7019 3.13296 16.1494 16.9598 2.31891 16.5521 
17.2776 2.56142 15.592 16.3967 2.00948 15.56 16.0599 4.70108 14.8275 
15.2594 4.52277 14.0183 14.7752 4.86455 14.6191 19.762 5.20651 10.8766 
20.1284 4.74433 10.8766 19.9354 6.15896 10.9993 20.3018 5.69678 10.9993 
20.2671 5.31912 11.8759 23.8117 4.92792 12.1894 23.5875 4.4603 10.8921 
24.4385 5.02391 11.6781 20.7235 6.46162 14.5114 20.1151 5.55957 14.5235 
19.926 7.63031 15.8161 20.5296 7.07205 15.355 15.0292 6.44383 15.5224 
15.8469 5.60901 15.5224 14.5623 5.77249 15.3139 21.0466 7.46054 12.535 
22.0869 9.13857 13.0113 22.1345 9.13857 13.545 21.3116 9.0597 12.8433 
21.3592 9.0597 13.377 21.3703 8.19826 13.6797 24.6835 6.49619 12.4891 
28.9482 2.30038 11.5429 29.4839 2.54705 10.5161 29.3051 3.51782 11.2129 
21.7134 0.827629 12.5538 22.3127 0.876302 13.3582 24.5364 7.38768 12.8031 
26.9348 7.05703 16.1271 18.004 4.46615 12.5506 26.0766 7.20246 10.843 
25.5518 7.40727 11.943 25.305 7.57395 11.1 25.4521 6.68246 10.786 
10.5094 8.95183 10.5432 16.6364 3.28046 14.1874 17.3618 2.62572 14.2965 
16.9784 2.53071 13.2946 16.9871 3.74276 13.3952 17.7125 3.08802 13.5043 
26.8798 8.9082 18.0999 25.9622 8.78334 18.2982 10.9309 4.45855 11.3 
11.9752 4.75202 11.8697 11.4122 4.45903 10.8259 15.3804 3.75992 10.9098 
12.6163 6.06569 18.3175 18.992 9.24404 14.7061 18.9046 4.31569 10.7481 
23.7017 2.00546 19.2294 10.883 3.661 14.995 22.7472 3.68094 17.4848 
16.2149 3.71333 17.6118 24.9138 0.961729 17.7855 15.9912 2.09499 14.8858 
16.8721 2.64693 14.9178 11.0188 9.49337 19.4934 11.5157 9.00193 18.4953 
16.3539 0.959197 14.8662 15.6206 1.13579 15.1057 16.1401 0.660225 15.991 
16.5107 1.61942 15.7711 21.2728 5.57373 19.2049 17.1472 8.49727 16.5069 
21.2883 2.49028 12.6102 24.7306 5.23871 17.7142 16.1089 0.996632 12.1299 
15.7117 0.854606 13.0041 15.216 0.854606 12.832 15.8401 1.85124 12.6405 
29.1227 1.34473 10.5431 29.1227 1.70383 10.9146 28.0709 1.83015 11.0269 
28.9482 1.92739 11.9415 28.9482 1.5683 11.57 20.7359 5.63095 19.2049 
15.0231 4.22804 15.1146 15.455 3.15088 14.8902 15.8017 4.22322 15.5132 
23.4165 5.60924 15.5323 22.2664 5.62864 15.4923 22.5572 4.90528 15.0415 
22.1067 4.52138 15.7181 19.1195 1.31987 17.4472 13.4463 7.25226 17.4089 
14.2438 7.73715 17.424 14.1767 6.53465 17.874 12.9365 1.56011 16.3018 
12.5336 7.51396 17.2846 12.4561 7.65468 16.3465 12.4204 6.49172 16.5461 
22.0281 9.4836 10.5164 22.29 8.41324 11.065 22.29 8.92964 11.5814 
21.4039 9.11243 11.2841 21.4039 8.59603 10.7677 29.3371 7.64409 16.9253 
28.2122 7.89158 17.23 28.3684 7.02047 16.5727 18.2708 4.99136 10.7481 
18.8586 5.33929 10.7481 18.6889 6.17097 10.7411 19.2767 6.5189 10.7411 
18.7049 5.81185 11.4892 19.5771 0.785083 17.9688 18.6242 1.5959 18.1049 
19.3345 2.10495 17.9082 26.5952 7.41373 13.6627 29.0391 6.46383 14.1905 
29.282 7.65716 14.3686 27.4492 8.9082 18.326 26.5316 8.78334 18.5243 
16.4939 5.93231 16.0558 19.6263 7.28573 19.0656 19.233 7.98268 19.2288 
29.4839 7.81133 10.9014 28.3813 7.64285 11.158 18.9859 5.28336 15.7727 
18.4828 4.5708 16.5821 20.0208 0.750168 15.9214 22.4413 7.71426 18.1754 
22.0835 8.09745 17.1224 22.2193 8.40668 18.4021 17.4625 8.92753 12.5388 
16.9696 9.18113 13.1847 29.1227 0.541439 11.3464 29.1227 0.900531 11.7179 
28.0709 1.02686 11.8302 15.3305 4.7681 19.057 14.5654 5.29442 18.7478 
15.0474 5.80803 19.0769 14.9975 6.10245 17.8246 15.7626 5.57614 18.1339 
20.0305 3.01606 17.0457 28.875 7.0686 18.1863 29.2824 5.89487 18.557 
19.6704 3.6002 14.366 25.0872 1.77907 17.2414 25.3842 2.41582 16.5138 
11.6461 3.54543 15.5123 14.3739 1.83085 18.9203 20.5154 9.04144 17.1768 
21.0022 8.09075 17.4751 19.7579 8.27026 17.6546 19.0711 0.917311 13.4931 
26.5173 5.8255 13.4437 27.312 5.30751 12.8318 26.2786 4.88516 12.8884 
22.3805 0.876302 13.942 16.9162 1.53391 16.4453 20.6738 9.11243 12.0223 
21.4039 9.11243 11.8552 20.5815 9.0597 13.0105 19.7111 5.4975 13.8226 
28.9482 2.86353 11.7489 29.3051 4.08098 11.4189 13.5986 0.914738 13.482 
14.8307 0.854606 13.3613 27.4374 2.41058 18.907 26.7975 2.95969 19.1526 
16.6031 0.996632 12.3595 16.2059 0.854606 13.2338 12.1312 9.11897 19.4879 
12.2689 9.00193 18.4898 15.3342 1.30301 19.1035 15.3341 0.820229 18.6207 
15.0001 0.482783 19.5172 14.3795 1.23908 18.9203 14.3793 0.756296 18.4376 
18.7511 9.22451 13.2033 18.1243 8.40565 13.0709 19.0575 6.67932 19.2637 
27.7505 4.56807 14.5427 29.121 4.672 14.3908 28.1601 5.26371 13.9377 
25.4844 4.81817 11.1512 24.5136 4.49294 10.8921 18.4771 9.24404 15.0334 
17.9481 9.24404 15.1524 17.6626 9.18113 14.0893 17.1337 9.18113 14.2083 
29.4839 7.45295 10.5161 13.855 1.58446 17.008 13.9884 0.756296 17.3179 
14.0847 0.828161 16.4852 15.2575 0.660225 16.8455 13.1988 6.22397 16.4545 
14.0875 6.23274 15.6718 14.2847 5.63496 16.1942 15.0646 7.30495 17.3746 
15.3529 6.23106 17.0992 22.7165 7.0323 19.1261 21.7238 6.44108 19.2049 
19.8645 1.53525 17.5948 13.6206 5.5614 15.4634 12.6913 0.914738 13.8253 
29.5437 0.543179 18.9516 28.6686 0.506853 19.1892 29.5437 1.05003 19.4585 
29.0873 0.506853 19.4931 21.5187 5.03466 11.0652 20.9451 4.718 11.9418 
20.6673 4.68334 10.8766 21.7188 4.24723 10.7983 21.1452 3.93057 11.675 
21.9966 4.28189 11.8635 25.9227 1.07653 14.5196 26.4765 0.798937 13.5914 
26.8202 0.770608 17.8109 21.31 5.94274 10.9993 21.1185 5.67045 12.0644 
21.9881 5.34162 11.0652 22.4324 5.96991 10.7468 20.7414 7.58117 18.1149 
20.228 7.27552 19.0656 22.3587 9.04814 15.8895 21.5342 8.95854 15.4272 
22.1442 9.13857 14.7403 21.5356 8.09711 14.5346 27.5035 7.49827 18.9102 
27.2125 6.66333 19.114 24.5281 2.44212 16.1206 25.0743 1.07653 14.3252 
24.8267 0.739283 13.2899 14.7408 7.51772 15.7977 18.0423 0.974802 12.1393 
17.7401 1.91279 12.634 17.9372 8.12521 11.0624 18.5207 7.69341 10.7411 
17.8628 8.16775 17.3799 17.4994 9.28102 16.9095 29.5437 8.94957 10.5415 
28.6664 9.49275 10.8033 29.0815 9.49275 10.4978 29.5378 9.45682 11.0393 
13.4609 9.23053 17.8691 29.5378 8.96066 19.4568 29.0815 9.5022 19.4931 
29.5437 9.45846 18.95 28.6664 9.19671 19.4931 20.8407 5.63579 10.9993 
25.4825 2.2198 19.0384 26.0259 2.90019 19.1526 26.2042 9.07954 17.4997 
27.5468 3.68918 15.3848 23.9046 7.87063 18.3689 27.2267 4.39084 18.8386 
26.6582 4.6384 17.7943 26.2079 4.53521 18.9557 26.9722 5.21709 19.114 
26.4037 5.46465 18.0698 27.4226 5.32028 17.9526 19.6692 0.917311 12.8865 
19.3533 0.863491 12.0536 23.2439 5.18898 11.639 11.9616 0.764265 14.2219 
28.7659 9.28045 13.4957 15.8741 6.72375 17.4926 10.7795 2.32383 13.3211 
11.8192 2.63722 12.5188 11.5392 2.3642 13.7562 17.1343 9.2788 19.1977 
17.8025 8.88673 18.2073 19.4423 4.94606 14.2792 19.6897 4.68334 10.8766 
26.3177 4.09009 16.6464 27.5221 4.4804 16.4589 27.1692 4.73862 17.1742 
24.2462 8.87915 10.9151 24.2425 9.38563 11.4302 18.3294 3.1073 17.0026 
11.7206 1.49622 15.4887 12.828 5.40191 15.7053 26.1705 4.78557 13.8868 
17.2564 4.65066 12.8603 17.7642 5.29302 13.8378 20.1858 4.22734 14.1951 
14.3341 1.10361 12.7076 22.9959 0.736369 18.1796 29.4839 9.48394 12.547 
28.8974 8.40032 12.4315 20.267 0.917311 12.8996 24.2134 6.37119 19.2051 
24.4436 5.95093 17.9636 24.38 5.62868 19.2051 15.1393 5.25388 12.4083 
15.8403 6.16191 12.3019 15.8866 5.21959 12.4968 27.0591 7.43427 12.001 
14.7696 7.21979 11.1248 15.1013 7.37501 12.0441 15.3207 8.00611 10.9193 
14.4076 8.01916 10.8853 14.7392 8.17439 11.8046 14.1881 7.38806 12.0101 
22.669 0.894781 11.9999 22.2489 0.876302 12.8353 15.4592 7.41264 16.7134 
13.9222 4.38735 13.1786 15.0078 4.48074 12.6005 14.0635 3.85272 12.3976 
13.3701 4.42442 12.2945 14.4558 4.5178 11.7165 14.3145 5.05244 12.4975 
29.282 8.76439 13.4957 19.0681 2.86003 11.229 19.8215 2.66947 11.0729 
26.6339 3.28991 14.2987 25.9122 2.77764 14.9367 25.9803 3.95277 14.6881 
22.8086 5.43656 12.3624 24.1778 6.76856 18.3312 23.7335 7.07305 16.383 
25.1709 5.59992 17.0183 24.2621 6.05586 16.821 25.3524 5.495 18.1609 
24.8839 6.31214 17.2677 15.142 8.99692 16.5288 15.945 9.21624 16.3677 
25.433 6.41261 16.4322 25.9015 5.59547 17.3254 25.6145 6.30769 17.5748 
22.4781 0.816869 17.1835 27.8506 5.27361 11.0945 27.5937 4.39906 10.9155 
23.544 2.891 19.2674 23.3531 3.65197 18.4032 17.8952 5.85732 10.7495 
17.9112 5.4982 11.4976 18.3293 6.67781 11.4906 28.8529 7.79807 15.2574 
28.8529 7.63719 15.7795 22.3578 1.72241 11.835 29.121 4.6766 12.9486 
28.0265 4.95021 12.9882 28.9055 5.27361 12.1494 29.3051 4.7443 11.7517 
28.2106 5.01791 11.7914 14.6587 7.04826 18.2031 29.3371 7.76762 16.3419 
29.3371 7.20594 16.133 29.1914 3.60757 15.9806 28.9173 2.91649 15.5931 
29.3178 3.29775 16.6461 10.5261 2.55518 10.5161 11.5658 2.31895 11.0373 
10.5094 9.45682 18.9518 10.5094 8.95019 19.4585 20.7218 3.40039 17.4794 
21.642 4.04497 17.3439 13.9734 2.27606 17.5601 20.7566 3.44393 14.093 
20.0966 2.69859 14.0682 18.2389 2.55188 12.9309 17.4593 2.63047 12.6002 
17.468 3.84252 12.7008 16.7339 3.28521 12.4911 29.5203 5.67124 10.6914 
29.5203 5.00194 10.4739 29.3051 5.41393 11.3883 29.3051 4.74463 11.1708 
28.8254 4.74591 10.6968 14.7007 4.14277 13.5829 14.842 3.60814 12.8019 
13.7564 3.51475 13.38 23.2256 1.66594 13.9156 23.727 0.789639 14.0332 
24.4053 1.52892 13.541 27.1338 2.99882 15.2744 26.2034 3.29959 15.8495 
27.4079 3.6899 15.6619 17.4162 0.873681 15.4973 17.0107 0.959197 14.8232 
21.4224 5.83994 16.7033 20.7094 5.08519 17.1697 20.2417 5.30497 16.5806 
12.3724 2.7983 14.0599 13.1287 3.03564 14.1074 12.9209 3.39438 14.9747 
12.5223 4.00447 14.4111 16.2055 2.98515 17.8479 16.0363 3.80803 18.3502 
15.5724 7.35987 10.6618 15.353 6.72877 11.7866 20.0709 7.86629 10.7677 
19.2426 7.24959 10.7411 24.2048 5.65147 15.6033 24.9846 5.66469 16.1096 
13.7138 2.98327 12.5914 14.4923 2.73869 12.9958 17.6587 2.66111 16.3066 
26.0095 0.810293 19.1897 26.5789 0.810293 19.4158 16.6196 7.59685 13.2926 
20.9094 2.67962 18.1516 20.7482 1.72559 17.4045 20.0982 2.45437 17.5069 
13.2591 2.79282 15.3263 28.8529 7.22966 14.9039 28.1349 8.1334 14.9796 
27.8698 5.2841 17.0914 29.0313 5.88727 16.627 28.8386 5.0972 17.2127 
29.1914 4.83898 16.4974 10.9278 6.08105 17.8714 10.8931 6.00177 17.0476 
26.7355 7.92961 10.843 27.4712 8.3281 11.158 26.741 8.678 11.1522 
27.0646 8.18265 12.3102 26.3288 7.78417 11.9952 21.5687 7.36764 17.4449 
16.0293 4.79803 19.057 15.7462 5.83796 19.0769 19.3243 2.10963 10.8196 
24.2735 9.29566 15.0119 23.9598 9.29566 14.5 28.9055 5.79569 12.3103 
28.9055 5.58676 12.872 29.3635 6.3759 12.242 29.3635 6.16698 12.8036 
13.067 3.59428 18.1084 12.2688 2.51467 13.3596 17.8478 9.19768 10.6776 
16.336 3.70282 14.9222 27.3375 3.87771 14.4324 26.8459 4.09258 15.1877 
11.934 7.0609 18.0891 10.9278 6.66451 17.7478 27.5259 8.91638 12.568 
15.4461 1.13579 15.7937 14.7928 0.828161 16.3188 15.9656 0.660225 16.679 
19.7836 2.28683 11.8924 22.8455 2.35827 18.4969 12.1249 5.29299 11.0437 
13.0719 5.59411 10.8067 12.9618 5.04475 10.8067 12.9255 5.33774 11.8504 
25.7153 5.66024 16.4168 24.5418 5.13368 18.3409 19.46 5.48267 19.2637 
16.7726 0.959197 15.3029 16.5588 0.660225 16.4277 27.9011 8.98338 17.0022 
22.7996 4.56069 11.9573 22.5845 4.96894 11.0652 27.863 1.83254 17.1522 
27.2357 1.51013 16.6403 28.875 8.39215 17.6366 29.3371 8.08203 17.4047 
29.3371 8.46733 17.0463 16.5764 4.97402 12.8371 17.0843 5.61638 13.8146 
17.0627 8.06396 14.2083 16.9033 1.53202 18.8899 16.5623 1.63104 17.9934 
16.0093 1.54143 19.1035 16.1886 2.26113 19.2932 16.7416 2.35074 18.1831 
26.0393 6.98742 17.4782 25.2525 7.11083 16.7611 24.7033 7.01036 17.5966 
25.4902 6.88695 18.3136 11.0187 7.64392 12.404 10.7031 7.05015 13.1705 
26.1567 7.69242 10.843 21.0832 8.95854 15.1108 21.6933 9.13857 14.4238 
18.463 3.57691 11.229 18.2194 4.27914 10.7481 13.6595 9.28536 19.2854 
17.226 8.88283 15 19.5682 3.02407 17.8203 22.0942 3.96958 18.9915 
22.3881 3.24271 19.2674 16.1018 5.24682 11.7754 17.6393 9.18113 12.9154 
18.1321 8.92753 12.2695 18.7932 9.22451 12.5697 23.347 4.16075 12.628 
22.9997 3.77325 11.6905 17.9618 1.88466 18.2463 18.6721 2.39371 18.0497 
19.1296 1.85892 18.5713 10.9094 7.87665 14.1467 10.7031 7.17369 13.754 
25.6539 4.18985 18.9557 19.8871 9.04144 17.1797 18.7005 9.28102 17.1241 
23.272 5.43671 14.5573 23.8495 6.09203 14.2982 24.2848 5.54119 14.8225 
23.6315 5.22746 13.6023 25.9455 9.17453 10.8868 26.1176 9.26628 12.039 
24.5218 7.11528 16.454 27.4639 7.52424 11.158 14.9811 6.04054 11.8423 
13.9962 5.50672 19.2304 13.9462 5.80114 17.9781 14.4283 6.31475 18.3072 
17.5004 0.937988 14.2018 15.6541 9.21455 15.5479 15.1618 8.21147 15.6146 
15.9647 8.43079 15.4535 12.3719 3.76323 13.6696 12.9783 2.7944 13.3659 
13.1282 4.00057 13.7171 13.1125 3.41429 12.2498 14.1981 3.50767 11.6717 
17.2028 2.27257 18.8899 16.488 3.00168 19.2932 12.323 7.6143 11.0095 
12.8366 7.02492 10.8522 23.914 6.37483 16.0541 13.1129 2.44936 12.64 
17.6834 3.6555 10.8984 20.2584 9.04144 15.9673 17.3363 0.937988 13.1782 
16.9706 1.93462 12.585 16.5733 1.79259 13.4592 18.2977 5.64298 14.5352 
13.6168 3.64024 14.8102 12.0697 1.82474 17.109 10.9288 7.51964 15.9172 
10.8931 6.35669 16.1168 10.7808 6.78413 15.4366 11.6739 6.38683 15.8466 
11.7096 7.54978 15.647 17.0412 4.62342 13.5817 13.9192 5.96127 12.6925 
13.1739 6.13515 13.3077 13.5932 5.51639 13.8592 13.142 1.26843 18.9203 
12.0358 1.17546 19.3463 13.057 1.854 19.3861 25.3473 3.32589 15.4562 
22.7846 4.18151 10.7983 26.0336 9.07954 16.5116 25.0048 8.90675 16.593 
25.0105 9.29566 15.8479 24.3469 8.20241 16.0378 25.3757 8.3752 15.9564 
11.9706 2.99631 11.8632 10.9309 3.23255 11.342 10.7795 2.87345 11.9975 
22.0281 0.516401 19.4836 21.7937 1.49182 19.0246 27.4485 8.3281 18.9102 
27.1476 9.4199 19.4158 26.5309 8.20323 19.1085 11.7721 9.49337 19.4879 
22.9812 6.16008 15.0081 28.8386 4.74701 17.7837 29.1914 4.4888 17.0684 
23.4182 3.62677 10.8921 23.2054 2.49553 10.902 12.6196 8.17866 14.7697 
12.4392 7.56064 13.9088 11.6902 7.49955 14.752 22.0281 0.516401 10.5164 
21.6832 1.34403 10.933 17.9183 9.19768 19.1977 17.8025 8.08441 19.0097 
25.9418 1.84714 15.7931 25.6827 2.67501 15.7088 26.4013 2.30693 15.8014 
26.1101 1.78498 14.8886 26.6604 1.47905 15.8856 19.3426 4.80352 16.466 
18.8966 9.24404 15.2931 21.4102 3.59467 10.7983 20.4522 3.27078 11.0729 
16.4888 2.55192 13.9159 17.2588 3.15739 19.1865 17.5124 2.50645 18.0764 
16.7977 3.23556 18.4796 26.6308 2.40955 15.0292 28.1821 5.9335 11.0945 
28.6401 6.51371 11.0262 17.9193 6.37966 10.7495 18.713 6.69331 10.7411 
20.918 9.0597 14.2559 12.5253 0.512136 10.5121 13.0948 0.715012 10.5121 
12.3024 1.54942 11.0373 20.1887 3.8694 12.8522 20.0951 4.6294 12.656 
19.5798 4.00225 12.8269 19.5812 4.26498 13.7296 19.6734 3.24225 13.0232 
24.2849 4.01625 19.1358 21.2955 4.15853 15.8532 21.9755 4.40258 14.964 
14.0774 5.17461 13.2585 24.3039 0.461304 19.3715 23.356 1.19767 19.2294 
29.4839 0.900531 12.1881 28.4321 1.02686 12.3004 22.8563 9.13857 13.7775 
23.634 9.20105 13.4993 11.0443 5.29299 12.0986 11.8805 5.38597 12.8419 
16.4938 5.63621 19.1467 23.1959 0.894781 11.8046 22.8795 3.01339 19.2674 
23.0372 2.12785 19.2294 21.2774 9.04144 16.7931 22.4376 6.42305 15.5556 
21.5783 5.71908 15.0648 22.2931 6.25052 14.5805 29.282 8.22557 14.7222 
22.1621 7.30489 15.6371 22.6522 6.98822 14.8881 21.9476 7.39531 14.4879 
21.6495 0.827629 12.0309 17.1781 0.873681 15.9771 15.075 9.05075 13.5097 
14.9463 1.95821 12.861 28.8734 2.36654 18.3909 29.3178 2.59412 17.8874 
29.3178 2.9525 18.2727 14.271 4.64159 19.199 20.9416 6.37026 15.3082 
21.5315 6.60486 14.3313 12.5286 2.91695 12.5251 12.1328 3.90621 10.8259 
12.0115 4.45903 10.8259 12.625 4.05037 10.8259 20.4314 0.967332 15.2229 
20.0114 0.917311 14.194 21.2419 4.2178 16.6601 20.7874 4.30289 15.7234 
26.0371 8.88588 14.6604 26.7115 9.12214 14.0778 20.7596 3.08598 12.7501 
20.1521 3.48156 13.6275 29.4839 0.516055 12.547 28.9482 1.54291 12.3004 
28.9897 2.3583 16.1026 16.2938 1.71784 10.8831 16.2938 0.996632 11.6043 
16.3503 0.721205 10.7212 17.0633 1.69601 10.9322 17.0633 0.974802 11.6534 
17.0069 1.97143 11.8153 24.0816 6.75407 17.1498 14.6325 8.99692 15.7977 
14.035 8.08316 15.8986 14.0179 9.08624 15.1009 15.1446 9.21455 14.8169 
14.5471 8.30079 14.9178 11.2727 4.39902 17.0993 10.7631 3.80848 16.7075 
28.1209 4.98149 18.1195 28.5591 4.59481 19.2809 28.6001 4.41345 18.0696 
19.8157 9.48897 10.5431 20.5852 9.11243 11.3108 15.0001 9.51724 10.4828 
15.3261 8.59791 10.9193 15.3263 9.08067 11.4021 14.4132 9.09372 11.3681 
14.413 8.61096 10.8853 17.7082 2.53559 19.3564 18.0178 2.76948 18.5428 
26.515 3.50242 10.9155 21.9115 4.65986 11.0652 22.1116 3.87243 10.7983 
15.6753 0.721205 10.4828 20.2685 5.58185 12.7786 13.9068 3.75599 14.1215 
17.6679 9.28102 15.8703 24.7922 7.30929 18.448 29.121 4.98975 13.6711 
27.3593 6.10345 19.114 20.5378 6.32391 10.9993 10.5328 7.48826 19.4839 
11.0063 7.72841 18.4859 11.4605 6.82075 19.0871 10.9278 6.78545 18.5711 
25.3973 4.70782 15.1966 26.2629 4.84763 15.6961 26.3934 4.64313 14.7985 
26.0975 5.44853 14.6866 26.963 5.58834 15.1862 25.967 5.65302 15.5842 
15.1235 3.14341 19.2932 14.0734 3.74508 19.199 13.9044 2.94535 19.3861 
18.8552 0.785083 18.4126 17.6874 0.810814 18.0876 18.1928 1.07384 18.5541 
21.3376 7.21529 15.1748 11.6679 1.56866 19.3463 12.6891 2.24721 19.3861 
21.6967 1.9368 10.933 29.0391 5.90027 13.8215 10.7631 3.50147 17.6066 
10.9768 3.61087 18.5443 19.5178 4.69062 18.1108 19.5419 4.68425 19.2488 
19.5881 3.83124 18.3757 15.9606 7.49638 12.5036 16.2123 6.85014 12.2461 
22.7161 2.00396 10.902 23.2438 1.83533 10.902 22.1259 2.8564 10.7983 
22.6536 2.68778 10.7983 16.2973 4.32933 19.057 17.0587 3.75686 19.1865 
10.4813 0.474025 15.0005 11.241 0.764265 14.7747 10.7597 1.23829 14.7752 
10.9609 1.20598 15.7145 11.4422 0.731951 15.714 19.0151 7.90059 17.4342 
18.5714 8.50984 17.5991 20.4608 0.785083 18.3338 20.6757 1.7605 18.2395 
20.0934 0.785083 18.6754 20.666 3.84598 12.5539 10.4813 9.52597 14.9995 
10.9094 8.61839 14.6683 11.3907 9.09242 14.6688 11.4101 9.14265 15.5638 
11.8382 8.23506 15.2325 10.9288 8.66862 15.5633 10.5341 9.48394 11.8095 
10.5341 1.80946 10.5161 20.0258 2.48929 18.3419 19.233 9.22882 17.9827 
21.4485 7.12304 18.2542 25.7598 5.18473 10.786 25.8498 4.15727 15.5858 
29.2824 4.56485 18.5895 29.2767 3.69071 19.3086 29.3178 3.50935 18.0973 
28.8734 1.60907 17.6335 28.8734 2.48748 17.5677 12.5993 5.7709 17.259 
12.4551 6.571 17.3698 13.2158 6.51875 17.5131 13.36 5.71866 17.4022 
11.99 9.09242 14.6688 12.1113 9.09242 14.116 12.6154 9.31002 14.2231 
12.7367 9.31002 13.6703 12.4442 8.40243 13.8919 25.0646 5.55441 15.3288 
25.7647 6.29511 14.8189 20.3587 4.03078 10.8766 26.6217 3.78595 19.1526 
28.8974 8.19248 12.9976 29.282 8.55655 14.0618 28.9712 1.40158 13.1994 
28.4552 0.885528 13.1994 25.1495 5.46481 10.786 12.2321 6.69005 19.0871 
12.3106 7.63301 19.0019 12.9928 6.6378 19.2304 12.6948 7.00865 18.2323 
11.1088 1.60885 17.6214 11.1088 1.99415 17.9798 10.7731 1.17937 18.0727 
10.7731 1.56467 18.4311 16.6703 4.56185 11.0579 15.9704 4.47368 11.9676 
15.849 4.03428 10.9098 16.8819 3.75371 10.8984 16.1819 3.66554 11.8081 
17.0032 4.19311 11.9562 26.6639 1.50738 13.9604 26.6413 0.708447 14.6121 
12.5646 5.69163 16.4352 14.2687 4.0644 10.9098 13.5754 4.6361 10.8067 
13.3177 3.62597 10.762 13.5048 4.07937 11.5687 26.6659 6.27734 17.4837 
19.492 2.73623 13.6027 18.3848 2.7569 13.6521 19.3461 2.5312 12.8815 
10.6414 4.46883 16.3406 11.6625 3.48349 13.6633 12.9253 7.74216 18.1282 
13.2233 7.37131 19.1262 13.6075 6.74695 18.3566 15.7131 0.854606 14.3004 
16.0837 1.8138 14.0806 20.3928 0.539531 10.5431 13.133 4.54659 13.0555 
13.5253 5.21168 12.3744 16.0037 2.78666 19.2932 27.1865 7.04981 15.2946 
27.3648 6.23395 15.79 27.3726 6.28398 14.5812 13.5754 5.45341 10.8067 
15.7748 8.23189 13.4205 23.7958 9.29566 15.8915 10.9609 1.78683 15.714 
10.9609 1.42338 16.3837 10.5328 9.48394 17.4883 11.0063 8.48588 17.7284 
26.4442 6.48846 14.2436 13.3256 3.54822 15.535 21.5246 5.77835 15.8717 
27.7981 8.85295 15.2574 27.4297 9.12214 14.4563 28.8475 7.0803 11.0262 
25.0955 4.37756 18.9557 18.046 7.59961 11.0624 17.8357 6.85416 10.7495 
17.2478 6.72128 10.7495 22.1617 4.54549 18.9915 22.4556 3.81861 19.2674 
26.7401 5.73077 14.2744 25.5008 7.18097 12.8065 10.9309 3.7894 11.5174 
10.7795 3.4303 12.1729 13.9838 9.05075 13.8035 13.9998 8.137 14.3131 
13.4044 9.08624 14.6922 13.2289 9.31002 13.8144 13.245 8.39626 14.324 
13.8244 8.36077 13.4353 11.457 3.24069 10.8259 20.2729 6.70684 19.0656 
20.98 6.24871 19.2049 25.6443 8.88588 15.7403 24.9864 8.18154 15.1852 
15.9606 7.49638 17.4964 25.2945 1.07653 14.9445 25.093 1.89387 15.601 
24.9959 0.817342 15.7495 26.013 0.708447 15.037 25.8115 1.52579 15.6936 
11.1088 2.36631 18.3789 11.1088 2.43209 17.5005 21.5735 7.98934 12.8209 
19.8805 3.72436 17.3201 12.2354 6.78329 12.6283 16.9138 4.05554 17.3663 
23.3559 5.03662 13.0331 29.3371 7.9285 15.8198 27.4374 1.09301 17.5894 
26.81 0.770608 17.0775 21.9709 0.816869 17.1341 22.4887 0.736369 18.1302 
18.5234 5.20147 13.8458 16.3503 0.721205 19.2788 17.1343 0.802324 19.2788 
16.9033 0.810814 18.1687 17.6874 1.61314 18.8899 15.6223 9.21455 14.1143 
15.1266 8.2653 14.0291 16.2706 9.18113 13.5057 16.3221 8.39568 14.0252 
16.5933 2.45839 10.8831 16.5976 2.93922 10.8984 17.082 3.15424 10.8984 
16.7261 2.68912 11.7815 10.7731 1.93684 18.8302 17.6148 5.7814 19.1467 
14.7691 3.92846 19.199 15.8287 4.05498 19.057 15.8193 3.3268 19.2932 
22.6752 3.99928 15.6806 17.7508 4.00861 11.6465 29.3178 3.65689 17.573 
29.3178 4.17897 17.7338 22.6152 3.34798 10.7983 11.8716 2.67661 19.2682 
12.0856 2.86406 18.1632 12.0035 1.99814 18.895 11.75 2.43459 18.6145 
27.6966 9.41172 10.8033 15.9805 4.80742 10.7176 15.2805 4.71924 11.6273 
24.9808 7.79263 15.9302 25.1613 7.09441 15.6014 25.5506 7.28807 16.3726 
20.6515 4.25978 17.2144 20.3928 9.46047 10.5431 12.8121 4.50378 11.6327 
26.0288 5.27797 18.9557 26.7932 5.95985 19.114 25.2314 0.817342 16.4046 
25.6432 1.58795 16.5981 26.0802 0.770608 16.5966 26.2485 0.708447 15.6921 
21.3629 1.7842 15.9147 29.1249 9.48394 17.9157 29.1249 2.08432 19.4839 
10.5341 0.516055 11.8095 24.1145 4.25971 12.4779 28.2503 4.7443 10.6968 
26.8181 7.319 14.4934 22.4363 1.18378 15.407 22.0552 0.816869 16.0497 
12.5253 9.48786 10.5121 12.2814 8.47108 11.0095 27.2208 1.68446 13.3957 
27.0152 0.798937 13.4439 27.7369 0.885528 13.8999 27.3856 1.59397 14.4164 
27.18 0.708447 14.4646 17.083 3.23266 16.864 27.7837 4.74701 18.8386 
27.5292 5.57326 19.114 28.2275 5.23447 19.2809 10.6838 0.474025 15.6582 
11.6447 0.731951 16.3717 12.1195 9.14265 16.1131 12.0094 9.14265 15.5638 
12.7908 9.08624 15.1009 12.639 8.22889 15.6646 12.9009 9.08624 15.6502 
25.2643 9.20568 18.4326 16.4132 3.47936 10.8984 20.9523 1.56704 16.6132 
28.3573 2.36654 18.907 28.8017 2.9525 18.7887 14.5973 9.05075 14.2122 
23.1208 4.22678 19.1358 10.6838 5.65816 19.526 11.6116 6.21665 19.0871 
11.4045 3.98409 16.294 28.5587 9.28045 15.3619 28.6191 8.26383 15.542 
25.8308 7.25855 19.1085 26.5415 6.8566 18.2225 26.4574 6.54848 19.114 
25.406 6.57882 19.2051 26.1167 6.17687 18.3192 28.9712 1.57672 13.7561 
23.6861 0.461304 19.4974 23.3333 0.736369 18.7268 16.9763 3.14086 17.7412 
17.6752 3.48307 17.4957 15.9959 0.854606 13.8186 17.1264 0.937988 13.7631 
16.6367 0.959197 14.3844 25.892 7.08996 15.9085 13.6575 4.23293 19.199 
13.3827 5.09807 19.2304 16.2452 2.58936 12.4758 15.848 2.44733 13.3501 
26.8318 2.29726 14.2506 12.7711 3.11313 18.6543 28.2271 9.28045 14.7222 
22.7826 8.04019 11.065 23.3301 8.49619 10.9151 28.9173 2.02161 15.8962 
28.3154 1.98635 15.2514 29.398 1.41253 15.6761 28.9897 1.46342 16.4056 
28.3877 1.42816 15.7609 22.4768 1.18378 14.7952 23.0691 0.789639 14.3829 
12.3765 2.41134 11.0373 12.5486 7.45144 12.7495 12.2329 6.85767 13.5161 
13.0621 6.86206 12.5923 18.1928 1.87616 19.3564 10.9288 8.62659 16.7902 
11.4615 9.14265 16.8255 11.8596 6.07943 14.3095 11.4839 6.79659 14.3593 
24.6801 8.88938 12.3276 24.1135 9.38563 12.1426 26.5859 7.3734 19.1085 
19.8916 3.70215 19.127 19.2202 4.12498 19.2488 25.9499 9.12247 19.1897 
26.5782 9.4199 19.1897 25.9026 7.90581 19.1085 12.5741 6.26122 12.7837 
18.7862 4.81612 10.7481 25.7418 5.99019 19.2051 28.0576 5.76466 19.2809 
14.335 2.70709 11.1036 14.6847 3.57654 10.9098 10.9609 1.24801 16.9405 
11.734 1.39527 17.5603 13.7115 1.47131 18.9203 11.8295 0.731951 17.333 
11.4937 0.731951 16.9758 11.3059 0.663319 18.108 11.6417 0.663319 18.4652 
20.0995 2.34065 12.7253 18.6294 7.16781 10.7411 17.5553 6.77837 19.1467 
16.9673 6.64549 19.1467 14.3321 0.715012 19.5172 11.9927 5.28295 14.3317 
12.366 6.0612 13.5382 11.5393 5.98243 13.5743 25.2047 8.32815 19.2429 
22.8376 9.38563 11.4315 22.8376 8.86923 10.9151 12.5253 9.48786 19.4879 
12.2689 8.48979 19.0019 10.7808 5.90714 15.0832 11.1565 5.18998 15.0335 
10.8362 5.09298 14.2982 11.617 6.00011 14.3815 16.9737 6.04984 19.1467 
23.8899 7.51568 19.1261 24.5044 8.05641 19.2429 24.7775 6.95433 19.2051 
14.4076 9.09372 11.9599 14.2027 8.14447 12.5975 17.3726 0.974802 12.4086 
23.8514 0.894781 12.0936 24.6109 0.739283 12.5543 29.4839 2.54705 19.4839 
14.3842 6.69188 11.1248 14.0221 7.49125 10.8853 21.7599 2.07269 19.0246 
21.8239 2.59623 19.0246 21.0606 2.23148 19.0246 25.9208 7.17748 14.2452 
25.4891 8.11663 14.336 25.7897 7.52235 13.5037 24.8253 7.72905 13.5003 
24.9564 7.38418 14.2419 27.047 3.98028 14.409 27.036 4.92537 14.3863 
26.8241 4.12271 13.4973 27.5276 4.7105 13.631 21.1195 7.30665 14.378 
21.7668 0.975421 17.9254 22.2813 1.71179 18.254 29.282 8.58902 15.3918 
29.2767 9.30857 16.3093 29.3371 8.29195 16.4894 16.8457 6.61651 11.4113 
28.9897 1.25558 16.9717 16.0093 0.820229 18.3823 12.4803 5.2599 13.3659 
12.8006 5.3569 14.1012 10.8362 4.77982 13.5757 10.7795 3.78678 13.2589 
15.187 6.83196 10.6618 15.6751 9.2788 19.5172 15.7555 2.72852 14.1554 
15.9527 3.60781 13.9203 16.1883 2.97428 14.6507 12.5535 8.29323 12.7326 
13.0646 7.77824 13.4631 26.623 4.23501 14.2759 17.9183 0.802324 19.1977 
15.2343 7.23347 19.0769 11.0397 2.43175 12.3766 29.2766 6.32951 10.6914 
28.5818 5.40419 10.6968 16.7762 9.21624 15.6367 16.4854 9.21455 14.8169 
11.7192 4.47654 13.98 12.0395 4.57354 14.7153 11.7979 5.0122 15.497 
11.5244 4.20578 15.1454 11.4776 4.9152 14.7618 15.3514 2.69634 12.6963 
15.7011 3.56578 12.5025 13.1837 0.756296 17.5514 12.4131 1.09279 17.526 
12.0774 0.663319 17.9773 27.6991 0.58415 19.1892 21.7834 7.95072 19.0493 
20.9351 6.81739 19.2049 21.6395 6.97515 19.2049 12.2684 3.4796 12.9693 
27.4272 3.88723 10.9155 18.8968 3.4469 17.9421 18.3493 3.91446 17.558 
19.2091 4.14719 17.4419 13.4044 9.08624 15.5095 14.019 8.99692 16.2064 
24.3127 8.90675 16.3276 24.3183 9.29566 15.5825 12.3556 8.98322 12.3836 
13.3413 8.31677 16.1846 13.3253 9.23053 16.4924 25.2413 6.98413 14.8205 
27.6969 9.19671 19.4158 25.4542 0.810293 19.3715 28.6686 5.59812 11.723 
22.9852 8.92964 12.3539 23.5598 9.20105 12.9346 23.674 8.58669 12.5608 
23.5328 9.38563 12.204 15.6753 9.2788 10.4828 12.3106 9.00193 17.633 
12.2331 9.14265 16.6948 22.8376 9.38563 12.0026 23.2605 9.38563 11.7724 
22.7027 0.894781 11.4184 22.7027 1.41118 10.902 16.4023 5.03055 11.0579 
15.7124 5.27612 10.7176 18.681 4.49191 16.9451 29.3635 6.52345 11.7176 
17.0638 0.721205 10.6776 17.7768 0.974802 11.6097 15.394 3.22781 13.4849 
14.8488 6.70556 19.0769 13.7976 6.40425 19.2304 23.994 6.26455 15.2733 
23.3403 6.89778 15.3156 24.2086 6.82973 14.6058 12.9604 2.90868 10.762 
24.3357 0.789639 14.1054 22.1848 9.13857 14.1285 12.2677 3.33308 10.8259 
10.9768 3.04479 18.7522 10.6838 9.52597 15.6572 11.6126 9.14265 16.2214 
18.5279 6.12304 19.2637 13.1311 2.71592 19.3861 23.9481 7.63822 15.7155 
28.359 8.9082 17.6366 29.4839 9.48394 17.453 28.8211 8.98338 17.0463 
14.1181 2.60918 10.762 15.5598 4.10041 13.2835 12.1185 6.10832 19.0871 
12.8792 6.05608 19.2304 10.7597 1.4557 15.4443 15.581 4.50298 10.9098 
10.9768 3.11056 17.8738 22.29 8.92964 12.1525 16.4737 5.93505 11.7196 
15.7839 6.18062 11.3794 13.1757 9.09372 11.3974 12.9318 8.07693 11.8948 
13.2499 9.09372 12.2594 26.4154 6.40094 15.9068 10.7631 3.00117 16.936 
16.3045 6.33734 19.1467 15.5569 6.53908 19.0769 12.8402 1.48825 17.1344 
19.0502 4.9104 17.5216 25.9059 9.23075 13.9188 26.1635 8.35289 13.7535 
27.1476 9.41172 10.5807 27.4711 8.91638 11.7387 20.609 9.0597 13.5715 
10.4813 9.30857 14.3304 10.9609 2.07125 16.8196 29.2824 5.23447 18.226 
12.8255 3.4818 10.762 12.5544 3.49365 11.5879 27.5766 1.02686 12.4368 
27.5997 0.885528 13.3358 24.7823 6.30678 15.3443 25.6847 6.4054 15.5997 
26.6517 8.38841 13.1085 26.2778 7.55787 12.8586 19.8102 4.58375 17.0551 
19.3315 9.22451 13.4164 25.0691 8.12013 12.8973 25.8461 8.49703 12.9494 
20.2778 0.750168 17.1309 21.089 0.975421 17.7756 21.2931 0.816869 16.9843 
26.7409 9.26628 11.7328 12.836 8.28729 19.0019 13.1757 8.58158 10.8853 
13.2174 7.7248 10.8853 10.9094 8.03754 14.6688 10.9288 8.08777 15.5638 
21.2353 7.27688 16.0064 16.0681 7.18769 10.6618 24.1286 6.94001 15.3866 
24.5876 7.61736 14.8629 24.5275 7.5042 15.7089 22.2697 7.8301 11.065 
22.3363 7.06342 10.7468 27.3317 2.00616 15.2263 15.7551 4.44644 12.689 
16.3071 4.06612 13.372 13.142 0.756296 18.4082 12.5253 0.512136 19.4879 
12.0358 0.663319 18.8341 17.5392 4.81675 11.8059 20.0999 9.11243 12.0018 
19.3492 9.22451 12.5968 10.7795 2.99439 12.8208 24.047 0.789639 14.5437 
24.5558 0.789639 14.7247 20.1769 2.04114 19.2149 20.4608 1.66621 19.2149 
13.2799 0.828161 16.7188 12.2652 0.731951 16.8451 14.8036 3.53443 14.9084 
27.4457 5.62102 13.7813 26.5642 4.13373 17.4883 24.9252 6.1878 19.2051 
12.4456 2.46685 18.895 12.3136 3.14532 19.2682 24.4565 7.96223 14.1213 
10.4813 4.33037 10.6914 23.543 0.894781 11.3633 23.7764 3.87073 19.1358 
23.1112 3.46256 19.2674 16.1194 9.21624 15.6797 15.8286 9.21455 14.8599 
10.6838 0.691434 16.3273 16.5224 4.09335 12.6506 10.5328 0.516055 17.4883 
15.8243 2.06697 19.1035 12.4198 3.83869 12.3138 12.5332 4.67266 12.5315 
29.3635 5.85382 12.0811 16.6905 4.16113 14.3739 10.883 3.50657 14.3284 
10.7597 2.38727 14.4213 10.7795 3.22294 13.6281 10.6838 6.32731 19.3086 
10.9278 6.2286 18.3957 27.2899 9.26628 11.9555 26.7956 9.26628 12.5621 
24.2406 8.09043 12.7457 12.2307 9.31002 13.5464 16.8822 5.44418 11.0579 
17.0443 5.00063 11.0579 21.3843 9.13857 13.7395 14.1563 5.8391 11.9315 
13.9903 5.94228 10.8067 14.8151 6.14372 10.7176 14.5872 5.29095 11.5243 
10.8931 5.79285 16.4859 11.5029 3.05293 19.2682 11.2992 1.94498 19.3463 
19.4244 5.37155 13.0406 21.7832 9.0493 17.9501 26.4795 2.41273 17.5477 
20.2054 0.785083 17.9659 12.3251 4.47264 13.286 27.0551 4.43296 12.6527 
26.533 7.2764 15.8472 12.8716 9.31002 13.0971 13.4478 8.40374 12.6084 
10.6838 6.88416 19.4839 24.8609 6.01221 10.786 13.6264 2.05688 19.3861 
17.8602 3.65865 19.1865 18.5343 4.09005 19.2488 25.2023 7.63406 19.1085 
18.5795 0.511034 19.1977 19.2407 0.511034 19.489 18.8539 1.07384 18.8454 
18.8539 1.58488 19.3564 26.9601 4.88308 15.9846 25.9641 4.94777 16.3827 
26.6643 5.68847 15.8728 28.3573 1.09301 17.6335 29.4839 0.516055 17.453 
28.4736 0.739527 16.9717 15.8164 7.83393 10.9193 19.869 7.24823 10.7411 
13.4429 7.56194 12.6253 29.4839 0.691194 13.1037 10.6414 5.13537 16.1861 
15.5232 5.97724 10.7176 15.0923 6.5254 11.1248 15.8951 6.66548 10.6618 
24.5091 4.53007 19.1358 25.0327 5.60361 19.2051 15.0936 3.65017 14.2197 
21.2114 0.539531 19.4836 29.282 8.80642 14.7227 14.8102 5.13597 15.8094 
29.1914 4.17564 16.3458 13.4454 7.48756 11.7375 29.3184 0.691194 13.6861 
28.2896 0.885528 13.7818 25.4088 8.88588 15.0853 21.6473 6.57508 15.9596 
13.7337 3.13811 10.762 19.0193 5.42545 19.2637 19.7024 5.06359 18.862 
19.1012 4.62703 19.2488 16.0067 4.48848 14.1068 24.8553 8.52641 14.4436 
26.1504 4.883 17.2914 22.0552 0.816869 16.6006 14.4339 8.99692 16.6953 
13.7402 9.23053 16.9812 16.1924 5.68975 10.7176 17.6388 6.30387 19.1467 
13.6414 6.79137 10.8522 13.8074 6.68819 11.977 13.4135 5.93859 11.659 
21.2114 9.46047 10.5164 10.7808 6.22029 15.8058 11.4222 5.72936 15.5468 
22.3242 2.71916 19.2674 26.1437 7.08275 15.076 12.0495 5.66967 15.7969 
28.0838 4.23247 10.6968 16.5381 9.21624 16.1164 23.543 1.35609 10.902 
17.0147 2.56753 12.5249 22.6903 4.93402 14.4798 25.3197 4.89139 18.9557 
24.775 9.29566 15.1928 17.6191 2.59825 17.1992 24.9689 9.23075 13.0248 
25.4571 9.26628 12.3797 21.2114 0.539531 10.5164 17.2542 6.12563 10.7495 
17.4163 5.68208 10.7495 14.0726 4.62859 13.9201 17.7918 4.81612 10.7481 
19.5164 0.785083 18.7039 20.4106 2.96026 19.127 21.2114 9.4836 19.4605 
20.3947 9.46047 19.4605 20.3947 0.539531 19.4605 11.0443 5.64639 12.6667 
10.7031 6.24285 13.3991 22.6323 7.56637 19.1261 22.4103 8.25879 19.3528 
16.1114 9.21455 14.3781 16.852 8.88283 14.5612 16.7597 9.18113 13.7695 
16.9202 2.25604 17.4447 26.5471 4.19271 15.8743 17.8478 0.802324 10.6776 
17.8474 1.77713 10.9322 10.6414 4.82222 15.4636 17.3628 2.43656 10.9322 
25.2777 9.23075 14.3437 19.1591 0.511034 10.6198 18.4979 0.802324 10.6198 
19.1819 0.863491 11.4394 18.6023 1.66581 10.8196 19.2635 1.37453 10.8196 
12.231 3.91245 15.1359 10.6414 4.09966 15.7767 12.6884 5.45992 12.6114 
29.398 1.37983 14.3459 28.3693 1.57416 14.4415 29.398 1.90352 14.493 
15.6753 0.482783 19.2788 12.8938 9.23053 18.0716 12.9354 9.23053 17.2148 
12.6374 8.23246 17.5856 13.3827 5.91538 19.2304 29.398 2.30741 15.373 
18.6919 3.20087 18.6052 19.3633 2.77804 18.4834 14.3321 9.51724 10.715 
13.7452 9.09372 11.6003 13.2834 4.78783 13.797 28.2455 0.803295 10.8033 
27.696 0.580122 10.8033 10.7808 6.6297 14.7701 10.8362 5.81554 13.9851 
14.8823 4.47305 10.9098 14.1889 5.04475 10.8067 26.4125 5.69569 16.7053 
26.878 0.798937 12.8798 29.4839 3.10389 19.3086 12.1787 3.71844 19.2682 
12.671 3.86261 19.2682 12.9962 3.28905 19.3861 13.4885 3.43321 19.3861 
12.5599 8.37317 16.6475 19.1394 3.37317 19.2488 19.8108 2.95034 19.127 
18.9147 2.31998 19.3564 18.5757 9.22882 17.879 18.5111 9.22882 18.4265 
17.9786 9.28102 17.5679 18.0432 9.28102 17.0204 10.696 3.65368 10.6914 
11.6268 3.78234 10.8259 15.8243 0.820229 17.8568 16.1387 0.660225 17.2012 
11.9895 4.3511 15.9176 18.2227 3.01551 17.8797 19.2407 9.48897 19.489 
19.1722 8.71779 19.2288 19.1722 9.22882 18.7178 18.8376 9.22882 19.2288 
10.7808 7.19137 14.5611 24.5295 8.4318 13.4429 10.5261 2.55518 19.4839 
10.7031 6.61201 13.9629 21.3022 5.59534 17.5126 22.8684 0.461304 10.5164 
23.7088 0.461304 10.4613 28.1146 0.739527 17.4345 10.883 4.38356 14.6818 
20.7067 0.967332 15.8563 21.3114 0.816869 16.4083 21.6042 0.816869 15.7333 
18.5111 8.4265 19.2288 10.5261 3.11203 10.6914 23.0081 1.63532 19.2294 
17.2478 0.873681 16.5365 17.2082 0.810814 17.4291 15.4393 4.93811 15.3499 
27.3619 5.52869 16.5885 29.2824 5.23399 18.8069 16.3236 0.660225 17.7267 
14.0281 7.13776 19.1262 14.3988 9.05075 13.3161 14.0223 9.09372 12.4892 
10.6838 9.48394 16.8842 10.7808 7.35226 15.0832 25.191 0.817342 16.9459 
25.4838 0.961729 17.7813 26.0399 0.770608 17.1379 25.0805 9.23075 13.7262 
24.252 9.20105 13.5746 24.5778 9.29566 14.5753 27.5537 0.739527 16.9277 
13.6619 0.715012 19.2854 13.7091 0.756296 18.2057 25.9958 6.71943 10.843 
25.3714 6.19942 10.786 18.134 9.28102 16.4557 17.4298 9.28102 16.35 
19.5164 1.29612 19.2149 26.9147 5.56487 17.4497 22.4818 1.83363 19.2294 
13.6575 5.05024 19.199 25.5657 9.23075 13.3372 26.0539 9.26628 12.6921 
18.5318 0.863491 11.4971 24.1405 9.20105 12.8732 10.9288 8.41875 16.2242 
26.3713 9.12214 13.4963 29.398 1.74351 15.0157 11.6728 3.59458 19.2682 
17.7936 3.04818 19.1865 18.243 2.42639 19.3564 29.3184 0.474013 14.3554 
29.5239 0.474013 14.9992 29.398 1.16265 15.0152 28.9219 0.688636 15.0153 
28.7164 0.688636 14.3716 18.4142 9.24404 15.7378 13.2265 6.30249 10.8522 
15.5068 0.854606 13.5549 21.8102 9.0493 18.5329 10.8362 5.44637 13.4212 
26.5688 9.17453 10.5807 23.1419 7.62748 19.1261 22.9199 8.31991 19.3528 
29.5239 9.30857 15.6693 29.5239 9.52597 15.0002 29.5239 4.99984 19.526 
29.5239 4.3307 19.3086 13.644 9.31002 13.327 19.8791 6.68386 10.7411 
10.696 4.32379 19.526 28.8059 9.28045 14.7219 13.7428 8.37908 10.8853 
21.8102 8.5329 19.0493 20.2961 0.750168 16.5549 18.3096 3.03686 19.3564 
10.6838 9.2761 16.3181 12.8218 9.23053 16.6331 13.1764 6.06076 12.42 
24.8584 9.50238 19.3715 25.4136 9.50238 19.1897 13.5884 4.97037 14.5208 
12.7958 4.81088 14.7628 13.3108 4.83284 15.4011 14.1461 5.06241 15.0786 
13.8364 4.33385 15.0164 29.4839 1.81496 10.5431 29.5378 1.03924 10.5431 
29.4839 9.45682 11.8151 29.4839 8.18494 19.4568 16.2879 3.60115 19.2932 
17.4179 4.37735 10.7481 13.1584 7.74256 16.8664 29.5378 0.541439 11.0409 
29.4839 0.541439 11.8166 28.1637 0.688636 14.4897 23.7563 8.16821 19.2429 
12.2411 5.00858 16.2175 15.0137 5.24619 10.7176 13.0924 0.512136 19.2854 
22.5156 0.736369 18.713 23.6779 8.92433 10.9151 22.8429 9.4836 10.5243 
23.6832 9.5387 10.5243 23.6524 9.38563 11.4394 19.5771 2.03122 19.2149 
29.398 0.688636 15.3728 12.4755 4.71388 14.0275 10.7597 0.764265 14.4176 
16.8766 1.47104 17.3379 29.4839 0.543179 18.1849 22.5156 1.25277 19.2294 
12.5045 4.71886 15.4876 12.9874 4.14979 15.1834 19.9506 9.22451 13.1783 
29.4839 8.1833 10.5415 12.403 3.13455 12.2434 27.404 1.44797 15.7358 
19.9231 9.22451 12.6172 13.6619 9.28536 10.715 10.883 4.07041 13.9592 
24.0912 9.20568 18.7403 23.2549 9.35738 18.8502 16.6284 0.660225 16.9871 
26.6596 0.770608 16.2837 26.8279 0.708447 15.3792 28.3432 0.688636 15.0157 
27.8124 1.39708 15.0062 27.3595 0.708447 14.9906 27.9348 0.739527 15.7452 
22.0281 9.4836 19.4836 22.4372 8.84097 19.3528 22.4372 9.35738 18.8364 
10.6838 0.516055 16.8842 24.709 9.20568 18.6143 22.9122 9.20105 13.2669 
16.4754 9.18113 12.955 19.8157 0.511034 10.5431 13.0924 9.28536 10.5121 
18.509 9.48897 10.6776 14.4645 3.84803 14.6792 28.8063 5.2348 19.2809 
24.0807 8.70756 19.2429 23.2443 8.85926 19.3528 22.4102 9.35738 18.2536 
19.8177 9.48897 19.4605 24.2734 9.5387 10.5151 10.696 3.09683 19.4839 
28.6747 0.688636 15.6553 29.2824 5.58466 17.655 29.2824 5.59162 19.2809 
16.5643 6.37798 10.6618 10.696 3.66291 19.2761 10.5328 0.541537 18.2186 
10.5094 0.541537 18.9502 11.2825 0.663319 18.8396 10.7731 1.20486 18.8031 
27.4032 0.739527 16.1339 29.3178 3.86582 17.0113 29.282 9.28045 14.3651 
29.4839 9.30857 16.8961 29.4839 6.89611 10.6914 22.9302 0.736369 19.2294 
10.5341 1.07748 19.4568 10.5341 1.80946 19.4839 11.3072 1.19926 19.3463 
29.0756 0.497801 10.4978 28.6605 0.497801 10.8033 24.2406 9.50238 19.4974 
24.6684 8.70806 19.2429 20.0934 1.32461 19.2149 29.4839 0.723897 16.8869 
29.2767 0.723897 16.3001 28.2664 0.739527 16.3849 29.3051 4.38716 10.6968 
23.6529 9.50188 19.4974 19.8177 0.511034 19.4605 29.3184 6.30451 19.2761 
29.3184 9.2761 13.6955 29.3184 3.69256 10.722 11.4874 0.663319 19.3463 
11.0435 0.535941 19.4934 29.3184 3.12941 10.5161 13.0924 9.48786 19.2854 
29.3184 6.87059 19.4839 29.3184 9.48394 13.1294 22.8517 9.35738 19.3528 
24.2384 0.581027 10.4613 12.0609 9.31002 13.0048 19.4861 1.2374 14.9772 
20.3643 7.17321 14.5001 21.9853 1.18378 15.0906 21.1931 9.04144 17.3266 
19.6084 5.67906 11.6177 21.5788 9.11888 10.5164 19.1957 4.87035 13.9936 
16.1907 6.80585 15.5224 21.0973 2.80699 19.0246 20.7621 0.539531 10.8811 
22.8646 9.20105 12.7331 12.8938 8.71839 18.5837 13.4609 8.51589 18.5837 
14.4654 4.13599 14.5568 21.5788 9.4836 19.1189 11.7721 9.49337 10.5121 
29.398 2.46607 14.7025 29.4839 2.17405 10.9146 29.5437 1.78038 19.4839 
29.5437 9.48394 18.2196 29.4839 0.915145 17.8251 
CELLS 8291 91201
10 6090 1364 6119 6163 6185 6184 6183 6186 6187 6188 
10 908 6104 6111 6148 6191 6190 6189 6192 6193 6194 
10 6097 6138 6082 6170 6197 6196 6195 6198 6199 6200 
10 6097 6082 6132 6170 6195 6202 6201 6198 6200 6203 
10 6098 6097 6150 6174 6206 6205 6204 6207 6208 6209 
10 6091 6108 6088 6149 6212 6211 6210 6213 6214 6215 
10 6080 6114 6089 6151 6218 6217 6216 6219 6220 6221 
10 1158 1601 6108 6117 6224 6223 6222 6225 6226 6227 
10 1581 697 1617 6095 6229 6228 1789 6230 6231 6232 
10 733 697 1139 6095 905 6234 6233 6235 6231 6236 
10 1581 1175 1139 6095 6238 1347 6237 6230 6239 6236 
10 696 1360 731 6096 6241 6240 904 6242 6243 6244 
10 1137 696 1173 6096 6246 6245 1345 6247 6242 6248 
10 1396 1360 1137 6096 1568 6250 6249 6251 6243 6247 
10 6091 6149 6088 6156 6213 6215 6210 6252 6253 6254 
10 511 1578 474 6097 6256 6255 682 6257 6258 6259 
10 721 6127 6147 6181 6262 6261 6260 6263 6264 6265 
10 1570 6138 6097 6170 6267 6197 6266 6268 6199 6198 
10 917 1578 952 6097 6270 6269 1125 6271 6258 6272 
10 931 6093 6110 6148 6275 6274 6273 6276 6277 6278 
10 917 952 474 6097 1125 6280 6279 6271 6272 6259 
10 6105 6081 6112 6164 6283 6282 6281 6284 6285 6286 
10 6091 6139 6149 6156 6288 6287 6213 6252 6289 6253 
10 6139 6102 6149 6156 6291 6290 6287 6289 6292 6253 
10 1570 6097 6132 6170 6266 6201 6293 6268 6198 6203 
10 6087 6089 6114 6151 6295 6217 6294 6296 6221 6220 
10 6088 6108 6091 6123 6211 6212 6210 6297 6298 6299 
10 6101 486 6113 6152 6302 6301 6300 6303 6304 6305 
10 6104 6085 6111 6148 6307 6306 6190 6193 6308 6194 
10 6093 931 6110 6182 6275 6273 6274 6309 6310 6311 
10 464 6101 6113 6177 6313 6300 6312 6314 6315 6316 
10 6086 6093 6110 6182 6318 6274 6317 6319 6309 6311 
10 6080 6101 6118 6157 6322 6321 6320 6323 6324 6325 
10 6086 6116 6093 6182 6327 6326 6318 6319 6328 6309 
10 6116 465 6152 6167 6331 6330 6329 6332 6333 6334 
10 910 6105 6112 6164 6336 6281 6335 6337 6284 6286 
10 6092 6125 468 6177 6340 6339 6338 6341 6342 6343 
10 6080 6118 6101 6159 6320 6321 6322 6344 6345 6346 
10 6119 6090 6163 6166 6183 6186 6188 6347 6348 6349 
10 6088 6127 6147 6154 6351 6261 6350 6352 6353 6354 
10 909 6150 6097 6174 6356 6205 6355 6357 6209 6208 
10 6088 6123 6091 6156 6297 6299 6210 6254 6358 6252 
10 909 6098 6150 6174 6359 6204 6356 6357 6207 6209 
10 465 6103 6116 6152 6361 6360 6331 6330 6362 6329 
10 6101 6118 6157 6159 6321 6325 6324 6346 6345 6363 
10 1601 1577 6108 6117 1782 6364 6223 6226 6365 6227 
10 6080 6089 6114 6176 6216 6217 6218 6366 6367 6368 
10 468 6092 6121 6125 6338 6370 6369 6339 6340 6371 
10 6090 6119 6157 6176 6183 6373 6372 6374 6375 6376 
10 1352 6096 6146 6165 6379 6378 6377 6380 6381 6382 
10 6091 6139 6108 6149 6288 6383 6212 6213 6287 6214 
10 6080 6089 6118 6151 6216 6384 6320 6219 6221 6385 
10 1602 1570 6132 6170 1719 6293 6386 6387 6268 6203 
10 1355 6099 6163 6165 6390 6389 6388 6391 6392 6393 
10 6092 6125 6177 6178 6340 6342 6341 6394 6395 6396 
10 1141 1364 6090 6163 6398 6185 6397 6399 6187 6186 
10 6084 6090 6157 6176 6401 6372 6400 6402 6374 6376 
10 6109 6090 6119 6157 6404 6183 6403 6405 6372 6373 
10 951 1357 915 6103 6407 6406 1123 6408 6409 6410 
10 6088 6106 6127 6154 6412 6411 6351 6352 6413 6353 
10 6083 6092 6177 6178 6415 6341 6414 6416 6394 6396 
10 694 916 953 6104 6418 1124 6417 6419 6420 6421 
10 938 6111 716 6129 6424 6423 6422 6425 6426 6427 
10 1377 936 6110 6130 6430 6429 6428 6431 6432 6433 
10 908 6130 6104 6148 6435 6434 6191 6192 6436 6193 
10 918 954 1580 6105 1126 6438 6437 6439 6440 6441 
10 6090 1351 6109 6119 6443 6442 6404 6183 6444 6403 
10 6112 6081 6136 6164 6282 6446 6445 6286 6285 6447 
10 6118 6086 6157 6159 6449 6448 6325 6345 6450 6363 
10 1570 6097 6138 6169 6266 6197 6267 6451 6452 6453 
10 707 6111 6135 6154 6456 6455 6454 6457 6458 6459 
10 509 915 473 6103 6461 6460 681 6462 6410 6463 
10 694 1395 1358 6104 6465 1566 6464 6419 6466 6467 
10 6104 6130 6085 6148 6434 6468 6307 6193 6436 6308 
10 733 1617 697 6095 6469 6228 905 6235 6232 6231 
10 1175 733 1139 6095 6470 6233 1347 6239 6235 6236 
10 1581 1617 1175 6095 1789 6471 6238 6230 6232 6239 
10 1396 1137 1173 6096 6249 1345 6472 6251 6247 6248 
10 1396 731 1360 6096 6473 6240 1568 6251 6244 6243 
10 696 731 1173 6096 904 6474 6245 6242 6244 6248 
10 6133 6119 6163 6166 6476 6188 6475 6477 6347 6349 
10 913 6112 6132 6136 6480 6479 6478 6481 6445 6482 
10 732 695 1580 6105 903 6484 6483 6485 6486 6441 
10 6083 6177 6125 6178 6414 6342 6487 6416 6396 6395 
10 6087 6114 6089 6146 6294 6217 6295 6488 6489 6490 
10 1357 509 473 6103 6492 681 6491 6409 6462 6463 
10 6093 6085 6110 6148 6494 6493 6274 6277 6308 6278 
10 1358 953 916 6104 6496 1124 6495 6467 6421 6420 
10 1605 1573 6108 6149 1755 6498 6497 6499 6500 6214 
10 910 6112 6136 6164 6335 6445 6501 6337 6286 6447 
10 695 954 918 6105 6503 1126 6502 6486 6440 6439 
10 952 511 474 6097 6504 682 6280 6272 6257 6259 
10 922 908 6104 6111 1065 6191 6505 6506 6189 6190 
10 6092 468 6124 6177 6338 6508 6507 6341 6343 6509 
10 6093 6086 6110 6118 6318 6317 6274 6510 6449 6511 
10 6085 6093 6110 6118 6494 6274 6493 6512 6510 6511 
10 6119 6099 6133 6163 6514 6513 6476 6188 6389 6475 
10 1352 6096 6128 6146 6379 6516 6515 6377 6378 6517 
10 6105 687 6106 6154 6520 6519 6518 6521 6522 6413 
10 6085 6110 6115 6118 6493 6524 6523 6512 6511 6525 
10 6110 6085 6115 6155 6493 6523 6524 6526 6527 6528 
10 1604 1572 6106 6126 1742 6530 6529 6531 6532 6533 
10 6095 1573 6127 6149 6536 6535 6534 6537 6500 6538 
10 493 6109 1378 6122 6541 6540 6539 6542 6543 6544 
10 1573 6095 6108 6149 6536 6545 6498 6500 6537 6214 
10 1612 697 1581 6095 6546 6229 1750 6547 6231 6230 
10 728 1139 697 6095 6548 6234 866 6549 6236 6231 
10 1169 1581 1139 6095 6550 6237 1308 6551 6230 6236 
10 6127 709 6147 6154 6553 6552 6261 6353 6554 6354 
10 1137 1166 696 6096 1282 6555 6246 6247 6556 6242 
10 1360 696 726 6096 6241 856 6557 6243 6242 6558 
10 1137 1360 1390 6096 6250 1530 6559 6247 6243 6560 
10 1384 1352 6128 6146 1535 6515 6561 6562 6377 6517 
10 6147 6094 6160 6181 6565 6564 6563 6265 6566 6567 
10 6095 6088 6108 6149 6568 6211 6545 6537 6215 6214 
10 1572 6112 6105 6126 6570 6281 6569 6532 6571 6572 
10 6083 6137 6102 6139 6575 6574 6573 6576 6577 6291 
10 1141 6163 6090 6166 6399 6186 6397 6578 6349 6348 
10 947 917 474 6097 1076 6279 6579 6580 6271 6259 
10 1388 1165 1364 6090 6582 6581 1414 6583 6584 6185 
10 1584 1604 1572 6106 1741 1742 1743 6585 6529 6530 
10 1592 6126 6106 6149 6587 6533 6586 6588 6589 6590 
10 922 6104 698 6111 6505 6592 6591 6506 6190 6593 
10 6083 6092 6124 6177 6415 6507 6594 6414 6341 6509 
10 6096 6087 6128 6146 6596 6595 6516 6378 6488 6517 
10 468 500 6124 6177 650 6597 6508 6343 6598 6509 
10 1610 6092 6124 6173 6600 6507 6599 6601 6602 6603 
10 718 686 699 6107 835 836 834 6604 6605 6606 
10 1373 6089 6109 6119 6609 6608 6607 6610 6611 6403 
10 6100 6111 6131 6154 6614 6613 6612 6615 6458 6616 
10 927 6116 6093 6150 6618 6326 6617 6619 6620 6621 
10 6089 1373 6109 6172 6609 6607 6608 6622 6623 6624 
10 6097 6082 6098 6150 6195 6625 6206 6205 6626 6204 
10 486 464 6101 6113 594 6313 6302 6301 6312 6300 
10 6111 6100 6135 6154 6614 6627 6455 6458 6615 6459 
10 6105 6129 687 6154 6629 6628 6520 6521 6630 6522 
10 1372 6107 6115 6128 6633 6632 6631 6634 6635 6636 
10 6088 6095 6108 6123 6568 6545 6211 6297 6637 6298 
10 6110 6115 6118 6140 6524 6525 6511 6638 6639 6640 
10 721 6147 689 6181 6260 6641 871 6263 6265 6642 
10 1572 6105 6106 6126 6569 6518 6530 6532 6572 6533 
10 1585 1143 6092 6117 6645 6644 6643 6646 6647 6648 
10 486 464 6113 6177 594 6312 6301 6649 6314 6316 
10 6087 6096 6099 6146 6596 6651 6650 6488 6378 6652 
10 686 6107 718 6135 6605 6604 835 6653 6654 6655 
10 6106 709 6127 6154 6656 6553 6411 6413 6554 6353 
10 6081 6105 6106 6154 6283 6518 6657 6658 6521 6413 
10 6117 1585 6139 6173 6646 6660 6659 6661 6662 6663 
10 6086 6103 6122 6152 6666 6665 6664 6667 6362 6668 
10 1577 6108 6117 6139 6364 6227 6365 6669 6383 6659 
10 6110 6115 6140 6155 6524 6639 6638 6526 6528 6670 
10 6089 6087 6146 6151 6295 6488 6490 6221 6296 6671 
10 6103 465 6122 6152 6361 6672 6665 6362 6330 6668 
10 1363 699 6104 6107 6675 6674 6673 6676 6606 6677 
10 1377 936 1362 6110 6430 6678 1465 6428 6429 6679 
10 6094 692 6147 6160 6681 6680 6565 6564 6682 6563 
10 692 6147 6160 6181 6680 6563 6682 6683 6265 6567 
10 6086 6140 6157 6172 6685 6684 6448 6686 6687 6688 
10 6104 6111 6085 6135 6190 6306 6307 6689 6455 6690 
10 1175 1617 733 6095 6471 6469 6470 6239 6232 6235 
10 731 1396 1173 6096 6473 6472 6474 6244 6251 6248 
10 1357 473 503 6103 6491 609 6691 6409 6463 6692 
10 6080 6118 6089 6157 6320 6384 6216 6323 6325 6693 
10 909 6132 6097 6150 6694 6201 6355 6356 6695 6205 
10 6092 6121 6125 6178 6370 6371 6340 6394 6696 6395 
10 6090 6143 6084 6157 6698 6697 6401 6372 6699 6400 
10 916 1391 1358 6104 6700 1505 6495 6420 6701 6467 
10 1609 1143 1167 6092 6703 1225 6702 6704 6644 6705 
10 6088 6095 6127 6149 6568 6534 6351 6215 6537 6538 
10 6088 6106 6126 6149 6412 6533 6706 6215 6590 6589 
10 721 689 6127 6181 871 6707 6262 6263 6642 6264 
10 508 1610 6092 6124 6709 6600 6708 6710 6599 6507 
10 6081 6129 6105 6154 6711 6629 6283 6658 6630 6521 
10 465 497 6122 6152 614 6712 6672 6330 6713 6668 
10 6096 6099 6146 6165 6651 6652 6378 6381 6392 6382 
10 950 695 918 6105 6714 6502 1090 6715 6486 6439 
10 1135 1158 6108 6117 1338 6222 6716 6717 6225 6227 
10 6090 6109 6143 6157 6404 6718 6698 6372 6405 6699 
10 1584 6105 701 6106 6721 6720 6719 6585 6518 6722 
10 6111 6081 6131 6154 6724 6723 6613 6458 6658 6616 
10 6097 6132 6082 6150 6201 6202 6195 6205 6695 6626 
10 6089 6146 6115 6151 6490 6726 6725 6221 6671 6727 
10 6082 6097 6113 6138 6195 6729 6728 6196 6197 6730 
10 938 922 716 6111 1023 6731 6422 6424 6506 6423 
10 6101 6157 6086 6159 6324 6448 6732 6346 6363 6450 
10 481 6090 6109 6143 6734 6404 6733 6735 6698 6718 
10 477 6103 920 6116 6738 6737 6736 6739 6360 6740 
10 685 6135 6100 6154 6742 6627 6741 6743 6459 6615 
10 6091 1155 6108 6117 6745 6744 6212 6746 6747 6227 
10 915 1357 945 6103 6406 6748 1050 6410 6409 6749 
10 6098 6113 486 6152 6751 6301 6750 6752 6305 6304 
10 6087 6115 6128 6146 6753 6636 6595 6488 6726 6517 
10 6140 6089 6157 6172 6754 6693 6684 6687 6622 6688 
10 477 465 6116 6167 610 6331 6739 6755 6333 6332 
10 724 916 694 6104 6756 6418 830 6757 6420 6419 
10 1147 1588 6095 6108 6760 6759 6758 6761 6762 6545 
10 920 477 6116 6167 6736 6739 6740 6763 6755 6332 
10 6114 6089 6146 6176 6217 6490 6489 6368 6367 6764 
10 464 486 6101 6152 594 6302 6313 6765 6304 6303 
10 686 6104 6107 6135 6766 6677 6605 6653 6689 6654 
10 6080 6157 6089 6176 6323 6693 6216 6366 6376 6367 
10 6137 6091 6139 6178 6767 6288 6577 6768 6769 6770 
10 918 1580 949 6105 6437 6771 1087 6439 6441 6772 
10 1164 6090 6134 6166 6775 6774 6773 6776 6348 6777 
10 6097 6113 6138 6169 6729 6730 6197 6452 6778 6453 
10 1354 1377 6110 6130 1549 6428 6779 6780 6431 6433 
10 1357 951 1393 6103 6407 6781 1565 6409 6408 6782 
10 938 914 6111 6129 1119 6783 6424 6425 6784 6426 
10 953 730 694 6104 6785 902 6417 6421 6786 6419 
10 6104 1363 6107 6155 6673 6676 6677 6787 6788 6789 
10 1610 6124 1587 6173 6599 6790 1676 6601 6603 6791 
10 1615 1580 954 6105 1788 6438 6792 6793 6441 6440 
10 6096 6087 6099 6145 6596 6650 6651 6794 6795 6796 
10 709 693 6106 6127 901 6797 6656 6553 6798 6411 
10 1372 1356 6107 6128 1564 6799 6633 6634 6800 6635 
10 1133 6121 6162 6166 6803 6802 6801 6804 6805 6806 
10 6082 6097 6098 6113 6195 6206 6625 6728 6729 6751 
10 1597 6106 6127 6149 6808 6411 6807 6809 6590 6538 
10 502 473 915 6103 606 6460 6810 6811 6463 6410 
10 1386 694 1358 6104 6812 6464 1504 6813 6419 6467 
10 6092 1585 6117 6173 6643 6646 6648 6602 6662 6661 
10 6088 6095 6123 6181 6568 6637 6297 6814 6815 6816 
10 933 908 6111 6148 1067 6189 6817 6818 6192 6194 
10 477 465 6103 6116 610 6361 6738 6739 6331 6360 
10 693 709 6106 6154 901 6656 6797 6819 6554 6413 
10 6089 6109 6119 6157 6608 6403 6611 6693 6405 6373 
10 6086 6157 6109 6172 6448 6405 6820 6686 6688 6624 
10 1372 6128 6115 6146 6634 6636 6631 6821 6517 6726 
10 1588 1613 1169 6095 1660 6823 6822 6759 6824 6551 
10 6083 6137 6139 6178 6575 6577 6576 6416 6768 6770 
10 1580 695 725 6105 6484 840 6825 6441 6486 6826 
10 6092 484 6121 6180 6828 6827 6370 6829 6830 6831 
10 6111 707 6129 6154 6456 6832 6426 6458 6457 6630 
10 951 915 1357 945 1123 6406 6407 985 1050 6748 
10 473 509 1357 503 681 6492 6491 609 543 6691 
10 916 953 724 694 1124 6833 6756 6418 6417 830 
10 1391 953 916 1358 6834 1124 6700 1505 6496 6495 
10 6110 6140 1370 6155 6638 6836 6835 6526 6670 6837 
10 6082 6132 6136 6150 6202 6482 6838 6626 6695 6839 
10 1599 1584 717 6106 1638 6841 6840 6842 6585 6843 
10 954 949 918 1580 1014 1087 1126 6438 6771 6437 
10 1380 714 699 6107 6845 754 6844 6846 6847 6606 
10 1584 1572 6105 6106 1743 6569 6721 6585 6530 6518 
10 950 918 695 954 1090 6502 6714 1030 1126 6503 
10 509 951 915 6103 6848 1123 6461 6462 6408 6410 
10 1395 694 730 6104 6465 902 6849 6466 6419 6786 
10 1141 1364 1165 6090 6398 6581 1193 6397 6185 6584 
10 6090 1164 6134 6171 6775 6773 6774 6850 6851 6852 
10 6112 6082 6132 6136 6853 6202 6479 6445 6838 6482 
10 1615 732 1580 6105 6854 6483 1788 6793 6485 6441 
10 509 1357 1393 6103 6492 1565 6855 6462 6409 6782 
10 1358 1395 953 6104 1566 6856 6496 6467 6466 6421 
10 699 686 6104 6107 836 6766 6674 6606 6605 6677 
10 695 732 954 6105 903 6857 6503 6486 6485 6440 
10 929 6136 6132 6150 6859 6482 6858 6860 6839 6695 
10 1365 481 6090 6109 6862 6734 6861 6863 6733 6404 
10 1133 6134 6121 6166 6865 6864 6803 6804 6777 6805 
10 6080 6141 6093 6159 6868 6867 6866 6344 6869 6870 
10 6087 6115 6146 6151 6753 6726 6488 6296 6727 6671 
10 6089 6140 1373 6172 6754 6871 6609 6622 6687 6623 
10 913 6132 929 6136 6478 6858 1116 6481 6482 6859 
10 1352 6146 1375 6165 6377 6872 1537 6380 6382 6873 
10 692 6094 6147 6168 6681 6565 6680 6874 6875 6876 
10 1130 6121 6092 6178 6878 6370 6877 6879 6696 6394 
10 6084 6166 6090 6176 6880 6348 6401 6402 6881 6374 
10 1144 6092 6121 6180 6883 6370 6882 6884 6829 6831 
10 915 509 473 502 6461 681 6460 6810 527 606 
10 1386 1358 694 1395 1504 6464 6812 1443 1566 6465 
10 1150 6091 6144 6162 6887 6886 6885 6888 6889 6890 
10 6119 6090 6166 6176 6183 6348 6347 6375 6374 6881 
10 1599 6106 717 6127 6842 6843 6840 6891 6411 6892 
10 1130 6092 6117 6178 6877 6648 6893 6879 6394 6894 
10 1380 714 6107 6128 6845 6847 6846 6895 6896 6635 
10 1580 695 732 725 6484 903 6483 6825 840 780 
10 733 1139 697 728 6233 6234 905 777 6548 866 
10 1169 1581 1175 1139 6550 6238 1235 1308 6237 1347 
10 1581 1612 1617 697 1750 1645 1789 6229 6546 6228 
10 696 731 1360 726 904 6240 6241 856 761 6557 
10 696 1166 1137 1173 6555 1282 6246 6245 1206 1345 
10 474 952 917 947 6280 1125 6279 6579 982 1076 
10 1396 1137 1360 1390 6249 6250 1568 1424 6559 1530 
10 6103 6086 6116 6152 6666 6327 6360 6362 6667 6329 
10 1372 1384 6128 6146 1540 6561 6634 6821 6562 6517 
10 6137 6114 6162 6176 6899 6898 6897 6900 6368 6901 
10 6126 6088 6149 6161 6706 6215 6589 6902 6903 6904 
10 709 721 6127 6147 877 6262 6553 6552 6260 6261 
10 6080 6142 6141 6159 6906 6905 6868 6344 6907 6869 
10 6091 6137 6114 6162 6767 6899 6908 6889 6897 6898 
10 502 944 920 6103 6910 972 6909 6811 6911 6737 
10 723 1386 699 6104 6913 6912 751 6914 6813 6674 
10 6109 6157 6089 6172 6405 6693 6608 6624 6688 6622 
10 6106 6088 6127 6149 6412 6351 6411 6590 6215 6538 
10 6082 6113 6098 6159 6728 6751 6625 6915 6916 6917 
10 6094 6120 6147 6168 6919 6918 6565 6875 6920 6876 
10 1378 493 1365 6109 6539 6921 1436 6540 6541 6863 
10 6093 6116 6086 6159 6326 6327 6318 6870 6922 6450 
10 1155 6091 6108 6123 6745 6212 6744 6923 6299 6298 
10 6088 6126 6106 6161 6706 6533 6412 6903 6902 6924 
10 6102 1569 6126 6170 6927 6926 6925 6928 6929 6930 
10 1606 725 1584 6105 6932 6931 1635 6933 6826 6721 
10 1569 6102 6126 6149 6927 6925 6926 6934 6290 6589 
10 1598 937 6112 6132 6937 6936 6935 6938 6939 6479 
10 932 6098 6116 6150 6942 6941 6940 6943 6204 6620 
10 6102 1569 6138 6139 6927 6945 6944 6291 6946 6947 
10 1164 6134 1140 6166 6773 6948 1241 6776 6777 6949 
10 1365 6090 1351 6109 6861 6443 1523 6863 6404 6442 
10 6116 6093 6150 6159 6326 6621 6620 6922 6870 6950 
10 6094 6144 6123 6156 6953 6952 6951 6954 6955 6358 
10 936 912 6110 6130 1107 6956 6429 6432 6957 6433 
10 6113 6101 6152 6159 6300 6303 6305 6916 6346 6958 
10 6099 6114 6146 6176 6959 6489 6652 6960 6368 6764 
10 691 716 6111 6129 886 6423 6961 6962 6427 6426 
10 6121 472 6125 6134 6964 6963 6371 6864 6965 6966 
10 6125 6143 6153 6157 6969 6968 6967 6970 6699 6971 
10 6107 6087 6115 6128 6972 6753 6632 6635 6595 6636 
10 6098 6113 6152 6159 6751 6305 6752 6917 6916 6958 
10 906 6093 931 6148 6973 6275 1033 6974 6277 6276 
10 1605 1573 1588 6108 1755 1756 1754 6497 6498 6762 
10 1353 1378 6109 6122 1542 6540 6975 6976 6544 6543 
10 1585 1577 1601 6117 1781 1782 1654 6646 6365 6226 
10 6111 6100 6131 6135 6614 6612 6613 6455 6627 6977 
10 1364 1351 6090 6119 1520 6443 6185 6184 6444 6183 
10 6107 718 6135 6158 6604 6655 6654 6978 6979 6980 
10 466 6113 6097 6169 6982 6729 6981 6983 6778 6452 
10 6098 486 6113 6174 6750 6301 6751 6207 6984 6985 
10 1605 1577 1593 6108 1784 1785 1761 6497 6364 6986 
10 923 6098 909 6174 6987 6359 1081 6988 6207 6357 
10 6094 6123 6144 6160 6951 6952 6953 6564 6989 6990 
10 1575 6124 6138 6173 6993 6992 6991 6994 6603 6995 
10 1576 1597 6106 6127 1777 6808 6996 6997 6807 6411 
10 1609 1585 1143 6092 1651 6645 6703 6704 6643 6644 
10 1373 6109 1351 6119 6607 6442 1524 6610 6403 6444 
10 6099 6087 6114 6145 6650 6294 6959 6796 6795 6998 
10 707 719 691 6129 851 888 889 6832 6999 6962 
10 1610 1579 6092 6173 1726 7000 6600 6601 7001 6602 
10 931 6110 928 6148 6273 7002 1037 6276 6278 7003 
10 932 909 6098 6150 1083 6359 6942 6943 6356 6204 
10 6093 6141 6082 6159 6867 7005 7004 6870 6869 6915 
10 698 710 6111 6135 832 7006 6593 7007 7008 6455 
10 685 6100 6135 6158 6741 6627 6742 7009 7010 6980 
10 6102 6126 6149 6161 6925 6589 6290 7011 6902 6904 
10 909 941 6132 6150 1079 7012 6694 6356 7013 6695 
10 6080 6093 6118 6159 6866 6510 6320 6344 6870 6345 
10 6105 6081 6106 6126 6283 6657 6518 6572 7014 6533 
10 486 470 498 6098 668 667 630 6750 7015 7016 
10 6102 6138 1569 6170 6944 6945 6927 6928 6199 6929 
10 1588 1573 6095 6108 1756 6536 6759 6762 6498 6545 
10 6105 6112 6081 6126 6281 6282 6283 6572 6571 7014 
10 6125 6084 6143 6157 7017 6697 6969 6970 6400 6699 
10 6082 6142 6113 6159 7019 7018 6728 6915 6907 6916 
10 6094 692 6160 6168 6681 6682 6564 6875 6874 7020 
10 493 469 6109 6122 658 7021 6541 6542 7022 6543 
10 498 486 6098 6174 630 6750 7016 7023 6984 6207 
10 6133 6162 6114 6176 7025 6898 7024 7026 6901 6368 
10 1355 6163 1368 6165 6388 7027 1556 6391 6393 7028 
10 1605 6108 1593 6149 6497 6986 1761 6499 6214 7029 
10 464 6125 6101 6177 7031 7030 6313 6314 6342 6315 
10 6123 6094 6156 6181 6951 6954 6358 6816 6566 7032 
10 1601 1588 1158 6108 1657 7033 6224 6223 6762 6222 
10 1154 6094 6144 6160 7035 6953 7034 7036 6564 6990 
10 6101 6125 6153 6157 7030 6967 7037 6324 6970 6971 
10 1155 6091 6123 6144 6745 6299 6923 7038 6886 6952 
10 6098 6116 6150 6159 6941 6620 6204 6917 6922 6950 
10 911 932 6098 6116 1103 6942 7039 7040 6940 6941 
10 6133 6119 6166 6176 6476 6347 6477 7026 6375 6881 
10 6087 6099 6114 6146 6650 6959 6294 6488 6652 6489 
10 1152 6133 6163 6166 7042 6475 7041 7043 6477 6349 
10 1359 1388 6090 6171 1516 6583 7044 7045 7046 6850 
10 710 707 6111 6135 815 6456 7006 7008 6454 6455 
10 1365 506 1389 6090 7048 7047 1439 6861 7049 7050 
10 6119 6089 6157 6176 6611 6693 6373 6375 6367 6376 
10 483 1587 508 6124 7052 7051 571 7053 6790 6710 
10 6080 6137 6157 6176 7055 7054 6323 6366 6900 6376 
10 1131 6108 6095 6123 7057 6545 7056 7058 6298 6637 
10 1377 924 936 6130 7059 994 6430 6431 7060 6432 
10 685 707 6135 6154 816 6454 6742 6743 6457 6459 
10 938 716 703 6129 6422 805 7061 6425 6427 7062 
10 707 691 6111 6129 889 6961 6456 6832 6962 6426 
10 1588 1169 1147 6095 6822 1234 6760 6759 6551 6758 
10 1143 1130 6092 6117 1301 6877 6644 6647 6893 6648 
10 1592 6106 1597 6149 6586 6808 1705 6588 6590 6809 
10 728 1171 6095 6160 7064 7063 6549 7065 7066 7067 
10 6096 6145 1142 6168 6794 7069 7068 7070 7071 7072 
10 926 6105 1586 6112 7075 7074 7073 7076 6281 7077 
10 6082 6141 6142 6159 7005 6905 7019 6915 6869 6907 
10 1613 1581 1169 6095 1752 6550 6823 6824 6230 6551 
10 729 697 1612 6095 868 6546 7078 7079 6231 6547 
10 728 1171 1139 6095 7064 1310 6548 6549 7063 6236 
10 1166 722 696 6096 7080 852 6555 6556 7081 6242 
10 1137 1390 1168 6096 6559 7082 1284 6247 6560 7083 
10 1360 726 1392 6096 6557 7084 1531 6243 6558 7085 
10 487 6125 6134 6143 7087 6966 7086 7088 6969 7089 
10 6094 6147 6156 6181 6565 7090 6954 6566 6265 7032 
10 6091 6114 6133 6162 6908 7024 7091 6889 6898 7025 
10 1372 1384 1356 6128 1540 1563 1564 6634 6561 6800 
10 6080 6102 6137 6156 7092 6574 7055 7093 6292 7094 
10 721 693 709 6127 900 901 877 6262 6798 6553 
10 1569 6139 6102 6149 6946 6291 6927 6934 6287 6290 
10 1604 1576 1592 6106 1776 1779 1748 6529 6996 6586 
10 1593 6108 6139 6149 6986 6383 7095 7029 6214 6287 
10 6087 6145 6120 6179 6795 7097 7096 7098 7099 7100 
10 1166 722 6096 6168 7080 7081 6556 7101 7102 7070 
10 6098 911 6116 6167 7039 7040 6941 7103 7104 6332 
10 6080 6118 6093 6131 6320 6510 6866 7105 7106 7107 
10 6088 6123 6156 6181 6297 6358 6254 6814 6816 7032 
10 947 474 505 6097 6579 622 7108 6580 6259 7109 
10 6147 6094 6156 6179 6565 6954 7090 7110 7111 7112 
10 1353 6122 6109 6172 6976 6543 6975 7113 7114 6624 
10 502 920 477 6103 6909 6736 530 6811 6737 6738 
10 1592 1604 6106 6126 1748 6529 6586 6587 6531 6533 
10 1363 699 1386 6104 6675 6912 1446 6673 6674 6813 
10 1370 1354 6110 6155 1552 6779 6835 6837 7115 6526 
10 1150 6117 6091 6162 7116 6746 6887 6888 7117 6889 
10 951 1357 1393 945 6407 1565 6781 985 6748 7118 
10 953 724 694 730 6833 830 6417 6785 796 902 
10 1614 1578 1607 511 1786 1711 1664 7119 6256 7120 
10 6088 6156 6147 6181 6254 7090 6350 6814 7032 6265 
10 941 929 913 6132 1085 1116 1113 7012 6858 6478 
10 6099 6096 6145 6165 6651 6794 6796 6392 6381 7121 
10 1586 6105 1572 6112 7074 6569 1746 7077 6281 6570 
10 487 6125 472 6134 7087 6963 680 7086 6966 6965 
10 1157 495 6121 6134 7124 7123 7122 7125 7126 6864 
10 910 6112 934 6136 6335 7127 1096 6501 6445 7128 
10 6104 6085 6107 6135 6307 7129 6677 6689 6690 6654 
10 1357 509 1393 503 6492 6855 1565 6691 543 7130 
10 952 1614 1578 1608 7131 1786 6269 7132 1680 1713 
10 1395 1391 1358 953 1472 1505 1566 6856 6834 6496 
10 1615 949 954 1580 7133 1014 6792 1788 6771 6438 
10 501 6134 1164 6171 7135 6773 7134 7136 6852 6851 
10 1593 6108 1577 6139 6986 6364 1785 7095 6383 6669 
10 508 1587 1610 6124 7051 1676 6709 6710 6790 6599 
10 1143 1158 1135 6117 1228 1338 1339 6647 6225 6717 
10 685 6147 6100 6158 7138 7137 6741 7009 7139 7010 
10 950 954 695 732 1030 6503 6714 7140 6857 903 
10 6087 6114 6145 6179 6294 6998 6795 7098 7141 7099 
10 6097 6113 466 6174 6729 6982 6981 6208 6985 7142 
10 6091 6123 6144 6156 6299 6952 6886 6252 6358 6955 
10 701 6105 687 6106 6720 6520 846 6722 6518 6519 
10 1585 1596 6139 6173 1729 7143 6660 6662 7144 6663 
10 705 6160 6095 6181 7146 7067 7145 7147 6567 6815 
10 6120 708 6147 6168 7149 7148 6918 6920 7150 6876 
10 1150 1155 6091 6117 1263 6745 6887 7116 6747 6746 
10 6081 6105 6129 6164 6283 6629 6711 6285 6284 7151 
10 6099 6119 6133 6176 6514 6476 6513 6960 6375 7026 
10 910 6105 926 6112 6336 7075 1094 6335 6281 7076 
10 1348 1373 6089 6140 1475 6609 7152 7153 6871 6754 
10 487 6125 6143 6153 7087 6969 7088 7154 6967 6968 
10 6081 6111 6129 6154 6724 6426 6711 6658 6458 6630 
10 6089 1348 6115 6146 7152 7155 6725 6490 7156 6726 
10 725 701 1584 6105 783 6719 6931 6826 6720 6721 
10 6080 6137 6101 6157 7055 7157 6322 6323 7054 6324 
10 1355 1368 1375 6165 1556 1538 1557 6391 7028 6873 
10 492 468 6121 6125 654 6369 7158 7159 6339 6371 
10 6123 1151 6144 6160 7161 7160 6952 6989 7162 6990 
10 1348 6089 6115 6140 7152 6725 7155 7153 6754 6639 
10 464 6101 6125 6153 6313 7030 7031 7163 7037 6967 
10 1165 6090 1388 6171 6584 6583 6582 7164 6850 7046 
10 6082 6150 6093 6159 6626 6621 7004 6915 6950 6870 
10 6100 6131 6081 6154 6612 6723 7165 6615 6616 6658 
10 1389 1359 6090 6171 1519 7044 7050 7166 7045 6850 
10 6093 6080 6131 6141 6866 7105 7107 6867 6868 7167 
10 6101 464 6152 6153 6313 6765 6303 7037 7163 7168 
10 6110 6085 6130 6148 6493 6468 6433 6278 6308 6436 
10 1385 1357 503 6103 1490 6691 7169 7170 6409 6692 
10 6102 6088 6149 6156 7171 6215 6290 6292 6254 6253 
10 914 6111 6129 6164 6783 6426 6784 7172 7173 7151 
10 6102 6080 6137 6142 7092 7055 6574 7174 6906 7175 
10 1364 1351 1388 6090 1520 1517 1414 6185 6443 6583 
10 943 1608 6097 6132 7178 7177 7176 7179 7180 6201 
10 692 6147 708 6168 6680 7148 895 6874 6876 7150 
10 1388 1351 1359 6090 1517 1515 1516 6583 6443 7044 
10 948 1391 916 6104 7181 6700 1064 7182 6701 6420 
10 6102 6149 6088 6161 6290 6215 7171 7011 6904 6903 
10 6097 6098 6113 6174 6206 6751 6729 6208 6207 6985 
10 497 469 6122 6153 659 7022 6712 7183 7184 7185 
10 6083 6102 6137 6142 6573 6574 6575 7186 7174 7175 
10 6089 6115 6118 6151 6725 6525 6384 6221 6727 6385 
10 1365 481 506 6090 6862 555 7048 6861 6734 7049 
10 6099 6114 6133 6145 6959 7024 6513 6796 6998 7187 
10 950 727 695 6105 7188 842 6714 6715 7189 6486 
10 1133 1160 6134 6166 1328 7190 6865 6804 7191 6777 
10 954 732 1615 6105 6857 6854 6792 6440 6485 6793 
10 509 1393 951 6103 6855 6781 6848 6462 6782 6408 
10 953 1395 730 6104 6856 6849 6785 6421 6466 6786 
10 6087 6096 6120 6145 6596 7192 7096 6795 6794 7097 
10 713 6147 692 6181 7193 6680 893 7194 6265 6683 
10 708 6120 6147 6158 7149 6918 7148 7195 7196 7139 
10 1350 1363 6104 6155 1507 6673 7197 7198 6788 6787 
10 1598 937 1586 6112 6937 7199 1689 6935 6936 7077 
10 709 689 721 6147 876 871 877 6552 6641 6260 
10 919 1362 936 6110 7200 6678 991 7201 6679 6429 
10 1351 1389 1359 6090 1518 1519 1515 6443 7050 7044 
10 6080 6114 6151 6179 6218 6220 6219 7202 7141 7203 
10 6133 6114 6144 6145 7024 7205 7204 7187 6998 7206 
10 6120 6147 6158 6179 6918 7139 7196 7100 7110 7207 
10 1602 1590 1570 6170 1722 1721 1719 6387 7208 6268 
10 6094 6114 6144 6156 7209 7205 6953 6954 7210 6955 
10 1152 6133 6099 6163 7042 6513 7211 7041 6475 6389 
10 1575 6138 6124 6169 6991 6992 6993 7212 6453 7213 
10 6100 6147 6156 6179 7137 7090 7214 7215 7110 7112 
10 908 940 6130 6148 1069 7216 6435 6192 7217 6436 
10 1599 1576 6106 6127 1774 6996 6842 6891 6997 6411 
10 714 690 6107 6128 878 7218 6847 6896 7219 6635 
10 1386 1395 694 730 1443 6465 6812 7220 6849 902 
10 509 915 951 502 6461 1123 6848 527 6810 7221 
10 6125 6084 6134 6143 7017 7222 6966 6969 6697 7089 
10 1579 1610 6092 6180 1726 6600 7000 7223 7224 6829 
10 1154 6144 6094 6145 7034 6953 7035 7225 7206 7226 
10 6094 6120 6145 6179 6919 7097 7226 7111 7100 7099 
10 1617 1612 733 697 1645 7227 6469 6228 6546 905 
10 1175 1139 733 728 1347 6233 6470 7228 6548 777 
10 474 511 952 947 682 6504 6280 6579 7229 982 
10 1173 1137 1396 1390 1345 6249 6472 7230 6559 1424 
10 1580 732 1615 725 6483 6854 1788 6825 780 7231 
10 731 1166 696 1173 7232 6555 904 6474 1206 6245 
10 1169 1617 1175 1581 7233 6471 1235 6550 1789 6238 
10 1360 731 1396 726 6240 6473 1568 6557 761 7234 
10 1381 6122 6172 6175 7236 7114 7235 7237 7238 7239 
10 1141 6090 1128 6166 6397 7240 1278 6578 6348 7241 
10 1164 6090 1128 6171 6775 7240 1269 6851 6850 7242 
10 933 908 922 6111 1067 1065 1066 6817 6189 6506 
10 6108 6091 6117 6139 6212 6746 6227 6383 6288 6659 
10 1372 6107 1376 6115 6633 7243 1488 6631 6632 7244 
10 6082 6136 6112 6141 6838 6445 6853 7005 7245 7246 
10 1354 1366 1377 6130 1550 1468 1549 6780 7247 6431 
10 6083 6101 6113 6142 7249 6300 7248 7186 7250 7018 
10 1155 1150 6091 6144 1263 6887 6745 7038 6885 6886 
10 6101 6083 6113 6177 7249 7248 6300 6315 6414 6316 
10 1575 1603 6124 6173 1772 7251 6993 6994 7252 6603 
10 1371 6089 6119 6146 7254 6611 7253 7255 6490 7256 
10 925 914 938 6129 1120 1119 1026 7257 6784 6425 
10 922 698 716 6111 6591 802 6731 6506 6593 6423 
10 6093 6118 6085 6131 6510 6512 6494 7107 7106 7258 
10 6080 6100 6131 6161 7259 6612 7105 7260 7261 7262 
10 1133 6162 1148 6166 6801 7263 1331 6804 6806 7264 
10 1143 1130 1167 6092 1301 1295 1225 6644 6877 6705 
10 484 468 6092 6121 652 6338 6828 6827 6369 6370 
10 724 698 946 6104 799 7266 7265 6757 6592 7267 
10 1393 1385 1357 503 1427 1490 1565 7130 7169 6691 
10 907 920 6103 6116 1055 6737 7268 7269 6740 6360 
10 1389 6090 506 6171 7050 7049 7047 7166 6850 7270 
10 6093 6082 6141 6150 7004 7005 6867 6621 6626 7271 
10 6086 6153 6109 6157 7273 7272 6820 6448 6971 6405 
10 1574 1598 6112 6132 1762 6935 7274 7275 6938 6479 
10 6085 6104 6107 6155 6307 6677 7129 6527 6787 6789 
10 1366 924 1377 6130 7276 7059 1468 7247 7060 6431 
10 916 953 1391 948 1124 6834 6700 1064 998 7181 
10 508 6092 1610 6180 6708 6600 6709 7277 6829 7224 
10 1372 1352 1384 6146 1539 1535 1540 6821 6377 6562 
10 938 703 925 6129 7061 7278 1026 6425 7062 7257 
10 915 944 502 6103 1049 6910 6810 6410 6911 6811 
10 1386 723 694 6104 6913 826 6812 6813 6914 6419 
10 6080 6151 6100 6179 6219 7279 7259 7202 7203 7215 
10 6080 6101 6142 6159 6322 7250 6906 6344 6346 6907 
10 6086 6118 6093 6159 6449 6510 6318 6450 6345 6870 
10 695 727 950 732 842 7188 6714 903 809 7140 
10 1373 1371 6089 6119 1483 7254 6609 6610 7253 6611 
10 486 470 6098 6152 668 7015 6750 6304 7280 6752 
10 1164 1128 6090 6166 1269 7240 6775 6776 7241 6348 
10 927 932 6116 6150 1035 6940 6618 6619 6943 6620 
10 927 6093 906 6150 6617 6973 1031 6619 6621 7281 
10 1612 729 6095 6127 7078 7079 6547 7282 7283 6534 
10 1171 1131 6095 6160 1311 7056 7063 7066 7284 7067 
10 726 1392 6096 6128 7084 7085 6558 7285 7286 6516 
10 6080 6100 6156 6179 7259 7214 7093 7202 7215 7112 
10 1606 1580 725 6105 1736 6825 6932 6933 6441 6826 
10 481 467 6090 6143 639 7287 6734 6735 7288 6698 
10 487 472 499 6134 680 677 643 7086 6965 7289 
10 1608 1570 6097 6132 1714 6266 7177 7180 6293 6201 
10 1149 6099 6133 6145 7291 6513 7290 7292 6796 7187 
10 925 942 914 6164 1093 1121 1120 7293 7294 7172 
10 1591 1603 1575 6173 1735 1772 1773 7295 7252 6994 
10 470 498 6098 6174 667 7016 7015 7296 7023 6207 
10 949 1611 926 6105 7298 7297 1013 6772 7299 7075 
10 1607 504 6097 6169 7302 7301 7300 7303 7304 6452 
10 6093 6141 6136 6150 6867 7245 7305 6621 7271 6839 
10 913 934 6112 6136 1115 7127 6480 6481 7128 6445 
10 1597 6127 1573 6149 6807 6535 1757 6809 6538 6500 
10 927 931 906 6093 1032 1033 1031 6617 6275 6973 
10 1149 1161 1132 6099 1293 1324 1325 7291 7306 7307 
10 6126 6112 6141 6170 6571 7246 7308 6930 7309 7310 
10 929 6132 941 6150 6858 7012 1085 6860 6695 7013 
10 6083 6138 6113 6169 7311 6730 7248 7312 6453 6778 
10 686 710 698 6135 831 832 833 6653 7008 7007 
10 1372 1356 1376 6107 1564 1560 1488 6633 6799 7243 
10 6082 6141 6112 6170 7005 7246 6853 6200 7310 7309 
10 6105 910 6129 6164 6336 7313 6629 6284 6337 7151 
10 690 718 6107 6158 880 6604 7218 7314 6979 6978 
10 1135 6108 1155 6117 6716 6744 1341 6717 6227 6747 
10 945 1357 1387 6103 6748 1493 7315 6749 6409 7316 
10 722 688 6096 6168 853 7317 7081 7102 7318 7070 
10 6082 6098 6150 6159 6625 6204 6626 6915 6917 6950 
10 6088 6154 6147 6161 6352 6354 6350 6903 7319 7320 
10 688 6096 6120 6128 7317 7192 7321 7322 6516 7323 
10 1595 6112 1572 6126 7324 6570 1744 7325 6571 6532 
10 693 717 6106 6127 898 6843 6797 6798 6892 6411 
10 1161 6099 1149 6165 7306 7291 1293 7326 6392 7327 
10 724 946 916 6104 7265 1061 6756 6757 7267 6420 
10 1377 1362 1354 6110 1465 1547 1549 6428 6679 6779 
10 935 482 494 6167 7329 536 7328 7330 7331 7332 
10 919 936 912 6110 991 1107 1105 7201 6429 6956 
10 1380 6107 1356 6128 6846 6799 1561 6895 6635 6800 
10 1131 1147 6095 6108 1317 6758 7056 7057 6761 6545 
10 1348 6089 1371 6146 7152 7254 1482 7156 6490 7255 
10 1611 949 1580 6105 7298 6771 1740 7299 6772 6441 
10 1374 1370 6110 6140 1479 6835 7333 7334 6836 6638 
10 691 716 698 6111 886 802 885 6961 6423 6593 
10 6080 6131 6100 6151 7105 6612 7259 6219 7335 7279 
10 485 497 465 6152 617 614 616 7336 6713 6330 
10 1576 1597 1592 6106 1777 1705 1779 6996 6808 6586 
10 6109 6086 6122 6153 6820 6664 6543 7272 7273 7185 
10 1609 1579 6092 6180 1724 7000 6704 7337 7223 6829 
10 1591 1575 6138 6173 1773 6991 7338 7295 6994 6995 
10 6080 6114 6137 6176 6218 6899 7055 6366 6368 6900 
10 6088 6106 6154 6161 6412 6413 6352 6903 6924 7319 
10 6147 6100 6158 6179 7137 7010 7139 7110 7215 7207 
10 493 1378 1361 6122 6539 1433 7339 6542 6544 7340 
10 1352 1375 1368 6165 1537 1538 1536 6380 6873 7028 
10 6082 6136 6141 6150 6838 7245 7005 6626 6839 7271 
10 937 913 6112 6132 1112 6480 6936 6939 6478 6479 
10 685 6100 6147 6154 6741 7137 7138 6743 6615 6354 
10 1571 1579 1610 6173 1725 1726 1727 7341 7001 6601 
10 1156 1145 1379 6163 1199 7343 7342 7344 7345 7346 
10 6085 6093 6131 6148 6494 7107 7258 6308 6277 7347 
10 1380 699 1363 6107 6844 6675 1449 6846 6606 6676 
10 6098 6152 470 6167 6752 7280 7015 7103 6334 7348 
10 1588 1573 1613 6095 1756 1753 1660 6759 6536 6824 
10 6115 1370 6140 6155 7349 6836 6639 6528 6837 6670 
10 1370 1383 1354 6155 1514 1551 1552 6837 7350 7115 
10 932 909 923 6098 1083 1081 1082 6942 6359 6987 
10 1393 945 1357 1387 7118 6748 1565 1459 7315 1493 
10 499 487 6134 6143 643 7086 7289 7351 7088 7089 
10 6110 1362 6175 6182 6679 7353 7352 6311 7354 7355 
10 6083 6124 6138 6169 6594 6992 7311 7312 7213 6453 
10 724 953 916 946 6833 1124 6756 7265 1017 1061 
10 6081 6126 6112 6141 7014 6571 6282 7356 7308 7246 
10 1130 1144 6092 6121 1304 6883 6877 6878 6882 6370 
10 694 723 1386 730 826 6913 6812 902 748 7220 
10 951 502 915 944 7221 6810 1123 969 6910 1049 
10 1166 6096 1142 6168 6556 7068 1209 7101 7070 7072 
10 6081 6112 6136 6141 6282 6445 6446 7356 7246 7245 
10 949 1615 1611 1580 7133 1693 7298 6771 1788 1740 
10 728 6095 705 6160 6549 7145 776 7065 7067 7146 
10 938 914 922 6111 1119 1117 1023 6424 6783 6506 
10 1167 1609 6092 6180 6702 6704 6705 7357 7337 6829 
10 1133 1148 1160 6166 1331 1280 1328 6804 7264 7191 
10 1570 1590 6138 6170 1721 7358 6267 6268 7208 6199 
10 6086 6101 6153 6157 6732 7037 7273 6448 6324 6971 
10 906 931 928 6148 1033 1037 1036 6974 6276 7003 
10 1615 1606 1580 725 1632 1736 1788 7231 6932 6825 
10 696 722 1166 731 852 7080 6555 904 764 7232 
10 1617 1169 1613 1581 7233 6823 1661 1789 6550 1752 
10 729 733 1612 697 793 7227 7078 868 905 6546 
10 1168 1137 1173 1390 1284 1345 1203 7082 6559 7230 
10 505 511 474 947 540 682 622 7108 7229 6579 
10 1171 1139 1175 728 1310 1347 1219 7064 6548 7228 
10 1360 726 1396 1392 6557 7234 1568 1531 7084 1456 
10 6114 6087 6151 6179 6294 6296 6220 7141 7098 7203 
10 6093 906 6136 6148 6973 7359 7305 6277 6974 7360 
10 6127 6088 6147 6181 6351 6350 6261 6264 6814 6265 
10 1584 701 717 6106 6719 786 6841 6585 6722 6843 
10 1157 495 1144 6121 7124 7361 1247 7122 7123 6882 
10 922 946 698 6104 1020 7266 6591 6505 7267 6592 
10 503 1385 6103 6122 7169 7170 6692 7362 7363 6665 
10 6080 6156 6100 6161 7093 7214 7259 7260 7364 7261 
10 1161 1132 6099 6165 1324 7307 7306 7326 7365 6392 
10 6122 6086 6152 6153 6664 6667 6668 7185 7273 7168 
10 500 483 468 6124 651 649 650 6597 7053 6508 
10 1151 1154 6144 6160 1265 7034 7160 7162 7036 6990 
10 934 910 6136 6164 1096 6501 7128 7366 6337 6447 
10 706 6135 718 6158 7367 6655 838 7368 6980 6979 
10 6101 6084 6125 6157 7369 7017 7030 6324 6400 6970 
10 469 6109 6122 6153 7021 6543 7022 7184 7272 7185 
10 927 932 911 6116 1035 1103 1104 6618 6940 7040 
10 466 491 6113 6169 625 7370 6982 6983 7371 6778 
10 6092 6083 6124 6173 6415 6594 6507 6602 7372 6603 
10 6086 6110 6118 6140 6317 6511 6449 6685 6638 6640 
10 1613 1573 1581 6095 1753 1751 1752 6824 6536 6230 
10 729 689 697 6095 869 867 868 7079 7373 6231 
10 1139 1171 1131 6095 1310 1311 1309 6236 7063 7056 
10 722 688 696 6096 853 854 852 7081 7317 6242 
10 1352 1360 1392 6096 1528 1531 1532 6379 6243 7085 
10 1142 6096 1129 6145 7068 7374 1288 7069 6794 7375 
10 910 950 6105 6129 1089 6715 6336 7313 7376 6629 
10 1391 1350 6104 6130 1506 7197 6701 7377 7378 6434 
10 728 697 689 6095 866 867 865 6549 6231 7373 
10 1581 1573 1612 6095 1751 1749 1750 6230 6536 6547 
10 1139 1131 1169 6095 1309 1307 1308 6236 7056 6551 
10 696 688 726 6096 854 855 856 6242 7317 6558 
10 1129 1166 1137 6096 1281 1282 1283 7374 6556 6247 
10 1390 1360 1352 6096 1530 1528 1529 6560 6243 6379 
10 1127 1150 6144 6162 1262 6885 7379 7380 6888 6890 
10 481 1365 493 6109 6862 6921 552 6733 6863 6541 
10 948 1391 6104 6130 7181 6701 7182 7381 7377 6434 
10 466 6097 480 6169 6981 7382 623 6983 6452 7383 
10 1608 1583 1570 6132 1683 1720 1714 7180 7384 6293 
10 1611 1586 926 6105 1692 7073 7297 7299 7074 7075 
10 693 712 709 6154 896 823 901 6819 7385 6554 
10 1387 945 6103 6182 7315 6749 7316 7386 7387 7388 
10 943 917 909 6097 1075 1073 1074 7176 6271 6355 
10 950 727 6105 6129 7188 7189 6715 7376 7389 6629 
10 1578 1608 1570 6097 1713 1714 1712 6258 7177 6266 
10 705 6095 689 6181 7145 7373 875 7147 6815 6642 
10 6101 6113 6142 6159 6300 7018 7250 6346 6916 6907 
10 917 947 909 6097 1076 1077 1073 6271 6580 6355 
10 466 474 504 6097 618 619 620 6981 6259 7301 
10 479 501 467 6134 578 632 636 7390 7135 7391 
10 1149 6133 6144 6145 7290 7204 7392 7292 7187 7206 
10 1171 1146 1131 6160 1218 1314 1311 7066 7393 7284 
10 1578 1570 1607 6097 1712 1710 1711 6258 6266 7300 
10 1137 6096 1168 6165 6247 7083 1284 7394 6381 7395 
10 919 1362 6110 6182 7200 6679 7201 7396 7354 6311 
10 491 486 6113 6177 596 6301 7370 7397 6649 6316 
10 702 726 6096 6128 760 6558 7398 7399 7285 6516 
10 943 6097 909 6132 7176 6355 1074 7179 6201 6694 
10 6096 688 6120 6168 7317 7321 7192 7070 7318 6920 
10 906 6093 6136 6150 6973 7305 7359 7281 6621 6839 
10 729 689 6095 6127 869 7373 7079 7283 6707 6534 
10 6091 6117 6139 6178 6746 6659 6288 6769 6894 6770 
10 495 472 6121 6134 676 6964 7123 7126 6965 6864 
10 1392 1352 6096 6128 1532 6379 7085 7286 6515 6516 
10 1373 1371 1348 6089 1483 1482 1475 6609 7254 7152 
10 689 6095 6127 6181 7373 6534 6707 6642 6815 6264 
10 505 6097 474 6174 7109 6259 622 7400 6208 7401 
10 1607 6097 1570 6169 7300 6266 1710 7303 6452 6451 
10 1572 1606 1584 6105 1737 1635 1743 6569 6933 6721 
10 6095 1131 6123 6160 7056 7058 6637 7067 7284 6989 
10 944 907 920 6103 1048 1055 972 6911 7268 6737 
10 723 699 686 6104 751 836 827 6914 6674 6766 
10 504 480 6097 6169 562 7382 7301 7304 7383 6452 
10 1150 1153 6117 6162 1261 7402 7116 6888 7403 7117 
10 1162 1150 1130 6117 1306 1305 1300 7404 7116 6893 
10 1612 6095 1589 6127 6547 7405 1644 7282 6534 7406 
10 1164 1140 1128 6166 1241 1275 1269 6776 6949 7241 
10 6080 6102 6156 6161 7092 6292 7093 7260 7011 7364 
10 939 927 911 6116 1059 1104 1101 7407 6618 7040 
10 468 488 500 6177 655 656 650 6343 7408 6598 
10 1592 1569 6126 6149 1704 6926 6587 6588 6934 6589 
10 1599 1576 1584 6106 1774 1775 1638 6842 6996 6585 
10 467 6134 6090 6143 7391 6774 7287 7288 7089 6698 
10 6083 6102 6138 6139 6573 6944 7311 6576 6291 6947 
10 6100 6147 6154 6161 7137 6354 6615 7261 7320 7319 
10 714 690 699 6107 878 879 754 6847 7218 6606 
10 688 702 6096 6128 862 7398 7317 7322 7399 6516 
10 1151 1134 1154 6160 1337 1332 1265 7162 7409 7036 
10 6091 6133 6114 6144 7091 7024 6908 6886 7204 7205 
10 6101 6152 6086 6153 6303 6667 6732 7037 7168 7273 
10 1385 1349 6103 6122 1491 7410 7170 7363 7411 6665 
10 1352 1390 6096 6165 1529 6560 6379 6380 7412 6381 
10 1375 6119 1355 6146 7414 7413 1557 6872 7256 7415 
10 1152 6099 1132 6163 7211 7307 1320 7041 6389 7416 
10 6085 6115 6107 6151 6523 6632 7129 7417 6727 7418 
10 6087 6107 6115 6151 6972 6632 6753 6296 7418 6727 
10 1573 1589 6095 6127 1759 7405 6536 6535 7406 6534 
10 1141 1152 6163 6166 1277 7041 6399 6578 7043 6349 
10 1162 1143 1135 6117 1299 1339 1340 7404 6647 6717 
10 491 6113 6169 6177 7370 6778 7371 7397 6316 7419 
10 6080 6141 6102 6161 6868 7420 7092 7260 7421 7011 
10 6124 6083 6138 6173 6594 7311 6992 6603 7372 6995 
10 464 6125 487 6153 7031 7087 598 7163 6967 7154 
10 492 468 6125 6177 654 6339 7159 7422 6343 6342 
10 1350 6104 6130 6155 7197 6434 7378 7198 6787 7423 
10 6094 6145 6114 6179 7226 6998 7209 7111 7099 7141 
10 6086 6109 6122 6172 6820 6543 6664 6686 6624 7114 
10 6080 6118 6131 6151 6320 7106 7105 6219 6385 7335 
10 479 1140 501 6134 7425 7424 578 7390 6948 7135 
10 1604 1584 1576 6106 1741 1775 1776 6529 6585 6996 
10 690 718 699 6107 880 834 879 7218 6604 6606 
10 685 708 6147 6158 820 7148 7138 7009 7195 7139 
10 469 481 493 6109 660 552 658 7021 6733 6541 
10 947 909 6097 6174 1077 6355 6580 7426 6357 6208 
10 710 707 691 6111 815 889 884 7006 6456 6961 
10 931 912 928 6110 1106 1110 1037 6273 6956 7002 
10 913 929 934 6136 1116 1043 1115 6481 6859 7128 
10 6080 6131 6141 6161 7105 7167 6868 7260 7262 7421 
10 1374 1370 1354 6110 1479 1552 1548 7333 6835 6779 
10 6102 6141 6082 6170 7420 7005 7427 6928 7310 6200 
10 1378 1365 1353 6109 1436 1544 1542 6540 6863 6975 
10 501 475 467 6171 633 631 632 7136 7428 7429 
10 1591 6138 1569 6139 7338 6945 1700 7430 6947 6946 
10 704 1599 717 6127 7431 6840 789 7432 6891 6892 
10 498 466 486 6174 627 629 630 7023 7142 6984 
10 1367 714 1380 6128 7433 6845 1452 7434 6896 6895 
10 722 700 688 6168 767 859 853 7102 7435 7318 
10 1381 1349 6122 6175 1496 7411 7236 7237 7436 7238 
10 1591 6138 6139 6173 7338 6947 7430 7295 6995 6663 
10 1133 1157 6121 6134 1326 7122 6803 6865 7125 6864 
10 1141 1165 1128 6090 1193 1271 1278 6397 6584 7240 
10 6084 6121 6125 6134 7437 6371 7017 7222 6864 6966 
10 1164 1128 1136 6171 1269 1270 1268 6851 7242 7438 
10 6101 6125 6083 6177 7030 6487 7249 6315 6342 6414 
10 1382 1351 1364 6119 1522 1520 1521 7439 6444 6184 
10 1361 478 493 6122 7440 549 7339 7340 7441 6542 
10 910 925 950 6129 1091 1029 1089 7313 7257 7376 
10 1365 1351 1373 6109 1523 1524 1525 6863 6442 6607 
10 6102 6126 6141 6170 6925 7308 7420 6928 6930 7310 
10 1366 1350 1391 6130 1510 1506 1471 7247 7378 7377 
10 1598 921 937 6132 7442 1007 6937 6938 7443 6939 
10 506 481 467 6090 555 639 635 7049 6734 7287 
10 492 6121 472 6125 7158 6964 679 7159 6371 6963 
10 1602 6132 1574 6170 6386 7275 1764 6387 6203 7444 
10 6138 6083 6139 6173 7311 6576 6947 6995 7372 6663 
10 6091 6114 6137 6156 6908 6899 6767 6252 7210 7094 
10 6080 6137 6114 6156 7055 6899 6218 7093 7094 7210 
10 501 1140 1164 6134 7424 1241 7134 7135 6948 6773 
10 1365 1389 1351 6090 1439 1518 1523 6861 7050 6443 
10 1158 1588 1147 6108 7033 6760 1231 6222 6762 6761 
10 1354 6110 1362 6175 6779 6679 1547 7445 7352 7353 
10 949 910 918 6105 1088 1086 1087 6772 6336 6439 
10 1572 1611 1580 6105 1739 1740 1738 6569 7299 6441 
10 695 687 725 6105 841 839 840 6486 6520 6826 
10 946 908 916 6104 1062 1060 1061 7267 6191 6420 
10 1138 1130 1170 6180 1296 1297 1298 7446 7447 7448 
10 507 468 476 6180 646 644 645 7449 7450 7451 
10 6099 6146 6089 6176 6652 6490 7452 6960 6764 6367 
10 486 466 6113 6174 629 6982 6301 6984 7142 6985 
10 690 6107 6128 6158 7218 6635 7219 7314 6978 7453 
10 925 914 6129 6164 1120 6784 7257 7293 7172 7151 
10 491 6169 471 6177 7371 7454 670 7397 7419 7455 
10 6084 6101 6125 6137 7369 7030 7017 7456 7157 7457 
10 6101 6083 6125 6137 7249 6487 7030 7157 6575 7457 
10 686 724 694 6104 829 830 828 6766 6757 6419 
10 1387 1357 1349 6103 1493 1489 1492 7316 6409 7410 
10 473 502 465 6103 606 607 605 6463 6811 6361 
10 1386 1358 1350 6104 1504 1502 1503 6813 6467 7197 
10 6081 6131 6100 6161 6723 6612 7165 7458 7262 7261 
10 706 685 6135 6158 812 6742 7367 7368 7009 6980 
10 910 950 918 6105 1089 1090 1086 6336 6715 6439 
10 727 687 695 6105 843 841 842 7189 6520 6486 
10 1606 1572 1580 6105 1737 1738 1736 6933 6569 6441 
10 908 948 916 6104 1063 1064 1060 6191 7182 6420 
10 945 915 6103 6182 1050 6410 6749 7387 7459 7388 
10 6084 6137 6162 6176 7456 6897 7460 6402 6900 6901 
10 1391 1350 1358 6104 1506 1502 1505 6701 7197 6467 
10 473 465 503 6103 605 608 609 6463 6361 6692 
10 1385 1349 1357 6103 1491 1489 1490 7170 7410 6409 
10 915 907 944 6103 1047 1048 1049 6410 7268 6911 
10 686 694 723 6104 828 826 827 6766 6419 6914 
10 923 6167 6098 6174 7461 7103 6987 6988 7462 6207 
10 471 6169 6124 6177 7454 7213 7463 7455 7419 6509 
10 6125 6084 6137 6178 7017 7456 7457 6395 7464 6768 
10 6081 6100 6154 6161 7165 6615 6658 7458 7261 7319 
10 1602 1570 1583 6132 1719 1720 1718 6386 6293 7384 
10 685 707 710 6135 816 815 810 6742 6454 7008 
10 923 911 6098 6167 1102 7039 6987 7461 7104 7103 
10 6086 6110 6140 6175 6317 6638 6685 7465 7352 7466 
10 6080 6156 6114 6179 7093 7210 6218 7202 7112 7141 
10 6137 6084 6162 6178 7456 7460 6897 6768 7464 7467 
10 6102 6083 6138 6142 6573 7311 6944 7174 7186 7468 
10 6083 6113 6138 6142 7248 6730 7311 7186 7018 7468 
10 1390 1168 6096 6165 7082 7083 6560 7412 7395 6381 
10 6082 6138 6102 6170 6196 6944 7427 6200 6199 6928 
10 1149 6099 6145 6165 7291 6796 7292 7327 6392 7121 
10 1600 6124 496 6169 7471 7470 7469 7472 7213 7473 
10 6083 6137 6101 6142 6575 7157 7249 7186 7175 7250 
10 6110 6130 6085 6155 6433 6468 6493 6526 7423 6527 
10 6085 6107 6115 6155 7129 6632 6523 6527 6789 6528 
10 1127 6144 6133 6162 7379 7204 7474 7380 6890 7025 
10 1592 1572 1604 6126 1747 1742 1748 6587 6532 6531 
10 1601 1577 1588 6108 1782 1783 1657 6223 6364 6762 
10 1142 6145 1134 6168 7069 7475 1333 7072 7071 7476 
10 1349 6103 6122 6175 7410 6665 7411 7436 7477 7238 
10 713 708 692 6147 821 895 893 7193 7148 6680 
10 6090 6134 6084 6143 6774 7222 6401 6698 7089 6697 
10 1353 1381 6122 6172 1543 7236 6976 7113 7235 7114 
10 6084 6134 6090 6166 7222 6774 6401 6880 6777 6348 
10 1162 1130 1143 6117 1300 1301 1299 7404 6893 6647 
10 6085 6107 6135 6151 7129 6654 6690 7417 7418 7478 
10 6101 6137 6080 6142 7157 7055 6322 7250 7175 6906 
10 465 503 6103 6122 608 6692 6361 6672 7362 6665 
10 1350 1366 1383 6155 1510 1511 1512 7198 7479 7350 
10 1134 1151 1163 6160 1337 1319 1336 7409 7162 7480 
10 911 939 6116 6167 1101 7407 7040 7104 7481 6332 
10 711 6128 6120 6158 7483 7323 7482 7484 7453 7196 
10 6082 6102 6138 6142 7427 6944 6196 7019 7174 7468 
10 6084 6101 6137 6157 7369 7157 7456 6400 6324 7054 
10 1163 1151 6123 6160 1319 7161 7485 7480 7162 6989 
10 6136 6131 6148 6164 7486 7347 7360 6447 7487 7488 
10 505 947 6097 6174 7108 6580 7109 7400 7426 6208 
10 6113 6082 6138 6142 6728 6196 6730 7018 7019 7468 
10 1152 1149 6099 6133 1257 7291 7211 7042 7290 6513 
10 1577 1605 1588 6108 1784 1754 1783 6364 6497 6762 
10 923 911 932 6098 1102 1103 1082 6987 7039 6942 
10 688 6120 711 6128 7321 7482 860 7322 7323 7483 
10 1385 1361 1349 6122 1430 1494 1491 7363 7340 7411 
10 933 922 914 6111 1066 1117 1118 6817 6506 6783 
10 1140 495 1157 6134 7489 7124 1244 6948 7126 7125 
10 6094 6114 6156 6179 7209 7210 6954 7111 7141 7112 
10 6112 1574 6132 6170 7274 7275 6479 7309 7444 6203 
10 6096 6120 6145 6168 7192 7097 6794 7070 6920 7071 
10 1369 1381 6172 6175 1501 7235 7490 7491 7237 7239 
10 728 1146 1171 6160 7492 1218 7064 7065 7393 7066 
10 1349 1387 6103 6175 1492 7316 7410 7436 7493 7477 
10 908 928 940 6148 1071 1072 1069 6192 7003 7217 
10 1131 1155 6108 6123 1315 6744 7057 7058 6923 6298 
10 6088 6156 6102 6161 6254 6292 7171 6903 7364 7011 
10 912 919 6110 6182 1105 7201 6956 7494 7396 6311 
10 1594 1570 6138 6169 1715 6267 7495 7496 6451 6453 
10 6085 6111 6131 6135 6306 6613 7258 6690 6455 6977 
10 6086 6152 6101 6159 6667 6303 6732 6450 6958 6346 
10 1150 1162 1135 6117 1306 1340 1343 7116 7404 6717 
10 1153 1133 6121 6162 1329 6803 7497 7403 6801 6802 
10 692 708 720 6168 895 864 892 6874 7150 7498 
10 6087 6107 6151 6158 6972 7418 6296 7499 6978 7500 
10 937 926 1586 6112 1010 7073 7199 6936 7076 7077 
10 1353 1361 1378 6122 1541 1433 1542 6976 7340 6544 
10 1382 6119 1364 6163 7439 6184 1521 7501 6188 6187 
10 921 1583 943 6132 7503 7502 1004 7443 7384 7179 
10 6089 6099 6119 6146 7452 6514 6611 6490 6652 7256 
10 710 691 698 6111 884 885 832 7006 6961 6593 
10 720 708 6120 6168 864 7149 7504 7498 7150 6920 
10 6089 6119 6099 6176 6611 6514 7452 6367 6375 6960 
10 6081 6131 6136 6164 6723 7486 6446 6285 7487 6447 
10 492 472 487 6125 679 680 601 7159 6963 7087 
10 1374 6140 6110 6175 7334 6638 7333 7505 7466 7352 
10 6081 6111 6131 6164 6724 6613 6723 6285 7173 7487 
10 702 726 688 6096 760 855 862 7398 6558 7317 
10 924 1366 948 6130 7276 7506 997 7060 7247 7381 
10 6096 6087 6120 6128 6596 7096 7192 6516 6595 7323 
10 1387 919 945 6182 7507 988 7315 7386 7396 7387 
10 950 925 703 6129 1029 7278 7508 7376 7257 7062 
10 6081 6106 6126 6161 6657 6533 7014 7458 6924 6902 
10 470 6098 6167 6174 7015 7103 7348 7296 6207 7462 
10 1129 1142 1166 6096 1288 1209 1281 7374 7068 6556 
10 936 924 912 6130 994 1108 1107 6432 7060 6957 
10 1353 1381 1361 6122 1543 1495 1541 6976 7236 7340 
10 1600 1587 496 6124 1673 7509 7469 7471 6790 7470 
10 1135 1155 1150 6117 1341 1263 1343 6717 6747 7116 
10 490 481 6109 6143 640 6733 7510 7511 6735 6718 
10 6115 6089 6118 6140 6725 6384 6525 6639 6754 6640 
10 705 728 689 6095 776 865 875 7145 6549 7373 
10 1573 1589 1612 6095 1759 1644 1749 6536 7405 6547 
10 1147 1169 1131 6095 1234 1307 1317 6758 6551 7056 
10 691 703 716 6129 887 805 886 6962 7062 6427 
10 6139 6117 6173 6178 6659 6661 6663 6770 6894 7512 
10 1369 1373 6140 6172 1474 6871 7513 7490 6623 6687 
10 504 480 466 6097 562 623 620 7301 7382 6981 
10 1166 700 722 6168 7514 767 7080 7101 7435 7102 
10 6114 6094 6144 6145 7209 6953 7205 6998 7226 7206 
10 1583 921 1598 6132 7503 7442 1686 7384 7443 6938 
10 1132 1152 1149 6099 1320 1257 1325 7307 7211 7291 
10 1569 1595 6126 6170 1698 7325 6926 6929 7515 6930 
10 687 6105 727 6129 6520 7189 843 6628 6629 7389 
10 6131 6093 6136 6148 7107 7305 7486 7347 6277 7360 
10 6120 6094 6147 6179 6919 6565 6918 7100 7111 7110 
10 908 948 6104 6130 1063 7182 6191 6435 7381 6434 
10 1376 6115 6107 6155 7244 6632 7243 7516 6528 6789 
10 6107 6135 6151 6158 6654 7478 7418 6978 6980 7500 
10 943 1583 1608 6132 7502 1683 7178 7179 7384 7180 
10 492 468 484 6121 654 652 653 7158 6369 6827 
10 1376 6107 1363 6155 7243 6676 1509 7516 6789 6788 
10 6114 6091 6144 6156 6908 6886 7205 7210 6252 6955 
10 1361 1381 1349 6122 1495 1496 1494 7340 7236 7411 
10 6080 6102 6141 6142 7092 7420 6868 6906 7174 6905 
10 713 689 6147 6181 873 6641 7193 7194 6642 6265 
10 6093 6131 6136 6141 7107 7486 7305 6867 7167 7245 
10 6085 6131 6111 6148 7258 6613 6306 6308 7347 6194 
10 943 909 921 6132 1074 1078 1004 7179 6694 7443 
10 948 1366 1391 6130 7506 1471 7181 7381 7247 7377 
10 1371 6119 1375 6146 7253 7414 1484 7255 7256 6872 
10 939 920 907 6116 1057 1055 1056 7407 6740 7269 
10 6099 1132 6163 6165 7307 7416 6389 6392 7365 6393 
10 1385 478 1361 6122 7517 7440 1430 7363 7441 7340 
10 950 703 727 6129 7508 808 7188 7376 7062 7389 
10 466 480 491 6169 623 624 625 6983 7383 7371 
10 1380 1363 1356 6107 1449 1559 1561 6846 6676 6799 
10 923 482 6167 6174 7518 7331 7461 6988 7519 7462 
10 1586 1572 1595 6112 1746 1744 1745 7077 6570 7324 
10 923 482 935 6167 7518 7329 978 7461 7331 7330 
10 1350 6130 1366 6155 7378 7247 1510 7198 7423 7479 
10 724 686 698 6104 829 833 799 6757 6766 6592 
10 502 477 465 6103 530 610 607 6811 6738 6361 
10 729 704 689 6127 792 872 869 7283 7432 6707 
10 1605 1593 1573 6149 1761 1760 1755 6499 7029 6500 
10 1363 1386 1350 6104 1446 1503 1507 6673 6813 7197 
10 1367 1352 1392 6128 1533 1532 1455 7434 6515 7286 
10 1354 1374 6110 6175 1548 7333 6779 7445 7505 7352 
10 1150 1153 1130 6117 1261 1302 1305 7116 7402 6893 
10 1371 1382 1355 6119 1527 1555 1558 7253 7439 7413 
10 1570 1590 1594 6138 1721 1695 1715 6267 7358 7495 
10 910 926 934 6112 1094 1095 1096 6335 7076 7127 
10 1611 1572 1586 6105 1739 1746 1692 7299 6569 7074 
10 919 1387 1362 6182 7507 1462 7200 7396 7386 7354 
10 471 496 6124 6169 671 7470 7463 7454 7473 7213 
10 6081 6154 6106 6161 6658 6413 6657 7458 7319 6924 
10 6102 6082 6141 6142 7427 7005 7420 7174 7019 6905 
10 929 941 909 6150 1085 1079 1084 6860 7013 6356 
10 6091 6133 6144 6162 7091 7204 6886 6889 7025 6890 
10 922 908 946 6104 1065 1062 1020 6505 6191 7267 
10 687 701 725 6105 846 783 839 6520 6720 6826 
10 930 6136 6148 6164 7521 7360 7520 7522 6447 7488 
10 686 718 706 6135 835 838 837 6653 6655 7367 
10 1574 1598 1586 6112 1762 1689 1766 7274 6935 7077 
10 927 939 907 6116 1059 1056 1058 6618 7407 7269 
10 701 693 717 6106 897 898 786 6722 6797 6843 
10 949 926 910 6105 1013 1094 1088 6772 7075 6336 
10 467 499 6134 6143 637 7289 7391 7288 7351 7089 
10 1595 6112 6126 6170 7324 6571 7325 7515 7309 6930 
10 6111 933 6148 6164 6817 6818 6194 7173 7523 7488 
10 6137 6084 6157 6176 7456 6400 7054 6900 6402 6376 
10 6111 6148 6131 6164 6194 7347 6613 7173 7488 7487 
10 1137 1129 6096 6165 1283 7374 6247 7394 7524 6381 
10 1379 1145 1368 6163 7343 7525 1420 7346 7345 7027 
10 478 1385 503 6122 7517 7169 546 7441 7363 7362 
10 907 6116 6103 6182 7269 6360 7268 7526 6328 7388 
10 937 913 926 6112 1112 1114 1010 6936 6480 7076 
10 6110 6175 6086 6182 7352 7465 6317 6311 7355 6319 
10 1371 1355 1375 6119 1558 1557 1484 7253 7413 7414 
10 6117 6092 6173 6178 6648 6602 6661 6894 6394 7512 
10 491 464 486 6177 597 594 596 7397 6314 6649 
10 1353 6109 1373 6172 6975 6607 1545 7113 6624 6623 
10 1146 715 1159 6160 7528 7527 1215 7393 7529 7530 
10 1148 1133 1153 6162 1331 1329 1255 7263 6801 7403 
10 466 474 6097 6174 618 6259 6981 7142 7401 6208 
10 711 690 6128 6158 881 7219 7483 7484 7314 7453 
10 1160 1140 6134 6166 1273 6948 7190 7191 6949 6777 
10 495 1140 479 6134 7489 7425 581 7126 6948 7390 
10 6118 6085 6131 6151 6512 7258 7106 6385 7417 7335 
10 1612 704 729 6127 7531 792 7078 7282 7432 7283 
10 1367 1392 726 6128 1455 7084 7532 7434 7286 7285 
10 6081 6136 6131 6141 6446 7486 6723 7356 7245 7167 
10 469 490 481 6109 661 640 660 7021 7510 6733 
10 484 1144 495 6121 7533 7361 584 6827 6882 7123 
10 1373 1353 1365 6109 1545 1544 1525 6607 6975 6863 
10 6095 6088 6127 6181 6568 6351 6534 6815 6814 6264 
10 700 1159 715 6168 7534 7527 770 7435 7535 7536 
10 492 488 468 6177 604 655 654 7422 7408 6343 
10 1145 1368 6163 6165 7525 7027 7345 7537 7028 6393 
10 1600 496 480 6169 7469 565 7538 7472 7473 7383 
10 914 933 6111 6164 1118 6817 6783 7172 7523 7173 
10 6085 6135 6131 6151 6690 6977 7258 7417 7478 7335 
10 6100 6131 6135 6151 6612 6977 6627 7279 7335 7478 
10 499 479 467 6134 638 636 637 7289 7390 7391 
10 6094 6145 6120 6168 7226 7097 6919 6875 7071 6920 
10 1382 1355 6119 6163 1555 7413 7439 7501 6388 6188 
10 1148 6162 6133 6166 7263 7025 7539 7264 6806 6477 
10 706 718 690 6158 838 880 883 7368 6979 7314 
10 472 484 495 6121 678 584 676 6964 6827 7123 
10 1607 1570 1582 6169 1710 1717 1667 7303 6451 7540 
10 485 469 497 6153 662 659 617 7541 7184 7183 
10 920 6116 939 6167 6740 7407 1057 6763 6332 7481 
10 1571 1596 1585 6173 1728 1729 1730 7341 7144 6662 
10 1593 1577 1596 6139 1785 1780 1707 7095 6669 7143 
10 493 57 1361 1378 547 1428 7339 6539 1432 1433 
10 1368 1390 1352 6165 1423 1529 1536 7028 7412 6380 
10 44 1140 495 1157 1239 7489 579 1243 1244 7124 
10 921 135 1598 937 1003 1685 7442 1007 1005 6937 
10 496 1587 483 6124 7509 7052 568 7470 6790 7053 
10 907 6103 915 6182 7268 6410 1047 7526 7388 7459 
10 71 938 716 703 1021 6422 801 803 7061 805 
10 1600 1587 32 496 1673 1671 1669 7469 7509 563 
10 490 6109 469 6153 7510 7021 661 7542 7272 7184 
10 924 123 1377 936 993 1464 7059 994 989 6430 
10 6114 6099 6133 6176 6959 6513 7024 6368 6960 7026 
10 931 912 6110 6182 1106 6956 6273 6310 7494 6311 
10 947 923 909 6174 981 1081 1077 7426 6988 6357 
10 1587 1571 1610 6173 1733 1727 1676 6791 7341 6601 
10 490 6143 6109 6153 7511 6718 7510 7542 6968 7272 
10 1590 1569 6138 6170 1696 6945 7358 7208 6929 6199 
10 1163 6123 1131 6160 7485 7058 1313 7480 6989 7284 
10 6083 6139 6173 6178 6576 6663 7372 6416 6770 7512 
10 728 705 1146 6160 776 7543 7492 7065 7146 7393 
10 6085 6118 6115 6151 6512 6525 6523 7417 6385 6727 
10 715 1159 6160 6168 7527 7530 7529 7536 7535 7020 
10 1583 1574 1602 6132 1763 1764 1718 7384 7275 6386 
10 706 685 710 6135 812 810 811 7367 6742 7008 
10 6095 6160 6123 6181 7067 6989 6637 6815 6567 6816 
10 6083 6173 6092 6178 7372 6602 6415 6416 7512 6394 
10 1601 1158 1588 162 6224 7033 1657 1653 1226 1655 
10 84 1599 717 704 1636 6840 785 787 7431 789 
10 1159 1146 97 715 1215 1213 1211 7527 7528 768 
10 1158 1143 161 1601 1228 1223 1227 6224 7544 1652 
10 715 96 1159 700 769 1210 7527 770 765 7534 
10 1584 83 1599 717 1633 1637 1638 6841 784 6840 
10 6100 6151 6158 6179 7279 7500 7010 7215 7203 7207 
10 486 466 491 6113 629 625 596 6301 6982 7370 
10 714 109 1380 699 753 1447 6845 754 749 6844 
10 482 19 935 494 535 974 7329 536 531 7328 
10 1380 1367 110 714 1452 1450 1448 6845 7433 752 
10 1145 1379 149 1156 7343 1415 1197 1199 7342 1195 
10 478 469 493 6122 657 658 549 7441 7022 6542 
10 470 482 498 6174 666 628 667 7296 7519 7023 
10 1382 1371 1351 6119 1527 1526 1522 7439 7253 6444 
10 6111 6081 6129 6164 6724 6711 6426 7173 6285 7151 
10 6096 1129 6145 6165 7374 7375 6794 6381 7524 7121 
10 709 685 6147 6154 824 7138 6552 6554 6743 6354 
10 1583 1598 1574 6132 1686 1762 1763 7384 6938 7275 
10 6084 6162 6133 6176 7460 7025 7545 6402 6901 7026 
10 6103 6116 6086 6182 6360 6327 6666 7388 6328 6319 
10 1569 1593 6139 6149 1708 7095 6946 6934 7029 6287 
10 470 6167 482 6174 7348 7331 666 7296 7462 7519 
10 930 6136 906 6148 7521 7359 1044 7520 7360 6974 
10 1369 1349 1381 6175 1500 1496 1501 7491 7436 7237 
10 1348 1369 1373 6140 1473 1474 1475 7153 7513 6871 
10 465 478 503 6122 613 546 608 6672 7441 7362 
10 1367 702 714 6128 7546 757 7433 7434 7399 6896 
10 492 484 472 6121 653 678 679 7158 6827 6964 
10 1166 1142 700 6168 1209 7547 7514 7101 7072 7435 
10 6126 6102 6141 6161 6925 7420 7308 6902 7011 7421 
10 912 924 940 6130 1108 1070 1109 6957 7060 7216 
10 691 719 703 6129 888 847 887 6962 6999 7062 
10 1127 6133 1148 6162 7474 7539 1254 7380 7025 7263 
10 1348 6115 1370 6140 7155 7349 1478 7153 6639 6836 
10 704 1589 1599 6127 7548 1641 7431 7432 7406 6891 
10 6087 6158 6151 6179 7499 7500 6296 7098 7207 7203 
10 1569 1595 1592 6126 1698 1703 1704 6926 7325 6587 
10 6135 6100 6151 6158 6627 7279 7478 6980 7010 7500 
10 491 480 471 6169 624 669 670 7371 7383 7454 
10 688 711 702 6128 860 861 862 7322 7483 7399 
10 1158 1147 1135 6108 1231 1342 1338 6222 6761 6716 
10 1161 1145 1132 6165 1289 1323 1324 7326 7537 7365 
10 1597 1589 1573 6127 1758 1759 1757 6807 7406 6535 
10 1600 1575 6124 6169 1770 6993 7471 7472 7212 7213 
10 689 709 713 6147 876 825 873 6641 6552 7193 
10 1154 1134 1142 6145 1332 1333 1287 7225 7475 7069 
10 6082 6112 6132 6170 6853 6479 6202 6200 7309 6203 
10 6087 6128 6107 6158 6595 6635 6972 7499 7453 6978 
10 1131 1155 1147 6108 1315 1316 1317 7057 6744 6761 
10 1163 1131 1146 6160 1313 1314 1312 7480 7284 7393 
10 1595 1574 6112 6170 1765 7274 7324 7515 7444 7309 
10 6084 6133 6166 6176 7545 6477 6880 6402 7026 6881 
10 6104 6085 6130 6155 6307 6468 6434 6787 6527 7423 
10 705 689 713 6181 875 873 874 7147 6642 7194 
10 6086 6116 6152 6159 6327 6329 6667 6450 6922 6958 
10 489 470 6152 6167 664 7280 7549 7550 7348 6334 
10 485 6152 464 6153 7336 6765 589 7541 7168 7163 
10 6140 1369 6172 6175 7513 7490 6687 7466 7491 7239 
10 1362 1387 1349 6175 1462 1492 1497 7353 7493 7436 
10 907 927 6116 6182 1058 6618 7269 7526 7551 6328 
10 6087 6120 6128 6158 7096 7323 6595 7499 7196 7453 
10 1375 1352 1372 6146 1537 1539 1487 6872 6377 6821 
10 688 720 6120 6168 858 7504 7321 7318 7498 6920 
10 6081 6126 6141 6161 7014 7308 7356 7458 6902 7421 
10 1574 1586 1595 6112 1766 1745 1765 7274 7077 7324 
10 1367 726 702 6128 7532 760 7546 7434 7285 7399 
10 1132 1145 6163 6165 1323 7345 7416 7365 7537 6393 
10 1603 1587 6124 6173 1731 6790 7251 7252 6791 6603 
10 1361 478 57 493 7440 545 1428 7339 549 547 
10 1598 135 921 1583 1685 1003 7442 1686 1681 7503 
10 1141 1128 1152 6166 1278 1276 1277 6578 7241 7043 
10 495 479 1140 44 581 7425 7489 579 577 1239 
10 926 913 934 6112 1114 1115 1095 7076 6480 7127 
10 32 1587 483 496 1671 7052 567 563 7509 568 
10 925 938 71 703 1026 1021 1025 7278 7061 803 
10 6122 6086 6172 6175 6664 6686 7114 7238 7465 7239 
10 1607 1582 504 6169 1667 7552 7302 7303 7540 7304 
10 482 470 494 6167 666 665 536 7331 7348 7332 
10 1377 123 924 1366 1464 993 7059 1468 1466 7276 
10 6117 6091 6162 6178 6746 6889 7117 6894 6769 7467 
10 6103 6086 6122 6175 6666 6664 6665 7477 7465 7238 
10 1612 1589 704 6127 1644 7548 7531 7282 7406 7432 
10 1377 122 1362 936 1463 1461 1465 6430 990 6678 
10 907 915 945 6182 1047 1050 1051 7526 7459 7387 
10 1575 1594 6138 6169 1768 7495 6991 7212 7496 6453 
10 6098 6116 6152 6167 6941 6329 6752 7103 6332 6334 
10 478 497 469 6122 615 659 657 7441 6712 7022 
10 6133 6162 6084 6166 7025 7460 7545 6477 6806 6880 
10 1348 1372 6115 6146 1486 6631 7155 7156 6821 6726 
10 1134 6160 1159 6168 7409 7530 1334 7476 7020 7535 
10 909 941 921 6132 1079 1080 1078 6694 7012 7443 
10 1140 1133 1160 6134 1327 1328 1273 6948 6865 7190 
10 6103 6086 6175 6182 6666 7465 7477 7388 6319 7355 
10 704 721 689 6127 870 871 872 7432 6262 6707 
10 6116 6098 6152 6159 6941 6752 6329 6922 6917 6958 
10 1598 1586 937 136 1689 7199 6937 1684 1688 1006 
10 45 1157 495 1144 1242 7124 580 1246 1247 7361 
10 1133 1157 1144 6121 1326 1247 1330 6803 7122 6882 
10 1591 1575 1594 6138 1773 1768 1699 7338 6991 7495 
10 1352 1367 1384 6128 1533 1534 1535 6515 7434 6561 
10 1160 1128 1140 6166 1274 1275 1273 7191 7241 6949 
10 58 1378 493 1365 1431 6539 548 1435 1436 6921 
10 716 922 938 70 6731 1023 6422 800 1018 1022 
10 31 1600 496 480 1668 7469 564 560 7538 565 
10 700 720 688 6168 857 858 859 7435 7498 7318 
10 1356 1363 1376 6107 1559 1509 1560 6799 6676 7243 
10 1127 1150 1155 6144 1262 1263 1264 7379 6885 7038 
10 1145 1156 1132 6163 1199 1322 1323 7345 7344 7416 
10 1354 1362 1374 6175 1547 1499 1548 7445 7353 7505 
10 465 489 485 6152 612 590 616 6330 7549 7336 
10 692 715 6160 6168 890 7529 6682 6874 7536 7020 
10 6086 6140 6172 6175 6685 6687 6686 7465 7466 7239 
10 486 489 470 6152 595 664 668 6304 7549 7280 
10 6083 6125 6137 6178 6487 7457 6575 6416 6395 6768 
10 711 690 702 6128 881 882 861 7483 7219 7399 
10 1576 1589 1597 6127 1778 1758 1777 6997 7406 6807 
10 1140 1157 1133 6134 1244 1326 1327 6948 7125 6865 
10 1376 1363 1350 6155 1509 1507 1508 7516 6788 7198 
10 687 727 703 6129 843 808 849 6628 7389 7062 
10 924 948 908 6130 997 1063 1068 7060 7381 6435 
10 500 471 6124 6177 673 7463 6597 6598 7455 6509 
10 504 1582 480 6169 7552 7553 562 7304 7540 7383 
10 702 690 714 6128 882 878 757 7399 7219 6896 
10 6081 6141 6131 6161 7356 7167 6723 7458 7421 7262 
10 1127 1153 1150 6162 1256 1261 1262 7380 7403 6888 
10 148 1156 1379 6163 1194 7342 1416 7554 7344 7346 
10 1130 1153 1144 6121 1302 1303 1304 6878 7497 6882 
10 1599 1589 1576 6127 1641 1778 1774 6891 7406 6997 
10 478 465 497 6122 613 614 615 7441 6672 6712 
10 1592 1595 1572 6126 1703 1744 1747 6587 7325 6532 
10 1152 1132 1141 6163 1320 1321 1277 7041 7416 6399 
10 1151 1155 6123 6144 1267 6923 7161 7160 7038 6952 
10 1380 1356 1367 6128 1561 1562 1452 6895 6800 7434 
10 704 717 693 6127 789 898 899 7432 6892 6798 
10 471 480 496 6169 669 565 671 7454 7383 7473 
10 929 906 6136 6150 1040 7359 6859 6860 7281 6839 
10 1603 1587 1575 6124 1731 1771 1772 7251 6790 6993 
10 1135 1147 1155 6108 1342 1316 1341 6716 6761 6744 
10 1582 1600 480 6169 1670 7538 7553 7540 7472 7383 
10 1145 1168 1390 6165 1202 7082 7555 7537 7395 7412 
10 1149 6133 1127 6144 7290 7474 1258 7392 7204 7379 
10 1127 1148 1153 6162 1254 1255 1256 7380 7263 7403 
10 1146 705 715 6160 7543 773 7528 7393 7146 7529 
10 1616 512 508 6180 7557 572 7556 7558 7559 7277 
10 937 921 913 6132 1007 1111 1112 6939 7443 6478 
10 700 1142 1159 6168 7547 1212 7534 7435 7072 7535 
10 6091 6137 6162 6178 6767 6897 6889 6769 6768 7467 
10 148 1379 1364 6163 1416 1417 1412 7554 7346 6187 
10 1149 6144 1154 6145 7392 7034 1260 7292 7206 7225 
10 1373 1351 1371 6119 1524 1526 1483 6610 6444 7253 
10 6087 6120 6158 6179 7096 7196 7499 7098 7100 7207 
10 930 942 910 6164 1098 1092 1097 7522 7294 6337 
10 477 470 489 6167 663 664 611 6755 7348 7550 
10 1363 1380 109 699 1449 1447 1445 6675 6844 749 
10 490 467 481 6143 641 639 640 7511 7288 6735 
10 482 947 505 6174 7560 7108 539 7519 7426 7400 
10 1384 1367 1356 6128 1534 1562 1563 6561 7434 6800 
10 721 704 693 6127 870 899 900 6262 7432 6798 
10 482 935 19 923 7329 974 535 7518 978 976 
10 702 110 1367 714 756 1450 7546 757 752 7433 
10 6143 6109 6153 6157 6718 7272 6968 6699 6405 6971 
10 464 492 487 6125 600 601 598 7031 7159 7087 
10 1585 161 1143 1601 1650 1223 6645 1654 1652 7544 
10 83 1584 701 717 1633 6719 782 784 6841 786 
10 700 96 1159 1142 765 1210 7534 7547 1208 1212 
10 711 708 685 6158 819 820 814 7484 7195 7009 
10 704 84 1599 1589 787 1636 7431 7548 1640 1641 
10 162 1158 1588 1147 1226 7033 1655 1230 1231 6760 
10 705 97 1146 715 772 1213 7543 773 768 7528 
10 1145 149 1379 1368 1197 1415 7343 7525 1419 1420 
10 1600 1575 1587 6124 1770 1771 1673 7471 6993 6790 
10 1569 1593 1596 6139 1708 1707 1701 6946 7095 7143 
10 933 928 908 6148 1038 1071 1067 6818 7003 6192 
10 1174 1616 1609 6180 7562 1648 7561 7563 7558 7337 
10 464 489 486 6152 591 595 594 6765 7549 6304 
10 1610 1579 1616 6180 1726 1787 1677 7224 7223 7558 
10 941 913 921 6132 1113 1111 1080 7012 6478 7443 
10 1594 1569 1591 6138 1694 1700 1699 7495 6945 7338 
10 935 911 923 6167 1100 1102 978 7330 7104 7461 
10 711 6120 708 6158 7482 7149 819 7484 7196 7195 
10 1610 1616 508 6180 1677 7556 6709 7224 7558 7277 
10 1594 1590 1569 6138 1695 1696 1694 7495 7358 6945 
10 1374 1369 6140 6175 1477 7513 7334 7505 7491 7466 
10 1597 1573 1593 6149 1757 1760 1709 6809 6500 7029 
10 1394 506 510 6171 7565 556 7564 7566 7270 7567 
10 1394 1172 1165 6171 7569 1190 7568 7566 7570 7164 
10 706 710 686 6135 811 831 837 7367 7008 6653 
10 489 464 485 6152 591 589 590 7549 6765 7336 
10 1596 1591 1569 6139 1702 1700 1701 7143 7430 6946 
10 490 487 6143 6153 599 7088 7511 7542 7154 6968 
10 18 935 494 6167 973 7328 532 7571 7330 7332 
10 491 488 464 6177 603 602 597 7397 7408 6314 
10 1153 1133 1144 6121 1329 1330 1303 7497 6803 6882 
10 55 1393 509 503 1397 6855 518 541 7130 543 
10 719 687 703 6129 848 849 847 6999 6628 7062 
10 952 133 1614 1608 957 1620 7131 7132 1679 1680 
10 1395 125 1391 953 1405 1470 1472 6856 965 6834 
10 1603 1571 1587 6173 1732 1733 1731 7252 7341 6791 
10 924 908 940 6130 1068 1069 1070 7060 6435 7216 
10 1145 1390 1368 6165 7555 1423 7525 7537 7412 7028 
10 1616 34 508 512 1623 569 7556 7557 520 572 
10 954 950 73 732 1030 1027 963 6857 7140 736 
10 1379 1368 1355 6163 1420 1556 1554 7346 7027 6388 
10 909 932 929 6150 1083 1041 1084 6356 6943 6860 
10 712 687 707 6154 844 850 818 7385 6522 6457 
10 1362 122 919 936 1461 986 7200 6678 990 991 
10 907 931 927 6182 1054 1032 1058 7526 6310 7551 
10 1616 1579 1609 6180 1787 1724 1648 7558 7223 7337 
10 1609 1167 1174 6180 6702 1222 7561 7337 7357 7563 
10 18 920 935 6167 971 975 973 7571 6763 7330 
10 495 479 472 6134 581 675 676 7126 7390 6965 
10 148 1141 1156 6163 1192 1196 1194 7554 6399 7344 
10 482 923 947 6174 7518 981 7560 7519 6988 7426 
10 930 6148 933 6164 7520 6818 1045 7522 7488 7523 
10 70 716 922 698 800 6731 1018 798 802 6591 
10 1582 1600 31 480 1670 1668 1666 7553 7538 560 
10 1348 1371 1375 6146 1482 1484 1485 7156 7255 6872 
10 1134 1159 1142 6168 1334 1212 1333 7476 7535 7072 
10 1592 1597 1569 6149 1705 1706 1704 6588 6809 6934 
10 1131 1163 1151 6123 1313 1319 1318 7058 7485 7161 
10 1590 1595 1569 6170 1697 1698 1696 7208 7515 6929 
10 1393 120 951 945 1399 960 6781 7118 984 985 
10 1129 1154 1142 6145 1286 1287 1288 7375 7225 7069 
10 1614 1607 29 511 1664 1662 1619 7119 7120 515 
10 953 68 724 730 966 794 6833 6785 739 796 
10 493 481 58 1365 552 550 548 6921 6862 1435 
10 506 510 60 1394 556 522 554 7565 7564 1402 
10 949 1615 954 138 7133 6792 1014 1012 1626 961 
10 1388 1359 1394 6171 1516 1567 1411 7046 7045 7566 
10 1370 6115 1376 6155 7349 7244 1481 6837 6528 7516 
10 495 484 45 1144 584 582 580 7361 7533 1246 
10 937 136 1586 926 1006 1688 7199 1010 1008 7073 
10 1388 1394 1165 6171 1411 7568 6582 7046 7566 7164 
10 107 1395 1386 730 1404 1443 1441 737 6849 7220 
10 951 16 509 502 959 516 6848 7221 526 527 
10 1172 1165 146 1394 1190 1188 1180 7569 7568 1400 
10 715 705 692 6160 773 894 890 7529 7146 6682 
10 733 99 1175 728 741 1182 6470 777 774 7228 
10 1617 733 1612 86 6469 7227 1645 1628 742 1642 
10 1615 732 81 725 6854 735 1624 7231 780 778 
10 731 112 1396 726 744 1408 6473 761 758 7234 
10 1616 159 1174 1609 1622 1176 7562 1648 1646 7561 
10 1175 1169 164 1617 1235 1232 1184 6471 7233 1629 
10 731 94 1166 1173 745 1204 7232 6474 1187 1206 
10 21 952 511 947 955 6504 514 980 982 7229 
10 1173 1396 151 1390 6472 1407 1185 7230 1424 1421 
10 1127 1155 1151 6144 1264 1267 1266 7379 7038 7160 
10 709 712 685 6154 823 817 824 6554 7385 6743 
10 499 472 479 6134 677 675 638 7289 6965 7390 
10 1364 1141 148 6163 6398 1192 1412 6187 6399 7554 
10 1602 1574 1590 6170 1764 1767 1722 6387 7444 7208 
10 1385 1393 55 503 1427 1397 1426 7169 7130 541 
10 943 133 952 1608 999 957 1001 7178 1679 7132 
10 1391 125 948 953 1470 995 7181 6834 965 998 
10 1348 1372 1376 6115 1486 1488 1480 7155 6631 7244 
10 508 34 1616 1610 569 1623 7556 6709 1675 1677 
10 73 950 727 732 1027 7188 807 736 7140 809 
10 1137 1168 1129 6165 1284 1285 1283 7394 7395 7524 
10 711 685 706 6158 814 812 813 7484 7009 7368 
10 483 500 471 6124 651 673 672 7053 6597 7463 
10 1349 1369 1374 6175 1500 1477 1498 7436 7491 7505 
10 930 934 6136 6164 1046 7128 7521 7522 7366 6447 
10 1376 1370 1348 6115 1481 1478 1480 7244 7349 7155 
10 930 906 933 6148 1044 1039 1045 7520 6974 6818 
10 496 483 471 6124 568 672 671 7470 7053 7463 
10 930 910 934 6164 1097 1096 1046 7522 6337 7366 
10 506 1394 1389 6171 7565 1440 7047 7270 7566 7166 
10 708 688 720 6120 863 858 864 7149 7321 7504 
10 1375 1372 1348 6146 1487 1486 1485 6872 6821 7156 
10 1348 1370 1374 6140 1478 1479 1476 7153 6836 7334 
10 1359 1389 1394 6171 1519 1440 1567 7045 7166 7566 
10 467 487 499 6143 642 643 637 7288 7088 7351 
10 931 919 912 6182 1053 1105 1106 6310 7396 7494 
10 1386 723 107 730 6913 747 1441 7220 748 737 
10 502 951 16 944 7221 959 526 6910 969 967 
10 146 1165 1388 1394 1188 6582 1410 1400 7568 1411 
10 81 1606 1615 725 1631 1632 1624 778 6932 7231 
10 1174 1609 159 1167 7561 1646 1176 1222 6702 1221 
10 164 1169 1613 1617 1232 6823 1659 1629 7233 1661 
10 94 1166 722 731 1204 7080 763 745 7232 764 
10 1171 1175 99 728 1219 1182 1217 7064 7228 774 
10 726 112 1396 1392 758 1408 7234 7084 1454 1456 
10 733 729 1612 86 793 7078 7227 742 791 1642 
10 511 505 21 947 540 537 514 7229 7108 980 
10 151 1168 1173 1390 1201 1203 1185 1421 7082 7230 
10 1596 1591 6139 6173 1702 7430 7143 7144 7295 6663 
10 1382 1364 1355 6163 1521 1553 1555 7501 6187 6388 
10 927 906 932 6150 1031 1034 1035 6619 7281 6943 
10 920 18 477 6167 971 528 6736 6763 7571 6755 
10 477 18 494 6167 528 532 533 6755 7571 7332 
10 6123 6160 6094 6181 6989 6564 6951 6816 6567 6566 
10 488 471 500 6177 674 673 656 7408 7455 6598 
10 490 464 487 6153 592 598 599 7542 7163 7154 
10 1374 1362 1349 6175 1499 1497 1498 7505 7353 7436 
10 929 906 934 6136 1040 1042 1043 6859 7359 7128 
10 1582 1570 1594 6169 1717 1715 1716 7540 6451 7496 
10 1138 1174 1167 6180 1346 1222 1294 7446 7563 7357 
10 476 508 512 6180 648 572 684 7451 7277 7559 
10 907 945 919 6182 1051 988 1052 7526 7387 7396 
10 945 1393 120 1387 7118 1399 984 7315 1459 1457 
10 68 724 946 953 794 7265 1016 966 6833 1017 
10 504 29 1607 511 558 1662 7302 559 515 7120 
10 60 1389 506 1394 1437 7047 554 1402 1440 7565 
10 1615 949 1611 138 7133 7298 1693 1626 1012 1690 
10 1582 1575 1600 6169 1769 1770 1670 7540 7212 7472 
10 490 469 485 6153 661 662 593 7542 7184 7541 
10 1385 478 56 1361 7517 544 1425 1430 7440 1429 
10 508 33 1587 483 570 1672 7051 571 566 7052 
10 950 72 703 925 1028 804 7508 1029 1024 7278 
10 924 1366 124 948 7276 1467 992 997 7506 996 
10 921 134 943 1583 1002 1000 1004 7503 1682 7502 
10 1140 501 43 479 7424 574 1240 7425 578 576 
10 505 474 466 6174 622 618 621 7400 7401 7142 
10 707 685 712 6154 816 817 818 6457 6743 7385 
10 920 939 911 6167 1057 1101 1099 6763 7481 7104 
10 706 690 711 6158 883 881 813 7368 7314 7484 
10 1603 1591 1571 6173 1735 1734 1732 7252 7295 7341 
10 934 906 930 6136 1042 1044 1046 7128 7359 7521 
10 1149 1127 1154 6144 1258 1259 1260 7392 7379 7034 
10 1385 56 478 503 1425 544 7517 7169 542 546 
10 948 1366 124 1391 7506 1467 996 7181 1471 1469 
10 43 1140 1164 501 1240 1241 1236 574 7424 7134 
10 1608 943 134 1583 7178 1000 1678 1683 7502 1682 
10 1152 1127 1149 6133 1252 1258 1257 7042 7474 7290 
10 928 933 906 6148 1038 1039 1036 7003 6818 6974 
10 1587 33 508 1610 1672 570 7051 1676 1674 6709 
10 703 72 950 727 804 1028 7508 808 806 7188 
10 1593 1569 1597 6149 1708 1706 1709 7029 6934 6809 
10 708 713 685 6147 821 822 820 7148 7193 7138 
10 1172 42 1164 6171 1181 1237 1238 7570 7572 6851 
10 42 510 501 6171 524 575 573 7572 7567 7136 
10 56 478 57 1361 544 545 63 1429 7440 1428 
10 33 1587 483 32 1672 7052 566 39 1671 567 
10 925 71 72 703 1025 78 1024 7278 803 804 
10 1366 124 123 924 1467 130 1466 7276 992 993 
10 134 921 135 1583 1002 1003 141 1682 7503 1681 
10 1140 479 43 44 7425 576 1240 1239 577 50 
10 1374 1369 1348 6140 1477 1473 1476 7334 7513 7153 
10 1164 42 501 6171 1237 573 7134 6851 7572 7136 
10 1148 6133 1152 6166 7539 7042 1253 7264 6477 7043 
10 1165 1172 1136 6171 1190 1344 1272 7164 7570 7438 
10 1128 1160 1148 6166 1274 1280 1279 7241 7191 7264 
10 510 506 475 6171 556 634 683 7567 7270 7428 
10 1152 1148 1127 6133 1253 1254 1252 7042 7539 7474 
10 906 929 932 6150 1040 1041 1034 7281 6860 6943 
10 1350 1383 1370 6155 1512 1514 1513 7198 7350 6837 
10 1575 1582 1594 6169 1769 1716 1768 7212 7540 7496 
10 713 709 685 6147 825 824 822 7193 6552 7138 
10 944 17 502 920 968 525 6910 972 970 6909 
10 1386 108 723 699 1442 746 6913 6912 750 751 
10 1388 147 1364 1165 1409 1413 1414 6582 1189 6581 
10 1364 1379 1355 6163 1417 1554 1553 6187 7346 6388 
10 111 726 1367 1392 759 7532 1451 1453 7084 1455 
10 1171 98 1146 728 1216 1214 1218 7064 775 7492 
10 729 1612 85 704 7078 1643 790 792 7531 788 
10 505 482 20 947 539 534 538 7108 7560 979 
10 1390 150 1168 1145 1422 1200 7082 7555 1198 1202 
10 1613 1588 1169 163 1660 6822 6823 1658 1656 1233 
10 160 1167 1609 1143 1220 6702 1647 1224 1225 6703 
10 722 95 700 1166 762 766 767 7080 1205 7514 
10 725 82 1606 1584 779 1630 6932 6931 1634 1635 
10 1151 1155 1131 6123 1267 1315 1318 7161 6923 7058 
10 1127 1151 1154 6144 1266 1265 1259 7379 7160 7034 
10 510 42 1172 6171 524 1181 7573 7567 7572 7570 
10 485 464 490 6153 589 592 593 7541 7163 7542 
10 1159 1134 1146 6160 1334 1335 1215 7530 7409 7393 
10 1149 1154 1129 6145 1260 1286 1292 7292 7225 7375 
10 930 914 942 6164 1122 1121 1098 7522 7172 7294 
10 1134 1163 1146 6160 1336 1312 1335 7409 7480 7393 
10 1364 147 148 1141 1413 154 1412 6398 1191 1192 
10 18 477 17 920 528 529 24 971 6736 970 
10 1363 109 108 699 1445 115 1444 6675 749 750 
10 700 715 692 6168 770 890 891 7435 7536 6874 
10 1141 1364 147 1165 6398 1413 1191 1193 6581 1189 
10 477 502 17 920 530 525 529 6736 6909 970 
10 1386 1363 108 699 1446 1444 1442 6912 6675 750 
10 920 911 935 6167 1099 1100 975 6763 7104 7330 
10 907 919 931 6182 1052 1053 1054 7526 7396 6310 
10 708 711 688 6120 819 860 863 7149 7482 7321 
10 919 121 1387 945 987 1458 7507 988 983 7315 
10 110 1367 111 702 1450 1451 117 756 7546 755 
10 20 482 19 923 534 535 26 977 7518 976 
10 946 698 724 69 7266 799 7265 1015 797 795 
10 1582 1607 504 30 1667 7302 7552 1665 1663 557 
10 161 1143 160 1585 1223 1224 167 1650 6645 1649 
10 1584 701 82 83 6719 781 1634 1633 782 89 
10 96 700 95 1142 765 766 102 1208 7547 1207 
10 1145 1129 1168 6165 1291 1285 1202 7537 7524 7395 
10 702 1367 111 726 7546 1451 755 760 7532 759 
10 923 20 482 947 977 534 7518 981 979 7560 
10 1146 98 97 705 1214 104 1213 7543 771 772 
10 1147 1588 162 163 6760 1655 1230 1229 1656 169 
10 704 85 84 1589 788 91 787 7548 1639 1640 
10 1145 150 149 1368 1198 156 1197 7525 1418 1419 
10 160 1143 1609 1585 1224 6703 1647 1649 6645 1651 
10 701 82 725 1584 781 779 783 6719 1634 6931 
10 1166 95 700 1142 1205 766 7514 1209 1207 7547 
10 1389 59 506 1365 1438 553 7047 1439 1434 7048 
10 728 98 1146 705 775 1214 7492 776 771 7543 
10 1169 1588 1147 163 6822 6760 1234 1233 1656 1229 
10 704 1612 85 1589 7531 1643 788 7548 1644 1639 
10 150 1145 1390 1368 1198 7555 1422 1418 7525 1423 
10 484 46 1170 507 583 1249 7574 587 585 7575 
10 949 1611 137 926 7298 1691 1011 1013 7297 1009 
10 1595 1590 1574 6170 1697 1767 1765 7515 7208 7444 
10 951 509 1 1393 6848 517 958 6781 6855 1398 
10 6 733 1175 1617 740 6470 1183 1627 6469 6471 
10 2 512 1616 1174 519 7557 1621 1177 7576 7562 
10 731 1396 7 1173 6473 1406 743 6474 6472 1186 
10 732 4 954 1615 734 962 6857 6854 1625 6792 
10 3 510 1172 1394 523 7573 1179 1401 7564 7569 
10 511 0 1614 952 513 1618 7119 6504 956 7131 
10 953 1395 5 730 6856 1403 964 6785 6849 738 
10 47 507 512 6180 586 588 521 7577 7449 7559 
10 1170 47 1174 6180 1248 1178 1251 7448 7577 7563 
10 700 692 720 6168 891 892 857 7435 6874 7498 
10 512 1616 1174 6180 7557 7562 7576 7559 7558 7563 
10 1172 1394 510 6171 7569 7564 7573 7570 7566 7567 
10 467 490 487 6143 641 599 642 7288 7511 7088 
10 930 933 914 6164 1045 1118 1122 7522 7523 7172 
10 1387 121 919 1362 1458 987 7507 1462 1460 7200 
10 122 919 121 1362 986 987 128 1461 7200 1460 
10 1596 1571 1591 6173 1728 1734 1702 7144 7341 7295 
10 47 1170 507 6180 1248 7575 586 7577 7448 7449 
10 946 922 698 69 1020 6591 7266 1015 1019 797 
10 1582 504 480 30 7552 562 7553 1665 557 561 
10 480 31 1582 30 560 1666 7553 561 37 1665 
10 698 922 70 69 6591 1018 798 797 1019 76 
10 488 491 471 6177 603 670 674 7408 7397 7455 
10 481 506 59 1365 555 553 551 6862 7048 1434 
10 1586 137 1611 926 1687 1691 1692 7073 1009 7297 
10 1170 46 484 1144 1249 583 7574 1250 1245 7533 
10 481 59 58 1365 551 65 550 6862 1434 1435 
10 512 1174 47 6180 7576 1178 521 7559 7563 7577 
10 46 45 484 1144 52 582 583 1245 1246 7533 
10 136 137 1586 926 143 1687 1688 1008 1009 7073 
10 1141 1132 1156 6163 1321 1322 1196 6399 7416 7344 
10 1172 1164 1136 6171 1238 1268 1344 7570 6851 7438 
10 505 466 482 6174 621 626 539 7400 7142 7519 
10 475 501 510 6171 633 575 683 7428 7136 7567 
10 1161 1129 1145 6165 1290 1291 1289 7326 7524 7537 
10 470 477 494 6167 663 533 665 7348 6755 7332 
10 1148 1152 1128 6166 1253 1276 1279 7264 7043 7241 
10 482 466 498 6174 626 627 628 7519 7142 7023 
10 1369 1381 1353 6172 1501 1543 1546 7490 7235 7113 
10 1370 1376 1350 6155 1481 1508 1513 6837 7516 7198 
10 1615 4 954 138 1625 962 6792 1626 145 961 
10 510 3 60 1394 523 67 522 7564 1401 1402 
10 512 2 47 1174 519 54 521 7576 1177 1178 
10 120 951 1 1393 960 958 126 1399 6781 1398 
10 0 1614 29 511 1618 1619 35 513 7119 515 
10 68 953 5 730 966 964 74 739 6785 738 
10 1175 6 99 733 1183 106 1182 6470 740 741 
10 1175 164 6 1617 1184 171 1183 6471 1629 1627 
10 7 1396 151 1173 1406 1407 158 1186 6472 1185 
10 511 21 0 952 514 28 513 6504 955 956 
10 1617 6 733 86 1627 740 6469 1628 93 742 
10 731 7 94 1173 743 100 745 6474 1186 1187 
10 2 1174 1616 159 1177 7562 1621 165 1176 1622 
10 4 732 81 1615 734 735 87 1625 6854 1624 
10 112 1396 7 731 1408 1406 119 744 6473 743 
10 3 1172 146 1394 1179 1180 152 1401 7569 1400 
10 509 1 16 951 517 22 516 6848 958 959 
10 1395 107 5 730 1404 113 1403 6849 737 738 
10 1616 2 34 512 1621 41 1623 7557 519 520 
10 954 73 4 732 963 80 962 6857 736 734 
10 1395 5 125 953 1403 132 1405 6856 964 965 
10 510 3 1172 42 523 1179 7573 524 48 1181 
10 1614 0 133 952 1618 139 1620 7131 956 957 
10 509 55 1 1393 518 61 517 6855 1397 1398 
10 476 512 507 6180 684 588 645 7451 7559 7449 
10 1138 1170 1174 6180 1298 1251 1346 7446 7448 7563 
10 1353 1373 1369 6172 1545 1474 1546 7113 6623 7490 
10 1385 55 56 503 1426 62 1425 7169 541 542 
10 42 43 1164 501 49 1236 1237 573 574 7134 
10 134 133 943 1608 140 999 1000 1678 1679 7178 
10 948 124 125 1391 996 131 995 7181 1469 1470 
10 950 727 72 73 7188 806 1028 1027 807 79 
10 33 34 508 1610 40 569 570 1674 1675 6709 
10 723 107 108 1386 747 114 746 6913 1441 1442 
10 17 502 16 944 525 526 23 968 6910 967 
10 147 1388 146 1165 1409 1410 153 1189 6582 1188 
10 82 1606 81 725 1630 1631 88 779 6932 778 
10 95 722 94 1166 762 763 101 1205 7080 1204 
10 159 1609 160 1167 1646 1647 166 1221 6702 1220 
10 726 111 112 1392 759 118 758 7084 1453 1454 
10 505 20 21 947 538 27 537 7108 979 980 
10 150 1168 151 1390 1200 1201 157 1422 7082 1421 
10 1612 729 85 86 7078 790 1643 1642 791 92 
10 1171 99 98 728 1217 105 1216 7064 774 775 
10 163 1169 1613 164 1233 6823 1658 170 1232 1659 
10 493 58 57 1378 548 64 547 6539 1431 1432 
10 1157 495 44 45 7124 579 1243 1242 580 51 
10 937 135 1598 136 1005 1685 6937 1006 142 1684 
10 496 32 1600 31 563 1669 7469 564 38 1668 
10 938 71 716 70 1021 801 6422 1022 77 800 
10 1377 123 122 936 1464 129 1463 6430 989 990 
10 121 945 120 1387 983 984 127 1458 7315 1457 
10 504 30 1607 29 557 1663 7302 558 36 1662 
10 69 724 946 68 795 7265 1015 75 794 1016 
10 506 60 59 1389 554 66 553 7047 1437 1438 
10 1611 949 137 138 7298 1011 1691 1690 1012 144 
10 1170 507 46 47 7575 585 1249 1248 586 53 
10 1601 161 1158 162 1652 1227 6224 1653 168 1226 
10 1159 97 96 715 1211 103 1210 7527 768 769 
10 1599 717 83 84 6840 784 1637 1636 785 90 
10 1379 148 149 1156 1416 155 1415 7342 1194 1195 
10 1380 110 109 714 1448 116 1447 6845 752 753 
10 935 19 18 494 974 25 973 7328 531 532 
10 6139 6137 6156 6091 6577 7094 6289 6288 6767 6252 
10 6137 6139 6156 6102 6577 6289 7094 6574 6291 6292 
10 1578 952 511 1614 6269 6504 6256 1786 7131 7119 
10 1578 511 952 6097 6256 6504 6269 6258 6257 6272 
10 6135 6104 698 686 6689 6592 7007 6653 6766 833 
10 6135 698 6104 6111 7007 6592 6689 6455 6593 6190 
10 6155 6130 1354 6110 7423 6780 7115 6526 6433 6779 
10 465 489 6167 477 612 7550 6333 610 611 6755 
10 489 465 6167 6152 612 6333 7550 7549 6330 6334 
10 6124 468 508 483 6508 647 6710 7053 649 571 
10 6124 508 468 6092 6710 647 6508 6507 6708 6338 
10 6162 1153 6178 6121 7403 7578 7467 6802 7497 6696 
10 6162 6178 1153 6117 7467 7578 7403 7117 6894 7402 
10 1130 6178 1153 6121 6879 7578 1302 6878 6696 7497 
10 1130 1153 6178 6117 1302 7578 6879 6893 7402 6894 
10 6153 6152 497 485 7168 6713 7183 7541 7336 617 
10 6153 497 6152 6122 7183 6713 7168 7185 6712 6668 
10 1355 6119 6099 6146 7413 6514 6390 7415 7256 6652 
10 1355 6099 6119 6163 6390 6514 7413 6388 6389 6188 
10 6157 6118 6140 6086 6325 6640 6684 6448 6449 6685 
10 6157 6140 6118 6089 6684 6640 6325 6693 6754 6384 
10 6166 6084 6121 6162 6880 7437 6805 6806 7460 6802 
10 6166 6121 6084 6134 6805 7437 6880 6777 6864 7222 
10 6134 467 6171 501 7391 7429 6852 7135 632 7136 
10 467 6134 6171 6090 7391 6852 7429 7287 6774 6850 
10 1601 6117 1143 1585 6226 6647 7544 1654 6646 6645 
10 1601 1143 6117 1158 7544 6647 6226 6224 1228 6225 
10 484 1170 6180 507 7574 7448 6830 587 7575 7449 
10 6180 484 1144 1170 6830 7533 6884 7448 7574 1250 
10 6180 1144 484 6121 6884 7533 6830 6831 6882 6827 
10 6146 6165 1355 1375 6382 6391 7415 6872 6873 1557 
10 6146 1355 6165 6099 7415 6391 6382 6652 6390 6392 
10 6139 1577 1585 6117 6669 1781 6660 6659 6365 6646 
10 6139 1585 1577 1596 6660 1781 6669 7143 1729 1780 
10 6168 6145 6160 6094 7071 7579 7020 6875 7226 6564 
10 6168 6160 6145 1134 7020 7579 7071 7476 7409 7475 
10 1154 6160 6145 6094 7036 7579 7225 7035 6564 7226 
10 1154 6145 6160 1134 7225 7579 7036 1332 7475 7409 
10 6173 1609 1585 1571 7580 1651 6662 7341 1723 1730 
10 1609 6173 1585 6092 7580 6662 1651 6704 6602 6643 
10 1609 6173 1579 1571 7580 7001 1724 1723 7341 1725 
10 6173 1609 1579 6092 7580 1724 7001 6602 6704 7000 
10 6180 1130 1144 6092 7447 1304 6884 6829 6877 6883 
10 6180 1144 1130 1170 6884 1304 7447 7448 1250 1297 
10 687 701 6154 712 846 7581 6522 844 845 7385 
10 687 6154 701 6106 6522 7581 846 6519 6413 6722 
10 693 6154 701 712 6819 7581 897 896 7385 845 
10 693 701 6154 6106 897 7581 6819 6797 6722 6413 
10 6180 468 484 507 7450 652 6830 7449 646 587 
10 6180 484 468 6092 6830 652 7450 6829 6828 6338 
10 6181 705 692 713 7147 894 6683 7194 874 893 
10 6181 692 705 6160 6683 894 7147 6567 6682 7146 
10 1608 917 6097 1578 7582 6271 7177 1713 6270 6258 
10 917 1608 6097 943 7582 7177 6271 1075 7178 7176 
10 917 1608 952 1578 7582 7132 1125 6270 1713 6269 
10 1608 917 952 943 7582 1125 7132 7178 1075 1001 
10 6164 910 925 942 6337 1091 7293 7294 1092 1093 
10 6164 925 910 6129 7293 1091 6337 7151 7257 7313 
10 511 474 1607 504 682 7583 7120 559 619 7302 
10 511 1607 474 1578 7120 7583 682 6256 1711 6255 
10 6097 1607 474 504 7300 7583 6259 7301 7302 619 
10 6097 474 1607 1578 6259 7583 7300 6258 6255 1711 
10 6169 6083 6177 6113 7312 6414 7419 6778 7248 6316 
10 6083 6169 6177 6124 7312 7419 6414 6594 7213 6509 
10 6182 6093 927 6116 6309 6617 7551 6328 6326 6618 
10 6182 927 6093 931 7551 6617 6309 6310 1032 6275 
10 1387 6182 6175 1362 7386 7355 7493 1462 7354 7353 
10 6182 1387 6175 6103 7386 7493 7355 7388 7316 7477 
10 6165 1129 1149 1161 7524 1292 7327 7326 1290 1293 
10 6165 1149 1129 6145 7327 1292 7524 7121 7292 7375 
10 6148 6110 940 6130 6278 7584 7217 6436 6433 7216 
10 6148 940 6110 928 7217 7584 6278 7003 1072 7002 
10 912 940 6110 6130 1109 7584 6956 6957 7216 6433 
10 912 6110 940 928 6956 7584 1109 1110 7002 1072 
10 6129 687 707 719 6628 850 6832 6999 848 851 
10 6129 707 687 6154 6832 850 6628 6630 6457 6522 
10 6171 506 467 6090 7270 635 7429 6850 7049 7287 
10 6171 467 506 475 7429 635 7270 7428 631 634 
10 6171 1165 1128 1136 7164 1271 7242 7438 1272 1270 
10 6171 1128 1165 6090 7242 1271 7164 6850 7240 6584 
10 6161 6156 6147 6088 7364 7090 7320 6903 6254 6350 
10 6161 6147 6156 6100 7320 7090 7364 7261 7137 7214 
10 6084 6121 6178 6125 7437 6696 7464 7017 6371 6395 
10 6121 6084 6178 6162 7437 7464 6696 6802 7460 7467 
10 1130 1167 6180 1138 1295 7357 7447 1296 1294 7446 
10 1167 1130 6180 6092 1295 7447 7357 6705 6877 6829 
10 6180 508 468 476 7277 647 7450 7451 648 644 
10 6180 468 508 6092 7450 647 7277 6829 6338 6708 
10 6177 464 492 488 6314 600 7422 7408 602 604 
10 6177 492 464 6125 7422 600 6314 6342 7159 7031 
10 6155 1354 1366 1383 7115 1550 7479 7350 1551 1511 
10 6155 1366 1354 6130 7479 1550 7115 7423 7247 6780 
10 7638 7657 7687 7746 7824 7823 7822 7825 7826 7827 
10 7588 7683 7694 7718 7830 7829 7828 7831 7832 7833 
10 7587 7640 7603 7741 7836 7835 7834 7837 7838 7839 
10 7613 7694 7683 7718 7841 7829 7840 7842 7833 7832 
10 3459 7634 2512 7663 7845 7844 7843 7846 7847 7848 
10 2054 7631 7606 7739 7851 7850 7849 7852 7853 7854 
10 7591 7604 7728 7786 7857 7856 7855 7858 7859 7860 
10 7587 7603 7640 7807 7834 7835 7836 7861 7862 7863 
10 3433 7671 7690 7708 7866 7865 7864 7867 7868 7869 
10 7591 7604 7649 7668 7857 7871 7870 7872 7873 7874 
10 7604 7591 7649 7665 7857 7870 7871 7875 7876 7877 
10 7623 7682 7594 7817 7880 7879 7878 7881 7882 7883 
10 2500 7645 7690 7775 7886 7885 7884 7887 7888 7889 
10 2061 7651 7609 7774 7892 7891 7890 7893 7894 7895 
10 7600 7638 7657 7687 7897 7824 7896 7898 7822 7823 
10 2098 7613 7718 7735 7900 7842 7899 7901 7902 7903 
10 2558 7607 7671 7737 7906 7905 7904 7907 7908 7909 
10 7679 7697 7705 7711 7912 7911 7910 7913 7914 7915 
10 2061 7774 7609 7811 7893 7895 7890 7916 7917 7918 
10 7588 7682 7623 7817 7920 7880 7919 7921 7882 7881 
10 3459 7634 7663 7715 7845 7847 7846 7922 7923 7924 
10 7604 7668 7591 7728 7873 7872 7857 7856 7925 7855 
10 7640 7603 7669 7701 7835 7927 7926 7928 7929 7930 
10 2580 7661 7758 7793 7933 7932 7931 7934 7935 7936 
10 7661 7658 7758 7793 7938 7937 7932 7935 7939 7936 
10 7654 7588 7683 7694 7941 7830 7940 7942 7828 7829 
10 3497 2081 7642 7699 7945 7944 7943 7946 7947 7948 
10 7619 7651 7740 7744 7951 7950 7949 7952 7953 7954 
10 7594 7682 7733 7817 7879 7956 7955 7883 7882 7957 
10 7619 7740 7676 7744 7949 7959 7958 7952 7954 7960 
10 7639 7698 7592 7759 7963 7962 7961 7964 7965 7966 
10 7630 7733 7682 7817 7968 7956 7967 7969 7957 7882 
10 1821 2552 7641 7696 7972 7971 7970 7973 7974 7975 
10 7591 7665 7604 7786 7876 7875 7857 7858 7976 7859 
10 2584 7612 7662 7728 7979 7978 7977 7980 7981 7982 
10 7643 7592 7698 7759 7984 7962 7983 7985 7966 7965 
10 7645 2500 7690 7778 7886 7884 7885 7986 7987 7988 
10 7613 7697 7679 7711 7990 7912 7989 7991 7914 7913 
10 7588 7677 7623 7682 7993 7992 7919 7920 7994 7880 
10 2503 7612 2584 7667 7995 7979 2937 7996 7997 7998 
10 7694 7588 7718 7753 7828 7831 7833 7999 8000 8001 
10 7639 7678 7592 7698 8003 8002 7961 7963 8004 7962 
10 7638 7657 7746 7760 7824 7826 7825 8005 8006 8007 
10 7651 7619 7740 7751 7951 7949 7950 8008 8009 8010 
10 7595 7702 7655 7748 8013 8012 8011 8014 8015 8016 
10 7654 7588 7694 7753 7941 7828 7942 8017 8000 7999 
10 7595 7726 7702 7748 8019 8018 8013 8014 8020 8015 
10 7619 7676 7740 7751 7958 7959 7949 8009 8021 8010 
10 2580 7737 7661 7793 8023 8022 7933 7934 8024 7935 
10 7591 7728 7662 7786 7855 7982 8025 7858 7860 8026 
10 7612 2584 7667 7728 7979 7998 7997 7981 7980 8027 
10 7616 7702 7726 7748 8029 8018 8028 8030 8015 8020 
10 7587 7603 7645 7741 7834 8032 8031 7837 7839 8033 
10 7600 7657 7638 7760 7896 7824 7897 8034 8006 8005 
10 7634 2512 7663 7749 7844 7848 7847 8035 8036 8037 
10 7608 7754 705 7755 8040 8039 8038 8041 8042 8043 
10 7643 7592 7678 7698 7984 8002 8044 7983 7962 8004 
10 2982 7627 7686 7810 8047 8046 8045 8048 8049 8050 
10 3433 3514 7671 7708 3720 8051 7866 7867 8052 7868 
10 7615 705 7754 7755 8054 8039 8053 8055 8043 8042 
10 7623 7677 7594 7682 7992 8056 7878 7880 7994 7879 
10 7671 7597 7690 7708 8058 8057 7865 7868 8059 7869 
10 7616 7655 7702 7748 8060 8012 8029 8030 8016 8015 
10 7603 7640 7669 7741 7835 7926 7927 7839 7838 8061 
10 7588 7630 7682 7817 8062 7967 7920 7921 7969 7882 
10 2054 2023 2097 7631 2393 2394 2312 7851 8063 8064 
10 7595 7686 7710 7726 8067 8066 8065 8019 8068 8069 
10 7601 7623 7639 7678 8072 8071 8070 8073 8074 8003 
10 7592 7639 7623 7678 7961 8071 8075 8002 8003 8074 
10 7595 7655 7702 7800 8011 8012 8013 8076 8077 8078 
10 7617 7599 7618 7725 8081 8080 8079 8082 8083 8084 
10 2982 3025 7627 7810 3425 8085 8047 8048 8086 8049 
10 7640 7603 7701 7807 7835 7929 7928 7863 7862 8087 
10 7683 7679 7697 7705 8089 7912 8088 8090 7910 7911 
10 3472 2056 7631 7642 8093 8092 8091 8094 8095 8096 
10 7616 7604 7727 7786 8099 8098 8097 8100 7859 8101 
10 2025 7609 2061 7651 8102 7890 2417 8103 7891 7892 
10 2078 2035 7627 7810 2477 8105 8104 8106 8107 8049 
10 2054 7606 7653 7697 7849 8109 8108 8110 8111 8112 
10 7605 2999 7654 7694 8115 8114 8113 8116 8117 7942 
10 7605 7654 2999 7821 8113 8114 8115 8118 8119 8120 
10 3057 2990 2043 7626 3427 8122 8121 8123 8124 8125 
10 2971 7604 7668 7738 8127 7873 8126 8128 8129 8130 
10 7686 7611 7710 7726 8132 8131 8066 8068 8133 8069 
10 3006 7668 7649 7738 8135 7874 8134 8136 8130 8137 
10 3453 7609 7779 7811 8140 8139 8138 8141 7918 8142 
10 7640 3430 7669 7741 8144 8143 7926 7838 8145 8061 
10 7635 2521 7672 7713 8148 8147 8146 8149 8150 8151 
10 2054 7653 7606 7771 8108 8109 7849 8152 8153 8154 
10 3478 7614 7632 7760 8157 8156 8155 8158 8159 8160 
10 3471 7675 7610 7689 8163 8162 8161 8164 8165 8166 
10 3454 3433 7671 7690 3719 7866 8167 8168 7864 7865 
10 7608 705 7736 7755 8038 8170 8169 8041 8043 8171 
10 7616 7702 7604 7786 8029 8172 8099 8100 8173 7859 
10 7599 7617 7618 7674 8081 8079 8080 8174 8175 8176 
10 3430 7640 7669 7719 8144 7926 8143 8177 8178 8179 
10 7587 7645 7603 7789 8031 8032 7834 8180 8181 8182 
10 2521 7672 7713 7736 8147 8151 8150 8183 8184 8185 
10 2054 2023 7631 7739 2393 8063 7851 7852 8186 7853 
10 2061 7609 2025 7811 7890 8102 2417 7916 7918 8187 
10 7616 7727 7702 7786 8097 8188 8029 8100 8101 8173 
10 3479 7603 7669 7741 8190 7927 8189 8191 7839 8061 
10 730 2043 694 7626 8193 8192 902 8194 8125 8195 
10 2503 2584 2532 7667 2937 2938 2936 7996 7998 8196 
10 2025 7609 7651 7673 8102 7891 8103 8197 8198 8199 
10 7631 7610 7716 7798 8202 8201 8200 8203 8204 8205 
10 3450 3495 2505 7648 3883 8207 8206 8208 8209 8210 
10 2999 7605 7636 7692 8115 8212 8211 8213 8214 8215 
10 3014 7636 2538 7692 8218 8217 8216 8219 8215 8220 
10 3003 7620 7649 7688 8223 8222 8221 8224 8225 8226 
10 3002 2526 7636 7643 8229 8228 8227 8230 8231 8232 
10 3515 3471 7631 7675 3742 8234 8233 8235 8163 8236 
10 730 694 2990 7626 902 8238 8237 8194 8195 8124 
10 7595 7702 7726 7800 8013 8018 8019 8076 8078 8239 
10 7641 1821 7696 7799 7970 7973 7975 8240 8241 8242 
10 7604 2971 7668 7670 8127 8126 7873 8243 8244 8245 
10 7587 7645 7639 7703 8031 8247 8246 8248 8249 8250 
10 1823 7620 7700 7818 8253 8252 8251 8254 8255 8256 
10 7587 7645 7640 7741 8031 8257 7836 7837 8033 7838 
10 7614 3478 7632 7776 8157 8155 8156 8258 8259 8260 
10 7638 7746 3468 7760 7825 8262 8261 8005 8007 8263 
10 7645 7639 7703 7720 8247 8250 8249 8264 8265 8266 
10 2098 7718 7613 7757 7899 7842 7900 8267 8268 8269 
10 2584 2532 7667 7728 2938 8196 7998 7980 8270 8027 
10 2558 7671 2494 7737 7904 8271 2862 7907 7909 8272 
10 2038 2098 7718 7735 2316 7899 8273 8274 7901 7903 
10 2035 7686 7627 7810 8275 8046 8105 8107 8050 8049 
10 732 3461 695 7625 8277 8276 903 8278 8279 8280 
10 2486 2578 7632 7648 2764 8282 8281 8283 8284 8285 
10 3025 2078 7627 7810 8286 8104 8085 8086 8106 8049 
10 3006 7649 7668 7688 8134 7874 8135 8287 8226 8288 
10 7623 7601 7639 7764 8072 8070 8071 8289 8290 8291 
10 3443 3479 7603 7669 3842 8190 8292 8293 8189 7927 
10 2025 2061 2095 7651 2417 2418 2415 8103 7892 8294 
10 2054 7606 7631 7771 7849 7850 7851 8152 8154 8295 
10 7622 7589 7701 7781 8298 8297 8296 8299 8300 8301 
10 2086 7739 7606 7816 8303 7854 8302 8304 8305 8306 
10 3025 2033 2980 7627 8308 8307 3416 8085 8309 8310 
10 2023 7631 7739 7785 8063 7853 8186 8311 8312 8313 
10 7662 7602 7723 7749 8316 8315 8314 8317 8318 8319 
10 3471 7631 7675 7689 8234 8236 8163 8164 8320 8165 
10 699 3037 7626 7650 8323 8322 8321 8324 8325 8326 
10 3501 7614 7657 7709 8329 8328 8327 8330 8331 8332 
10 3453 7779 7621 7811 8138 8334 8333 8141 8142 8335 
10 2086 2054 7606 7739 2243 7849 8302 8303 7852 7854 
10 7605 2999 7636 7821 8115 8211 8212 8118 8120 8336 
10 2519 7634 7641 7749 8339 8338 8337 8340 8035 8341 
10 7649 7604 7665 7727 7871 7875 7877 8342 8098 8343 
10 3454 7671 2508 7690 8167 8345 8344 8168 7865 8346 
10 2483 2584 7612 7662 2733 7979 8347 8348 7977 7978 
10 1792 7633 7674 7761 8351 8350 8349 8352 8353 8354 
10 3042 7654 7747 7821 8357 8356 8355 8358 8119 8359 
10 7613 7683 7679 7697 7840 8089 7989 7990 8088 7912 
10 7631 7610 7689 7716 8202 8166 8320 8200 8201 8360 
10 3453 7609 3481 7779 8140 8361 3706 8138 8139 8362 
10 7616 7727 7604 7738 8097 8098 8099 8363 8364 8129 
10 7588 7630 7622 7653 8062 8366 8365 8367 8368 8369 
10 7589 7622 7630 7653 8298 8366 8370 8371 8369 8368 
10 7609 7666 7724 7779 8374 8373 8372 8139 8375 8376 
10 7592 7623 7639 7703 8075 8071 7961 8377 8378 8250 
10 7603 7669 7701 7807 7927 7930 7929 7862 8379 8087 
10 7665 7727 7604 7786 8343 8098 7875 7976 8101 7859 
10 3461 3528 2044 7625 3898 8381 8380 8279 8382 8383 
10 7709 7609 7724 7779 8385 8372 8384 8386 8139 8376 
10 7604 7649 7668 7738 7871 7874 7873 8129 8137 8130 
10 7594 7733 7623 7817 7955 8387 7878 7883 7957 7881 
10 2056 7631 7642 7771 8092 8096 8095 8388 8295 8389 
10 7668 7591 7728 7784 7872 7855 7925 8390 8391 8392 
10 2999 7636 3043 7692 8211 8393 3258 8213 8215 8394 
10 1800 3456 1837 7633 8396 8395 2008 8397 8398 8399 
10 3471 3503 7610 7675 3812 8400 8161 8163 8401 8162 
10 1802 1838 3457 7634 2010 8403 8402 8404 8405 8406 
10 1802 2511 1838 7634 8408 8407 2010 8404 8409 8405 
10 3049 2504 2979 7624 8411 8410 3412 8412 8413 8414 
10 3451 2034 2079 7621 8416 2472 8415 8417 8418 8419 
10 2098 7613 7697 7757 7900 7990 8420 8267 8269 8421 
10 1800 1837 2040 7633 2008 8423 8422 8397 8399 8424 
10 2025 7609 7673 7770 8102 8198 8197 8425 8426 8427 
10 7615 7603 7645 7789 8429 8032 8428 8430 8182 8181 
10 2035 7627 7686 7769 8105 8046 8275 8431 8432 8433 
10 7595 7686 7726 7748 8067 8068 8019 8014 8434 8020 
10 7617 7660 7599 7725 8436 8435 8081 8082 8437 8083 
10 2488 7636 7643 7759 8439 8232 8438 8440 8441 7985 
10 2050 7637 7626 7795 8444 8443 8442 8445 8446 8447 
10 2552 2519 1821 7641 2630 8448 7972 7971 8337 7970 
10 2985 1799 1835 7628 8450 2007 8449 8451 8452 8453 
10 721 709 7603 7754 877 8455 8454 8456 8457 8458 
10 2088 2046 7644 7757 2321 8460 8459 8461 8462 8463 
10 7602 7617 7618 7725 8465 8079 8464 8466 8082 8084 
10 7686 2035 7769 7810 8275 8431 8433 8050 8107 8467 
10 3481 7609 7709 7779 8361 8385 8468 8362 8139 8386 
10 2486 7737 7648 7780 8470 8469 8283 8471 8472 8473 
10 2581 2514 2989 7635 2955 8475 8474 8476 8477 8478 
10 7604 2971 7670 7738 8127 8244 8243 8129 8128 8479 
10 2488 7636 7759 7773 8439 8441 8440 8480 8481 8482 
10 7638 7687 7610 7746 7822 8484 8483 7825 7827 8485 
10 3459 3492 2512 7634 3637 8486 7843 7845 8487 7844 
10 3501 7657 7614 7760 8327 8328 8329 8488 8006 8159 
10 7617 7634 7602 7743 8490 8489 8465 8491 8492 8493 
10 2520 7736 705 7755 8495 8170 8494 8496 8171 8043 
10 7612 2503 7661 7667 7995 8498 8497 7997 7996 8499 
10 7598 7667 7702 7717 8502 8501 8500 8503 8504 8505 
10 2520 705 7615 7755 8494 8054 8506 8496 8043 8055 
10 2543 7720 7645 7775 8508 8264 8507 8509 8510 7888 
10 7649 7604 7727 7738 7871 8098 8342 8137 8129 8364 
10 2486 7648 7632 7780 8283 8285 8281 8471 8473 8511 
10 2044 732 695 7625 8513 903 8512 8383 8278 8280 
10 7667 7612 7702 7717 7997 8514 8501 8504 8515 8505 
10 3472 7642 7631 7812 8094 8096 8091 8516 8517 8518 
10 7620 3003 7649 7704 8223 8221 8222 8519 8520 8521 
10 7636 7592 7643 7759 8522 7984 8232 8441 7966 7985 
10 7602 7634 7641 7743 8489 8338 8523 8493 8492 8524 
10 1823 1791 7620 7818 1940 8525 8253 8254 8526 8255 
10 3520 3450 2505 7648 3882 8206 8527 8528 8208 8210 
10 2543 7645 2500 7775 8507 7886 2912 8509 7888 7887 
10 7619 7651 7744 7751 7951 7953 7952 8009 8008 8529 
10 1823 7620 1791 7805 8253 8525 1940 8530 8531 8532 
10 7600 7661 7707 7717 8535 8534 8533 8536 8537 8538 
10 1799 2039 1835 7628 8540 8539 2007 8452 8541 8453 
10 7615 7754 7603 7789 8053 8458 8429 8430 8542 8182 
10 3030 7680 7616 7748 8545 8544 8543 8546 8547 8030 
10 2550 7643 3027 7698 8550 8549 8548 8551 7983 8552 
10 2054 7606 7697 7816 7849 8111 8110 8553 8306 8554 
10 3468 7746 7638 7814 8262 7825 8261 8555 8556 8557 
10 700 2521 7713 7736 8559 8150 8558 8560 8183 8185 
10 7600 7707 7629 7717 8533 8562 8561 8536 8538 8563 
10 2525 2558 7607 7671 2713 7906 8564 8565 7904 7905 
10 7587 7645 7703 7781 8031 8249 8248 8566 8567 8568 
10 3034 7644 7677 7753 8571 8570 8569 8572 8573 8574 
10 3529 7632 3478 7776 8575 8155 3701 8576 8260 8259 
10 2033 3050 2980 7627 8577 3417 8307 8309 8578 8310 
10 7592 7623 7703 7783 8075 8378 8377 8579 8580 8581 
10 7600 7687 7629 7707 7898 8582 8561 8533 8583 8562 
10 7623 7639 7703 7764 8071 8250 8378 8289 8291 8584 
10 3501 7614 3478 7760 8329 8157 3699 8488 8159 8158 
10 7703 7645 7720 7781 8249 8264 8266 8568 8567 8585 
10 2050 698 7626 7637 8587 8586 8442 8444 8588 8443 
10 696 731 2989 7635 904 8590 8589 8591 8592 8478 
10 3514 3454 3433 7671 3721 3719 3720 8051 8167 7866 
10 2081 2029 7642 7699 2444 8593 7944 7947 8594 7948 
10 7609 7681 7709 7724 8596 8595 8385 8372 8597 8384 
10 7697 7705 7711 7816 7911 7915 7914 8554 8598 8599 
10 7622 7664 7589 7781 8601 8600 8298 8299 8602 8300 
10 694 723 2990 7626 826 8603 8238 8195 8604 8124 
10 7617 7602 7618 7743 8465 8464 8079 8491 8493 8605 
10 7609 7666 7681 7724 8374 8606 8596 8372 8373 8597 
10 728 2564 2520 7615 8608 2617 8607 8609 8610 8506 
10 2999 7605 7692 7801 8115 8214 8213 8611 8612 8613 
10 7598 7605 7658 7707 8616 8615 8614 8617 8618 8619 
10 7609 3481 7709 7729 8361 8468 8385 8620 8621 8622 
10 7614 7663 7723 7756 8625 8624 8623 8626 8627 8628 
10 7600 7707 7661 7737 8533 8534 8535 8629 8630 8022 
10 7602 7662 7723 7756 8316 8314 8315 8631 8632 8628 
10 7606 7631 7716 7798 7850 8200 8633 8634 8203 8205 
10 3529 7663 7632 7776 8636 8635 8575 8576 8637 8260 
10 3497 3475 2081 7699 3572 8638 7945 7946 8639 7947 
10 7614 7660 7709 7776 8641 8640 8331 8258 8642 8643 
10 3464 7685 7633 7761 8646 8645 8644 8647 8648 8353 
10 721 709 693 7603 877 901 900 8454 8455 8649 
10 7591 7786 7662 7787 7858 8026 8025 8650 8651 8652 
10 696 2514 731 7635 8654 8653 904 8591 8477 8592 
10 2022 2098 7613 7697 2384 7900 8655 8656 8420 7990 
10 3058 7680 7670 7738 8659 8658 8657 8660 8661 8479 
10 2586 7736 2520 7755 8662 8495 2844 8663 8171 8496 
10 2556 2483 2584 7612 2730 2733 2734 8664 8347 7979 
10 7590 7652 7727 7740 8667 8666 8665 8668 8669 8670 
10 7603 3443 7669 7734 8292 8293 7927 8671 8672 8673 
10 7609 7599 7651 7673 8675 8674 7891 8198 8676 8199 
10 7588 7622 7623 7783 8365 8677 7919 8678 8679 8580 
10 3501 3449 7614 7709 3878 8680 8329 8330 8681 8331 
10 7611 7727 7652 7740 8683 8666 8682 8684 8670 8669 
10 1810 2519 7634 7641 8686 8339 8685 8687 8337 8338 
10 7619 1812 7674 7700 8690 8689 8688 8691 8692 8693 
10 2044 695 2092 7625 8512 8694 2366 8383 8280 8695 
10 7612 7667 7702 7786 7997 8501 8514 8696 8697 8173 
10 7598 7661 7667 7717 8698 8499 8502 8503 8537 8504 
10 2538 7636 2493 7692 8217 8699 2858 8220 8215 8700 
10 7587 7640 7645 7781 7836 8257 8031 8566 8701 8567 
10 2541 7668 3017 7670 8704 8703 8702 8705 8245 8706 
10 3034 7644 2974 7677 8571 8707 3380 8569 8570 8708 
10 7623 7703 7587 7764 8378 8248 8709 8289 8584 8710 
10 7598 7658 7605 7692 8614 8615 8616 8711 8712 8214 
10 2493 7636 7658 7692 8699 8714 8713 8700 8215 8712 
10 7643 3035 7678 7747 8716 8715 8044 8717 8718 8719 
10 2543 2500 7645 7778 2912 7886 8507 8720 7987 7986 
10 2503 7612 7661 7780 7995 8497 8498 8721 8722 8723 
10 7623 7592 7654 7783 8075 8725 8724 8580 8579 8726 
10 3479 7669 3480 7741 8189 8727 3689 8191 8061 8728 
10 3510 7632 3529 7663 8729 8575 3835 8730 8635 8636 
10 3515 7631 3440 7675 8233 8731 3807 8235 8236 8732 
10 3057 2043 2110 7626 8121 2480 8733 8123 8125 8734 
10 1790 7618 7674 7700 8736 8176 8735 8737 8738 8693 
10 7605 2999 7694 7801 8115 8117 8116 8612 8611 8739 
10 2043 2990 3047 7626 8122 3302 8740 8125 8124 8741 
10 3529 3478 7632 7760 3701 8155 8575 8742 8158 8160 
10 2495 7632 7663 7723 8744 8635 8743 8745 8746 8624 
10 7591 7665 7786 7787 7876 7976 7858 8650 8747 8651 
10 3516 3464 7633 7761 3553 8644 8748 8749 8647 8353 
10 7588 7623 7654 7783 7919 8724 7941 8678 8580 8726 
10 7640 7701 7589 7781 7928 8297 8750 8701 8301 8300 
10 2531 7662 7723 7749 8752 8314 8751 8753 8317 8319 
10 7641 2528 7662 7696 8756 8755 8754 7975 8757 8758 
10 7599 7609 7651 7681 8675 7891 8674 8759 8596 8760 
10 7610 7631 7675 7798 8202 8236 8162 8204 8203 8761 
10 7600 7607 7707 7737 8763 8762 8533 8629 7908 8630 
10 7656 7711 7705 7816 8765 7915 8764 8766 8599 8598 
10 3006 2971 7668 7738 3355 8126 8135 8136 8128 8130 
10 3035 2975 7643 7678 3386 8767 8716 8715 8768 8044 
10 7600 7607 7638 7687 8763 8769 7897 7898 8770 7822 
10 3472 2056 2037 7631 8093 2216 8771 8091 8092 8772 
10 7603 721 7754 7767 8454 8456 8458 8773 8774 8775 
10 3467 7625 7669 7734 8778 8777 8776 8779 8780 8673 
10 3453 3481 7609 7770 3706 8361 8140 8781 8782 8426 
10 3030 7616 7680 7738 8543 8544 8545 8783 8363 8661 
10 7591 7668 7649 7688 7872 7874 7870 8784 8288 8226 
10 723 699 3037 7626 751 8323 8785 8604 8321 8322 
10 2538 2574 3014 7692 2655 8786 8216 8220 8787 8219 
10 3449 3478 3501 7614 3879 3699 3878 8680 8157 8329 
10 7599 7673 7609 7729 8676 8198 8675 8788 8789 8620 
10 7614 7663 7756 7776 8625 8627 8626 8258 8637 8790 
10 2549 3452 2566 7632 8792 8791 2700 8793 8794 8795 
10 7662 7728 7591 7784 7982 7855 8025 8796 8392 8391 
10 7657 7596 7687 7746 8798 8797 7823 7826 8799 7827 
10 7587 7639 7645 7764 8246 8247 8031 8710 8291 8800 
10 2086 2023 2054 7739 2390 2393 2243 8303 8186 7852 
10 3042 2999 7654 7821 3257 8114 8357 8358 8120 8119 
10 7628 3020 7704 7803 8803 8802 8801 8804 8805 8806 
10 2494 7737 7671 7763 8272 7909 8271 8807 8808 8809 
10 2088 7644 2055 7757 8459 8810 2326 8461 8463 8811 
10 7618 1790 7674 7743 8736 8735 8176 8605 8812 8813 
10 7600 7607 7687 7707 8763 8770 7898 8533 8762 8583 
10 2095 7651 2061 7774 8294 7892 2418 8814 7894 7893 
10 694 2043 724 7626 8192 8815 830 8195 8125 8816 
10 7632 7614 7663 7723 8156 8625 8635 8746 8623 8624 
10 7623 7622 7703 7783 8677 8817 8378 8580 8679 8581 
10 7588 7623 7622 7817 7919 8677 8365 7921 7881 8818 
10 3441 3481 7609 7729 3816 8361 8819 8820 8621 8620 
10 7587 7640 7701 7807 7836 7928 8821 7861 7863 8087 
10 7674 7633 7685 7761 8350 8645 8822 8354 8353 8648 
10 2067 2098 2038 7735 2386 2316 2180 8823 7901 8274 
10 7638 7671 7737 7763 8825 7909 8824 8826 8809 8808 
10 3049 7624 2979 7692 8412 8414 3412 8827 8828 8829 
10 7686 7616 7726 7748 8830 8028 8068 8434 8030 8020 
10 7639 2544 7698 7759 8832 8831 7963 7964 8833 7965 
10 2023 2097 7631 7785 2394 8064 8063 8311 8834 8312 
10 7597 7690 7708 7794 8057 7869 8059 8835 8836 8837 
10 2552 2498 7641 7696 2900 8838 7971 7974 8839 7975 
10 7592 7623 7654 7765 8075 8724 8725 8840 8841 8842 
10 7640 7589 7664 7781 8750 8600 8843 8701 8300 8602 
10 2499 2560 7643 7759 2908 8845 8844 8846 8847 7985 
10 7634 7602 7641 7749 8489 8523 8338 8035 8318 8341 
10 2034 2117 7621 7785 2476 8848 8418 8849 8850 8851 
10 7638 7671 7607 7737 8825 7905 8769 8824 7909 7908 
10 7592 7759 7636 7773 7966 8441 8522 8852 8482 8481 
10 2054 2086 7606 7816 2243 8302 7849 8553 8304 8306 
10 3430 3480 7669 7741 3690 8727 8143 8145 8728 8061 
10 3058 3007 7680 7738 3231 8853 8659 8660 8854 8661 
10 7608 7736 7754 7813 8169 8855 8040 8856 8857 8858 
10 3441 7729 7609 7770 8820 8620 8819 8859 8860 8426 
10 3435 7673 7633 7685 8863 8862 8861 8864 8865 8645 
10 730 2110 2043 7626 8866 2480 8193 8194 8734 8125 
10 7589 7630 7622 7701 8370 8366 8298 8297 8867 8296 
10 2069 7740 7676 7751 8869 7959 8868 8870 8010 8021 
10 7623 7588 7654 7765 7919 7941 8724 8841 8871 8842 
10 3453 7770 7609 7811 8781 8426 8140 8141 8872 7918 
10 730 2990 3057 7626 8237 3427 8873 8194 8124 8123 
10 1830 3516 7633 7761 8875 8748 8874 8876 8749 8353 
10 7603 7730 693 7734 8878 8877 8649 8671 8879 8880 
10 7602 7660 7617 7725 8881 8436 8465 8466 8437 8082 
10 3002 2526 2509 7636 8229 2649 8882 8227 8228 8883 
10 7585 7605 7679 7707 8886 8885 8884 8887 8618 8888 
10 698 7626 7637 7752 8586 8443 8588 8889 8890 8891 
10 3014 3043 7636 7692 3331 8393 8218 8219 8394 8215 
10 2508 2527 3473 7690 2688 8893 8892 8346 8894 8895 
10 7613 2022 7697 7711 8655 8656 7990 7991 8896 7914 
10 1828 7762 7628 7818 8899 8898 8897 8900 8901 8902 
10 3510 2566 7632 7663 8903 8795 8729 8730 8904 8635 
10 7599 7619 7633 7674 8907 8906 8905 8174 8688 8350 
10 2996 3037 699 7650 3082 8323 8908 8909 8325 8324 
10 3480 3479 3443 7669 3689 3842 3841 8727 8189 8293 
10 7614 7709 3449 7776 8331 8681 8680 8258 8643 8910 
10 699 7650 7626 7752 8324 8326 8321 8911 8912 8890 
10 3030 7616 3036 7748 8543 8913 3406 8546 8030 8914 
10 2525 7671 7607 7820 8565 7905 8564 8915 8916 8917 
10 7595 7679 7705 7711 8919 7910 8918 8920 7913 7915 
10 7639 7601 7678 7698 8070 8073 8003 7963 8921 8004 
10 3515 3440 3471 7675 3807 3813 3742 8235 8732 8163 
10 3492 2545 2512 7634 8922 2708 8486 8487 8923 7844 
10 7614 7632 7663 7776 8156 8635 8625 8258 8260 8637 
10 3465 7715 7617 7790 8926 8925 8924 8927 8928 8929 
10 2483 2584 7662 7728 2733 7977 8348 8930 7980 7982 
10 732 3528 3461 7625 8931 3898 8277 8278 8382 8279 
10 7606 7683 7697 7705 8932 8088 8111 8933 8090 7911 
10 3453 3524 7621 7779 3710 8934 8333 8138 8935 8334 
10 7607 7600 7638 7737 8763 7897 8769 7908 8629 8824 
10 724 2091 2050 7626 8937 2136 8936 8816 8938 8442 
10 725 695 3461 7625 840 8276 8939 8940 8280 8279 
10 3452 3529 3510 7632 3895 3835 3892 8794 8575 8729 
10 2566 2495 7632 7663 2874 8744 8795 8904 8743 8635 
10 2520 7615 2564 7755 8506 8610 2617 8496 8055 8941 
10 7612 2503 7723 7780 7995 8943 8942 8722 8721 8944 
10 7589 7622 7653 7716 8298 8369 8371 8945 8946 8947 
10 7602 7663 7723 7749 8948 8624 8315 8318 8037 8319 
10 719 7772 7706 7802 8951 8950 8949 8952 8953 8954 
10 7661 7598 7707 7717 8698 8617 8534 8537 8503 8538 
10 7656 7710 7774 7808 8957 8956 8955 8958 8959 8960 
10 7595 7686 7627 7710 8067 8046 8961 8065 8066 8962 
10 7630 7622 7701 7817 8366 8296 8867 7969 8818 8963 
10 7617 7602 7634 7715 8465 8489 8490 8925 8964 7923 
10 7610 7638 7746 7814 8483 7825 8485 8965 8557 8556 
10 3441 7609 3481 7770 8819 8361 3816 8859 8426 8782 
10 2590 7624 7692 7758 8967 8828 8966 8968 8969 8970 
10 7656 7774 7712 7808 8955 8972 8971 8958 8960 8973 
10 2040 1837 3456 7633 8423 8395 8974 8424 8399 8398 
10 3482 7673 7685 7729 8976 8865 8975 8977 8789 8978 
10 7628 2047 7676 7762 8981 8980 8979 8898 8982 8983 
10 3030 7655 7680 7748 8985 8984 8545 8546 8016 8547 
10 7654 7694 7683 7783 7942 7829 7940 8726 8986 8987 
10 7596 7657 7687 7724 8798 7823 8797 8988 8989 8990 
10 3514 7671 7708 7763 8051 7868 8052 8991 8809 8992 
10 7736 692 7754 7813 8994 8993 8855 8857 8995 8858 
10 7663 7602 7756 7776 8948 8631 8627 8637 8996 8790 
10 7662 7612 7723 7756 7978 8942 8314 8632 8997 8628 
10 7616 7611 7686 7726 8998 8132 8830 8028 8133 8068 
10 3027 7643 2975 7698 8549 8767 3388 8552 7983 8999 
10 7622 7588 7653 7683 8365 8367 8369 9000 7830 9001 
10 3457 1838 2511 7634 8403 8407 9002 8406 8405 8409 
10 3530 3471 7610 7689 3866 8161 9003 9004 8164 8166 
10 7588 7644 7750 7757 9007 9006 9005 9008 8463 9009 
10 7636 2962 7643 7747 9011 9010 8232 9012 9013 8717 
10 7586 7702 7727 7786 9015 8188 9014 9016 8173 8101 
10 2969 7718 7613 7735 9018 7842 9017 9019 7903 7902 
10 2054 7697 2113 7816 8110 9020 2244 8553 8554 9021 
10 3461 2044 3518 7625 8380 9022 3772 8279 8383 9023 
10 2514 696 722 7635 8654 852 9024 8477 8591 9025 
10 7619 7599 7633 7751 8907 8905 8906 8009 9026 9027 
10 3062 3006 7668 7688 3297 8135 9028 9029 8287 8288 
10 7599 7609 7681 7729 8675 8596 8759 8788 8620 9030 
10 705 7608 7736 7754 8038 8169 8170 8039 8040 8855 
10 2111 2044 3528 7625 2481 8381 9031 9032 8383 8382 
10 7667 2583 7670 7728 9035 9034 9033 8027 9036 9037 
10 2060 7673 7651 7751 9039 8199 9038 9040 9041 8008 
10 2985 1835 2039 7628 8449 8539 9042 8451 8453 8541 
10 2034 7621 2104 7785 8418 9043 2473 8849 8851 9044 
10 7640 7701 7669 7719 7928 7930 7926 8178 9045 8179 
10 3503 7610 7675 7746 8400 8162 8401 9046 8485 9047 
10 7592 7678 7623 7765 8002 8074 8075 8840 9048 8841 
10 7588 7644 7682 7750 9007 9049 7920 9005 9006 9050 
10 691 7706 719 7772 9051 8949 888 9052 8950 8951 
10 7609 7666 7596 7712 8374 9054 9053 9055 9056 9057 
10 3482 7673 3435 7685 8976 8863 3748 8975 8865 8864 
10 2984 2038 7718 7735 9059 8273 9058 9060 8274 7903 
10 7611 7686 7652 7768 8132 9061 8682 9062 9063 9064 
10 7603 7615 7645 7741 8429 8428 8032 7839 9065 8033 
10 7598 7605 7800 7806 8616 9067 9066 9068 9069 9070 
10 7596 7666 7609 7779 9054 8374 9053 9071 8375 8139 
10 3515 7631 3471 7689 8233 8234 3742 9072 8320 8164 
10 7611 7727 7686 7768 8683 9073 8132 9062 9074 9063 
10 7611 7616 7686 7727 8998 8830 8132 8683 8097 9073 
10 2503 2556 2584 7612 2939 2734 2937 7995 8664 7979 
10 1798 1821 7641 7799 2001 7970 9075 9076 8241 8240 
10 3467 725 3508 7625 9078 9077 3647 8778 8940 9079 
10 2544 7672 7639 7698 9081 9080 8832 8831 9082 7963 
10 7612 7702 7717 7786 8514 8505 8515 8696 8173 9083 
10 2544 7643 7698 7759 9084 7983 8831 8833 7985 7965 
10 7644 2046 7750 7757 8460 9085 9006 8463 8462 9009 
10 2989 2514 3048 7635 8475 9086 3314 8478 8477 9087 
10 2560 2488 7643 7759 2793 8438 8845 8847 8440 7985 
10 3473 3433 3454 7690 3718 3719 3617 8895 7864 8168 
10 3059 7694 2999 7801 9088 8117 3191 9089 8739 8611 
10 7609 7712 7596 7779 9055 9057 9053 8139 9090 9071 
10 3056 2581 2989 7635 9091 8474 3426 9092 8476 8478 
10 2525 7607 2558 7793 8564 7906 2713 9093 9094 9095 
10 7722 7682 7733 7795 9097 7956 9096 9098 9099 9100 
10 1796 7619 7762 7818 9103 9102 9101 9104 9105 8901 
10 2111 732 2044 7625 9106 8513 2481 9032 8278 8383 
10 3002 7636 2962 7643 8227 9011 3248 8230 8232 9010 
10 2526 2488 7636 7643 2786 8439 8228 8231 8438 8232 
10 7596 7724 7666 7779 8988 8373 9054 9071 8376 8375 
10 2969 7613 7694 7714 9017 7841 9107 9108 9109 9110 
10 2107 7710 7627 7769 9112 8962 9111 9113 9114 8432 
10 3054 7624 7670 7680 9117 9116 9115 9118 9119 8658 
10 3535 3451 7621 7785 3891 8417 9120 9121 9122 8851 
10 7605 7707 7598 7800 8618 8617 8616 9067 9123 9066 
10 3058 7670 2971 7738 8657 8244 3360 8660 8479 8128 
10 2496 7668 7670 7728 9125 8245 9124 9126 7925 9037 
10 7585 7684 7605 7707 9128 9127 8886 8887 9129 8618 
10 7666 7712 7774 7808 9056 8972 9130 9131 8973 8960 
10 3014 2574 3049 7692 8786 9132 3152 8219 8787 8827 
10 3452 2549 3495 7632 8792 9133 3893 8794 8793 9134 
10 2502 2580 7661 7758 2930 7933 9135 9136 7931 7932 
10 7596 7687 7746 7798 8797 7827 8799 9137 9138 9139 
10 7605 7655 7800 7806 9140 8077 9067 9069 9141 9070 
10 2999 7692 3031 7801 8213 9142 3188 8611 8613 9143 
10 2489 7659 7668 7784 9146 9145 9144 9147 9148 8390 
10 7611 7652 7727 7768 8682 8666 8683 9062 9064 9074 
10 7587 7789 7603 7807 8180 8182 7834 7861 9149 7862 
10 1821 2518 2552 7696 9150 2627 7972 7973 9151 7974 
10 2054 2030 7653 7771 2450 9152 8108 8152 9153 8153 
10 3530 7689 7610 7814 9004 8166 9003 9154 9155 8965 
10 7623 7677 7588 7765 7992 7993 7919 8841 9156 8871 
10 2579 7667 2583 7670 9157 9035 2758 9158 9033 9034 
10 3030 2978 7616 7738 3408 9159 8543 8783 9160 8363 
10 7661 7658 7707 7758 7938 8619 8534 7932 7937 9161 
10 2543 7645 7755 7778 8507 9163 9162 8720 7986 9164 
10 7588 7654 7683 7783 7941 7940 7830 8678 8726 8987 
10 7701 7622 7781 7817 8296 8299 8301 8963 8818 9165 
10 7682 7594 7733 7795 7879 7955 7956 9099 9166 9100 
10 2549 7632 2578 7648 8793 8282 2949 9167 8285 8284 
10 7585 7679 7605 7783 8884 8885 8886 9168 9169 9170 
10 2495 2507 7632 7723 2872 9171 8744 8745 9172 8746 
10 7637 7722 7733 7795 9174 9096 9173 8446 9098 9100 
10 7616 7655 7680 7702 8060 8984 8544 8029 8012 9175 
10 7589 7640 7664 7689 8750 8843 8600 9176 9177 9178 
10 2498 2528 7641 7696 2905 8756 8838 8839 8757 7975 
10 2047 2087 7676 7762 2335 9179 8980 8982 9180 8983 
10 7605 7598 7692 7806 8616 8711 8214 9069 9068 9181 
10 7614 7717 7600 7724 9183 8536 9182 9184 9185 9186 
10 7660 3429 7709 7776 9188 9187 8640 8642 9189 8643 
10 7604 7670 7680 7738 8243 8658 9190 8129 8479 8661 
10 3433 7708 7690 7794 7867 7869 7864 9191 8837 8836 
10 3006 2971 3062 7668 3355 3357 3297 8135 8126 9028 
10 7605 7636 7658 7684 8212 8714 8615 9127 9192 9193 
10 2016 7631 2056 7771 9194 8092 2302 9195 8295 8388 
10 3479 3443 7603 7767 3842 8292 8190 9196 9197 8773 
10 701 7625 3467 7734 9199 8778 9198 9200 8780 8779 
10 2999 2976 3042 7654 3390 3391 3257 8114 9201 8357 
10 7654 7747 7592 7765 8356 9202 8725 8842 9203 8840 
10 2962 3035 7643 7747 3253 8716 9010 9013 8718 8717 
10 3002 2962 3035 7643 3248 3253 3259 8230 9010 8716 
10 3034 7677 2992 7753 8569 9204 3268 8572 8574 9205 
10 726 696 2989 7635 856 8589 9206 9207 8591 8478 
10 3531 3443 3479 7767 3838 3842 3794 9208 9197 9196 
10 7631 7610 7675 7689 8202 8162 8236 8320 8166 8165 
10 2067 2038 2984 7735 2180 9059 9209 8823 8274 9060 
10 7637 7733 7594 7795 9173 7955 9210 8446 9100 9166 
10 695 732 2044 2092 903 8513 8512 8694 9211 2366 
10 7654 7588 7753 7765 7941 8000 8017 8842 8871 9212 
10 2975 7698 7678 7796 8999 8004 8768 9213 9214 9215 
10 7651 7691 7740 7744 9217 9216 7950 7953 9218 7954 
10 3514 7708 7638 7763 8052 9220 9219 8991 8992 8826 
10 7605 7679 7707 7800 8885 8888 8618 9067 9221 9123 
10 7617 7743 1826 7790 8491 9223 9222 8929 9224 9225 
10 7629 7707 7598 7717 8562 8617 9226 8563 8538 8503 
10 7663 7602 7723 7756 8948 8315 8624 8627 8631 8628 
10 2063 7722 7682 7750 9228 9097 9227 9229 9230 9050 
10 2098 2022 7613 7735 2384 8655 7900 7901 9231 7902 
10 7587 7764 7645 7789 8710 8800 8031 8180 9232 8181 
10 1791 7805 7620 7818 8532 8531 8525 8526 9233 8255 
10 2507 2566 2495 7632 2873 2874 2872 9171 8795 8744 
10 7627 7686 7595 7748 8046 8067 8961 9234 8434 8014 
10 7608 7645 7764 7789 9236 8800 9235 9237 8181 9232 
10 2982 3040 3025 7810 3348 3119 3425 8048 9238 8086 
10 3016 2042 2071 7810 9240 2196 9239 9241 9242 9243 
10 7614 7600 7657 7724 9182 7896 8328 9184 9186 8989 
10 3529 3442 7663 7776 3831 9244 8636 8576 9245 8637 
10 2094 2035 2078 7810 2401 2477 2189 9246 8107 8106 
10 2983 3002 2509 7636 3146 8882 9247 9248 8227 8883 
10 3480 3430 7669 7719 3690 8143 8727 9249 8177 8179 
10 7651 7609 7666 7681 7891 8374 9250 8760 8596 8606 
10 3057 2990 3047 2043 3427 3302 3095 8121 8122 8740 
10 3048 2989 2581 2514 3314 8474 9251 9086 8475 2955 
10 2055 7644 7718 7757 8810 9253 9252 8811 8463 8268 
10 3471 3503 3530 7610 3812 3667 3866 8161 8400 9003 
10 7598 7667 7680 7702 8502 9255 9254 8500 8501 9175 
10 3454 2508 3473 7690 8344 8892 3617 8168 8346 8895 
10 2965 3062 7668 7688 3291 9028 9256 9257 9029 8288 
10 7657 3468 7746 7760 9258 8262 7826 8006 8263 8007 
10 2499 7643 2544 7759 8844 9084 2906 8846 7985 8833 
10 7585 7716 7622 7732 9260 8946 9259 9261 9262 9263 
10 3503 3530 7610 7814 3667 9003 8400 9264 9154 8965 
10 7600 7717 7614 7780 8536 9183 9182 9265 9266 9267 
10 2054 7631 2097 7771 7851 8064 2312 8152 8295 9268 
10 694 730 2990 723 902 8237 8238 826 748 8603 
10 7586 7702 7726 7727 9015 8018 9269 9014 8188 9270 
10 1795 7620 7777 7815 9273 9272 9271 9274 9275 9276 
10 7610 7716 7585 7804 8201 9260 9277 9278 9279 9280 
10 2028 2088 2046 7644 2436 2321 2434 9281 8459 8460 
10 3435 3458 7633 7673 3750 9282 8861 8863 9283 8862 
10 3451 3521 7621 7785 3887 9284 8417 9122 9285 8851 
10 7664 7622 7716 7732 8601 8946 9286 9287 9263 9262 
10 2499 2544 7643 7698 2906 9084 8844 9288 8831 7983 
10 731 3056 2989 7635 9289 3426 8590 8592 9092 8478 
10 7600 7687 7657 7724 7898 7823 7896 9186 8990 8989 
10 731 2514 696 722 8653 8654 904 764 9024 852 
10 2100 2039 1799 7628 2329 8540 9290 9291 8541 8452 
10 2046 7682 7644 7750 9292 9049 8460 9085 9050 9006 
10 7674 7619 7700 7744 8688 8691 8693 9293 7952 9294 
10 3472 2037 3455 7631 8771 9295 3578 8091 8772 9296 
10 2581 731 2514 7635 9297 8653 2955 8476 8592 8477 
10 7620 1811 7700 7731 9299 9298 8252 9300 9301 9302 
10 7679 7683 7694 7783 8089 7829 9303 9169 8987 8986 
10 2538 2493 2574 7692 2858 2859 2655 8220 8700 8787 
10 7679 7694 7605 7783 9303 8116 8885 9169 8986 9170 
10 2087 2018 2047 7676 2336 2334 2335 9179 9304 8980 
10 2975 7643 7678 7698 8767 8044 8768 8999 7983 8004 
10 709 693 7603 7730 901 8649 8455 9305 8877 8878 
10 2066 7721 7750 7771 9308 9307 9306 9309 9310 9311 
10 7666 7651 7681 7691 9250 8760 8606 9312 9217 9313 
10 7678 7592 7747 7765 8002 9202 8719 9048 8840 9203 
10 2562 7661 7737 7780 9315 8022 9314 9316 8723 8472 
10 7617 7674 1814 7743 8175 9318 9317 8491 8813 9319 
10 7667 7604 7680 7702 9320 9190 9255 8501 8172 9175 
10 3015 3003 7649 7688 3204 8221 9321 9322 8224 8226 
10 3478 7614 3449 7776 8157 8680 3879 8259 8258 8910 
10 3448 7657 3468 7746 9323 9258 3871 9324 7826 8262 
10 709 7730 7603 7754 9305 8878 8455 8457 9325 8458 
10 7585 7605 7684 7783 8886 9127 9128 9168 9170 9326 
10 7617 7599 7660 7685 8081 8435 8436 9327 9328 9329 
10 7594 7623 7733 7809 7878 8387 7955 9330 9331 9332 
10 7588 7622 7630 7817 8365 8366 8062 7921 8818 7969 
10 3468 7657 3448 7760 9258 9323 3871 8263 8006 9333 
10 716 7637 2077 7706 9336 9335 9334 9337 9338 9339 
10 3034 2974 2992 7677 3380 3378 3268 8569 8708 9204 
10 7691 7590 7740 7744 9340 8668 9216 9218 9341 7954 
10 2493 2538 2569 7636 2858 2857 2856 8699 8217 9342 
10 1806 1830 7633 7761 1872 8874 9343 9344 8876 8353 
10 7661 7612 7667 7717 8497 7997 8499 8537 8515 8504 
10 7598 7661 7707 7758 8698 8534 8617 9345 7932 9161 
10 7605 7636 7684 7821 8212 9192 9127 8118 8336 9346 
10 2060 2116 7673 7751 2351 9347 9039 9040 9348 9041 
10 705 728 2520 7615 776 8607 8494 8054 8609 8506 
10 3003 7649 7704 7768 8221 8521 8520 9349 9350 9351 
10 2063 7682 7722 7795 9227 9097 9228 9352 9099 9098 
10 1794 7743 7634 7790 9354 8492 9353 9355 9224 9356 
10 2490 2512 7634 7749 2816 7844 9357 9358 8036 8035 
10 2047 7628 2100 7762 8981 9291 2152 8982 8898 9359 
10 3510 3529 3442 7663 3835 3831 3832 8730 8636 9244 
10 7613 2022 7711 7735 8655 8896 7991 7902 9231 9360 
10 2043 730 694 724 8193 902 8192 8815 796 830 
10 3015 7620 3003 7688 9361 8223 3204 9322 8225 8224 
10 2076 7769 7740 7774 9364 9363 9362 9365 9366 9367 
10 7606 7705 7697 7816 8933 7911 8111 8306 8598 8554 
10 2526 2560 2488 7643 2798 2793 2786 8231 8845 8438 
10 2067 2984 3013 7735 9209 3110 9368 8823 9060 9369 
10 1815 7700 7619 7818 9371 8691 9370 9372 8256 9105 
10 1828 2100 7628 7762 9373 9291 8897 8899 9359 8898 
10 3514 7638 7708 7814 9219 9220 8052 9374 8557 9375 
10 7616 7686 7727 7768 8830 9073 8097 9376 9063 9074 
10 2080 3026 7644 7745 9379 9378 9377 9380 9381 9382 
10 2549 2578 2505 7648 2949 2950 2948 9167 8284 8210 
10 2012 7651 7740 7751 9384 7950 9383 9385 8008 8010 
10 7618 7641 7743 7787 9386 8524 8605 9387 9388 9389 
10 3479 7603 7741 7767 8190 7839 8191 9196 8773 9390 
10 7639 7587 7703 7764 8246 8248 8250 8291 8710 8584 
10 732 3461 725 695 8277 8939 780 903 8276 840 
10 2989 726 731 696 9206 761 8590 8589 856 904 
10 2544 7639 7672 7797 8832 9080 9081 9391 9392 9393 
10 2528 7662 7696 7784 8755 8758 8757 9394 8796 9395 
10 7667 7604 7702 7786 9320 8172 8501 8697 7859 8173 
10 2506 2981 2548 7670 9397 9396 2952 9398 9399 9400 
10 2089 7642 7721 7771 9403 9402 9401 9404 8389 9310 
10 2510 1801 1836 7659 9406 2009 9405 9407 9408 9409 
10 2550 3027 3005 7698 8548 3140 9410 8551 8552 9411 
10 3003 2973 3033 7620 3377 3374 3285 8223 9412 9413 
10 3495 7632 2549 7648 9134 8793 9133 8209 8285 9167 
10 2541 2496 7668 7670 2888 9125 8704 8705 9124 8245 
10 7588 7677 7753 7765 7993 8574 8000 8871 9156 9212 
10 2579 2583 2506 7670 2758 2884 2953 9158 9034 9398 
10 2094 3025 3040 7810 9415 3119 9414 9246 8086 9238 
10 1801 2986 1836 7659 9417 9416 2009 9408 9418 9409 
10 3010 3036 7616 7748 3245 8913 9419 9420 8914 8030 
10 3450 3495 3520 2505 3883 3626 3882 8206 8207 8527 
10 2535 7723 2503 7780 9421 8943 2940 9422 8944 8721 
10 2528 2540 7641 7662 2724 9423 8756 8755 9424 8754 
10 1792 1806 7633 7761 1951 9343 8351 8352 9344 8353 
10 2111 3528 732 7625 9031 8931 9106 9032 8382 8278 
10 3468 3526 7746 7814 3872 9425 8262 8555 9426 8556 
10 3532 3467 7669 7734 3776 8776 9427 9428 8779 8673 
10 7606 7631 7675 7739 7850 8236 9429 7854 7853 9430 
10 7600 7614 7632 7780 9182 8156 9431 9265 9267 8511 
10 2499 2517 2560 7759 2907 2794 2908 8846 9432 8847 
10 2971 3017 7668 7670 3361 8703 8126 8244 8706 8245 
10 2566 3452 3510 7632 8791 3892 8903 8795 8794 8729 
10 7614 7600 7632 7760 9182 9431 8156 8159 8034 8160 
10 3033 3003 7620 7704 3285 8223 9413 9433 8520 8519 
10 2558 7607 7737 7793 7906 7908 7907 9095 9094 8024 
10 7585 7629 7707 7800 9434 8562 8887 9435 9436 9123 
10 7585 7705 7629 7800 9438 9437 9434 9435 9439 9436 
10 2065 7652 7740 7769 9441 8669 9440 9442 9443 9363 
10 2987 7704 3020 7803 9444 8802 3127 9445 8806 8805 
10 7676 7740 7590 7744 7959 8668 9446 7960 7954 9341 
10 7614 7657 7600 7760 8328 7896 9182 8159 8006 8034 
10 3437 3532 3467 7669 3775 3776 3774 9447 9427 8776 
10 2525 7607 7793 7820 8564 9094 9093 8915 8917 9448 
10 2496 7670 2583 7728 9124 9034 2885 9126 9037 9036 
10 2506 2565 2981 7670 2882 9449 9397 9398 9450 9399 
10 7640 7664 7689 7788 8843 9178 9177 9451 9452 9453 
10 7634 7663 7715 7749 7847 7924 7923 8035 8037 9454 
10 2107 7627 2035 7769 9111 8105 2281 9113 8432 8431 
10 3029 7654 7694 7753 9456 7942 9455 9457 8017 7999 
10 1838 2577 3523 2511 9460 9459 9458 8407 2712 9461 
10 2066 7750 7653 7771 9306 9463 9462 9309 9311 8153 
10 3464 3435 7633 7685 3753 8861 8644 8646 8864 8645 
10 3455 3472 7631 7812 3578 8091 9296 9464 8516 8518 
10 1821 1805 7696 7799 1891 9465 7973 8241 9466 8242 
10 7658 7605 7684 7707 8615 9127 9193 8619 8618 9129 
10 2094 2078 3025 7810 2189 8286 9415 9246 8106 8086 
10 7606 7716 7631 7771 8633 8200 7850 8154 9467 8295 
10 7638 7687 7607 7804 7822 8770 8769 9468 9469 9470 
10 3057 2110 730 7626 8733 8866 8873 8123 8734 8194 
10 7630 7589 7653 7721 8370 8371 8368 9471 9472 9473 
10 2991 7678 3035 7747 9474 8715 3252 9475 8719 8718 
10 2483 2531 7662 7723 2729 8752 8348 9476 8751 8314 
10 3528 3518 3461 2044 3566 3772 3898 8381 9022 8380 
10 2025 7609 7770 7811 8102 8426 8425 8187 7918 8872 
10 1826 1797 1814 7617 1999 2000 1982 9222 9477 9317 
10 2069 2057 7676 7740 2257 9478 8868 8869 9479 7959 
10 3525 7632 3495 7648 9480 9134 3885 9481 8285 8209 
10 7585 7716 7610 7798 9260 8201 9277 9482 8205 8204 
10 2521 2491 7635 7672 2829 9483 8148 8147 9484 8146 
10 3522 1837 2040 2106 9486 8423 9485 9487 9488 2240 
10 2019 7633 2041 7673 9490 9489 2344 9491 8862 9492 
10 2579 7624 7667 7670 9494 9493 9157 9158 9116 9033 
10 3459 3436 7634 7715 3761 9495 7845 7922 9496 7923 
10 2535 7632 7723 7780 9497 8746 9421 9422 8511 8944 
10 7611 7740 7769 7774 8684 9363 9498 9499 9367 9366 
10 7702 7616 7726 7727 8029 8028 8018 8188 8097 9270 
10 1792 7674 7633 7791 8349 8350 8351 9500 9501 9502 
10 7640 7719 3483 7788 8178 9504 9503 9451 9505 9506 
10 724 2050 698 7626 8936 8587 799 8816 8442 8586 
10 2059 2029 2081 7699 2445 2444 2210 9507 8594 7947 
10 705 7736 692 7754 8170 8994 894 8039 8855 8993 
10 3437 3467 7625 7669 3774 8778 9508 9447 8776 8777 
10 3063 2979 7624 7692 3415 8414 9509 9510 8829 8828 
10 3041 2971 3006 7738 3356 3355 3208 9511 8128 8136 
10 7600 7629 7687 7724 8561 8582 7898 9186 9512 8990 
10 2041 7633 2075 7673 9489 9513 2236 9492 8862 9514 
10 1814 1826 7617 7743 1982 9222 9317 9319 9223 8491 
10 2028 7644 7682 7745 9281 9049 9515 9516 9382 9517 
10 3457 3517 1802 7634 3760 9518 8402 8406 9519 8404 
10 3486 7617 7660 7685 9521 8436 9520 9522 9327 9329 
10 3440 7675 7631 7785 8732 8236 8731 9523 9524 8312 
10 3495 2549 2505 7648 9133 2948 8207 8209 9167 8210 
10 1812 1824 1796 7619 1956 1993 1994 8690 9525 9103 
10 2489 7659 2546 7668 9146 9526 2799 9144 9145 9527 
10 3433 7690 3506 7794 7864 9528 3722 9191 8836 9529 
10 2574 2493 2590 7692 2859 2853 2860 8787 8700 8966 
10 7618 7743 7602 7787 8605 8493 8464 9387 9389 9530 
10 1835 2985 2105 3051 8449 9532 9531 9533 3131 9534 
10 7597 7708 7671 7732 8059 7868 8058 9535 9536 9537 
10 7613 7711 7679 7714 7991 7913 7989 9109 9538 9539 
10 7595 7679 7711 7714 8919 7913 8920 9540 9539 9538 
10 2991 2975 3035 7678 3384 3386 3252 9474 8768 8715 
10 2562 2503 7661 7780 2941 8498 9315 9316 8721 8723 
10 2564 7615 728 7792 8610 8609 8608 9541 9542 9543 
10 7599 7744 7651 7751 9544 7953 8674 9026 8529 8008 
10 2572 3048 7635 7698 9546 9087 9545 9547 9548 9549 
10 3030 2978 3036 7616 3408 3410 3406 8543 9159 8913 
10 7596 7687 7629 7724 8797 8582 9550 8988 8990 9512 
10 729 697 7615 7792 868 9552 9551 9553 9554 9542 
10 7603 3443 7734 7767 8292 8672 8671 8773 9197 9555 
10 2586 2497 7736 7755 2895 9556 8662 8663 9557 8171 
10 701 7625 7734 7802 9199 8780 9200 9558 9559 9560 
10 7597 7671 7690 7775 8058 7865 8057 9561 9562 7889 
10 3514 3454 7671 7763 3721 8167 8051 8991 9563 8809 
10 3458 3491 7633 7673 3598 9564 9282 9283 9565 8862 
10 3050 2980 3025 2033 3417 3416 3116 8577 8307 8308 
10 7585 7629 7687 7707 9434 8582 9566 8887 8562 8583 
10 2492 2564 7615 7755 2837 8610 9567 9568 8941 8055 
10 1812 1824 7619 7791 1956 9525 8690 9569 9570 9571 
10 7659 2965 7668 7688 9572 9256 9145 9573 9257 8288 
10 2486 2589 2578 7648 2770 2772 2764 8283 9574 8284 
10 7598 7707 7658 7758 8617 8619 8614 9345 9161 7937 
10 3020 2964 7628 7704 3274 9575 8803 8802 9576 8801 
10 2499 7643 2550 7698 8844 8550 2909 9288 7983 8551 
10 2047 2018 7628 7676 2334 9577 8981 8980 9304 8979 
10 7587 7647 7733 7809 9580 9579 9578 9581 9582 9332 
10 2538 3014 2983 7636 8216 3149 9583 8217 8218 9248 
10 7615 2492 7755 7778 9567 9568 8055 9584 9585 9164 
10 3452 3495 3525 7632 3893 3885 3894 8794 9134 9480 
10 7629 7585 7687 7705 9434 9566 8582 9437 9438 9586 
10 3449 7709 3429 7776 8681 9187 3670 8910 8643 9189 
10 2531 7723 7663 7749 8751 8624 9587 8753 8319 8037 
10 2981 3054 7624 7670 3423 9117 9588 9399 9115 9116 
10 1828 2100 1799 7628 9373 9290 1932 8897 9291 8452 
10 2981 3058 3054 7670 3424 3233 3423 9399 8657 9115 
10 2990 723 3037 7626 8603 8785 3299 8124 8604 8322 
10 7621 3535 7675 7779 9120 9590 9589 8334 9591 9592 
10 7611 7686 7710 7769 8132 8066 8131 9498 8433 9114 
10 7708 7671 7732 7804 7868 9537 9536 9593 9594 9595 
10 3491 2075 7633 7673 9596 9513 9564 9565 9514 8862 
10 3014 2968 3043 7692 3330 3329 3331 8219 9597 8394 
10 1834 1802 3517 7634 1973 9518 9598 9599 8404 9519 
10 1790 7618 7731 7743 8736 9601 9600 8812 8605 9602 
10 2069 7676 7619 7751 8868 7958 9603 8870 8021 8009 
10 7614 7756 7723 7780 8626 8628 8623 9267 9604 8944 
10 3510 3488 2542 7663 3632 9606 9605 8730 9607 9608 
10 7617 7674 7599 7685 8175 8174 8081 9327 8822 9328 
10 1790 7618 7700 7731 8736 8738 8737 9600 9601 9302 
10 2088 2055 2017 7757 2326 2315 2322 8461 8811 9609 
10 3498 7690 2551 7778 9612 9611 9610 9613 7988 9614 
10 1827 1805 7659 7696 1888 9616 9615 9617 9465 9618 
10 7631 7606 7675 7798 7850 9429 8236 8203 8634 8761 
10 7611 7710 7726 7808 8131 8069 8133 9619 8959 9620 
10 7655 7616 7680 7748 8060 8544 8984 8016 8030 8547 
10 3025 2078 2033 7627 8286 2467 8308 8085 8104 8309 
10 7631 7675 7739 7785 8236 9430 7853 8312 9524 8313 
10 7638 3534 7648 7760 9623 9622 9621 8005 9624 9625 
10 3000 7694 7718 7753 9627 7833 9626 9628 7999 8001 
10 7585 7732 7622 7783 9261 9263 9259 9168 9629 8679 
10 2025 2095 2060 7651 2415 2262 2414 8103 8294 9038 
10 2051 7710 7656 7711 9631 8957 9630 9632 9633 8765 
10 7599 7681 7651 7691 8759 8760 8674 9634 9313 9217 
10 7646 7684 7607 7793 9637 9636 9635 9638 9639 9094 
10 7611 7726 7666 7808 8133 9641 9640 9619 9620 9131 
10 3054 7670 2960 7680 9115 9642 3232 9118 8658 9643 
10 7660 7614 7681 7725 8641 9645 9644 8437 9646 9647 
10 7589 7631 7689 7716 9648 8320 9176 8945 8200 8360 
10 2580 2502 7661 7737 2930 9135 7933 8023 9649 8022 
10 3043 2999 2962 7636 3258 3256 3250 8393 8211 9011 
10 1816 7731 7620 7815 9651 9300 9650 9652 9653 9275 
10 3475 2059 2081 7699 9654 2210 8638 8639 9507 7947 
10 2551 7690 2500 7778 9611 7884 2915 9614 7988 7987 
10 3475 7625 2059 7699 9656 9655 9654 8639 9657 9507 
10 2987 7652 7704 7803 9659 9658 9444 9445 9660 8806 
10 2999 2962 7636 7821 3256 9011 8211 8120 9661 8336 
10 2587 2491 2521 7672 2831 2829 2830 9662 9484 8147 
10 7660 7614 7725 7756 8641 9646 8437 9663 8626 9664 
10 7636 2962 7747 7821 9011 9013 9012 8336 9661 8359 
10 7656 7595 7705 7711 9665 8918 8764 8765 8920 7915 
10 3010 7616 7686 7748 9419 8830 9666 9420 8030 8434 
10 7733 7587 7809 7817 9578 9581 9332 7957 9667 9668 
10 2555 7661 2503 7667 9669 8498 2935 9670 8499 7996 
10 7614 7723 7632 7780 8623 8746 8156 9267 8944 8511 
10 1831 1800 7633 7791 1947 8397 9671 9672 9673 9502 
10 3525 3495 3450 7648 3885 3883 3884 9481 8209 8208 
10 7636 7605 7658 7692 8212 8615 8714 8215 8214 8712 
10 7599 7633 7673 7685 8905 8862 8676 9328 8645 8865 
10 3441 3481 3453 7770 3816 3706 3817 8859 8782 8781 
10 7721 7653 7750 7771 9473 9463 9307 9310 8153 9311 
10 3467 701 725 7625 9198 783 9078 8778 9199 8940 
10 7669 7734 7625 7802 8673 8780 8777 9674 9560 9559 
10 2573 7778 7615 7792 9676 9584 9675 9677 9678 9542 
10 2076 2064 7769 7774 2407 9679 9364 9365 9680 9366 
10 2051 2031 7656 7710 2455 9681 9630 9631 9682 8957 
10 2540 7641 7662 7749 9423 8754 9424 9683 8341 8317 
10 2969 7613 7714 7735 9017 9109 9108 9019 7902 9684 
10 7622 7623 7703 7817 8677 8378 8817 8818 7881 9685 
10 1834 1802 7634 7790 1973 8404 9599 9686 9687 9356 
10 1791 7628 7805 7818 9689 9688 8532 8526 8902 9233 
10 2028 7644 2046 7682 9281 8460 2434 9515 9049 9292 
10 2079 3496 3451 7621 9690 3888 8415 8419 9691 8417 
10 2999 3043 2968 7692 3258 3329 3328 8213 8394 9597 
10 3515 3440 7631 7785 3807 8731 8233 9692 9523 8312 
10 7641 7602 7743 7787 8523 8493 8524 9388 9530 9389 
10 7588 7630 7653 7750 8062 8368 8367 9005 9693 9463 
10 2525 2494 2558 7671 2865 2862 2713 8565 8271 7904 
10 699 718 7650 7752 834 9694 8324 8911 9695 8912 
10 3010 3036 2978 7616 3245 3410 3409 9419 8913 9159 
10 7628 7762 7676 7818 8898 8983 8979 8902 8901 9696 
10 2098 2038 7718 7757 2316 8273 7899 8267 9697 8268 
10 1821 1805 2518 7696 1891 9698 9150 7973 9465 9151 
10 3523 3457 1838 2511 3641 8403 9458 9461 9002 8407 
10 7614 7681 7725 7756 9645 9647 9646 8626 9699 9664 
10 2048 7751 7619 7791 9701 8009 9700 9702 9703 9571 
10 2105 2039 2985 1835 2201 9042 9532 9531 8539 8449 
10 2969 2984 7718 7735 3334 9058 9018 9019 9060 7903 
10 7585 7610 7687 7798 9277 8484 9566 9482 8204 9138 
10 3437 7669 7625 7699 9447 8777 9508 9704 9705 9657 
10 2019 7633 7673 7751 9490 8862 9491 9706 9027 9041 
10 2519 1810 1821 7641 8686 1894 8448 8337 8687 7970 
10 7585 7687 7610 7804 9566 8484 9277 9280 9469 9278 
10 7593 7701 7630 7721 9708 8867 9707 9709 9710 9471 
10 7655 7714 3055 7801 9713 9712 9711 9714 9715 9716 
10 7585 7732 7707 7804 9261 9717 8887 9280 9595 9718 
10 2536 7668 2496 7728 9719 9125 2886 9720 7925 9126 
10 3496 3453 7621 7811 3896 8333 9691 9721 8141 8335 
10 2556 7612 2503 7723 8664 7995 2939 9722 8942 8943 
10 2080 7644 2028 7745 9377 9281 2438 9380 9382 9516 
10 1790 7674 1812 7700 8735 8689 1921 8737 8693 8692 
10 7607 7707 7732 7804 8762 9717 9723 9470 9718 9595 
10 7600 7717 7629 7724 8536 8563 8561 9186 9185 9512 
10 2055 7718 2017 7757 9252 9724 2315 8811 8268 9609 
10 2092 695 727 7625 8694 842 9725 8695 8280 9726 
10 2040 1837 3522 3456 8423 9486 9485 8974 8395 3602 
10 3021 2546 7659 7668 9728 9526 9727 9729 9527 9145 
10 7597 7703 7646 7720 9732 9731 9730 9733 8266 9734 
10 699 7626 686 7752 8321 9735 836 8911 8890 9736 
10 7590 7652 7740 7803 8667 8669 8668 9737 9660 9738 
10 2531 2588 7663 7723 2823 9739 9587 8751 9740 8624 
10 3496 3453 3524 7621 3896 3710 3889 9691 8333 8934 
10 1804 7777 7620 7805 9742 9272 9741 9743 9744 8531 
10 7610 7664 7716 7804 9745 9286 8201 9278 9746 9279 
10 7625 2059 7699 7819 9655 9507 9657 9747 9748 9749 
10 2559 2528 2498 7696 2811 2905 2902 9750 8757 8839 
10 697 728 7615 7792 866 8609 9552 9554 9543 9542 
10 2588 2531 7663 7749 2823 9587 9739 9751 8753 8037 
10 2065 2024 7652 7769 2404 9752 9441 9442 9753 9443 
10 2536 7668 7728 7784 9719 7925 9720 9754 8390 8392 
10 7589 7701 7719 7721 8297 9045 9755 9472 9710 9756 
10 1815 1812 7619 7700 1920 8690 9370 9371 8692 8691 
10 7598 7667 7624 7680 8502 9493 9757 9254 9255 9119 
10 2586 2497 7755 7797 2895 9557 8663 9758 9759 9760 
10 7664 7610 7689 7708 9745 8166 9178 9761 9762 9763 
10 716 698 2077 7637 802 9764 9334 9336 8588 9335 
10 2993 3028 1819 7777 3179 9766 9765 9767 9768 9769 
10 698 686 7626 7752 833 9735 8586 8889 9736 8890 
10 3049 2979 3063 7692 3412 3415 3333 8827 8829 9510 
10 2519 2552 2498 7641 2630 2900 2904 8337 7971 8838 
10 2562 7737 2486 7780 9314 8470 2766 9316 8472 8471 
10 1799 1791 7628 7805 1933 9689 8452 9770 8532 9688 
10 2532 2583 7667 7728 2756 9035 8196 8270 9036 8027 
10 2999 2968 3031 7692 3328 3326 3188 8213 9597 9142 
10 2096 2066 7653 7771 2454 9462 9771 9772 9309 8153 
10 2053 2098 7697 7757 2325 8420 9773 9774 8267 8421 
10 7597 7720 7645 7781 9733 8264 9775 9776 8585 8567 
10 3054 3058 2960 7670 3233 3230 3232 9115 8657 9642 
10 7621 2117 7739 7785 8848 9778 9777 8851 8850 8313 
10 3438 7778 3460 7792 9780 9779 3784 9781 9678 9782 
10 2976 3029 7654 7694 3394 9456 9201 9783 9455 7942 
10 7668 7604 7670 7728 7873 8243 8245 7925 7856 9037 
10 3519 3460 7778 7792 3786 9779 9784 9785 9782 9678 
10 7590 7649 7704 7742 9787 8521 9786 9788 9789 9790 
10 7596 7629 7687 7705 9550 8582 8797 9791 9437 9586 
10 7649 7620 7704 7742 8222 8519 8521 9789 9792 9790 
10 7658 7607 7684 7793 9793 9636 9193 7939 9094 9639 
10 7701 7699 7719 7721 9795 9794 9045 9710 9796 9756 
10 7712 7609 7774 7811 9055 7895 8972 9797 7918 7917 
10 3058 2960 7670 7680 3230 9642 8657 8659 9643 8658 
10 2101 2110 3057 2043 2165 8733 9798 2355 2480 8121 
10 3048 3056 2581 2989 3134 9091 9251 3314 3426 8474 
10 2540 2498 2528 7641 2903 2905 2724 9423 8838 8756 
10 3469 7746 7675 7779 9800 9047 9799 9801 9802 9592 
10 2544 7639 2484 7759 8832 9803 2743 8833 7964 9804 
10 3000 3029 7694 7753 3270 9455 9627 9628 9457 7999 
10 7633 7599 7673 7751 8905 8676 8862 9027 9026 9041 
10 7640 7645 7781 7794 8257 8567 8701 9805 9806 9807 
10 1823 7700 1811 7818 8251 9298 1943 8254 8256 9808 
10 2543 7645 7720 7755 8507 8264 8508 9162 9163 9809 
10 7614 7717 7756 7780 9183 9810 8626 9267 9266 9604 
10 2043 2091 724 7626 2354 8937 8815 8125 8938 8816 
10 7618 7674 7700 7744 8176 8693 8738 9811 9293 9294 
10 1823 7620 1811 7700 8253 9299 1943 8251 8252 9298 
10 7610 7689 7708 7814 8166 9763 9762 8965 9155 9375 
10 7591 7731 7787 7799 9813 9812 8650 9814 9815 9816 
10 7631 7716 7589 7771 8200 8945 9648 8295 9467 9817 
10 7630 7593 7721 7722 9707 9709 9471 9818 9819 9820 
10 7614 7660 7681 7709 8641 9644 9645 8331 8640 8595 
10 7592 7636 7643 7747 8522 8232 7984 9202 9012 8717 
10 7616 3010 7686 7768 9419 9666 8830 9376 9821 9063 
10 2969 2984 3044 7718 3334 3263 3336 9018 9058 9822 
10 718 690 7650 7752 880 9823 9694 9695 9824 8912 
10 2043 3047 2101 7626 8740 9825 2355 8125 8741 9826 
10 1793 7659 1805 7696 9827 9616 1964 9828 9618 9465 
10 3033 7704 7620 7805 9433 8519 9413 9829 9830 8531 
10 3058 2971 3007 7738 3360 3358 3231 8660 8128 8854 
10 3005 7635 7698 7796 9831 9549 9411 9832 9833 9214 
10 7587 7701 7781 7817 8821 8301 8566 9667 8963 9165 
10 2107 2014 7710 7769 2280 9834 9112 9113 9835 9114 
10 2520 2564 2492 7755 2617 2837 2842 8496 8941 9568 
10 7607 7658 7684 7707 9793 9193 9636 8762 8619 9129 
10 2029 2089 7642 7721 2442 9403 8593 9836 9401 9402 
10 7624 7667 7670 7680 9493 9033 9116 9119 9255 8658 
10 2029 7642 7699 7721 8593 7948 8594 9836 9402 9796 
10 2570 1801 2510 7659 9837 9406 2802 9838 9408 9407 
10 727 7706 7625 7802 9840 9839 9726 9841 8954 9559 
10 7590 7652 7704 7768 8667 9658 9786 9842 9064 9351 
10 3010 7616 2978 7768 9419 9159 3409 9821 9376 9843 
10 7591 7659 7668 7688 9844 9145 7872 8784 9573 8288 
10 2965 3006 3062 7688 3296 3297 3291 9257 8287 9029 
10 7585 7705 7716 7798 9438 9845 9260 9482 9846 8205 
10 3473 3506 3433 7690 3730 3722 3718 8895 9528 7864 
10 7597 7703 7720 7781 9732 8266 9733 9776 8568 8585 
10 7611 7651 7666 7691 9847 9250 9640 9848 9217 9312 
10 2544 2484 7639 7797 2743 9803 8832 9391 9849 9392 
10 7600 7648 7737 7780 9850 8469 8629 9265 8473 8472 
10 7627 3053 7686 7748 9852 9851 8046 9234 9853 8434 
10 7614 7717 7724 7756 9183 9185 9184 8626 9810 9854 
10 7667 7604 7670 7680 9320 8243 9033 9255 9190 8658 
10 7587 7764 7647 7809 8710 9855 9580 9581 9856 9582 
10 1795 1811 1823 7620 1988 1943 1985 9273 9299 8253 
10 7626 7594 7637 7752 9857 9210 8443 8890 9858 8891 
10 1823 1804 7620 7805 1939 9741 8253 8530 9743 8531 
10 1814 7674 1790 7743 9318 8735 1929 9319 8813 8812 
10 7590 7727 7652 7768 8665 8666 8667 9842 9074 9064 
10 7653 7622 7683 7716 8369 9000 9001 8947 8946 9859 
10 3465 3486 7617 7715 3765 9521 8924 8926 9860 8925 
10 3494 717 7734 7767 9863 9862 9861 9864 9865 9555 
10 7585 7684 7732 7783 9128 9866 9261 9168 9326 9629 
10 7617 7634 7743 7790 8490 8492 8491 8929 9356 9224 
10 1826 1797 7617 7790 1999 9477 9222 9225 9867 8929 
10 3436 7634 7715 7790 9495 7923 9496 9868 9356 8928 
10 7610 7746 7687 7798 8485 7827 8484 8204 9139 9138 
10 3027 2975 3005 7698 3388 3389 3140 8552 8999 9411 
10 7705 7606 7716 7798 8933 8633 9845 9846 8634 8205 
10 7589 7719 7642 7721 9755 9870 9869 9472 9756 9402 
10 3518 2102 2059 7625 9872 2207 9871 9023 9873 9655 
10 2016 2037 2056 7631 2301 2216 2302 9194 8772 8092 
10 731 2581 3056 7635 9297 9091 9289 8592 8476 9092 
10 7646 7773 7684 7793 9875 9874 9637 9638 9876 9639 
10 1796 1815 7619 7818 1989 9370 9103 9104 9372 9105 
10 691 7637 7706 7772 9877 9338 9051 9052 9878 8950 
10 7589 7631 7642 7812 9648 8096 9869 9879 8518 8517 
10 7631 7589 7642 7771 9648 9869 8096 8295 9817 8389 
10 7594 7626 7637 7795 9857 8443 9210 9166 8447 8446 
10 3437 7625 3475 7699 9508 9656 3779 9704 9657 8639 
10 7636 7658 7684 7773 8714 9193 9192 8481 9880 9874 
10 7621 2015 7712 7739 9883 9882 9881 9777 9884 9885 
10 3535 7621 7675 7785 9120 9589 9590 9121 8851 9524 
10 7609 7651 7666 7774 7891 9250 8374 7895 7894 9130 
10 725 3461 3508 7625 8939 3770 9077 8940 8279 9079 
10 1828 1803 7762 7818 1856 9886 8899 8900 9887 8901 
10 3496 3511 3453 7811 3590 3818 3896 9721 9888 8141 
10 7586 7727 7665 7786 9014 8343 9889 9016 8101 7976 
10 3059 2999 2957 7801 3191 3187 3190 9089 8611 9890 
10 7606 7653 7716 7771 8109 8947 8633 8154 8153 9467 
10 1810 1798 1821 7641 2005 2001 1894 8687 9075 7970 
10 2575 3520 2505 7648 9891 8527 2947 9892 8528 8210 
10 2570 1827 1801 7659 9893 1957 9837 9838 9615 9408 
10 7597 7646 7703 7732 9730 9731 9732 9535 9894 9895 
10 1810 2571 1833 7634 9897 9896 1897 8685 9898 9899 
10 3515 7631 7689 7812 8233 8320 9072 9900 8518 9901 
10 2563 2514 722 7635 2824 9024 9902 9903 8477 9025 
10 1795 1816 7620 7815 1986 9650 9273 9274 9652 9275 
10 2519 2490 7634 7749 2821 9357 8339 8340 9358 8035 
10 689 729 697 7615 869 868 867 9904 9551 9552 
10 2507 2535 7632 7723 2761 9497 9171 9172 9421 8746 
10 2486 7632 2535 7780 8281 9497 2762 8471 8511 9422 
10 2507 2549 2566 7632 2954 2700 2873 9171 8793 8795 
10 3054 3024 2981 7624 3413 3421 3423 9117 9905 9588 
10 2064 7710 7769 7774 9906 9114 9679 9680 8956 9366 
10 7642 3445 7699 7719 9908 9907 7948 9870 9909 9794 
10 2050 7626 2020 7795 8442 9910 2357 8445 8447 9911 
10 7660 3474 7685 7729 9913 9912 9329 9914 9915 8978 
10 7645 7640 7741 7794 8257 7838 8033 9806 9805 9916 
10 7590 7740 7676 7803 8668 7959 9446 9737 9738 9917 
10 704 721 693 7767 870 900 899 9918 8774 9919 
10 2982 3025 3053 7627 3425 3419 3238 8047 8085 9852 
10 1810 2519 2571 7634 8686 2633 9897 8685 8339 9898 
10 7645 7639 7720 7797 8247 8265 8264 9920 9392 9921 
10 2078 2035 2107 7627 2477 2281 2469 8104 8105 9111 
10 3050 2980 7627 7735 3417 8310 8578 9922 9923 9924 
10 7603 7615 7741 7767 8429 9065 7839 8773 9925 9390 
10 2564 2515 2492 7792 2838 2839 2837 9541 9926 9927 
10 7622 7589 7664 7716 8298 8600 8601 8946 8945 9286 
10 7623 7764 7587 7809 8289 8710 8709 9331 9856 9581 
10 1827 7659 2570 7696 9615 9838 9893 9617 9618 9928 
10 3429 7660 7709 7729 9188 8640 9187 9929 9914 8622 
10 7591 7787 7641 7799 8650 9388 9930 9814 9816 8240 
10 2019 7633 7751 7791 9490 9027 9706 9931 9502 9703 
10 2053 2098 2022 7697 2325 2384 2382 9773 8420 8656 
10 7653 2030 7697 7757 9152 9932 8112 9933 9934 8421 
10 7671 7597 7732 7820 8058 9535 9537 8916 9935 9936 
10 3514 7708 3470 7814 8052 9937 3729 9374 9375 9938 
10 7617 7660 7602 7715 8436 8881 8465 8925 9939 8964 
10 728 689 697 7615 865 867 866 8609 9904 9552 
10 714 3023 7650 7695 9942 9941 9940 9943 9944 9945 
10 7699 7642 7719 7721 7948 9870 9794 9796 9402 9756 
10 2565 2548 2506 2981 2661 2952 2882 9449 9396 9397 
10 3057 2990 730 723 3427 8237 8873 9946 8603 748 
10 3464 3504 3435 7685 3751 3752 3753 8646 9947 8864 
10 1812 7619 7674 7791 8690 8688 8689 9569 9571 9501 
10 7623 7809 7587 7817 9331 9581 8709 7881 9668 9667 
10 3453 3511 7770 7811 3818 9948 8781 8141 9888 8872 
10 7586 7726 7691 7727 9269 9950 9949 9014 9270 9951 
10 2050 2091 2020 7626 2136 2353 2357 8442 8938 9910 
10 2587 7672 2521 7736 9662 8147 2830 9952 8184 8183 
10 2581 2514 731 722 2955 8653 9297 9953 9024 764 
10 3453 3432 3524 7779 3708 3709 3710 8138 9954 8935 
10 2535 2503 2562 7780 2940 2941 2771 9422 8721 9316 
10 3048 3005 7635 7698 3137 9831 9087 9548 9411 9549 
10 7654 7605 7694 7783 8113 8116 7942 8726 9170 8986 
10 1802 1794 1833 7634 1972 1970 1971 8404 9353 9899 
10 7623 7587 7703 7817 8709 8248 8378 7881 9667 9685 
10 3516 3464 3435 7633 3553 3753 3747 8748 8644 8861 
10 7593 7699 7701 7721 9955 9795 9708 9709 9796 9710 
10 3510 2542 2566 7663 9605 2703 8903 8730 9608 8904 
10 3530 3447 7689 7814 3863 9956 9004 9154 9957 9155 
10 7679 7655 7694 7714 9959 9958 9303 9539 9713 9110 
10 1824 1796 7619 7791 1993 9103 9525 9570 9960 9571 
10 1830 1800 1792 7633 1945 1946 1944 8874 8397 8351 
10 3064 7627 7714 7748 9963 9962 9961 9964 9234 9965 
10 2061 7712 7774 7811 9966 8972 7893 7916 9797 7917 
10 716 691 7637 7706 886 9877 9336 9337 9051 9338 
10 7585 7707 7679 7800 8887 8888 8884 9435 9123 9221 
10 2092 7625 727 7706 8695 9726 9725 9967 9839 9840 
10 2034 2104 2117 7785 2473 2398 2476 8849 9044 8850 
10 2052 7656 7712 7739 9969 8971 9968 9970 9971 9885 
10 2588 7663 2512 7749 9739 7848 2818 9751 8037 8036 
10 2987 2042 7652 7803 9973 9972 9659 9445 9974 9660 
10 7633 7599 7674 7685 8905 8174 8350 8645 9328 8822 
10 2042 2987 7652 7810 9973 9659 9972 9242 9975 9976 
10 1810 1818 7641 7743 1979 9977 8687 9978 9979 8524 
10 2020 7626 7745 7795 9910 9981 9980 9911 8447 9982 
10 1804 2993 7777 7805 9983 9767 9742 9743 9984 9744 
10 7638 7737 7648 7763 8824 8469 9621 8826 8808 9985 
10 2026 2114 7706 7722 2423 9987 9986 9988 9989 9990 
10 7587 7733 7647 7807 9578 9579 9580 7861 9991 9992 
10 2589 7648 2486 7737 9574 8283 2770 9993 8469 8470 
10 3496 2036 3511 7811 9995 9994 3590 9721 9996 9888 
10 3021 7659 2965 7668 9727 9572 3287 9729 9145 9256 
10 3458 3491 3435 7633 3598 3744 3750 9282 9564 8861 
10 2483 2556 2531 7723 2730 2731 2729 9476 9722 8751 
10 3436 7715 3465 7790 9496 8926 3766 9868 8928 8927 
10 3468 3502 3526 7814 3796 3664 3872 8555 9997 9426 
10 2492 2573 7615 7792 2841 9675 9567 9927 9677 9542 
10 3469 7675 3535 7779 9799 9590 3714 9801 9592 9591 
10 3009 7693 7677 7766 10000 9999 9998 10001 10002 10003 
10 7620 7731 7742 7815 9300 10004 9792 9275 9653 10005 
10 7623 7733 7809 7817 8387 9332 9331 7881 7957 9668 
10 3525 3529 3452 7632 3703 3895 3894 9480 8575 8794 
10 7671 7638 7708 7763 8825 9220 7868 8809 8826 8992 
10 7644 2974 7677 7745 8707 8708 8570 9382 10006 10007 
10 7591 7641 7662 7696 9930 8754 8025 10008 7975 8758 
10 2076 2065 7740 7769 2408 9440 9362 9364 9442 9363 
10 7684 7607 7707 7732 9636 8762 9129 9866 9723 9717 
10 2537 7646 7720 7820 10010 9734 10009 10011 10012 10013 
10 7613 7679 7683 7694 7989 8089 7840 7841 9303 7829 
10 3486 7660 7617 7715 9520 8436 9521 9860 9939 8925 
10 7611 7652 7686 7769 8682 9061 8132 9498 9443 8433 
10 3450 3525 7648 7760 3884 9481 8208 10014 10015 9625 
10 2017 7718 2038 7757 9724 8273 2314 9609 8268 9697 
10 729 7615 7767 7792 9551 9925 10016 9553 9542 10017 
10 1816 1811 7620 7731 1918 9299 9650 9651 9301 9300 
10 7590 7700 7620 7818 10019 8252 10018 10020 8256 8255 
10 2983 2962 3002 7636 3247 3248 3146 9248 9011 8227 
10 7599 7619 7744 7751 8907 7952 9544 9026 8009 8529 
10 3468 7638 3502 7814 8261 10021 3796 8555 8557 9997 
10 2488 2509 2526 7636 2787 2649 2786 8439 8883 8228 
10 7585 7684 7707 7732 9128 9129 8887 9261 9866 9717 
10 7630 7722 7682 7733 9818 9097 7967 7968 9096 7956 
10 2065 7740 7652 7803 9440 8669 9441 10022 9738 9660 
10 7602 7660 7725 7756 8881 8437 8466 8631 9663 9664 
10 7713 720 7736 7813 10024 10023 8185 10025 10026 8857 
10 3437 3467 3508 7625 3774 3647 3769 9508 8778 9079 
10 2054 2113 2011 7816 2244 2245 2241 8553 9021 10027 
10 7617 7618 7674 7743 8079 8176 8175 8491 8605 8813 
10 1823 1791 1804 7805 1940 1941 1939 8530 8532 9743 
10 692 713 7754 7813 893 10028 8993 8995 10029 8858 
10 7656 2051 7711 7816 9630 9632 8765 8766 10030 8599 
10 3008 7678 7693 7796 10033 10032 10031 10034 9215 10035 
10 2538 2983 2509 7636 9583 9247 2652 8217 9248 8883 
10 1817 1814 7617 7674 1928 9317 10036 10037 9318 8175 
10 2063 7682 2073 7750 9227 10038 2276 9229 9050 10039 
10 2530 2492 7615 7778 2847 9567 10040 10041 9585 9584 
10 7590 7704 7620 7742 9786 8519 10018 9788 9790 9792 
10 7687 7596 7705 7798 8797 9791 9586 9138 9137 9846 
10 3453 3481 3432 7779 3706 3707 3708 8138 8362 9954 
10 3463 7788 7719 7812 10043 9505 10042 10044 10045 10046 
10 2115 2026 7637 7795 2425 10048 10047 10049 10050 8446 
10 7586 7724 7717 7756 10052 9185 10051 10053 9854 9810 
10 7619 7633 7674 7791 8906 8350 8688 9571 9502 9501 
10 7669 7730 7734 7802 10054 8879 8673 9674 10055 9560 
10 2484 7639 7720 7759 9803 8265 10056 9804 7964 10057 
10 2076 2032 2064 7774 2252 2465 2407 9365 10058 9680 
10 7689 7664 7708 7788 9178 9761 9763 9453 9452 10059 
10 2513 2489 7668 7784 2805 9144 10060 10061 9147 8390 
10 2566 2542 2495 7663 2703 2879 2874 8904 9608 8743 
10 3001 2055 7644 7718 10063 8810 10062 10064 9252 9253 
10 2573 2530 7615 7778 2679 10040 9675 9676 10041 9584 
10 1793 7659 7696 7815 9827 9618 9828 10065 10066 10067 
10 706 7752 7647 7782 10070 10069 10068 10071 10072 10073 
10 2102 3518 2044 7625 9872 9022 2369 9873 9023 8383 
10 690 7650 7752 7782 9823 8912 9824 10074 10075 10072 
10 3503 7610 7746 7814 8400 8485 9046 9264 8965 8556 
10 3463 3483 7719 7788 3685 9504 10042 10043 9506 9505 
10 2063 2013 7722 7750 2274 10076 9228 9229 10077 9230 
10 7655 7679 7694 7801 9959 9303 9958 9714 10078 8739 
10 7607 7684 7646 7732 9636 9637 9635 9723 9866 9894 
10 3494 704 717 7767 10079 789 9863 9864 9918 9865 
10 3478 3449 3512 7776 3879 3672 3829 8259 8910 10080 
10 7756 7662 7786 7787 8632 8026 10081 10082 8652 8651 
10 7596 7739 7656 7798 10084 9971 10083 9137 10085 10086 
10 2532 2496 2583 7728 2891 2885 2756 8270 9126 9036 
10 2085 7697 2022 7711 10087 8656 2380 10088 7914 8896 
10 3524 3535 7621 7779 3717 9120 8934 8935 9591 8334 
10 7754 7730 7789 7813 9325 10089 8542 8858 10090 10091 
10 7597 7788 7781 7794 10093 10092 9776 8835 10094 9807 
10 2537 7720 2567 7820 10009 10095 2926 10011 10013 10096 
10 2564 2492 7615 7792 2837 9567 8610 9541 9927 9542 
10 2489 2546 2513 7668 2799 2669 2805 9144 9527 10060 
10 706 7647 7752 7772 10068 10069 10070 10097 10098 10099 
10 7651 7611 7666 7774 9847 9640 9250 7894 9499 9130 
10 7606 7653 7683 7716 8109 9001 8932 8633 8947 9859 
10 2073 2028 7682 7745 2435 9515 10038 10100 9516 9517 
10 1804 2993 1819 7777 9983 9765 1907 9742 9767 9769 
10 2972 3061 7650 7766 3369 10102 10101 10103 10104 10105 
10 2514 2572 3048 7635 2828 9546 9086 8477 9545 9087 
10 2026 2077 7637 7706 2422 9335 10048 9986 9339 9338 
10 2051 7656 2031 7816 9630 9681 2455 10030 8766 10106 
10 2108 2117 2015 7621 2300 2292 2298 10107 8848 9883 
10 7590 7665 7742 7744 10109 10108 9788 9341 10110 10111 
10 7653 7630 7721 7750 8368 9471 9473 9463 9693 9307 
10 726 2989 3038 7635 9206 3313 10112 9207 8478 10113 
10 3483 7640 7788 7794 9503 9451 9506 10114 9805 10094 
10 7597 7664 7781 7788 10115 8602 9776 10093 9452 10092 
10 2050 2115 7637 7795 2359 10047 8444 8445 10049 8446 
10 7599 7651 7673 7751 8674 8199 8676 9026 8008 9041 
10 2541 2513 3017 7668 2667 10116 8702 8704 10060 8703 
10 7610 7687 7638 7804 8484 7822 8483 9278 9469 9468 
10 698 2050 2077 7637 8587 2139 9764 8588 8444 9335 
10 3483 7640 3430 7719 9503 8144 3680 9504 8178 8177 
10 2012 7740 2069 7751 9383 8869 2258 9385 8010 8870 
10 7639 7672 7601 7698 9080 10117 8070 7963 9082 8921 
10 7689 3447 7788 7814 9956 10118 9453 9155 9957 10119 
10 7598 7702 7629 7717 8500 10120 9226 8503 8505 8563 
10 1829 1791 1799 7805 1935 1933 1934 10121 8532 9770 
10 7621 7596 7712 7779 10122 9057 9881 8334 9071 9090 
10 7673 7599 7685 7729 8676 9328 8865 8789 8788 8978 
10 3532 7669 3443 7734 9427 8293 3840 9428 8673 8672 
10 7586 7666 7691 7726 10123 9312 9949 9269 9641 9950 
10 2565 3039 2981 7670 10124 3422 9449 9450 10125 9399 
10 2987 2964 3020 7704 3277 3274 3127 9444 9576 8802 
10 7606 7656 7739 7798 10126 9971 7854 8634 10086 10085 
10 3055 7655 2998 7714 9711 10127 3405 9712 9713 10128 
10 7640 7781 7788 7794 8701 10092 9451 9805 9807 10094 
10 3482 3458 3435 7673 3749 3750 3748 8976 9283 8863 
10 3471 3440 3503 7675 3813 3809 3812 8163 8732 8401 
10 7658 7684 7773 7793 9193 9874 9880 7939 9639 9876 
10 7653 7606 7683 7697 8109 8932 9001 8112 8111 8088 
10 3488 2512 2542 7663 10129 2706 9606 9607 7848 9608 
10 7611 7691 7666 7726 9848 9312 9640 8133 9950 9641 
10 2973 7620 3015 7688 9412 9361 3376 10130 8225 9322 
10 7597 7732 7703 7781 9535 9895 9732 9776 10131 8568 
10 689 7615 705 7754 9904 8054 875 10132 8053 8039 
10 2998 7714 7655 7748 10128 9713 10127 10133 9965 8016 
10 727 703 7706 7802 808 10134 9840 9841 10135 8954 
10 1832 3046 7659 7815 10138 10137 10136 10139 10140 10066 
10 730 2043 2110 724 8193 2480 8866 796 8815 10141 
10 723 686 699 7626 827 836 751 8604 9735 8321 
10 3518 2059 3475 7625 9871 9654 3569 9023 9655 9656 
10 2998 7655 2977 7748 10127 10142 3403 10133 8016 10143 
10 2547 715 2520 7736 10145 10144 2614 10146 10147 8495 
10 7601 7764 7623 7809 8290 8289 8072 10148 9856 9331 
10 7600 7632 7648 7780 9431 8285 9850 9265 8511 8473 
10 2975 7678 3018 7796 8768 10149 3385 9213 9215 10150 
10 1832 7777 3046 7815 10152 10151 10138 10139 9276 10140 
10 7708 7689 7788 7814 9763 9453 10059 9375 9155 10119 
10 7620 7742 7688 7815 9792 10153 8225 9275 10005 10154 
10 3528 3461 725 732 3898 8939 10155 8931 8277 780 
10 731 3056 726 2989 9289 10156 761 8590 3426 9206 
10 7611 7726 7616 7727 8133 8028 8998 8683 9270 8097 
10 7650 2972 7693 7695 10101 10158 10157 9945 10159 10160 
10 7645 7597 7690 7775 9775 8057 7885 7888 9561 7889 
10 2497 7736 7755 7797 9556 8171 9557 9759 10161 9760 
10 2042 3016 2987 7810 9240 3126 9973 9242 9241 9975 
10 3521 2104 7621 7785 10162 9043 9284 9285 9044 8851 
10 7659 7591 7668 7784 9844 7872 9145 9148 8391 8390 
10 7597 7664 7708 7732 10115 9761 8059 9535 9287 9536 
10 1823 1804 1795 7620 1939 1984 1985 8253 9741 9273 
10 3529 3431 3478 7760 3702 3700 3701 8742 10163 8158 
10 7611 7691 7726 7727 9848 9950 8133 8683 9951 9270 
10 7615 7645 7741 7778 8428 8033 9065 9584 7986 10164 
10 3008 7695 3060 7796 10166 10165 3323 10034 10167 10168 
10 3032 3055 7714 7801 3195 9712 10169 10170 9716 9715 
10 3486 7660 3474 7685 9520 9913 3673 9522 9329 9912 
10 7628 7704 7590 7803 8801 9786 10171 8804 8806 9737 
10 2114 7706 7722 7819 9987 9990 9989 10172 10173 10174 
10 3456 1800 1837 1830 8396 2008 8395 10175 1945 1869 
10 7652 7590 7704 7803 8667 9786 9658 9660 9737 8806 
10 3444 7617 7685 7761 10177 9327 10176 10178 10179 8648 
10 7686 7627 7710 7769 8046 8962 8066 8433 8432 9114 
10 1798 1805 1821 7799 2002 1891 2001 9076 9466 8241 
10 3525 7632 7648 7760 9480 8285 9481 10015 8160 9625 
10 3459 3436 3492 7634 3761 3757 3637 7845 9495 8487 
10 2545 2490 2512 7634 2812 2816 2708 8923 9357 7844 
10 2117 2015 7621 7739 2292 9883 8848 9778 9884 9777 
10 2019 2075 2041 7633 2341 2236 2344 9490 9513 9489 
10 723 3057 2990 3037 9946 3427 8603 8785 3079 3299 
10 2544 7672 2534 7797 9081 10180 2748 9391 9393 10181 
10 3032 2969 7694 7714 3338 9107 10182 10169 9108 9110 
10 3454 2508 7671 7763 8344 8345 8167 9563 10183 8809 
10 7660 7681 7709 7729 9644 8595 8640 9914 9030 8622 
10 2522 2557 2580 7758 2851 2719 2929 10184 10185 7931 
10 7655 7694 7714 7801 9958 9110 9713 9714 8739 9715 
10 3034 7718 7644 7753 10186 9253 8571 8572 8001 8573 
10 7590 7691 7665 7744 9340 10187 10109 9341 9218 10110 
10 2507 2535 2486 7632 2761 2762 2763 9171 9497 8281 
10 2563 2514 2581 722 2824 2955 2605 9902 9024 9953 
10 3053 2982 7627 7686 3238 8047 9852 9851 8045 8046 
10 2027 7619 7676 7762 10189 7958 10188 10190 9102 8983 
10 1828 1799 1791 7628 1932 1933 1931 8897 8452 9689 
10 7638 7600 7648 7737 7897 9850 9621 8824 8629 8469 
10 7645 7720 7755 7797 8264 9809 9163 9920 9921 9760 
10 7626 7594 7650 7766 9857 10191 8326 10192 10193 10105 
10 3003 2958 7649 7768 3202 10194 8221 9349 10195 9350 
10 3534 7638 7648 7763 9623 9621 9622 10196 8826 9985 
10 2491 2563 2521 7635 2825 2608 2829 9483 9903 8148 
10 7585 7707 7687 7804 8887 8583 9566 9280 9718 9469 
10 7629 7726 7702 7800 10197 8018 10120 9436 8239 8078 
10 2505 2578 2589 7648 2950 2772 2951 8210 8284 9574 
10 7639 7703 7720 7759 8250 8266 8265 7964 10198 10057 
10 7618 7742 7665 7744 10200 10108 10199 9811 10111 10110 
10 2493 2569 2524 7773 2856 2797 2855 10201 10202 10203 
10 7599 7674 7618 7744 8174 8176 8080 9544 9293 9811 
10 7695 688 7713 7782 10206 10205 10204 10207 10208 10209 
10 2978 7616 7738 7768 9159 8363 9160 9843 9376 10210 
10 7703 7646 7720 7759 9731 9734 8266 10198 10211 10057 
10 2090 2084 7710 7774 2462 10213 10212 10214 10215 8956 
10 7588 7682 7630 7750 7920 7967 8062 9005 9050 9693 
10 3479 3480 3430 7741 3689 3690 3691 8191 8728 8145 
10 1838 2511 1802 1833 8407 8408 2010 1898 10216 1971 
10 7641 7602 7662 7749 8523 8316 8754 8341 8318 8317 
10 2021 2059 7625 7819 2373 9655 10217 10218 9748 9747 
10 7589 7653 7721 7771 8371 9473 9472 9817 8153 9310 
10 7646 2537 7720 7759 10010 10009 9734 10211 10219 10057 
10 7606 7705 7656 7798 8933 8764 10126 8634 9846 10086 
10 7629 7595 7726 7800 10220 8019 10197 9436 8076 8239 
10 3448 3468 3526 7746 3871 3872 3873 9324 8262 9425 
10 3437 3490 7669 7699 3778 10221 9447 9704 10222 9705 
10 2047 2018 2100 7628 2334 2330 2152 8981 9577 9291 
10 7602 7641 7662 7787 8523 8754 8316 9530 9388 8652 
10 1827 1805 1793 7659 1888 1964 1958 9615 9616 9827 
10 7650 7752 7782 7809 8912 10072 10075 10223 10224 10225 
10 3047 2101 3057 2043 9825 9798 3095 8740 2355 8121 
10 2581 2572 3048 2514 2637 9546 9251 2955 2828 9086 
10 7603 7669 7730 7734 7927 10054 8878 8671 8673 8879 
10 3511 2036 7770 7811 9994 10226 9948 9888 9996 8872 
10 7639 2484 7720 7797 9803 10056 8265 9392 9849 9921 
10 3488 3510 3442 7663 3632 3832 3833 9607 8730 9244 
10 7585 7679 7705 7800 8884 7910 9438 9435 9221 9439 
10 7646 7732 7597 7820 9894 9535 9730 10012 9936 9935 
10 3043 2983 3014 7636 3249 3149 3331 8393 9248 8218 
10 3047 2990 2966 7626 3302 3298 3301 8741 8124 10227 
10 2043 2101 2020 7626 2355 2356 2352 8125 9826 9910 
10 2569 2538 2509 7636 2857 2652 2789 9342 8217 8883 
10 692 7736 720 7813 8994 10023 892 8995 8857 10026 
10 3003 3015 2973 7620 3204 3376 3377 8223 9361 9412 
10 7610 7664 7689 7716 9745 9178 8166 8201 9286 8360 
10 7682 2073 7745 7795 10038 10100 9517 9099 10228 9982 
10 7599 7691 7651 7744 9634 9217 8674 9544 9218 7953 
10 7596 7656 7705 7798 10083 8764 9791 9137 10086 9846 
10 2985 3045 7628 7805 3276 10229 8451 10230 10231 9688 
10 2491 7635 7672 7698 9483 8146 9484 10232 9549 9082 
10 7710 7611 7769 7774 8131 9498 9114 8956 9499 9366 
10 7595 7629 7705 7800 10220 9437 8918 8076 9436 9439 
10 3032 7714 7694 7801 10169 9110 10182 10170 9715 8739 
10 7641 7591 7662 7787 9930 8025 8754 9388 8650 8652 
10 3438 7615 7778 7792 10233 9584 9780 9781 9542 9678 
10 3482 7685 3474 7729 8975 9912 3754 8977 8978 9915 
10 709 7730 7754 7813 9305 9325 8457 10234 10090 8858 
10 7607 7671 7732 7820 7905 9537 9723 8917 8916 9936 
10 2972 7650 7693 7766 10101 10157 10158 10103 10105 10002 
10 2975 3005 7698 7796 3389 9411 8999 9213 9832 9214 
10 2990 3037 2966 7626 3299 3300 3298 8124 8322 10227 
10 2091 2043 2020 7626 2354 2352 2353 8938 8125 9910 
10 7602 7715 7663 7749 8964 7924 8948 8318 9454 8037 
10 732 2092 695 727 9211 8694 903 809 9725 842 
10 2055 2038 2017 7718 2177 2314 2315 9252 8273 9724 
10 3486 3444 7617 7685 3846 10177 9521 9522 10176 9327 
10 7655 3030 7680 7806 8985 8545 8984 9141 10235 10236 
10 1797 1817 1814 7617 1995 1928 2000 9477 10036 9317 
10 3017 2513 2988 7668 10116 10237 3165 8703 10060 10238 
10 2508 7671 2487 7775 8345 10239 2774 10240 9562 10241 
10 2499 2544 2517 7759 2906 2742 2907 8846 8833 9432 
10 3005 2529 2550 7698 10242 2643 9410 9411 10243 8551 
10 7645 7597 7781 7794 9775 9776 8567 9806 8835 9807 
10 3441 7673 7729 7770 10244 8789 8820 8859 8427 8860 
10 3480 3443 3532 7669 3841 3840 3781 8727 8293 9427 
10 3006 7649 3041 7738 8134 10245 3208 8136 8137 9511 
10 2578 2549 2507 7632 2949 2954 2765 8282 8793 9171 
10 3026 2974 7644 7745 3382 8707 9378 9381 10006 9382 
10 2073 7682 2063 7795 10038 9227 2276 10228 9099 9352 
10 7592 7703 7684 7783 8377 10247 10246 8579 8581 9326 
10 3519 3460 3438 7778 3786 3784 3785 9784 9779 9780 
10 7592 7684 7646 7773 10246 9637 10248 8852 9874 9875 
10 2116 2041 7673 7751 2345 9492 9347 9348 10249 9041 
10 2026 7722 7637 7795 9988 9174 10048 10050 9098 8446 
10 7612 7728 7667 7786 7981 8027 7997 8696 7860 8697 
10 7585 7683 7679 7783 10250 8089 8884 9168 8987 9169 
10 1815 1812 1796 7619 1920 1994 1989 9370 8690 9103 
10 7594 7745 7626 7795 10251 9981 9857 9166 9982 8447 
10 2048 7619 7762 7791 9700 9102 10252 9702 9571 10253 
10 3001 2038 2055 7718 10254 2177 10063 10064 8273 9252 
10 7652 3011 7704 7768 10256 10255 9658 9064 10257 9351 
10 2069 2027 7619 7676 2432 10189 9603 8868 10188 7958 
10 7604 7667 7728 7786 9320 8027 7856 7859 8697 7860 
10 7594 7626 7650 7752 9857 8326 10191 9858 8890 8912 
10 7594 7752 7647 7772 9858 10069 10258 10259 10099 10098 
10 7609 7666 7712 7774 8374 9056 9055 7895 9130 8972 
10 2963 3000 7718 7753 3269 9626 10260 10261 9628 8001 
10 7612 7756 7662 7786 8997 8632 7978 8696 10081 8026 
10 3496 2079 2036 7811 9690 2478 9995 9721 10262 9996 
10 2580 2558 7737 7793 2722 7907 8023 7934 9095 8024 
10 3482 3441 7673 7729 3820 10244 8976 8977 8820 8789 
10 3439 3514 7638 7763 3800 9219 10263 10264 8991 8826 
10 7585 7683 7622 7716 10250 9000 9259 9260 9859 8946 
10 699 686 718 7752 836 835 834 8911 9736 9695 
10 707 7772 719 7802 10265 8951 851 10266 8953 8952 
10 3512 3449 3429 7776 3672 3670 3671 10080 8910 9189 
10 2045 7721 2066 7771 10267 9308 2265 10268 9310 9309 
10 2961 7686 3053 7748 10269 9851 3239 10270 8434 9853 
10 2076 2024 2065 7769 2406 2404 2408 9364 9753 9442 
10 7593 7699 7721 7819 9955 9796 9709 10271 9749 10272 
10 7593 7721 7722 7819 9709 9820 9819 10271 10272 10174 
10 3468 3534 7638 7760 3698 9623 8261 8263 9624 8005 
10 2050 2115 2026 7637 2359 2425 2424 8444 10047 10048 
10 7650 7594 7752 7809 10191 9858 8912 10223 9330 10224 
10 7591 7649 7665 7742 7870 7877 7876 10273 9789 10108 
10 3461 3437 3508 7625 3771 3769 3770 8279 9508 9079 
10 7619 7744 7676 7818 7952 7960 7958 9105 10274 9696 
10 7598 7658 7692 7758 8614 8712 8711 9345 7937 8970 
10 7669 7603 7730 7807 7927 8878 10054 8379 7862 10275 
10 2107 2035 2014 7769 2281 2277 2280 9113 8431 9835 
10 2578 2507 2486 7632 2765 2763 2764 8282 9171 8281 
10 7602 7725 7618 7787 8466 8084 8464 9530 10276 9387 
10 2546 2988 2513 7668 10277 10237 2669 9527 10238 10060 
10 7676 7744 7590 7818 7960 9341 9446 9696 10274 10020 
10 7592 7636 7747 7821 8522 9012 9202 10278 8336 8359 
10 7629 7724 7726 7808 9512 10279 10197 10280 10281 9620 
10 717 704 7734 7767 789 10282 9862 9865 9918 9555 
10 3021 2965 2988 7668 3287 3290 3166 9729 9256 10238 
10 7622 7703 7732 7781 8817 9895 9263 8299 8568 10131 
10 7586 7629 7724 7726 10283 9512 10052 9269 10197 10279 
10 2039 2074 2985 7628 2200 10284 9042 8541 10285 8451 
10 7724 7666 7726 7808 8373 9641 10279 10281 9131 9620 
10 3464 3504 7685 7761 3751 9947 8646 8647 10286 8648 
10 2995 3023 714 7695 3088 9942 10287 10288 9944 9943 
10 3465 7617 7761 7790 8924 10179 10289 8927 8929 10290 
10 7607 7732 7671 7804 9723 9537 7905 9470 9595 9594 
10 2115 2063 2026 7795 2364 2427 2425 10049 9352 10050 
10 3005 2967 7635 7796 3319 10291 9831 9832 10292 9833 
10 7681 7614 7709 7724 9645 8331 8595 8597 9184 8384 
10 2572 3005 3048 7698 10293 3137 9546 9547 9411 9548 
10 2494 2525 2568 7671 2865 2784 2866 8271 8565 10294 
10 2579 7624 2485 7667 9494 10295 2759 9157 9493 10296 
10 3518 3437 3461 7625 3773 3771 3772 9023 9508 8279 
10 2041 3491 3458 7673 10298 3598 10297 9492 9565 9283 
10 2045 2066 2096 7771 2265 2454 2308 10268 9309 9772 
10 2051 2031 2109 7816 2455 2457 2458 10030 10106 10299 
10 694 724 686 7626 830 829 828 8195 8816 9735 
10 7588 7683 7622 7783 7830 9000 8365 8678 8987 8679 
10 2080 2058 3026 7745 2171 10300 9379 9380 10301 9381 
10 2041 2075 3491 7673 2236 9596 10298 9492 9514 9565 
10 3021 2988 2546 7668 3166 10277 9728 9729 10238 9527 
10 7645 7720 7597 7775 8264 9733 9775 7888 8510 9561 
10 2543 7755 7720 7797 9162 9809 8508 10302 9760 9921 
10 2021 7625 2092 7706 10217 8695 2367 10303 9839 9967 
10 7585 7679 7683 7705 8884 8089 10250 9438 7910 8090 
10 2994 2965 7659 7688 3293 9572 10304 10305 9257 9573 
10 2972 3009 3061 7766 3371 3310 3369 10103 10001 10104 
10 7592 7684 7773 7821 10246 9874 8852 10278 9346 10306 
10 2519 7641 2540 7749 8337 9423 2819 8340 8341 9683 
10 723 694 686 7626 826 828 827 8604 8195 9735 
10 729 7615 689 7767 9551 9904 869 10016 9925 10307 
10 7657 7709 7614 7724 8332 8331 8328 8989 8384 9184 
10 2492 2573 2530 7615 2841 2679 2847 9567 9675 10040 
10 7708 3513 7788 7794 10309 10308 10059 8837 10310 10094 
10 7647 7752 7594 7809 10069 9858 10258 9582 10224 9330 
10 7595 7705 7629 7808 8918 9437 10220 10311 10312 10280 
10 2108 2034 2117 7621 2474 2476 2300 10107 8418 8848 
10 3490 7669 7699 7719 10221 9705 10222 10313 8179 9794 
10 1832 7659 1801 7815 10136 9408 1961 10139 10066 10314 
10 3026 2055 2080 7644 10315 2174 9379 9378 8810 9377 
10 2045 2089 7721 7771 2307 9401 10267 10268 9404 9310 
10 2016 2097 7631 7771 2303 8064 9194 9195 9268 8295 
10 7623 7678 7601 7693 8074 8073 8072 10316 10032 10317 
10 7590 7676 7628 7803 9446 8979 10171 9737 9917 8804 
10 2492 2515 2573 7792 2839 2840 2841 9927 9926 9677 
10 2959 7677 7693 7765 10319 9999 10318 10320 9156 10321 
10 7599 7619 7674 7744 8907 8688 8174 9544 7952 9293 
10 2511 2545 3457 7634 2710 10322 9002 8409 8923 8406 
10 2075 2040 3456 7633 2239 8974 10323 9513 8424 8398 
10 1816 1811 1795 7620 1918 1988 1986 9650 9299 9273 
10 2091 2110 2043 724 2133 2480 2354 8937 10141 8815 
10 7647 7782 7752 7809 10073 10072 10069 9582 10225 10224 
10 7664 7622 7732 7781 8601 9263 9287 8602 8299 10131 
10 2050 2026 2077 7637 2424 2422 2139 8444 10048 9335 
10 7593 7669 7730 7807 10325 10054 10324 10326 8379 10275 
10 3011 7652 2970 7768 10256 10327 3350 10257 9064 10328 
10 1832 1807 7777 7815 1913 10329 10152 10139 10330 9276 
10 3461 725 3508 3528 8939 9077 3770 3898 10155 3644 
10 726 3056 3038 2989 10156 3092 10112 9206 3426 3313 
10 2562 7661 2502 7737 9315 9135 2931 9314 8022 9649 
10 7605 7801 7655 7806 8612 9714 9140 9069 10331 9141 
10 2020 7626 2058 7745 9910 10332 2360 9980 9981 10301 
10 3009 2959 7677 7693 3219 10319 9998 10000 10318 9999 
10 7679 7605 7694 7801 8885 8116 9303 10078 8612 8739 
10 7664 7708 7732 7804 9761 9536 9287 9746 9593 9595 
10 688 7635 7695 7713 10334 10333 10206 10205 8149 10204 
10 7647 685 7782 7813 10336 10335 10073 10337 10338 10339 
10 1827 1793 1801 7659 1958 1959 1957 9615 9827 9408 
10 3029 3012 7654 7753 3397 10340 9456 9457 10341 8017 
10 3055 2977 2998 7655 3401 3403 3405 9711 10142 10127 
10 7637 2026 7706 7722 10048 9986 9338 9174 9988 9990 
10 7586 7666 7681 7691 10123 8606 10342 9949 9312 9313 
10 695 725 687 7625 840 839 841 8280 8940 10343 
10 2977 3030 7655 7806 3400 8985 10142 10344 10235 9141 
10 3047 2101 7626 7745 9825 9826 8741 10345 10346 9981 
10 3038 726 7635 7695 10112 9207 10113 10347 10348 10333 
10 7608 7672 7713 7764 10350 8151 10349 9235 10351 10352 
10 2512 3488 3459 7663 10129 3635 7843 7848 9607 7846 
10 7736 7608 7755 7797 8169 8041 8171 10161 10353 9760 
10 7622 7683 7585 7783 9000 10250 9259 8679 8987 9168 
10 7591 7618 7731 7742 10354 9601 9813 10273 10200 10004 
10 2048 2019 7751 7791 2347 9706 9701 9702 9931 9703 
10 7675 7621 7739 7785 9589 9777 9430 9524 8851 8313 
10 2530 7755 2492 7778 10355 9568 2847 10041 9164 9585 
10 2590 2493 2522 7758 2853 2852 2753 8968 10356 10184 
10 3027 2550 3002 7643 8548 10357 3143 8549 8550 8230 
10 2056 3497 2081 7642 10358 7945 2213 8095 7943 7944 
10 2543 7755 2530 7778 9162 10355 2845 8720 9164 10041 
10 2099 1831 7633 7791 10360 9671 10359 10361 9672 9502 
10 2590 2579 2504 7624 2760 2944 2946 8967 9494 8413 
10 718 706 690 7752 838 883 880 9695 10070 9824 
10 3502 7638 3439 7814 10021 10263 3795 9997 8557 10362 
10 7619 7700 7744 7818 8691 9294 7952 9105 8256 10274 
10 3517 1834 7634 7790 9598 9599 9519 10363 9686 9356 
10 2579 2485 2583 7667 2759 2757 2758 9157 10296 9035 
10 3498 2551 3476 7778 9610 10364 3611 9613 9614 10365 
10 7664 7640 7781 7788 8843 8701 8602 9452 9451 10092 
10 2959 3008 7678 7693 3218 10033 10366 10318 10031 10032 
10 7594 7677 7623 7809 8056 7992 7878 9330 10367 9331 
10 1827 2570 1805 7696 9893 10368 1888 9617 9928 9465 
10 7607 7687 7707 7804 8770 8583 8762 9470 9469 9718 
10 721 689 7754 7767 871 10132 8456 8774 10307 8775 
10 2069 7619 2048 7751 9603 9700 2349 8870 8009 9701 
10 7592 7773 7636 7821 8852 8481 8522 10278 10306 8336 
10 3023 699 714 7650 10369 754 9942 9941 8324 9940 
10 7600 7638 7648 7760 7897 9621 9850 8034 8005 9625 
10 2963 3029 3000 7753 3266 3270 3269 10261 9457 9628 
10 3011 2987 7652 7704 3278 9659 10256 10255 9444 9658 
10 2518 1805 2570 7696 9698 10368 2624 9151 9465 9928 
10 2573 3519 7778 7792 10370 9784 9676 9677 9785 9678 
10 3490 7699 3445 7719 10222 9907 3849 10313 9794 9909 
10 2959 7693 7678 7765 10318 10032 10366 10320 10321 9048 
10 7591 7618 7742 7787 10354 10200 10273 8650 9387 10371 
10 1791 1828 7628 7818 1931 8897 9689 8526 8900 8902 
10 7586 7724 7666 7726 10052 8373 10123 9269 10279 9641 
10 727 695 687 7625 842 841 843 9726 8280 10343 
10 7594 7647 7733 7772 10258 9579 7955 10259 10098 10372 
10 3483 3430 7640 7794 3680 8144 9503 10114 10373 9805 
10 7587 7701 7640 7781 8821 7928 7836 8566 8301 8701 
10 3012 3042 7654 7747 3398 8357 10340 10374 8355 8356 
10 2044 732 2111 2092 8513 9106 2481 2366 9211 2146 
10 7618 7665 7725 7744 10199 10375 8084 9811 10110 10376 
10 7657 7709 7724 7779 8332 8384 8989 10377 8386 8376 
10 7602 7634 7715 7749 8489 7923 8964 8318 8035 9454 
10 7595 7705 7679 7800 8918 7910 8919 8076 9439 9221 
10 2037 2016 2097 7631 2301 2303 2304 8772 9194 8064 
10 690 714 7650 7695 878 9940 9823 10378 9943 9945 
10 3496 7621 2079 7811 9691 8419 9690 9721 8335 10262 
10 7597 7645 7690 7794 9775 7885 8057 8835 9806 8836 
10 7700 7620 7731 7742 8252 9300 9302 10379 9792 10004 
10 2499 2550 2529 7698 2909 2643 2911 9288 8551 10243 
10 2979 3054 3063 7624 3414 3234 3415 8414 9117 9509 
10 7692 3031 7801 7806 9142 9143 8613 9181 10380 10331 
10 2048 7762 1808 7791 10252 10382 10381 9702 10253 10383 
10 7598 7692 7624 7758 8711 8828 9757 9345 8970 8969 
10 2569 7636 2488 7773 9342 8439 2788 10202 8481 8480 
10 7591 7731 7618 7787 9813 9601 10354 8650 9812 9387 
10 3441 3493 3481 7729 3823 3824 3816 8820 10384 8621 
10 3450 7648 3534 7760 8208 9622 3886 10014 9625 9624 
10 2964 7628 7704 7805 9575 8801 9576 10385 9688 9830 
10 704 3494 3466 7767 10079 3653 10386 9918 9864 10387 
10 3535 3521 3451 7785 3815 3887 3891 9121 9285 9122 
10 3535 3451 3524 7621 3891 3890 3717 9120 8417 8934 
10 7618 7725 7599 7744 8084 8083 8080 9811 10376 9544 
10 2041 3458 2070 7673 10297 10388 2235 9492 9283 10389 
10 1813 7743 7731 7799 10391 9602 10390 10392 10393 9815 
10 2980 3064 3053 7627 3420 3246 3418 8310 9963 9852 
10 7594 7682 7745 7795 7879 9517 10251 9166 9099 9982 
10 7589 7689 7664 7716 9176 9178 8600 8945 8360 9286 
10 2033 2107 2118 7627 2470 2288 2471 8309 9111 10394 
10 7593 7730 7669 7802 10324 10054 10325 10395 10055 9674 
10 7669 7593 7699 7701 10325 9955 9705 7930 9708 9795 
10 2514 2491 2572 7635 2826 2827 2828 8477 9483 9545 
10 2989 3048 2967 7635 3314 3315 3311 8478 9087 10291 
10 2551 2500 2530 7778 2915 2917 2682 9614 7987 10041 
10 7637 7593 7706 7772 10397 10396 9338 9878 10398 8950 
10 7623 7677 7693 7809 7992 9999 10316 9331 10367 10399 
10 7594 7693 7677 7809 10400 9999 8056 9330 10399 10367 
10 3008 7693 7695 7796 10031 10160 10166 10034 10035 10167 
10 7655 7605 7679 7801 9140 8885 9959 9714 8612 10078 
10 3463 3500 7788 7812 3736 10401 10043 10044 10402 10045 
10 7713 7608 7764 7813 10349 9235 10352 10025 8856 10403 
10 7653 7588 7750 7757 8367 9005 9463 9933 9008 9009 
10 7665 7691 7725 7744 10187 10404 10375 10110 9218 10376 
10 2099 7633 2019 7791 10359 9490 2342 10361 9502 9931 
10 2967 3038 7635 7695 3312 10113 10291 10405 10347 10333 
10 7592 7646 7684 7703 10248 9637 10246 8377 9731 10247 
10 7592 7646 7759 7773 10248 10211 7966 8852 9875 8482 
10 3436 3517 7634 7790 3759 9519 9495 9868 10363 9356 
10 2029 7699 2072 7721 8594 10406 2441 9836 9796 10407 
10 704 693 7734 7767 899 8880 10282 9918 9919 9555 
10 7640 3430 7741 7794 8144 8145 7838 9805 10373 9916 
10 7615 7741 7767 7778 9065 9390 9925 9584 10164 10408 
10 2015 2108 7621 7811 2298 10107 9883 10409 10410 8335 
10 2973 7620 7688 7777 9412 8225 10130 10411 9272 10412 
10 688 722 7635 7713 853 9025 10334 10205 10413 8149 
10 2014 7710 2051 7711 9834 9631 2282 10414 9633 9632 
10 2491 2514 2563 7635 2826 2824 2825 9483 8477 9903 
10 2989 2967 3038 7635 3311 3312 3313 8478 10291 10113 
10 7589 7701 7640 7719 8297 7928 8750 9755 9045 8178 
10 2058 7626 2101 7745 10332 9826 2168 10301 9981 10346 
10 2102 2044 2021 7625 2369 2365 2368 9873 8383 10217 
10 2970 7652 7686 7768 10327 9061 10415 10328 9064 9063 
10 7598 7707 7629 7800 8617 8562 9226 9066 9123 9436 
10 7713 7764 7782 7813 10352 10416 10209 10025 10403 10339 
10 1823 1811 1791 7818 1943 1942 1940 8254 9808 8526 
10 3034 3001 7644 7718 3272 10062 8571 10186 10064 9253 
10 2017 2038 2098 7757 2314 2316 2317 9609 9697 8267 
10 701 687 7625 7802 846 10343 9199 9558 10417 9559 
10 2062 2114 2026 7722 2377 2423 2426 10418 9989 9988 
10 2021 2044 2092 7625 2365 2366 2367 10217 8383 8695 
10 7662 2553 7728 7784 10420 10419 7982 8796 10421 8392 
10 3455 3434 3472 7812 3732 3731 3578 9464 10422 8516 
10 2972 7693 3009 7766 10158 10000 3371 10103 10002 10001 
10 3438 7767 7741 7778 10424 9390 10423 9780 10408 10164 
10 2012 2060 7651 7751 2260 9038 9384 9385 9040 8008 
10 3509 7767 3460 7792 10426 10425 3782 10427 10017 9782 
10 3011 3003 7704 7768 3284 8520 10255 10257 9349 9351 
10 726 702 7635 7695 760 10428 9207 10348 10429 10333 
10 2482 2558 2580 7793 2714 2722 2718 10430 9095 7934 
10 1804 1795 7620 7777 1984 9273 9741 9742 9271 9272 
10 7591 7696 7662 7784 10008 8758 8025 8391 9395 8796 
10 7688 7742 7591 7815 10153 10273 8784 10154 10005 10431 
10 7700 7590 7744 7818 10019 9341 9294 8256 10020 10274 
10 2064 2090 7710 7774 2287 10212 9906 9680 10214 8956 
10 7623 7693 7601 7809 10316 10317 8072 9331 10399 10148 
10 7664 7597 7708 7788 10115 8059 9761 9452 10093 10059 
10 7699 7669 7701 7719 9705 7930 9795 9794 8179 9045 
10 7607 7671 7638 7804 7905 8825 8769 9470 9594 9468 
10 2572 2529 3005 7698 2640 10242 10293 9547 10243 9411 
10 7630 7701 7589 7721 8867 8297 8370 9471 9710 9472 
10 7653 7589 7716 7771 8371 8945 8947 8153 9817 9467 
10 2569 2509 2488 7636 2789 2787 2788 9342 8883 8439 
10 3524 3432 3535 7779 3709 3715 3717 8935 9954 9591 
10 2541 3017 3039 7670 8702 3161 10432 8705 8706 10125 
10 7646 2501 7773 7793 10434 10433 9875 9638 10435 9876 
10 7706 7772 7593 7802 8950 10398 10396 8954 8953 10395 
10 2552 2518 2498 7696 2627 2901 2900 7974 9151 8839 
10 2543 2530 2500 7778 2845 2917 2912 8720 10041 7987 
10 3465 7617 3444 7761 8924 10177 3847 10289 10179 10178 
10 7586 7691 7665 7727 9949 10187 9889 9014 9951 8343 
10 696 726 688 7635 856 855 854 8591 9207 10334 
10 727 7625 687 7802 9726 10343 843 9841 9559 10417 
10 2968 3014 3049 7692 3330 3152 3332 9597 8219 8827 
10 7645 7778 7690 7794 7986 7988 7885 9806 10436 8836 
10 3030 7680 3007 7738 8545 8853 3229 8783 8661 8854 
10 2024 2065 7652 7803 2404 9441 9752 10437 10022 9660 
10 7731 7591 7742 7815 9813 10273 10004 9653 10431 10005 
10 2489 2570 7659 7696 2801 9838 9146 10438 9928 9618 
10 2030 2053 7697 7757 2446 9773 9932 9934 9774 8421 
10 2962 2983 3043 7636 3247 3249 3250 9011 9248 8393 
10 2586 2497 2520 7736 2895 2894 2844 8662 9556 8495 
10 2054 2096 2030 7771 2311 2451 2450 8152 9772 9153 
10 7652 2970 7686 7810 10327 10415 9061 9976 10439 8050 
10 2048 7619 2027 7762 9700 10189 2431 10252 9102 10190 
10 7620 7649 7688 7742 8222 8226 8225 9792 9789 10153 
10 716 2077 2049 7706 9334 2142 10440 9337 9339 10441 
10 7588 7644 7677 7682 9007 8570 7993 7920 9049 7994 
10 2958 3041 7649 7738 3201 10245 10194 10442 9511 8137 
10 2026 2063 7722 7795 2427 9228 9988 10050 9352 9098 
10 7593 7637 7722 7733 10397 9174 9819 10443 9173 9096 
10 7590 7665 7691 7727 10109 10187 9340 8665 8343 9951 
10 696 688 722 7635 854 853 852 8591 10334 9025 
10 1794 1818 1810 7743 1978 1979 1980 9354 9979 9978 
10 3061 2996 7650 7766 3304 8909 10102 10104 10444 10105 
10 3013 2984 2969 7735 3110 3334 3335 9369 9060 9019 
10 7624 2485 7667 7758 10295 10296 9493 8969 10445 10446 
10 7586 7665 7725 7756 9889 10375 10447 10053 10448 9664 
10 1792 1806 1830 7633 1951 1872 1944 8351 9343 8874 
10 2980 3064 7627 7735 3420 9963 8310 9923 10449 9924 
10 3012 7654 7753 7765 10340 8017 10341 10450 8842 9212 
10 2579 2485 7624 7758 2759 10295 9494 10451 10445 8969 
10 2074 3020 7628 7803 10452 8803 10285 10453 8805 8804 
10 3446 7690 7778 7794 10455 7988 10454 10456 8836 10436 
10 1810 1833 1794 7634 1897 1970 1980 8685 9899 9353 
10 2587 2497 7672 7736 2897 10457 9662 9952 9556 8184 
10 3012 7747 7654 7765 10374 8356 10340 10450 9203 8842 
10 7588 7653 7683 7757 8367 9001 7830 9008 9933 10458 
10 2057 2087 2027 7676 2339 2430 2433 9478 9179 10188 
10 2066 2030 2096 7653 2452 2451 2454 9462 9152 9771 
10 2501 7793 7646 7820 10435 9638 10434 10459 9448 10012 
10 685 7647 7730 7813 10336 10461 10460 10338 10337 10090 
10 728 705 689 7615 776 875 865 8609 8054 9904 
10 7586 7702 7629 7726 9015 10120 10283 9269 8018 10197 
10 2976 3000 3029 7694 3393 3270 3394 9783 9627 9455 
10 7659 7696 7591 7784 9618 10008 9844 9148 9395 8391 
10 7730 712 7734 7802 10463 10462 8879 10055 10464 9560 
10 2062 2114 7722 7819 2377 9989 10418 10465 10172 10174 
10 7727 7649 7738 7768 8342 8137 8364 9074 9350 10210 
10 2504 2548 2574 3049 2943 2658 2942 8411 10466 9132 
10 688 7635 702 7695 10334 10428 862 10206 10333 10429 
10 7589 7689 7631 7812 9176 8320 9648 9879 9901 8518 
10 7595 7655 7679 7714 8011 9959 8919 9540 9713 9539 
10 2080 2028 2058 7745 2438 2439 2171 9380 9516 10301 
10 3474 3504 3444 7685 3756 3845 3848 9912 9947 10176 
10 1800 1792 7633 7791 1946 8351 8397 9673 9500 9502 
10 3496 3451 3521 2079 3888 3887 3587 9690 8415 10467 
10 2971 3017 3062 7668 3361 3363 3357 8126 8703 9028 
10 3001 2984 2038 7718 3107 9059 10254 10064 9058 8273 
10 2058 2020 2101 7626 2360 2356 2168 10332 9910 9826 
10 2052 2031 7656 7816 2459 9681 9969 10468 10106 8766 
10 2052 7656 7739 7816 9969 9971 9970 10468 8766 8305 
10 3463 3500 3483 7788 3736 3867 3685 10043 10401 9506 
10 7611 7651 7691 7740 9847 9217 9848 8684 7950 9216 
10 7586 7629 7702 7717 10283 10120 9015 10051 8563 8505 
10 2998 3064 7714 7748 3244 9961 10128 10133 9964 9965 
10 7665 7756 7786 7787 10448 10081 7976 8747 10082 8651 
10 1802 1794 7634 7790 1972 9353 8404 9687 9355 9356 
10 3029 3012 2976 7654 3397 3396 3394 9456 10340 9201 
10 1820 1796 1808 7762 1991 1992 1862 10469 9101 10382 
10 2489 7696 7659 7784 10438 9618 9146 9147 9395 9148 
10 2490 2571 2519 7634 2815 2633 2821 9357 9898 8339 
10 7656 7596 7712 7739 10083 9057 8971 9971 10084 9885 
10 7649 7591 7688 7742 7870 8784 8226 9789 10273 10153 
10 7664 7610 7708 7804 9745 9762 9761 9746 9278 9593 
10 7616 7727 7738 7768 8097 8364 8363 9376 9074 10210 
10 3498 3446 7690 7778 3858 10455 9612 9613 10454 7988 
10 2030 2096 7653 7771 2451 9771 9152 9153 9772 8153 
10 3023 2972 7650 7695 3366 10101 9941 9944 10159 9945 
10 3507 7657 7746 7779 10471 7826 10470 10472 10377 9802 
10 2519 2498 2540 7641 2904 2903 2819 8337 8838 9423 
10 7669 7593 7701 7807 10325 9708 7930 8379 10326 8087 
10 689 7615 7754 7767 9904 8053 10132 10307 9925 8775 
10 2051 2090 2031 7710 2284 2456 2455 9631 10212 9682 
10 7646 7597 7720 7775 9730 9733 9734 10473 9561 8510 
10 2540 7662 2531 7749 9424 8752 2728 9683 8317 8753 
10 2549 3452 3495 2566 8792 3893 9133 2700 8791 10474 
10 7596 7629 7705 7808 9550 9437 9791 10475 10280 10312 
10 7662 7756 7602 7787 8632 8631 8316 8652 10082 9530 
10 2969 3000 3032 7694 3341 3342 3338 9107 9627 10182 
10 7586 7665 7756 7786 9889 10448 10053 9016 7976 10081 
10 2083 2030 7653 7757 2447 9152 10476 10477 9934 9933 
10 7606 7656 7705 7816 10126 8764 8933 8306 8766 8598 
10 2074 3020 2985 7628 10452 3130 10284 10285 8803 8451 
10 7650 690 7695 7782 9823 10378 9945 10075 10074 10207 
10 7660 7685 7599 7729 9329 9328 8435 9914 8978 8788 
10 3447 7708 7788 7814 10478 10059 10118 9957 9375 10119 
10 690 7752 706 7782 9824 10070 883 10074 10072 10071 
10 7593 7637 7733 7772 10397 9173 10443 10398 9878 10372 
10 706 7647 685 7782 10068 10336 812 10071 10073 10335 
10 2966 3047 7626 7745 3301 8741 10227 10479 10345 9981 
10 7593 7630 7701 7733 9707 8867 9708 10443 7968 10480 
10 2554 2537 7646 7759 2924 10010 10481 10482 10219 10211 
10 3491 2075 3456 7633 9596 10323 3600 9564 9513 8398 
10 2508 2487 2527 7775 2774 2773 2688 10240 10241 10483 
10 2545 3492 3457 7634 8922 3639 10322 8923 8487 8406 
10 2973 3033 7620 7805 3374 9413 9412 10484 9829 8531 
10 7646 2554 7759 7773 10481 10482 10211 9875 10485 8482 
10 7607 7732 7646 7820 9723 9894 9635 8917 9936 10012 
10 7613 7683 7697 7757 7840 8088 7990 8269 10458 8421 
10 3524 3451 3496 7621 3890 3888 3889 8934 8417 9691 
10 3450 3534 3525 7760 3886 3705 3884 10014 9624 10015 
10 3006 3015 7649 7688 3207 9321 8134 8287 9322 8226 
10 7656 7712 7596 7808 8971 9057 10083 8958 8973 10475 
10 2022 2085 2053 7697 2380 2383 2382 8656 10087 9773 
10 7629 7702 7598 7800 10120 8500 9226 9436 8078 9066 
10 3481 3493 7709 7729 3824 10486 8468 8621 10384 8622 
10 7627 7595 7711 7714 8961 8920 10487 9962 9540 9538 
10 7693 7650 7695 7782 10157 9945 10160 10488 10075 10207 
10 3042 2976 3012 7654 3391 3396 3398 8357 9201 10340 
10 7733 7701 7807 7817 10480 8087 9991 7957 8963 10489 
10 3016 234 2071 2042 3121 2190 9239 9240 2195 2196 
10 3515 7689 3434 7812 9072 10490 3734 9900 9901 10422 
10 2019 7673 2041 7751 9491 9492 2344 9706 9041 10249 
10 7630 7701 7733 7817 8867 10480 7968 7969 8963 7957 
10 7599 7660 7681 7725 8435 9644 8759 8083 8437 9647 
10 7684 7636 7773 7821 9192 8481 9874 9346 8336 10306 
10 7617 1797 7761 7790 9477 10491 10179 8929 9867 10290 
10 2014 2051 2118 7711 2282 2285 2286 10414 9632 10492 
10 7595 7726 7710 7808 8019 8069 8065 10311 9620 8959 
10 3055 2998 3032 7714 3405 3339 3195 9712 10128 10169 
10 691 719 707 7772 888 851 889 9052 8951 10265 
10 2587 2497 2534 7672 2897 2898 2836 9662 10457 10180 
10 7619 1796 7762 7791 9103 9101 9102 9571 9960 10253 
10 2544 2484 2517 7759 2743 2741 2742 8833 9804 9432 
10 1808 7762 1796 7791 10382 9101 1992 10383 10253 9960 
10 2964 2985 7628 7805 3273 8451 9575 10385 10230 9688 
10 1798 1810 1818 7641 2005 1979 2004 9075 8687 9977 
10 704 689 721 7767 872 871 870 9918 10307 8774 
10 2496 2513 2541 7668 2887 2667 2888 9125 10060 8704 
10 2579 7624 2590 7758 9494 8967 2760 10451 8969 8968 
10 712 693 7730 7734 896 8877 10463 10462 8880 8879 
10 3465 7761 1809 7790 10289 10494 10493 8927 10290 10495 
10 7621 7712 7596 7739 9881 9057 10122 9777 9885 10084 
10 7598 7667 7661 7758 8502 8499 8698 9345 10446 7932 
10 7599 7681 7691 7725 8759 9313 9634 8083 9647 10404 
10 2073 2058 7745 7795 2361 10301 10100 10228 10496 9982 
10 692 713 705 7754 893 874 894 8993 10028 8039 
10 7590 7727 7649 7742 8665 8342 9787 9788 10497 9789 
10 3518 3475 3437 7625 3569 3779 3773 9023 9656 9508 
10 2102 2021 2059 7625 2368 2373 2207 9873 10217 9655 
10 2028 2046 2073 7682 2434 2271 2435 9515 9292 10038 
10 7693 7650 7782 7809 10157 10075 10488 10399 10223 10225 
10 7601 7713 7764 7782 10498 10352 8290 10499 10209 10416 
10 7634 7617 7715 7790 8490 8925 7923 9356 8929 8928 
10 3007 2971 3041 7738 3358 3356 3359 8854 8128 9511 
10 2029 2045 2089 7721 2440 2307 2442 9836 10267 9401 
10 2079 3511 3496 2036 10500 3590 9690 2478 9994 9995 
10 2513 2496 2536 7668 2887 2886 2803 10060 9125 9719 
10 2055 3026 3001 7644 10315 3104 10063 8810 9378 10062 
10 7594 7733 7637 7772 7955 9173 9210 10259 10372 9878 
10 2543 2516 7720 7775 2739 10501 8508 8509 10502 8510 
10 3444 3465 3486 7617 3847 3765 3846 10177 8924 9521 
10 3433 3513 7708 7794 3726 10309 7867 9191 10310 8837 
10 7594 7733 7647 7809 7955 9579 10258 9330 9332 9582 
10 7597 7775 7646 7820 9561 10473 9730 9935 10503 10012 
10 727 687 703 7802 843 849 808 9841 10417 10135 
10 2015 7621 7712 7811 9883 9881 9882 10409 8335 9797 
10 2987 2074 2042 7803 10504 2197 9973 9445 10453 9974 
10 724 698 686 7626 799 833 829 8816 8586 9735 
10 2063 2073 2013 7750 2276 2270 2274 9229 10039 10077 
10 719 7706 703 7802 8949 10134 847 8952 8954 10135 
10 3459 7663 3533 7715 7846 10505 3762 7922 7924 10506 
10 2522 2580 2502 7758 2929 2930 2928 10184 7931 9136 
10 3023 2996 699 7650 3085 8908 10369 9941 8909 8324 
10 2508 2568 7671 7763 2775 10294 8345 10183 10507 8809 
10 710 698 7637 7752 832 8588 10508 10509 8889 8891 
10 7638 7671 7708 7804 8825 7868 9220 9468 9594 9593 
10 2079 2034 2108 7621 2472 2474 2475 8419 8418 10107 
10 3437 3475 3490 7699 3779 3777 3778 9704 8639 10222 
10 3502 3439 3470 7814 3795 3799 3659 9997 10362 9938 
10 2556 2503 2535 7723 2939 2940 2878 9722 8943 9421 
10 7666 7596 7712 7808 9054 9057 9056 9131 10475 8973 
10 7592 7703 7639 7759 8377 8250 7961 7966 10198 7964 
10 2037 3455 7631 7785 9295 9296 8772 10510 10511 8312 
10 2588 2495 7663 7723 2877 8743 9739 9740 8745 8624 
10 2083 7653 7750 7757 10476 9463 10512 10477 9933 9009 
10 3429 3474 7660 7729 3675 9913 9188 9929 9915 9914 
10 7605 7655 7679 7800 9140 9959 8885 9067 8077 9221 
10 7595 7656 7705 7808 9665 8764 8918 10311 8958 10312 
10 729 7767 3509 7792 10016 10426 10513 9553 10017 10427 
10 685 7647 706 7772 10336 10068 812 10514 10098 10097 
10 1804 1819 1795 7777 1907 1983 1984 9742 9769 9271 
10 7665 7725 7756 7787 10375 9664 10448 8747 10276 10082 
10 7625 7669 7593 7699 8777 10325 10515 9657 9705 9955 
10 3445 3505 7719 7812 3851 10516 9909 10517 10518 10046 
10 7696 7591 7799 7815 10008 9814 8242 10067 10431 10519 
10 3058 3007 2960 7680 3231 3228 3230 8659 8853 9643 
10 7598 7624 7692 7806 9757 8828 8711 9068 10520 9181 
10 2484 7720 2537 7759 10056 10009 2736 9804 10057 10219 
10 7594 7637 7752 7772 9210 8891 9858 10259 9878 10099 
10 3490 3475 3445 7699 3777 3854 3849 10222 8639 9907 
10 7585 7687 7705 7798 9566 9586 9438 9482 9138 9846 
10 3000 3044 2963 7718 3271 3262 3269 9626 9822 10260 
10 2033 7627 2118 7735 8309 10394 2471 10521 9924 10522 
10 3448 3507 7657 7746 3874 10471 9323 9324 10470 7826 
10 3497 2056 3472 7642 10358 8093 3575 7943 8095 8094 
10 3002 2550 2526 7643 10357 2646 8229 8230 8550 8231 
10 7659 7591 7696 7815 9844 10008 9618 10066 10431 10067 
10 3436 3486 3465 7715 3764 3765 3766 9496 9860 8926 
10 7618 7700 7742 7744 8738 10379 10200 9811 9294 10111 
10 2551 3498 2527 7690 9610 10523 2685 9611 9612 8894 
10 1813 1790 7731 7743 1925 9600 10390 10391 8812 9602 
10 2012 2057 2069 7740 2256 2257 2258 9383 9479 8869 
10 3507 3501 7657 7709 3877 8327 10471 10524 8330 8332 
10 7596 7675 7746 7779 10525 9047 8799 9071 9592 9802 
10 3456 3516 3435 7633 3746 3747 3745 8398 8748 8861 
10 2020 7745 2058 7795 9980 10301 2360 9911 9982 10496 
10 7652 7611 7740 7769 8682 8684 8669 9443 9498 9363 
10 2069 2027 2048 7619 2432 2431 2349 9603 10189 9700 
10 7730 7647 7789 7813 10461 10526 10089 10090 10337 10091 
10 7592 7646 7703 7759 10248 9731 8377 7966 10211 10198 
10 7673 7609 7729 7770 8198 8620 8789 8427 8426 8860 
10 7596 7675 7621 7739 10525 9589 10122 10084 9430 9777 
10 7629 7596 7724 7808 9550 8988 9512 10280 10475 10281 
10 2566 3452 3495 3510 8791 3893 10474 8903 3892 3629 
10 7662 7728 7612 7786 7982 7981 7978 8026 7860 8696 
10 7633 7619 7751 7791 8906 8009 9027 9502 9571 9703 
10 7646 7684 7703 7732 9637 10247 9731 9894 9866 9895 
10 2061 2025 2112 7811 2417 2413 2296 7916 8187 10527 
10 3005 2967 3048 7635 3319 3315 3137 9831 10291 9087 
10 717 704 693 7734 789 899 898 9862 10282 8880 
10 2567 7720 7775 7820 10095 8510 10528 10096 10013 10503 
10 7590 7665 7727 7742 10109 8343 8665 9788 10108 10497 
10 7635 2967 7695 7796 10291 10405 10333 9833 10292 10167 
10 7665 7691 7586 7725 10187 9949 9889 10375 10404 10447 
10 3503 7675 3469 7746 8401 9799 3808 9046 9047 9800 
10 7597 7708 7788 7794 8059 10059 10093 8835 8837 10094 
10 7672 7601 7713 7764 10117 10498 8151 10351 8290 10352 
10 7621 7675 7596 7779 9589 10525 10122 8334 9592 9071 
10 7593 7637 7706 7722 10397 9338 10396 9819 9174 9990 
10 3000 2976 3059 7694 3393 3392 3395 9627 9783 9088 
10 3025 2980 3053 7627 3416 3418 3419 8085 8310 9852 
10 7681 7586 7691 7725 10342 9949 9313 9647 10447 10404 
10 7630 7593 7722 7733 9707 9819 9818 7968 10443 9096 
10 7598 7624 7667 7758 9757 9493 8502 9345 8969 10446 
10 2107 2033 2078 7627 2470 2467 2469 9111 8309 8104 
10 7612 7723 7756 7780 8942 8628 8997 8722 8944 9604 
10 7622 7703 7781 7817 8817 8568 8299 8818 9685 9165 
10 2503 2532 2555 7667 2936 2754 2935 7996 8196 9670 
10 7625 7706 2021 7819 9839 10303 10217 9747 10173 10218 
10 2974 3019 7677 7745 3379 10529 8708 10006 10530 10007 
10 3501 3478 3431 7760 3699 3700 3695 8488 8158 10163 
10 711 688 7695 7782 860 10206 10531 10532 10208 10207 
10 7595 7629 7726 7808 10220 10197 8019 10311 10280 9620 
10 3021 2510 2986 7659 10534 10533 3169 9727 9407 9418 
10 2534 2484 2544 7797 2744 2743 2748 10181 9849 9391 
10 700 7713 720 7736 8558 10024 857 8560 8185 10023 
10 1817 1790 1814 7674 1922 1929 1928 10037 8735 9318 
10 2501 2554 7646 7773 2918 10481 10434 10433 10485 9875 
10 2039 7628 2018 7803 8541 9577 2327 10535 8804 10536 
10 3022 3003 3011 7768 3205 3284 3354 10537 9349 10257 
10 7595 7656 7710 7711 9665 8957 8065 8920 8765 9633 
10 7594 7682 7677 7745 7879 7994 8056 10251 9517 10007 
10 2092 727 2049 7706 9725 10538 2145 9967 9840 10441 
10 2027 7676 2087 7762 10188 9179 2430 10190 8983 9180 
10 7672 7608 7713 7736 10350 10349 8151 8184 8169 8185 
10 2548 2504 2579 7624 2943 2944 2945 10539 8413 9494 
10 7683 7653 7697 7757 9001 8112 8088 10458 9933 8421 
10 716 691 698 7637 886 885 802 9336 9877 8588 
10 3483 3430 3463 7719 3680 3686 3685 9504 8177 10042 
10 7590 7628 7676 7818 10171 8979 9446 10020 8902 9696 
10 7620 7700 7590 7742 8252 10019 10018 9792 10379 9788 
10 3511 2036 2093 7770 9994 2411 10540 9948 10226 10541 
10 725 701 687 7625 783 846 839 8940 9199 10343 
10 7608 7645 7755 7797 9236 9163 8041 10353 9920 9760 
10 2997 3031 7692 7806 3325 9142 10542 10543 10380 9181 
10 2557 7658 7773 7793 10545 9880 10544 10546 7939 9876 
10 7601 7693 7695 7782 10317 10160 10547 10499 10488 10207 
10 7688 7777 7620 7815 10412 9272 8225 10154 9276 9275 
10 7587 7781 7703 7817 8566 8568 8248 9667 9165 9685 
10 685 7730 7647 7772 10460 10461 10336 10514 10548 10098 
10 2988 2965 3062 7668 3290 3291 3292 10238 9256 9028 
10 7730 7603 7754 7789 8878 8458 9325 10089 8182 8542 
10 7655 7595 7679 7800 8011 8919 9959 8077 8076 9221 
10 7681 7586 7725 7756 10342 10447 9647 9699 10053 9664 
10 7587 7647 7789 7807 9580 10526 8180 7861 9992 9149 
10 2074 2987 3020 7803 10504 3127 10452 10453 9445 8805 
10 700 722 688 7713 767 853 859 8558 10413 10205 
10 3438 7615 7767 7778 10233 9925 10424 9780 9584 10408 
10 7596 7657 7724 7779 8798 8989 8988 9071 10377 8376 
10 7613 7679 7694 7714 7989 9303 7841 9109 9539 9110 
10 2562 2502 2523 7737 2931 2932 2767 9314 9649 10549 
10 2019 2041 2116 7751 2344 2345 2346 9706 10249 9348 
10 7601 7672 7635 7698 10117 8146 10550 8921 9082 9549 
10 2066 2083 7653 7750 2453 10476 9462 9306 10512 9463 
10 2501 2554 2537 7646 2918 2924 2925 10434 10481 10010 
10 7654 7605 7783 7821 8113 9170 8726 8119 8118 10551 
10 2037 7631 2097 7785 8772 8064 2304 10510 8312 8834 
10 7627 7595 7710 7711 8961 8065 8962 10487 8920 9633 
10 7592 7654 7783 7821 8725 8726 8579 10278 8119 10551 
10 2508 3485 2539 7763 10553 10552 2691 10183 10554 10555 
10 7587 7733 7807 7817 9578 9991 7861 9667 7957 10489 
10 2970 3011 2987 7652 3350 3278 3349 10327 10256 9659 
10 2486 2535 2562 7780 2762 2771 2766 8471 9422 9316 
10 2508 2568 2487 7671 2775 2776 2774 8345 10294 10239 
10 2049 703 716 7706 10556 805 10440 10441 10134 9337 
10 7639 7601 7672 7764 8070 10117 9080 8291 8290 10351 
10 7660 7602 7715 7776 8881 8964 9939 8642 8996 10557 
10 3064 7714 7627 7735 9961 9962 9963 10449 9684 9924 
10 3494 7734 3443 7767 9861 8672 3836 9864 9555 9197 
10 2497 7672 7736 7797 10457 8184 9556 9759 9393 10161 
10 2520 2492 2586 7755 2842 2843 2844 8496 9568 8663 
10 7591 7641 7696 7799 9930 7975 10008 9814 8240 8242 
10 7649 2958 7738 7768 10194 10442 8137 9350 10195 10210 
10 3455 3515 7631 7785 3733 8233 9296 10511 9692 8312 
10 2543 2500 2516 7775 2912 2913 2739 8509 7887 10502 
10 7612 7756 7717 7780 8997 9810 8515 8722 9604 9266 
10 7604 7667 7670 7728 9320 9033 8243 7856 8027 9037 
10 2018 7628 7676 7803 9577 8979 9304 10536 8804 9917 
10 7586 7629 7717 7724 10283 8563 10051 10052 9512 9185 
10 3439 3502 3468 7638 3795 3796 3797 10263 10021 8261 
10 7711 7627 7714 7735 10487 9962 9538 9360 9924 9684 
10 7764 7647 7782 7813 9855 10073 10416 10403 10337 10339 
10 2032 2090 2064 7774 2466 2287 2465 10058 10214 9680 
10 7587 7647 7764 7789 9580 9855 8710 8180 10526 9232 
10 2073 2058 2028 7745 2361 2439 2435 10100 10301 9516 
10 3063 7624 3054 7806 9509 9117 3234 10558 10520 10559 
10 2088 2017 2046 7757 2322 2318 2321 8461 9609 8462 
10 1818 1798 7641 7799 2004 9075 9977 10560 9076 8240 
10 2555 7661 7667 7758 9669 8499 9670 10561 7932 10446 
10 7665 7649 7727 7742 7877 8342 8343 10108 9789 10497 
10 7691 7599 7725 7744 9634 8083 10404 9218 9544 10376 
10 2483 2553 7662 7784 2727 10420 8348 10562 10421 8796 
10 2966 2996 3061 7766 3303 3304 3305 10563 10444 10104 
10 7657 7596 7746 7779 8798 8799 7826 10377 9071 9802 
10 709 685 7730 7813 824 10460 9305 10234 10338 10090 
10 7700 7590 7742 7744 10019 9788 10379 9294 9341 10111 
10 3501 3448 7657 7760 3870 9323 8327 8488 9333 8006 
10 7645 7741 7778 7794 8033 10164 7986 9806 9916 10436 
10 3018 7678 3008 7796 10149 10033 3221 10150 9215 10034 
10 7644 7588 7718 7757 9007 7831 9253 8463 9008 8268 
10 2072 7721 7699 7819 10407 9796 10406 10564 10272 9749 
10 7599 7681 7660 7729 8759 9644 8435 8788 9030 9914 
10 2959 2992 7677 7765 3214 9204 10319 10320 10565 9156 
10 3046 2994 2965 7659 3185 3293 3289 10137 10304 9572 
10 705 2520 715 7736 8494 10144 773 8170 8495 10147 
10 7624 3063 7692 7806 9509 9510 8828 10520 10558 9181 
10 7602 7663 7715 7776 8948 7924 8964 8996 8637 10557 
10 3017 2988 3062 7668 3165 3292 3363 8703 10238 9028 
10 3034 2963 7718 7753 3267 10260 10186 8572 10261 8001 
10 3534 3439 7638 7763 3798 10263 9623 10196 10264 8826 
10 7615 7603 7754 7767 8429 8458 8053 9925 8773 8775 
10 708 7782 685 7813 10566 10335 820 10567 10339 10338 
10 2070 2116 7673 7770 2420 9347 10389 10568 10569 8427 
10 2118 7627 7711 7735 10394 10487 10492 10522 9924 9360 
10 3006 2958 3041 7649 3206 3201 3208 8134 10194 10245 
10 7593 7669 7625 7802 10325 8777 10515 10395 9674 9559 
10 7586 7681 7666 7724 10342 8606 10123 10052 8597 8373 
10 2491 7672 2544 7698 9484 9081 2832 10232 9082 8831 
10 2013 7721 7722 7750 10570 9820 10076 10077 9307 9230 
10 2998 2961 3064 7748 3240 3243 3244 10133 10270 9964 
10 3445 7642 3505 7812 9908 10571 3851 10517 8517 10518 
10 7596 7746 7675 7798 8799 9047 10525 9137 9139 8761 
10 2053 2113 2030 7697 2448 2449 2446 9773 9020 9932 
10 2039 2074 7628 7803 2200 10285 8541 10535 10453 8804 
10 3506 7690 3446 7794 9528 10455 3857 9529 8836 10456 
10 3493 3429 7709 7729 3669 9187 10486 10384 9929 8622 
10 3019 3009 7677 7766 3222 9998 10529 10572 10001 10003 
10 2072 7722 7721 7819 10573 9820 10407 10564 10174 10272 
10 2021 2092 2049 7706 2367 2145 2370 10303 9967 10441 
10 726 702 688 7635 760 862 855 9207 10428 10334 
10 2500 7690 2561 7775 7884 10574 2914 7887 7889 10575 
10 7605 7692 7801 7806 8214 8613 8612 9069 9181 10331 
10 7618 7665 7742 7787 10199 10108 10200 9387 8747 10371 
10 2018 2039 2100 7628 2327 2329 2330 9577 8541 9291 
10 1793 1801 7659 7815 1959 9408 9827 10065 10314 10066 
10 703 2049 727 7706 10556 10538 808 10134 10441 9840 
10 7613 7711 7714 7735 7991 9538 9109 7902 9360 9684 
10 7646 7793 7607 7820 9638 9094 9635 10012 9448 8917 
10 709 712 693 7730 823 896 901 9305 10463 8877 
10 2015 2052 7712 7739 2289 9968 9882 9884 9970 9885 
10 3507 7709 7657 7779 10524 8332 10471 10472 8386 10377 
10 1804 1791 1829 7805 1941 1935 1904 9743 8532 10121 
10 3024 3054 2979 7624 3413 3414 3411 9905 9117 8414 
10 2964 2985 3020 7628 3273 3130 3274 9575 8451 8803 
10 2061 2112 7712 7811 2296 10576 9966 7916 10527 9797 
10 7630 7682 7722 7750 7967 9097 9818 9693 9050 9230 
10 2562 2503 2555 7661 2941 2935 2934 9315 8498 9669 
10 7594 7650 7693 7809 10191 10157 10400 9330 10223 10399 
10 711 7713 688 7782 10577 10205 860 10532 10209 10208 
10 1818 7641 7743 7799 9977 8524 9979 10560 8240 10393 
10 7689 7788 3500 7812 9453 10401 10578 9901 10045 10402 
10 1813 1825 7799 7815 1969 10579 10392 10580 10581 10519 
10 7608 7713 7736 7813 10349 8185 8169 8856 10025 8857 
10 3504 3444 7685 7761 3845 10176 9947 10286 10178 8648 
10 3030 3007 2978 7738 3229 3407 3408 8783 8854 9160 
10 7672 7639 7764 7797 9080 8291 10351 9393 9392 10582 
10 1822 1797 1809 7761 1997 1998 1878 10583 10491 10494 
10 2050 2020 2115 7795 2357 2358 2359 8445 9911 10049 
10 7608 7672 7764 7797 10350 10351 9235 10353 9393 10582 
10 3503 7746 3428 7814 9046 10584 3666 9264 8556 10585 
10 7596 7705 7656 7808 9791 8764 10083 10475 10312 8958 
10 2993 3033 2973 7805 3282 3374 3372 9984 9829 10484 
10 2995 3038 2967 7695 3091 3312 3316 10288 10347 10405 
10 7591 7659 7688 7815 9844 9573 8784 10431 10066 10154 
10 2067 2022 2098 7735 2385 2384 2386 8823 9231 7901 
10 7586 7756 7717 7786 10053 9810 10051 9016 10081 9083 
10 2066 7721 2013 7750 9308 10570 2264 9306 9307 10077 
10 2553 2483 7662 7728 2727 8348 10420 10419 8930 7982 
10 3474 3444 3486 7685 3848 3846 3673 9912 10176 9522 
10 3010 2970 7686 7768 3346 10415 9666 9821 10328 9063 
10 2108 2079 7621 7811 2475 8419 10107 10410 10262 8335 
10 2019 2099 2040 7633 2342 2343 2340 9490 10359 8424 
10 3457 3436 3517 7634 3758 3759 3760 8406 9495 9519 
10 2490 2511 2571 7634 2813 2814 2815 9357 8409 9898 
10 7626 7745 7594 7766 9981 10251 9857 10192 10586 10193 
10 1797 1809 7761 7790 1998 10494 10491 9867 10495 10290 
10 2568 2494 7671 7763 2866 8271 10294 10507 8807 8809 
10 7591 7742 7665 7787 10273 10108 7876 8650 10371 8747 
10 2042 2024 7652 7803 2403 9752 9972 9974 10437 9660 
10 3490 3480 7669 7719 3693 8727 10221 10313 9249 8179 
10 7632 7600 7648 7760 9431 9850 8285 8160 8034 9625 
10 2052 2109 2031 7816 2461 2457 2459 10468 10299 10106 
10 2589 2486 2523 7737 2770 2768 2769 9993 8470 10549 
10 7642 7589 7721 7771 9869 9472 9402 8389 9817 9310 
10 3004 3026 2058 7745 3101 10300 10587 10588 9381 10301 
10 729 689 704 7767 869 872 792 10016 10307 9918 
10 7610 7708 7804 7814 9762 9593 9278 8965 9375 10589 
10 2083 2030 2066 7653 2447 2452 2453 10476 9152 9462 
10 7593 7733 7701 7807 10443 10480 9708 10326 9991 8087 
10 7612 7717 7756 7786 8515 9810 8997 8696 9083 10081 
10 3469 3507 7746 7779 3712 10470 9800 9801 10472 9802 
10 2575 2505 2589 7648 2947 2951 2870 9892 8210 9574 
10 7595 7710 7656 7808 8065 8957 9665 10311 8959 8958 
10 3008 3009 2972 7693 3220 3371 3370 10031 10000 10158 
10 715 2547 700 7736 10145 10590 770 10147 10146 8560 
10 2975 3018 3005 7796 3385 3320 3389 9213 10150 9832 
10 2541 3039 2565 7670 10432 10124 2664 8705 10125 9450 
10 2012 7740 7651 7774 9383 7950 9384 10591 9367 7894 
10 7644 7677 7682 7745 8570 7994 9049 9382 10007 9517 
10 2523 2486 2562 7737 2768 2766 2767 10549 8470 9314 
10 7644 7588 7677 7753 9007 7993 8570 8573 8000 8574 
10 2575 7648 2589 7763 9892 9574 2870 10592 9985 10593 
10 2069 2057 2027 7676 2257 2433 2432 8868 9478 10188 
10 2959 7678 2991 7765 10366 9474 3209 10320 9048 10594 
10 2540 2483 2531 7662 2723 2729 2728 9424 8348 8752 
10 2528 7696 2559 7784 8757 9750 2811 9394 9395 10595 
10 3503 3440 3469 7675 3809 3810 3808 8401 8732 9799 
10 701 7734 712 7802 9200 10462 845 9558 9560 10464 
10 7593 7730 7772 7807 10324 10548 10398 10326 10275 10596 
10 7593 7772 7733 7807 10398 10372 10443 10326 10596 9991 
10 2059 2072 2029 7699 2375 2441 2445 9507 10406 8594 
10 3520 3534 3450 7648 3804 3886 3882 8528 9622 8208 
10 2966 7745 7626 7766 10479 9981 10227 10563 10586 10192 
10 2072 7699 2059 7819 10406 9507 2375 10564 9749 9748 
10 7721 7630 7722 7750 9471 9818 9820 9307 9693 9230 
10 3015 3003 2958 7649 3204 3202 3203 9321 8221 10194 
10 7591 7731 7799 7815 9813 9815 9814 10431 9653 10519 
10 7601 7693 7782 7809 10317 10488 10499 10148 10399 10225 
10 3455 2068 3484 7785 10598 10597 3581 10511 10599 10600 
10 2993 2973 3028 7777 3372 3373 3179 9767 10411 9768 
10 7675 7606 7739 7798 9429 7854 9430 8761 8634 10085 
10 7598 7680 7624 7806 9254 9119 9757 9068 10236 10520 
10 2069 2060 2012 7751 2261 2260 2258 8870 9040 9385 
10 7596 7666 7724 7808 9054 8373 8988 10475 9131 10281 
10 7644 7718 7588 7753 9253 7831 9007 8573 8001 8000 
10 3446 7778 3489 7794 10454 10601 3855 10456 10436 10602 
10 2085 7697 7711 7816 10087 7914 10088 10603 8554 8599 
10 2117 2023 7739 7785 2392 8186 9778 8850 8311 8313 
10 3456 3435 3491 7633 3745 3744 3600 8398 8861 9564 
10 2551 2530 3476 7778 2682 10604 10364 9614 10041 10365 
10 3009 2959 3019 7677 3219 3217 3222 9998 10319 10529 
10 7597 7664 7732 7781 10115 9287 9535 9776 8602 10131 
10 2024 2042 7652 7810 2403 9972 9752 10605 9242 9976 
10 2987 2970 7652 7810 3349 10327 9659 9975 10439 9976 
10 2533 2497 2586 7797 2899 2895 2849 10606 9759 9758 
10 7601 7635 7672 7713 10550 8146 10117 10498 8149 8151 
10 2117 2052 2015 7739 2293 2289 2292 9778 9970 9884 
10 1805 1798 1825 7799 2002 2003 1962 9466 9076 10579 
10 2510 3021 2546 7659 10534 9728 2671 9407 9727 9526 
10 3049 3063 2968 7692 3333 3327 3332 8827 9510 9597 
10 7592 7643 7678 7747 7984 8044 8002 9202 8717 8719 
10 2995 714 702 7695 10287 757 10607 10288 9943 10429 
10 7645 7615 7755 7778 8428 8055 9163 7986 9584 9164 
10 7617 7674 7685 7761 8175 8822 9327 10179 8354 8648 
10 3503 3428 3530 7814 3666 3662 3667 9264 10585 9154 
10 3445 7719 7642 7812 9909 9870 9908 10517 10046 8517 
10 2998 2977 3036 7748 3403 3404 3241 10133 10143 8914 
10 3003 3022 2958 7768 3205 3198 3202 9349 10537 10195 
10 7635 7601 7695 7713 10550 10547 10333 8149 10498 10204 
10 2527 3498 3473 7690 10523 3614 8893 8894 9612 8895 
10 7638 7610 7804 7814 8483 9278 9468 8557 8965 10589 
10 1822 188 3499 1809 1874 3554 10608 1878 1876 10609 
10 2080 3026 227 2055 9379 3100 2169 2174 10315 2173 
10 3027 281 3002 2550 3138 3142 3143 8548 2642 10357 
10 308 2551 3498 2527 2680 9610 3610 2684 2685 10523 
10 254 2081 2056 3497 2209 2213 2211 3570 7945 10358 
10 711 7695 690 7782 10531 10378 881 10532 10207 10074 
10 2995 726 3038 7695 10610 10112 3091 10288 10348 10347 
10 1820 1808 175 2082 1862 1860 1858 10611 10612 2153 
10 7595 7655 7714 7748 8011 9713 9540 8014 8016 9965 
10 2054 2011 2086 7816 2241 2242 2243 8553 10027 8304 
10 3008 3018 2959 7678 3221 3212 3218 10033 10149 10366 
10 2025 7673 2116 7770 8197 9347 2416 8425 8427 10569 
10 2533 2586 7755 7797 2849 8663 10613 10606 9758 9760 
10 2099 2019 2048 7791 2342 2347 2161 10361 9931 9702 
10 3477 7660 7715 7776 10615 9939 10614 10616 8642 10557 
10 3436 3465 3517 7790 3766 3562 3759 9868 8927 10363 
10 2500 2561 2516 7775 2914 2777 2913 7887 10575 10502 
10 2051 2085 7711 7816 2379 10088 9632 10030 10603 8599 
10 3458 3482 3441 7673 3749 3820 3821 9283 8976 10244 
10 699 714 109 3023 754 753 749 10369 9942 3084 
10 717 84 704 3494 785 787 789 9863 3649 10079 
10 715 96 700 2547 769 765 770 10145 2610 10590 
10 7593 7625 7699 7819 10515 9657 9955 10271 9747 9749 
10 3023 714 110 2995 9942 752 3083 3088 10287 3087 
10 2555 2502 7661 7758 2927 9135 9669 10561 9136 7932 
10 2543 7720 2484 7797 8508 10056 2738 10302 9921 9849 
10 3494 3443 3466 7767 3836 3837 3653 9864 9197 10387 
10 7611 7651 7740 7774 9847 7950 8684 9499 7894 9367 
10 3505 3463 7719 7812 3738 10042 10516 10518 10044 10046 
10 2585 7773 2501 7793 10617 10433 2920 10618 9876 10435 
10 2013 7721 2072 7722 10570 10407 2267 10076 9820 10573 
10 2992 2974 3019 7677 3378 3379 3216 9204 8708 10529 
10 691 703 719 7706 887 847 888 9051 10134 8949 
10 3031 2968 2997 7692 3326 3324 3325 9142 9597 10542 
10 7587 7807 7701 7817 7861 8087 8821 9667 10489 8963 
10 3472 3505 7642 7812 3743 10571 8094 8516 10518 8517 
10 2570 2510 2489 7659 2802 2800 2801 9838 9407 9146 
10 1803 1828 1791 7818 1856 1931 1938 9887 8900 8526 
10 3469 3535 3432 7779 3714 3715 3713 9801 9591 9954 
10 7594 7745 7677 7766 10251 10007 8056 10193 10586 10003 
10 3462 7741 3430 7794 10619 8145 3682 10620 9916 10373 
10 1808 1796 1824 7791 1992 1993 1952 10383 9960 9570 
10 2483 7662 2528 7784 8348 8755 2725 10562 8796 9394 
10 1794 1826 7743 7790 1976 9223 9354 9355 9225 9224 
10 2553 2584 2483 7728 2732 2733 2727 10419 7980 8930 
10 703 691 716 7706 887 886 805 10134 9051 9337 
10 3520 7648 2575 7763 8528 9892 9891 10621 9985 10592 
10 2012 7651 2095 7774 9384 8294 2254 10591 7894 8814 
10 7593 7706 7625 7819 10396 9839 10515 10271 10173 9747 
10 2534 7672 2497 7797 10180 10457 2898 10181 9393 9759 
10 7623 7693 7677 7765 10316 9999 7992 8841 10321 9156 
10 1817 1812 1790 7674 1923 1921 1922 10037 8689 8735 
10 2558 2494 2523 7737 2862 2863 2861 7907 8272 10549 
10 7623 7678 7693 7765 8074 10032 10316 8841 9048 10321 
10 3445 3505 3463 7719 3851 3738 3850 9909 10516 10042 
10 7720 7646 7775 7820 9734 10473 8510 10013 10012 10503 
10 2588 2512 2490 7749 2818 2816 2817 9751 8036 9358 
10 7741 3489 7778 7794 10622 10601 10164 9916 10602 10436 
10 2518 2570 2489 7696 2624 2801 2808 9151 9928 10438 
10 2083 7750 2046 7757 10512 9085 2320 10477 9009 8462 
10 3526 3428 7746 7814 3663 10584 9425 9426 10585 8556 
10 7637 710 7752 7772 10508 10509 8891 9878 10623 10099 
10 2073 7682 2046 7750 10038 9292 2271 10039 9050 9085 
10 1826 1809 1797 7790 1975 1998 1999 9225 10495 9867 
10 2961 2982 3053 7686 3235 3238 3239 10269 8045 9851 
10 3485 2508 3454 7763 10553 8344 3620 10554 10183 9563 
10 3533 7715 7663 7776 10506 7924 10505 10624 10557 8637 
10 7605 7684 7783 7821 9127 9326 9170 8118 9346 10551 
10 2580 2523 2502 7737 2933 2932 2930 8023 10549 9649 
10 3482 3435 3474 7685 3748 3755 3754 8975 8864 9912 
10 2559 2498 2518 7696 2902 2901 2807 9750 8839 9151 
10 7592 7783 7684 7821 8579 9326 10246 10278 10551 9346 
10 3507 3449 3501 7709 3881 3878 3877 10524 8681 8330 
10 2531 2495 2588 7723 2876 2877 2823 8751 8745 9740 
10 2083 2053 2030 7757 2324 2446 2447 10477 9774 9934 
10 2561 7690 2527 7775 10574 8894 2785 10575 7889 10483 
10 7594 7677 7693 7766 8056 9999 10400 10193 10003 10002 
10 7730 7593 7772 7802 10324 10398 10548 10055 10395 8953 
10 2105 2100 2039 1835 2149 2329 2201 9531 10625 8539 
10 1813 1818 7743 7799 1926 9979 10391 10392 10560 10393 
10 7596 7675 7739 7798 10525 9430 10084 9137 8761 10085 
10 719 703 687 7802 847 849 848 8952 10135 10417 
10 2525 2558 2482 7793 2713 2714 2715 9093 9095 10430 
10 7661 7600 7737 7780 8535 8629 8022 8723 9265 8472 
10 7586 7717 7702 7786 10051 8505 9015 9016 9083 8173 
10 3483 3462 3430 7794 3681 3682 3680 10114 10620 10373 
10 2483 2540 2528 7662 2723 2724 2725 8348 9424 8755 
10 1835 3045 2985 3051 10626 3276 8449 9533 3173 3131 
10 1836 2570 2510 2576 10627 2802 9405 10628 2621 2673 
10 3060 2995 2967 7695 3318 3316 3317 10165 10288 10405 
10 2506 2583 2496 7670 2884 2885 2883 9398 9034 9124 
10 3039 3017 2971 7670 3161 3361 3362 10125 8706 8244 
10 3447 3470 7708 7814 3862 9937 10478 9957 9938 9375 
10 7647 7772 7730 7807 10098 10548 10461 9992 10596 10275 
10 7647 7733 7772 7807 9579 10372 10098 9992 9991 10596 
10 2508 2539 2568 7763 2691 2867 2775 10183 10555 10507 
10 716 71 2049 2077 801 2140 10440 9334 2138 2142 
10 3468 3534 3439 7638 3698 3798 3797 8261 9623 10263 
10 3511 2079 2093 2036 10500 2228 10540 9994 2478 2411 
10 2042 2065 2024 7803 2333 2404 2403 9974 10022 10437 
10 2058 2101 3047 7745 2168 9825 10629 10301 10346 10345 
10 2963 3001 3034 7718 3261 3272 3267 10260 10064 10186 
10 3482 3474 3493 7729 3754 3676 3825 8977 9915 10384 
10 2536 2496 2553 7728 2886 2890 2892 9720 9126 10419 
10 7627 7595 7714 7748 8961 9540 9962 9234 8014 9965 
10 2513 7668 2536 7784 10060 9719 2803 10061 8390 9754 
10 7677 2992 7753 7765 9204 9205 8574 9156 10565 9212 
10 7601 7698 7635 7796 8921 9549 10550 10630 9214 9833 
10 3006 3015 2958 7649 3207 3203 3206 8134 9321 10194 
10 3486 3477 7660 7715 3677 10615 9520 9860 10614 9939 
10 7693 7601 7695 7796 10317 10547 10160 10035 10630 10167 
10 234 2042 3016 2987 2195 9240 3121 3125 9973 3126 
10 2521 700 2547 7736 8559 10590 2611 8183 8560 10146 
10 3018 2975 2991 7678 3385 3384 3213 10149 8768 9474 
10 7650 7594 7693 7766 10191 10400 10157 10105 10193 10002 
10 2041 2070 2116 7673 2235 2420 2345 9492 10389 9347 
10 3472 3434 3505 7812 3731 3739 3743 8516 10422 10518 
10 3438 3460 3509 7767 3784 3782 3783 10424 10425 10426 
10 3493 3441 3482 7729 3823 3820 3825 10384 8820 8977 
10 3520 3534 7648 7763 3804 9622 8528 10621 10196 9985 
10 7601 7635 7695 7796 10550 10333 10547 10630 9833 10167 
10 3441 3458 7673 7770 3821 9283 10244 8859 10631 8427 
10 2573 3519 2530 7778 10370 10632 2679 9676 9784 10041 
10 2961 3010 7686 7748 3236 9666 10269 10270 9420 8434 
10 2072 2062 7722 7819 2275 10418 10573 10564 10465 10174 
10 2048 2027 2082 7762 2431 2429 2158 10252 10190 10633 
10 2568 7671 2525 7820 10294 8565 2784 10634 8916 8915 
10 2967 3060 7695 7796 3317 10165 10405 10292 10168 10167 
10 2991 7678 7747 7765 9474 8719 9475 10594 9048 9203 
10 2986 3046 2965 7659 3288 3289 3286 9418 10137 9572 
10 7656 7606 7739 7816 10126 7854 9971 8766 8306 8305 
10 2061 2112 2015 7712 2296 2297 2294 9966 10576 9882 
10 2021 2049 2114 7706 2370 2371 2372 10303 10441 9987 
10 2995 2972 3023 7695 3365 3366 3088 10288 10159 9944 
10 3002 3035 2975 7643 3259 3386 3387 8230 8716 8767 
10 2029 2089 2056 7642 2442 2313 2443 8593 9403 8095 
10 7618 7700 7731 7742 8738 9302 9601 10200 10379 10004 
10 3052 2986 1836 3046 3170 9416 10635 3186 3288 10636 
10 2547 715 97 2520 10145 768 2609 2614 10144 2613 
10 3513 3447 7708 7788 3861 10478 10309 10308 10118 10059 
10 2579 2590 2485 7758 2760 2752 2759 10451 8968 10445 
10 2094 232 3040 3025 2188 3117 9414 9415 3115 3119 
10 3429 3493 3474 7729 3669 3676 3675 9929 10384 9915 
10 7593 7625 7706 7802 10515 9839 10396 10395 9559 8954 
10 2530 2543 2492 7755 2845 2846 2847 10355 9162 9568 
10 7601 7782 7764 7809 10499 10416 8290 10148 10225 9856 
10 691 710 7637 7772 884 10508 9877 9052 10623 9878 
10 708 7713 7782 7813 10637 10209 10566 10567 10025 10339 
10 7678 7601 7693 7796 8073 10317 10032 9215 10630 10035 
10 2099 2106 2040 1837 2162 2240 2343 10638 9488 8423 
10 3517 1838 3523 3457 10639 9458 3563 3760 8403 3641 
10 3028 1819 213 2993 9766 1906 3177 3179 9765 3175 
10 698 691 710 7637 885 884 832 8588 9877 10508 
10 1821 200 2552 2518 1890 2625 7972 9150 2623 2627 
10 2974 3034 3001 7644 3380 3272 3381 8707 8571 10062 
10 3535 7675 3440 7785 9590 8732 3811 9121 9524 9523 
10 7681 7609 7709 7729 8596 8385 8595 9030 8620 8622 
10 7647 7764 7782 7809 9855 10416 10073 9582 9856 10225 
10 83 3494 717 7734 3648 9863 784 10640 9861 9862 
10 708 720 7713 7813 864 10024 10637 10567 10026 10025 
10 2561 2527 2487 7775 2785 2773 2778 10575 10483 10241 
10 2024 7652 7769 7810 9752 9443 9753 10605 9976 8467 
10 2547 2520 2497 7736 2614 2894 2893 10146 8495 9556 
10 3436 3457 3492 7634 3758 3639 3757 9495 8406 8487 
10 2511 2490 2545 7634 2813 2812 2710 8409 9357 8923 
10 2078 232 2094 3025 2184 2188 2189 8286 3115 9415 
10 2508 2527 309 3473 2688 2683 2687 8892 8893 3613 
10 2489 2559 7696 7784 2806 9750 10438 9147 10595 9395 
10 2075 2019 2040 7633 2341 2340 2239 9513 9490 8424 
10 2992 3019 2959 7677 3216 3217 3214 9204 10529 10319 
10 707 7730 7772 7802 10641 10548 10265 10266 10055 8953 
10 2509 3002 282 2526 8882 3141 2647 2649 8229 2645 
10 2054 2097 2016 7771 2312 2303 2310 8152 9268 9195 
10 7592 7747 7654 7821 9202 8356 8725 10278 8359 8119 
10 1832 1801 1793 7815 1961 1959 1960 10139 10314 10065 
10 2546 2489 2510 7659 2799 2800 2671 9526 9146 9407 
10 2549 2566 3495 313 2700 10474 9133 2695 2699 3625 
10 1815 1811 7700 7818 1916 9298 9371 9372 9808 8256 
10 3503 3526 3428 7746 3665 3663 3666 9046 9425 10584 
10 2552 2519 201 1821 2630 2628 2626 7972 8448 1889 
10 3469 3507 3448 7746 3712 3874 3875 9800 10470 9324 
10 2534 2491 2587 7672 2835 2831 2836 10180 9484 9662 
10 3004 2974 3026 7745 3383 3382 3101 10588 10006 9381 
10 2557 7773 2524 7793 10544 10203 2854 10546 9876 10642 
10 2518 2489 2559 7696 2808 2806 2807 9151 10438 9750 
10 2114 2021 7706 7819 2372 10303 9987 10172 10218 10173 
10 3445 3472 3505 7642 3853 3743 3851 9908 8094 10571 
10 7642 7719 7589 7812 9870 9755 9869 8517 10046 9879 
10 2061 7712 2084 7774 9966 10643 2295 7893 8972 10215 
10 3488 315 2542 2512 3631 2701 9606 10129 2707 2706 
10 109 2996 699 3023 3080 8908 749 3084 3085 10369 
10 2088 2028 2055 7644 2436 2437 2326 8459 9281 8810 
10 704 84 3466 3494 787 3651 10386 10079 3649 3653 
10 700 96 2521 2547 765 2606 8559 10590 2610 2611 
10 3061 2996 2972 7650 3304 3368 3369 10102 8909 10101 
10 1811 1790 7700 7731 1917 8737 9298 9301 9600 9302 
10 2109 2085 2051 7816 2247 2379 2458 10299 10603 10030 
10 2995 3060 2972 7695 3318 3367 3365 10288 10165 10159 
10 702 714 690 7695 757 878 882 10429 9943 10378 
10 3490 3430 3480 7719 3687 3690 3693 10313 8177 9249 
10 3440 3535 3469 7675 3811 3714 3810 8732 9590 9799 
10 2997 7692 3063 7806 10542 9510 3226 10543 9181 10558 
10 2527 3498 308 3473 10523 3610 2684 8893 3614 3612 
10 227 2055 3026 3001 2173 10315 3100 3102 10063 3104 
10 2526 3002 281 2550 8229 3142 2644 2646 10357 2642 
10 254 3497 2056 3472 3570 10358 2211 3574 3575 8093 
10 2982 7686 2970 7810 8045 10415 3345 8048 8050 10439 
10 7597 7671 7775 7820 8058 9562 9561 9935 8916 10503 
10 2958 2978 7738 7768 3197 9160 10442 10195 9843 10210 
10 711 688 702 7695 860 862 861 10531 10206 10429 
10 2501 2585 7793 7820 2920 10618 10435 10459 10644 9448 
10 3532 3437 3480 7669 3775 3780 3781 9427 9447 8727 
10 692 720 708 7813 892 864 895 8995 10026 10567 
10 2568 2487 7671 7820 2776 10239 10294 10634 10645 8916 
10 3493 3429 3449 7709 3669 3670 3668 10486 9187 8681 
10 7612 7717 7661 7780 8515 8537 8497 8722 9266 8723 
10 7600 7661 7717 7780 8535 8537 8536 9265 8723 9266 
10 3496 259 3511 2079 3585 3589 3590 9690 2224 10500 
10 2037 2068 3455 7785 2219 10598 9295 10510 10599 10511 
10 2039 2018 2074 7803 2327 2328 2200 10535 10536 10453 
10 3004 2058 3047 7745 10587 10629 3098 10588 10301 10345 
10 1813 1793 1825 7815 1968 1963 1969 10580 10065 10581 
10 2513 2536 2489 7784 2803 2804 2805 10061 9754 9147 
10 711 685 708 7782 814 820 819 10532 10335 10566 
10 3468 3448 3501 7760 3871 3870 3694 8263 9333 8488 
10 2015 2052 2084 7712 2289 2290 2291 9882 9968 10643 
10 2527 2561 2500 7690 2785 2914 2916 8894 10574 7884 
10 2045 2013 2066 7721 2263 2264 2265 10267 10570 9308 
10 2020 2058 2073 7795 2360 2361 2362 9911 10496 10228 
10 3462 3489 7741 7794 3683 10622 10619 10620 10602 9916 
10 3011 2964 2987 7704 3279 3277 3278 10255 9576 9444 
10 2526 2499 2560 7643 2910 2908 2798 8231 8844 8845 
10 3504 3474 3435 7685 3756 3755 3752 9947 9912 8864 
10 3466 3443 3531 7767 3837 3838 3788 10387 9197 9208 
10 710 686 698 7752 831 833 832 10509 9736 8889 
10 3486 3429 3474 7660 3674 3675 3673 9520 9188 9913 
10 2069 2048 2019 7751 2349 2347 2348 8870 9701 9706 
10 7671 2487 7775 7820 10239 10241 9562 8916 10645 10503 
10 2013 2072 2062 7722 2267 2275 2272 10076 10573 10418 
10 2051 2014 2090 7710 2282 2283 2284 9631 9834 10212 
10 3018 2991 2959 7678 3213 3209 3212 10149 9474 10366 
10 2550 280 3005 3027 2641 3135 9410 8548 3139 3140 
10 7610 7675 7746 7798 8162 9047 8485 8204 8761 9139 
10 3510 3495 2566 313 3629 10474 8903 3627 3625 2699 
10 3026 226 2058 2080 3099 2166 10300 9379 2170 2171 
10 3019 7677 7745 7766 10529 10007 10530 10572 10003 10586 
10 3476 3498 307 2551 3611 3609 3607 10364 9610 2681 
10 1813 1818 1790 7743 1926 1927 1925 10391 9979 8812 
10 2081 253 3475 3497 2208 3567 8638 7945 3571 3572 
10 2995 702 726 7695 10607 760 10610 10288 10429 10348 
10 3530 3470 3447 7814 3661 3862 3863 9154 9938 9957 
10 2095 2012 2060 7651 2254 2260 2262 8294 9384 9038 
10 7601 7678 7698 7796 8073 8004 8921 10630 9215 9214 
10 3489 3438 7741 7778 3790 10423 10622 10601 9780 10164 
10 3010 2978 3022 7768 3409 3199 3352 9821 9843 10537 
10 71 2049 703 716 2140 10556 803 801 10440 805 
10 2974 3001 3026 7644 3381 3104 3382 8707 10062 9378 
10 3519 3476 2530 7778 3608 10604 10632 9784 10365 10041 
10 2541 2513 288 3017 2667 2668 2663 8702 10116 3159 
10 3509 704 3466 7767 10646 10386 3656 10426 9918 10387 
10 1813 7799 7731 7815 10392 9815 10390 10580 10519 9653 
10 2080 2055 2028 7644 2174 2437 2438 9377 8810 9281 
10 2988 288 2513 3017 3164 2668 10237 3165 3159 10116 
10 3064 2969 7714 7735 3340 9108 9961 10449 9019 9684 
10 2488 7759 2554 7773 8440 10482 2791 8480 8482 10485 
10 699 718 690 7650 834 880 879 8324 9694 9823 
10 706 685 711 7782 812 814 813 10071 10335 10532 
10 3004 3047 2966 7745 3098 3301 3306 10588 10345 10479 
10 2961 3036 3010 7748 3242 3245 3236 10270 8914 9420 
10 2087 2057 2018 7676 2339 2337 2336 9179 9478 9304 
10 2996 3023 2972 7650 3085 3366 3368 8909 9941 10101 
10 3027 3002 2975 7643 3143 3387 3388 8549 8230 8767 
10 3515 3471 3434 7689 3742 3741 3734 9072 8164 10490 
10 2056 2081 2029 7642 2213 2444 2443 8095 7944 8593 
10 2981 3039 3058 7670 3422 3364 3424 9399 10125 8657 
10 3477 3429 7660 7776 3678 9188 10615 10616 9189 8642 
10 3063 3054 2960 7806 3234 3232 3227 10558 10559 10647 
10 720 700 688 7713 857 859 858 10024 8558 10205 
10 3024 285 2548 3049 3154 2656 10648 3155 3150 10466 
10 2560 2517 2488 7759 2794 2792 2793 8847 9432 8440 
10 2037 255 2056 3472 2214 2212 2216 8771 3573 8093 
10 3011 2970 3022 7768 3350 3353 3354 10257 10328 10537 
10 2543 2533 7755 7797 2747 10613 9162 10302 10606 9760 
10 309 3454 2508 3473 3615 8344 2687 3613 3617 8892 
10 714 699 690 7650 754 879 878 9940 8324 9823 
10 3513 3447 3470 7708 3861 3862 3727 10309 10478 9937 
10 3445 3497 3472 7642 3852 3575 3853 9908 7943 8094 
10 2038 2055 228 3001 2177 2172 2176 10254 10063 3103 
10 2516 2567 7720 7775 2781 10095 10501 10502 10528 8510 
10 2483 2528 2553 7784 2725 2726 2727 10562 9394 10421 
10 2997 7801 3031 7806 10649 9143 3325 10543 10331 10380 
10 2499 2526 2550 7643 2910 2646 2909 8844 8231 8550 
10 2026 2063 2062 7722 2427 2273 2426 9988 9228 10418 
10 282 2983 3002 2509 3145 3146 3141 2647 9247 8882 
10 2026 2049 2077 7706 2421 2142 2422 9986 10441 9339 
10 2541 2565 2496 7670 2664 2881 2888 8705 9450 9124 
10 3022 2970 3010 7768 3353 3346 3352 10537 10328 9821 
10 2025 2116 2070 7770 2416 2420 2419 8425 10569 10568 
10 2523 2580 2558 7737 2933 2722 2861 10549 8023 7907 
10 702 690 711 7695 882 881 861 10429 10378 10531 
10 83 3467 3494 7734 3646 3650 3648 10640 8779 9861 
10 2994 2973 7688 7777 3375 10130 10305 10650 10411 10412 
10 7672 7608 7736 7797 10350 8169 8184 9393 10353 10161 
10 2484 2537 2517 7759 2736 2740 2741 9804 10219 9432 
10 2014 2064 7710 7769 2279 9906 9834 9835 9679 9114 
10 729 704 3509 7767 792 10646 10513 10016 9918 10426 
10 7601 7695 7713 7782 10547 10204 10498 10499 10207 10209 
10 3533 3459 3488 7663 3762 3635 3834 10505 7846 9607 
10 3459 315 3488 2512 3636 3631 3635 7843 2707 10129 
10 2093 3511 259 2079 10540 3589 2226 2228 10500 2224 
10 7725 7602 7756 7787 8466 8631 9664 10276 9530 10082 
10 2589 2523 2494 7737 2769 2863 2864 9993 10549 8272 
10 2542 2512 2588 7663 2706 2818 2880 9608 7848 9739 
10 1814 1794 1826 7743 1981 1976 1982 9319 9354 9223 
10 2548 285 2574 3049 2656 2654 2658 10466 3150 9132 
10 2539 3485 3520 7763 10552 3623 10651 10555 10554 10621 
10 3432 3507 3469 7779 3711 3712 3713 9954 10472 9801 
10 3506 3446 3462 7794 3857 3856 3723 9529 10456 10620 
10 2960 3007 3030 7680 3228 3229 3224 9643 8853 8545 
10 2588 2495 2542 7663 2877 2879 2880 9739 8743 9608 
10 3483 7788 3462 7794 9506 10652 3681 10114 10094 10620 
10 2982 3010 2970 7686 3237 3346 3345 8045 9666 10415 
10 213 2993 1819 1804 3175 9765 1906 1902 9983 1907 
10 3498 3476 3446 7778 3611 3860 3858 9613 10365 10454 
10 1805 200 1821 2518 1886 1890 1891 9698 2623 9150 
10 7665 7618 7725 7787 10199 8084 10375 8747 9387 10276 
10 2085 2022 2051 7711 2380 2378 2379 10088 8896 9632 
10 2112 2015 7712 7811 2297 9882 10576 10527 10409 9797 
10 2519 2540 2490 7749 2819 2820 2821 8340 9683 9358 
10 3006 2965 3015 7688 3296 3295 3207 8287 9257 9322 
10 2555 7667 2485 7758 9670 10296 2750 10561 10446 10445 
10 3465 3444 3499 7761 3847 3843 3559 10289 10178 10653 
10 2536 7728 2553 7784 9720 10419 2892 9754 8392 10421 
10 258 3496 3521 2079 3586 3587 3582 2223 9690 10467 
10 2516 2567 2537 7720 2781 2926 2735 10501 10095 10009 
10 7706 7593 7722 7819 10396 9819 9990 10173 10271 10174 
10 3472 2037 255 3455 8771 2214 3573 3578 9295 3577 
10 3485 3454 3514 7763 3620 3721 3801 10554 9563 8991 
10 2968 3063 2997 7692 3327 3226 3324 9597 9510 10542 
10 2495 2535 2507 7723 2871 2761 2872 8745 9421 9172 
10 2026 2114 2049 7706 2423 2371 2421 9986 9987 10441 
10 3001 228 2038 2984 3103 2176 10254 3107 3105 9059 
10 3459 3533 3436 7715 3762 3763 3761 7922 10506 9496 
10 2118 7711 2022 7735 10492 8896 2381 10522 9360 9231 
10 3533 3488 3442 7663 3834 3833 3828 10505 9607 9244 
10 3447 3471 3530 7689 3865 3866 3863 9956 8164 9004 
10 3441 3487 3458 7770 3822 3596 3821 8859 10654 10631 
10 2544 2491 2534 7672 2832 2835 2748 9081 9484 10180 
10 3512 3429 3477 7776 3671 3678 3679 10080 9189 10616 
10 1791 1811 1815 7818 1942 1916 1936 8526 9808 9372 
10 2057 2018 7676 7803 2337 9304 9478 10655 10536 9917 
10 3433 3506 3462 7794 3722 3723 3724 9191 9529 10620 
10 1792 1812 1817 7674 1955 1923 1949 8349 8689 10037 
10 3429 3486 3477 7660 3674 3677 3678 9188 9520 10615 
10 1790 1812 1815 7700 1921 1920 1915 8737 8692 9371 
10 2553 2532 2584 7728 2889 2938 2732 10419 8270 7980 
10 3021 2986 2965 7659 3169 3286 3287 9727 9418 9572 
10 685 707 7730 7772 816 10641 10460 10514 10265 10548 
10 3489 3430 3462 7741 3684 3682 3683 10622 8145 10619 
10 3009 3008 2959 7693 3220 3218 3219 10000 10031 10318 
10 2998 2969 3032 7714 3337 3338 3339 10128 9108 10169 
10 2987 234 2042 2074 3125 2195 9973 10504 2194 2197 
10 3521 2104 258 2079 10162 2221 3582 10467 2225 2223 
10 2543 2484 2533 7797 2738 2746 2747 10302 9849 10606 
10 3533 7663 3442 7776 10505 9244 3828 10624 8637 9245 
10 3039 2971 3058 7670 3362 3360 3364 10125 8244 8657 
10 2496 2532 2553 7728 2891 2889 2890 9126 8270 10419 
10 2575 2589 2494 7763 2870 2864 2869 10592 10593 8807 
10 2071 2042 2024 7810 2196 2403 2405 9243 9242 10605 
10 3016 2970 2987 7810 3351 3349 3126 9241 10439 9975 
10 2508 310 2539 3485 2686 2690 2691 10553 3618 10552 
10 2496 2565 2506 7670 2881 2882 2883 9124 9450 9398 
10 3455 3440 3515 7785 3806 3807 3733 10511 9523 9692 
10 283 3014 2983 2538 3148 3149 3144 2650 8216 9583 
10 2037 2097 2068 7785 2304 2396 2219 10510 8834 10599 
10 7676 7762 7619 7818 8983 9102 7958 9696 8901 9105 
10 3030 2960 7680 7806 3224 9643 8545 10235 10647 10236 
10 3500 3471 3447 7689 3740 3865 3864 10578 8164 9956 
10 2491 2544 2529 7698 2832 2833 2834 10232 8831 10243 
10 3465 3499 188 1809 3559 3554 3558 10493 10609 1876 
10 1808 2048 175 2082 10381 2157 1860 10612 2158 2153 
10 2016 2089 2045 7771 2306 2307 2305 9195 9404 10268 
10 3478 3442 3529 7776 3830 3831 3701 8259 9245 8576 
10 3519 3438 3476 7778 3785 3792 3608 9784 9780 10365 
10 2583 2485 2532 7667 2757 2755 2756 9035 10296 8196 
10 2500 2551 2527 7690 2915 2685 2916 7884 9611 8894 
10 2499 2529 2544 7698 2911 2833 2906 9288 10243 8831 
10 701 712 687 7802 845 844 846 9558 10464 10417 
10 2531 2556 2495 7723 2731 2875 2876 8751 9722 8745 
10 1806 1817 1797 7761 1950 1995 1996 9344 10656 10491 
10 2585 2525 7793 7820 2717 9093 10618 10644 8915 9448 
10 3499 187 1822 7761 3555 1873 10608 10653 10657 10583 
10 2014 2035 2064 7769 2277 2278 2279 9835 8431 9679 
10 2995 714 110 702 10287 752 3087 10607 757 756 
10 3433 3470 3514 7708 3728 3729 3720 7867 9937 8052 
10 733 2582 2564 7792 10659 2618 10658 10660 10661 9541 
10 3012 2991 7747 7765 3210 9475 10374 10450 10594 9203 
10 706 711 690 7782 813 881 883 10071 10532 10074 
10 3520 2575 2539 7763 9891 2694 10651 10621 10592 10555 
10 234 2074 2987 3020 2194 10504 3125 3123 10452 3127 
10 2998 3036 2961 7748 3241 3242 3240 10133 8914 10270 
10 2113 2085 2011 7816 2249 2246 2245 9021 10603 10027 
10 3490 3480 3437 7669 3693 3780 3778 10221 8727 9447 
10 2502 2562 2555 7661 2931 2934 2927 9135 9315 9669 
10 3527 733 729 7792 10663 793 10662 10664 10660 9553 
10 3031 2957 2999 7801 3189 3187 3188 9143 9890 8611 
10 3033 2964 7704 7805 3281 9576 9433 9829 10385 9830 
10 3502 3428 3526 7814 3658 3663 3664 9997 10585 9426 
10 3479 3489 3438 7741 3692 3790 3793 8191 10622 10423 
10 3045 2993 1804 7805 3176 9983 10665 10231 9984 9743 
10 3434 3471 3500 7689 3741 3740 3735 10490 8164 10578 
10 3513 3462 7788 7794 3725 10652 10308 10310 10620 10094 
10 2083 2046 2017 7757 2320 2318 2319 10477 8462 9609 
10 2992 3012 7753 7765 3215 10341 9205 10565 10450 9212 
10 1804 1829 3045 7805 1904 10666 10665 9743 10121 10231 
10 2082 174 1820 7762 2154 1857 10611 10633 10667 10469 
10 3010 2982 2961 7686 3237 3235 3236 9666 8045 10269 
10 2073 2046 2013 7750 2271 2268 2270 10039 9085 10077 
10 701 693 712 7734 897 896 845 9200 8880 10462 
10 2104 2023 2117 7785 2397 2392 2398 9044 8311 8850 
10 3050 3064 2980 7735 3344 3420 3417 9922 10449 9923 
10 715 692 705 7736 890 894 773 10147 8994 8170 
10 2108 2036 2079 7811 2479 2478 2475 10410 9996 10262 
10 317 3523 2577 2511 3547 9459 2599 2711 9461 2712 
10 3501 3448 3507 7657 3870 3874 3877 8327 9323 10471 
10 2052 7739 2086 7816 9970 8303 2391 10468 8305 8304 
10 3500 7689 3447 7788 10578 9956 3864 10401 9453 10118 
10 3431 3525 3534 7760 3704 3705 3697 10163 10015 9624 
10 3517 1809 1834 7790 10668 1881 9598 10363 10495 9686 
10 2099 1808 1831 7791 10669 1865 10360 10361 10383 9672 
10 2510 290 3052 2576 2672 3075 10670 2673 2602 10671 
10 2065 2018 2057 7803 2332 2337 2338 10022 10536 10655 
10 2017 2098 2053 7757 2317 2325 2323 9609 8267 9774 
10 2012 2095 2032 7774 2254 2255 2251 10591 8814 10058 
10 3433 3462 3513 7794 3724 3725 3726 9191 10620 10310 
10 7730 7603 7789 7807 8878 8182 10089 10275 7862 9149 
10 713 689 705 7754 873 875 874 10028 10132 8039 
10 2025 7770 2036 7811 8425 10226 2409 8187 8872 9996 
10 2568 2539 2494 7763 2867 2868 2866 10507 10555 8807 
10 2015 2084 2061 7712 2291 2295 2294 9882 10643 9966 
10 3449 3481 3493 7709 3880 3824 3668 8681 8468 10486 
10 3033 2964 3003 7704 3281 3283 3285 9433 9576 8520 
10 2045 2029 2072 7721 2440 2441 2266 10267 9836 10407 
10 705 97 715 2520 772 768 773 8494 2613 10144 
10 3022 2978 2958 7768 3199 3197 3198 10537 9843 10195 
10 711 708 7713 7782 819 10637 10577 10532 10566 10209 
10 2569 2488 2524 7773 2788 2796 2797 10202 8480 10203 
10 7730 7789 7647 7807 10089 10526 10461 10275 9149 9992 
10 2543 2516 2484 7720 2739 2737 2738 8508 10501 10056 
10 2988 2513 288 2546 10237 2668 3164 10277 2669 2665 
10 3527 729 3509 7792 10662 10513 3657 10664 9553 10427 
10 733 99 2564 2582 741 2615 10658 10659 2592 2618 
10 717 701 83 7734 786 782 784 9862 9200 10640 
10 720 688 708 7713 858 863 864 10024 10205 10637 
10 2113 7697 2085 7816 9020 10087 2249 9021 8554 10603 
10 2045 2072 2013 7721 2266 2267 2263 10267 10407 10570 
10 2041 3491 261 3458 10298 3595 2234 10297 3598 3597 
10 2090 2032 2084 7774 2466 2464 2462 10214 10058 10215 
10 2111 732 73 2092 9106 736 2119 2146 9211 2144 
10 730 107 3057 723 737 3065 8873 748 747 9946 
10 3473 3446 3506 7690 3859 3857 3730 8895 10455 9528 
10 2587 2521 2497 7736 2830 2896 2897 9952 8183 9556 
10 7638 7804 7708 7814 9468 9593 9220 8557 10589 9375 
10 2040 3522 2106 263 9485 9487 2240 2238 3544 2127 
10 2024 7769 2035 7810 9753 8431 2399 10605 8467 8107 
10 731 94 2581 722 745 2594 9297 764 763 9953 
10 86 3527 733 729 3541 10663 742 791 10662 793 
10 2067 3013 2103 7735 9368 10672 2183 8823 9369 10673 
10 2025 2036 2112 7811 2409 2412 2413 8187 9996 10527 
10 236 2105 2985 3051 2130 9532 3129 3071 9534 3131 
10 2522 2502 2555 7758 2928 2927 2749 10184 9136 10561 
10 2997 3030 2977 7806 3225 3400 3399 10543 10235 10344 
10 7652 7686 7769 7810 9061 8433 9443 9976 8050 8467 
10 3499 3464 187 7761 3556 3551 3555 10653 8647 10657 
10 3500 3434 7689 7812 3735 10490 10578 10402 10422 9901 
10 3507 3481 3449 7709 3716 3880 3881 10524 8468 8681 
10 3019 7745 2966 7766 10530 10479 3307 10572 10586 10563 
10 2110 3057 224 2101 8733 3067 2124 2165 9798 2164 
10 2581 3048 278 3056 9251 3133 2596 9091 3134 3070 
10 7608 7789 7764 7813 9237 9232 9235 8856 10091 10403 
10 3457 3523 317 2511 3641 3547 3640 9002 9461 2711 
10 2095 2061 2032 7774 2418 2463 2255 8814 7893 10058 
10 3430 3490 3463 7719 3687 3688 3686 8177 10313 10042 
10 2023 2086 2052 7739 2390 2391 2389 8186 8303 9970 
10 307 2530 3476 2551 2677 10604 3607 2681 2682 10364 
10 3005 280 2550 2529 3135 2641 9410 10242 2639 2643 
10 2059 253 3475 2081 2206 3567 9654 2210 2208 8638 
10 226 2058 3004 3026 2166 10587 3097 3099 10300 3101 
10 3485 2508 310 3454 10553 2686 3618 3620 8344 3616 
10 2524 2501 2585 7773 2919 2920 2921 10203 10433 10617 
10 2494 2539 2575 7763 2868 2694 2869 8807 10555 10592 
10 283 2538 2983 2509 2650 9583 3144 2648 2652 9247 
10 3052 290 2510 2986 3075 2672 10670 3170 3168 10533 
10 2118 2051 2022 7711 2285 2378 2381 10492 9632 8896 
10 7647 7764 7789 7813 9855 9232 10526 10337 10403 10091 
10 1818 1814 1790 7743 1930 1929 1927 9979 9319 8812 
10 2555 2532 2485 7667 2754 2755 2750 9670 8196 10296 
10 1810 201 2519 1821 1893 2628 8686 1894 1889 8448 
10 263 2040 3522 3456 2238 9485 3544 3601 8974 3602 
10 2105 172 2100 1835 2128 2148 2149 9531 1843 10625 
10 2973 3015 2994 7688 3376 3294 3375 10130 9322 10305 
10 2985 236 2039 2105 3129 2199 9042 9532 2130 2201 
10 1835 211 3045 3051 1844 3171 10626 9533 3073 3173 
10 2570 1836 198 2576 10627 1848 2619 2621 10628 2601 
10 2992 3012 3029 7753 3215 3397 3265 9205 10341 9457 
10 2564 728 733 7792 8608 777 10658 9541 9543 10660 
10 3015 2965 2994 7688 3295 3293 3294 9322 9257 10305 
10 3459 3492 315 2512 3637 3633 3636 7843 8486 2707 
10 1813 7731 1816 7815 10390 9651 1924 10580 9653 9652 
10 2110 68 730 724 2123 739 8866 10141 794 796 
10 1811 1790 1815 7700 1917 1915 1916 9298 8737 9371 
10 1809 3517 3465 7790 10668 3562 10493 10495 10363 8927 
10 2048 1808 2099 7791 10381 10669 2161 9702 10383 10361 
10 2082 2047 174 7762 2155 2150 2154 10633 8982 10667 
10 700 720 692 7736 857 892 891 8560 10023 8994 
10 3520 3485 2539 311 3623 10552 10651 3621 3619 2689 
10 2538 284 3014 2574 2651 3147 8216 2655 2653 8786 
10 3528 725 81 732 10155 778 3538 8931 780 735 
10 3056 726 112 731 10156 758 3069 9289 761 744 
10 2072 2059 2021 7819 2375 2373 2374 10564 9748 10218 
10 723 107 3057 3037 747 3065 9946 8785 3078 3079 
10 2984 3001 2963 7718 3107 3261 3260 9058 10064 10260 
10 707 719 687 7802 851 848 850 10266 8952 10417 
10 83 701 3467 7734 782 9198 3646 10640 9200 8779 
10 2563 2581 94 722 2605 2594 2604 9902 9953 763 
10 729 86 3527 3509 791 3541 10662 10513 3655 3657 
10 1807 1795 7777 7815 1987 9271 10329 10330 9274 9276 
10 2969 2998 3064 7714 3337 3244 3340 9108 10128 9961 
10 3032 2957 3055 7801 3194 3193 3195 10170 9890 9716 
10 3533 3477 7715 7776 3768 10614 10506 10624 10616 10557 
10 3484 2068 2104 7785 10597 2222 10674 10600 10599 9044 
10 3498 3446 3473 7690 3858 3859 3614 9612 10455 8895 
10 3457 317 2545 2511 3640 2709 10322 9002 2711 2710 
10 2501 2524 2554 7773 2919 2795 2918 10433 10203 10485 
10 2534 2497 2533 7797 2898 2899 2745 10181 9759 10606 
10 2985 236 2074 2039 3129 2198 10284 9042 2199 2200 
10 2986 290 2510 3021 3168 2672 10533 3169 3167 10534 
10 2075 2040 263 3456 2239 2238 2237 10323 8974 3601 
10 2585 2525 2482 7793 2717 2715 2716 10618 9093 10430 
10 2536 2553 2528 7784 2892 2726 2809 9754 10421 9394 
10 3513 3462 3483 7788 3725 3681 3869 10308 10652 9506 
10 2501 2525 2585 7820 2923 2717 2920 10459 8915 10644 
10 2528 2559 2489 7784 2811 2806 2810 9394 10595 9147 
10 2090 2014 2064 7710 2283 2279 2287 10212 9834 9906 
10 2033 2118 2103 7735 2471 2388 2468 10521 10522 10673 
10 3532 3443 3467 7734 3840 3839 3776 9428 8672 8779 
10 3052 1836 216 3046 10635 1850 3076 3186 10636 3184 
10 2061 2084 2032 7774 2295 2464 2463 7893 10215 10058 
10 3012 2991 3042 7747 3210 3255 3398 10374 9475 8355 
10 2092 732 73 727 9211 736 2144 9725 809 807 
10 2065 2057 2076 7740 2338 2259 2408 9440 9479 9362 
10 3523 3517 190 1838 3563 3560 3546 9458 10639 1845 
10 2106 2099 177 1837 2162 2159 2126 9488 10638 1839 
10 2016 2096 2054 7771 2309 2311 2310 9195 9772 8152 
10 3501 3431 3468 7760 3695 3696 3694 8488 10163 8263 
10 7608 7754 7789 7813 8040 8542 9237 8856 8858 10091 
10 3005 3018 2967 7796 3320 3321 3319 9832 10150 10292 
10 2091 68 2110 724 2131 2123 2133 8937 794 10141 
10 3028 214 1819 7777 3178 1905 9766 9768 10675 9769 
10 712 7730 707 7802 10463 10641 818 10464 10055 10266 
10 81 3508 725 3528 3642 9077 778 3538 3644 10155 
10 726 112 3038 3056 758 3089 10112 10156 3069 3092 
10 2537 2484 2516 7720 2736 2737 2735 10009 10056 10501 
10 1829 211 3045 1835 1900 3171 10666 1901 1844 10626 
10 3520 3439 3534 7763 3803 3798 3804 10621 10264 10196 
10 3535 3440 3521 7785 3811 3814 3815 9121 9523 9285 
10 1816 1790 1811 7731 1919 1917 1918 9651 9600 9301 
10 2017 2053 2083 7757 2323 2324 2319 9609 9774 10477 
10 2024 2076 2064 7769 2406 2407 2400 9753 9364 9679 
10 2570 1827 198 1836 9893 1884 2619 10627 1885 1848 
10 691 707 710 7772 889 815 884 9052 10265 10623 
10 709 685 712 7730 824 817 823 9305 10460 10463 
10 2052 2086 2109 7816 2391 2250 2461 10468 8304 10299 
10 3513 3470 3433 7708 3727 3728 3726 10309 9937 7867 
10 3462 3446 3489 7794 3856 3855 3683 10620 10456 10602 
10 733 697 729 7792 905 868 793 10660 9554 9553 
10 710 706 7752 7772 811 10070 10509 10623 10097 10099 
10 311 2539 3520 2575 2689 10651 3621 2693 2694 9891 
10 2574 284 3014 3049 2653 3147 8786 9132 3151 3152 
10 2515 2564 2582 7792 2838 2618 2956 9926 9541 10661 
10 713 709 7754 7813 825 8457 10028 10029 10234 8858 
10 3013 2969 3050 7735 3335 3343 3113 9369 9019 9922 
10 2101 3057 224 3047 9798 3067 2164 9825 3095 3093 
10 3048 278 2572 2581 3133 2635 9546 9251 2596 2637 
10 3013 3050 2103 7735 3113 10676 10672 9369 9922 10673 
10 2068 2097 2023 7785 2396 2394 2395 10599 8834 8311 
10 1806 1822 187 7761 1875 1873 1871 9344 10583 10657 
10 3521 3484 2104 7785 3584 10674 10162 9285 10600 9044 
10 3479 3430 3489 7741 3691 3684 3692 8191 8145 10622 
10 2071 233 3016 7810 2191 3120 9239 9243 10677 9241 
10 99 2564 728 733 2615 8608 774 741 10658 777 
10 315 3492 2545 2512 3633 8922 2705 2707 8486 2708 
10 1834 1794 1802 7790 1974 1972 1973 9686 9355 9687 
10 3019 3004 2966 7745 3308 3306 3307 10530 10588 10479 
10 685 706 710 7772 812 811 810 10514 10097 10623 
10 261 2041 2075 3491 2234 2236 2232 3595 10298 9596 
10 2959 2991 3012 7765 3209 3210 3211 10320 10594 10450 
10 2546 288 2988 3021 2665 3164 10277 9728 3163 3166 
10 2068 2023 2104 7785 2395 2397 2222 10599 8311 9044 
10 3445 3463 3490 7719 3850 3688 3849 9909 10042 10313 
10 1791 1815 1803 7818 1936 1937 1938 8526 9372 9887 
10 2555 2485 2522 7758 2750 2751 2749 10561 10445 10184 
10 2100 172 1828 1835 2148 1851 9373 10625 1843 1853 
10 2522 2485 2590 7758 2751 2752 2753 10184 10445 8968 
10 3512 3442 3478 7776 3826 3830 3829 10080 9245 8259 
10 2497 2521 2547 7736 2896 2611 2893 9556 8183 10146 
10 3460 3527 3509 7792 3897 3657 3782 9782 10664 10427 
10 317 2545 3492 3457 2709 8922 3638 3640 10322 3639 
10 1803 1820 174 7762 1859 1857 1855 9886 10469 10667 
10 2997 2960 3030 7806 3223 3224 3225 10543 10647 10235 
10 685 707 712 7730 816 818 817 10460 10641 10463 
10 3004 3019 2974 7745 3308 3379 3383 10588 10530 10006 
10 697 733 728 7792 905 777 866 9554 10660 9543 
10 2585 2524 7773 7793 2921 10203 10617 10618 10642 9876 
10 3509 3466 3438 7767 3656 3787 3783 10426 10387 10424 
10 3044 2984 2963 7718 3263 3260 3262 9822 9058 10260 
10 1831 1792 1800 7791 1948 1946 1947 9672 9500 9673 
10 3534 3468 3431 7760 3698 3696 3697 9624 8263 10163 
10 2062 2063 2013 7722 2273 2274 2272 10418 9228 10076 
10 1834 190 3517 1838 1880 3560 9598 1882 1845 10639 
10 177 2099 1831 1837 2159 10360 1864 1839 10638 1866 
10 3003 2964 3011 7704 3283 3279 3284 8520 9576 10255 
10 2074 236 2985 3020 2198 3129 10284 10452 3128 3130 
10 2541 287 3039 3017 2662 3156 10432 8702 3160 3161 
10 689 709 721 7754 876 877 871 10132 8457 8456 
10 2568 2525 2487 7820 2784 2783 2776 10634 8915 10645 
10 263 3491 2075 3456 3599 9596 2237 3601 3600 10323 
10 2546 2510 290 3021 2671 2672 2670 9728 10534 3167 
10 1832 1793 1807 7815 1960 1967 1913 10139 10065 10330 
10 2117 2023 2052 7739 2392 2389 2293 9778 8186 9970 
10 3455 3484 3440 7785 3581 3805 3806 10511 10600 9523 
10 3509 704 85 3466 10646 788 3654 3656 10386 3652 
10 2563 95 2521 700 2603 2607 2608 10678 766 8559 
10 699 2996 108 3037 8908 3081 750 8323 3082 3077 
10 2959 3012 2992 7765 3211 3215 3214 10320 10450 10565 
10 2582 305 2573 7792 2593 2675 2676 10661 10679 9677 
10 2482 2580 2557 7793 2718 2719 2720 10430 7934 10546 
10 3453 3511 3441 7770 3818 3819 3817 8781 9948 8859 
10 1806 187 3464 7761 1871 3551 10680 9344 10657 8647 
10 3485 3439 3520 7763 3802 3803 3623 10554 10264 10621 
10 3519 305 3527 7792 3603 3540 3605 9785 10679 10664 
10 3034 2992 2963 7753 3268 3264 3267 8572 9205 10261 
10 3440 3484 3521 7785 3805 3584 3814 9523 10600 9285 
10 727 703 72 2049 808 804 806 10538 10556 2141 
10 3000 3059 3032 7694 3395 3196 3342 9627 9088 10182 
10 2517 2554 2488 7759 2790 2791 2792 9432 10482 8440 
10 3527 305 2582 7792 3540 2593 10681 10664 10679 10661 
10 1813 1816 1793 7815 1924 1965 1968 10580 9652 10065 
10 715 700 692 7736 770 891 890 10147 8560 8994 
10 3064 3050 2969 7735 3344 3343 3340 10449 9922 9019 
10 3485 3514 3439 7763 3801 3800 3802 10554 8991 10264 
10 2488 2554 2524 7773 2791 2795 2796 8480 10485 10203 
10 2517 2537 2554 7759 2740 2924 2790 9432 10219 10482 
10 1794 1814 1818 7743 1981 1930 1978 9354 9319 9979 
10 727 72 2092 2049 806 2143 9725 10538 2141 2145 
10 1832 216 1836 3046 1911 1850 1914 10138 3184 10636 
10 1803 174 2047 7762 1855 2150 10682 9886 10667 8982 
10 2045 2096 2016 7771 2308 2309 2305 10268 9772 9195 
10 2960 2997 3063 7806 3223 3226 3227 10647 10543 10558 
10 108 723 699 3037 746 751 750 3077 8785 8323 
10 3443 3494 3467 7734 3836 3650 3839 8672 9861 8779 
10 722 95 2563 700 762 2603 9902 767 766 10678 
10 704 85 729 3509 788 790 792 10646 3654 10513 
10 2019 2116 2060 7751 2346 2351 2350 9706 9348 9040 
10 309 2527 308 3473 2683 2684 322 3613 8893 3612 
10 282 3002 281 2526 3141 3142 295 2645 8229 2644 
10 2982 2970 3040 7810 3345 3347 3348 8048 10439 9238 
10 2024 2035 2094 7810 2399 2401 2402 10605 8107 9246 
10 2035 2024 2064 7769 2399 2400 2278 8431 9753 9679 
10 688 711 708 7713 860 819 863 10205 10577 10637 
10 2495 2556 2535 7723 2875 2878 2871 8745 9722 9421 
10 685 710 707 7772 810 815 816 10514 10623 10265 
10 3533 3477 3436 7715 3768 3767 3763 10506 10614 9496 
10 3466 3531 3438 7767 3788 3789 3787 10387 9208 10424 
10 2588 2490 2531 7749 2817 2822 2823 9751 9358 8753 
10 3466 704 85 84 10386 788 3652 3651 787 91 
10 96 2521 95 700 2606 2607 102 765 8559 766 
10 108 699 109 2996 750 749 115 3081 8908 3080 
10 1807 1816 1795 7815 1966 1986 1987 10330 9652 9274 
10 1816 1813 1790 7731 1924 1925 1919 9651 10390 9600 
10 3464 3444 3504 7761 3844 3845 3751 8647 10178 10286 
10 2570 199 1805 2518 2620 1887 10368 2624 2622 9698 
10 3045 2993 212 1804 3176 3174 3172 10665 9983 1903 
10 3519 2573 305 7792 10370 2675 3603 9785 9677 10679 
10 72 703 71 2049 804 803 78 2141 10556 2140 
10 3487 2093 2070 7770 10684 2231 10683 10654 10541 10568 
10 2053 2085 2113 7697 2383 2249 2448 9773 10087 9020 
10 3489 3476 3438 7778 3791 3792 3790 10601 10365 9780 
10 212 1829 3045 1804 1899 10666 3172 1903 1904 10665 
10 1827 199 1805 2570 1883 1887 1888 9893 2620 10368 
10 3028 2994 214 7777 3182 3180 3178 9768 10650 10675 
10 2565 287 3039 2541 2660 3156 10124 2664 2662 10432 
10 3007 3041 2978 7738 3359 3200 3407 8854 9511 9160 
10 3446 3476 3489 7778 3860 3791 3855 10454 10365 10601 
10 685 709 713 7813 824 825 822 10338 10234 10029 
10 3428 3470 3530 7814 3660 3661 3662 10585 9938 9154 
10 2050 69 2091 724 2134 2132 2136 8936 795 8937 
10 200 1805 199 2518 1886 1887 206 2623 9698 2622 
10 2993 213 212 1804 3175 219 3174 9983 1902 1903 
10 2076 2057 2012 7740 2259 2256 2253 9362 9479 9383 
10 2022 2067 2103 7735 2385 2183 2387 9231 8823 10673 
10 2027 2087 2047 7762 2430 2335 2428 10190 9180 8982 
10 3038 2995 111 726 3091 3086 3090 10112 10610 759 
10 725 82 3467 3508 779 3645 9078 9077 3643 3647 
10 718 686 706 7752 835 837 838 9695 9736 10070 
10 2564 98 728 2520 2616 775 8608 2617 2612 8607 
10 2093 2036 2025 7770 2411 2409 2410 10541 10226 8425 
10 2112 2108 2015 7811 2299 2298 2297 10527 10410 10409 
10 2055 227 228 3001 2173 241 2172 10063 3102 3103 
10 2056 255 254 3472 2212 268 2211 8093 3573 3574 
10 2991 3035 2962 7747 3252 3253 3251 9475 8718 9013 
10 214 1807 1819 7777 1909 1910 1905 10675 10329 9769 
10 3040 3016 233 7810 3122 3120 3118 9238 9241 10677 
10 2071 2094 233 7810 2192 2187 2191 9243 9246 10677 
10 2557 2524 2585 7793 2854 2921 2721 10546 10642 10618 
10 2964 3045 2985 7805 3275 3276 3273 10385 10231 10230 
10 2586 2492 2533 7755 2843 2848 2849 8663 9568 10613 
10 3469 3448 3526 7746 3875 3873 3876 9800 9324 9425 
10 3008 3060 2967 7796 3323 3317 3322 10034 10168 10292 
10 3486 3436 3477 7715 3764 3767 3677 9860 9496 10614 
10 3492 315 2545 316 3633 2705 8922 3634 329 2704 
10 262 261 2075 3491 275 2232 2233 3594 3595 9596 
10 288 2546 289 3021 2665 2666 302 3163 9728 3162 
10 708 713 692 7813 821 893 895 10567 10029 8995 
10 2074 234 235 3020 2194 248 2193 10452 3123 3124 
10 3500 3447 3483 7788 3864 3868 3867 10401 10118 9506 
10 712 707 687 7802 818 850 844 10464 10266 10417 
10 2118 2022 2103 7735 2381 2387 2388 10522 9231 10673 
10 2013 2046 2066 7750 2268 2269 2264 10077 9085 9306 
10 316 2545 3492 317 2704 8922 3634 330 2709 3638 
10 289 2546 290 3021 2666 2670 303 3162 9728 3167 
10 2528 2489 2536 7784 2810 2804 2809 9394 9147 9754 
10 2075 263 262 3491 2237 276 2233 9596 3599 3594 
10 236 2074 235 3020 2198 2193 249 3128 10452 3124 
10 2047 173 1828 2100 2151 1852 10685 2152 2147 9373 
10 3464 3516 186 1830 3553 3548 3552 10686 8875 1868 
10 3519 2530 306 2573 10632 2678 3604 10370 2679 2674 
10 252 3518 2102 2059 3564 9872 2203 2205 9871 2207 
10 3005 279 2572 3048 3136 2636 10293 3137 3132 9546 
10 3047 225 2101 2058 3094 2163 9825 10629 2167 2168 
10 2099 176 1831 1808 2160 1863 10360 10669 1861 1865 
10 189 1834 3517 1809 1879 9598 3561 1877 1881 10668 
10 69 2050 70 698 2134 2135 76 797 8587 798 
10 214 2994 1807 7777 3180 10687 1909 10675 10650 10329 
10 3484 2068 257 2104 10597 2218 3579 10674 2222 2220 
10 3013 230 2067 2103 3109 2178 9368 10672 2182 2183 
10 3511 2093 3487 7770 10540 10684 3593 9948 10541 10654 
10 2093 2025 2070 7770 2410 2419 2231 10541 8425 10568 
10 3465 188 189 1809 3558 195 3557 10493 1876 1877 
10 2048 175 176 1808 2157 182 2156 10381 1860 1861 
10 2582 2573 2515 7792 2676 2840 2956 10661 9677 9926 
10 724 2050 69 698 8936 2134 795 799 8587 797 
10 111 2995 110 702 3086 3087 117 755 10607 756 
10 3487 3441 3511 7770 3822 3819 3593 10654 8859 9948 
10 3467 701 83 82 9198 782 3646 3645 781 89 
10 173 1828 1803 2047 1852 1856 1854 2151 10685 10682 
10 3503 3469 3526 7746 3808 3876 3665 9046 9800 9425 
10 726 2995 111 702 10610 3086 759 760 10607 755 
10 3487 2093 260 2070 10684 2227 3592 10683 2231 2229 
10 701 3467 725 82 9198 9078 783 781 3645 779 
10 2484 2534 2533 7797 2744 2745 2746 9849 10181 10606 
10 728 98 705 2520 775 771 776 8607 2612 8494 
10 1803 174 173 2047 1855 180 1854 10682 2150 2151 
10 97 705 98 2520 772 771 104 2613 8494 2612 
10 3477 3442 3512 7776 3827 3826 3679 10616 9245 10080 
10 1830 186 3464 1806 1868 3552 10686 1872 1870 10680 
10 2567 7775 2487 7820 10528 10241 2780 10096 10503 10645 
10 730 3057 5 2110 8873 3066 738 8866 8733 2122 
10 3056 7 2581 731 3068 2595 9091 9289 743 9297 
10 2978 3041 2958 7738 3200 3201 3197 9160 9511 10442 
10 2099 2048 176 1808 2161 2156 2160 10669 10381 1861 
10 3517 3465 189 1809 3562 3557 3561 10668 10493 1877 
10 3533 3442 3477 7776 3828 3827 3768 10624 9245 10616 
10 733 3527 2582 7792 10663 10681 10659 10660 10664 10661 
10 3009 2966 3061 7766 3309 3305 3310 10001 10563 10104 
10 2037 256 255 3455 2215 269 2214 9295 3576 3577 
10 2038 228 229 2984 2176 242 2175 9059 3105 3106 
10 2572 279 3005 2529 2636 3136 10293 2640 2638 10242 
10 3004 225 3047 2058 3096 3094 3098 10587 2167 10629 
10 2018 2042 2074 7803 2331 2197 2328 10536 9974 10453 
10 3464 186 187 1806 3552 193 3551 10680 1870 1871 
10 306 3476 2530 3519 3606 10604 2678 3604 3608 10632 
10 3518 252 3475 2059 3564 3568 3569 9871 2205 9654 
10 2519 202 201 1810 2629 208 2628 8686 1892 1893 
10 3444 3464 3499 7761 3844 3556 3843 10178 8647 10653 
10 2490 2540 2531 7749 2820 2728 2822 9358 9683 8753 
10 1834 1809 1794 7790 1881 1977 1974 9686 10495 9355 
10 1798 1813 1825 7799 2006 1969 2003 9076 10392 10579 
10 2992 3029 2963 7753 3265 3266 3264 9205 9457 10261 
10 2082 2027 2047 7762 2429 2428 2155 10633 10190 8982 
10 2539 3485 310 311 10552 3618 2690 2689 3619 324 
10 3014 283 284 2538 3148 297 3147 8216 2650 2651 
10 2085 2109 2011 7816 2247 2248 2246 10603 10299 10027 
10 3040 233 2094 7810 3118 2187 9414 9238 10677 9246 
10 1833 202 2571 1810 1896 2631 9896 1897 1892 9897 
10 1793 1816 1807 7815 1965 1966 1967 10065 9652 10330 
10 717 693 701 7734 898 897 786 9862 8880 9200 
10 2060 2069 2019 7751 2261 2348 2350 9040 8870 9706 
10 2994 1807 215 214 10687 1908 3181 3180 1909 221 
10 2036 2108 2112 7811 2479 2299 2412 9996 10410 10527 
10 3527 3460 3519 7792 3897 3786 3605 10664 9782 9785 
10 2533 2492 2543 7755 2848 2846 2747 10613 9568 9162 
10 685 713 708 7813 822 821 820 10338 10029 10567 
10 1792 1831 1808 7791 1948 1865 1954 9500 9672 10383 
10 2501 2567 2525 7820 2922 2782 2923 10459 10096 8915 
10 2062 2021 2114 7819 2376 2372 2377 10465 10218 10172 
10 3005 279 280 2529 3136 293 3135 10242 2638 2639 
10 3004 226 225 2058 3097 239 3096 10587 2166 2167 
10 2571 202 2519 1810 2631 2629 2633 9897 1892 8686 
10 306 2530 3476 307 2678 10604 3606 320 2677 3607 
10 3475 252 253 2059 3568 266 3567 9654 2205 2206 
10 2046 2083 2066 7750 2320 2453 2269 9085 10512 9306 
10 2115 2020 2063 7795 2358 2363 2364 10049 9911 9352 
10 732 4 3528 2111 734 3537 8931 9106 2120 9031 
10 3527 6 733 2582 3539 740 10663 10681 2591 10659 
10 713 709 689 7754 825 876 873 10028 8457 10132 
10 2071 2024 2094 7810 2405 2402 2192 9243 10605 9246 
10 3016 3040 2970 7810 3122 3347 3351 9241 9238 10439 
10 3488 314 2542 315 3630 2702 9606 3631 328 2701 
10 2086 2011 2109 7816 2242 2248 2250 8304 10027 10299 
10 257 3521 3484 2104 3583 3584 3579 2220 10162 10674 
10 3050 230 3013 2103 3111 3109 3113 10676 2182 10672 
10 3470 3428 3502 7814 3660 3658 3659 9938 10585 9997 
10 2997 3055 3031 7801 3402 3192 3325 10649 9716 9143 
10 2042 2018 2065 7803 2331 2332 2333 9974 10536 10022 
10 2557 2585 2482 7793 2721 2716 2720 10546 10618 10430 
10 1820 1803 1796 7762 1859 1990 1991 10469 9886 9101 
10 287 2541 288 3017 2662 2663 301 3160 8702 3159 
10 1809 1826 1794 7790 1975 1976 1977 10495 9225 9355 
10 3033 2993 2964 7805 3282 3280 3281 9829 9984 10385 
10 1806 1797 1822 7761 1996 1997 1875 9344 10491 10583 
10 3511 260 3487 2093 3588 3592 3593 10540 2227 10684 
10 1824 1792 1808 7791 1953 1954 1952 9570 9500 10383 
10 310 2508 309 3454 2686 2687 323 3616 8344 3615 
10 2983 282 283 2509 3145 296 3144 9247 2647 2648 
10 1813 1798 1818 7799 2006 2004 1926 10392 9076 10560 
10 2962 3042 2991 7747 3254 3255 3251 9013 8355 9475 
10 2964 2993 3045 7805 3280 3176 3275 10385 9984 10231 
10 3019 2966 3009 7766 3307 3309 3222 10572 10563 10001 
10 2487 2516 2561 7775 2779 2777 2778 10241 10502 10575 
10 3505 3434 3463 7812 3739 3737 3738 10518 10422 10044 
10 3513 3483 3447 7788 3869 3868 3861 10308 9506 10118 
10 3018 3008 2967 7796 3221 3322 3321 10150 10034 10292 
10 2487 2567 2516 7775 2780 2781 2779 10241 10528 10502 
10 710 706 686 7752 811 837 831 10509 10070 9736 
10 2073 2063 2020 7795 2276 2363 2362 10228 9352 9911 
10 1819 1807 1795 7777 1910 1987 1983 9769 10329 9271 
10 5 3057 224 2110 3066 3067 237 2122 8733 2124 
10 2581 278 7 3056 2596 291 2595 9091 3070 3068 
10 3463 3434 3500 7812 3737 3735 3736 10044 10422 10402 
10 68 730 5 2110 739 738 74 2123 8866 2122 
10 3056 112 7 731 3069 119 3068 9289 744 743 
10 4 3528 81 732 3537 3538 87 734 8931 735 
10 6 733 86 3527 740 742 93 3539 10663 3541 
10 94 2581 7 731 2594 2595 100 745 9297 743 
10 3057 5 107 730 3066 113 3065 8873 738 737 
10 2567 2487 2525 7820 2780 2783 2782 10096 10645 8915 
10 2072 2021 2062 7819 2374 2376 2275 10564 10218 10465 
10 3487 2070 260 261 10683 2229 3592 3591 2230 274 
10 2994 3028 2973 7777 3182 3373 3375 10650 9768 10411 
10 3523 10 2577 1838 3545 2598 9459 9458 1846 9460 
10 3052 11 1836 2576 3074 1849 10635 10671 2600 10628 
10 1837 8 2106 3522 1840 2125 9488 9486 3543 9487 
10 1835 2105 9 3051 9531 2129 1842 9533 9534 3072 
10 733 6 99 2582 740 106 741 10659 2591 2592 
10 732 73 4 2111 736 80 734 9106 2119 2120 
10 2582 3527 6 305 10681 3539 2591 2593 3540 318 
10 251 3528 4 2111 3536 3537 264 2121 9031 2120 
10 2957 3031 3055 7801 3189 3192 3193 9890 9143 9716 
10 256 2068 257 3484 2217 2218 270 3580 10597 3579 
10 2067 229 230 3013 2179 243 2178 9368 3108 3109 
10 72 2092 73 727 2143 2144 79 806 9725 807 
10 203 2577 10 1838 2597 2598 210 1847 9460 1846 
10 11 1836 216 3052 1849 1850 223 3074 10635 3076 
10 2106 177 8 1837 2126 184 2125 9488 1839 1840 
10 3523 190 10 1838 3546 197 3545 9458 1845 1846 
10 1837 185 8 3522 1841 191 1840 9486 3542 3543 
10 2105 9 172 1835 2129 178 2128 9531 1842 1843 
10 198 1836 11 2576 1848 1849 204 2601 10628 2600 
10 211 1835 9 3051 1844 1842 217 3073 9533 3072 
10 311 3520 312 2575 3621 3622 325 2693 9891 2692 
10 284 2574 285 3049 2653 2654 298 3151 9132 3150 
10 723 108 107 3037 746 114 747 8785 3077 3078 
10 2563 94 95 722 2604 101 2603 9902 763 762 
10 85 86 729 3509 92 791 790 3654 3655 10513 
10 2071 233 234 3016 2191 247 2190 9239 3120 3121 
10 3521 257 258 2104 3583 271 3582 10162 2220 2221 
10 3050 231 230 2103 3112 244 3111 10676 2181 2182 
10 3045 1829 212 211 10666 1899 3172 3171 1900 218 
10 98 728 99 2564 775 774 105 2616 8608 2615 
10 1827 198 199 2570 1884 205 1883 9893 2619 2620 
10 2091 69 68 724 2132 75 2131 8937 795 794 
10 3508 725 82 81 9077 779 3643 3642 778 88 
10 3038 111 112 726 3090 118 3089 10112 759 758 
10 214 213 3028 1819 220 3177 3178 1905 1906 9766 
10 2552 201 200 1821 2626 207 2625 7972 1889 1890 
10 232 2078 231 3025 2184 2185 245 3115 8286 3114 
10 3495 312 2549 313 3624 2696 9133 3625 326 2695 
10 716 70 71 2077 800 77 801 9334 2137 2138 
10 188 3499 187 1822 3554 3555 194 1874 10608 1873 
10 1820 175 174 2082 1858 181 1857 10611 2153 2154 
10 3494 717 84 83 9863 785 3649 3648 784 90 
10 96 715 97 2547 769 768 103 2610 10145 2609 
10 714 110 109 3023 752 116 753 9942 3083 3084 
10 3040 233 232 2094 3118 246 3117 9414 2187 2188 
10 3496 258 259 2079 3586 272 3585 9690 2223 2224 
10 285 2548 286 3024 2656 2657 299 3154 10648 3153 
10 313 2566 3510 314 2699 8903 3627 327 2698 3628 
10 172 1828 173 2100 1851 1852 179 2148 9373 2147 
10 2102 252 251 3518 2203 265 2202 9872 3564 3565 
10 305 3519 306 2573 3603 3604 319 2675 10370 2674 
10 3516 185 186 1830 3549 192 3548 8875 1867 1868 
10 225 2101 224 3047 2163 2164 238 3094 9825 3093 
10 278 2572 279 3048 2635 2636 292 3133 9546 3132 
10 3027 280 281 2550 3139 294 3138 8548 2641 2642 
10 3026 227 226 2080 3100 240 3099 9379 2169 2170 
10 307 3498 308 2551 3609 3610 321 2681 9610 2680 
10 253 2081 254 3497 2208 2209 267 3571 7945 3570 
10 176 1831 177 2099 1863 1864 183 2160 10360 2159 
10 3517 189 190 1834 3561 196 3560 9598 1879 1880 
10 287 3039 286 2565 3156 3157 300 2660 10124 2659 
10 3046 1832 216 215 10138 1911 3184 3183 1912 222 
10 2571 203 202 1833 2632 209 2631 9896 1895 1896 
10 10 2577 317 3523 2598 2599 331 3545 9459 3547 
10 259 260 3511 2093 273 3588 3589 2226 2227 10540 
10 3522 8 2106 263 3543 2125 9487 3544 277 2127 
10 3052 290 11 2576 3075 304 3074 10671 2602 2600 
10 2105 236 9 3051 2130 250 2129 9534 3071 3072 
10 7718 7757 7683 7613 8268 10458 7832 7842 8269 7840 
10 7718 7683 7757 7588 7832 10458 8268 7831 7830 9008 
10 7737 7658 7793 7607 10688 7939 8024 7908 9793 9094 
10 7658 7737 7793 7661 10688 8024 7939 7938 8022 7935 
10 7658 7737 7707 7607 10688 8630 8619 9793 7908 8762 
10 7737 7658 7707 7661 10688 8619 8630 8022 7938 8534 
10 3037 7766 7650 2996 10689 10105 8325 3082 10444 8909 
10 7766 3037 7650 7626 10689 8325 10105 10192 8322 8326 
10 7766 3037 2966 2996 10689 3300 10563 10444 3082 3303 
10 3037 7766 2966 7626 10689 10563 3300 8322 10192 10227 
10 7793 2557 7758 2580 10546 10185 7936 7934 2719 7931 
10 7793 7758 2557 7658 7936 10185 10546 7939 7937 10545 
10 7694 2999 2976 3059 8117 3390 9783 9088 3191 3392 
10 7694 2976 2999 7654 9783 3390 8117 7942 9201 8114 
10 7608 7755 7789 7754 8041 10690 9237 8040 8042 8542 
10 7608 7789 7755 7645 9237 10690 8041 9236 8181 9163 
10 7615 7789 7755 7754 8430 10690 8055 8053 8542 8042 
10 7615 7755 7789 7645 8055 10690 8430 8428 9163 8181 
10 7775 7690 2508 7671 7889 8346 10240 9562 7865 8345 
10 7775 2508 7690 2527 10240 8346 7889 10483 2688 8894 
10 7697 2054 2030 7653 8110 2450 9932 8112 8108 9152 
10 7697 2030 2054 2113 9932 2450 8110 9020 2449 2244 
10 7718 7694 2969 7613 7833 9107 9018 7842 7841 9017 
10 7773 7636 2493 2569 8481 8699 10201 10202 9342 2856 
10 7773 2493 7636 7658 10201 8699 8481 9880 8713 8714 
10 7673 2025 2060 7651 8197 2414 9039 8199 8103 9038 
10 7673 2060 2025 2116 9039 2414 8197 9347 2351 2416 
10 7727 7691 7740 7611 9951 9216 8670 8683 9848 8684 
10 7691 7727 7740 7590 9951 8670 9216 9340 8665 8668 
10 7821 2962 3042 2999 9661 3254 8358 8120 3256 3257 
10 7821 3042 2962 7747 8358 3254 9661 8359 8355 9013 
10 7743 7634 1810 1794 8492 8685 9978 9354 9353 1980 
10 7743 1810 7634 7641 9978 8685 8492 8524 8687 8338 
10 7774 7611 7808 7710 9499 9619 8960 8956 8131 8959 
10 7611 7774 7808 7666 9499 8960 9619 9640 9130 9131 
10 7699 3445 3497 3475 9907 3852 7946 8639 3854 3572 
10 7699 3497 3445 7642 7946 3852 9907 7948 7943 9908 
10 7716 7683 7705 7585 9859 8090 9845 9260 10250 9438 
10 7716 7705 7683 7606 9845 8090 9859 8633 8933 8932 
10 7716 7804 7732 7585 9279 9595 9262 9260 9280 9261 
10 7804 7716 7732 7664 9279 9262 9595 9746 9286 9287 
10 7774 2084 7656 7712 10215 10691 8955 8972 10643 8971 
10 7774 7656 2084 7710 8955 10691 10215 8956 8957 10213 
10 7806 7680 7800 7598 10236 10692 9070 9068 9254 9066 
10 7806 7800 7680 7655 9070 10692 10236 9141 8077 8984 
10 7702 7800 7680 7598 8078 10692 9175 8500 9066 9254 
10 7702 7680 7800 7655 9175 10692 8078 8012 8984 8077 
10 7695 2972 3008 3060 10159 3370 10166 10165 3367 3323 
10 7695 3008 2972 7693 10166 3370 10159 10160 10031 10158 
10 7723 7612 2483 2556 8942 8347 9476 9722 8664 2730 
10 7723 2483 7612 7662 9476 8347 8942 8314 8348 7978 
10 7713 2563 2521 700 10693 2608 8150 8558 10678 8559 
10 2563 7713 2521 7635 10693 8150 2608 9903 8149 8148 
10 2563 7713 722 700 10693 10413 9902 10678 8558 767 
10 7713 2563 722 7635 10693 9902 10413 8149 9903 9025 
10 7767 7603 693 7734 8773 8649 9919 9555 8671 8880 
10 7767 693 7603 721 9919 8649 8773 8774 900 8454 
10 7799 7618 7743 7731 10694 8605 10393 9815 9601 9602 
10 7618 7799 7743 7641 10694 10393 8605 9386 8240 8524 
10 7618 7799 7787 7731 10694 9816 9387 9601 9815 9812 
10 7799 7618 7787 7641 10694 9387 9816 8240 9386 9388 
10 7812 3455 3515 7631 9464 3733 9900 8518 9296 8233 
10 7812 3515 3455 3434 9900 3733 9464 10422 3734 3732 
10 7776 7660 7756 7614 8642 9663 8790 8258 8641 8626 
10 7776 7756 7660 7602 8790 9663 8642 8996 8631 8881 
10 7670 2548 2579 7624 9400 2945 9158 9116 10539 9494 
10 7670 2579 2548 2506 9158 2945 9400 9398 2953 2952 
10 2493 7692 7758 2590 8700 8970 10356 2853 8966 8968 
10 7692 2493 7758 7658 8700 10356 8970 8712 8713 7937 
10 2510 3052 1836 2576 10670 10635 9405 2673 10671 10628 
10 7748 3030 2977 3036 8546 3400 10143 8914 3406 3404 
10 7748 2977 3030 7655 10143 3400 8546 8016 10142 8985 
10 2504 7692 3049 2574 10695 8827 8411 2942 8787 9132 
10 7692 2504 3049 7624 10695 8411 8827 8828 8413 8412 
10 7692 2504 2590 2574 10695 2946 8966 8787 2942 2860 
10 2504 7692 2590 7624 10695 8966 2946 8413 8828 8967 
10 1836 2510 2986 3052 9405 10533 9416 10635 10670 3170 
10 2510 1836 2986 7659 9405 9416 10533 9407 9409 9418 
10 7589 7689 7719 7640 9176 10696 9755 8750 9177 8178 
10 7589 7719 7689 7812 9755 10696 9176 9879 10046 9901 
10 7788 7719 7689 7640 9505 10696 9453 9451 8178 9177 
10 7788 7689 7719 7812 9453 10696 9505 10045 9901 10046 
10 7621 2034 3521 3451 8418 10697 9284 8417 8416 3887 
10 7621 3521 2034 2104 9284 10697 8418 9043 10162 2473 
10 2079 3521 2034 3451 10467 10697 2472 8415 3887 8416 
10 2079 2034 3521 2104 2472 10697 10467 2225 2473 10162 
10 7732 7703 7783 7684 9895 8581 9629 9866 10247 9326 
10 7703 7732 7783 7622 9895 9629 8581 8817 9263 8679 
10 7805 7590 7818 7628 10698 10020 9233 9688 10171 8902 
10 7590 7805 7818 7620 10698 9233 10020 10018 8531 8255 
10 7590 7805 7704 7628 10698 9830 9786 10171 9688 8801 
10 7805 7590 7704 7620 10698 9786 9830 8531 10018 8519 
10 7814 3439 3514 7638 10362 3800 9374 8557 10263 9219 
10 7814 3514 3439 3470 9374 3800 10362 9938 3729 3799 
10 3050 7735 2033 2103 9922 10521 8577 10676 10673 2468 
10 7735 3050 2033 7627 9922 8577 10521 9924 8578 8309 
10 1830 3464 7761 1806 10686 8647 8876 1872 10680 9344 
10 3464 1830 7761 3516 10686 8876 8647 3553 8875 8749 
10 7724 7681 7756 7586 8597 9699 9854 10052 10342 10053 
10 7681 7724 7756 7614 8597 9854 9699 9645 9184 8626 
10 2548 7624 2981 3024 10539 9588 9396 10648 9905 3421 
10 2548 2981 7624 7670 9396 9588 10539 9400 9399 9116 
10 7718 2969 3000 3044 9018 3341 9626 9822 3336 3271 
10 7718 3000 2969 7694 9626 3341 9018 7833 9627 9107 
10 7761 1817 1792 1806 10656 1949 8352 9344 1950 1951 
10 7761 1792 1817 7674 8352 1949 10656 8354 8349 10037 
10 2100 1835 1799 2039 10625 2007 9290 2329 8539 8540 
10 1835 2100 1799 1828 10625 9290 2007 1853 9373 1932 
10 3456 7633 1830 3516 8398 8874 10175 3746 8748 8875 
10 7633 3456 1830 1800 8398 10175 8874 8397 8396 1945 
10 7771 2089 2056 2016 9404 2313 8388 9195 2306 2302 
10 7771 2056 2089 7642 8388 2313 9404 8389 8095 9403 
10 7768 7649 7590 7727 9350 9787 9842 9074 8342 8665 
10 7768 7590 7649 7704 9842 9787 9350 9351 9786 8521 
10 7710 2084 2031 7656 10213 2460 9682 8957 10691 9681 
10 7710 2031 2084 2090 9682 2460 10213 10212 2456 2462 
10 2511 7634 1833 2571 8409 9899 10216 2814 9898 9896 
10 7634 2511 1833 1802 8409 10216 9899 8404 8408 1971 
10 7763 7737 2589 2494 8808 9993 10593 8807 8272 2864 
10 7763 2589 7737 7648 10593 9993 8808 9985 9574 8469 
10 7616 7680 7604 7702 8544 9190 8099 8029 9175 8172 
10 7616 7604 7680 7738 8099 9190 8544 8363 8129 8661 
10 7791 1792 1812 1824 9500 1955 9569 9570 1953 1956 
10 7791 1812 1792 7674 9569 1955 9500 9501 8689 8349 
10 7680 7806 3054 7624 10236 10559 9118 9119 10520 9117 
10 7680 3054 7806 2960 9118 10559 10236 9643 3232 10647 
10 7777 7659 7688 2994 10699 9573 10412 10650 10304 10305 
10 7659 7777 7688 7815 10699 10412 9573 10066 9276 10154 
10 7659 7777 3046 2994 10699 10151 10137 10304 10650 3185 
10 7777 7659 3046 7815 10699 10137 10151 9276 10066 10140 
10 2557 2493 7758 2522 2850 10356 10185 2851 2852 10184 
10 2493 2557 7758 7658 2850 10185 10356 8713 10545 7937 
10 7820 2501 2537 7646 10459 2925 10011 10012 10434 10010 
10 7820 2537 2501 2567 10011 2925 10459 10096 2926 2922 
10 7628 1829 7805 3045 10700 10121 9688 10229 10666 10231 
10 1829 7628 7805 1799 10700 9688 10121 1934 8452 9770 
10 2570 1836 1801 1827 10627 2009 9837 9893 1885 1957 
10 1836 2570 1801 2510 10627 9837 2009 9405 2802 9406 
10 7698 2491 2572 2529 10232 2827 9547 10243 2834 2640 
10 7698 2572 2491 7635 9547 2827 10232 9549 9545 9483 
10 7767 3438 3479 3531 10424 3793 9196 9208 3789 3794 
10 7767 3479 3438 7741 9196 3793 10424 9390 8191 10423 
10 7761 7617 1817 1797 10179 10036 10656 10491 9477 1995 
10 7761 1817 7617 7674 10656 10036 10179 8354 10037 8175 
10 3495 2575 2505 2549 10701 2947 8207 9133 2697 2948 
10 2575 3495 2505 3520 10701 8207 2947 9891 3626 8527 
10 2575 3495 312 2549 10701 3624 2692 2697 9133 2696 
10 3495 2575 312 3520 10701 2692 3624 3626 9891 3622 
10 7774 2012 2076 2032 10591 2253 9365 10058 2251 2252 
10 7774 2076 2012 7740 9365 2253 10591 9367 9362 9383 
10 7710 7711 2107 7627 9633 10702 9112 8962 10487 9111 
10 7710 2107 7711 2014 9112 10702 9633 9834 2280 10414 
10 2118 2107 7711 7627 2288 10702 10492 10394 9111 10487 
10 2118 7711 2107 2014 10492 10702 2288 2286 10414 2280 
10 3517 1838 1802 1834 10639 2010 9518 9598 1882 1973 
10 1838 3517 1802 3457 10639 9518 2010 8403 3760 8402 
10 2070 261 3458 2041 2230 3597 10388 2235 2234 10297 
10 261 2070 3458 3487 2230 10388 3597 3591 10683 3596 
10 7792 7767 3438 7615 10017 10424 9781 9542 9925 10233 
10 7792 3438 7767 3460 9781 10424 10017 9782 3784 10425 
10 7624 2979 2548 2504 8414 10703 10539 8413 8410 2943 
10 7624 2548 2979 3024 10539 10703 8414 9905 10648 3411 
10 3049 2548 2979 2504 10466 10703 3412 8411 2943 8410 
10 3049 2979 2548 3024 3412 10703 10466 3155 3411 10648 
10 3025 2103 2033 2078 10704 2468 8308 8286 2186 2467 
10 2103 3025 2033 3050 10704 8308 2468 10676 3116 8577 
10 2103 3025 231 2078 10704 3114 2181 2186 8286 2185 
10 3025 2103 231 3050 10704 2181 3114 3116 10676 3112 
10 698 70 2077 2050 798 2137 9764 8587 2135 2139 
10 70 698 2077 716 798 9764 2137 800 802 9334 
10 3518 2111 2044 3528 10705 2481 9022 3566 9031 8381 
10 2111 3518 2044 2102 10705 9022 2481 2204 9872 2369 
10 2111 3518 251 3528 10705 3565 2121 9031 3566 3536 
10 3518 2111 251 2102 10705 2121 3565 9872 2204 2202 
10 7656 2052 2084 2031 9969 2290 10691 9681 2459 2460 
10 7656 2084 2052 7712 10691 2290 9969 8971 10643 9968 
10 7779 7712 7811 7609 9090 9797 8142 8139 9055 7918 
10 7712 7779 7811 7621 9090 8142 9797 9881 8334 8335 
10 7777 2973 7805 2993 10411 10484 9744 9767 3372 9984 
10 2973 7777 7805 7620 10411 9744 10484 9412 9272 8531 
10 7770 2070 3458 7673 10568 10388 10631 8427 10389 9283 
10 7770 3458 2070 3487 10631 10388 10568 10654 3596 10683 
10 7748 3064 3053 2961 9964 3246 9853 10270 3243 3239 
10 7748 3053 3064 7627 9853 3246 9964 9234 9852 9963 
10 2981 3024 2565 2548 3421 10706 9449 9396 10648 2661 
10 2981 2565 3024 3039 9449 10706 3421 3422 10124 3158 
10 286 2565 3024 2548 2659 10706 3153 2657 2661 10648 
10 286 3024 2565 3039 3153 10706 2659 3157 3158 10124 
10 7760 3525 3529 3431 10015 3703 8742 10163 3704 3702 
10 7760 3529 3525 7632 8742 3703 10015 8160 8575 9480 
10 7762 2047 1828 2100 8982 10685 8899 9359 2152 9373 
10 7762 1828 2047 1803 8899 10685 8982 9886 1856 10682 
10 7801 3032 3059 7694 10170 3196 9089 8739 10182 9088 
10 7801 3059 3032 2957 9089 3196 10170 9890 3190 3194 
10 1835 1799 3045 1829 2007 10707 10626 1901 1934 10666 
10 1835 3045 1799 2985 10626 10707 2007 8449 3276 8450 
10 7628 3045 1799 1829 10229 10707 8452 10700 10666 1934 
10 7628 1799 3045 2985 8452 10707 10229 8451 8450 3276 
10 7773 2493 2557 2524 10201 2850 10544 10203 2855 2854 
10 7773 2557 2493 7658 10544 2850 10201 9880 10545 8713 
10 7777 2994 1832 3046 10650 10708 10152 10151 3185 10138 
10 7777 1832 2994 1807 10152 10708 10650 10329 1913 10687 
10 215 1832 2994 3046 1912 10708 3181 3183 10138 3185 
10 215 2994 1832 1807 3181 10708 1912 1908 10687 1913 
10 1830 3522 185 1837 10709 3542 1867 1869 9486 1841 
10 3522 1830 185 3516 10709 1867 3542 3550 8875 3549 
10 3522 1830 3456 1837 10709 10175 3602 9486 1869 8395 
10 1830 3522 3456 3516 10709 3602 10175 8875 3550 3746 
10 2099 1800 1837 2040 10710 2008 10638 2343 8422 8423 
10 1800 2099 1837 1831 10710 10638 2008 1947 10360 1866 
10 1800 2099 7633 2040 10710 10359 8397 8422 2343 8424 
10 2099 1800 7633 1831 10710 8397 10359 10360 1947 9671 
10 7803 7740 2057 2065 9738 9479 10655 10022 9440 2338 
10 7803 2057 7740 7676 10655 9479 9738 9917 9478 7959 
10 7655 7806 3055 2977 9141 10711 9711 10142 10344 3401 
10 7655 3055 7806 7801 9711 10711 9141 9714 9716 10331 
10 2997 3055 7806 2977 3402 10711 10543 3399 3401 10344 
10 2997 7806 3055 7801 10543 10711 3402 10649 10331 9716 
10 7815 7696 1825 7799 10067 10712 10581 10519 8242 10579 
10 7815 1825 7696 1793 10581 10712 10067 10065 1963 9828 
10 1805 1825 7696 7799 1962 10712 9465 9466 10579 8242 
10 1805 7696 1825 1793 9465 10712 1962 1964 9828 1963 
10 7797 7645 7764 7608 9920 8800 10582 10353 9236 9235 
10 7797 7764 7645 7639 10582 8800 9920 9392 8291 8247 
10 203 2577 1833 2571 2597 10713 1895 2632 2634 9896 
10 203 1833 2577 1838 1895 10713 2597 1847 1898 9460 
10 2511 1833 2577 2571 10216 10713 2712 2814 9896 2634 
10 2511 2577 1833 1838 2712 10713 10216 8407 9460 1898 
10 7659 1801 3046 1832 9408 10714 10137 10136 1961 10138 
10 7659 3046 1801 2986 10137 10714 9408 9418 3288 9417 
10 1836 3046 1801 1832 10636 10714 2009 1914 10138 1961 
10 1836 1801 3046 2986 2009 10714 10636 9416 9417 3288 
10 2082 7762 1808 2048 10633 10382 10612 2158 10252 10381 
10 2082 1808 7762 1820 10612 10382 10633 10611 1862 10469 
10 1809 7761 3499 1822 10494 10653 10609 1878 10583 10608 
10 1809 3499 7761 3465 10609 10653 10494 10493 3559 10289 
10 7779 3507 3481 3432 10472 3716 8362 9954 3711 3707 
10 7779 3481 3507 7709 8362 3716 10472 8386 8468 10524 
10 7818 1803 1796 1815 9887 1990 9104 9372 1937 1989 
10 7818 1796 1803 7762 9104 1990 9887 8901 9101 9886 
10 2542 314 3510 2566 2702 3628 9605 2703 2698 8903 
10 314 2542 3510 3488 2702 9605 3628 3630 9606 3632 
10 3455 256 2068 2037 3576 2217 10598 9295 2215 2219 
10 3455 2068 256 3484 10598 2217 3576 3581 10597 3580 
10 2067 229 2984 2038 2179 3106 9209 2180 2175 9059 
10 229 2067 2984 3013 2179 9209 3106 3108 9368 3110 
10 4121 10789 10800 10862 10961 10960 10959 10962 10963 10964 
10 5688 10745 10824 10869 10967 10966 10965 10968 10969 10970 
10 10800 4121 10862 10911 10959 10962 10964 10971 10972 10973 
10 10741 4341 10825 10874 10976 10975 10974 10977 10978 10979 
10 10716 10734 10820 10922 10982 10981 10980 10983 10984 10985 
10 5688 10799 10745 10869 10987 10986 10967 10968 10988 10969 
10 10734 10794 10820 10922 10990 10989 10981 10984 10991 10985 
10 10721 10789 10806 10862 10994 10993 10992 10995 10963 10996 
10 5307 10801 10789 10866 10999 10998 10997 11000 11001 11002 
10 4121 4153 10806 10862 4266 11004 11003 10962 11005 10996 
10 10721 10790 10734 10794 11008 11007 11006 11009 11010 10990 
10 10716 10820 10734 10939 10980 10981 10982 11011 11012 11013 
10 10716 10820 10794 10922 10980 10989 11014 10983 10985 10991 
10 10721 10794 10734 10922 11009 10990 11006 11015 10991 10984 
10 10749 4362 10852 10861 11018 11017 11016 11019 11020 11021 
10 10721 10734 10801 10922 11006 11023 11022 11015 10984 11024 
10 5675 10797 3928 10890 11027 11026 11025 11028 11029 11030 
10 4885 5679 10766 10840 11033 11032 11031 11034 11035 11036 
10 10759 10727 10782 10853 11039 11038 11037 11040 11041 11042 
10 10727 10759 10782 10802 11039 11037 11038 11043 11044 11045 
10 10789 4121 10800 10911 10961 10959 10960 11046 10972 10971 
10 10836 10730 10875 10900 11049 11048 11047 11050 11051 11052 
10 10790 10734 10794 10820 11007 10990 11010 11053 10981 10989 
10 10825 4427 10830 10874 11056 11055 11054 10979 11057 11058 
10 4840 10775 10813 10949 11061 11060 11059 11062 11063 11064 
10 10720 10754 10758 10798 11067 11066 11065 11068 11069 11070 
10 10789 4121 10806 10862 10961 11003 10993 10963 10962 10996 
10 10784 10735 10838 10877 11073 11072 11071 11074 11075 11076 
10 5349 10750 10786 10897 11079 11078 11077 11080 11081 11082 
10 10750 5349 10786 10953 11079 11077 11078 11083 11084 11085 
10 4394 10749 4362 10852 11086 11018 4798 11087 11016 11017 
10 10759 10782 10812 10853 11037 11089 11088 11040 11042 11090 
10 10784 10838 10854 10877 11071 11092 11091 11074 11076 11093 
10 10726 10836 10875 10900 11095 11047 11094 11096 11050 11052 
10 5688 10745 5662 10824 10967 11097 5885 10965 10966 11098 
10 10759 10782 10802 10812 11037 11045 11044 11088 11089 11099 
10 10732 10820 10828 10833 11102 11101 11100 11103 11104 11105 
10 10720 10754 10753 10758 11067 11107 11106 11065 11066 11108 
10 10715 10791 10838 10889 11111 11110 11109 11112 11113 11114 
10 10793 10723 10805 10845 11117 11116 11115 11118 11119 11120 
10 10721 10734 10790 10801 11006 11007 11008 11022 11023 11121 
10 4153 4141 10806 10862 4273 11122 11004 11005 11123 10996 
10 10754 10758 10798 10875 11066 11070 11069 11124 11125 11126 
10 10715 10791 10753 10838 11111 11128 11127 11109 11110 11129 
10 4394 10749 10852 10904 11086 11016 11087 11130 11131 11132 
10 10716 10734 10812 10939 10982 11134 11133 11011 11013 11135 
10 10820 10828 10833 10843 11101 11105 11104 11136 11137 11138 
10 3478 10897 10786 10926 11140 11082 11139 11141 11142 11143 
10 10789 10721 10800 10862 10994 11144 10960 10963 10995 10964 
10 3528 3461 4373 10752 3898 11146 11145 11147 11148 11149 
10 10717 10771 10780 10855 11152 11151 11150 11153 11154 11155 
10 10771 10725 10780 10855 11157 11156 11151 11154 11158 11155 
10 4382 10793 10805 10845 11160 11115 11159 11161 11118 11120 
10 10720 10753 10754 10783 11106 11107 11067 11162 11163 11164 
10 10715 10741 10791 10889 11166 11165 11111 11112 11167 11113 
10 5321 10778 10928 10946 11170 11169 11168 11171 11172 11173 
10 10791 10753 10838 10889 11128 11129 11110 11113 11174 11114 
10 10828 10745 10833 10843 11176 11175 11105 11137 11177 11138 
10 10732 10828 10792 10833 11100 11179 11178 11103 11105 11180 
10 10762 4123 10816 10887 11183 11182 11181 11184 11185 11186 
10 10725 10771 10856 10934 11157 11188 11187 11189 11190 11191 
10 10725 10771 10780 10856 11157 11151 11156 11187 11188 11192 
10 10725 10856 10780 10934 11187 11192 11156 11189 11191 11193 
10 3944 4373 3908 10752 11195 11194 4116 11196 11149 11197 
10 10734 10790 10801 10921 11007 11121 11023 11198 11199 11200 
10 10732 10796 10739 10833 11203 11202 11201 11103 11204 11205 
10 3906 3928 10797 10890 4106 11026 11206 11207 11030 11029 
10 10723 10759 10802 10812 11209 11044 11208 11210 11088 11099 
10 10723 10802 10782 10812 11208 11045 11211 11210 11099 11089 
10 10716 10812 10734 10922 11133 11134 10982 10983 11212 10984 
10 4343 10771 10795 10878 11215 11214 11213 11216 11217 11218 
10 3944 3908 3461 10752 4116 11220 11219 11196 11197 11148 
10 10781 10875 10730 10900 11222 11048 11221 11223 11052 11051 
10 4869 4840 10775 10813 5095 11061 11224 11225 11059 11060 
10 10715 10832 10741 10889 11227 11226 11166 11112 11228 11167 
10 4343 10795 10771 10856 11213 11214 11215 11229 11230 11188 
10 4415 10852 4362 10861 11231 11017 4799 11232 11021 11020 
10 10795 10771 10856 10952 11214 11188 11230 11233 11234 11235 
10 10719 10854 10742 10855 11238 11237 11236 11239 11240 11241 
10 4131 5305 4167 10762 11243 11242 4339 11244 11245 11246 
10 5318 10773 10801 10814 11249 11248 11247 11250 11251 11252 
10 10721 10801 10790 10866 11022 11121 11008 11253 11001 11254 
10 10801 10790 10866 10921 11121 11254 11001 11200 11199 11255 
10 10779 5294 10839 10897 11258 11257 11256 11259 11260 11261 
10 10804 10742 10854 10855 11263 11237 11262 11264 11241 11240 
10 10719 10804 10854 10855 11265 11262 11238 11239 11264 11240 
10 10732 10796 10833 10851 11203 11204 11103 11266 11267 11268 
10 4382 4361 10793 10845 4790 11269 11160 11161 11270 11118 
10 10793 10741 10832 10874 11272 11226 11271 11273 10977 11274 
10 5321 10928 10779 10946 11168 11276 11275 11171 11173 11277 
10 4844 4131 4167 10762 11279 4339 11278 11280 11244 11246 
10 10755 10826 10735 10941 11283 11282 11281 11284 11285 11286 
10 10733 10795 4392 10856 11289 11288 11287 11290 11230 11291 
10 5321 10778 4872 10928 11170 11293 11292 11168 11169 11294 
10 10732 10769 10764 10912 11297 11296 11295 11298 11299 11300 
10 10754 10798 10726 10875 11069 11302 11301 11124 11126 11094 
10 10732 10739 10820 10833 11201 11303 11102 11103 11205 11104 
10 10741 4444 10815 10918 11306 11305 11304 11307 11308 11309 
10 10735 10755 10783 10826 11281 11311 11310 11282 11283 11312 
10 10735 10826 10838 10941 11282 11313 11072 11286 11285 11314 
10 10732 10912 10764 10929 11298 11300 11295 11315 11316 11317 
10 5695 10784 10877 10883 11319 11074 11318 11320 11321 11322 
10 4876 5323 10786 10938 11325 11324 11323 11326 11327 11328 
10 5695 10877 10811 10883 11318 11330 11329 11320 11322 11331 
10 10741 10825 4444 10918 10974 11332 11306 11307 11333 11308 
10 10743 10834 10722 10922 11336 11335 11334 11337 11338 11339 
10 4394 4362 4415 10852 4798 4799 4737 11087 11017 11231 
10 3505 10807 3445 10831 11341 11340 3851 11342 11343 11344 
10 10763 4124 10809 10884 11347 11346 11345 11348 11349 11350 
10 5688 5630 10745 10799 6063 11351 10967 10987 11352 10986 
10 4341 4444 10741 10825 4576 11306 10976 10975 11332 10974 
10 4351 10752 10774 10795 11355 11354 11353 11356 11357 11358 
10 10726 10798 10754 10810 11302 11069 11301 11359 11360 11361 
10 10749 10739 10852 10904 11363 11362 11016 11131 11364 11132 
10 10743 10722 10773 10922 11334 11366 11365 11337 11339 11367 
10 10732 10747 10912 10929 11369 11368 11298 11315 11370 11316 
10 10717 10780 10771 10952 11150 11151 11152 11371 11372 11234 
10 10754 10798 10720 10810 11069 11068 11067 11361 11360 11373 
10 10734 10820 10749 10939 10981 11375 11374 11013 11012 11376 
10 10741 10715 10791 10932 11166 11111 11165 11377 11378 11379 
10 10738 10839 10755 10946 11382 11381 11380 11383 11384 11385 
10 3497 4409 10774 10807 11388 11387 11386 11389 11390 11391 
10 4123 10762 10816 10942 11183 11181 11182 11392 11393 11394 
10 4407 5632 4363 10760 11396 11395 4801 11397 11398 11399 
10 10755 10839 10928 10946 11381 11401 11400 11385 11384 11173 
10 4372 10764 10796 10857 11404 11403 11402 11405 11406 11407 
10 10734 10812 10845 10850 11134 11409 11408 11410 11411 11412 
10 4364 3451 4408 10757 11414 11413 4806 11415 11416 11417 
10 4356 4392 10733 10795 4757 11287 11418 11419 11288 11289 
10 10761 5311 10772 10909 11422 11421 11420 11423 11424 11425 
10 10755 10735 10783 10870 11281 11310 11311 11426 11427 11428 
10 3473 10777 4860 10778 11431 11430 11429 11432 11433 11434 
10 4130 5637 4166 10764 11436 11435 4338 11437 11438 11439 
10 4132 4168 5638 10763 4340 11441 11440 11442 11443 11444 
10 4923 4838 10770 10883 5278 11446 11445 11447 11448 11449 
10 4130 4166 4370 10764 4338 11451 11450 11437 11439 11452 
10 10721 10801 10773 10922 11022 11248 11453 11015 11024 11367 
10 10813 10775 10824 10949 11060 11455 11454 11064 11063 11456 
10 4394 10852 10739 10904 11087 11362 11457 11130 11132 11364 
10 10731 10824 10745 10869 11459 10966 11458 11460 10970 10969 
10 4840 10872 10775 10949 11462 11461 11061 11062 11463 11063 
10 5299 10801 5324 10921 11465 11464 5551 11466 11200 11467 
10 4132 4845 4168 10763 11469 11468 4340 11442 11470 11443 
10 10735 10838 10877 10931 11072 11076 11075 11471 11472 11473 
10 10764 5639 10796 10851 11475 11474 11403 11476 11477 11267 
10 3909 4848 3946 10761 11479 11478 4117 11480 11481 11482 
10 10744 10825 10830 10874 11484 11054 11483 11485 10979 11058 
10 10720 10758 10753 10957 11065 11108 11106 11486 11487 11488 
10 10719 10742 10838 10855 11236 11490 11489 11239 11241 11491 
10 5327 5307 10789 10866 5411 10997 11492 11493 11000 11002 
10 5299 5324 10821 10921 5551 11495 11494 11466 11467 11496 
10 10783 10735 10826 10838 11310 11282 11312 11497 11072 11313 
10 4915 4848 5308 10761 5289 11499 11498 11500 11481 11501 
10 10767 10780 10804 10855 11504 11503 11502 11505 11155 11264 
10 10812 10723 10845 10850 11210 11119 11409 11411 11506 11412 
10 5299 10821 10801 10921 11494 11507 11465 11466 11496 11200 
10 10741 10793 10832 10844 11272 11271 11226 11508 11509 11510 
10 10838 10753 10855 10889 11129 11511 11491 11114 11174 11512 
10 4383 4341 4416 10874 4572 4573 4574 11513 10978 11514 
10 10750 10853 10858 10948 11517 11516 11515 11518 11519 11520 
10 10749 10723 10793 10845 11522 11117 11521 11523 11119 11118 
10 3920 10733 3934 10880 11525 11524 4065 11526 11527 11528 
10 10732 10833 10792 10851 11103 11180 11178 11266 11268 11529 
10 5631 5715 10770 10883 6068 11531 11530 11532 11533 11449 
10 4141 10769 10806 10862 11535 11534 11122 11123 11536 10996 
10 4371 4401 5324 10921 4566 11538 11537 11539 11540 11467 
10 4444 4417 10741 10815 4581 11541 11306 11305 11542 11304 
10 10801 5299 10814 10821 11465 11543 11252 11507 11494 11544 
10 5624 10797 5675 10890 11545 11027 6019 11546 11029 11028 
10 4908 10770 4838 10883 11547 11446 5274 11548 11449 11448 
10 10755 10839 10910 10928 11381 11550 11549 11400 11401 11551 
10 10742 10854 10838 10877 11237 11092 11490 11552 11093 11076 
10 10765 5629 10799 10859 11555 11554 11553 11556 11557 11558 
10 10750 10779 10839 10897 11560 11256 11559 11081 11259 11261 
10 10746 10733 10780 10880 11563 11562 11561 11564 11527 11565 
10 5322 10756 10773 10829 11568 11567 11566 11569 11570 11571 
10 3451 5353 10757 10846 5602 11572 11416 11573 11574 11575 
10 5307 5324 10801 10921 5410 11464 10999 11576 11467 11200 
10 10744 10832 10741 10874 11578 11226 11577 11485 11274 10977 
10 10752 3475 10774 10892 11580 11579 11354 11581 11582 11583 
10 4383 10825 4341 10874 11584 10975 4572 11513 10979 10978 
10 5349 10786 5300 10897 11077 11585 5557 11080 11082 11586 
10 10811 10731 10818 10931 11589 11588 11587 11590 11591 11592 
10 10756 5322 10773 10800 11568 11566 11567 11593 11594 11595 
10 10738 10755 10839 10941 11380 11381 11382 11596 11284 11597 
10 10803 10762 10816 10887 11599 11181 11598 11600 11184 11186 
10 10717 10780 10767 10855 11150 11504 11601 11153 11155 11505 
10 3909 3946 5308 10761 4117 11603 11602 11480 11482 11501 
10 10777 4860 10778 10899 11430 11434 11433 11604 11605 11606 
10 10719 10783 10838 10914 11607 11497 11489 11608 11609 11610 
10 10733 10780 10880 10923 11562 11565 11527 11611 11612 11613 
10 10766 5687 10854 10935 11616 11615 11614 11617 11618 11619 
10 4444 4417 4341 10741 4581 4579 4576 11306 11541 10976 
10 3906 10797 10737 10890 11206 11621 11620 11207 11029 11622 
10 10755 10910 10839 10941 11549 11550 11381 11284 11623 11597 
10 4893 4852 10803 10887 5141 11625 11624 11626 11627 11600 
10 10731 10811 10818 10865 11589 11587 11588 11628 11629 11630 
10 10754 10753 10758 10875 11107 11108 11066 11124 11631 11125 
10 10731 10745 10799 10869 11458 10986 11632 11460 10969 10988 
10 5630 5662 5688 10745 6062 5885 6063 11351 11097 10967 
10 10721 10773 10794 10922 11453 11633 11009 11015 11367 10991 
10 10727 10839 10910 10941 11635 11550 11634 11636 11597 11623 
10 10750 10727 10853 10897 11637 11041 11517 11081 11638 11639 
10 10780 10767 10804 10881 11504 11502 11503 11640 11641 11642 
10 5632 4434 4363 10760 11643 4802 11395 11398 11644 11399 
10 3904 3934 3920 10733 4096 4065 4097 11645 11524 11525 
10 4914 10755 10788 10910 11648 11647 11646 11649 11549 11650 
10 10794 10722 10834 10922 11652 11335 11651 10991 11339 11338 
10 10717 10767 10780 10885 11601 11504 11150 11653 11654 11655 
10 10735 10818 10811 10865 11657 11587 11656 11658 11630 11629 
10 3908 3936 3461 10752 4042 11659 11220 11197 11660 11148 
10 4359 10823 10915 10934 11663 11662 11661 11664 11665 11666 
10 5646 10763 10808 10884 11669 11668 11667 11670 11348 11671 
10 5307 4371 10801 10866 11673 11672 10999 11000 11674 11001 
10 10796 5658 10833 10851 11676 11675 11204 11267 11677 11268 
10 3528 4373 4440 10752 11145 4814 11678 11147 11149 11679 
10 3915 4897 10761 10785 11682 11681 11680 11683 11684 11685 
10 4834 10840 10766 10924 11687 11036 11686 11688 11689 11690 
10 5321 4872 10779 10928 11292 11691 11275 11168 11294 11276 
10 5687 5654 10766 10784 5911 11692 11616 11693 11694 11695 
10 4914 10788 10755 10870 11646 11647 11648 11696 11697 11426 
10 10773 10722 10794 10922 11366 11652 11633 11367 11339 10991 
10 10722 10743 10773 10926 11334 11365 11366 11698 11699 11700 
10 4885 5657 5679 10840 11701 5808 11033 11034 11702 11035 
10 10750 10858 10896 10948 11515 11704 11703 11518 11520 11705 
10 4364 10757 4449 10846 11415 11706 4810 11707 11575 11708 
10 10773 5322 10829 10926 11566 11569 11571 11700 11709 11710 
10 4428 10805 10815 10846 11713 11712 11711 11714 11715 11716 
10 5308 5337 3909 10761 5515 11717 11602 11501 11718 11480 
10 10748 4120 10809 10816 11721 11720 11719 11722 11723 11724 
10 10735 10811 10818 10931 11656 11587 11657 11471 11590 11592 
10 10733 4356 10795 10868 11418 11419 11289 11725 11726 11727 
10 10780 10767 10881 10885 11504 11641 11640 11655 11654 11728 
10 3478 5300 10786 10897 5564 11585 11139 11140 11586 11082 
10 10842 10745 10843 10901 11730 11177 11729 11731 11732 11733 
10 10808 10763 10809 10884 11668 11345 11734 11671 11348 11350 
10 10722 10834 10743 10948 11335 11336 11334 11735 11736 11737 
10 10728 10793 10832 10874 11739 11271 11738 11740 11273 11274 
10 3478 10786 5300 10926 11139 11585 5564 11141 11143 11741 
10 4373 3461 4431 10752 11146 11742 4699 11149 11148 11743 
10 10741 4417 10805 10815 11541 11745 11744 11304 11542 11712 
10 4380 10752 10795 10868 11747 11357 11746 11748 11749 11727 
10 4427 10825 4383 10874 11056 11584 4643 11057 10979 11513 
10 10799 10843 10745 10901 11750 11177 10986 11751 11733 11732 
10 5334 10740 10822 10919 11754 11753 11752 11755 11756 11757 
10 10743 10750 10853 10897 11759 11517 11758 11760 11081 11639 
10 10735 10838 10818 10941 11072 11761 11657 11286 11314 11762 
10 5646 5697 10763 10884 5759 11763 11669 11670 11764 11348 
10 10728 10844 10793 10939 11765 11509 11739 11766 11767 11768 
10 4922 10847 10775 10872 11771 11770 11769 11772 11773 11461 
10 3906 10737 10880 10890 11620 11775 11774 11207 11622 11776 
10 3934 10880 10733 10895 11528 11527 11524 11777 11778 11779 
10 5641 4849 5709 10768 11781 11780 6077 11782 11783 11784 
10 5631 4838 4908 10770 11786 5274 11785 11530 11446 11547 
10 10766 4894 10837 10864 11789 11788 11787 11790 11791 11792 
10 10726 10875 10781 10900 11094 11222 11793 11096 11052 11223 
10 4849 3911 3947 10768 11795 4119 11794 11783 11796 11797 
10 4400 10796 5669 10936 11800 11799 11798 11801 11802 11803 
10 10791 10855 10753 10889 11804 11511 11128 11113 11512 11174 
10 3944 4440 4373 10752 11805 4814 11195 11196 11679 11149 
10 10749 10820 10734 10861 11375 10981 11374 11019 11806 11807 
10 10715 10818 10759 10832 11810 11809 11808 11227 11811 11812 
10 4382 10805 10757 10845 11159 11814 11813 11161 11120 11815 
10 3944 3461 3528 10752 11219 3898 11816 11196 11148 11147 
10 5628 10742 10804 10849 11818 11263 11817 11819 11820 11821 
10 10750 10743 10853 10948 11759 11758 11517 11518 11737 11519 
10 10736 4837 10813 10858 11824 11823 11822 11825 11826 11827 
10 4364 4433 10757 10846 4807 11828 11415 11707 11829 11575 
10 10751 10847 4853 10933 11832 11831 11830 11833 11834 11835 
10 10764 5645 10851 10929 11837 11836 11476 11317 11838 11839 
10 5343 4839 3450 10779 11841 11840 5596 11842 11843 11844 
10 10795 10771 10835 10878 11214 11846 11845 11218 11217 11847 
10 3473 10777 10778 10958 11431 11433 11432 11848 11849 11850 
10 10737 10746 10780 10880 11852 11561 11851 11775 11564 11565 
10 3908 4373 3938 10752 11194 11853 4043 11197 11149 11854 
10 10715 10832 10759 10844 11227 11812 11808 11855 11510 11856 
10 3911 5641 3947 10768 11858 11857 4119 11796 11782 11797 
10 5354 10779 5294 10839 11859 11258 5466 11860 11256 11257 
10 4844 4167 5305 10762 11278 11242 11861 11280 11246 11245 
10 4848 3909 3939 10761 11479 4068 11862 11481 11480 11863 
10 10728 10793 10749 10939 11739 11521 11864 11766 11768 11376 
10 4401 10821 5324 10921 11865 11495 11538 11540 11496 11467 
10 10790 4395 10866 10921 11867 11866 11254 11199 11868 11255 
10 10743 10786 10897 10926 11869 11082 11760 11699 11143 11142 
10 3464 10789 10800 10911 11871 10960 11870 11872 11046 10971 
10 10719 10804 10855 10888 11265 11264 11239 11873 11874 11875 
10 4898 3911 4849 10768 11876 11795 5159 11877 11796 11783 
10 10735 10838 10783 10914 11072 11497 11310 11878 11610 11609 
10 10740 10817 10738 10932 11881 11880 11879 11882 11883 11884 
10 10736 10858 10853 10948 11825 11516 11885 11886 11520 11519 
10 10733 10863 3904 10868 11888 11887 11645 11725 11889 11890 
10 4885 10766 4864 10840 11031 11891 5016 11034 11036 11892 
10 10725 10780 10823 10934 11156 11894 11893 11189 11193 11665 
10 4834 10766 4894 10837 11686 11789 5246 11895 11787 11788 
10 5349 5300 10786 10953 5557 11585 11077 11084 11896 11085 
10 10737 10880 10780 10923 11775 11565 11851 11897 11613 11612 
10 4393 4343 10795 10878 4605 11213 11898 11899 11216 11218 
10 4894 4861 4821 10766 5119 5107 5112 11789 11900 11901 
10 10761 3915 10785 10879 11680 11683 11685 11902 11903 11904 
10 3918 10761 5311 10772 11906 11422 11905 11907 11420 11421 
10 5626 10823 10893 10955 11910 11909 11908 11911 11912 11913 
10 5327 10789 4404 10866 11492 11915 11914 11493 11002 11916 
10 10765 10731 10811 10931 11918 11589 11917 11919 11591 11590 
10 10823 10780 10893 10955 11894 11920 11909 11912 11921 11913 
10 5697 4164 10763 10884 11923 11922 11763 11764 11924 11348 
10 4392 10795 4393 10856 11288 11898 4604 11291 11230 11925 
10 10727 10750 10853 10858 11637 11517 11041 11926 11515 11516 
10 10737 10780 10881 10885 11851 11640 11927 11928 11655 11728 
10 3932 10902 10841 10944 11931 11930 11929 11932 11933 11934 
10 10821 10734 10845 10850 11936 11408 11935 11937 11410 11412 
10 5318 10773 5319 10801 11249 11938 5444 11247 11248 11939 
10 5345 5294 5354 10779 5471 5466 5473 11940 11258 11859 
10 3915 4897 3939 10761 11682 11941 3997 11680 11681 11863 
10 10812 10734 10845 10939 11134 11408 11409 11135 11013 11942 
10 4394 10904 10739 10936 11130 11364 11457 11943 11944 11945 
10 4394 4362 10749 10904 4798 11018 11086 11130 11946 11131 
10 10754 10836 10730 10875 11948 11049 11947 11124 11047 11048 
10 5342 10740 10846 10940 11951 11950 11949 11952 11953 11954 
10 5630 10745 10799 10833 11351 10986 11352 11955 11175 11956 
10 10749 10845 10734 10939 11523 11408 11374 11376 11942 11013 
10 10720 10753 10783 10826 11106 11163 11162 11957 11958 11312 
10 5641 3911 5690 10768 11858 11959 5963 11782 11796 11960 
10 4837 10858 10736 10896 11826 11825 11824 11961 11704 11962 
10 4352 10830 4427 10874 11963 11055 4711 11964 11058 11057 
10 10756 10722 10762 10816 11967 11966 11965 11968 11969 11181 
10 3915 4855 4897 10785 11970 4942 11682 11683 11971 11684 
10 5306 10786 5323 10938 11972 11324 5395 11973 11328 11327 
10 4821 4894 10766 10864 5112 11789 11901 11974 11791 11790 
10 4912 4840 4820 10813 5099 5097 5098 11975 11059 11976 
10 10742 5628 10804 10854 11818 11817 11263 11237 11977 11262 
10 4442 10845 10821 10921 11979 11935 11978 11980 11981 11496 
10 3905 10841 3932 10902 11982 11929 4100 11983 11930 11931 
10 10747 10851 5645 10929 11985 11836 11984 11370 11839 11838 
10 10720 10776 10826 10876 11987 11986 11957 11988 11989 11990 
10 3906 10737 10886 10943 11620 11992 11991 11993 11994 11995 
10 4837 10896 10736 10927 11961 11962 11824 11996 11997 11998 
10 3918 10761 10772 10879 11906 11420 11907 11999 11902 12000 
10 10716 10745 10828 10843 12002 11176 12001 12003 11177 11137 
10 4922 10819 10847 10872 12005 12004 11771 11772 12006 11773 
10 5307 3435 10789 10801 5494 12007 10997 10999 12008 10998 
10 4358 10774 4409 10807 12009 11387 4769 12010 11391 11390 
10 5638 4168 4845 10763 11441 11468 12011 11444 11443 11470 
10 10757 5293 10850 10919 12014 12013 12012 12015 12016 12017 
10 4370 4166 5637 10764 11451 11435 12018 11452 11439 11438 
10 10715 10741 10832 10932 11166 11226 11227 11378 11377 12019 
10 5306 5323 4876 10938 5395 11325 12020 11973 11327 11326 
10 4343 4393 10795 10856 4605 11898 11213 11229 11925 11230 
10 5707 5629 10765 10859 6055 11555 12021 12022 11557 11556 
10 4834 10766 10837 10924 11686 11787 11895 11688 11690 12023 
10 10784 10811 10877 10883 12024 11330 11074 11321 11331 11322 
10 4161 10762 4131 10942 12025 11244 4291 12026 11393 12027 
10 5687 5614 5654 10784 5903 5899 5911 11693 12028 11694 
10 4122 10769 10929 10947 12031 12030 12029 12032 12033 12034 
10 4371 5324 5307 10921 11537 5410 11673 11539 11467 11576 
10 4120 10748 10809 10912 11721 11719 11720 12035 12036 12037 
10 4351 10752 4388 10774 11355 12038 4704 11353 11354 12039 
10 10733 10746 10780 10856 11563 11561 11562 11290 12040 11192 
10 10720 10826 10778 10876 11957 12042 12041 11988 11990 12043 
10 10771 10795 10835 10952 11214 11845 11846 11234 11233 12044 
10 4840 4830 10775 10872 5216 12045 11061 11462 12046 11461 
10 5327 4371 5307 10866 12047 11673 5411 11493 11674 11000 
10 10727 10750 10839 10897 11637 11559 11635 11638 11081 11261 
10 10769 10721 10806 10862 12048 10992 11534 11536 10995 10996 
10 4821 10766 10784 10864 11901 11695 12049 11974 11790 12050 
10 10727 10782 10853 10897 11038 11042 11041 11638 12051 11639 
10 10838 10742 10877 10931 11490 11552 11076 11472 12052 11473 
10 4442 4391 10845 10921 4628 12053 11979 11980 12054 11981 
10 3938 4422 4380 10752 12056 4467 12055 11854 12057 11747 
10 10755 10738 10778 10826 11380 12059 12058 11283 12060 12042 
10 4891 10865 10870 10914 12063 12062 12061 12064 12065 12066 
10 10819 10775 10847 10872 12067 11770 12004 12006 11461 11773 
10 4371 5307 10801 10921 11673 10999 11672 11539 11576 11200 
10 10738 10826 10776 10876 12060 11986 12068 12069 11990 11989 
10 4380 3913 10752 10868 12071 12070 11747 11748 12072 11749 
10 10756 10722 10773 10829 11967 11366 11567 11570 12073 11571 
10 10763 4824 10819 10847 12076 12075 12074 12077 12078 12004 
10 5308 5337 3946 3909 5515 12079 11603 11602 11717 4117 
10 3911 4898 4849 3947 11876 5159 11795 4119 12080 11794 
10 10737 10881 5624 10950 11927 12082 12081 12083 12084 12085 
10 10751 4874 10787 10803 12088 12087 12086 12089 12090 12091 
10 10744 10741 10825 10874 11577 10974 11484 11485 10977 10979 
10 10730 10767 10837 10888 12094 12093 12092 12095 12096 12097 
10 10736 10896 10858 10948 11962 11704 11825 11886 11705 11520 
10 4405 4372 10764 10796 4528 11404 12098 12099 11402 11403 
10 5672 10764 5639 10796 12100 11475 5795 12101 11403 11474 
10 5311 3940 5337 10761 12103 12102 5366 11422 12104 11718 
10 4852 4823 4893 10803 5142 5140 5141 11625 12105 11624 
10 10755 10826 10778 10899 11283 12042 12058 12106 12107 11606 
10 5623 10739 10796 10833 12109 11202 12108 12110 11205 11204 
10 10756 10829 5296 10942 11570 12112 12111 12113 12114 12115 
10 4852 10762 10803 10887 12116 11599 11625 11627 11184 11600 
10 4915 3946 4848 10761 12117 11478 5289 11500 11482 11481 
10 5679 5627 10766 10840 6041 12118 11032 11035 12119 11036 
10 5308 4848 4906 10761 11499 5175 12120 11501 11481 12121 
10 4356 4393 4392 10795 4758 4604 4757 11419 11898 11288 
10 10735 10784 10811 10877 11073 12024 11656 11075 11074 11330 
10 10742 10838 10855 10889 11490 11491 11241 12122 11114 11512 
10 10790 10734 10820 10861 11007 10981 11053 12123 11807 11806 
10 3475 3497 4409 10774 3572 11388 12124 11579 11386 11387 
10 3906 10737 10797 10886 11620 11621 11206 11991 11992 12125 
10 4146 10862 4121 10911 12126 10962 4270 12127 10973 10972 
10 3521 3451 10757 10846 3887 11416 12128 12129 11573 11575 
10 4837 10736 10813 10927 11824 11822 11823 11996 11998 12130 
10 3473 4860 4843 10778 11429 4967 12131 11432 11434 12132 
10 10754 10720 10783 10882 11067 11162 11164 12133 12134 12135 
10 5628 10742 10849 10906 11818 11820 11819 12136 12137 12138 
10 4144 10751 10809 10816 12141 12140 12139 12142 12143 11724 
10 10723 10812 10845 10939 11210 11409 11119 12144 11135 11942 
10 10719 10754 10783 10864 12145 11164 11607 12146 12147 12148 
10 10768 10827 3903 10886 12151 12150 12149 12152 12153 12154 
10 3497 10774 3445 10807 11386 12155 3852 11389 11391 11340 
10 10750 10743 10786 10897 11759 11869 11078 11081 11760 11082 
10 4908 4838 4923 10883 5274 5278 5193 11548 11448 11447 
10 3931 5311 3494 10772 12157 5363 12156 12158 11421 12159 
10 4914 4892 10755 10910 5054 12160 11648 11649 12161 11549 
10 4394 10739 4354 10936 11457 12162 4731 11943 11945 12163 
10 4141 10769 10862 10912 11535 11536 11123 12164 11299 12165 
10 10774 3445 10807 10831 12155 11340 11391 12166 11344 11343 
10 5353 5293 10757 10919 5455 12014 11572 12167 12016 12015 
10 3475 4388 10752 10774 12168 12038 11580 11579 12039 11354 
10 10728 10739 10843 10904 12171 12170 12169 12172 11364 12173 
10 4392 4445 4356 10895 4695 4754 4757 12174 12175 12176 
10 10717 10885 10780 10923 11653 11655 11150 12177 12178 11612 
10 10737 10780 10885 10923 11851 11655 11928 11897 11612 12178 
10 10732 10764 10769 10857 11295 11296 11297 12179 11406 12180 
10 5638 5697 4132 10763 5928 12181 11440 11444 11763 11442 
10 5711 10877 5628 10906 12183 12182 6046 12184 12185 12136 
10 3516 10789 3464 10911 12186 11871 3553 12187 11046 11872 
10 10734 10801 10814 10821 11023 11252 12188 11936 11507 11544 
10 10755 10735 10818 10941 11281 11657 12189 11284 11286 11762 
10 10728 10739 10760 10925 12171 12191 12190 12192 12193 12194 
10 4354 10739 4394 10852 12162 11457 4731 12195 11362 11087 
10 10738 10740 10822 10920 11879 11753 12196 12197 12198 12199 
10 10738 10778 10826 10876 12059 12042 12060 12069 12043 11990 
10 5349 5300 3478 10897 5557 5564 5470 11080 11586 11140 
10 4444 4384 4417 10815 4782 4724 4581 11305 12200 11542 
10 5316 10773 10800 10801 12202 11595 12201 12203 11248 12204 
10 5672 4405 10764 10796 12205 12098 12100 12101 12099 11403 
10 5650 10799 10859 10925 12207 11558 12206 12208 12209 12210 
10 10763 10729 10809 10847 12212 12211 11345 12077 12213 12214 
10 10731 10745 10824 10842 11458 10966 11459 12215 11730 12216 
10 10751 10763 10809 10847 12217 11345 12140 11832 12077 12214 
10 10765 10869 5683 10877 12220 12219 12218 12221 12222 12223 
10 10737 5624 10881 10890 12081 12082 11927 11622 11546 12224 
10 5327 4404 4371 10866 11914 4567 12047 11493 11916 11674 
10 5348 4915 5308 10761 12225 11498 5607 12226 11500 11501 
10 10728 10760 10739 10904 12190 12191 12171 12172 12227 11364 
10 4904 4131 4844 10762 12228 11279 5136 12229 11244 11280 
10 3911 3947 5641 5690 4119 11857 11858 11959 12230 5963 
10 10839 10779 10910 10928 11256 12231 11550 11401 11276 11551 
10 5316 10773 5322 10800 12202 11566 5441 12201 11595 11594 
10 4874 10751 10787 10847 12088 12086 12087 12232 11832 12233 
10 4392 4356 10733 10895 4757 11418 11287 12174 12176 11779 
10 10780 10881 10893 10955 11640 12234 11920 11921 12235 11913 
10 10753 10791 10715 10817 11128 11111 11127 12236 12237 12238 
10 5351 10772 5311 10909 12239 11421 5520 12240 11425 11424 
10 5342 10871 10740 10940 12242 12241 11951 11952 12243 11953 
10 3473 10778 5295 10958 11432 12244 5475 11848 11850 12245 
10 5654 4861 10766 10784 12246 11900 11692 11694 12247 11695 
10 10789 3435 10800 10801 12007 12248 10960 10998 12008 12204 
10 3528 3461 4431 4373 3898 11742 12249 11145 11146 4699 
10 3528 4440 3944 10752 11678 11805 11816 11147 11679 11196 
10 10739 10749 10843 10904 11363 12250 12170 11364 11131 12173 
10 10731 10824 10813 10842 11459 11454 12251 12215 12216 12252 
10 10719 10784 10838 10854 12253 11071 11489 11238 11091 11092 
10 10746 10915 10951 10955 12256 12255 12254 12257 12258 12259 
10 5702 5715 5631 10883 5986 6068 6064 12260 11533 11532 
10 10811 5683 10869 10877 12262 12219 12261 11330 12223 12222 
10 10715 10818 10838 10941 11810 11761 11109 12263 11762 11314 
10 4859 10870 10755 10899 12265 11426 12264 12266 12267 12106 
10 5301 10743 10897 10926 12269 11760 12268 12270 11699 11142 
10 4833 4895 10777 10810 5240 12272 12271 12273 12274 12275 
10 4885 4834 4864 10766 5247 5249 5016 11031 11686 11891 
10 10818 10759 10832 10901 11809 11812 11811 12276 12277 12278 
10 4856 10813 10788 10865 12281 12280 12279 12282 12283 12284 
10 10725 10791 10771 10825 12286 12285 11157 12287 12288 12289 
10 10753 10758 10875 10905 11108 11125 11631 12290 12291 12292 
10 4869 4840 4830 10775 5095 5216 5215 11224 11061 12045 
10 5333 5347 10822 10839 5428 12294 12293 12295 12296 12297 
10 10743 5301 10814 10926 12269 12299 12298 11699 12270 12300 
10 5658 5623 10796 10833 6013 12108 11676 11675 12110 11204 
10 10727 10759 10802 10818 11039 11044 11043 12301 11809 12302 
10 10755 10735 10788 10818 11281 12303 11647 12189 11657 12304 
10 3946 4848 3909 3939 11478 11479 4117 3994 11862 4068 
10 3908 3944 3461 3936 4116 11219 11220 4042 4010 11659 
10 10754 10753 10875 10888 11107 11631 11124 12305 12306 12307 
10 10727 10750 10779 10839 11637 11560 12308 11635 11559 11256 
10 4913 4819 10858 10910 5093 12310 12309 12311 12312 12313 
10 10725 10771 10791 10855 11157 12285 12286 11158 11154 11804 
10 10722 10743 10926 10948 11334 11699 11698 11735 11737 12314 
10 3516 4157 10789 10911 12316 12315 12186 12187 12317 11046 
10 4382 10757 4345 10845 11813 12318 4620 11161 11815 12319 
10 10743 10750 10786 10948 11759 11078 11869 11737 11518 12320 
10 10751 10809 10729 10847 12140 12211 12321 11832 12214 12213 
10 10738 10817 10740 10920 11880 11881 11879 12197 12322 12198 
10 5352 10786 10829 10926 12325 12324 12323 12326 11143 11710 
10 3946 5348 5308 10761 12327 5607 11603 11482 12226 11501 
10 4834 4864 10766 10840 5249 11891 11686 11687 11892 11036 
10 10718 10815 10791 10817 12330 12329 12328 12331 12332 12237 
10 4824 4847 10763 10819 5150 12333 12076 12075 12334 12074 
10 3931 10772 3494 10841 12158 12159 12156 12335 12336 12337 
10 3505 3445 3463 10831 3851 3850 3738 11342 11344 12338 
10 10737 5624 10797 10950 12081 11545 11621 12083 12085 12339 
10 4892 4914 10755 10870 5054 11648 12160 12340 11696 11426 
10 10740 5334 10822 10920 11754 11752 11753 12198 12341 12199 
10 10742 5628 10877 10906 11818 12182 11552 12137 12136 12185 
10 10739 5623 10796 10936 12109 12108 11202 11945 12342 11802 
10 3904 10733 3920 10863 11645 11525 4097 11887 11888 12343 
10 10728 10843 10739 10925 12169 12170 12171 12192 12344 12193 
10 10780 10725 10804 10855 11156 12345 11503 11155 11158 11264 
10 4354 10739 10796 10936 12162 11202 12346 12163 11945 11802 
10 10771 10825 10791 10918 12289 12288 12285 12347 11333 12348 
10 4849 4916 5709 10768 5290 12349 11780 11783 12350 11784 
10 4861 4821 10766 10784 5107 11901 11900 12247 12049 11695 
10 4396 10771 10918 10934 12352 12347 12351 12353 11190 12354 
10 5629 10765 10799 10869 11555 11553 11554 12355 12220 10988 
10 5624 10737 10797 10890 12081 11621 11545 11546 11622 11029 
10 10783 10719 10864 10914 11607 12146 12148 11609 11608 12356 
10 10723 10757 10805 10845 12357 11814 11116 11119 11815 11120 
10 5318 10801 5299 10814 11247 11465 5552 11250 11252 11543 
10 10792 10828 10745 10833 11179 11176 12358 11180 11105 11175 
10 4420 4358 10807 10878 4767 12010 12359 12360 12361 12362 
10 3456 4129 4165 10789 12364 4337 12363 12365 12366 12367 
10 10793 10728 10832 10844 11739 11738 11271 11509 11765 11510 
10 5707 5683 10765 10869 5845 12218 12021 12368 12219 12220 
10 10717 10771 10855 10905 11152 11154 11153 12369 12370 12371 
10 10716 10759 10842 10843 12374 12373 12372 12003 12375 11729 
10 4352 10744 10830 10874 12376 11483 11963 11964 11485 11058 
10 10804 10767 10855 10888 11502 11505 11264 11874 12096 11875 
10 10742 5628 10854 10877 11818 11977 11237 11552 12182 11093 
10 10730 10837 10767 10840 12092 12093 12094 12377 12378 12379 
10 4392 10733 10856 10895 11287 11290 11291 12174 11779 12380 
10 10730 10827 10768 10886 12382 12151 12381 12383 12153 12152 
10 4883 10750 3495 10779 12386 12385 12384 12387 11560 12388 
10 4124 10763 10809 10933 11347 11345 11346 12389 12390 12391 
10 5350 5333 10920 10946 5430 12393 12392 12394 12395 12396 
10 4352 10830 10744 10873 11963 11483 12376 12397 12398 12399 
10 10762 10722 10803 10816 11966 12400 11599 11181 11969 11598 
10 4145 10816 4123 10887 12401 11182 4293 12402 11186 11185 
10 4880 10763 4847 10819 12403 12333 5042 12404 12074 12334 
10 10837 10766 10840 10924 11787 11036 12378 12023 11690 11689 
10 4371 10801 10866 10921 11672 11001 11674 11539 11200 11255 
10 10719 10855 10838 10888 11239 11491 11489 11873 11875 12405 
10 5695 10811 5620 10883 11329 12406 5978 11320 11331 12407 
10 10735 10755 10788 10870 11281 11647 12303 11427 11426 11697 
10 5305 4131 3517 10762 11243 12408 5503 11245 11244 12409 
10 10715 10889 10838 10931 11112 11114 11109 12410 12411 11472 
10 4416 4341 4439 10874 4573 4577 4578 11514 10978 12412 
10 10770 10813 10824 10949 12414 11454 12413 12415 11064 11456 
10 4822 10778 4860 10899 12416 11434 5120 12417 11606 11605 
10 4129 4369 4165 10789 12419 12418 4337 12366 12420 12367 
10 4373 3944 3908 3938 11195 4116 11194 11853 3962 4043 
10 5611 10767 10804 10935 12422 11502 12421 12423 12424 12425 
10 10753 10838 10855 10888 11129 11491 11511 12306 12405 11875 
10 10728 10832 10744 10874 11738 11578 12426 11740 11274 11485 
10 4164 4140 10763 10884 4211 12427 11922 11924 12428 11348 
10 10832 10741 10844 10932 11226 11508 11510 12019 11377 12429 
10 10739 10796 10732 10852 11202 11203 11201 11362 12430 12431 
10 10715 10832 10844 10932 11227 11510 11855 11378 12019 12429 
10 3920 10863 10733 10880 12343 11888 11525 11526 12432 11527 
10 10759 10842 10843 10901 12373 11729 12375 12277 11731 11733 
10 10823 5626 10915 10955 11910 12433 11662 11912 11911 12258 
10 4923 10770 10865 10883 11445 12435 12434 11447 11449 12436 
10 4384 4428 10805 10815 4656 11713 12437 12200 11711 11712 
10 10722 10756 10773 10894 11967 11567 11366 12438 12439 12440 
10 4382 4414 4361 10845 4622 4791 4790 11161 12441 11270 
10 10771 10725 10825 10934 11157 12287 12289 11190 11189 12442 
10 4913 10779 4924 10910 12444 12443 5094 12311 12231 12445 
10 10802 10727 10818 10941 11043 12301 12302 12446 11636 11762 
10 4134 4121 10789 10911 4271 10961 12447 12448 10972 11046 
10 4393 10795 4403 10878 11898 12449 4607 11899 11218 12450 
10 5617 5639 10764 10851 5942 11475 12451 12452 11477 11476 
10 4420 10807 4347 10878 12359 12453 4653 12360 12362 12454 
10 5641 4907 4849 10768 12455 5161 11781 11782 12456 11783 
10 5678 4410 10823 10915 12459 12458 12457 12460 12461 11662 
10 4859 10899 10755 10928 12266 12106 12264 12462 12463 11400 
10 5695 5620 10811 10877 5978 12406 11329 11318 12464 11330 
10 10748 4120 10816 10862 11721 11723 11722 12465 12466 12467 
10 5318 5292 10773 10814 5433 12468 11249 11250 12469 11251 
10 4919 4835 10870 10899 5252 12471 12470 12472 12473 12267 
10 4161 3517 4131 10762 12474 12408 4291 12025 12409 11244 
10 10856 4402 10915 10934 12477 12476 12475 11191 12478 11666 
10 10754 10885 10730 10888 12480 12479 11947 12305 12481 12095 
10 5345 5354 3450 10779 5473 5599 5598 11940 11859 11844 
10 10767 10837 10888 10935 12093 12097 12096 12424 12482 12483 
10 5688 10824 5612 10869 10965 12484 5881 10968 10970 12485 
10 4140 4124 10763 10884 4310 11347 12427 12428 11349 11348 
10 4352 10873 10744 10874 12397 12399 12376 11964 12486 11485 
10 10754 10875 10730 10885 11124 11048 11947 12480 12487 12479 
10 5678 10823 5626 10915 12457 11910 6035 12460 11662 12433 
10 10765 10811 10869 10877 11917 12261 12220 12221 11330 12222 
10 10791 10715 10817 10932 11111 12238 12237 11379 11378 11883 
10 4380 4351 4446 10795 4701 4702 4703 11746 11356 12488 
10 4370 4166 4436 5703 11451 12489 4532 12490 12491 12492 
10 10769 10764 10912 10929 11296 11300 11299 12030 11317 11316 
10 3448 10822 10782 10850 12495 12494 12493 12496 12497 12498 
10 4395 4387 10790 10866 4681 12499 11867 11866 12500 11254 
10 4405 10764 4372 10857 12098 11404 4528 12501 11406 11405 
10 5332 10782 10839 10897 12504 12503 12502 12505 12051 11261 
10 10770 5715 10811 10883 11531 12507 12506 11449 11533 11331 
10 4354 10796 10739 10852 12346 11202 12162 12195 12430 11362 
10 4896 10788 10813 10858 12509 12280 12508 12510 12511 11827 
10 5616 5646 10763 10808 5934 11669 12512 12513 11667 11668 
10 4380 10752 4351 10795 11747 11355 4701 11746 11357 11356 
10 10749 10739 10820 10852 11363 11303 11375 11016 11362 12514 
10 4412 4395 10790 10921 4751 11867 12515 12516 11868 11199 
10 10723 10845 10749 10939 11119 11523 11522 12144 11942 11376 
10 10730 10837 10754 10888 12092 12517 11947 12095 12097 12305 
10 4428 10846 10815 10940 11714 11716 11711 12518 11954 12519 
10 5321 5304 10778 10946 5381 12520 11170 11171 12521 11172 
10 5308 4915 4906 4848 11498 4955 12120 11499 5289 5175 
10 4924 4913 4839 10779 5094 5281 5283 12443 12444 11843 
10 10784 4821 10864 10914 12049 11974 12050 12522 12523 12356 
10 4844 5344 4167 4910 12525 12524 11278 4991 12526 12527 
10 4834 4864 10840 10924 5249 11892 11687 11688 12528 11689 
10 4168 4911 5704 5638 12531 12530 12529 11441 12532 5838 
10 3448 5332 10782 10839 5585 12504 12493 12533 12502 12503 
10 5697 4164 4132 10763 11923 4303 12181 11763 11922 11442 
10 5714 5658 10796 10851 5949 11676 12534 12535 11677 11267 
10 10762 10756 10816 10942 11965 11968 11181 11393 12113 11394 
10 5714 5658 5623 10796 5949 6013 6014 12534 11676 12108 
10 4824 4847 10819 10847 5150 12334 12075 12078 12536 12004 
10 5650 10799 5629 10859 12207 11554 6057 12206 11558 11557 
10 10769 10748 10862 10912 12537 12465 11536 11299 12036 12165 
10 10824 10775 10872 10949 11455 11461 12538 11456 11063 11463 
10 5667 10792 10747 10808 12541 12540 12539 12542 12543 12544 
10 4428 4353 10805 10846 4725 12545 11713 11714 12546 11715 
10 10743 10814 5301 10897 12298 12299 12269 11760 12547 12268 
10 4380 10795 4446 10868 11746 12488 4703 11748 11727 12548 
10 4852 4904 10762 10887 4997 12229 12116 11627 12549 11184 
10 4359 10915 4402 10934 11661 12476 4772 11664 11666 12478 
10 10804 10719 10854 10935 11265 11238 11262 12425 12550 11619 
10 3913 10752 10868 10944 12070 11749 12072 12551 12552 12553 
10 10742 10838 10889 10931 11490 11114 12122 12052 11472 12411 
10 4842 4861 5654 10784 5022 12246 12554 12555 12247 11694 
10 10715 10802 10759 10818 12556 11044 11808 11810 12302 11809 
10 5291 5333 5347 10822 5427 5428 5429 12557 12293 12294 
10 10732 10912 10747 10954 11298 11368 11369 12558 12559 12560 
10 5323 4876 10786 10953 11325 11323 11324 12561 12562 11085 
10 10741 10832 10744 10889 11226 11578 11577 11167 11228 12563 
10 4356 10868 10733 10895 11726 11725 11418 12176 12564 11779 
10 10730 10875 10781 10885 11048 11222 11221 12479 12487 12565 
10 10722 10773 10794 10894 11366 11633 11652 12438 12440 12566 
10 10757 10845 10723 10850 11815 11119 12357 12012 11412 11506 
10 10738 10817 10776 10826 11880 12567 12068 12060 12568 11986 
10 10715 10759 10802 10844 11808 11044 12556 11855 11856 12569 
10 4403 4351 10774 10795 4706 11353 12570 12449 11356 11358 
10 4394 4354 4365 10936 4731 4730 4610 11943 12163 12571 
10 4904 4158 4131 10762 12572 4287 12228 12229 12573 11244 
10 4449 10757 4382 10805 11706 11813 4623 12574 11814 11159 
10 5662 10745 5630 10930 11097 11351 6062 12575 12576 12577 
10 10720 10908 10758 10957 12579 12578 11065 11486 12580 11487 
10 10722 10756 10762 10829 11967 11965 11966 12073 11570 12581 
10 4874 4853 10751 10847 5153 11830 12088 12232 11831 11832 
10 3446 10777 10798 10867 12584 12583 12582 12585 12586 12587 
10 4438 10821 4442 10845 12588 11978 4630 12589 11935 11979 
10 10719 10888 10837 10935 11873 12097 12590 12550 12483 12482 
10 10724 10831 10758 10848 12593 12592 12591 12594 12595 12596 
10 4904 4158 10762 10887 12572 12573 12229 12549 12597 11184 
10 10728 10843 10749 10904 12169 12250 11864 12172 12173 11131 
10 5334 3440 10740 10919 5539 12598 11754 11755 12599 11756 
10 10721 10790 10794 10898 11008 11010 11009 12600 12601 12602 
10 10743 10853 10782 10897 11758 11042 12603 11760 11639 12051 
10 10745 5662 10824 10930 11097 11098 10966 12576 12575 12604 
10 4400 4354 10796 10936 4738 12346 11800 11801 12163 11802 
10 10775 10813 10824 10842 11060 11454 11455 12605 12252 12216 
10 10792 10745 10916 10930 12358 12607 12606 12608 12576 12609 
10 4850 10837 4894 10864 12610 11788 5111 12611 11792 11791 
10 10739 10732 10820 10852 11201 11102 11303 11362 12431 12514 
10 4434 4407 5632 4363 4517 11396 11643 4802 4801 11395 
10 10729 10792 10916 10930 12613 12606 12612 12614 12608 12609 
10 4394 4365 10904 10936 4610 12615 11130 11943 12571 11944 
10 3444 5322 10756 10800 5570 11568 12616 12617 11594 11593 
10 5623 10739 10833 10925 12109 11205 12110 12618 12193 12619 
10 5350 10920 10876 10946 12392 12621 12620 12394 12396 12622 
10 10726 10836 10754 10875 11095 11948 11301 11094 11047 11124 
10 4128 4156 4144 10751 4335 4312 4336 12623 12624 12141 
10 3448 10782 10822 10839 12493 12494 12495 12533 12503 12297 
10 10757 10821 10845 10850 12625 11935 11815 12012 11937 11412 
10 4125 10756 10862 10911 12628 12627 12626 12629 12630 10973 
10 10837 10767 10840 10935 12093 12379 12378 12482 12424 12631 
10 5623 5669 10796 10936 6017 11799 12108 12342 11803 11802 
10 4156 4144 10751 10933 4312 12141 12624 12632 12633 11833 
10 4147 10769 10912 10929 12635 11299 12634 12636 12030 11316 
10 3461 3936 3508 10752 11659 12637 3770 11148 11660 12638 
10 4849 3947 4916 10768 11794 12639 5290 11783 11797 12350 
10 5301 10897 3478 10926 12268 11140 5592 12270 11142 11141 
10 3947 5641 5709 10768 11857 6077 12640 11797 11782 11784 
10 10799 10728 10859 10925 12642 12641 11558 12209 12192 12210 
10 10780 10823 10915 10955 11894 11662 12643 11921 11912 12258 
10 10723 10793 10805 10844 11117 11115 11116 12644 11509 12645 
10 10815 10740 10817 10871 12646 11881 12332 12647 12241 12648 
10 10718 10815 10817 10871 12330 12332 12331 12649 12647 12648 
10 4137 4151 5330 10911 4240 12651 12650 12652 12653 12654 
10 10758 10831 10724 10835 12592 12593 12591 12655 12656 12657 
10 10845 4391 10861 10921 12053 12659 12658 11981 12054 12660 
10 10769 10732 10898 10912 11297 12662 12661 11299 11298 12663 
10 4360 4444 10825 10918 4779 11332 12664 12665 11308 11333 
10 10765 10901 10731 10931 12667 12666 11918 11919 12668 11591 
10 10795 10733 10863 10913 11289 11888 12669 12670 12671 12672 
10 10725 10780 10804 10893 11156 11503 12345 12673 11920 12674 
10 10777 3446 10798 10958 12584 12582 12583 11849 12675 12676 
10 3946 4915 5348 10761 12117 12225 12327 11482 11500 12226 
10 5321 10779 5298 10946 11275 12677 5527 11171 11277 12678 
10 10716 10828 10745 10916 12001 11176 12002 12679 12680 12607 
10 10739 10820 10833 10843 11303 11104 11205 12170 11136 11138 
10 10774 10724 10831 10835 12681 12593 12166 12682 12657 12656 
10 10741 10744 10825 10889 11577 11484 10974 11167 12563 12683 
10 4405 5639 4372 10796 12685 12684 4528 12099 11474 11402 
10 10778 10826 10720 10899 12042 11957 12041 11606 12107 12686 
10 10760 10728 10859 10874 12190 12641 12687 12688 11740 12689 
10 10733 10795 10856 10952 11289 11230 11290 12690 11233 11235 
10 4145 10751 10816 10887 12691 12143 12401 12402 12692 11186 
10 10747 4148 10809 10912 12695 12694 12693 11368 12696 12037 
10 3935 3906 10797 10886 4108 11206 12697 12698 11991 12125 
10 10818 10731 10901 10931 11588 12666 12276 11592 11591 12668 
10 5328 10762 10829 10938 12700 12581 12699 12701 12702 12703 
10 10839 10779 10928 10946 11256 11276 11401 11384 11277 11173 
10 10792 10745 10828 10916 12358 11176 11179 12606 12607 12680 
10 10770 10813 10731 10824 12414 12251 12704 12413 11454 11459 
10 5664 5611 10804 10935 5861 12421 12705 12706 12423 12425 
10 3440 5342 10740 10846 5537 11951 12598 12707 11949 11950 
10 4837 4918 4866 10927 5269 5270 5268 11996 12708 12709 
10 4154 4142 10756 10942 4299 12711 12710 12712 12713 12113 
10 10746 10737 10780 10955 11852 11851 11561 12257 12714 11921 
10 10795 10868 10752 10944 11727 11749 11357 12715 12553 12552 
10 3473 4843 5304 10778 12131 12716 5378 11432 12132 12520 
10 10771 10791 10855 10905 12285 11804 11154 12370 12717 12371 
10 10769 10721 10862 10898 12048 10995 11536 12661 12600 12718 
10 10748 10769 10862 10898 12537 11536 12465 12719 12661 12718 
10 10768 3903 10797 10886 12149 12721 12720 12152 12154 12125 
10 4852 10762 4823 10803 12116 12722 5142 11625 11599 12105 
10 4375 10856 10771 10934 12724 11188 12723 12725 11191 11190 
10 10757 10846 5353 10919 11575 11574 11572 12015 12726 12167 
10 5623 10739 10925 10936 12109 12193 12618 12342 11945 12727 
10 5351 3443 10772 10848 5566 12728 12239 12729 12730 12731 
10 10729 10792 10828 10916 12613 11179 12732 12612 12606 12680 
10 10804 10780 10881 10893 11503 11640 11642 12674 11920 12234 
10 5630 10745 10833 10930 11351 11175 11955 12577 12576 12733 
10 4834 4894 4850 10837 5246 5111 5245 11895 11788 12610 
10 5683 5707 10765 10877 5845 12021 12218 12223 12734 12221 
10 4396 10918 4426 10934 12351 12735 4785 12353 12354 12736 
10 4824 10847 10763 10933 12078 12077 12076 12737 11834 12390 
10 3938 4380 3913 10752 12055 12071 3965 11854 11747 12070 
10 10782 5301 10814 10897 12739 12299 12738 12051 12268 12547 
10 10811 10735 10877 10931 11656 11075 11330 11590 11471 11473 
10 10764 10769 10857 10947 11296 12180 11406 12740 12033 12741 
10 4132 4162 10763 10933 4301 12742 11442 12743 12744 12390 
10 4157 4134 10789 10911 4234 12447 12315 12317 12448 11046 
10 10776 10720 10826 10957 11987 11957 11986 12745 11486 12746 
10 10755 10783 10826 10899 11311 11312 11283 12106 12747 12107 
10 5653 10823 10830 10893 12750 12749 12748 12751 11909 12752 
10 4382 4449 4345 10757 4623 4624 4620 11813 11706 12318 
10 10735 10870 10865 10914 11427 12062 11658 11878 12066 12065 
10 4167 4844 5305 5344 11278 11861 11242 12524 12525 5400 
10 4364 4449 4433 10846 4810 4729 4807 11707 11708 11829 
10 4449 10757 10805 10846 11706 11814 12574 11708 11575 11715 
10 10716 10828 10820 10843 12001 11101 10980 12003 11137 11136 
10 10729 10775 10819 10930 12754 12067 12753 12614 12755 12756 
10 3902 3915 10761 10879 4071 11680 12757 12758 11903 11902 
10 4911 5638 4168 4845 12532 11441 12531 5046 12011 11468 
10 5306 5352 10786 10829 5507 12325 11972 12759 12323 12324 
10 10716 10842 10745 10843 12372 11730 12002 12003 11729 11177 
10 4836 10788 4896 10858 12760 12509 5259 12761 12511 12510 
10 5315 5334 10740 10920 5424 11754 12762 12763 12341 12198 
10 5617 10764 5645 10851 12451 11837 5947 12452 11476 11836 
10 4885 4864 5657 10840 5016 12764 11701 11034 11892 11702 
10 10760 10859 10728 10925 12687 12641 12190 12194 12210 12192 
10 4856 4896 10788 10813 5101 12509 12279 12281 12508 12280 
10 4835 10783 10870 10899 12765 11428 12471 12473 12747 12267 
10 4824 4853 10847 10933 5155 11831 12078 12737 11835 11834 
10 10744 10859 10728 10874 12766 12641 12426 11485 12689 11740 
10 5650 5613 10799 10925 5889 12767 12207 12208 12768 12209 
10 10720 10776 10908 10957 11987 12769 12579 11486 12745 12580 
10 4903 10778 10899 10928 12771 11606 12770 12772 11169 12463 
10 10812 10734 10814 10850 11134 12188 12773 11411 11410 12774 
10 10748 4120 10862 10912 11721 12466 12465 12036 12035 12165 
10 10783 10755 10870 10899 11311 11426 11428 12747 12106 12267 
10 10830 10744 10873 10956 11483 12399 12398 12775 12776 12777 
10 3933 10785 3915 10879 12778 11683 4073 12779 11904 11903 
10 5703 4370 4166 5637 12490 11451 12491 5799 12018 11435 
10 10792 10833 5658 10851 11180 11675 12780 11529 11268 11677 
10 4891 4827 10865 10914 5188 12781 12063 12064 12782 12065 
10 10716 10834 10853 10922 12785 12784 12783 10983 11338 12786 
10 4922 10819 4847 10847 12005 12334 5152 11771 12004 12536 
10 10727 10839 10782 10897 11635 12503 11038 11638 11261 12051 
10 4846 5306 4876 10938 12787 12020 4985 12788 11973 11326 
10 10729 10916 10775 10930 12612 12789 12754 12614 12609 12755 
10 10762 5296 10829 10942 12790 12112 12581 11393 12115 12114 
10 10743 10782 10814 10897 12603 12738 12298 11760 12051 12547 
10 10720 10798 10758 10908 11068 11070 11065 12579 12791 12578 
10 5611 10767 10935 10950 12422 12424 12423 12792 12793 12794 
10 4360 10815 4444 10918 12795 11305 4779 12665 11309 11308 
10 4850 10837 10864 10882 12610 11792 12611 12796 12797 12798 
10 10724 10795 10863 10913 12800 12669 12799 12801 12670 12672 
10 5347 3448 10822 10839 5586 12495 12294 12296 12533 12297 
10 10724 10774 10831 10892 12681 12166 12593 12802 11583 12803 
10 5688 5662 5612 10824 5885 5875 5881 10965 11098 12484 
10 5615 5653 10830 10893 5912 12748 12804 12805 12751 12752 
10 5297 5311 10761 10909 5518 11422 12806 12807 11424 11423 
10 10716 10745 10842 10916 12002 11730 12372 12679 12607 12808 
10 10774 10724 10795 10892 12681 12800 11358 11583 12802 12809 
10 5342 5315 10740 10871 5492 12762 11951 12242 12810 12241 
10 10834 10743 10853 10922 11336 11758 12784 11338 11337 12786 
10 5311 3918 3940 10761 11905 4022 12103 11422 11906 12104 
10 10754 10783 10864 10882 11164 12148 12147 12133 12135 12798 
10 4856 4914 4891 10865 5262 5052 5187 12282 12811 12063 
10 4347 10807 10815 10878 12453 12813 12812 12454 12362 12814 
10 4919 10870 4859 10899 12470 12265 5255 12472 12267 12266 
10 10715 10838 10826 10941 11109 11313 12815 12263 11314 11285 
10 10733 10913 10795 10952 12671 12670 11289 12690 12816 11233 
10 10733 10746 10856 10895 11563 12040 11290 11779 12817 12380 
10 3435 3464 10789 10800 3753 11871 12007 12248 11870 10960 
10 4121 4141 4153 10862 4272 4273 4266 10962 11123 11005 
10 3927 10886 10827 10900 12819 12153 12818 12820 12821 12822 
10 10817 10776 10826 10957 12567 11986 12568 12823 12745 12746 
10 10798 10726 10875 10903 11302 11094 11126 12824 12825 12826 
10 5699 10951 10915 10955 12828 12255 12827 12829 12259 12258 
10 10794 10790 10820 10898 11010 11053 10989 12602 12601 12830 
10 4120 4144 10809 10816 4259 12139 11720 11723 12142 11724 
10 5301 10782 10814 10850 12739 12738 12299 12831 12498 12774 
10 4897 4848 3939 10761 5171 11862 11941 11681 11481 11863 
10 4865 10775 10847 10927 12833 11770 12832 12834 12835 12836 
10 4142 4125 4154 10756 4318 4317 4299 12711 12628 12710 
10 3936 10841 10752 10944 12838 12837 11660 12839 11934 12552 
10 10735 10788 10865 10870 12303 12284 11658 11427 11697 12062 
10 10751 10803 10816 10887 12089 11598 12143 12692 11600 11186 
10 5677 5632 4407 10760 6070 11396 12840 12841 11398 11397 
10 4880 5673 10763 10819 12843 12842 12403 12404 12844 12074 
10 4431 4440 3528 4373 4535 11678 12249 4699 4814 11145 
10 4865 10775 4922 10847 12833 11769 5157 12832 11770 11771 
10 5709 4849 5641 4907 11780 11781 6077 12845 5161 12455 
10 10759 10716 10842 10853 12374 12372 12373 11040 12783 12846 
10 4903 4872 10778 10928 5201 11293 12771 12772 11294 11169 
10 4127 4148 10747 10912 4328 12695 12847 12848 12696 11368 
10 5299 5326 10814 10821 5546 12849 11543 11494 12850 11544 
10 10726 10785 10836 10900 12852 12851 11095 11096 12853 11050 
10 3496 4408 3451 10757 12854 11413 3888 12855 11417 11416 
10 5635 4842 5654 10784 12856 12554 5814 12857 12555 11694 
10 10732 10790 10857 10937 12859 12858 12179 12860 12861 12862 
10 10814 10734 10821 10850 12188 11936 11544 12774 11410 11937 
10 4373 4422 3938 10752 4698 12056 11853 11149 12057 11854 
10 10715 10832 10889 10931 11227 11228 11112 12410 12863 12411 
10 4816 4891 4914 10870 5048 5052 5053 12864 12061 11696 
10 10752 10774 10795 10892 11354 11358 11357 11581 11583 12809 
10 5313 10850 5293 10919 12865 12013 5452 12866 12017 12016 
10 10718 10791 10815 10918 12328 12329 12330 12867 12348 11309 
10 5615 10830 10849 10893 12804 12869 12868 12805 12752 12870 
10 10732 10898 10790 10937 12662 12601 12859 12860 12871 12861 
10 5296 5310 10756 10942 5508 12872 12111 12115 12873 12113 
10 5350 10876 5314 10946 12620 12874 5608 12394 12622 12875 
10 4836 4914 10788 10910 5261 11646 12760 12876 11649 11650 
10 3475 4431 3518 10752 12878 12877 3569 11580 11743 12879 
10 10822 10802 10919 10932 12881 12880 11757 12882 12883 12884 
10 5693 5623 5658 10833 6012 6013 5860 12885 12110 11675 
10 3918 3902 10761 10879 4074 12757 11906 11999 12758 11902 
10 10728 10759 10844 10939 12886 11856 11765 11766 12887 11767 
10 10754 10875 10885 10888 11124 12487 12480 12305 12307 12481 
10 10758 10798 10875 10903 11070 11126 11125 12888 12824 12826 
10 5669 5691 4400 10936 5790 12889 11798 11803 12890 11801 
10 4430 4369 4129 10789 4672 12419 12891 12892 12420 12366 
10 4837 4866 10858 10896 5268 12893 11826 11961 12894 11704 
10 3461 3518 4431 10752 3772 12877 11742 11148 12879 11743 
10 4384 10805 4417 10815 12437 11745 4724 12200 11712 11542 
10 3905 10772 10841 10902 12895 12336 11982 11983 12896 11930 
10 5664 10804 10854 10935 12705 11262 12897 12706 12425 11619 
10 4438 4366 4442 10821 4813 4744 4630 12588 12898 11978 
10 4383 4444 4341 10825 4575 4576 4572 11584 11332 10975 
10 10740 10822 10919 10932 11753 11757 11756 11882 12882 12884 
10 10719 10838 10742 10854 11489 11490 11236 11238 11092 11237 
10 5710 5623 10925 10936 6010 12618 12899 12900 12342 12727 
10 4856 4820 10813 10865 5102 11976 12281 12282 12901 12283 
10 10842 10759 10853 10891 12373 11040 12846 12902 12903 12904 
10 5318 5292 5319 10773 5433 5439 5444 11249 12468 11938 
10 3947 5709 4916 10768 12640 12349 12639 11797 11784 12350 
10 4128 10751 4145 10887 12623 12691 4331 12905 12692 12402 
10 10813 10736 10858 10891 11822 11825 11827 12906 12907 12908 
10 4438 10757 10821 10845 12909 12625 12588 12589 11815 11935 
10 10825 4426 10918 10934 12910 12735 11333 12442 12736 12354 
10 5350 5314 5333 10946 5608 5534 5430 12394 12875 12395 
10 4833 4851 4895 10810 5239 5128 5240 12273 12911 12274 
10 4358 10774 10807 10878 12009 11391 12010 12361 12912 12362 
10 10774 4403 10795 10878 12570 12449 11358 12912 12450 11218 
10 4130 4159 10764 10929 4275 12913 11437 12914 12915 11317 
10 10820 10749 10852 10861 11375 11016 12514 11806 11019 11021 
10 5611 10804 10767 10881 12421 11502 12422 12916 11642 11641 
10 10767 10730 10885 10888 12094 12479 11654 12096 12095 12481 
10 5319 10773 5316 10801 11938 12202 5438 11939 11248 12203 
10 10774 10795 10835 10878 11358 11845 12682 12912 11218 11847 
10 10759 10818 10727 10891 11809 12301 11039 12903 12917 12918 
10 10752 10795 10724 10892 11357 12800 12919 11581 12809 12802 
10 3532 3443 3480 10841 3840 3841 3781 12920 12921 12922 
10 10722 10773 10829 10926 11366 11571 12073 11698 11700 11710 
10 4439 4382 10793 10805 4792 11160 12923 12924 11159 11115 
10 10771 10825 10918 10934 12289 11333 12347 11190 12442 12354 
10 10786 5306 10829 10938 11972 12759 12324 11328 11973 12703 
10 10728 10832 10844 10901 11738 11510 11765 12925 12278 12926 
10 4862 10787 4874 10803 12927 12087 5058 12928 12091 12090 
10 10832 10818 10901 10931 11811 12276 12278 12863 11592 12668 
10 10723 10919 10802 10932 12929 12880 11208 12930 12884 12883 
10 4160 4430 4129 10789 12931 12891 4265 12932 12892 12366 
10 4147 10769 4122 10947 12635 12031 4283 12933 12033 12032 
10 3472 4385 10807 10940 12936 12935 12934 12937 12938 12939 
10 3521 5353 3451 10846 5543 5602 3887 12129 11574 11573 
10 10775 10824 10745 10842 11455 10966 12940 12605 12216 11730 
10 4836 10788 10858 10910 12760 12511 12761 12876 11650 12313 
10 4818 10836 10837 10882 12943 12942 12941 12944 12945 12797 
10 3926 3906 10737 10880 4105 11620 12946 12947 11774 11775 
10 5645 10884 10747 10929 12949 12948 11984 11838 12950 11370 
10 4909 5321 4872 10779 12951 11292 4973 12952 11275 11691 
10 4884 10777 5329 10867 12955 12954 12953 12956 12586 12957 
10 5615 10849 10830 10956 12868 12869 12804 12958 12959 12775 
10 5311 5337 5297 10761 5366 5514 5518 11422 11718 12806 
10 5319 5316 10800 10801 5438 12201 12960 11939 12203 12204 
10 10759 10844 10832 10901 11856 11510 11812 12277 12926 12278 
10 3448 10782 5336 10850 12493 12961 5589 12496 12498 12962 
10 5301 5336 10782 10850 5595 12961 12739 12831 12962 12498 
10 3497 3472 4409 10807 3575 12963 11388 11389 12934 11390 
10 5352 5300 10786 10926 5561 11585 12325 12326 11741 11143 
10 5337 3940 3909 10761 12102 4069 11717 11718 12104 11480 
10 10782 10727 10802 10839 11038 11043 11045 12503 11635 12964 
10 10795 10724 10835 10913 12800 12657 11845 12670 12801 12965 
10 10770 10811 10865 10883 12506 11629 12435 11449 11331 12436 
10 10783 4835 10870 10914 12765 12471 11428 11609 12966 12066 
10 10775 10824 10872 10930 11455 12538 11461 12755 12604 12967 
10 4142 4125 10756 10862 4318 12628 12711 12968 12626 12627 
10 5616 5685 5646 10808 5932 5933 5934 12513 12969 11667 
10 5354 5294 5312 10839 5466 5462 5465 11860 11257 12970 
10 4122 10769 4147 10929 12031 12635 4283 12029 12030 12636 
10 10778 10755 10899 10928 12058 12106 11606 11169 11400 12463 
10 5690 10768 3941 10797 11960 12972 12971 12973 12720 12974 
10 10794 10748 10828 10860 12977 12976 12975 12978 12979 12980 
10 10739 10749 10820 10843 11363 11375 11303 12170 12250 11136 
10 10835 10795 10913 10952 11845 12670 12965 12044 11233 12816 
10 10753 10783 10826 10838 11163 11312 11958 11129 11497 11313 
10 10881 5671 10893 10955 12982 12981 12234 12235 12983 11913 
10 4367 10830 10873 10956 12985 12398 12984 12986 12775 12777 
10 10788 10813 10858 10891 12280 11827 12511 12987 12906 12908 
10 4837 4866 10896 10927 5268 12894 11961 11996 12709 11997 
10 5699 5642 10951 10955 5953 12988 12828 12829 12989 12259 
10 5353 5346 3451 10757 5461 5600 5602 11572 12990 11416 
10 3440 5342 5315 10740 5537 5492 5542 12598 11951 12762 
10 4142 10756 10816 10862 12711 11968 12991 12968 12627 12467 
10 3912 3906 10880 10890 4104 11774 12992 12993 11207 11776 
10 10765 5707 10859 10906 12021 12022 11556 12994 12995 12996 
10 4375 10771 4396 10934 12723 12352 4596 12725 11190 12353 
10 5313 5293 5353 10919 5452 5455 5456 12866 12016 12167 
10 4856 10788 4914 10865 12279 11646 5262 12282 12284 12811 
10 5322 5296 10756 10829 5510 12111 11568 11569 12112 11570 
10 5304 5295 3473 10778 5474 5475 5378 12520 12244 11432 
10 10777 10720 10778 10958 12997 12041 11433 11849 12998 11850 
10 3941 5690 3911 10768 12971 11959 4081 12972 11960 11796 
10 5346 5303 10821 10850 5605 13000 12999 13001 13002 11937 
10 10715 10753 10817 10826 11127 12236 12238 12815 11958 12568 
10 3931 3905 10772 10841 4099 12895 12158 12335 11982 12336 
10 5628 10804 5681 10849 11817 13003 6044 11819 11821 13004 
10 3929 10868 4406 10895 13007 13006 13005 13008 12564 13009 
10 4395 4387 4412 10790 4681 4586 4751 11867 12499 12515 
10 10724 10774 10795 10835 12681 11358 12800 12657 12682 11845 
10 10735 10865 10883 10914 11658 12436 13010 11878 12065 13011 
10 4363 10760 4434 10873 11399 11644 4802 13012 13013 13014 
10 10723 10782 10822 10850 11211 12494 13015 11506 12498 12497 
10 4881 10785 3930 10827 13018 13017 13016 13019 13020 13021 
10 10759 10728 10844 10901 12886 11765 11856 12277 12925 12926 
10 4915 4848 3946 3939 5289 11478 12117 13022 11862 3994 
10 3528 3461 3944 3936 3898 11219 11816 13023 11659 4010 
10 10760 10859 10873 10874 12687 13024 13013 12688 12689 12486 
10 4827 10883 10865 10914 13025 12436 12781 12782 13011 12065 
10 5351 5311 5297 10909 5520 5518 5519 12240 11424 12807 
10 10731 10770 10824 10869 12704 12413 11459 11460 13026 10970 
10 5316 5322 10773 10926 5441 11566 12202 13027 11709 11700 
10 10794 10820 10828 10898 10989 11101 12975 12602 12830 13028 
10 5645 4135 10884 10929 13030 13029 12949 11838 13031 12950 
10 4163 4122 4130 10764 4278 4276 4277 13032 13033 11437 
10 4913 4924 4819 10910 5094 5086 5093 12311 12445 12312 
10 10738 10876 10920 10946 12069 12621 12197 11383 12622 12396 
10 5327 5307 3435 10789 5411 5494 5493 11492 10997 12007 
10 10797 10730 10885 10950 13035 12479 13034 12339 13036 13037 
10 4384 4428 4353 10805 4656 4725 4723 12437 11713 12545 
10 5646 5697 5616 10763 5759 5927 5934 11669 11763 12512 
10 4922 10775 4830 10872 11769 12045 5221 11772 11461 12046 
10 4831 4921 10785 10917 5229 13039 13038 13040 13041 13042 
10 4132 4164 4124 10763 4303 4304 4302 11442 11922 11347 
10 10794 10828 10834 10860 12975 13043 11651 12978 12980 13044 
10 5312 5332 3448 10839 5464 5585 5584 12970 12502 12533 
10 3448 5313 10822 10850 5588 13045 12495 12496 12865 12497 
10 10745 10824 10775 10930 10966 11455 12940 12576 12604 12755 
10 10746 10780 10856 10915 11561 11192 12040 12256 12643 12475 
10 5667 10747 10792 10851 12539 12540 12541 13046 11985 11529 
10 5629 5707 10765 10869 6055 12021 11555 12355 12368 12220 
10 4136 4123 10762 10887 4294 11183 13047 13048 11185 11184 
10 4160 4430 10789 10806 12931 12892 12932 13049 13050 10993 
10 10721 10789 10800 10801 10994 10960 11144 11022 10998 12204 
10 5672 5639 4405 10796 5795 12685 12205 12101 11474 12099 
10 5292 10773 10814 10926 12468 11251 12469 13051 11700 12300 
10 5619 10768 10797 10950 13053 12720 13052 13054 13055 12339 
10 3942 3910 10746 10951 4057 13057 13056 13058 13059 12254 
10 5331 10831 10776 10871 13062 13061 13060 13063 13064 13065 
10 10790 10866 4387 10937 11254 12500 12499 12861 13066 13067 
10 10730 10797 10885 10886 13035 13034 12479 12383 12125 13068 
10 3480 10848 10831 10892 13070 12595 13069 13071 13072 12803 
10 10763 10729 10808 10809 12212 13073 11668 11345 12211 11734 
10 10723 10782 10802 10822 11211 11045 11208 13015 12494 12881 
10 10805 10741 10815 10932 11744 11304 11712 13074 11377 13075 
10 10740 10805 10815 10932 13076 11712 12646 11882 13074 13075 
10 10720 10777 10778 10899 12997 11433 12041 12686 11604 11606 
10 4145 10751 4144 10816 12691 12141 4258 12401 12143 12142 
10 5707 5650 5629 10859 6058 6057 6055 12022 12206 11557 
10 3906 3926 10737 10943 4105 12946 11620 11993 13077 11994 
10 10724 10831 10848 10892 12593 12595 12594 12802 12803 13072 
10 10795 10863 10868 10944 12669 11889 11727 12715 13078 12553 
10 5619 10840 10768 10950 13080 13079 13053 13054 13081 13055 
10 10751 4144 10809 10933 12141 12139 12140 11833 12633 12391 
10 4449 4438 4345 10757 4631 4629 4624 11706 12909 12318 
10 4396 10771 10878 10918 12352 11217 13082 12351 12347 13083 
10 10775 10872 10819 10930 11461 12006 12067 12755 12967 12756 
10 4433 3521 10757 10846 13084 12128 11828 11829 12129 11575 
10 4160 10789 4121 10806 12932 10961 4264 13049 10993 11003 
10 10730 10768 10797 10886 12381 12720 13035 12383 12152 12125 
10 4158 4136 10762 10887 4218 13047 12573 12597 13048 11184 
10 10724 10848 10758 10903 12594 12596 12591 13085 13086 12888 
10 5626 10893 5671 10955 11908 12981 6032 11911 11913 12983 
10 5686 5653 5615 10893 5924 5912 5920 13087 12751 12805 
10 4380 4422 4351 10752 4467 4697 4701 11747 12057 11355 
10 10751 10809 10816 10860 12140 11724 12143 13088 13089 13090 
10 10791 10741 10815 10918 11165 11304 12329 12348 11307 11309 
10 10775 10916 10745 10930 12789 12607 12940 12755 12609 12576 
10 3479 3443 5351 10848 3842 5566 5525 13091 12730 12729 
10 10777 10720 10810 10899 12997 11373 12275 11604 12686 13092 
10 10775 4869 10813 10927 11224 11225 11060 12835 13093 12130 
10 4409 4388 3475 10774 4541 12168 12124 11387 12039 11579 
10 3904 3916 3934 10895 4095 4063 4096 13094 13095 11777 
10 4898 3943 3911 10768 13096 4082 11876 11877 13097 11796 
10 10722 10794 10834 10860 11652 11651 11335 13098 12978 13044 
10 3475 4388 4431 10752 12168 4538 12878 11580 12038 11743 
10 10733 10780 10923 10952 11562 11612 11611 12690 11372 13099 
10 10759 10891 10842 10901 12903 12902 12373 12277 13100 11731 
10 3448 5336 5313 10850 5589 5453 5588 12496 12962 12865 
10 4874 10751 4832 10803 12088 13101 5235 12090 12089 13102 
10 10763 10751 10809 10933 12217 12140 11345 12390 11833 12391 
10 4161 3517 10762 10942 12474 12409 12025 12026 13103 11393 
10 10721 10789 10801 10866 10994 10998 11022 11253 11002 11001 
10 5693 5658 10792 10833 5860 12780 13104 12885 11675 11180 
10 3440 10846 10740 10919 12707 11950 12598 12599 12726 11756 
10 10771 10780 10856 10952 11151 11192 11188 11234 11372 11235 
10 5341 5295 10778 10876 5477 12244 13105 13106 13107 12043 
10 5682 10799 5613 10925 13108 12767 5887 13109 12209 12768 
10 10722 10794 10860 10894 11652 12978 13098 12438 12566 13110 
10 10715 10818 10832 10931 11810 11811 11227 12410 11592 12863 
10 10722 10926 10786 10948 11698 11143 13111 11735 12314 12320 
10 5679 5657 5627 10840 5808 6043 6041 11035 11702 12119 
10 3936 3914 10841 10944 4013 13112 12838 12839 13113 11934 
10 10715 10838 10818 10931 11109 11761 11810 12410 11472 11592 
10 10719 10837 10754 10864 12590 12517 12145 12146 11792 12147 
10 4868 10836 10810 10917 13116 13115 13114 13117 13118 13119 
10 3936 3508 10752 10841 12637 12638 11660 12838 13120 12837 
10 5649 10811 5683 10869 13121 12262 5980 13122 12261 12219 
10 10793 10741 10805 10844 11272 11744 11115 11509 11508 12645 
10 4865 10847 10787 10927 12832 12233 13123 12834 12836 13124 
10 10766 10719 10784 10864 13125 12253 11695 11790 12146 12050 
10 4342 10852 10790 10937 13128 13127 13126 13129 13130 12861 
10 5299 5307 5324 10801 5549 5410 5551 11465 10999 11464 
10 10728 10799 10843 10925 12642 11750 12169 12192 12209 12344 
10 3910 3937 3901 10746 4054 4055 4053 13057 13131 13132 
10 10805 10740 10815 10846 13076 12646 11712 11715 11950 11716 
10 10750 10727 10779 10910 11637 12308 11560 13133 11634 12231 
10 5707 5649 5683 10869 6054 5980 5845 12368 13122 12219 
10 10744 10832 10728 10859 11578 11738 12426 12766 13134 12641 
10 10761 10772 10879 10909 11420 12000 11902 11423 11425 13135 
10 10742 10855 10804 10889 11241 11264 11263 12122 11512 13136 
10 10726 10810 10754 10836 11359 11361 11301 11095 13115 11948 
10 10743 10782 10812 10814 12603 11089 13137 12298 12738 12773 
10 4128 4156 10751 10933 4335 12624 12623 13138 12632 11833 
10 4405 4348 10764 10857 4659 13139 12098 12501 13140 11406 
10 3494 10772 3443 10841 12159 12728 3836 12337 12336 12921 
10 4365 4437 10904 10936 4611 13141 12615 12571 13142 11944 
10 3942 3910 3901 10746 4057 4053 4056 13056 13057 13132 
10 10715 10826 10817 10941 12815 12568 12238 12263 11285 13143 
10 10735 10818 10838 10931 11657 11761 11072 11471 11592 11472 
10 4386 5636 5653 10830 13145 5775 13144 13146 13147 12748 
10 4851 10810 10882 10899 12911 13149 13148 13150 13092 13151 
10 10757 5346 10821 10850 12990 12999 12625 12012 13001 11937 
10 3505 3434 10807 10871 3739 13152 11341 13153 13154 13155 
10 3937 10746 3910 10951 13131 13057 4054 13156 12254 13059 
10 5711 10854 5628 10877 13157 11977 6046 12183 11093 12182 
10 5644 10804 10881 10893 13159 11642 13158 13160 12674 12234 
10 10716 10759 10843 10939 12374 12375 12003 11011 12887 13161 
10 10738 10817 10826 10941 11880 12568 12060 11596 13143 11285 
10 10756 4142 10816 10942 12711 12991 11968 12113 12713 11394 
10 5315 10740 10871 10920 12762 12241 12810 12763 12198 13162 
10 4135 4155 4127 10929 4280 4327 4326 13031 13163 13164 
10 4869 4820 4840 10813 5096 5097 5095 11225 11976 11059 
10 4903 10899 4859 10928 12770 12266 5131 12772 12463 12462 
10 10754 10810 10720 10882 11361 11373 11067 12133 13149 12134 
10 5326 10814 10821 10850 12849 11544 12850 13165 12774 11937 
10 5316 10773 5292 10926 12202 12468 5437 13027 11700 13051 
10 5642 10746 10890 10951 13168 13167 13166 12988 12254 13169 
10 10723 10850 10822 10919 11506 12497 13015 12929 12017 11757 
10 5628 5664 10804 10854 6048 12705 11817 11977 12897 11262 
10 5645 10747 5667 10851 11984 12539 5945 11836 11985 13046 
10 5316 5322 3444 10800 5441 5570 5571 12201 11594 12617 
10 4844 5305 5328 10762 11861 5399 13170 11280 11245 12700 
10 5331 10776 10831 10908 13060 13061 13062 13171 12769 13172 
10 10787 10775 10847 10916 13173 11770 12233 13174 12789 13175 
10 10727 10802 10839 10941 11043 12964 11635 11636 12446 11597 
10 10728 10765 10799 10859 13176 11553 12642 12641 11556 11558 
10 4839 5343 4909 10779 11841 13177 5279 11843 11842 12952 
10 10772 3443 10841 10848 12728 12921 12336 12731 12730 13178 
10 5667 5655 10792 10808 5855 13179 12541 12542 13180 12543 
10 4390 10857 10852 10937 13183 13182 13181 13184 12862 13130 
10 10836 10754 10837 10882 11948 12517 12942 12945 12133 12797 
10 10749 10793 10728 10904 11521 11739 11864 11131 13185 12172 
10 4845 4132 4168 4162 11469 4340 11468 13186 4301 4228 
10 5637 4130 4166 4159 11436 4338 11435 13187 4275 4199 
10 3944 4373 4440 3938 11195 4814 11805 3962 11853 13188 
10 10773 10801 10814 10922 11248 11252 11251 11367 11024 13189 
10 10756 3444 10800 10911 12616 12617 11593 12630 13190 10971 
10 10740 10815 10817 10932 12646 12332 11881 11882 13075 11883 
10 10803 10751 10816 10860 12089 12143 11598 13191 13088 13090 
10 10809 10748 10816 10860 11719 11722 11724 13089 12979 13090 
10 10749 10843 10728 10939 12250 12169 11864 11376 13161 11766 
10 4362 4421 10749 10904 4800 13192 11018 11946 13193 11131 
10 5308 4906 3519 10761 12120 13194 5516 11501 12121 13195 
10 10801 10734 10814 10922 11023 12188 11252 11024 10984 13189 
10 10775 10787 10847 10927 13173 12233 11770 12835 13124 12836 
10 10806 4418 10866 10937 13198 13197 13196 13199 13200 13066 
10 10725 10804 10855 10889 12345 11264 11158 13201 13136 11512 
10 5672 5617 5639 10764 5938 5942 5795 12100 12451 11475 
10 3440 5315 5334 10740 5542 5424 5539 12598 12762 11754 
10 4880 4824 4847 10763 5146 5150 5042 12403 12076 12333 
10 5625 10808 10747 10884 13203 12544 13202 13204 11671 12948 
10 3929 4406 4379 10895 13005 4473 13205 13008 13009 13206 
10 4393 4403 4343 10878 4607 4601 4605 11899 12450 11216 
10 4831 10827 4920 10836 13208 13207 5227 13209 13210 13211 
10 4847 10819 4922 10872 12334 12005 5152 13212 12006 11772 
10 3505 3463 3434 10871 3738 3737 3739 13153 13213 13154 
10 10728 10874 10760 10904 11740 12688 12190 12172 13214 12227 
10 4897 4848 4915 3939 5171 5289 4939 11941 11862 13022 
10 3936 3528 3461 3508 13023 3898 11659 12637 3644 3770 
10 5650 5682 5629 10799 5888 6056 6057 12207 13108 11554 
10 10769 10764 10929 10947 11296 11317 12030 12033 12740 12034 
10 5645 10764 5698 10929 11837 13215 5750 11838 11317 13216 
10 5690 5619 10768 10797 5964 13053 11960 12973 13052 12720 
10 4818 10810 10836 10882 13217 13115 12943 12944 13149 12945 
10 3931 3918 5311 10772 4019 11905 12157 12158 11907 11421 
10 3497 3475 3445 10774 3572 3854 3852 11386 11579 12155 
10 5682 10833 10799 10925 13218 11956 13108 13109 12619 12209 
10 4916 4849 5709 4907 5290 11780 12349 5010 5161 12845 
10 10743 10812 10782 10853 13137 11089 12603 11758 11090 11042 
10 4843 4860 4822 10778 4967 5120 5121 12132 11434 12416 
10 5675 5647 3928 10797 5740 13219 11025 11027 13220 11026 
10 10737 3926 10880 10943 12946 12947 11775 11994 13077 13221 
10 4409 4358 4388 10774 4769 4770 4541 11387 12009 12039 
10 10722 10803 10816 10860 12400 11598 11969 13098 13191 13090 
10 4853 10887 10751 10933 13222 12692 11830 11835 13223 11833 
10 5663 10808 10819 10930 13226 13225 13224 13227 13228 12756 
10 5313 10822 10850 10919 13045 12497 12865 12866 11757 12017 
10 10734 10821 10845 10921 11936 11935 11408 11198 11496 11981 
10 4160 4121 4133 10806 4264 4268 4186 13049 11003 13229 
10 5691 4425 4400 10936 13230 4523 12889 12890 13231 11801 
10 10723 10759 10812 10939 11209 11088 11210 12144 12887 11135 
10 10737 10797 10885 10950 11621 13034 11928 12083 12339 13037 
10 10804 10725 10849 10889 12345 13232 11821 13136 13201 13233 
10 10742 10804 10849 10889 11263 11821 11820 12122 13136 13233 
10 3518 4431 3528 3461 12877 12249 3566 3772 11742 3898 
10 10790 10852 10857 10937 13127 13182 12858 12861 13130 12862 
10 10719 10784 10864 10914 12253 12050 12146 11608 12522 12356 
10 10815 4413 10878 10918 13235 13234 12814 11309 13236 13083 
10 10756 10800 10862 10911 11593 10964 12627 12630 10971 10973 
10 10729 10787 10847 10916 13237 12233 12213 12612 13174 13175 
10 10715 10802 10818 10941 12556 12302 11810 12263 12446 11762 
10 10733 10795 10863 10868 11289 12669 11888 11725 11727 11889 
10 5661 5624 10881 10950 6024 12082 13238 13239 12085 12084 
10 10729 10819 10775 10847 12753 12067 12754 12213 12004 11770 
10 10729 10847 10775 10916 12213 11770 12754 12612 13175 12789 
10 4842 4821 4861 10784 5108 5107 5022 12555 12049 12247 
10 10807 10718 10815 10878 13240 12330 12813 12362 13241 12814 
10 10721 10866 10790 10937 11253 11254 11008 13242 13066 12861 
10 5300 5306 5352 10786 5559 5507 5561 11585 11972 12325 
10 10746 10890 10737 10955 13167 11622 11852 12257 13243 12714 
10 4375 4343 10771 10856 4594 11215 12723 12724 11229 11188 
10 10751 4832 10803 10887 13101 13102 12089 12692 13244 11600 
10 3915 3939 3902 10761 3997 4067 4071 11680 11863 12757 
10 5302 5349 10750 10953 5558 11079 13245 13246 11084 11083 
10 10784 10735 10811 10883 11073 11656 12024 11321 13010 11331 
10 10736 10853 10858 10891 11885 11516 11825 12907 12904 12908 
10 10765 10811 10731 10869 11917 11589 11918 12220 12261 11460 
10 3940 3946 5337 3909 4023 12079 12102 4069 4117 11717 
10 3911 3943 4898 3947 4082 13096 11876 4119 4007 12080 
10 10723 10822 10802 10919 13015 12881 11208 12929 11757 12880 
10 4868 4921 4831 10917 5183 5229 5230 13117 13041 13040 
10 10734 10845 10861 10921 11408 12658 11807 11198 11981 12660 
10 4138 10945 10769 10947 13249 13248 13247 13250 13251 12033 
10 4351 4388 4403 10774 4704 4705 4706 11353 12039 12570 
10 4367 4427 4352 10830 4635 4711 4709 12985 11055 11963 
10 5682 5630 10799 10833 6060 11352 13108 13218 11955 11956 
10 4414 4362 10749 10861 4795 11018 13252 13253 11020 11019 
10 3941 3947 3911 5690 3991 4119 4081 12971 12230 11959 
10 3435 3464 3516 10789 3753 3553 3747 12007 11871 12186 
10 10820 10732 10828 10898 11102 11100 11101 12830 12662 13028 
10 4431 4351 4373 10752 4700 4696 4699 11743 11355 11149 
10 3461 3437 3518 10752 3771 3773 3772 11148 13254 12879 
10 10734 10801 10821 10921 11023 11507 11936 11198 11200 11496 
10 10761 10879 10726 10909 11902 13256 13255 11423 13135 13257 
10 5625 5667 10747 10808 6026 12539 13202 13203 12542 12544 
10 3927 3903 10827 10886 4086 12150 12818 12819 12154 12153 
10 5636 5615 10830 10956 5913 12804 13147 13258 12958 12775 
10 3943 10768 4898 10827 13097 11877 13096 13259 12151 13260 
10 4356 4446 10795 10868 4756 12488 11419 11726 12548 11727 
10 10781 10879 10726 10900 13261 13256 11793 11223 13262 11096 
10 4876 4829 10786 10953 5207 13263 11323 12562 13264 11085 
10 5673 5616 10763 10819 5925 12512 12842 12844 13265 12074 
10 5684 10859 5707 10906 13266 12022 5848 13267 12996 12995 
10 4422 4373 4351 10752 4698 4696 4697 12057 11149 11355 
10 3461 3508 3437 10752 3770 3769 3771 11148 12638 13254 
10 5673 4847 5640 10819 13269 13268 5834 12844 12334 13270 
10 4856 4820 4896 10813 5102 5100 5101 12281 11976 12508 
10 10772 10726 10879 10909 13271 13256 12000 11425 13257 13135 
10 5333 5291 5350 10920 5427 5426 5430 12393 13272 12392 
10 5655 10792 10808 10930 13179 12543 13180 13273 12608 13228 
10 5685 5646 10808 10884 5933 11667 12969 13274 11670 11671 
10 4919 4859 4835 10899 5255 5254 5252 12472 12266 12473 
10 3490 3445 10774 10831 3849 12155 13275 13276 11344 12166 
10 3942 10746 10895 10951 13056 12817 13277 13058 12254 13278 
10 5678 5626 5656 10915 6035 6037 5769 12460 12433 13279 
10 4423 10895 4374 10951 13281 13280 4684 13282 13278 13283 
10 5613 5682 5650 10799 5887 5888 5889 12767 13108 12207 
10 10723 10805 10919 10932 11116 13284 12929 12930 13074 12884 
10 3517 5296 10762 10942 5504 12790 12409 13103 12115 11393 
10 10805 10723 10844 10932 11116 12644 12645 13074 12930 12429 
10 5341 10778 5304 10946 13105 12520 5476 13285 11172 12521 
10 5695 10784 5614 10854 11319 12028 5901 13286 11091 13287 
10 5678 5656 4410 10915 5769 13288 12459 12460 13279 12461 
10 10781 10726 10879 10902 11793 13256 13261 13289 13290 13291 
10 4414 10749 10845 10861 13252 11523 12441 13253 11019 12658 
10 3933 3915 3902 10879 4073 4071 4072 12779 11903 12758 
10 4847 5640 10819 10872 13268 13270 12334 13212 13292 12006 
10 4883 3495 10750 10953 12384 12385 12386 13293 13294 11083 
10 5641 5700 4907 10768 5967 13295 12455 11782 13296 12456 
10 3899 10781 10900 10902 13298 11223 13297 13299 13289 13300 
10 5694 5664 5628 10854 6050 6048 6049 13301 12897 11977 
10 10810 10720 10882 10899 11373 12134 13149 13092 12686 13151 
10 10780 10733 10856 10952 11562 11290 11192 11372 12690 11235 
10 3903 3935 10797 10886 4088 12697 12721 12154 12698 12125 
10 5622 10872 10824 10930 13303 12538 13302 13304 12967 12604 
10 10777 4833 10810 10867 12271 12273 12275 12586 13305 13306 
10 5326 10821 5303 10850 12850 13000 5545 13165 11937 13002 
10 10716 10794 10820 10828 11014 10989 10980 12001 12975 11101 
10 10765 10728 10799 10901 13176 12642 11553 12667 12925 11751 
10 4144 4145 4128 10751 4258 4331 4336 12141 12691 12623 
10 4347 10815 10807 10940 12812 12813 12453 13307 12519 12939 
10 4147 4138 10769 10947 4282 13247 12635 12933 13250 12033 
10 4355 4442 10821 10921 4743 11978 13308 13309 11980 11496 
10 4880 4847 5673 10819 5042 13269 12843 12404 12334 12844 
10 10719 10766 10784 10854 13125 11695 12253 11238 11614 11091 
10 4159 5698 10764 10929 13310 13215 12913 12915 13216 11317 
10 5325 3446 10798 10867 5573 12582 13311 13312 12585 12587 
10 5706 5613 5716 10760 5897 5891 5898 13313 13314 13315 
10 10764 4122 10929 10947 13033 12029 11317 12740 12032 12034 
10 4824 4853 4874 10847 5155 5153 5154 12078 11831 12232 
10 10722 10907 10787 10948 13318 13317 13316 11735 13319 13320 
10 5304 5341 5295 10778 5476 5477 5474 12520 13105 12244 
10 10748 10721 10862 10894 13321 10995 12465 13322 13323 13324 
10 10726 10761 10785 10879 13255 11685 12852 13256 11902 11904 
10 10788 10727 10818 10891 13325 12301 12304 12987 12918 12917 
10 3443 5311 5351 10772 5565 5520 5566 12728 11421 12239 
10 4364 4438 4449 10757 4809 4631 4810 11415 12909 11706 
10 10853 10727 10858 10891 11041 11926 11516 12904 12918 12908 
10 4437 10760 10904 10936 13326 12227 13141 13142 13327 11944 
10 10805 10846 10757 10919 11715 11575 11814 13284 12726 12015 
10 4853 4139 10887 10933 13329 13328 13222 11835 13330 13223 
10 10722 10829 10786 10926 12073 12324 13111 11698 11710 11143 
10 5321 5298 5304 10946 5527 5526 5381 11171 12678 12521 
10 10756 10762 10829 10942 11965 12581 11570 12113 11393 12114 
10 5295 10778 10876 10958 12244 12043 13107 12245 11850 13331 
10 10732 10790 10852 10857 12859 13127 12431 12179 12858 13182 
10 4385 4409 3472 10807 4544 12963 12936 12935 11390 12934 
10 5328 10762 5296 10829 12700 12790 5502 12699 12581 12112 
10 10799 10833 10745 10843 11956 11175 10986 11750 11138 11177 
10 4122 10764 4163 10947 13033 13032 4278 12032 12740 13332 
10 10750 10858 10727 10910 11515 11926 11637 13133 12313 11634 
10 4818 10837 4850 10882 12941 12610 5071 12944 12797 12796 
10 4865 4874 10787 10847 5062 12087 13123 12832 12232 12233 
10 4386 5653 10823 10830 13144 12750 13333 13146 12748 12749 
10 5662 5622 10824 10930 5997 13302 11098 12575 13304 12604 
10 4158 4123 4131 10762 4288 4289 4287 12573 11183 11244 
10 10726 10902 10781 10903 13290 13289 11793 12825 13334 13335 
10 3932 3921 10902 10944 4052 13336 11931 11932 13337 11933 
10 5325 10798 3446 10958 13311 12582 5573 13338 12676 12675 
10 4361 4439 4382 10793 4789 4792 4790 11269 12923 11160 
10 5679 5654 4885 10766 5811 13339 11033 11032 11692 11031 
10 10797 10737 10885 10886 11621 11928 13034 12125 11992 13068 
10 10771 10905 10718 10918 12370 13341 13340 12347 13342 12867 
10 10761 10726 10785 10917 13255 12852 11685 13343 13344 13042 
10 10738 10826 10755 10941 12060 11283 11380 11596 11285 11284 
10 10748 10721 10894 10898 13321 13323 13322 12719 12600 13345 
10 4852 4904 4823 10762 4997 5135 5142 12116 12229 12722 
10 5299 5326 5318 10814 5546 5553 5552 11543 12849 11250 
10 4343 4396 10771 10878 4595 12352 11215 11216 13082 11217 
10 5636 4386 4367 10830 13145 4508 13346 13147 13146 12985 
10 5687 10766 5627 10935 11616 12118 6040 11618 11617 13347 
10 3936 3908 3900 10752 4042 4040 4041 11660 11197 13348 
10 3908 3938 3900 10752 4043 4044 4040 11197 11854 13348 
10 5310 4137 5330 10911 13349 12650 5419 13350 12652 12654 
10 10783 4835 10864 10882 12765 13351 12148 12135 13352 12798 
10 5326 5303 5346 10850 5545 5605 5459 13165 13002 13001 
10 10781 10863 10902 10943 13354 13353 13289 13355 13356 13357 
10 10718 10774 10807 10831 13358 11391 13240 13359 12166 11343 
10 4350 10746 10915 10951 13361 12256 13360 13362 12254 12255 
10 10740 10815 10846 10940 12646 11716 11950 11953 12519 11954 
10 5672 4370 5637 10764 13363 12018 5797 12100 11452 11438 
10 5715 5705 10770 10869 5886 13364 11531 13365 13366 13026 
10 10717 10923 10780 10952 12177 11612 11150 11371 13099 11372 
10 10773 10743 10814 10926 11365 12298 11251 11700 11699 12300 
10 10724 10863 10795 10944 12799 12669 12800 13367 13078 12715 
10 3444 5335 5316 10800 5568 5500 5571 12617 13368 12201 
10 10773 10814 10743 10922 11251 12298 11365 11367 13189 11337 
10 10744 10889 10832 10906 12563 11228 11578 13369 13370 13371 
10 4867 4818 10836 10837 5080 12943 13372 13373 12941 12942 
10 3443 3494 5311 10772 3836 5363 5565 12728 12159 11421 
10 4865 4890 10775 10927 5065 13374 12833 12834 13375 12835 
10 10759 10728 10843 10939 12886 12169 12375 12887 11766 13161 
10 4826 4848 4897 10761 5173 5171 5172 13376 11481 11681 
10 10836 4867 10837 10924 13372 13373 12942 13377 13378 12023 
10 5615 5653 5636 10830 5912 5775 5913 12804 12748 13147 
10 10722 10787 10834 10948 13316 13379 11335 11735 13320 11736 
10 4845 4880 5638 10763 5044 13380 12011 11470 12403 11444 
10 5669 4400 5639 10796 11798 13381 5793 11799 11800 11474 
10 4422 4440 4373 3938 4464 4814 4698 12056 13188 11853 
10 5310 10911 10756 10942 13350 12630 12872 12873 13382 12113 
10 4818 10810 4868 10836 13217 13114 5078 12943 13115 13116 
10 5300 5323 10786 10953 5560 11324 11585 11896 12561 11085 
10 10725 10823 10780 10893 11893 11894 11156 12673 11909 11920 
10 4903 4872 4843 10778 5201 4970 5123 12771 11293 12132 
10 4892 10755 4859 10870 12160 12264 5198 12340 11426 12265 
10 10750 10896 4917 10953 11703 13384 13383 11083 13385 13386 
10 10735 10788 10818 10865 12303 12304 11657 11658 12284 11630 
10 4393 4356 4446 10795 4758 4756 4708 11898 11419 12488 
10 4848 4826 4906 10761 5173 5174 5175 11481 13376 12121 
10 5329 4884 3473 10777 12953 13387 5375 12954 12955 11431 
10 4153 4133 4121 10806 4267 4268 4266 11004 13229 11003 
10 4121 4129 4157 10789 4263 4261 4262 10961 12366 12315 
10 4121 4160 4129 10789 4264 4265 4263 10961 12932 12366 
10 4825 4898 10768 10827 5158 11877 13388 13389 13260 12151 
10 4352 4367 10830 10873 4709 12985 11963 12397 12984 12398 
10 10731 10813 10770 10865 12251 12414 12704 11628 12283 12435 
10 4913 4917 4841 10953 5092 5288 5287 13390 13386 13391 
10 4408 10757 3496 10821 11417 12855 12854 13392 12625 13393 
10 5331 5320 10776 10908 5580 13394 13060 13171 13395 12769 
10 3480 10841 3443 10848 12922 12921 3841 13070 13178 12730 
10 10742 10832 10889 10906 13396 11228 12122 12137 13371 13370 
10 4420 4358 4385 10807 4767 4768 4657 12359 12010 12935 
10 4405 4372 4348 10857 4528 4662 4659 12501 11405 13140 
10 5310 4137 10911 10942 13349 12652 13350 12873 13397 13382 
10 3472 4368 4385 10940 13398 4547 12936 12937 13399 12938 
10 4922 4865 4830 10775 5157 5220 5221 11769 12833 12045 
10 10718 10774 10831 10835 13358 12166 13359 13400 12682 12656 
10 5611 10935 5670 10950 12423 13401 5865 12792 12794 13402 
10 10716 10834 10842 10853 12785 13403 12372 12783 12784 12846 
10 10834 10736 10842 10853 13405 13404 13403 12784 11885 12846 
10 4358 4409 4385 10807 4769 4544 4768 12010 11390 12935 
10 3903 3941 10768 10797 4080 12972 12149 12721 12974 12720 
10 5716 5632 5706 10760 6073 6072 5898 13315 11398 13313 
10 3437 3475 10752 10892 3779 11580 13254 13406 11582 11581 
10 4412 10790 10861 10921 12515 12123 13407 12516 11199 12660 
10 4836 4896 4889 10858 5259 5266 5263 12761 12510 13408 
10 3508 3437 10752 10841 3769 13254 12638 13120 13409 12837 
10 10746 3937 10890 10951 13131 13410 13167 12254 13156 13169 
10 4836 4856 4896 10788 5260 5101 5259 12760 12279 12509 
10 3943 3903 10768 10827 4083 12149 13097 13259 12150 12151 
10 4881 3930 4854 10827 13016 13411 4948 13019 13021 13412 
10 5695 5651 5620 10877 5910 5984 5978 11318 13413 12464 
10 4141 10862 4120 10912 11123 12466 4247 12164 12165 12035 
10 10748 10862 10721 10898 12465 10995 13321 12719 12718 12600 
10 4884 4833 10777 10867 5241 12271 12955 12956 13305 12586 
10 10766 10854 10719 10935 11614 11238 13125 11617 11619 12550 
10 5699 5618 5642 10955 5954 5952 5953 12829 13414 12989 
10 10775 10736 10813 10842 13415 11822 11060 12605 13404 12252 
10 4162 4905 10763 10933 13417 13416 12742 12744 13418 12390 
10 3445 10774 3475 10892 12155 11579 3854 13419 11583 11582 
10 4392 4393 4343 10856 4604 4605 4603 11291 11925 11229 
10 5328 10829 5306 10938 12699 12759 5396 12701 12703 11973 
10 3947 4898 4849 4916 12080 5159 11794 12639 4952 5290 
10 5337 3946 5348 5308 12079 12327 5367 5515 11603 5607 
10 5313 5334 10822 10919 5540 11752 13045 12866 11755 11757 
10 5616 10808 10763 10819 12513 11668 12512 13265 13225 12074 
10 5346 3496 10757 10821 5601 12855 12990 12999 13393 12625 
10 10718 10831 10758 10835 13359 12592 13420 13400 12656 12655 
10 5712 10797 5624 10950 13421 11545 6021 13422 12339 12085 
10 3446 5329 10777 10867 5574 12954 12584 12585 12957 12586 
10 3929 3916 10868 10895 3971 13423 13007 13008 13095 12564 
10 5331 10831 5320 10908 13062 13424 5580 13171 13172 13395 
10 10773 10721 10800 10801 11453 11144 11595 11248 11022 12204 
10 10832 10742 10889 10931 13396 12122 11228 12863 12052 12411 
10 3937 3901 10746 10890 4055 13132 13131 13410 13425 13167 
10 4913 10750 4917 10953 13426 13383 5092 13390 11083 13386 
10 10741 10825 10791 10889 10974 12288 11165 11167 12683 11113 
10 10776 10720 10908 10958 11987 12579 12769 13427 12998 13428 
10 4906 10761 4826 10867 12121 13376 5174 13429 13430 13431 
10 10751 10729 10809 10860 12321 12211 12140 13088 13432 13089 
10 3901 10880 10746 10890 13433 11564 13132 13425 11776 13167 
10 5611 10881 10767 10950 12916 11641 12422 12792 12084 12793 
10 5643 10854 5687 10935 13434 11615 5904 13435 11619 11618 
10 10744 10873 10859 10874 12399 13024 12766 11485 12486 12689 
10 5709 5641 3947 5690 6077 11857 12640 5744 5963 12230 
10 10729 10763 10808 10819 12212 11668 13073 12753 12074 13225 
10 4148 4120 10809 10912 4256 11720 12694 12696 12035 12037 
10 10746 10856 10895 10915 12040 12380 12817 12256 12475 13436 
10 10759 10723 10844 10939 11209 12644 11856 12887 12144 11767 
10 10742 10832 10906 10931 13396 13371 12137 12052 12863 13437 
10 4862 10787 10803 10907 12927 12091 12928 13438 13317 13439 
10 10790 10820 10852 10861 11053 12514 13127 12123 11806 11021 
10 4844 5328 4879 10762 13170 13440 4989 11280 12700 13441 
10 4857 4914 4836 10910 5265 5261 5264 13442 11649 12876 
10 4881 3915 3930 10785 13443 4000 13016 13018 11683 13017 
10 4831 10785 10836 10917 13038 12851 13209 13040 13042 13118 
10 3942 10746 3901 10895 13056 13132 4056 13277 12817 13444 
10 4135 4127 10884 10929 4326 13445 13029 13031 13164 12950 
10 5322 5296 5310 10756 5510 5508 5509 11568 12111 12872 
10 10730 10840 10767 10950 12377 12379 12094 13036 13081 12793 
10 5323 5306 5300 10786 5395 5559 5560 11324 11972 11585 
10 3480 3532 10841 10892 3781 12920 12922 13071 13446 13447 
10 4430 4349 10789 10806 4673 13448 12892 13050 13449 10993 
10 5346 5353 5293 10757 5461 5455 5460 12990 11572 12014 
10 3909 3902 3939 10761 4066 4067 4068 11480 12757 11863 
10 10828 10834 10860 10916 13043 13044 12980 12680 13450 13451 
10 10762 10803 10722 10938 11599 12400 11966 12702 13452 13453 
10 4141 4147 10769 10912 4249 12635 11535 12164 12634 11299 
10 10832 10765 10906 10931 13454 12994 13371 12863 11919 13437 
10 10759 10843 10728 10901 12375 12169 12886 12277 11733 12925 
10 3906 3912 3928 10890 4104 3984 4106 11207 12993 11030 
10 4892 4859 10755 10928 5198 12264 12160 13455 12462 11400 
10 10778 10720 10876 10958 12041 11988 12043 11850 12998 13331 
10 10786 10722 10907 10938 13111 13318 13456 11328 13453 13457 
10 5302 5300 5349 10953 5554 5557 5558 13246 11896 11084 
10 4448 10760 10874 10904 13459 12688 13458 13460 12227 13214 
10 4394 4421 4362 10904 4618 4800 4798 11130 13193 11946 
10 4375 4343 4396 10771 4594 4595 4596 12723 11215 12352 
10 5328 4879 10762 10938 13440 13441 12700 12701 13461 12702 
10 4892 10755 10910 10928 12160 11549 12161 13455 11400 11551 
10 10782 10802 10822 10839 11045 12881 12494 12503 12964 12297 
10 10715 10753 10826 10838 11127 11958 12815 11109 11129 11313 
10 5619 5657 10768 10840 5973 13462 13053 13080 11702 13079 
10 10719 10754 10837 10888 12145 12517 12590 11873 12305 12097 
10 3519 5297 10761 10867 5517 12806 13195 13463 13464 13430 
10 3907 3930 10785 10827 4111 13017 13465 13466 13021 13020 
10 10788 10731 10818 10865 13467 11588 12304 12284 11628 11630 
10 4909 5343 5321 10779 13177 5384 12951 12952 11842 11275 
10 10729 10763 10819 10847 12212 12074 12753 12213 12077 12004 
10 4832 10751 4853 10887 13101 11830 5236 13244 12692 13222 
10 3909 3940 3902 10761 4069 4070 4066 11480 12104 12757 
10 3473 5295 3506 10958 5475 5480 3730 11848 12245 13468 
10 5335 3464 3435 10800 5498 3753 5497 13368 11870 12248 
10 10736 10787 10916 10927 13470 13174 13469 11998 13124 13471 
10 5345 10750 5349 10897 13472 11079 5472 13473 11081 11080 
10 4342 4390 10852 10937 4587 13181 13128 13129 13184 13130 
10 10769 10806 10721 10937 11534 10992 12048 13474 13199 13242 
10 10794 10748 10860 10894 12977 12979 12978 12566 13322 13110 
10 10769 10721 10898 10937 12048 12600 12661 13474 13242 12871 
10 10758 10831 10718 10957 12592 13359 13420 11487 13475 13476 
10 4824 10763 4905 10933 12076 13416 5149 12737 12390 13418 
10 10812 10716 10853 10922 11133 12783 11090 11212 10983 12786 
10 5699 4432 10915 10951 13478 13477 12827 12828 13479 12255 
10 10738 10776 10817 10920 12068 12567 11880 12197 13480 12322 
10 4828 10779 4872 10928 13481 11691 5202 13482 11276 11294 
10 10728 10793 10874 10904 11739 11273 11740 12172 13185 13214 
10 3480 10841 10848 10892 12922 13178 13070 13071 13447 13072 
10 4355 4391 4442 10921 4748 4628 4743 13309 12054 11980 
10 3913 3900 10752 10944 4045 13348 12070 12551 13483 12552 
10 5301 5292 10814 10926 5432 12469 12299 12270 13051 12300 
10 5627 10766 10840 10935 12118 11036 12119 13347 11617 12631 
10 3936 10752 3900 10944 11660 13348 4041 12839 12552 13483 
10 4415 4443 4342 10861 4593 4591 4590 11232 13484 13485 
10 4448 4437 10760 10904 4619 13326 13459 13460 13141 12227 
10 10782 10723 10812 10850 11211 11210 11089 12498 11506 11411 
10 4415 4362 4443 10861 4799 4797 4593 11232 11020 13484 
10 5716 5632 10760 10873 6073 11398 13315 13486 13487 13013 
10 4350 10895 10856 10915 13489 12380 13488 13360 13436 12475 
10 10717 10771 10905 10952 11152 12370 12369 11371 11234 13490 
10 10722 10816 10756 10894 11969 11968 11967 12438 13491 12439 
10 10732 10747 10851 10954 11369 11985 11266 12558 12560 13492 
10 10730 10836 10754 10837 11049 11948 11947 12092 12942 12517 
10 10726 10781 10875 10903 11793 11222 11094 12825 13335 12826 
10 4420 4385 4347 10807 4657 4646 4653 12359 12935 12453 
10 5346 5303 3496 10821 5605 5606 5601 12999 13000 13393 
10 5332 5301 10782 10897 5593 12739 12504 12505 12268 12051 
10 5662 5630 5674 10930 6062 5850 6004 12575 12577 13493 
10 4890 4869 10775 10927 5222 11224 13374 13375 13093 12835 
10 5642 10746 5618 10890 13168 13494 5952 13166 13167 13495 
10 4130 10764 4122 10929 11437 13033 4276 12914 11317 12029 
10 3934 3901 10880 10895 4062 13433 11528 11777 13444 11778 
10 10787 10907 10736 10948 13317 13496 13470 13320 13319 11886 
10 3931 3494 3914 10841 12156 13497 4016 12335 12337 13112 
10 4366 4408 4424 10821 4812 4559 4741 12898 13392 13498 
10 5682 5659 10833 10925 5892 13499 13218 13109 13500 12619 
10 10811 10735 10865 10883 11656 11658 11629 11331 13010 12436 
10 4871 10864 4835 10882 13501 13351 5257 13502 12798 13352 
10 4379 3916 3929 10895 13503 3971 13205 13206 13095 13008 
10 4437 4363 4448 10760 4803 4805 4619 13326 11399 13459 
10 10776 10718 10831 10957 13504 13359 13061 12745 13476 13475 
10 10736 10842 10775 10916 13404 12605 13415 13469 12808 12789 
10 4423 3942 10895 10951 13505 13277 13281 13282 13058 13278 
10 5686 10823 5653 10893 13506 12750 5924 13087 11909 12751 
10 10724 10772 10841 10848 13508 12336 13507 12594 12731 13178 
10 4125 4154 10756 10942 4317 12710 12628 13509 12712 12113 
10 10753 10791 10817 10957 11128 12237 12236 11488 13510 12823 
10 3925 10868 10863 10944 13512 11889 13511 13513 12553 13078 
10 3495 5302 10750 10953 5603 13245 12385 13294 13246 11083 
10 5319 10800 3435 10801 12960 12248 5496 11939 12204 12008 
10 4410 4359 10823 10915 4775 11663 12458 12461 11661 11662 
10 4384 4444 4360 10815 4782 4779 4780 12200 11305 12795 
10 10734 10845 10749 10861 11408 11523 11374 11807 12658 11019 
10 3928 5647 3919 10797 13219 13514 3987 11026 13220 13515 
10 10762 10722 10829 10938 11966 12073 12581 12702 13453 12703 
10 10791 10718 10905 10918 12328 13341 12717 12348 12867 13342 
10 3943 3903 3911 10768 4083 4079 4082 13097 12149 11796 
10 5711 5694 5628 10854 6051 6049 6046 13157 13301 11977 
10 10777 10720 10798 10810 12997 11068 12583 12275 11373 11360 
10 10786 10829 10722 10938 12324 12073 13111 11328 12703 13453 
10 5332 5301 5336 10782 5593 5595 5591 12504 12739 12961 
10 4892 4816 4914 10870 5055 5053 5054 12340 12864 11696 
10 10810 10754 10836 10882 11361 11948 13115 13149 12133 12945 
10 4844 4823 10762 10938 5134 12722 11280 13516 13517 12702 
10 4382 4345 4414 10845 4620 4621 4622 11161 12319 12441 
10 10786 10750 10896 10948 11078 11703 13518 12320 11518 11705 
10 4362 4421 4414 10749 4800 4793 4795 11018 13192 13252 
10 4906 3519 10761 10867 13194 13195 12121 13429 13463 13430 
10 10739 10843 10833 10925 12170 11138 11205 12193 12344 12619 
10 4921 4855 10785 10917 5177 11971 13039 13041 13519 13042 
10 10723 10802 10759 10844 11208 11044 11209 12644 12569 11856 
10 5631 5715 5705 10770 6068 5886 6066 11530 11531 13364 
10 5715 10770 10811 10869 11531 12506 12507 13365 13026 12261 
10 10741 10805 10844 10932 11744 12645 11508 11377 13074 12429 
10 5320 5340 3447 10776 5581 5582 5579 13394 13520 13521 
10 4857 4836 10858 10910 5264 12761 13522 13442 12876 12313 
10 10827 10730 10836 10900 12382 11049 13210 12822 11051 11050 
10 5663 5655 10808 10930 5935 13180 13226 13227 13273 13228 
10 5308 3519 5297 10761 5516 5517 5513 11501 13195 12806 
10 10798 5325 10848 10908 13311 13524 13523 12791 13525 13526 
10 3935 3923 3906 10886 4091 4109 4108 12698 13527 11991 
10 10773 10721 10794 10894 11453 11009 11633 12440 13323 12566 
10 5642 10890 5689 10951 13166 13528 5951 12988 13169 13529 
10 4385 4347 10807 10940 4646 12453 12935 12938 13307 12939 
10 10738 10822 10802 10839 12196 12881 13530 11382 12297 12964 
10 10736 10916 10775 10927 13469 12789 13415 11998 13471 12835 
10 3911 3903 3941 10768 4079 4080 4081 11796 12149 12972 
10 10738 10839 10802 10941 11382 12964 13530 11596 11597 12446 
10 4383 4352 4427 10874 4716 4711 4643 11513 11964 11057 
10 5623 5659 5710 10925 6016 5895 6010 12618 13500 12899 
10 4838 4912 4923 10770 5277 5106 5278 11446 13531 11445 
10 4342 10790 10852 10861 13126 13127 13128 13485 12123 11021 
10 10764 10851 10796 10857 11476 11267 11403 11406 13532 11407 
10 10799 10833 10843 10925 11956 11138 11750 12209 12619 12344 
10 4125 10862 4146 10911 12626 12126 4313 12629 10973 12127 
10 5655 5625 5685 10808 6031 6030 5937 13180 13203 12969 
10 4363 4448 10760 10873 4805 13459 11399 13012 13533 13013 
10 10772 10724 10841 10902 13508 13507 12336 12896 13534 11930 
10 10800 10756 10862 10894 11593 12627 10964 13535 12439 13324 
10 10729 10751 10847 10860 12321 11832 12213 13432 13088 13536 
10 5308 5297 5337 10761 5513 5514 5515 11501 12806 11718 
10 4822 4903 10778 10899 5122 12771 12416 12417 12770 11606 
10 4375 4402 10856 10934 4597 12477 12724 12725 12478 11191 
10 5641 5700 5709 4907 5967 5802 6077 12455 13295 12845 
10 10761 4826 10867 10917 13376 13431 13430 13343 13537 13538 
10 4432 4374 4350 10951 4687 4683 4686 13479 13283 13362 
10 5316 5319 5292 10773 5438 5439 5437 12202 11938 12468 
10 5690 3941 5647 10797 12971 13539 5743 12973 12974 13220 
10 4869 4837 10813 10927 5272 11823 11225 13093 11996 12130 
10 3478 3512 5301 10926 3829 5435 5592 11141 13540 12270 
10 5626 5656 10915 10955 6037 13279 12433 11911 13541 12258 
10 5645 5625 10747 10884 6027 13202 11984 12949 13204 12948 
10 5628 10849 5652 10906 11819 13542 6045 12136 12138 13543 
10 10745 10775 10842 10916 12940 12605 11730 12607 12789 12808 
10 5623 10833 5659 10925 12110 13499 6016 12618 12619 13500 
10 10731 10788 10813 10865 13467 12280 12251 11628 12284 12283 
10 3904 10868 3916 10895 11890 13423 4095 13094 12564 13095 
10 5622 10819 10872 10930 13544 12006 13303 13304 12756 12967 
10 10720 10783 10882 10899 11162 12135 12134 12686 12747 13151 
10 4367 4398 5665 10956 4511 13546 13545 12986 13547 13548 
10 10753 10826 10720 10957 11958 11957 11106 11488 12746 11486 
10 10828 10860 10729 10916 12980 13432 12732 12680 13451 12612 
10 5312 3448 5347 10839 5584 5586 5587 12970 12533 12296 
10 10783 10720 10826 10899 11162 11957 11312 12747 12686 12107 
10 10841 10902 10724 10944 11930 13534 13507 11934 11933 13367 
10 4164 4140 4124 10763 4211 4310 4304 11922 12427 11347 
10 4922 4847 4824 10847 5152 5150 5151 11771 12536 12078 
10 10716 10794 10834 10922 11014 11651 12785 10983 10991 11338 
10 4132 10763 4124 10933 11442 11347 4302 12743 12390 12389 
10 10748 10828 10860 10954 12976 12980 12979 13549 13550 13551 
10 4429 4163 10764 10947 13553 13032 13552 13554 13332 12740 
10 3473 3506 10777 10958 3730 13555 11431 11848 13468 11849 
10 5690 5647 5619 10797 5743 5968 5964 12973 13220 13052 
10 5354 10779 10839 10946 11859 11256 11860 13556 11277 11384 
10 10726 10798 10810 10867 11302 11360 11359 13557 12587 13306 
10 4160 4133 4430 10806 4186 13558 12931 13049 13229 13050 
10 5611 5644 10804 10881 5867 13159 12421 12916 13158 11642 
10 5712 5619 10797 10950 5970 13052 13421 13422 13054 12339 
10 3923 3906 10886 10943 4109 11991 13527 13559 11993 11995 
10 4345 10757 4438 10845 12318 12909 4629 12319 11815 12589 
10 4372 5639 4400 10796 12684 13381 4527 11402 11474 11800 
10 4874 4853 4832 10751 5153 5236 5235 12088 11830 13101 
10 10798 5309 10908 10958 13561 13560 12791 12676 13562 13428 
10 10782 10812 10814 10850 11089 12773 12738 12498 11411 12774 
10 10790 10898 10721 10937 12601 12600 11008 12861 12871 13242 
10 10807 10718 10831 10871 13240 13359 11343 13155 12649 13064 
10 5630 10833 5610 10930 11955 13563 5851 12577 12733 13564 
10 10771 10835 10718 10905 11846 13400 13340 12370 13565 13341 
10 5677 5632 5701 4407 6070 6069 5784 12840 11396 13566 
10 4128 4152 4139 10887 4333 4224 4334 12905 13567 13328 
10 4865 4890 4830 10775 5065 5219 5220 12833 13374 12045 
10 5664 5643 5611 10935 5862 5863 5861 12706 13435 12423 
10 5699 10915 5656 10955 12827 13279 5766 12829 12258 13541 
10 10767 10717 10855 10888 11601 11153 11505 12096 13568 11875 
10 4400 4425 4354 10936 4523 4732 4738 11801 13231 12163 
10 4143 4148 4127 10912 4257 4328 4330 13569 12696 12848 
10 4417 4382 4439 10805 4720 4792 4580 11745 11159 12924 
10 10764 10732 10851 10857 11295 11266 11476 11406 12179 13532 
10 10761 10867 5297 10909 13430 13464 12806 11423 13570 12807 
10 10721 10800 10862 10894 11144 10964 10995 13323 13535 13324 
10 4127 10747 10884 10929 12847 12948 13445 13164 11370 12950 
10 4378 4430 4133 10806 4483 13558 13571 13572 13050 13229 
10 4817 4874 4862 10787 5057 5058 5059 13573 12087 12927 
10 10731 10842 10891 10901 12215 12902 13574 12666 11731 13100 
10 4413 4347 10815 10878 4650 12812 13235 13234 12454 12814 
10 3445 3490 10774 10892 3849 13275 12155 13419 13575 11583 
10 5296 5305 3517 10762 5501 5503 5504 12790 11245 12409 
10 4831 10785 4881 10827 13038 13018 5225 13208 13020 13019 
10 10726 10761 10867 10917 13255 13430 13557 13344 13343 13538 
10 5609 10765 10877 10906 13577 12221 13576 13578 12994 12185 
10 4146 4121 4134 10911 4270 4271 4269 12127 10972 12448 
10 10753 10905 10791 10957 12290 12717 11128 11488 13579 13510 
10 10787 10736 10907 10927 13470 13496 13317 13124 11998 13580 
10 5316 5292 5322 10926 5437 5440 5441 13027 13051 11709 
10 10732 10851 10792 10954 11266 11529 11178 12558 13492 13581 
10 5714 10796 5639 10851 12534 11474 5944 12535 11267 11477 
10 4365 4437 4344 10904 4611 4612 4608 12615 13141 13582 
10 4877 4834 10837 10924 5244 11895 13583 13584 11688 12023 
10 4123 4142 4154 10942 4298 4299 4295 11392 12713 12712 
10 5320 5340 10776 10908 5581 13520 13394 13395 13585 12769 
10 4147 4122 4138 10947 4283 4284 4282 12933 12032 13250 
10 10736 10787 10834 10916 13470 13379 13405 13469 13174 13450 
10 3490 10831 10774 10892 13276 12166 13275 13575 12803 11583 
10 4387 10866 4418 10937 12500 13197 4682 13067 13066 13200 
10 5609 10765 5707 10877 13577 12021 5844 13576 12221 12734 
10 5695 5614 5651 10854 5901 5909 5910 13286 13287 13586 
10 5325 10798 10848 10909 13311 13523 13524 13587 13588 13589 
10 10776 10876 10720 10958 11989 11988 11987 13427 13331 12998 
10 10743 10834 10853 10948 11336 12784 11758 11737 11736 11519 
10 4839 4883 4909 5343 5280 4976 5279 11841 13590 13177 
10 4831 10785 10827 10836 13038 13020 13208 13209 12851 13210 
10 3923 10886 10900 10943 13527 12821 13591 13559 11995 13592 
10 10784 10735 10883 10914 11073 13010 11321 12522 11878 13011 
10 5688 5682 5630 10799 6059 6060 6063 10987 13108 11352 
10 4903 4843 4822 10778 5123 5121 5122 12771 12132 12416 
10 5706 5613 10760 10925 5897 13314 13313 13593 12768 12194 
10 5643 5664 10854 10935 5862 12897 13434 13435 12706 11619 
10 4825 4849 4907 10768 5160 5161 5162 13388 11783 12456 
10 5700 5641 5619 10768 5967 5965 5966 13296 11782 13053 
10 5619 5641 5690 10768 5965 5963 5964 13053 11782 11960 
10 4898 4849 4825 10768 5159 5160 5158 11877 11783 13388 
10 3475 3518 3437 10752 3569 3773 3779 11580 12879 13254 
10 10792 10729 10808 10930 12613 13073 12543 12608 12614 13228 
10 4431 4388 4351 10752 4538 4704 4700 11743 12038 11355 
10 10729 10847 10787 10860 12213 12233 13237 13432 13536 13594 
10 10837 10754 10864 10882 12517 12147 11792 12797 12133 12798 
10 3480 10831 3490 10892 13069 13276 3693 13071 12803 13575 
10 10730 10886 10781 10900 12383 13595 11221 11051 12821 11223 
10 4394 4365 4344 10904 4610 4608 4609 11130 12615 13582 
10 10765 10728 10832 10859 13176 11738 13454 11556 12641 13134 
10 4370 5672 4405 10764 13363 12205 4531 11452 12100 12098 
10 4432 4350 10915 10951 4686 13360 13477 13479 13362 12255 
10 3444 5335 10800 10911 5568 13368 12617 13190 13596 10971 
10 3912 3906 3926 10880 4104 4105 4059 12992 11774 12947 
10 4871 4901 4835 10864 5258 5250 5257 13501 13597 13351 
10 5638 4880 5673 10763 13380 12843 5836 11444 12403 12842 
10 4890 4869 4830 10775 5222 5215 5219 13374 11224 12045 
10 10779 10727 10839 10910 12308 11635 11256 12231 11634 11550 
10 5614 5687 5643 10854 5903 5904 5905 13287 11615 13434 
10 5338 3496 5303 10821 5403 5606 5548 13598 13393 13000 
10 10767 10885 10730 10950 11654 12479 12094 12793 13037 13036 
10 10718 10835 10771 10878 13400 11846 13340 13241 11847 11217 
10 10718 10807 10815 10940 13240 12813 12330 13599 12939 12519 
10 10716 10853 10759 10939 12783 11040 12374 11011 13600 12887 
10 10792 5610 10833 10930 13601 13563 11180 12608 13564 12733 
10 10745 10792 10833 10930 12358 11180 11175 12576 12608 12733 
10 4817 4865 10787 10927 5063 13123 13573 13602 12834 13124 
10 10825 10744 10830 10889 11484 11483 11054 12683 12563 13603 
10 4829 10786 10907 10938 13263 13456 13604 13605 11328 13457 
10 4139 4128 10887 10933 4334 12905 13328 13330 13138 13223 
10 3936 3900 3914 10944 4041 4048 4013 12839 13483 13113 
10 10724 10848 10841 10892 12594 13178 13507 12802 13072 13447 
10 3463 10831 5331 10871 12338 13062 5488 13213 13064 13063 
10 3901 10746 10880 10895 13132 11564 13433 13444 12817 11778 
10 5609 5707 10765 10906 5844 12021 13577 13578 12995 12994 
10 5616 5663 10808 10819 5930 13226 12513 13265 13224 13225 
10 3496 3451 4408 3521 3888 11413 12854 3587 3887 13606 
10 4386 5653 5636 414 13144 5775 13145 4504 5770 5774 
10 4842 4861 441 5654 5022 5017 5021 12554 12246 5810 
10 5340 3447 10776 10876 5582 13521 13520 13607 13608 11989 
10 10751 10787 10847 10860 12086 12233 11832 13088 13594 13536 
10 4868 4831 10836 10917 5230 13209 13116 13117 13040 13118 
10 10726 10810 10836 10917 11359 13115 11095 13344 13119 13118 
10 10727 10853 10759 10891 11041 11040 11039 12918 12904 12903 
10 10776 10831 10718 10871 13061 13359 13504 13065 13064 12649 
10 3941 3919 5647 10797 3990 13514 13539 12974 13515 13220 
10 10737 10746 10880 10890 11852 11564 11775 11622 13167 11776 
10 3932 3921 3905 10902 4052 4103 4100 11931 13336 11983 
10 10765 10811 10877 10931 11917 11330 12221 11919 11590 11473 
10 10724 10758 10835 10913 12591 12655 12657 12801 13609 12965 
10 10812 10759 10853 10939 11088 11040 11090 11135 12887 13600 
10 10718 10878 10771 10918 13241 11217 13340 12867 13083 12347 
10 3447 10776 10876 10920 13521 11989 13608 13610 13480 12621 
10 5293 5346 10757 10850 5460 12990 12014 12013 13001 12012 
10 4844 10762 4879 10938 11280 13441 4989 13516 12702 13461 
10 10736 10775 10813 10927 13415 11060 11822 11998 12835 12130 
10 10770 10731 10811 10869 12704 11589 12506 13026 11460 12261 
10 10744 10832 10859 10906 11578 13134 12766 13369 13371 12996 
10 3919 3941 3903 10797 3990 4080 4087 13515 12974 12721 
10 10721 10806 10866 10937 10992 13196 11253 13242 13199 13066 
10 4367 10873 4398 10956 12984 13611 4511 12986 12777 13547 
10 5716 10760 10859 10873 13315 12687 13612 13486 13013 13024 
10 10726 10867 10761 10909 13557 13430 13255 13257 13570 11423 
10 10721 10773 10800 10894 11453 11595 11144 13323 12440 13535 
10 5631 5676 5702 4908 6065 5823 6064 11785 13613 13614 
10 3925 3904 10863 10868 4093 11887 13511 13512 11890 11889 
10 4885 5654 4861 10766 13339 12246 5019 11031 11692 11900 
10 10752 10841 3437 10892 12837 13409 13254 11581 13447 13406 
10 5632 4407 4434 5701 11396 4517 11643 6069 13566 13615 
10 4831 4920 4867 10836 5227 5170 5231 13209 13211 13372 
10 5698 5645 5617 10764 5750 5947 5941 13215 11837 12451 
10 3924 3918 10772 10879 4075 11907 13616 13617 11999 12000 
10 4128 10751 10887 10933 12623 12692 12905 13138 11833 13223 
10 10732 10820 10790 10898 11102 11053 12859 12662 12830 12601 
10 5705 10770 10824 10949 13364 12413 13618 13619 12415 11456 
10 5341 5304 5298 10946 5476 5526 5528 13285 12521 12678 
10 10783 4888 10882 10899 13621 13620 12135 12747 13622 13151 
10 10778 5341 10876 10946 13105 13106 12043 11172 13285 12622 
10 5682 5659 5630 10833 5892 6061 6060 13218 13499 11955 
10 3914 3932 10841 10944 4050 11929 13112 13113 11932 11934 
10 10720 10798 10908 10958 11068 12791 12579 12998 12676 13428 
10 5674 5622 5662 10930 6005 5997 6004 13493 13304 12575 
10 10725 10825 10830 10889 12287 11054 13623 13201 12683 13603 
10 10748 10794 10828 10898 12977 12975 12976 12719 12602 13028 
10 10771 10791 10905 10918 12285 12717 12370 12347 12348 13342 
10 10718 10815 10871 10940 12330 12647 12649 13599 12519 12243 
10 4123 10816 4142 10942 11182 12991 4298 11392 11394 12713 
10 10732 10828 10898 10954 11100 13028 12662 12558 13550 13624 
10 5691 5669 5623 10936 5790 6017 6008 12890 11803 12342 
10 3472 3455 4368 10940 3578 13625 13398 12937 13626 13399 
10 3899 10900 10781 10943 13297 11223 13298 13627 13592 13355 
10 5667 5645 5625 10747 5945 6027 6026 12539 11984 13202 
10 4884 4860 3473 10777 4964 11429 13387 12955 11430 11431 
10 10790 10734 10861 10921 11007 11807 12123 11199 11198 12660 
10 4137 4125 10911 10942 4316 12629 12652 13397 13509 13382 
10 4865 4874 4817 10787 5062 5057 5063 13123 12087 13573 
10 3434 3472 10807 10940 3731 12934 13152 13628 12937 12939 
10 10772 10879 10726 10902 12000 13256 13271 12896 13291 13290 
10 4862 4817 10787 10907 5059 13573 12927 13438 13629 13317 
10 10770 10811 10731 10865 12506 11589 12704 12435 11629 11628 
10 3915 4881 4855 10785 13443 4945 11970 11683 13018 11971 
10 4397 3455 3484 10846 13631 3581 13630 13632 13633 13634 
10 10757 10723 10805 10919 12357 11116 11814 12015 12929 13284 
10 10863 10733 10880 10923 11888 11527 12432 13635 11611 11613 
10 4123 4131 10762 10942 4289 11244 11183 11392 12027 11393 
10 10790 10820 10732 10852 11053 11102 12859 13127 12514 12431 
10 4893 4862 4832 10803 5145 5237 5234 11624 12928 13102 
10 4125 10756 10911 10942 12628 12630 12629 13509 12113 13382 
10 10783 10870 10735 10914 11428 11427 11310 11609 12066 11878 
10 4413 10815 4360 10918 13235 12795 4781 13236 11309 12665 
10 10746 10733 10880 10895 11563 11527 11564 12817 11779 11778 
10 5335 3464 10800 10911 5498 11870 13368 13596 11872 10971 
10 5298 5321 5343 10779 5527 5384 5535 12677 11275 11842 
10 3920 10863 10880 10943 12343 12432 11526 13636 13356 13221 
10 4871 4850 10864 10882 5069 12611 13501 13502 12796 12798 
10 5345 3495 5302 10750 5597 5603 5604 13472 12385 13245 
10 10724 10772 10848 10903 13508 12731 12594 13085 13637 13086 
10 4133 10806 4153 10945 13229 11004 4267 13638 13639 13640 
10 10730 10827 10886 10900 12382 12153 12383 11051 12822 12821 
10 5663 10819 5622 10930 13224 13544 6001 13227 12756 13304 
10 5678 4410 4386 10823 12459 4505 13641 12457 12458 13333 
10 4907 4825 10768 10924 5162 13388 12456 13642 13643 13644 
10 5661 5660 5624 10950 5870 6025 6024 13239 13645 12085 
10 10718 10871 10807 10940 12649 13155 13240 13599 12243 12939 
10 4147 10769 4138 10945 12635 13247 4282 13646 13248 13249 
10 4157 4134 4121 10789 4234 4271 4262 12315 12447 10961 
10 10726 10772 10902 10903 13271 12896 13290 12825 13637 13334 
10 5638 5616 5697 10763 5926 5927 5928 11444 12512 11763 
10 10744 10906 10859 10956 13369 12996 12766 12776 13647 13648 
10 3934 3916 3901 10895 4063 4061 4062 11777 13095 13444 
10 4375 4359 4402 10934 4771 4772 4597 12725 11664 12478 
10 4893 10803 4832 10887 11624 13102 5234 11626 11600 13244 
10 10722 10787 10803 10860 13316 12091 12400 13098 13594 13191 
10 4837 4866 4889 10858 5268 5088 5267 11826 12893 13408 
10 4884 5329 4863 10867 12953 13649 4961 12956 12957 13650 
10 10724 10795 10752 10944 12800 11357 12919 13367 12715 12552 
10 10724 10903 10758 10913 13085 12888 12591 12801 13651 13609 
10 10740 10817 10871 10920 11881 12648 12241 12198 12322 13162 
10 4369 5327 3456 10789 13653 5413 13652 12420 11492 12365 
10 10722 10786 10907 10948 13111 13456 13318 11735 12320 13319 
10 3899 10900 3922 10902 13297 13654 4033 13299 13300 13655 
10 10758 10718 10835 10905 13420 13400 12655 12291 13341 13565 
10 10748 10898 10828 10954 12719 13028 12976 13549 13624 13550 
10 5303 5326 5299 10821 5545 5546 5544 13000 12850 11494 
10 10747 10792 10851 10954 12540 11529 11985 12560 13581 13492 
10 3444 10756 5310 10911 12616 12872 5569 13190 12630 13350 
10 10803 10907 10722 10938 13439 13318 12400 13452 13457 13453 
10 4355 10821 4401 10921 13308 11865 4747 13309 11496 11540 
10 5700 5619 5657 10768 5966 5973 5805 13296 13053 13462 
10 10787 10775 10916 10927 13173 12789 13174 13124 12835 13471 
10 4909 4872 4828 10779 4973 5202 5203 12952 11691 13481 
10 3430 10831 3480 10848 13656 13069 3690 13657 12595 13070 
10 10766 10837 10840 10935 11787 12378 11036 11617 12482 12631 
10 5644 10881 5671 10893 13158 12982 5869 13160 12234 12981 
10 10828 10729 10860 10954 12732 13432 12980 13550 13658 13551 
10 4349 4404 10789 10866 4671 11915 13448 13659 11916 11002 
10 4358 4403 10774 10878 4766 12570 12009 12361 12450 12912 
10 10743 10812 10853 10922 13137 11090 11758 11337 11212 12786 
10 4159 4135 5698 10929 4202 13660 13310 12915 13031 13216 
10 5713 5661 10890 10955 5962 13662 13661 13663 13664 13243 
10 10774 10718 10807 10878 13358 13240 11391 12912 13241 12362 
10 10780 10737 10881 10955 11851 11927 11640 11921 12714 12235 
10 10768 4825 10827 10924 13388 13389 12151 13644 13643 13665 
10 5621 10859 10906 10956 13667 12996 13666 13668 13648 13647 
10 3938 3913 3900 10752 3965 4045 4044 11854 12070 13348 
10 4842 10883 4902 10914 13670 13669 5109 13671 13011 13672 
10 10748 10894 10794 10898 13322 12566 12977 12719 13345 12602 
10 10729 10860 10787 10916 13432 13594 13237 12612 13451 13174 
10 10718 10774 10835 10878 13358 12682 13400 13241 12912 11847 
10 4415 4342 10852 10861 4590 13128 11231 11232 13485 11021 
10 4892 4859 4919 10870 5198 5255 5056 12340 12265 12470 
10 4363 4437 4407 10760 4803 4804 4801 11399 13326 11397 
10 10721 10794 10894 10898 11009 12566 13323 12600 12602 13345 
10 10787 10736 10834 10948 13470 13405 13379 13320 11886 11736 
10 4345 4438 4442 10845 4629 4630 4627 12319 12589 11979 
10 10751 10803 10787 10860 12089 12091 12086 13088 13191 13594 
10 3467 3914 3494 10841 13673 13497 3650 13674 13112 12337 
10 4359 4419 10823 10934 4773 13675 11663 11664 13676 11665 
10 10732 10796 10851 10857 11203 11267 11266 12179 11407 13532 
10 5711 5651 5694 10854 6079 5908 6051 13157 13586 13301 
10 10880 10863 10923 10943 12432 13635 11613 13221 13356 13677 
10 10817 10776 10871 10920 12567 13065 12648 12322 13480 13162 
10 10726 10798 10867 10909 11302 12587 13557 13257 13588 13570 
10 4364 4408 4438 10757 4806 4808 4809 11415 11417 12909 
10 10776 10718 10817 10871 13504 12331 12567 13065 12649 12648 
10 10760 10739 10904 10936 12191 11364 12227 13327 11945 11944 
10 10773 10756 10800 10894 11567 11593 11595 12440 12439 13535 
10 10726 10867 10810 10917 13557 13306 11359 13344 13538 13119 
10 10725 10830 10849 10889 13623 12869 13232 13201 13603 13233 
10 10830 10744 10849 10889 11483 13678 12869 13603 12563 13233 
10 5693 10792 5610 10833 13104 13601 5853 12885 11180 13563 
10 5666 4873 442 10883 13679 5024 5815 13680 13681 13682 
10 3933 10785 10879 10900 12778 11904 12779 13683 12853 13262 
10 10791 10825 10741 10918 12288 10974 11165 12348 11333 11307 
10 10736 10896 10907 10927 11962 13684 13496 11998 11997 13580 
10 5689 10890 3937 10951 13528 13410 13685 13529 13169 13156 
10 5313 3440 5334 10919 5538 5539 5540 12866 12599 11755 
10 4137 4125 4151 10911 4316 4315 4240 12652 12629 12653 
10 4448 10760 10873 10874 13459 13013 13533 13458 12688 12486 
10 10740 10919 10805 10932 11756 13284 13076 11882 12884 13074 
10 10785 10827 10836 10900 13020 13210 12851 12853 12822 11050 
10 10798 5325 10867 10909 13311 13312 12587 13588 13587 13570 
10 10736 10813 10842 10891 11822 12252 13404 12907 12906 12902 
10 3922 10900 10879 10902 13654 13262 13686 13655 13300 13291 
10 4403 4388 4358 10774 4705 4770 4766 12570 12039 12009 
10 3931 3905 3918 10772 4099 4101 4019 12158 12895 11907 
10 10832 10765 10859 10906 13454 11556 13134 13371 12994 12996 
10 4347 4428 10815 10940 4648 11711 12812 13307 12518 12519 
10 4923 4820 4856 10865 5104 5102 5103 12434 12901 12282 
10 4835 4888 10783 10899 5253 13621 12765 12473 13622 12747 
10 3447 5331 5320 10776 5577 5580 5579 13521 13060 13394 
10 10718 10815 10878 10918 12330 12814 13241 12867 11309 13083 
10 10753 10817 10826 10957 12236 12568 11958 11488 12823 12746 
10 10751 10763 10847 10933 12217 12077 11832 11833 12390 11834 
10 4835 10783 4888 10882 12765 13621 5253 13352 12135 13620 
10 10728 10765 10832 10901 13176 13454 11738 12925 12667 12278 
10 4857 4892 4914 10910 5195 5054 5265 13442 12161 11649 
10 5328 5305 5296 10762 5399 5501 5502 12700 11245 12790 
10 10799 10731 10869 10901 11632 11460 10988 11751 12666 13687 
10 3497 3445 3472 10807 3852 3853 3575 11389 11340 12934 
10 5338 4408 3496 10821 13688 12854 5403 13598 13392 13393 
10 5338 4424 4408 10821 13689 4559 13688 13598 13498 13392 
10 4921 4826 4855 10917 5178 5176 5177 13041 13537 13519 
10 4370 4429 10764 10947 4661 13552 11452 13690 13554 12740 
10 4386 414 5636 4367 4504 5774 13145 4508 4506 13346 
10 441 5635 4842 5654 5812 12856 5021 5810 5814 12554 
10 10758 10905 10753 10957 12291 12290 11108 11487 13579 11488 
10 4145 4123 4136 10887 4293 4294 4292 12402 11185 13048 
10 10744 10849 10889 10906 13678 13233 12563 13369 12138 13370 
10 10748 10769 10898 10912 12537 12661 12719 12036 11299 12663 
10 4349 10789 10806 10866 13448 10993 13449 13659 11002 13196 
10 10730 10885 10781 10886 12479 12565 11221 12383 13068 13595 
10 5310 3444 5322 10756 5569 5570 5509 12872 12616 11568 
10 3916 3904 3929 10868 4095 4094 3971 13423 11890 13007 
10 10863 3899 10902 10943 13691 13299 13353 13356 13627 13357 
10 4396 10878 4413 10918 13082 13234 4784 12351 13083 13236 
10 4137 4154 4125 10942 4296 4317 4316 13397 12712 13509 
10 4874 4832 4862 10803 5235 5237 5058 12090 13102 12928 
10 5711 5651 10854 10877 6079 13586 13157 12183 13413 11093 
10 4827 4923 10865 10883 5190 12434 12781 13025 11447 12436 
10 3940 3918 3902 10761 4022 4074 4070 12104 11906 12757 
10 10718 10905 10758 10957 13341 12291 13420 13476 13579 11487 
10 5684 5650 5707 10859 5990 6058 5848 13266 12206 12022 
10 10740 10871 10815 10940 12241 12647 12646 11953 12243 12519 
10 4381 10793 4361 10904 13692 11269 4786 13693 13185 13694 
10 5635 4842 10784 10883 12856 12555 12857 13695 13670 11321 
10 10787 10722 10803 10907 13316 12400 12091 13317 13318 13439 
10 5647 5712 5619 10797 5969 5970 5968 13220 13421 13052 
10 10798 10848 10758 10908 13523 12596 11070 12791 13526 12578 
10 4353 4417 4384 10805 4721 4724 4723 12545 11745 12437 
10 4412 4387 4342 10790 4586 4582 4585 12515 12499 13126 
10 10719 10837 10766 10935 12590 11787 13125 12550 12482 11617 
10 3467 3508 3914 10841 3647 13696 13673 13674 13120 13112 
10 10716 10794 10828 10834 11014 12975 12001 12785 11651 13043 
10 5625 5685 10808 10884 6030 12969 13203 13204 13274 11671 
10 10808 10729 10819 10930 13073 12753 13225 13228 12614 12756 
10 4158 4136 4123 10762 4218 4294 4288 12573 13047 11183 
10 4350 10746 10895 10915 13361 12817 13489 13360 12256 13436 
10 4143 4120 4148 10912 4255 4256 4257 13569 12035 12696 
10 5710 5634 5623 10936 6011 6009 6010 12900 13697 12342 
10 4346 10825 4427 10830 13698 11056 4634 13699 11054 11055 
10 4350 4374 4423 10895 4683 4684 4685 13489 13280 13281 
10 4356 4406 10868 10895 4753 13006 11726 12176 13009 12564 
10 5654 5614 5635 10784 5899 5900 5814 11694 12028 12857 
10 10886 10781 10900 10943 13595 11223 12821 11995 13355 13592 
10 10834 10787 10860 10916 13379 13594 13044 13450 13174 13451 
10 4904 4844 4823 10762 5136 5134 5135 12229 11280 12722 
10 10717 10855 10888 10905 11153 11875 13568 12369 12371 13700 
10 10809 10747 10912 10954 12693 11368 12037 13701 12560 12559 
10 4854 4898 4825 10827 4951 5158 5163 13412 13260 13389 
10 10753 10888 10855 10905 12306 11875 11511 12290 13700 12371 
10 10781 10902 3899 10943 13289 13299 13298 13355 13357 13627 
10 5319 5299 5318 10801 5550 5552 5444 11939 11465 11247 
10 10762 4823 10803 10938 12722 12105 11599 12702 13517 13452 
10 4135 4127 4150 10884 4326 4325 4205 13029 13445 13702 
10 3925 3913 10868 10944 4046 12072 13512 13513 12551 12553 
10 4419 4386 10823 10934 4644 13333 13675 13676 13703 11665 
10 10788 10858 10727 10891 12511 11926 13325 12987 12908 12918 
10 10840 5670 10935 10950 13704 13401 12631 13081 13402 12794 
10 5345 5302 5349 10750 5604 5558 5472 13472 13245 11079 
10 3904 3920 3925 10863 4097 4026 4093 11887 12343 13511 
10 10747 10808 10809 10884 12544 11734 12693 12948 11671 11350 
10 4914 4856 4836 10788 5262 5260 5261 11646 12279 12760 
10 10831 10758 10848 10908 12592 12596 12595 13172 12578 13526 
10 4833 4878 10810 10867 5238 13705 12273 13305 13706 13306 
10 5655 5667 5625 10808 5855 6026 6031 13180 12542 13203 
10 4426 4360 10825 10918 4778 12664 12910 12735 12665 11333 
10 3943 4898 4854 10827 13096 4951 13707 13259 13260 13412 
10 3907 10827 10785 10900 13466 13020 13465 13708 12822 12853 
10 4447 10796 10852 10857 13710 12430 13709 13711 11407 13182 
10 10723 10802 10844 10932 11208 12569 12644 12930 12883 12429 
10 10731 10813 10788 10891 12251 12280 13467 13574 12906 12987 
10 10748 10809 10912 10954 11719 12037 12036 13549 13701 12559 
10 10896 4887 10907 10927 13713 13712 13684 11997 13714 13580 
10 4348 4370 10764 10947 4658 11452 13139 13715 13690 12740 
10 5656 4389 4410 10915 13716 4502 13288 13279 13717 12461 
10 3477 5352 10829 10926 5512 12323 13718 13719 12326 11710 
10 4858 4835 4901 10914 5251 5250 5116 13720 12966 13721 
10 3933 3907 10785 10900 4112 13465 12778 13683 13708 12853 
10 3928 3919 3906 10797 3987 4107 4106 11026 13515 11206 
10 4877 4818 4867 10837 5072 5080 5081 13583 12941 13373 
10 4842 10784 10883 10914 12555 11321 13670 13671 12522 13011 
10 5319 3435 5307 10801 5496 5494 5495 11939 12008 10999 
10 10715 10844 10802 10932 11855 12569 12556 11378 12429 12883 
10 5665 4398 10873 10956 13546 13611 13722 13548 13547 12777 
10 4142 4146 4125 10862 4253 4313 4318 12968 12126 12626 
10 10736 10834 10842 10916 13405 13403 13404 13469 13450 12808 
10 3508 3467 3437 10841 3647 3774 3769 13120 13674 13409 
10 5677 5706 5632 10760 6071 6072 6070 12841 13313 11398 
10 10729 10809 10860 10954 12211 13089 13432 13658 13701 13551 
10 10729 10792 10808 10954 12613 12543 13073 13658 13581 13723 
10 10792 10747 10808 10954 12540 12544 12543 13581 12560 13723 
10 10896 10736 10907 10948 11962 13496 13684 11705 11886 13319 
10 10748 10860 10809 10954 12979 13089 11719 13549 13551 13701 
10 3936 3914 3508 10841 4013 13696 12637 12838 13112 13120 
10 5637 5698 5617 10764 5940 5941 5939 11438 13215 12451 
10 10716 10842 10834 10916 12372 13403 12785 12679 12808 13450 
10 10760 5706 10925 10936 13313 13593 12194 13327 13724 12727 
10 3463 3445 3490 10831 3850 3849 3688 12338 11344 13276 
10 5313 5353 3440 10919 5456 5541 5538 12866 12167 12599 
10 4845 4905 4824 10763 5148 5149 5147 11470 13416 12076 
10 5661 10881 5660 10950 13238 13725 5870 13239 12084 13645 
10 5687 5627 5643 10935 6040 6039 5904 11618 13347 13435 
10 5675 5624 5647 10797 6019 6020 5740 11027 11545 13220 
10 4378 4349 4430 10806 4677 4673 4483 13572 13449 13050 
10 10716 10812 10853 10939 11133 11090 12783 11011 11135 13600 
10 4870 4829 10907 10938 5205 13604 13726 13727 13605 13457 
10 4353 4449 10805 10846 4722 12574 12545 12546 11708 11715 
10 10785 10726 10879 10900 12852 13256 11904 12853 11096 13262 
10 10726 10836 10785 10917 11095 12851 12852 13344 13118 13042 
10 5612 5705 5715 10869 5879 5886 5883 12485 13366 13365 
10 3919 3903 3935 10797 4087 4088 4089 13515 12721 12697 
10 4877 10837 4867 10924 13583 13373 5081 13584 12023 13378 
10 10719 10766 10837 10864 13125 11787 12590 12146 11790 11792 
10 10718 10776 10817 10957 13504 12567 12331 13476 12745 12823 
10 3455 10846 4368 10940 13633 13728 13625 13626 11954 13399 
10 4824 4905 4853 10933 5149 5006 5155 12737 13418 11835 
10 4829 10786 10896 10907 13263 13518 13729 13604 13456 13684 
10 10725 10791 10825 10889 12286 12288 12287 13201 11113 12683 
10 3943 3917 3903 10827 4006 4084 4083 13259 13730 12150 
10 4818 4851 10810 10882 5075 12911 13217 12944 13148 13149 
10 10772 10724 10902 10903 13508 13534 12896 13637 13085 13334 
10 10731 10788 10818 10891 13467 12304 11588 13574 12987 12917 
10 10803 4870 10907 10938 13731 13726 13439 13452 13727 13457 
10 4396 4360 4426 10918 4783 4778 4785 12351 12665 12735 
10 10748 10816 10860 10894 11722 13090 12979 13322 13491 13110 
10 4147 4138 4126 10945 4282 4323 4322 13646 13249 13732 
10 5624 5675 5648 10890 6019 5737 6022 11546 11028 13733 
10 10723 10757 10850 10919 12357 12012 11506 12929 12015 12017 
10 3472 3445 3505 10807 3853 3851 3743 12934 11340 11341 
10 10849 10742 10889 10906 11820 12122 13233 12138 12137 13370 
10 5628 5652 5711 10906 6045 5843 6046 12136 13543 12184 
10 5615 5696 10849 10956 5915 13734 12868 12958 13735 12959 
10 5670 5627 10840 10935 6038 12119 13704 13401 13347 12631 
10 10798 10777 10810 10867 12583 12275 11360 12587 12586 13306 
10 3477 5300 5352 10926 5562 5561 5512 13719 11741 12326 
10 5611 5643 5670 10935 5863 5864 5865 12423 13435 13401 
10 3517 5310 5296 10942 5420 5508 5504 13103 12873 12115 
10 4447 4372 10796 10857 4663 11402 13710 13711 11405 11407 
10 5645 5698 4135 10929 5750 13660 13030 11838 13216 13031 
10 4387 4342 10790 10937 4582 13126 12499 13067 13129 12861 
10 4367 5665 5636 10956 13545 5778 13346 12986 13548 13258 
10 4149 4411 4378 10945 13737 4486 13736 13738 13739 13740 
10 3434 10807 10871 10940 13152 13155 13154 13628 12939 12243 
10 3512 5292 5301 10926 5436 5432 5435 13540 13051 12270 
10 5350 3447 10876 10920 5578 13608 12620 12392 13610 12621 
10 4858 10870 4835 10914 13741 12471 5251 13720 12066 12966 
10 10720 10777 10798 10958 12997 12583 11068 12998 11849 12676 
10 5628 5664 5681 10804 6048 6047 6044 11817 12705 13003 
10 4416 4352 4383 10874 4713 4716 4574 11514 11964 11513 
10 5645 5667 5617 10851 5945 5946 5947 11836 13046 12452 
10 5643 5664 5694 10854 5862 6050 5906 13434 12897 13301 
10 5325 10848 3479 10909 13524 13091 5451 13587 13589 13742 
10 5312 5347 5333 10839 5587 5428 5530 12970 12296 12295 
10 3899 3923 10900 10943 4037 13591 13297 13627 13559 13592 
10 5346 3496 3451 10757 5601 3888 5600 12990 12855 11416 
10 4420 4347 4376 10878 4653 4649 4652 12360 12454 13743 
10 5345 5349 5294 10897 5472 5469 5471 13473 11080 11260 
10 10765 10869 10731 10901 12220 11460 11918 12667 13687 12666 
10 5647 5624 5712 10797 6020 6021 5969 13220 11545 13421 
10 10731 10891 10818 10901 13574 12917 11588 12666 13100 12276 
10 4838 4882 4912 10770 5275 5276 5277 11446 13744 13531 
10 3924 10879 10772 10902 13617 12000 13616 13745 13291 12896 
10 4343 4376 4396 10878 4599 4600 4595 11216 13743 13082 
10 5327 4369 4404 10789 13653 4570 11914 11492 12420 11915 
10 4359 4375 4419 10934 4771 4638 4773 11664 12725 13676 
10 10743 10786 10926 10948 11869 11143 11699 11737 12320 12314 
10 3942 3901 3916 10895 4056 4061 3974 13277 13444 13095 
10 5638 5673 5616 10763 5836 5925 5926 11444 12842 12512 
10 4397 4368 3455 10846 4550 13625 13631 13632 13728 13633 
10 5610 5693 5658 10792 5853 5860 5859 13601 13104 12780 
10 4818 4850 4871 10882 5071 5069 5070 12944 12796 13502 
10 5342 3434 10871 10940 5486 13154 12242 11952 13628 12243 
10 5325 5309 10798 10958 5449 13561 13311 13338 13562 12676 
10 4352 4398 4367 10873 4710 4511 4709 12397 13611 12984 
10 5688 5629 10799 10869 6052 11554 10987 10968 12355 10988 
10 3506 3446 10777 10958 3857 12584 13555 13468 12675 11849 
10 10765 10832 10901 10931 13454 12278 12667 11919 12863 12668 
10 3919 3935 3906 10797 4089 4108 4107 13515 12697 11206 
10 10756 10816 10862 10894 11968 12467 12627 12439 13491 13324 
10 3445 3475 3490 10892 3854 3777 3849 13419 11582 13575 
10 4879 5306 4846 10938 13746 12787 4987 13461 11973 12788 
10 10758 10848 10798 10903 12596 13523 11070 12888 13086 12824 
10 5695 5635 10784 10883 5902 12857 11319 11320 13695 11321 
10 4844 4879 4823 10938 4989 5133 5134 13516 13461 13517 
10 5633 5705 10824 10949 5878 13618 13747 13748 13619 11456 
10 5655 5610 10792 10930 5856 13601 13179 13273 13564 12608 
10 3435 5316 5335 10800 5499 5500 5497 12248 12201 13368 
10 5342 10846 3455 10940 11949 13633 5487 11952 11954 13626 
10 10787 10722 10834 10860 13316 11335 13379 13594 13098 13044 
10 4139 4152 400 4886 4224 4219 4223 13749 13750 4999 
10 4150 386 4135 5680 4203 4201 4205 13751 5752 13752 
10 5684 5621 10859 10906 5991 13667 13266 13267 13666 12996 
10 3497 254 4409 3472 3570 4539 11388 3575 3574 12963 
10 440 4885 5679 5654 5014 11033 5807 5809 13339 5811 
10 5329 308 3473 4884 5372 3612 5375 12953 4960 13387 
10 4386 5678 413 4410 13641 5767 4503 4505 12459 4501 
10 4906 4826 4863 10867 5174 5181 4958 13429 13431 13650 
10 3905 3914 3932 10841 4098 4050 4100 11982 13112 11929 
10 4385 4368 4347 10940 4547 4645 4646 12938 13399 13307 
10 5678 4386 5653 10823 13641 13144 5772 12457 13333 12750 
10 3477 10829 5322 10926 13718 11569 5443 13719 11710 11709 
10 4418 4349 10806 10866 4679 13449 13198 13197 13659 13196 
10 5309 5325 10798 10908 5449 13311 13561 13560 13525 12791 
10 4413 4384 4360 10815 4655 4780 4781 13235 12200 12795 
10 5332 5336 3448 10782 5591 5589 5585 12504 12961 12493 
10 4902 10883 4827 10914 13669 13025 5186 13672 13011 12782 
10 4139 4156 4128 10933 4306 4335 4334 13330 12632 13138 
10 4817 10787 10907 10927 13573 13317 13629 13602 13124 13580 
10 3478 5300 3512 10926 5564 5563 3829 11141 11741 13540 
10 10759 10818 10891 10901 11809 12917 12903 12277 12276 13100 
10 4878 10810 10867 10917 13705 13306 13706 13753 13119 13538 
10 5354 10839 5312 10946 11860 12970 5465 13556 11384 13754 
10 3931 3914 3905 10841 4016 4098 4099 12335 13112 11982 
10 4120 4142 10816 10862 4252 12991 11723 12466 12968 12467 
10 5620 5683 10811 10877 5979 12262 12406 12464 12223 11330 
10 5635 5614 5695 10784 5900 5901 5902 12857 12028 11319 
10 10747 10809 10808 10954 12693 11734 12544 12560 13701 13723 
10 4428 4368 10846 10940 4647 13728 11714 12518 13399 11954 
10 3914 3931 83 3494 4016 4014 4012 13497 12156 3648 
10 3930 360 3915 4881 3998 3996 4000 13016 4944 13443 
10 5640 5616 5673 10819 5931 5925 5834 13270 13265 12844 
10 10749 10820 10843 10939 11375 11136 12250 11376 11012 13161 
10 4448 4344 4437 10904 4616 4612 4619 13460 13582 13141 
10 5675 3928 347 5648 11025 3983 5735 5737 13755 5733 
10 10732 10792 10828 10954 11178 11179 11100 12558 13581 13550 
10 3907 3927 10827 10900 4114 12818 13466 13708 12820 12822 
10 4878 10867 4826 10917 13706 13431 5179 13753 13538 13537 
10 4349 4369 4430 10789 4670 4672 4673 13448 12420 12892 
10 4356 4379 4406 10895 4752 4473 4753 12176 13206 13009 
10 5661 10881 10890 10955 13238 12224 13662 13664 12235 13243 
10 4832 4853 4886 10887 5236 5003 5232 13244 13222 13756 
10 4398 415 4367 5665 4509 4507 4511 13546 5777 13545 
10 5317 5297 3519 10867 5521 5517 5371 13757 13464 13463 
10 5328 5296 5306 10829 5502 5505 5396 12699 12112 12759 
10 3901 3912 10880 10890 4058 12992 13433 13425 12993 11776 
10 5313 5336 5293 10850 5453 5454 5452 12865 12962 12013 
10 5705 5676 5631 10770 6067 6065 6066 13364 13758 11530 
10 3435 3516 3456 10789 3747 3746 3745 12007 12186 12365 
10 3455 3472 3434 10940 3578 3731 3732 13626 12937 13628 
10 4448 10874 4381 10904 13458 13759 4617 13460 13214 13693 
10 10781 10879 10900 10902 13261 13262 11223 13289 13291 13300 
10 5696 5652 10849 10956 5923 13542 13734 13735 13760 12959 
10 10748 10862 10816 10894 12465 12467 11722 13322 13324 13491 
10 4146 4141 4121 10862 4245 4272 4270 12126 11123 10962 
10 3917 4854 3930 10827 13761 13411 4003 13730 13412 13021 
10 4418 4349 4378 10806 4679 4677 4678 13198 13449 13572 
10 4920 10827 4825 10924 13207 13389 5164 13762 13665 13643 
10 5696 5615 5636 10956 5915 5913 5914 13735 12958 13258 
10 5663 5655 5616 10808 5935 5936 5930 13226 13180 12513 
10 4447 10796 4354 10852 13710 12346 4736 13709 12430 12195 
10 10796 10732 10852 10857 11203 12431 12430 11407 12179 13182 
10 10717 10767 10885 10888 11601 11654 11653 13568 12096 12481 
10 10793 4381 10874 10904 13692 13759 11273 13185 13693 13214 
10 10716 10834 10828 10916 12785 13043 12001 12679 13450 12680 
10 10725 10855 10791 10889 11158 11804 12286 13201 11512 11113 
10 10729 10808 10809 10954 13073 11734 12211 13658 13723 13701 
10 5667 10792 5658 10851 12541 12780 5858 13046 11529 11677 
10 4122 4163 4138 10947 4278 4195 4284 12032 13332 13250 
10 5664 5611 5644 10804 5861 5867 5866 12705 12421 13159 
10 10798 10726 10903 10909 11302 12825 12824 13588 13257 13763 
10 10721 10806 10789 10866 10992 10993 10994 11253 13196 11002 
10 10744 10859 10873 10956 12766 13024 12399 12776 13648 12777 
10 4358 4420 4376 10878 4767 4652 4765 12361 12360 13743 
10 4823 4870 10803 10938 5138 13731 12105 13517 13727 13452 
10 4401 4371 5324 261 4566 11537 11538 4560 4565 5405 
10 4151 188 4137 5330 4235 4239 4240 12651 5415 12650 
10 5297 10867 5325 10909 13464 13312 5523 12807 13570 13587 
10 4133 4378 10806 10945 13571 13572 13229 13638 13740 13639 
10 4857 4819 4924 10910 5085 5086 5087 13442 12312 12445 
10 447 4875 5668 4847 5035 13764 5828 5041 5040 13765 
10 5626 10823 5686 10893 11910 13506 6034 11908 11909 13087 
10 10750 10786 10896 10953 11078 13518 11703 11083 11085 13385 
10 3914 3900 3932 10944 4048 4049 4050 13113 13483 11932 
10 10875 10781 10885 10913 11222 12565 12487 13766 13767 13768 
10 10717 10875 10885 10913 13769 12487 11653 13770 13766 13768 
10 4342 4412 10790 10861 4585 12515 13126 13485 13407 12123 
10 4165 3516 3456 3522 13771 3746 12363 13772 3550 3602 
10 10786 4829 10896 10953 13263 13729 13518 11085 13264 13385 
10 4167 4904 4844 4910 13773 5136 11278 12527 4994 4991 
10 5697 4168 5704 5638 13774 12529 5760 5928 11441 5838 
10 10830 10725 10849 10893 13623 13232 12869 12752 12673 12870 
10 10804 5681 10849 10893 13003 13004 11821 12674 13775 12870 
10 3444 5310 5330 10911 5569 5419 5567 13190 13350 12654 
10 5331 3447 5315 10920 5577 5576 5491 13776 13610 12763 
10 10730 10840 10768 10924 12377 13079 12381 13777 11689 13644 
10 10727 10858 10788 10910 11926 12511 13325 11634 12313 11650 
10 4435 4430 4369 4165 4480 4672 4571 13778 13779 12418 
10 4367 5636 10830 10956 13346 13147 12985 12986 13258 12775 
10 5328 5306 4879 10938 5396 13746 13440 12701 11973 13461 
10 4144 4148 4120 10809 4260 4256 4259 12139 12694 11720 
10 5712 5624 5660 10950 6021 6025 5975 13422 12085 13645 
10 4378 4418 10806 10945 4678 13198 13572 13740 13780 13639 
10 10767 10840 10935 10950 12379 12631 12424 12793 13081 12794 
10 5618 10890 10746 10955 13495 13167 13494 13414 13243 12257 
10 10812 10743 10814 10922 13137 12298 12773 11212 11337 13189 
10 5623 5693 5659 10833 6012 6015 6016 12110 12885 13499 
10 5633 10824 10872 10949 13747 12538 13781 13748 11456 11463 
10 4381 4439 10793 10874 4788 12923 13692 13759 12412 11273 
10 3472 3505 3434 10807 3743 3739 3731 12934 11341 13152 
10 10722 10860 10816 10894 13098 13090 11969 12438 13110 13491 
10 4842 442 4873 10883 5020 5024 5025 13670 13682 13681 
10 5666 442 5635 10883 5815 5813 5817 13680 13682 13695 
10 10731 10842 10813 10891 12215 12252 12251 13574 12902 12906 
10 3928 348 5647 5675 3982 5738 13219 11025 5736 5740 
10 3929 335 4379 4406 3966 4471 13205 13005 4469 4473 
10 5326 5301 10814 10850 5594 12299 12849 13165 12831 12774 
10 4857 10858 4819 10910 13522 12310 5085 13442 12313 12312 
10 4877 4850 4818 10837 5073 5071 5072 13583 12610 12941 
10 10886 10737 10923 10943 11992 11897 13782 11995 11994 13677 
10 3905 3924 3918 10772 4102 4075 4101 12895 13616 11907 
10 3430 10848 5325 10908 13657 13524 5448 13783 13526 13525 
10 10737 10885 10886 10923 11928 13068 11992 11897 12178 13782 
10 5699 4432 4389 10915 13478 4499 13784 12827 13477 13717 
10 10717 10885 10875 10888 11653 12487 13769 13568 12481 12307 
10 3905 3924 10772 10902 4102 13616 12895 11983 13745 12896 
10 3903 3923 3935 10886 4090 4091 4088 12154 13527 12698 
10 5654 5627 5687 10766 6042 6040 5911 11692 12118 11616 
10 4861 4894 4834 10766 5119 5246 5248 11900 11789 11686 
10 4437 4407 10760 10936 4804 11397 13326 13142 13785 13327 
10 4854 4825 4920 10827 5163 5164 5165 13412 13389 13207 
10 4416 4439 4381 10874 4578 4788 4714 11514 12412 13759 
10 5324 5338 5299 10821 5406 5547 5551 11495 13598 11494 
10 4414 10845 4391 10861 12441 12053 4626 13253 12658 12659 
10 10848 10798 10903 10909 13523 12824 13086 13589 13588 13763 
10 5714 5639 5617 10851 5944 5942 5943 12535 11477 12452 
10 10823 10725 10830 10893 11893 13623 12749 11909 12673 12752 
10 5333 5312 10839 10946 5530 12970 12295 12395 13754 11384 
10 5339 5302 3495 10953 5555 5603 5388 13786 13246 13294 
10 5696 5621 5652 10956 5989 5994 5923 13735 13668 13760 
10 3463 5331 3434 10871 5488 5489 3737 13213 13063 13154 
10 4381 4361 4421 10904 4786 4787 4614 13693 13694 13193 
10 10849 5652 10906 10956 13542 13543 12138 12959 13760 13647 
10 10772 10903 10726 10909 13637 12825 13271 11425 13763 13257 
10 10736 10842 10853 10891 13404 12846 11885 12907 12902 12904 
10 4900 5339 3495 10953 13788 5388 13787 13789 13786 13294 
10 3440 5353 10846 10919 5541 11574 12707 12599 12167 12726 
10 3437 3467 3532 10841 3774 3776 3775 13409 13674 12920 
10 5621 10873 10859 10956 13790 13024 13667 13668 12777 13648 
10 4347 4368 4428 10940 4645 4647 4648 13307 13399 12518 
10 5339 5323 5300 10953 5391 5560 5556 13786 12561 11896 
10 3473 3506 3446 10777 3730 3857 3859 11431 13555 12584 
10 10729 10828 10792 10954 12732 11179 12613 13658 13550 13581 
10 4891 4827 4856 10865 5188 5189 5187 12063 12781 12282 
10 5323 315 5306 4876 5389 5394 5395 11325 4981 12020 
10 3937 3912 3901 10890 3981 4058 4055 13410 12993 13425 
10 4397 4428 4368 10846 4727 4647 4550 13632 11714 13728 
10 5633 10824 5622 10872 13747 13302 5998 13781 12538 13303 
10 4411 4149 374 10945 13737 4188 4484 13739 13738 13791 
10 3430 3490 3480 10831 3687 3693 3690 13656 13276 13069 
10 10902 10781 10903 10913 13289 13335 13334 13792 13767 13651 
10 3929 334 4406 10868 3967 4468 13005 13007 13793 13006 
10 4145 4142 4123 10816 4250 4298 4293 12401 12991 11182 
10 4133 4149 4378 10945 4189 13736 13571 13638 13738 13740 
10 4831 4881 4854 10827 5225 4948 5226 13208 13019 13412 
10 10724 10863 10902 10913 12799 13353 13534 12801 12672 13792 
10 10823 4386 10830 10934 13333 13146 12749 11665 13703 13794 
10 10791 10753 10855 10905 11128 11511 11804 12717 12290 12371 
10 4375 4396 4426 10934 4596 4785 4639 12725 12353 12736 
10 4429 4436 4370 4166 4493 4532 4661 13795 12489 11451 
10 84 3494 3931 5311 3649 12156 4015 5362 5363 12157 
10 4881 3930 361 4854 13016 3999 4943 4948 13411 4947 
10 10724 10902 10903 10913 13534 13334 13085 12801 13792 13651 
10 4878 4868 4818 10810 5082 5078 5077 13705 13114 13217 
10 3532 3437 10841 10892 3775 13409 12920 13446 13406 13447 
10 4366 4355 4442 10821 4740 4743 4744 12898 13308 11978 
10 373 4149 4411 4378 4187 13737 4485 4481 13736 4486 
10 10881 10737 10890 10955 11927 11622 12224 12235 12714 13243 
10 4407 5677 10760 10936 12840 12841 11397 13785 13796 13327 
10 10781 10885 10913 10923 12565 13768 13767 13797 12178 13798 
10 10744 10849 10906 10956 13678 12138 13369 12776 12959 13647 
10 10863 10724 10902 10944 12799 13534 13353 13078 13367 11933 
10 5609 5707 5683 10877 5844 5845 5846 13576 12734 12223 
10 5326 5336 5301 10850 5458 5595 5594 13165 12962 12831 
10 4408 259 5338 3496 4554 5401 13688 12854 3585 5403 
10 4424 259 5338 4408 4558 5401 13689 4559 4554 13688 
10 10746 10780 10915 10955 11561 12643 12256 12257 11921 12258 
10 10776 10738 10876 10920 12068 12069 11989 13480 12197 12621 
10 10885 10717 10913 10923 11653 13770 13768 12178 12177 13798 
10 4857 4892 10910 10928 5195 12161 13442 13799 13455 11551 
10 10834 10736 10853 10948 13405 11885 12784 11736 11886 11519 
10 5331 3463 5320 10831 5488 5450 5580 13062 12338 13424 
10 10734 10812 10814 10922 11134 12773 12188 10984 11212 13189 
10 5706 10760 5677 10936 13313 12841 6071 13724 13327 13796 
10 5331 5315 10871 10920 5491 12810 13063 13776 12763 13162 
10 4370 4405 4348 10764 4531 4659 4658 11452 12098 13139 
10 5637 5617 5672 10764 5939 5938 5797 11438 12451 12100 
10 5713 5624 5648 10890 6023 6022 5957 13661 11546 13733 
10 5667 5655 5610 10792 5855 5856 5854 12541 13179 13601 
10 3430 5320 10831 10908 5447 13424 13656 13783 13395 13172 
10 5642 5618 5689 10890 5952 5950 5951 13166 13495 13528 
10 4845 4824 4880 10763 5147 5146 5044 11470 12076 12403 
10 5344 5305 4167 3517 5400 11242 12524 5421 5503 13800 
10 10724 10752 10892 10944 12919 11581 12802 13367 12552 13801 
10 4369 4349 4404 10789 4670 4671 4570 12420 13448 11915 
10 3923 3926 3906 10943 4038 4105 4109 13559 13077 11993 
10 10752 10841 10892 10944 12837 13447 11581 12552 11934 13801 
10 10724 10892 10841 10944 12802 13447 13507 13367 13801 11934 
10 10765 10799 10869 10901 11553 10988 12220 12667 11751 13687 
10 4857 4836 4889 10858 5264 5263 5083 13522 12761 13408 
10 5668 5640 447 4847 5832 5833 5828 13765 13268 5041 
10 10857 10769 10937 10947 12180 13474 12862 12741 12033 13802 
10 5327 3435 3456 10789 5493 3745 5413 11492 12007 12365 
10 10730 10768 10827 10924 12381 12151 12382 13777 13644 13665 
10 4400 420 5669 5639 4522 5788 11798 13381 5794 5793 
10 5334 5291 10822 10920 5423 12557 11752 12341 13272 12199 
10 4376 4413 4396 10878 4651 4784 4600 13743 13234 13082 
10 5620 5651 5683 10877 5984 5983 5979 12464 13413 12223 
10 4924 10910 10779 10928 12445 12231 12443 13803 11551 11276 
10 10738 10778 10876 10946 12059 12043 12069 11383 11172 12622 
10 5307 5324 4371 261 5410 11537 11673 5409 5405 4565 
10 83 3467 3914 3494 3646 13673 4012 3648 3650 13497 
10 3915 360 4855 4881 3996 4940 11970 13443 4944 4945 
10 5317 4863 5329 10867 13804 13649 5374 13757 13650 12957 
10 5354 5298 10779 10946 5532 12677 11859 13556 12678 11277 
10 4877 4834 4850 10837 5244 5245 5073 13583 11895 12610 
10 4348 10764 10857 10947 13139 11406 13140 13715 12740 12741 
10 313 4883 4900 3495 4975 4979 4977 3625 12384 13787 
10 4870 4862 10803 10907 5143 12928 13731 13726 13438 13439 
10 5342 3455 3434 10940 5487 3732 5486 11952 13626 13628 
10 5715 5620 10811 10883 5982 12406 12507 11533 12407 11331 
10 4402 4350 10856 10915 4692 13488 12477 12476 13360 12475 
10 4861 4885 440 5654 5019 5014 5018 12246 13339 5809 
10 4385 4409 254 3472 4544 4539 4543 12936 12963 3574 
10 4860 3473 308 4884 11429 3612 4962 4964 13387 4960 
10 5678 4386 413 5653 13641 4503 5767 5772 13144 5771 
10 10781 10886 10885 10923 13595 13068 12565 13797 13782 12178 
10 5633 5705 5612 10824 5878 5879 5877 13747 13618 12484 
10 10730 10827 10836 10924 12382 13210 11049 13777 13665 13377 
10 4920 4831 4854 10827 5227 5226 5165 13207 13208 13412 
10 4855 4831 4921 10785 5228 5229 5177 11971 13038 13039 
10 3921 10863 10902 10944 13805 13353 13336 13337 13078 11933 
10 10799 10728 10843 10901 12642 12169 11750 11751 12925 11733 
10 5616 5655 5685 10808 5936 5937 5932 12513 13180 12969 
10 4414 4391 4362 10861 4626 4794 4795 13253 12659 11020 
10 10739 10760 10925 10936 12191 12194 12193 11945 13327 12727 
10 10781 10886 10923 10943 13595 13782 13797 13355 11995 13677 
10 4884 4863 4833 10867 4961 5243 5241 12956 13650 13305 
10 4860 4833 4895 10777 5242 5240 5132 11430 12271 12272 
10 4391 4412 10861 10921 4750 13407 12659 12054 12516 12660 
10 5343 5354 5298 10779 5536 5532 5535 11842 11859 12677 
10 4899 10872 4840 10949 13806 11462 5217 13807 11463 11062 
10 4446 4351 4393 10795 4702 4707 4708 12488 11356 11898 
10 4864 4825 4907 10924 5168 5162 5013 12528 13643 13642 
10 10781 10875 10903 10913 11222 12826 13335 13767 13766 13651 
10 10730 10836 10837 10924 11049 12942 12092 13777 13377 12023 
10 3924 3902 3918 10879 4076 4074 4075 13617 12758 11999 
10 4346 10825 10830 10934 13698 11054 13699 13808 12442 13794 
10 5699 4389 5656 10915 13784 13716 5766 12827 13717 13279 
10 4878 4868 10810 10917 5082 13114 13705 13753 13117 13119 
10 4390 4399 10857 10937 4588 13809 13183 13184 13810 12862 
10 4403 4376 4343 10878 4602 4599 4601 12450 13743 11216 
10 5318 5301 5292 10814 5434 5432 5433 11250 12299 12469 
10 4357 4418 4378 10945 4763 4678 4762 13811 13780 13740 
10 5657 5679 439 4885 5808 5806 5804 11701 11033 5015 
10 4342 4443 4412 10861 4591 4592 4585 13485 13484 13407 
10 3927 3903 3917 10827 4086 4084 4085 12818 12150 13730 
10 3907 3917 3930 10827 4113 4003 4111 13466 13730 13021 
10 10820 10716 10843 10939 10980 12003 11136 11012 11011 13161 
10 5325 3446 5309 10958 5573 5572 5449 13338 12675 13562 
10 253 4409 3475 3497 4540 12124 3567 3571 11388 3572 
10 5679 5627 5654 10766 6041 6042 5811 11032 12118 11692 
10 4885 4861 4834 10766 5019 5248 5247 11031 11900 11686 
10 4356 4445 4379 10895 4754 4689 4752 12176 12175 13206 
10 4401 4355 4424 10821 4747 4742 4562 11865 13308 13498 
10 5652 5621 10906 10956 5994 13666 13543 13760 13668 13647 
10 5678 5656 412 4410 5769 5764 5768 12459 13288 4500 
10 5299 5319 5307 10801 5550 5495 5549 11465 11939 10999 
10 307 4884 5329 4863 4959 12953 5373 4957 4961 13649 
10 4133 4153 4126 10945 4267 4321 4320 13638 13640 13732 
10 4868 4831 4867 10836 5230 5231 5079 13116 13209 13372 
10 5319 5316 3435 10800 5438 5499 5496 12960 12201 12248 
10 4869 4837 4896 10813 5272 5273 5105 11225 11823 12508 
10 5691 5623 5634 10936 6008 6009 6007 12890 12342 13697 
10 4858 4891 10870 10914 5047 12061 13741 13720 12064 12066 
10 4357 10937 10945 10947 13813 13812 13811 13814 13802 13251 
10 348 5647 3919 3928 5738 13514 3986 3982 13219 3987 
10 335 4379 3916 3929 4471 13503 3970 3966 13205 3971 
10 4822 4859 4903 10899 5130 5131 5122 12417 12266 12770 
10 5317 5329 3446 10867 5374 5574 5575 13757 12957 12585 
10 10730 10837 10840 10924 12092 12378 12377 13777 12023 11689 
10 4346 4383 4427 10825 4641 4643 4634 13698 11584 11056 
10 4444 4383 4360 10825 4575 4777 4779 11332 11584 12664 
10 5329 3473 3446 10777 5375 3859 5574 12954 11431 12584 
10 10733 10863 10913 10923 11888 12672 12671 11611 13635 13798 
10 5676 4882 10770 10949 13815 13744 13758 13816 13817 12415 
10 10725 10804 10849 10893 12345 11821 13232 12673 12674 12870 
10 3917 3943 4854 10827 4006 13707 13761 13730 13259 13412 
10 4851 4878 4818 10810 5076 5077 5075 12911 13705 13217 
10 4400 4354 4447 10796 4738 4736 4739 11800 12346 13710 
10 4423 3942 4379 10895 13505 13818 4476 13281 13277 13206 
10 4909 4828 4924 10779 5203 5197 5204 12952 13481 12443 
10 5626 5653 5686 10823 6036 5924 6034 11910 12750 13506 
10 4847 4922 4875 10872 5152 5224 5040 13212 11772 13819 
10 5623 5669 5714 10796 6017 6018 6014 12108 11799 12534 
10 3915 3933 3907 10785 4073 4112 4110 11683 12778 13465 
10 5343 3450 5354 10779 5596 5599 5536 11842 11844 11859 
10 4862 4823 4870 10803 5144 5138 5143 12928 12105 13731 
10 5306 315 4846 4876 5394 4986 12787 12020 4981 4985 
10 4866 4819 10858 10896 5089 12310 12893 12894 13820 11704 
10 4353 4433 4449 10846 4728 4729 4722 12546 11829 11708 
10 5609 5684 5707 10906 5840 5848 5844 13578 13267 12995 
10 5299 5338 5303 10821 5547 5548 5544 11494 13598 13000 
10 4884 4833 4860 10777 5241 5242 4964 12955 12271 11430 
10 4881 4831 4855 10785 5225 5228 4945 13018 13038 11971 
10 4890 4837 4869 10927 5271 5272 5222 13375 11996 13093 
10 4389 4359 4410 10915 4776 4775 4502 13717 11661 12461 
10 334 4380 4406 10868 4466 4470 4468 13793 11748 13006 
10 4859 4888 4835 10899 5129 5253 5254 12266 13622 12473 
10 4835 4888 4871 10882 5253 5256 5257 13352 13620 13502 
10 4354 4394 4415 10852 4731 4737 4735 12195 11087 11231 
10 4145 4144 4120 10816 4258 4259 4251 12401 12142 11723 
10 5651 5614 5694 10854 5909 5907 5908 13586 13287 13301 
10 4878 4851 4833 10810 5076 5239 5238 13705 12911 12273 
10 4909 4924 4839 10779 5204 5283 5279 12952 12443 11843 
10 4843 3473 309 4860 12131 3613 4965 4967 11429 4963 
10 4368 4385 255 3472 4547 4542 4546 13398 12936 3573 
10 4877 4864 4834 10924 5166 5249 5244 13584 12528 11688 
10 4895 4851 4822 10899 5128 5126 5127 13821 13150 12417 
10 3916 4379 3942 10895 13503 13818 3974 13095 13206 13277 
10 10772 10848 10903 10909 12731 13086 13637 11425 13589 13763 
10 444 5676 4882 4908 5821 13815 5030 5026 13613 5031 
10 5628 5681 5652 10849 6044 5921 6045 11819 13004 13542 
10 3430 3479 5325 10848 3691 5451 5448 13657 13091 13524 
10 3930 3915 3907 10785 4000 4110 4111 13017 11683 13465 
10 5622 10819 5640 10872 13544 13270 6002 13303 12006 13292 
10 4397 3484 4433 10846 13630 13822 4553 13632 13634 11829 
10 5610 5658 5667 10792 5859 5858 5854 13601 12780 12541 
10 4906 5317 3519 10867 13823 5371 13194 13429 13757 13463 
10 5665 415 4367 5636 5777 4507 13545 5778 5773 13346 
10 3927 3923 10886 10900 4039 13527 12819 12820 13591 12821 
10 4821 4901 10864 10914 5114 13597 11974 12523 13721 12356 
10 4372 420 4400 5639 4526 4522 4527 12684 5794 13381 
10 3477 5322 5292 10926 5443 5440 5442 13719 11709 13051 
10 4872 5321 310 4843 11292 5380 4968 4970 13824 4966 
10 5341 5314 10876 10946 5485 12874 13106 13285 12875 12622 
10 4141 4120 4147 10912 4247 4248 4249 12164 12035 12634 
10 5350 3447 5340 10876 5578 5582 5583 12620 13608 13607 
10 4900 5339 313 3495 13788 5387 4977 13787 5388 3625 
10 3494 3443 3467 10841 3836 3839 3650 12337 12921 13674 
10 4349 4371 4404 10866 4674 4567 4671 13659 11674 11916 
10 5306 5296 5352 10829 5505 5506 5507 12759 12112 12323 
10 5302 5339 5300 10953 5555 5556 5554 13246 13786 11896 
10 4893 4823 4862 10803 5140 5144 5145 11624 12105 12928 
10 4828 4872 4903 10928 5202 5201 5200 13482 11294 12772 
10 3479 3480 3443 10848 3689 3841 3842 13091 13070 12730 
10 10717 10835 10913 10952 13825 12965 13770 11371 12044 12816 
10 5680 5625 5645 10884 6028 6027 5753 13826 13204 12949 
10 4361 4381 4439 10793 4786 4788 4789 11269 13692 12923 
10 5633 10872 5692 10949 13781 13827 6000 13748 11463 13828 
10 4425 4365 4354 10936 4733 4730 4732 13231 12571 12163 
10 3907 3927 3917 10827 4114 4085 4113 13466 12818 13730 
10 5309 3446 3506 10958 5572 3857 5479 13562 12675 13468 
10 4133 4149 373 4378 4189 4187 4185 13571 13736 4481 
10 4924 10779 4828 10928 12443 13481 5197 13803 11276 13482 
10 5611 5660 10881 10950 5872 13725 12916 12792 13645 12084 
10 5699 5656 5618 10955 5766 5960 5954 12829 13541 13414 
10 4863 4826 4878 10867 5181 5179 5180 13650 13431 13706 
10 4912 10770 4882 10949 13531 13744 5276 13829 12415 13817 
10 417 5677 5701 4407 5783 5784 5779 4515 12840 13566 
10 10717 10905 10835 10952 12369 13565 13825 11371 13490 12044 
10 4842 5635 442 10883 12856 5813 5020 13670 13695 13682 
10 10740 10846 10805 10919 11950 11715 13076 11756 12726 13284 
10 5629 5682 5688 10799 6056 6059 6052 11554 13108 10987 
10 3899 3923 3927 10900 4037 4039 4035 13297 13591 12820 
10 3495 312 4883 5343 3624 4974 12384 5385 5382 13590 
10 5663 5622 5674 10930 6001 6005 6006 13227 13304 13493 
10 5640 5622 5663 10819 6002 6001 5929 13270 13544 13224 
10 309 5304 3473 4843 5377 5378 3613 4965 12716 12131 
10 3472 255 4368 3455 3573 4546 13398 3578 3577 13625 
10 5674 5630 5610 10930 5850 5851 5849 13493 12577 13564 
10 4883 312 4909 5343 4974 4972 4976 13590 5382 13177 
10 10875 10758 10903 10913 11125 12888 12826 13766 13609 13651 
10 5633 5662 5622 10824 5876 5997 5998 13747 11098 13302 
10 400 4853 4139 4886 5001 13329 4223 4999 5003 13749 
10 3921 10863 3899 10902 13805 13691 4029 13336 13353 13299 
10 3430 10831 10848 10908 13656 12595 13657 13783 13172 13526 
10 3430 5320 3463 10831 5447 5450 3686 13656 13424 12338 
10 3925 3900 3913 10944 4047 4045 4046 13513 13483 12551 
10 4899 4830 4840 10872 5218 5216 5217 13806 12046 11462 
10 4873 5666 4908 10883 13679 13830 5028 13681 13680 11548 
10 5649 5715 10811 10869 5884 12507 13121 13122 13365 12261 
10 3532 3467 3443 10841 3776 3839 3840 12920 13674 12921 
10 5620 5683 5649 10811 5979 5980 5981 12406 12262 13121 
10 4371 261 5327 5307 4565 5407 12047 11673 5409 5411 
10 5297 5317 5325 10867 5521 5522 5523 13464 13757 13312 
10 5684 5652 5621 10906 5839 5994 5991 13267 13543 13666 
10 10771 10835 10905 10952 11846 13565 12370 11234 12044 13490 
10 10825 10725 10830 10934 12287 13623 11054 12442 11189 13794 
10 4908 4923 4827 10883 5193 5190 5192 11548 11447 13025 
10 3933 10879 3922 10900 12779 13686 4078 13683 13262 13654 
10 5347 3448 5313 10822 5586 5588 5590 12294 12495 13045 
10 5705 5676 10770 10949 6067 13758 13364 13619 13816 12415 
10 5323 5339 4876 10953 5391 13831 11325 12561 13786 12562 
10 4355 4366 4424 10821 4740 4741 4742 13308 12898 13498 
10 5648 3937 5689 10890 13832 13685 5734 13733 13410 13528 
10 258 3496 4408 3521 3586 12854 4555 3582 3587 13606 
10 4387 4349 4418 10866 4680 4679 4682 12500 13659 13197 
10 4447 10852 4390 10857 13709 13181 4669 13711 13182 13183 
10 5640 5663 5616 10819 5929 5930 5931 13270 13224 13265 
10 258 3521 4408 4433 3582 13606 4555 4551 13084 4556 
10 4402 4350 4392 10856 4692 4694 4606 12477 13488 11291 
10 5676 444 5702 4908 5821 5819 5823 13613 5026 13614 
10 5619 5670 10840 10950 5971 13704 13080 13054 13402 13081 
10 4124 4148 4144 10809 4309 4260 4311 11346 12694 12139 
10 5701 4434 417 4407 13615 4513 5779 13566 4517 4515 
10 4137 188 5310 5330 4239 5417 13349 12650 5415 5419 
10 4846 4829 4870 10938 5206 5205 5137 12788 13605 13727 
10 5626 5686 5644 10893 6034 5919 6033 11908 13087 13160 
10 4892 4919 4816 10870 5056 5050 5055 12340 12470 12864 
10 4413 4376 4347 10878 4651 4649 4650 13234 13743 12454 
10 10863 10781 10902 10913 13354 13289 13353 12672 13767 13792 
10 4375 4402 4343 10856 4597 4598 4594 12724 12477 11229 
10 4372 4400 4447 10796 4527 4739 4663 11402 11800 13710 
10 5626 5644 5671 10893 6033 5869 6032 11908 13160 12981 
10 5649 5707 5629 10869 6054 6055 6053 13122 12368 12355 
10 4135 386 5645 5680 4201 5748 13030 13752 5752 5753 
10 5327 261 4371 4404 5407 4565 12047 11914 4564 4567 
10 4448 4381 4344 10904 4617 4613 4616 13460 13693 13582 
10 4411 374 4377 10945 4484 4488 4489 13739 13791 13833 
10 3899 10863 3920 10943 13691 12343 4024 13627 13356 13636 
10 4923 4856 4827 10865 5103 5189 5190 12434 12282 12781 
10 5639 5714 5669 10796 5944 6018 5793 11474 12534 11799 
10 4906 4863 5317 10867 4958 13804 13823 13429 13650 13757 
10 5621 5716 10859 10873 5993 13612 13667 13790 13486 13024 
10 4863 4878 4833 10867 5180 5238 5243 13650 13706 13305 
10 4140 4127 4148 10884 4329 4328 4308 12428 13445 13834 
10 10733 10923 10913 10952 11611 13798 12671 12690 13099 12816 
10 5660 5619 5712 10950 5974 5970 5975 13645 13054 13422 
10 3484 3521 4433 10846 3584 13084 13822 13634 12129 11829 
10 4924 4857 10910 10928 5087 13442 12445 13803 13799 11551 
10 5660 5611 5670 10950 5872 5865 5873 13645 12792 13402 
10 4342 4399 4390 10937 4584 4588 4587 13129 13810 13184 
10 4348 4429 4370 10947 4660 4661 4658 13715 13554 13690 
10 4346 4426 10825 10934 4640 12910 13698 13808 12736 12442 
10 4858 4827 4891 10914 5191 5188 5047 13720 12782 12064 
10 4887 4829 10896 10907 5209 13729 13713 13712 13604 13684 
10 3440 3455 5342 10846 3806 5487 5537 12707 13633 11949 
10 5680 4150 387 10884 13751 4204 5751 13826 13702 13835 
10 5643 5627 5670 10935 6039 6038 5864 13435 13347 13401 
10 5309 5340 10908 10958 5482 13585 13560 13562 13836 13428 
10 5626 5678 5653 10823 6035 5772 6036 11910 12457 12750 
10 4443 4362 4391 10861 4797 4794 4796 13484 11020 12659 
10 4920 4825 4867 10924 5164 5169 5170 13762 13643 13378 
10 5633 5622 5692 10872 5998 5999 6000 13781 13303 13827 
10 3912 347 3928 5648 3979 3983 3984 13837 5733 13755 
10 4851 10882 4888 10899 13148 13620 5124 13150 13151 13622 
10 4917 4819 4866 10896 5091 5089 5090 13384 13820 12894 
10 4347 4428 4384 10815 4648 4656 4654 12812 11711 12200 
10 5702 5620 5715 10883 5985 5982 5986 12260 12407 11533 
10 4441 3945 4423 10951 13839 13838 4477 13840 13841 13282 
10 4403 4393 4351 10795 4607 4707 4706 12449 11898 11356 
10 5611 5671 5644 10881 5868 5869 5867 12916 12982 13158 
10 4395 4371 10866 10921 4676 11674 11866 11868 11539 11255 
10 4357 4399 10937 10947 4760 13810 13813 13814 13842 13802 
10 10863 10781 10923 10943 13354 13797 13635 13356 13355 13677 
10 4130 4122 4159 10929 4276 4274 4275 12914 12029 12915 
10 4432 4350 4389 10915 4686 4691 4499 13477 13360 13717 
10 4347 4384 4413 10815 4654 4655 4650 12812 12200 13235 
10 4391 4345 4442 10845 4625 4627 4628 12053 12319 11979 
10 3913 3904 3925 10868 4092 4093 4046 12072 11890 13512 
10 4399 10857 10937 10947 13809 12862 13810 13842 12741 13802 
10 4887 4817 10907 10927 5061 13629 13712 13714 13602 13580 
10 4122 4143 4155 10929 4285 4286 4279 12029 13843 13163 
10 10744 10830 10849 10956 11483 12869 13678 12776 12775 12959 
10 3479 5351 5297 10909 5525 5519 5524 13742 12240 12807 
10 5644 5681 5664 10804 5917 6047 5866 13159 13003 12705 
10 5326 5346 5293 10850 5459 5460 5457 13165 13001 12013 
10 4142 4145 4120 10816 4250 4251 4252 12991 12401 11723 
10 4348 4372 4447 10857 4662 4663 4664 13140 11405 13711 
10 310 5321 5304 4843 5380 5381 5376 4966 13824 12716 
10 10823 10830 10725 10934 12749 13623 11893 11665 13794 11189 
10 3933 3922 3907 10900 4078 4115 4112 13683 13654 13708 
10 4436 422 4370 5703 4458 4530 4532 12492 5725 12490 
10 4346 4426 4383 10825 4640 4642 4641 13698 12910 11584 
10 5709 437 4916 4907 5722 4927 12349 12845 5009 5010 
10 4865 4922 4824 10847 5157 5151 5156 12832 11771 12078 
10 5643 5694 5614 10854 5906 5907 5905 13434 13301 13287 
10 4138 374 4149 10945 4190 4188 4192 13249 13791 13738 
10 5317 3446 5325 10867 5575 5573 5522 13757 12585 13312 
10 4353 4397 4433 10846 4726 4553 4728 12546 13632 11829 
10 5638 449 4911 5704 5837 4933 12532 5838 5728 12530 
10 4886 4152 399 10887 13750 4220 4998 13756 13567 13844 
10 4139 4905 4162 10933 13845 13417 4227 13330 13418 12744 
10 3912 3926 3901 10880 4059 4060 4058 12992 12947 13433 
10 4844 317 5344 4910 4990 5359 12525 4991 4934 12526 
10 4868 4867 4818 10836 5079 5080 5078 13116 13372 12943 
10 84 5311 3931 3918 5362 12157 4015 4017 11905 4019 
10 3917 361 3930 4854 4001 3999 4003 13761 4947 13411 
10 4128 4145 4136 10887 4331 4292 4332 12905 12402 13048 
10 3913 334 3929 10868 3963 3967 3968 12072 13793 13007 
10 5320 5309 5340 10908 5446 5482 5581 13395 13560 13585 
10 4137 3517 4161 10942 13846 12474 4243 13397 13103 12026 
10 5713 10890 5618 10955 13661 13495 5956 13663 13243 13414 
10 4918 4817 4887 10927 5067 5061 5066 12708 13602 13714 
10 5715 5649 5612 10869 5884 5882 5883 13365 13122 12485 
10 315 5306 4846 4879 5394 12787 4986 4983 13746 4987 
10 4125 4146 4134 10911 4313 4269 4314 12629 12127 12448 
10 4397 4353 4428 10846 4726 4725 4727 13632 12546 11714 
10 5677 4407 418 10936 12840 4516 5782 13796 13785 13847 
10 5611 5660 5661 10881 5872 5870 5871 12916 13725 13238 
10 4355 4412 4391 10921 4749 4750 4748 13309 12516 12054 
10 10880 10923 10737 10943 11613 11897 11775 13221 13677 11994 
10 4898 3947 363 4916 12080 3956 4949 4952 12639 4926 
10 5348 5337 86 3946 5367 5364 5356 12327 12079 3959 
10 4842 4827 4902 10883 5185 5186 5109 13670 13025 13669 
10 4922 4830 4875 10872 5221 5223 5224 11772 12046 13819 
10 5708 3937 3945 10951 13849 3978 13848 13850 13156 13841 
10 4889 4819 4857 10858 5084 5085 5083 13408 12310 13522 
10 4358 4376 4403 10878 4765 4602 4766 12361 13743 12450 
10 5640 5673 447 4847 5834 5830 5833 13268 13269 5041 
10 5633 5612 5662 10824 5877 5875 5876 13747 12484 11098 
10 5709 3947 350 5690 12640 3955 5720 5744 12230 5742 
10 337 4441 3945 4423 4450 13839 3949 4475 4477 13838 
10 4423 3945 3942 10951 13838 3975 13505 13282 13841 13058 
10 10863 10781 10913 10923 13354 13767 12672 13635 13797 13798 
10 3946 358 4915 3939 3958 4928 12117 3994 3992 13022 
10 3944 81 3528 3936 3953 3538 11816 4010 4008 13023 
10 3463 3490 3430 10831 3688 3687 3686 12338 13276 13656 
10 4435 4369 263 3522 4571 4569 4461 13851 13852 3544 
10 4828 4892 4857 10928 5194 5195 5196 13482 13455 13799 
10 4858 4902 4827 10914 5118 5186 5191 13720 13672 12782 
10 4417 4353 4382 10805 4721 4719 4720 11745 12545 11159 
10 4359 4419 4386 10823 4773 4644 4774 11663 13675 13333 
10 5333 5298 5312 10946 5531 5529 5530 12395 12678 13754 
10 5693 5610 5630 10833 5853 5851 5852 12885 13563 11955 
10 5342 3434 5315 10871 5486 5490 5492 12242 13154 12810 
10 5680 387 5646 10884 5751 5755 5756 13826 13835 11670 
10 5620 5635 5695 10883 5977 5902 5978 12407 13695 11320 
10 5681 5615 10849 10893 5916 12868 13004 13775 12805 12870 
10 5702 5666 5620 10883 5820 5976 5985 12260 13680 12407 
10 4425 418 4407 10936 4518 4516 4520 13231 13847 13785 
10 4827 4873 4908 10883 5184 5028 5192 13025 13681 11548 
10 4139 4853 4905 10933 13329 5006 13845 13330 11835 13418 
10 4900 4876 5339 10953 4982 13831 13788 13789 12562 13786 
10 4440 3528 251 4431 11678 3536 4455 4535 12249 4534 
10 3927 3923 3903 10886 4039 4090 4086 12819 13527 12154 
10 439 4864 5657 4885 5011 12764 5804 5015 5016 11701 
10 5703 422 4370 5637 5725 4530 12490 5799 5798 12018 
10 5668 4875 4899 10872 13764 5037 13853 13854 13819 13806 
10 5648 3912 3937 10890 13837 3981 13832 13733 12993 13410 
10 5716 5701 5632 10873 5996 6069 6073 13486 13855 13487 
10 5702 4908 5666 10883 13614 13830 5820 12260 11548 13680 
10 5353 3521 3440 10846 5543 3814 5541 11574 12129 12707 
10 4389 412 5656 4410 4498 5764 13716 4502 4500 13288 
10 5329 5317 307 4863 5374 5369 5373 13649 13804 4957 
10 253 4388 3475 4409 4536 12168 3567 4540 4541 12124 
10 5609 10877 5711 10906 13576 12183 5842 13578 12185 12184 
10 5644 5681 10804 10893 5917 13003 13159 13160 13775 12674 
10 5301 5318 5326 10814 5434 5553 5594 12299 11250 12849 
10 5344 317 4844 5305 5359 4990 12525 5400 5398 11861 
10 5354 5312 5298 10946 5465 5529 5532 13556 13754 12678 
10 4911 449 5638 4845 4933 5837 12532 5046 5045 12011 
10 4363 4434 4448 10873 4802 4718 4805 13012 13014 13533 
10 4396 4413 4360 10918 4784 4781 4783 12351 13236 12665 
10 4137 5310 3517 10942 13349 5420 13846 13397 12873 13103 
10 3516 4165 185 3522 13771 4174 3549 3550 13772 3542 
10 5704 5697 389 4168 5760 5757 5727 12529 13774 4175 
10 4167 397 4904 4910 4178 4992 13773 12527 4936 4994 
10 5689 3937 5708 10951 13685 13849 5731 13529 13156 13850 
10 5659 5693 5630 10833 6015 5852 6061 13499 12885 11955 
10 4889 4866 4819 10858 5088 5089 5084 13408 12893 12310 
10 10937 10769 10945 10947 13474 13248 13812 13802 12033 13251 
10 4435 371 4430 4165 4459 4479 4480 13778 4173 13779 
10 263 4369 3456 3522 4569 13652 3601 3544 13852 3602 
10 3913 4380 334 10868 12071 4466 3963 12072 11748 13793 
10 4858 4891 4816 10870 5047 5048 5049 13741 12061 12864 
10 4372 4405 420 5639 4528 4524 4526 12684 12685 5794 
10 3932 3900 3921 10944 4049 4051 4052 11932 13483 13337 
10 3434 5331 5315 10871 5489 5491 5490 13154 13063 12810 
10 5708 3937 345 3945 13849 3977 5718 13848 3978 3950 
10 4440 332 3944 3938 4454 3951 11805 13188 3961 3962 
10 3512 5300 3477 10926 5563 5562 3679 13540 11741 13719 
10 5649 5715 5620 10811 5884 5982 5981 13121 12507 12406 
10 4897 4915 358 3939 4939 4928 4938 11941 13022 3992 
10 3936 81 3528 3508 4008 3538 13023 12637 3642 3644 
10 3927 3922 3899 10900 4036 4033 4035 12820 13654 13297 
10 418 5691 5677 10936 5786 5787 5782 13847 12890 13796 
10 5663 5674 5655 10930 6006 5857 5935 13227 13493 13273 
10 5713 5618 5661 10955 5956 5961 5962 13663 13414 13664 
10 5684 5621 5650 10859 5991 5992 5990 13266 13667 12206 
10 4429 4138 4163 10947 13856 4195 13553 13554 13250 13332 
10 4821 4850 4894 10864 5113 5111 5112 11974 12611 11791 
10 3945 3910 3942 10951 4118 4057 3975 13841 13059 13058 
10 5619 5670 5657 10840 5971 5972 5973 13080 13704 11702 
10 4886 399 4852 10887 4998 4996 5000 13756 13844 11627 
10 5672 4370 422 5637 13363 4530 5796 5797 12018 5798 
10 4138 4377 10945 10947 13857 13833 13249 13250 13858 13251 
10 5657 5670 5627 10840 5972 6038 6043 11702 13704 12119 
10 5334 5291 5347 10822 5423 5429 5431 11752 12557 12294 
10 4383 4426 4360 10825 4642 4778 4777 11584 12910 12664 
10 4359 4386 4410 10823 4774 4505 4775 11663 13333 12458 
10 5327 4369 3456 263 13653 13652 5413 5412 4569 3601 
10 5638 449 4880 4845 5837 5043 13380 12011 5045 5044 
10 187 5330 4151 10911 5414 12651 4236 13859 12654 12653 
10 5700 437 5709 4907 5800 5722 5802 13295 5009 12845 
10 5305 317 4844 5328 5398 4990 11861 5399 5397 13170 
10 4820 4869 4896 10813 5096 5105 5100 11976 11225 12508 
10 10786 10896 10907 10948 13518 13684 13456 12320 11705 13319 
10 4377 4138 4429 10947 13857 13856 4492 13858 13250 13554 
10 4449 4382 4353 10805 4623 4719 4722 12574 11159 12545 
10 5668 4899 5692 10872 13853 13860 5829 13854 13806 13827 
10 4380 4446 4356 10868 4703 4756 4755 11748 12548 11726 
10 4346 4367 4386 10830 4632 4508 4633 13699 12985 13146 
10 3490 3475 3437 10892 3777 3779 3778 13575 11582 13406 
10 4862 4887 4817 10907 5060 5061 5059 13438 13712 13629 
10 5671 5656 5626 10955 5958 6037 6032 12983 13541 11911 
10 4414 4345 4391 10845 4621 4625 4626 12441 12319 12053 
10 4817 4890 4865 10927 5064 5065 5063 13602 13375 12834 
10 5296 3477 5352 10829 5511 5512 5506 12112 13718 12323 
10 376 4436 4429 4166 4457 4493 4490 4169 12489 13795 
10 5340 5314 5350 10876 5484 5608 5583 13607 12874 12620 
10 4924 4828 4857 10928 5197 5196 5087 13803 13482 13799 
10 3905 3921 3924 10902 4103 4031 4102 11983 13336 13745 
10 5334 5347 5313 10822 5431 5590 5540 11752 12294 13045 
10 337 4423 3945 3942 4475 13838 3949 3972 13505 3975 
10 3941 350 3947 5690 3988 3955 3991 12971 5742 12230 
10 4828 4903 4859 10928 5200 5131 5199 13482 12772 12462 
10 10717 10913 10923 10952 13770 13798 12177 11371 12816 13099 
10 4425 5691 418 10936 13230 5786 4518 13231 12890 13847 
10 10769 10806 10937 10945 11534 13199 13474 13248 13639 13812 
10 3899 3925 3920 10863 4025 4026 4024 13691 13511 12343 
10 5665 4398 4434 10873 13546 4514 13861 13722 13611 13014 
10 4133 4126 4149 10945 4320 4319 4189 13638 13732 13738 
10 5344 4167 190 3517 12524 4180 5360 5421 13800 3560 
10 4394 4344 4421 10904 4609 4615 4618 11130 13582 13193 
10 4828 4859 4892 10928 5199 5198 5194 13482 12462 13455 
10 4824 4874 4865 10847 5154 5062 5156 12078 12232 12832 
10 3925 10863 3921 10944 13511 13805 4032 13513 13078 13337 
10 345 5689 3937 5708 5729 13685 3977 5718 5731 13849 
10 4422 332 4440 3938 4462 4454 4464 12056 3961 13188 
10 4355 4401 4371 10921 4747 4566 4745 13309 11540 11539 
10 4430 371 4160 4165 4479 4181 12931 13779 4173 4183 
10 4919 4835 4858 10870 5252 5251 5051 12470 12471 13741 
10 4352 4448 10873 10874 4715 13533 12397 11964 13458 12486 
10 4143 4147 4120 10912 4254 4248 4255 13569 12634 12035 
10 3484 3455 3440 10846 3581 3806 3805 13634 13633 12707 
10 5622 5640 5668 10872 6002 5832 6003 13303 13292 13854 
10 4879 315 5306 5328 4983 5394 13746 13440 5393 5396 
10 3922 10879 3924 10902 13686 13617 4034 13655 13291 13745 
10 3922 3924 3899 10902 4034 4030 4033 13655 13745 13299 
10 3484 3440 3521 10846 3805 3814 3584 13634 12707 12129 
10 5619 5660 5670 10950 5974 5873 5971 13054 13645 13402 
10 4138 4377 374 10945 13857 4488 4190 13249 13833 13791 
10 3480 3437 3532 10892 3780 3775 3781 13071 13406 13446 
10 5674 5610 5655 10930 5849 5856 5857 13493 13564 13273 
10 4447 4354 4390 10852 4736 4734 4669 13709 12195 13181 
10 4344 4381 4421 10904 4613 4614 4615 13582 13693 13193 
10 4374 4441 4423 10951 4815 4477 4684 13283 13840 13282 
10 4431 3528 251 3518 12249 3536 4534 12877 3566 3565 
10 4399 4348 10857 10947 4666 13140 13809 13842 13715 12741 
10 4829 4866 4887 10896 5210 5208 5209 13729 12894 13713 
10 4350 4423 4379 10895 4685 4476 4688 13489 13281 13206 
10 4146 4142 4120 10862 4253 4252 4246 12126 12968 12466 
10 5706 5677 5634 10936 6071 6075 6076 13724 13796 13697 
10 4349 4395 4371 10866 4675 4676 4674 13659 11866 11674 
10 5309 3430 5325 10908 5445 5448 5449 13560 13783 13525 
10 3945 3937 3910 10951 3978 4054 4118 13841 13156 13059 
10 4898 3943 363 3947 13096 4005 4949 12080 4007 3956 
10 3940 86 5337 3946 4021 5364 12102 4023 3959 12079 
10 4405 5672 420 5639 12205 5792 4524 12685 5795 5794 
10 387 4150 4140 10884 4204 4208 4206 13835 13702 12428 
10 5332 3478 5301 10897 5468 5592 5593 12505 11140 12268 
10 447 5673 4880 4847 5830 12843 5039 5041 13269 5042 
10 187 3464 5330 10911 3551 5416 5414 13859 11872 12654 
10 5691 419 5669 4400 5785 5789 5790 12889 4521 11798 
10 3925 3899 3921 10863 4025 4029 4032 13511 13691 13805 
10 5314 5295 5341 10876 5483 5477 5485 12874 13107 13106 
10 3920 3934 3901 10880 4065 4062 4064 11526 11528 13433 
10 4157 185 3516 4165 4230 3549 12316 4231 4174 13771 
10 5714 5617 5658 10851 5943 5948 5949 12535 12452 11677 
10 4164 389 5697 4168 4210 5757 11923 4212 4175 13774 
10 4158 397 4904 4167 4214 4992 12572 4215 4178 13773 
10 4899 4875 4830 10872 5037 5223 5218 13806 13819 12046 
10 4354 4415 4390 10852 4735 4589 4734 12195 11231 13181 
10 5672 422 4370 4405 5796 4530 13363 12205 4529 4531 
10 5642 5689 5708 10951 5951 5731 6078 12988 13529 13850 
10 4917 10896 4829 10953 13384 13729 5211 13386 13385 13264 
10 4377 4357 10945 10947 4759 13811 13833 13858 13814 13251 
10 5293 5336 5326 10850 5454 5458 5457 12013 12962 13165 
10 4349 4387 4395 10866 4680 4681 4675 13659 12500 11866 
10 5650 5621 5716 10859 5992 5993 5890 12206 13667 13612 
10 4879 4844 317 5328 4989 4990 4988 13440 13170 5397 
10 4404 4369 5327 263 4570 13653 11914 4568 4569 5412 
10 4402 4392 4343 10856 4606 4603 4598 12477 11291 11229 
10 449 4880 5673 5638 5043 12843 5835 5837 13380 5836 
10 4161 190 4167 3517 4241 4180 4244 12474 3560 13800 
10 4837 4890 4918 10927 5271 5068 5269 11996 13375 12708 
10 3479 5297 5325 10909 5524 5523 5451 13742 12807 13587 
10 4899 5692 10872 10949 13860 13827 13806 13807 13828 11463 
10 4437 4365 4407 10936 4611 4811 4804 13142 12571 13785 
10 5618 5648 5689 10890 5955 5734 5950 13495 13733 13528 
10 4825 4864 4877 10924 5168 5166 5167 13643 12528 13584 
10 4897 359 4855 3915 4937 4941 4942 11682 3995 11970 
10 3914 3467 82 3508 13673 3645 4011 13696 3647 3643 
10 4411 4357 4378 10945 4761 4762 4486 13739 13811 13740 
10 442 4842 441 5635 5020 5021 455 5813 12856 5812 
10 4367 415 414 5636 4507 428 4506 13346 5773 5774 
10 5706 5710 5613 10925 5896 5894 5897 13593 12899 12768 
10 4866 4829 4917 10896 5210 5211 5090 12894 13729 13384 
10 4132 4124 4162 10933 4302 4300 4301 12743 12389 12744 
10 4141 4146 4120 10862 4245 4246 4247 11123 12126 12466 
10 4870 4887 4862 10907 5212 5060 5143 13726 13712 13438 
10 4858 4901 4821 10914 5116 5114 5117 13720 13721 12523 
10 4427 4367 4346 10830 4635 4632 4634 11055 12985 13699 
10 4136 399 4152 10887 4216 4220 4221 13048 13844 13567 
10 349 3941 3919 5647 3989 3990 3985 5739 13539 13514 
10 3942 3916 336 4379 3974 3969 3973 13818 13503 4472 
10 5646 387 4140 10884 5755 4206 13862 11670 13835 12428 
10 4870 4829 4887 10907 5205 5209 5212 13726 13604 13712 
10 4822 4888 4859 10899 5125 5129 5130 12417 13622 12266 
10 5649 5629 5688 10869 6053 6052 5880 13122 12355 10968 
10 5666 5635 5620 10883 5817 5977 5976 13680 13695 12407 
10 4342 4390 4415 10852 4587 4589 4590 13128 13181 11231 
10 4873 4827 4842 10883 5184 5185 5025 13681 13025 13670 
10 4357 4387 4418 10937 4764 4682 4763 13813 13067 13200 
10 5621 5665 10873 10956 5987 13722 13790 13668 13548 12777 
10 5322 3477 5296 10829 5443 5511 5510 11569 13718 12112 
10 3942 336 4423 4379 3973 4474 13505 13818 4472 4476 
10 5690 3941 349 5647 12971 3989 5741 5743 13539 5739 
10 4429 4163 376 4166 13553 4194 4490 13795 4196 4169 
10 4851 4888 4822 10899 5124 5125 5126 13150 13622 12417 
10 4377 4399 4357 10947 4667 4760 4759 13858 13842 13814 
10 5681 5615 5652 10849 5916 5922 5921 13004 12868 13542 
10 4380 4356 4406 10868 4755 4753 4470 11748 11726 13006 
10 5668 5692 5622 10872 5829 5999 6003 13854 13827 13303 
10 4871 4850 4901 10864 5069 5115 5258 13501 12611 13597 
10 4871 4851 4818 10882 5074 5075 5070 13502 13148 12944 
10 4399 4342 4387 10937 4584 4582 4583 13810 13129 13067 
10 3939 359 4897 3915 3993 4937 11941 3997 3995 11682 
10 82 3936 3914 3508 4009 4013 4011 3643 12637 13696 
10 5295 10876 5340 10958 13107 13607 5481 12245 13331 13836 
10 4159 4122 4135 10929 4274 4281 4202 12915 12029 13031 
10 5691 5634 5677 10936 6007 6075 5787 12890 13697 13796 
10 3924 3921 3899 10902 4031 4029 4030 13745 13336 13299 
10 187 4151 4134 10911 4236 4237 4232 13859 12653 12448 
10 4350 4379 4445 10895 4688 4689 4690 13489 13206 12175 
10 4136 4852 399 10887 13863 4996 4216 13048 11627 13844 
10 3464 187 4134 10911 3551 4232 13864 11872 13859 12448 
10 3914 83 82 3467 4012 89 4011 13673 3646 3645 
10 4855 359 360 3915 4941 366 4940 11970 3995 3996 
10 4412 4443 4391 10861 4592 4796 4750 13407 13484 12659 
10 4355 4371 4395 10921 4745 4676 4746 13309 11539 11868 
10 5618 5713 5648 10890 5956 5957 5955 13495 13661 13733 
10 5661 5671 10881 10955 5874 12982 13238 13664 12983 12235 
10 4875 5668 4899 446 13764 13853 5037 5036 5827 5032 
10 5665 4434 5701 10873 13861 13615 5781 13722 13014 13855 
10 5625 5646 5685 10884 6029 5933 6030 13204 11670 13274 
10 5671 5611 5661 10881 5868 5871 5874 12982 12916 13238 
10 4133 4378 372 4430 13571 4482 4184 13558 4483 4478 
10 3919 348 349 5647 3986 355 3985 13514 5738 5739 
10 3916 335 336 4379 3970 342 3969 13503 4471 4472 
10 4398 4352 4434 10873 4710 4717 4514 13611 12397 13014 
10 4893 4832 4852 10887 5234 5233 5141 11626 13244 11627 
10 4429 4348 4377 10947 4660 4665 4492 13554 13715 13858 
10 372 4160 4133 4430 4182 4186 4184 4478 12931 13558 
10 5315 5291 5334 10920 5422 5423 5424 12763 13272 12341 
10 4402 4389 4350 10915 4693 4691 4692 12476 13717 13360 
10 5609 5711 5652 10906 5842 5843 5841 13578 12184 13543 
10 5298 5314 5341 10946 5533 5485 5528 12678 12875 13285 
10 4425 419 5691 4400 4519 5785 13230 4523 4521 12889 
10 4399 4377 4348 10947 4667 4665 4666 13842 13858 13715 
10 3430 3480 3479 10848 3690 3689 3691 13657 13070 13091 
10 4877 4867 4825 10924 5081 5169 5167 13584 13378 13643 
10 3444 3464 5335 10911 3844 5498 5568 13190 11872 13596 
10 372 4133 373 4378 4184 4185 379 4482 13571 4481 
10 4380 333 4422 3938 4465 4463 4467 12055 3960 12056 
10 5648 3937 346 5689 13832 3976 5732 5734 13685 5730 
10 3933 3902 3922 10879 4072 4077 4078 12779 12758 13686 
10 4432 410 4441 10951 4494 4452 4496 13479 13865 13840 
10 4898 362 3943 4854 4950 4004 13096 4951 4946 13707 
10 5337 5311 85 3940 5366 5361 5365 12102 12103 4020 
10 4385 254 255 3472 4543 268 4542 12936 3574 3573 
10 441 4861 440 5654 5017 5018 454 5810 12246 5809 
10 309 3473 308 4860 3613 3612 322 4963 11429 4962 
10 413 4386 414 5653 4503 4504 427 5771 13144 5770 
10 5340 5295 5314 10876 5481 5483 5484 13607 13107 12874 
10 5699 5708 410 10951 5763 5719 5762 12828 13850 13865 
10 5658 5617 5667 10851 5948 5946 5858 11677 12452 13046 
10 4161 4131 4123 10942 4291 4289 4290 12026 12027 11392 
10 4425 4407 4365 10936 4520 4811 4733 13231 13785 12571 
10 4816 4919 4858 10870 5050 5051 5049 12864 12470 13741 
10 4434 4352 4448 10873 4717 4715 4718 13014 12397 13533 
10 4352 4416 4381 10874 4713 4714 4712 11964 11514 13759 
10 5615 5696 5652 10849 5915 5923 5922 12868 13734 13542 
10 4389 4402 4359 10915 4693 4772 4776 13717 12476 11661 
10 443 4873 5666 4908 5023 13679 5816 5027 5028 13830 
10 416 5665 4398 4434 5776 13546 4510 4512 13861 4514 
10 5665 5701 5621 10873 5781 5995 5987 13722 13855 13790 
10 3925 3921 3900 10944 4032 4051 4047 13513 13337 13483 
10 5672 420 421 4405 5792 434 5791 12205 4524 4525 
10 4879 316 315 5328 4984 329 4983 13440 5392 5393 
10 5673 447 4880 448 5830 5039 12843 5831 461 5038 
10 4404 5327 261 262 11914 5407 4564 4563 5408 275 
10 4853 4139 401 400 13329 4222 5002 5001 4223 407 
10 5298 5333 5314 10946 5531 5534 5533 12678 12395 12875 
10 4823 4879 4846 10938 5133 4987 5139 13517 13461 12788 
10 4821 4901 4850 10864 5114 5115 5113 11974 13597 12611 
10 5682 5613 5659 10925 5887 5893 5892 13109 12768 13500 
10 5708 4441 410 10951 13866 4452 5719 13850 13840 13865 
10 422 5672 421 4405 5796 5791 435 4529 12205 4525 
10 316 4879 317 5328 4984 4988 330 5392 13440 5397 
10 5327 262 4404 263 5408 4563 11914 5412 276 4568 
10 4348 4447 4390 10857 4664 4669 4668 13140 13711 13183 
10 448 4880 5673 449 5038 12843 5831 462 5043 5835 
10 5310 4137 189 188 13349 4238 5418 5417 4239 195 
10 5699 410 4432 10951 5762 4494 13478 12828 13865 13479 
10 4858 4821 4902 10914 5117 5110 5118 13720 12523 13672 
10 3464 186 3516 4157 3552 3548 3553 13867 4229 12316 
10 5700 4864 438 4907 13868 5012 5801 13295 5013 5008 
10 5659 5613 5710 10925 5893 5894 5895 13500 12768 12899 
10 388 5697 5646 4164 5758 5759 5754 4209 11923 13869 
10 4158 4904 398 4852 12572 4993 4213 13870 4997 4995 
10 4900 4829 4876 10953 5213 5207 4982 13789 13264 12562 
10 4137 189 4161 3517 4238 4242 4243 13846 3561 12474 
10 411 5699 4432 4389 5761 13478 4495 4497 13784 4499 
10 306 3519 4906 5317 3604 13194 4954 5370 5371 13823 
10 3518 252 4431 3475 3564 4533 12877 3569 3568 12878 
10 4159 385 5698 4135 4198 5745 13310 4202 4200 13660 
10 4905 4162 401 4139 13417 4226 5004 13845 4227 4222 
10 3447 5350 5315 10920 5578 5425 5576 13610 12392 12763 
10 5688 5612 5649 10869 5881 5882 5880 10968 12485 13122 
10 4872 311 5321 4909 4969 5379 11292 4973 4971 12951 
10 3484 257 4397 4433 3579 4548 13630 13822 4552 4553 
10 5692 4899 5668 446 13860 13853 5829 5825 5032 5827 
10 5656 5671 5618 10955 5958 5959 5960 13541 12983 13414 
10 5645 385 386 4135 5749 392 5748 13030 4200 4201 
10 3478 5294 5349 10897 5467 5469 5470 11140 11260 11080 
10 4846 4870 4823 10938 5137 5138 5139 12788 13727 13517 
10 5683 5711 5609 10877 5847 5842 5846 12223 12183 13576 
10 5621 5701 5716 10873 5995 5996 5993 13790 13855 13486 
10 4380 334 333 3913 4466 340 4465 12071 3963 3964 
10 347 3912 346 5648 3979 3980 353 5733 13837 5732 
10 5291 5315 5350 10920 5422 5425 5426 13272 12763 12392 
10 401 4853 4905 4139 5002 5006 5004 4222 13329 13845 
10 4412 4355 4395 10921 4749 4746 4751 12516 13309 11868 
10 5686 5615 5644 10893 5920 5918 5919 13087 12805 13160 
10 186 4157 3464 4134 4229 13867 3552 4233 4234 13864 
10 4888 4851 4871 10882 5124 5074 5256 13620 13148 13502 
10 333 3938 4380 3913 3960 12055 4465 3964 3965 12071 
10 3937 346 3912 5648 3976 3980 3981 13832 5732 13837 
10 3517 4137 189 5310 13846 4238 3561 5420 13349 5418 
10 5676 5692 445 10949 5826 5824 5822 13816 13828 13871 
10 3943 362 3917 4854 4004 4002 4006 13707 4946 13761 
10 85 3940 5311 3918 4020 12103 5361 4018 4022 11905 
10 5324 4401 260 4424 11538 4561 5404 13872 4562 4557 
10 361 3917 362 4854 4001 4002 368 4947 13761 4946 
10 5311 84 85 3918 5362 91 5361 11905 4017 4018 
10 3464 187 186 4134 3551 193 3552 13864 4232 4233 
10 5294 3478 5332 10897 5467 5468 5463 11260 11140 12505 
10 398 4136 4158 4852 4217 4218 4213 4995 13863 13870 
10 4135 4122 4155 10929 4281 4279 4280 13031 12029 13163 
10 4164 5646 388 4140 13869 5754 4209 4211 13862 4207 
10 4868 4826 4921 10917 5182 5178 5183 13117 13537 13041 
10 3944 3528 4 4440 11816 3537 3952 11805 11678 4453 
10 5683 5651 5711 10877 5983 6079 5847 12223 13413 12183 
10 5645 5698 385 4135 5750 5745 5749 13030 13660 4200 
10 4377 374 375 4138 4488 381 4487 13857 4190 4191 
10 4882 5676 445 10949 13815 5822 5029 13817 13816 13871 
10 438 5657 4864 5700 5803 12764 5012 5801 5805 13868 
10 5304 309 310 4843 5377 323 5376 12716 4965 4966 
10 4368 255 256 3455 4546 269 4545 13625 3577 3576 
10 3490 3437 3480 10892 3778 3780 3693 13575 13406 13071 
10 3475 252 4431 4388 3568 4533 12878 12168 4537 4538 
10 398 399 4136 4852 405 4216 4217 4995 4996 13863 
10 5699 411 5656 4389 5761 5765 5766 13784 4497 13716 
10 306 5317 4906 4863 5370 13823 4954 4956 13804 4958 
10 388 5646 387 4140 5754 5755 394 4207 13862 4206 
10 5625 5680 5646 10884 6028 5756 6029 13204 13826 11670 
10 4832 4886 4852 10887 5232 5000 5233 13244 13756 11627 
10 5309 5320 3430 10908 5446 5447 5445 13560 13395 13783 
10 4899 4882 445 10949 5034 5029 5033 13807 13817 13871 
10 4390 4399 4348 10857 4588 4666 4668 13183 13809 13140 
10 4429 375 4163 4138 4491 4193 13553 13856 4191 4195 
10 3926 3920 10880 10943 4027 11526 12947 13077 13636 13221 
10 4441 5708 3945 10951 13866 13848 13839 13840 13850 13841 
10 3929 3904 3913 10868 4094 4092 3968 13007 11890 12072 
10 4429 4377 375 4138 4492 4487 4491 13856 13857 4191 
10 3926 3920 3901 10880 4027 4064 4060 12947 11526 13433 
10 3475 253 252 4388 3567 266 3568 12168 4536 4537 
10 5330 3464 3444 10911 5416 3844 5567 12654 11872 13190 
10 438 4864 5657 439 5012 12764 5803 452 5011 5804 
10 412 5656 411 4389 5764 5765 425 4498 13716 4497 
10 5317 306 307 4863 5370 320 5369 13804 4956 4957 
10 3922 3927 3907 10900 4036 4114 4115 13654 12820 13708 
10 4912 4882 4840 10949 5276 5284 5099 13829 13817 11062 
10 4411 4377 4357 10945 4489 4759 4761 13739 13833 13811 
10 3945 12 5708 4441 3948 5717 13848 13839 4451 13866 
10 5348 6 4915 3946 5355 4929 12225 12327 3957 12117 
10 4138 4149 4126 10945 4192 4319 4323 13249 13738 13732 
10 443 5666 5702 4908 5816 5820 5818 5027 13830 13614 
10 5701 5665 416 4434 5781 5776 5780 13615 13861 4512 
10 5692 4899 445 10949 13860 5033 5824 13828 13807 13871 
10 4441 4374 4432 10951 4815 4687 4496 13840 13283 13479 
10 5661 5618 5671 10955 5961 5959 5874 13664 13414 12983 
10 4139 4162 4124 10933 4227 4300 4307 13330 12744 12389 
10 4352 4381 4448 10874 4712 4617 4715 11964 13759 13458 
10 5633 5676 5705 10949 6074 6067 5878 13748 13816 13619 
10 314 5323 5339 4876 5390 5391 5386 4980 11325 13831 
10 5684 5609 5652 10906 5840 5841 5839 13267 13578 13543 
10 260 5338 5324 4424 5402 5406 5404 4557 13689 13872 
10 5669 419 420 4400 5789 433 5788 11798 4521 4522 
10 3512 3477 5292 10926 3679 5442 5436 13540 13719 13051 
10 3521 257 3484 4433 3583 3579 3584 13084 4552 13822 
10 4909 311 5321 5343 4971 5379 12951 13177 5383 5384 
10 5636 5665 5621 10956 5778 5987 5988 13258 13548 13668 
10 5295 5340 5309 10958 5481 5482 5478 12245 13836 13562 
10 4841 4917 4900 10953 5288 5214 5285 13391 13386 13789 
10 5709 13 3947 4916 5721 3954 12640 12349 4925 12639 
10 5644 5615 5681 10893 5918 5916 5917 13160 12805 13775 
10 4357 4399 4387 10937 4760 4583 4764 13813 13810 13067 
10 4150 4127 4140 10884 4325 4329 4208 13702 13445 12428 
10 5676 5633 5692 10949 6074 6000 5826 13816 13748 13828 
10 4128 4136 4152 10887 4332 4221 4333 12905 13048 13567 
10 5708 5699 5642 10951 5763 5953 6078 13850 12828 12988 
10 4156 4139 4124 10933 4306 4307 4305 12632 13330 12389 
10 4161 4123 4137 10942 4290 4297 4243 12026 11392 13397 
10 3902 3924 3922 10879 4076 4034 4077 12758 13617 13686 
10 4151 4125 4134 10911 4315 4314 4237 12653 12629 12448 
10 4878 4826 4868 10917 5179 5182 5082 13753 13537 13117 
10 4882 4899 4840 10949 5034 5217 5284 13817 13807 11062 
10 5339 4900 314 4876 13788 4978 5386 13831 4982 4980 
10 4917 4829 4900 10953 5211 5213 5214 13386 13264 13789 
10 5324 260 4401 261 5404 4561 11538 5405 274 4560 
10 3528 251 4 4440 3536 264 3537 11678 4455 4453 
10 5295 5309 3506 10958 5478 5479 5480 12245 13562 13468 
10 4346 4419 4375 10934 4637 4638 4636 13808 13676 12725 
10 4137 4123 4154 10942 4297 4295 4296 13397 11392 12712 
10 332 3944 4 4440 3951 3952 338 4454 11805 4453 
10 12 5708 345 3945 5717 5718 351 3948 13848 3950 
10 3528 4 81 3944 3537 87 3538 11816 3952 3953 
10 4915 6 358 3946 4929 364 4928 12117 3957 3958 
10 446 4875 5668 447 5036 13764 5827 460 5035 5828 
10 4890 4817 4918 10927 5064 5067 5068 13375 13602 12708 
10 5636 5621 5696 10956 5988 5989 5914 13258 13668 13735 
10 4166 14 4436 5703 4170 4456 12489 12491 5724 12492 
10 4375 4426 4346 10934 4639 4640 4636 12725 12736 13808 
10 5344 10 4167 4910 5358 4179 12524 12526 4935 12527 
10 5704 15 4911 4168 5726 4932 12530 12529 4176 12531 
10 3923 3899 3926 10943 4037 4028 4038 13559 13627 13077 
10 3899 3920 3926 10943 4024 4027 4028 13627 13636 13077 
10 4165 4435 8 3522 13778 4460 4172 13772 13851 3543 
10 3947 13 363 4916 3954 370 3956 12639 4925 4926 
10 5348 86 6 3946 5356 93 5355 12327 3959 3957 
10 3945 337 12 4441 3949 344 3948 13839 4450 4451 
10 3947 350 13 5709 3955 357 3954 12640 5720 5721 
10 5708 12 410 4441 5717 423 5719 13866 4451 4452 
10 4915 305 6 5348 4930 318 4929 12225 5357 5355 
10 4397 256 257 3484 4549 270 4548 13630 3580 3579 
10 5321 310 311 4872 5380 324 5379 11292 4968 4969 
10 13 4916 5709 437 4925 12349 5721 450 4927 5722 
10 4423 337 336 3942 4475 343 4474 13505 3972 3973 
10 3941 349 350 5690 3989 356 3988 12971 5741 5742 
10 4436 376 14 4166 4457 383 4456 12489 4169 4170 
10 10 4167 190 5344 4179 4180 197 5358 12524 5360 
10 4168 15 4911 402 4176 4932 12531 4177 409 4931 
10 4166 384 14 5703 4171 390 4170 12491 5723 5724 
10 4167 10 397 4910 4179 403 4178 12527 4935 4936 
10 5704 389 15 4168 5727 396 5726 12529 4175 4176 
10 185 4165 8 3522 4174 4172 191 3542 13772 3543 
10 4435 8 371 4165 4460 377 4459 13778 4172 4173 
10 4897 358 359 3939 4938 365 4937 11941 3992 3993 
10 3936 82 81 3508 4009 88 4008 12637 3643 3642 
10 5701 416 417 4434 5780 430 5779 13615 4512 4513 
10 443 5702 444 4908 5818 5819 457 5027 13614 5026 
10 4909 312 311 5343 4972 325 4971 13177 5382 5383 
10 3521 258 257 4433 3582 271 3583 13084 4551 4552 
10 4160 372 371 4430 4182 378 4181 12931 4478 4479 
10 362 3943 363 4898 4004 4005 369 4950 13096 4949 
10 5337 85 86 3940 5365 92 5364 12102 4020 4021 
10 4422 333 332 3938 4463 339 4462 12056 3960 3961 
10 3937 345 346 5689 3977 352 3976 13685 5729 5730 
10 4873 5666 442 443 13679 5815 5024 5023 5816 456 
10 415 4398 416 5665 4509 4510 429 5777 13546 5776 
10 5676 444 4882 445 5821 5030 13815 5822 458 5029 
10 374 4411 373 4149 4484 4485 380 4188 13737 4187 
10 335 3929 334 4406 3966 3967 341 4469 13005 4468 
10 3928 347 348 5675 3983 354 3982 11025 5735 5736 
10 399 400 4152 4886 406 4219 4220 4998 4999 13750 
10 4150 387 386 5680 4204 393 4203 13751 5751 5752 
10 3931 84 83 3494 4015 90 4014 12156 3649 3648 
10 360 3930 361 4881 3998 3999 367 4944 13016 4943 
10 437 5700 438 4907 5800 5801 451 5009 13295 5008 
10 418 5677 417 4407 5782 5783 431 4516 12840 4515 
10 312 4883 313 3495 4974 4975 326 3624 12384 3625 
10 315 5323 314 4876 5389 5390 328 4981 11325 4980 
10 4157 186 3516 185 4229 3548 12316 4230 192 3549 
10 4432 411 410 5699 4495 424 4494 13478 5761 5762 
10 305 4906 306 3519 4953 4954 319 3603 13194 3604 
10 4904 4158 398 397 12572 4213 4993 4992 4214 404 
10 389 5697 388 4164 5757 5758 395 4210 11923 4209 
10 188 5330 4151 187 5415 12651 4235 194 5414 4236 
10 252 4431 251 3518 4533 4534 265 3564 12877 3565 
10 4409 253 254 3497 4540 267 4539 11388 3571 3570 
10 5329 307 308 4884 5373 321 5372 12953 4959 4960 
10 413 5678 412 4410 5767 5768 426 4501 12459 4500 
10 439 5679 440 4885 5806 5807 453 5015 11033 5014 
10 189 190 4161 3517 196 4241 4242 3561 3560 12474 
10 385 5698 384 4159 5745 5746 391 4198 13310 4197 
10 402 401 4905 4162 408 5004 5005 4225 4226 13417 
10 259 4408 258 3496 4554 4555 272 3585 12854 3586 
10 445 4899 5692 446 5033 13860 5824 459 5032 5825 
10 4163 376 375 4429 4194 382 4193 13553 4490 4491 
10 422 4436 14 5703 4458 4456 436 5725 12492 5724 
10 5339 313 314 4900 5387 327 5386 13788 4977 4978 
10 15 4911 449 5704 4932 4933 463 5726 12530 5728 
10 5344 317 10 4910 5359 331 5358 12526 4934 4935 
10 4435 263 8 3522 4461 277 4460 13851 3544 3543 
10 419 5691 418 4425 5785 5786 432 4519 13230 4518 
10 259 5338 260 4424 5401 5402 273 4558 13689 4557 
10 10779 3495 5345 10750 12388 5597 11940 11560 12385 13472 
10 10779 5345 3495 3450 11940 5597 12388 11844 5598 3883 
10 10949 10813 4912 10770 11064 11975 13829 12415 12414 13531 
10 10949 4912 10813 4840 13829 11975 11064 11062 5099 11059 
10 10779 4883 4913 4839 12387 5282 12444 11843 5280 5281 
10 10779 4913 4883 10750 12444 5282 12387 11560 13426 12386 
10 10915 10780 10934 10823 12643 11193 11666 11662 11894 11665 
10 10780 10915 10934 10856 12643 11666 11193 11192 12475 11191 
10 10897 10779 5345 10750 11259 11940 13473 11081 11560 13472 
10 10897 5345 10779 5294 13473 11940 11259 11260 5471 11258 
10 10939 10723 10793 10749 12144 11117 11768 11376 11522 11521 
10 10939 10793 10723 10844 11768 11117 12144 11767 11509 12644 
10 10932 10815 10791 10741 13075 12329 11379 11377 11304 11165 
10 10932 10791 10815 10817 11379 12329 13075 11883 12237 12332 
10 10784 10854 5687 5614 11091 11615 11693 12028 13287 5903 
10 10784 5687 10854 10766 11693 11615 11091 11695 11616 11614 
10 10920 10822 5333 5291 12199 12293 12393 13272 12557 5427 
10 10901 10731 10745 10799 12666 11458 11732 11751 11632 10986 
10 10901 10745 10731 10842 11732 11458 12666 11731 11730 12215 
10 10785 10917 4897 10761 13042 13873 11684 11685 13343 11681 
10 10785 4897 10917 4855 11684 13873 13042 11971 4942 13519 
10 4826 4897 10917 10761 5172 13873 13537 13376 11681 13343 
10 4826 10917 4897 4855 13537 13873 5172 5176 13519 4942 
10 10805 10741 4439 4417 11744 13874 12924 11745 11541 4580 
10 10805 4439 10741 10793 12924 13874 11744 11115 12923 11272 
10 4341 4439 10741 4417 4577 13874 10976 4579 4580 11541 
10 10910 10818 10941 10755 13875 11762 11623 11549 12189 11284 
10 10818 10910 10941 10727 13875 11623 11762 12301 11634 11636 
10 10818 10910 10788 10755 13875 11650 12304 12189 11549 11647 
10 10910 10818 10788 10727 13875 12304 11650 11634 12301 13325 
10 10838 10784 10914 10735 11071 12522 11610 11072 11073 11878 
10 10784 10838 10914 10719 11071 11610 12522 12253 11489 11608 
10 10845 10749 4361 10793 11523 13876 11270 11118 11521 11269 
10 10845 4361 10749 4414 11270 13876 11523 12441 4791 13252 
10 4421 10749 4361 4414 13192 13876 4787 4793 13252 4791 
10 10813 10865 4912 10770 12283 13877 11975 12414 12435 13531 
10 10813 4912 10865 4820 11975 13877 12283 11976 5098 12901 
10 4923 4912 10865 10770 5106 13877 12434 11445 13531 12435 
10 4923 10865 4912 4820 12434 13877 5106 5104 12901 5098 
10 10865 10870 4914 4891 12062 11696 12811 12063 12061 5052 
10 10865 4914 10870 10788 12811 11696 12062 12284 11646 11697 
10 10810 10899 4895 10777 13092 13821 12274 12275 11604 12272 
10 10810 4895 10899 4851 12274 13821 13092 12911 5128 13150 
10 10946 10822 10839 5333 13878 12297 11384 12395 12293 12295 
10 10822 10946 10839 10738 13878 11384 12297 12196 11383 11382 
10 10822 10946 10920 5333 13878 12396 12199 12293 12395 12393 
10 10946 10822 10920 10738 13878 12199 12396 11383 12196 12197 
10 10946 10778 10755 10738 11172 12058 11385 11383 12059 11380 
10 10946 10755 10778 10928 11385 12058 11172 11173 11400 11169 
10 10779 3450 4883 4839 11844 13879 12387 11843 11840 5280 
10 10779 4883 3450 3495 12387 13879 11844 12388 12384 3883 
10 5343 4883 3450 4839 13590 13879 5596 11841 5280 11840 
10 5343 3450 4883 3495 5596 13879 13590 5385 3883 12384 
10 10877 10854 5695 5651 11093 13286 11318 13413 13586 5910 
10 10877 5695 10854 10784 11318 13286 11093 11074 11319 11091 
10 10715 10941 10932 10802 12263 13880 11378 12556 12446 12883 
10 10715 10932 10941 10817 11378 13880 12263 12238 11883 13143 
10 10738 10932 10941 10802 11884 13880 11596 13530 12883 12446 
10 10738 10941 10932 10817 11596 13880 11884 11880 13143 11883 
10 10754 10783 10888 10719 11164 13881 12305 12145 11607 11873 
10 10754 10888 10783 10753 12305 13881 11164 11107 12306 11163 
10 10838 10888 10783 10719 12405 13881 11497 11489 11873 11607 
10 10838 10783 10888 10753 11497 13881 12405 11129 11163 12306 
10 10910 4913 10750 10858 12311 13426 13133 12313 12309 11515 
10 10910 10750 4913 10779 13133 13426 12311 12231 11560 12444 
10 10929 10912 4127 10747 11316 12848 13164 11370 11368 12847 
10 10831 10871 3505 10807 13064 13153 11342 11343 13155 11341 
10 10831 3505 10871 3463 11342 13153 13064 12338 3738 13213 
10 10898 10912 10954 10748 12663 12559 13624 12719 12036 13549 
10 10912 10898 10954 10732 12663 13624 12559 11298 12662 12558 
10 10899 4895 4860 4822 13821 5132 11605 12417 5127 5120 
10 10899 4860 4895 10777 11605 5132 13821 11604 11430 12272 
10 10895 10733 3904 10868 11779 11645 13094 12564 11725 11890 
10 10895 3904 10733 3934 13094 11645 11779 11777 4096 11524 
10 4165 3522 4369 4435 13772 13852 12418 13778 13851 4571 
10 3456 4369 4165 3522 13652 12418 12363 3602 13852 13772 
10 3456 4165 4369 10789 12363 12418 13652 12365 12367 12420 
10 10938 4829 4876 4846 13605 5207 11326 12788 5206 4985 
10 10938 4876 4829 10786 11326 5207 13605 11328 11323 13263 
10 10890 5624 5661 5713 11546 6024 13662 13661 6023 5962 
10 10890 5661 5624 10881 13662 6024 11546 12224 13238 12082 
10 10925 10760 5650 5613 12194 13882 12208 12768 13314 5889 
10 10925 5650 10760 10859 12208 13882 12194 12210 12206 12687 
10 5716 5650 10760 5613 5890 13882 13315 5891 5889 13314 
10 5716 10760 5650 10859 13315 13882 5890 13612 12687 12206 
10 10821 4408 4438 4366 13392 4808 12588 12898 4812 4813 
10 10821 4438 4408 10757 12588 4808 13392 12625 12909 11417 
10 10757 4364 3521 4433 11415 13883 12128 11828 4807 13084 
10 10757 3521 4364 3451 12128 13883 11415 11416 3887 11414 
10 4408 3521 4364 4433 13606 13883 4806 4556 13084 4807 
10 4408 4364 3521 3451 4806 13883 13606 11413 11414 3887 
10 10937 10769 10732 10898 13474 11297 12860 12871 12661 12662 
10 10937 10732 10769 10857 12860 11297 13474 12862 12179 12180 
10 10848 10909 5351 3479 13589 12240 12729 13091 13742 5525 
10 10848 5351 10909 10772 12729 12240 13589 12731 12239 11425 
10 4164 5646 10884 5697 13869 11670 11924 11923 5759 11764 
10 5646 4164 10884 4140 13869 11924 11670 13862 4211 12428 
10 10888 10875 10905 10753 12307 12292 13700 12306 11631 12290 
10 10875 10888 10905 10717 12307 13700 12292 13769 13568 12369 
10 10822 10738 10932 10740 12196 11884 12882 11753 11879 11882 
10 10738 10822 10932 10802 12196 12882 11884 13530 12881 12883 
10 4124 4148 10884 4140 4309 13834 11349 4310 4308 12428 
10 4148 4124 10884 10809 4309 11349 13834 12694 11346 11350 
10 5697 4168 4132 4164 13774 4340 12181 11923 4212 4303 
10 4168 5697 4132 5638 13774 12181 4340 11441 5928 11440 
10 4131 4167 4904 4844 4339 13773 12228 11279 11278 5136 
10 4131 4904 4167 4158 12228 13773 4339 4287 12572 4215 
10 10927 4887 4866 10896 13714 5208 12709 11997 13713 12894 
10 10927 4866 4887 4918 12709 5208 13714 12708 5270 5066 
10 10955 10746 5642 10951 12257 13168 12989 12259 12254 12988 
10 10955 5642 10746 5618 12989 13168 12257 13414 5952 13494 
10 4434 10873 5632 5701 13014 13487 11643 13615 13855 6069 
10 4434 5632 10873 10760 11643 13487 13014 11644 11398 13013 
10 10839 5332 5294 5312 12502 5463 11257 12970 5464 5462 
10 10839 5294 5332 10897 11257 5463 12502 11261 11260 12505 
10 10953 4900 4883 3495 13789 4979 13293 13294 13787 12384 
10 10953 4883 4900 4841 13293 4979 13789 13391 5286 5285 
10 10836 10924 4920 4867 13377 13762 13211 13372 13378 5170 
10 10836 4920 10924 10827 13211 13762 13377 13210 13207 13665 
10 10884 10747 4148 10809 12948 12695 13834 11350 12693 12694 
10 10884 4148 10747 4127 13834 12695 12948 13445 4328 12847 
10 5631 10883 4908 5702 11532 11548 11785 6064 12260 13614 
10 10883 5631 4908 10770 11532 11785 11548 11449 11530 11547 
10 10858 4837 4896 4889 11826 5273 12510 13408 5267 5266 
10 10858 4896 4837 10813 12510 5273 11826 11827 12508 11823 
10 10885 10950 10881 10737 13037 12084 11728 11928 12083 11927 
10 10885 10881 10950 10767 11728 12084 13037 11654 11641 12793 
10 4144 4124 10933 4156 4311 12389 12633 4312 4305 12632 
10 4124 4144 10933 10809 4311 12633 12389 11346 12139 12391 
10 4430 4165 4129 4369 13779 4337 12891 4672 12418 12419 
10 4165 4430 4129 4160 13779 12891 4337 4183 12931 4265 
10 4157 3464 10911 3516 13867 11872 12317 12316 3553 12187 
10 3464 4157 10911 4134 13867 12317 11872 13864 4234 12448 
10 10858 10896 4913 10750 11704 13884 12309 11515 11703 13426 
10 10858 4913 10896 4819 12309 13884 11704 12310 5093 13820 
10 4917 4913 10896 10750 5092 13884 13384 13383 13426 11703 
10 4917 10896 4913 4819 13384 13884 5092 5091 13820 5093 
10 10953 4883 4913 10750 13293 5282 13390 11083 12386 13426 
10 10953 4913 4883 4841 13390 5282 13293 13391 5287 5286 
10 10950 10730 10768 10797 13036 12381 13055 12339 13035 12720 
10 10950 10768 10730 10840 13055 12381 13036 13081 13079 12377 
10 10924 5700 4907 4864 13885 13295 13642 12528 13868 5013 
10 10924 4907 5700 10768 13642 13295 13885 13644 12456 13296 
10 5657 5700 10924 4864 5805 13885 13886 12764 13868 12528 
10 5657 10924 5700 10768 13886 13885 5805 13462 13644 13296 
10 10840 5657 10924 4864 11702 13886 11689 11892 12764 12528 
10 10840 10924 5657 10768 11689 13886 11702 13079 13644 13462 
10 4131 4167 3517 4161 4339 13800 12408 4291 4244 12474 
10 4167 4131 3517 5305 4339 12408 13800 11242 11243 5503 
10 4845 10763 4162 4905 11470 12742 13186 5148 13416 13417 
10 10763 4845 4162 4132 11470 13186 12742 11442 11469 4301 
10 5637 10764 4159 5698 11438 12913 13187 5940 13215 13310 
10 10764 5637 4159 4130 11438 13187 12913 11437 11436 4275 
10 10864 10914 4835 10783 12356 12966 13351 12148 11609 12765 
10 10864 4835 10914 4901 13351 12966 12356 13597 5250 13721 
10 10895 4350 4392 4445 13489 4694 12174 12175 4690 4695 
10 10895 4392 4350 10856 12174 4694 13489 12380 11291 13488 
10 10835 10913 10905 10717 12965 13887 13565 13825 13770 12369 
10 10835 10905 10913 10758 13565 13887 12965 12655 12291 13609 
10 10875 10905 10913 10717 12292 13887 13766 13769 12369 13770 
10 10875 10913 10905 10758 13766 13887 12292 11125 13609 12291 
10 10920 10776 5331 3447 13480 13060 13776 13610 13521 5577 
10 10920 5331 10776 10871 13776 13060 13480 13162 13063 13065 
10 4847 10872 5668 5640 13212 13854 13765 13268 13292 5832 
10 4847 5668 10872 4875 13765 13854 13212 5040 13764 13819 
10 10908 10831 10957 10776 13172 13475 12580 12769 13061 12745 
10 10831 10908 10957 10758 13172 12580 13475 12592 12578 11487 
10 10770 4838 5676 5631 11446 13888 13758 11530 11786 6065 
10 10770 5676 4838 4882 13758 13888 11446 13744 13815 5275 
10 4908 5676 4838 5631 13613 13888 5274 11785 6065 11786 
10 4908 4838 5676 4882 5274 13888 13613 5031 5275 13815 
10 5308 5348 4906 4915 5607 13889 12120 11498 12225 4955 
10 5308 4906 5348 3519 12120 13889 5607 5516 13194 5368 
10 305 4906 5348 4915 4953 13889 5357 4930 4955 12225 
10 305 5348 4906 3519 5357 13889 4953 3603 5368 13194 
10 10914 4821 4842 10784 12523 5108 13671 12522 12049 12555 
10 10914 4842 4821 4902 13671 5108 12523 13672 5109 5110 
10 10931 10877 10906 10742 11473 12185 13437 12052 11552 12137 
10 10931 10906 10877 10765 13437 12185 11473 11919 12994 12221 
10 5705 10824 10869 5612 13618 10970 13366 5879 12484 12485 
10 10824 5705 10869 10770 13618 13366 10970 12413 13364 13026 
10 4153 10945 4141 4126 13640 13890 4273 4321 13732 4324 
10 4147 10945 4141 10769 13646 13890 4249 12635 13248 11535 
10 4147 4141 10945 4126 4249 13890 13646 4322 4324 13732 
10 10951 10895 4350 10746 13278 13489 13362 12254 12817 13361 
10 10951 4350 10895 4374 13362 13489 13278 13283 4683 13280 
10 10851 10732 10929 10747 11266 11315 11839 11985 11369 11370 
10 10732 10851 10929 10764 11266 11839 11315 11295 11476 11317 
10 10958 5340 10776 10876 13836 13520 13427 13331 13607 11989 
10 10958 10776 5340 10908 13427 13520 13836 13428 12769 13585 
10 5648 10890 3928 3912 13733 11030 13755 13837 12993 3984 
10 5648 3928 10890 5675 13755 11030 13733 5737 11025 11028 
10 10957 10718 10791 10817 13476 12328 13510 12823 12331 12237 
10 10957 10791 10718 10905 13510 12328 13476 13579 12717 13341 
10 4158 4852 10887 4904 13870 11627 12597 12572 4997 12549 
10 4852 4158 10887 4136 13870 12597 11627 13863 4218 13048 
10 4386 4346 10934 4419 4633 13808 13703 4644 4637 13676 
10 4346 4386 10934 10830 4633 13703 13808 13699 13146 13794 
10 10904 10749 4361 4421 11131 13876 13694 13193 13192 4787 
10 10904 4361 10749 10793 13694 13876 11131 13185 11269 11521 
10 4165 4129 3516 4157 4337 13891 13771 4231 4261 12316 
10 4165 3516 4129 3456 13771 13891 4337 12363 3746 12364 
10 10789 3516 4129 4157 12186 13891 12366 12315 12316 4261 
10 10789 4129 3516 3456 12366 13891 12186 12365 12364 3746 
10 4159 5703 384 4166 13892 5723 4197 4199 12491 4171 
10 5703 4159 384 5698 13892 4197 5723 5747 13310 5746 
10 5703 4159 5637 4166 13892 13187 5799 12491 4199 11435 
10 4159 5703 5637 5698 13892 5799 13187 13310 5747 5940 
10 4162 4911 402 4168 13893 4931 4225 4228 12531 4177 
10 4911 4162 402 4905 13893 4225 4931 5007 13417 5005 
10 4911 4162 4845 4168 13893 13186 5046 12531 4228 11468 
10 4162 4911 4845 4905 13893 5046 13186 13417 5007 5148 
10 10888 10804 10935 10719 11874 12425 12483 11873 11265 12550 
10 10804 10888 10935 10767 11874 12483 12425 11502 12096 12424 
10 5324 10821 4424 5338 11495 13498 13872 5406 13598 13689 
10 10821 5324 4424 4401 11495 13872 13498 11865 11538 4562 
10 4886 10887 4139 4152 13756 13328 13749 13750 13567 4224 
10 4886 4139 10887 4853 13749 13328 13756 5003 13329 13222 
10 4429 4130 4166 4370 13894 4338 13795 4661 11450 11451 
10 4130 4429 4166 4163 13894 13795 4338 4277 13553 4196 
10 4130 4429 10764 4370 13894 13552 11437 11450 4661 11452 
10 4429 4130 10764 4163 13894 11437 13552 13553 4277 13032 
10 4418 10937 10945 4357 13200 13812 13780 4763 13813 13811 
10 10937 4418 10945 10806 13200 13780 13812 13199 13198 13639 
10 4135 10884 5680 5645 13029 13826 13752 13030 12949 5753 
10 10884 4135 5680 4150 13029 13752 13826 13702 4205 13751 
10 10936 5706 5710 5634 13724 5896 12900 13697 6076 6011 
10 10936 5710 5706 10925 12900 5896 13724 12727 12899 13593 
10 5321 10778 4843 4872 11170 12132 13824 11292 11293 4970 
10 10778 5321 4843 5304 11170 13824 12132 12520 5381 12716 
10 4397 256 3455 4368 4549 3576 13631 4550 4545 13625 
10 256 4397 3455 3484 4549 13631 3576 3580 13630 3581 
10 10929 4127 4143 4155 13164 4330 13843 13163 4327 4286 
10 10929 4143 4127 10912 13843 4330 13164 11316 13569 12848 
10 10929 4143 4147 4122 13843 4254 12636 12029 4285 4283 
10 10929 4147 4143 10912 12636 4254 13843 11316 12634 13569 
10 10741 10874 4439 4341 10977 12412 13874 10976 10978 4577 
10 10741 4439 10874 10793 13874 12412 10977 11272 12923 11273 
10 4141 10806 10945 4153 11122 13639 13890 4273 11004 13640 
10 4141 10945 10806 10769 13890 13639 11122 11535 13248 11534 

CELL_TYPES 8291
24
24
24
24
24
24
24
24
24
24
24
24
24
24
24
24
24
24
24
24
24
24
24
24
24
24
24
24
24
24
24
24
24
24
24
24
24
24
24
24
24
24
24
24
24
24
24
24
24
24
24
24
24
24
24
24
24
24
24
24
24
24
24
24
24
24
24
24
24
24
24
24
24
24
24
24
24
24
24
24
24
24
24
24
24
24
24
24
24
24
24
24
24
24
24
24
24
24
24
24
24
24
24
24
24
24
24
24
24
24
24
24
24
24
24
24
24
24
24
24
24
24
24
24
24
24
24
24
24
24
24
24
24
24
24
24
24
24
24
24
24
24
24
24
24
24
24
24
24
24
24
24
24
24
24
24
24
24
24
24
24
24
24
24
24
24
24
24
24
24
24
24
24
24
24
24
24
24
24
24
24
24
24
24
24
24
24
24
24
24
24
24
24
24
24
24
24
24
24
24
24
24
24
24
24
24
24
24
24
24
24
24
24
24
24
24
24
24
24
24
24
24
24
24
24
24
24
24
24
24
24
24
24
24
24
24
24
24
24
24
24
24
24
24
24
24
24
24
24
24
24
24
24
24
24
24
24
24
24
24
24
24
24
24
24
24
24
24
24
24
24
24
24
24
24
24
24
24
24
24
24
24
24
24
24
24
24
24
24
24
24
24
24
24
24
24
24
24
24
24
24
24
24
24
24
24
24
24
24
24
24
24
24
24
24
24
24
24
24
24
24
24
24
24
24
24
24
24
24
24
24
24
24
24
24
24
24
24
24
24
24
24
24
24
24
24
24
24
24
24
24
24
24
24
24
24
24
24
24
24
24
24
24
24
24
24
24
24
24
24
24
24
24
24
24
24
24
24
24
24
24
24
24
24
24
24
24
24
24
24
24
24
24
24
24
24
24
24
24
24
24
24
24
24
24
24
24
24
24
24
24
24
24
24
24
24
24
24
24
24
24
24
24
24
24
24
24
24
24
24
24
24
24
24
24
24
24
24
24
24
24
24
24
24
24
24
24
24
24
24
24
24
24
24
24
24
24
24
24
24
24
24
24
24
24
24
24
24
24
24
24
24
24
24
24
24
24
24
24
24
24
24
24
24
24
24
24
24
24
24
24
24
24
24
24
24
24
24
24
24
24
24
24
24
24
24
24
24
24
24
24
24
24
24
24
24
24
24
24
24
24
24
24
24
24
24
24
24
24
24
24
24
24
24
24
24
24
24
24
24
24
24
24
24
24
24
24
24
24
24
24
24
24
24
24
24
24
24
24
24
24
24
24
24
24
24
24
24
24
24
24
24
24
24
24
24
24
24
24
24
24
24
24
24
24
24
24
24
24
24
24
24
24
24
24
24
24
24
24
24
24
24
24
24
24
24
24
24
24
24
24
24
24
24
24
24
24
24
24
24
24
24
24
24
24
24
24
24
24
24
24
24
24
24
24
24
24
24
24
24
24
24
24
24
24
24
24
24
24
24
24
24
24
24
24
24
24
24
24
24
24
24
24
24
24
24
24
24
24
24
24
24
24
24
24
24
24
24
24
24
24
24
24
24
24
24
24
24
24
24
24
24
24
24
24
24
24
24
24
24
24
24
24
24
24
24
24
24
24
24
24
24
24
24
24
24
24
24
24
24
24
24
24
24
24
24
24
24
24
24
24
24
24
24
24
24
24
24
24
24
24
24
24
24
24
24
24
24
24
24
24
24
24
24
24
24
24
24
24
24
24
24
24
24
24
24
24
24
24
24
24
24
24
24
24
24
24
24
24
24
24
24
24
24
24
24
24
24
24
24
24
24
24
24
24
24
24
24
24
24
24
24
24
24
24
24
24
24
24
24
24
24
24
24
24
24
24
24
24
24
24
24
24
24
24
24
24
24
24
24
24
24
24
24
24
24
24
24
24
24
24
24
24
24
24
24
24
24
24
24
24
24
24
24
24
24
24
24
24
24
24
24
24
24
24
24
24
24
24
24
24
24
24
24
24
24
24
24
24
24
24
24
24
24
24
24
24
24
24
24
24
24
24
24
24
24
24
24
24
24
24
24
24
24
24
24
24
24
24
24
24
24
24
24
24
24
24
24
24
24
24
24
24
24
24
24
24
24
24
24
24
24
24
24
24
24
24
24
24
24
24
24
24
24
24
24
24
24
24
24
24
24
24
24
24
24
24
24
24
24
24
24
24
24
24
24
24
24
24
24
24
24
24
24
24
24
24
24
24
24
24
24
24
24
24
24
24
24
24
24
24
24
24
24
24
24
24
24
24
24
24
24
24
24
24
24
24
24
24
24
24
24
24
24
24
24
24
24
24
24
24
24
24
24
24
24
24
24
24
24
24
24
24
24
24
24
24
24
24
24
24
24
24
24
24
24
24
24
24
24
24
24
24
24
24
24
24
24
24
24
24
24
24
24
24
24
24
24
24
24
24
24
24
24
24
24
24
24
24
24
24
24
24
24
24
24
24
24
24
24
24
24
24
24
24
24
24
24
24
24
24
24
24
24
24
24
24
24
24
24
24
24
24
24
24
24
24
24
24
24
24
24
24
24
24
24
24
24
24
24
24
24
24
24
24
24
24
24
24
24
24
24
24
24
24
24
24
24
24
24
24
24
24
24
24
24
24
24
24
24
24
24
24
24
24
24
24
24
24
24
24
24
24
24
24
24
24
24
24
24
24
24
24
24
24
24
24
24
24
24
24
24
24
24
24
24
24
24
24
24
24
24
24
24
24
24
24
24
24
24
24
24
24
24
24
24
24
24
24
24
24
24
24
24
24
24
24
24
24
24
24
24
24
24
24
24
24
24
24
24
24
24
24
24
24
24
24
24
24
24
24
24
24
24
24
24
24
24
24
24
24
24
24
24
24
24
24
24
24
24
24
24
24
24
24
24
24
24
24
24
24
24
24
24
24
24
24
24
24
24
24
24
24
24
24
24
24
24
24
24
24
24
24
24
24
24
24
24
24
24
24
24
24
24
24
24
24
24
24
24
24
24
24
24
24
24
24
24
24
24
24
24
24
24
24
24
24
24
24
24
24
24
24
24
24
24
24
24
24
24
24
24
24
24
24
24
24
24
24
24
24
24
24
24
24
24
24
24
24
24
24
24
24
24
24
24
24
24
24
24
24
24
24
24
24
24
24
24
24
24
24
24
24
24
24
24
24
24
24
24
24
24
24
24
24
24
24
24
24
24
24
24
24
24
24
24
24
24
24
24
24
24
24
24
24
24
24
24
24
24
24
24
24
24
24
24
24
24
24
24
24
24
24
24
24
24
24
24
24
24
24
24
24
24
24
24
24
24
24
24
24
24
24
24
24
24
24
24
24
24
24
24
24
24
24
24
24
24
24
24
24
24
24
24
24
24
24
24
24
24
24
24
24
24
24
24
24
24
24
24
24
24
24
24
24
24
24
24
24
24
24
24
24
24
24
24
24
24
24
24
24
24
24
24
24
24
24
24
24
24
24
24
24
24
24
24
24
24
24
24
24
24
24
24
24
24
24
24
24
24
24
24
24
24
24
24
24
24
24
24
24
24
24
24
24
24
24
24
24
24
24
24
24
24
24
24
24
24
24
24
24
24
24
24
24
24
24
24
24
24
24
24
24
24
24
24
24
24
24
24
24
24
24
24
24
24
24
24
24
24
24
24
24
24
24
24
24
24
24
24
24
24
24
24
24
24
24
24
24
24
24
24
24
24
24
24
24
24
24
24
24
24
24
24
24
24
24
24
24
24
24
24
24
24
24
24
24
24
24
24
24
24
24
24
24
24
24
24
24
24
24
24
24
24
24
24
24
24
24
24
24
24
24
24
24
24
24
24
24
24
24
24
24
24
24
24
24
24
24
24
24
24
24
24
24
24
24
24
24
24
24
24
24
24
24
24
24
24
24
24
24
24
24
24
24
24
24
24
24
24
24
24
24
24
24
24
24
24
24
24
24
24
24
24
24
24
24
24
24
24
24
24
24
24
24
24
24
24
24
24
24
24
24
24
24
24
24
24
24
24
24
24
24
24
24
24
24
24
24
24
24
24
24
24
24
24
24
24
24
24
24
24
24
24
24
24
24
24
24
24
24
24
24
24
24
24
24
24
24
24
24
24
24
24
24
24
24
24
24
24
24
24
24
24
24
24
24
24
24
24
24
24
24
24
24
24
24
24
24
24
24
24
24
24
24
24
24
24
24
24
24
24
24
24
24
24
24
24
24
24
24
24
24
24
24
24
24
24
24
24
24
24
24
24
24
24
24
24
24
24
24
24
24
24
24
24
24
24
24
24
24
24
24
24
24
24
24
24
24
24
24
24
24
24
24
24
24
24
24
24
24
24
24
24
24
24
24
24
24
24
24
24
24
24
24
24
24
24
24
24
24
24
24
24
24
24
24
24
24
24
24
24
24
24
24
24
24
24
24
24
24
24
24
24
24
24
24
24
24
24
24
24
24
24
24
24
24
24
24
24
24
24
24
24
24
24
24
24
24
24
24
24
24
24
24
24
24
24
24
24
24
24
24
24
24
24
24
24
24
24
24
24
24
24
24
24
24
24
24
24
24
24
24
24
24
24
24
24
24
24
24
24
24
24
24
24
24
24
24
24
24
24
24
24
24
24
24
24
24
24
24
24
24
24
24
24
24
24
24
24
24
24
24
24
24
24
24
24
24
24
24
24
24
24
24
24
24
24
24
24
24
24
24
24
24
24
24
24
24
24
24
24
24
24
24
24
24
24
24
24
24
24
24
24
24
24
24
24
24
24
24
24
24
24
24
24
24
24
24
24
24
24
24
24
24
24
24
24
24
24
24
24
24
24
24
24
24
24
24
24
24
24
24
24
24
24
24
24
24
24
24
24
24
24
24
24
24
24
24
24
24
24
24
24
24
24
24
24
24
24
24
24
24
24
24
24
24
24
24
24
24
24
24
24
24
24
24
24
24
24
24
24
24
24
24
24
24
24
24
24
24
24
24
24
24
24
24
24
24
24
24
24
24
24
24
24
24
24
24
24
24
24
24
24
24
24
24
24
24
24
24
24
24
24
24
24
24
24
24
24
24
24
24
24
24
24
24
24
24
24
24
24
24
24
24
24
24
24
24
24
24
24
24
24
24
24
24
24
24
24
24
24
24
24
24
24
24
24
24
24
24
24
24
24
24
24
24
24
24
24
24
24
24
24
24
24
24
24
24
24
24
24
24
24
24
24
24
24
24
24
24
24
24
24
24
24
24
24
24
24
24
24
24
24
24
24
24
24
24
24
24
24
24
24
24
24
24
24
24
24
24
24
24
24
24
24
24
24
24
24
24
24
24
24
24
24
24
24
24
24
24
24
24
24
24
24
24
24
24
24
24
24
24
24
24
24
24
24
24
24
24
24
24
24
24
24
24
24
24
24
24
24
24
24
24
24
24
24
24
24
24
24
24
24
24
24
24
24
24
24
24
24
24
24
24
24
24
24
24
24
24
24
24
24
24
24
24
24
24
24
24
24
24
24
24
24
24
24
24
24
24
24
24
24
24
24
24
24
24
24
24
24
24
24
24
24
24
24
24
24
24
24
24
24
24
24
24
24
24
24
24
24
24
24
24
24
24
24
24
24
24
24
24
24
24
24
24
24
24
24
24
24
24
24
24
24
24
24
24
24
24
24
24
24
24
24
24
24
24
24
24
24
24
24
24
24
24
24
24
24
24
24
24
24
24
24
24
24
24
24
24
24
24
24
24
24
24
24
24
24
24
24
24
24
24
24
24
24
24
24
24
24
24
24
24
24
24
24
24
24
24
24
24
24
24
24
24
24
24
24
24
24
24
24
24
24
24
24
24
24
24
24
24
24
24
24
24
24
24
24
24
24
24
24
24
24
24
24
24
24
24
24
24
24
24
24
24
24
24
24
24
24
24
24
24
24
24
24
24
24
24
24
24
24
24
24
24
24
24
24
24
24
24
24
24
24
24
24
24
24
24
24
24
24
24
24
24
24
24
24
24
24
24
24
24
24
24
24
24
24
24
24
24
24
24
24
24
24
24
24
24
24
24
24
24
24
24
24
24
24
24
24
24
24
24
24
24
24
24
24
24
24
24
24
24
24
24
24
24
24
24
24
24
24
24
24
24
24
24
24
24
24
24
24
24
24
24
24
24
24
24
24
24
24
24
24
24
24
24
24
24
24
24
24
24
24
24
24
24
24
24
24
24
24
24
24
24
24
24
24
24
24
24
24
24
24
24
24
24
24
24
24
24
24
24
24
24
24
24
24
24
24
24
24
24
24
24
24
24
24
24
24
24
24
24
24
24
24
24
24
24
24
24
24
24
24
24
24
24
24
24
24
24
24
24
24
24
24
24
24
24
24
24
24
24
24
24
24
24
24
24
24
24
24
24
24
24
24
24
24
24
24
24
24
24
24
24
24
24
24
24
24
24
24
24
24
24
24
24
24
24
24
24
24
24
24
24
24
24
24
24
24
24
24
24
24
24
24
24
24
24
24
24
24
24
24
24
24
24
24
24
24
24
24
24
24
24
24
24
24
24
24
24
24
24
24
24
24
24
24
24
24
24
24
24
24
24
24
24
24
24
24
24
24
24
24
24
24
24
24
24
24
24
24
24
24
24
24
24
24
24
24
24
24
24
24
24
24
24
24
24
24
24
24
24
24
24
24
24
24
24
24
24
24
24
24
24
24
24
24
24
24
24
24
24
24
24
24
24
24
24
24
24
24
24
24
24
24
24
24
24
24
24
24
24
24
24
24
24
24
24
24
24
24
24
24
24
24
24
24
24
24
24
24
24
24
24
24
24
24
24
24
24
24
24
24
24
24
24
24
24
24
24
24
24
24
24
24
24
24
24
24
24
24
24
24
24
24
24
24
24
24
24
24
24
24
24
24
24
24
24
24
24
24
24
24
24
24
24
24
24
24
24
24
24
24
24
24
24
24
24
24
24
24
24
24
24
24
24
24
24
24
24
24
24
24
24
24
24
24
24
24
24
24
24
24
24
24
24
24
24
24
24
24
24
24
24
24
24
24
24
24
24
24
24
24
24
24
24
24
24
24
24
24
24
24
24
24
24
24
24
24
24
24
24
24
24
24
24
24
24
24
24
24
24
24
24
24
24
24
24
24
24
24
24
24
24
24
24
24
24
24
24
24
24
24
24
24
24
24
24
24
24
24
24
24
24
24
24
24
24
24
24
24
24
24
24
24
24
24
24
24
24
24
24
24
24
24
24
24
24
24
24
24
24
24
24
24
24
24
24
24
24
24
24
24
24
24
24
24
24
24
24
24
24
24
24
24
24
24
24
24
24
24
24
24
24
24
24
24
24
24
24
24
24
24
24
24
24
24
24
24
24
24
24
24
24
24
24
24
24
24
24
24
24
24
24
24
24
24
24
24
24
24
24
24
24
24
24
24
24
24
24
24
24
24
24
24
24
24
24
24
24
24
24
24
24
24
24
24
24
24
24
24
24
24
24
24
24
24
24
24
24
24
24
24
24
24
24
24
24
24
24
24
24
24
24
24
24
24
24
24
24
24
24
24
24
24
24
24
24
24
24
24
24
24
24
24
24
24
24
24
24
24
24
24
24
24
24
24
24
24
24
24
24
24
24
24
24
24
24
24
24
24
24
24
24
24
24
24
24
24
24
24
24
24
24
24
24
24
24
24
24
24
24
24
24
24
24
24
24
24
24
24
24
24
24
24
24
24
24
24
24
24
24
24
24
24
24
24
24
24
24
24
24
24
24
24
24
24
24
24
24
24
24
24
24
24
24
24
24
24
24
24
24
24
24
24
24
24
24
24
24
24
24
24
24
24
24
24
24
24
24
24
24
24
24
24
24
24
24
24
24
24
24
24
24
24
24
24
24
24
24
24
24
24
24
24
24
24
24
24
24
24
24
24
24
24
24
24
24
24
24
24
24
24
24
24
24
24
24
24
24
24
24
24
24
24
24
24
24
24
24
24
24
24
24
24
24
24
24
24
24
24
24
24
24
24
24
24
24
24
24
24
24
24
24
24
24
24
24
24
24
24
24
24
24
24
24
24
24
24
24
24
24
24
24
24
24
24
24
24
24
24
24
24
24
24
24
24
24
24
24
24
24
24
24
24
24
24
24
24
24
24
24
24
24
24
24
24
24
24
24
24
24
24
24
24
24
24
24
24
24
24
24
24
24
24
24
24
24
24
24
24
24
24
24
24
24
24
24
24
24
24
24
24
24
24
24
24
24
24
24
24
24
24
24
24
24
24
24
24
24
24
24
24
24
24
24
24
24
24
24
24
24
24
24
24
24
24
24
24
24
24
24
24
24
24
24
24
24
24
24
24
24
24
24
24
24
24
24
24
24
24
24
24
24
24
24
24
24
24
24
24
24
24
24
24
24
24
24
24
24
24
24
24
24
24
24
24
24
24
24
24
24
24
24
24
24
24
24
24
24
24
24
24
24
24
24
24
24
24
24
24
24
24
24
24
24
24
24
24
24
24
24
24
24
24
24
24
24
24
24
24
24
24
24
24
24
24
24
24
24
24
24
24
24
24
24
24
24
24
24
24
24
24
24
24
24
24
24
24
24
24
24
24
24
24
24
24
24
24
24
24
24
24
24
24
24
24
24
24
24
24
24
24
24
24
24
24
24
24
24
24
24
24
24
24
24
24
24
24
24
24
24
24
24
24
24
24
24
24
24
24
24
24
24
24
24
24
24
24
24
24
24
24
24
24
24
24
24
24
24
24
24
24
24
24
24
24
24
24
24
24
24
24
24
24
24
24
24
24
24
24
24
24
24
24
24
24
24
24
24
24
24
24
24
24
24
24
24
24
24
24
24
24
24
24
24
24
24
24
24
24
24
24
24
24
24
24
24
24
24
24
24
24
24
24
24
24
24
24
24
24
24
24
24
24
24
24
24
24
24
24
24
24
24
24
24
24
24
24
24
24
24
24
24
24
24
24
24
24
24
24
24
24
24
24
24
24
24
24
24
24
24
24
24
24
24
24
24
24
24
24
24
24
24
24
24
24
24
24
24
24
24
24
24
24
24
24
24
24
24
24
24
24
24
24
24
24
24
24
24
24
24
24
24
24
24
24
24
24
24
24
24
24
24
24
24
24
24
24
24
24
24
24
24
24
24
24
24
24
24
24
24
24
24
24
24
24
24
24
24
24
24
24
24
24
24
24
24
24
24
24
24
24
24
24
24
24
24
24
24
24
24
24
24
24
24
24
24
24
24
24
24
24
24
24
24
24
24
24
24
24
24
24
24
24
24
24
24
24
24
24
24
24
24
24
24
24
24
24
24
24
24
24
24
24
24
24
24
24
24
24
24
24
24
24
24
24
24
24
24
24
24
24
24
24
24
24
24
24
24
24
24
24
24
24
24
24
24
24
24
24
24
24
24
24
24
24
24
24
24
24
24
24
24
24
24
24
24
24
24
24
24
24
24
24
24
24
24
24
24
24
24
24
24
24
24
24
24
24
24
24
24
24
24
24
24
24
24
24
24
24
24
24
24
24
24
24
24
24
24
24
24
24
24
24
24
24
24
24
24
24
24
24
24
24
24
24
24
24
24
24
24
24
24
24
24
24
24
24
24
24
24
24
24
24
24
24
24
24
24
24
24
24
24
24
24
24
24
24
24
24
24
24
24
24
24
24
24
24
24
24
24
24
24
24
24
24
24
24
24
24
24
24
24
24
24
24
24
24
24
24
24
24
24
24
24
24
24
24
24
24
24
24
24
24
24
24
24
24
24
24
24
24
24
24
24
24
24
24
24
24
24
24
24
24
24
24
24
24
24
24
24
24
24
24
24
24
24
24
24
24
24
24
24
24
24
24
24
24
24
24
24
24
24
24
24
24
24
24
24
24
24
24
24
24
24
24
24
24
24
24
24
24
24
24
24
24
24
24
24
24
24
24
24
24
24
24
24
24
24
24
24
24
24
24
24
24
24
24
24
24
24
24
24
24
24
24
24
24
24
24
24
24
24
24
24
24
24
24
24
24
24
24
24
24
24
24
24
24
24
24
24
24
24
24
24
24
24
24
24
24
24
24
24
24
24
24
24
24
24
24
24
24
24
24
24
24
24
24
24
24
24
24
24
24
24
24
24
24
24
24
24
24
24
24
24
24
24
24
24
24
24
24
24
24
24
24
24
24
24
24
24
24
24
24
24
24
24
24
24
24
24
24
24
24
24
24
24
24
24
24
24
24
24
24
24
24
24
24
24
24
24
24
24
24
24
24
24
24
24
24
24
24
24
24
24
24
24
24
24
24
24
24
24
24
24
24
24
24
24
24
24
24
24
24
24
24
24
24
24
24
24
24
24
24
24
24
24
24
24
24
24
24
24
24
24
24
24
24
24
24
24
24
24
24
24
24
24
24
24
24
24
24
24
24
24
24
24
24
24
24
24
24
24
24
24
24
24
24
24
24
24
24
24
24
24
24
24
24
24
24
24
24
24
24
24
24
24
24
24
24
24
24
24
24
24
24
24
24
24
24
24
24
24
24
24
24
24
24
24
24
24
24
24
24
24
24
24
24
24
24
24
24
24
24
24
24
24
24
24
24
24
24
24
24
24
24
24
24
24
24
24
24
24
24
24
24
24
24
24
24
24
24
24
24
24
24
24
24
24
24
24
24
24
24
24
24
24
24
24
24
24
24
24
24
24
24
24
24
24
24
24
24
24
24
24
24
24
24
24
24
24
24
24
24
24
24
24
24
24
24
24
24
24
24
24
24
24
24
24
24
24
24
24
24
24
24
24
24
24
24
24
24
24
24
24
24
24
24
24
24
24
24
24
24
24
24
24
24
24
24
24
24
24
24
24
24
24
24
24
24
24
24
24
24
24
24
24
24
24
24
24
24
24
24
24
24
24
24
24
24
24
24
24
24
24
24
24
24
24
24
24
24
24
24
24
24
24
24
24
24
24
24
24
24
24
24
24
24
24
24
24
24
24
24
24
24
24
24
24
24
24
24
24
24
24
24
24
24
24
24
24
24
24
24
24
24
24
24
24
24
24
24
24
24
24
24
24
24
24
24
24
24
24
24
24
24
24
24
24
24
24
24
24
24
24
24
24
24
24
24
24
24
24
24
24
24
24
24
24
24
24
24
24
24
24
24
24
24
24
24
24
24
24
24
24
24
24
24
24
24
24
24
24
24
24
24
24
24
24
24
24
24
24
24
24
24
24
24
24
24
24
24
24
24
24
24
24
24
24
24
24
24
24
24
24
24
24
24
24
24
24
24
24
24
24
24
24
24
24
24
24
24
24
24
24
24
24
24
24
24
24
24
24
24
24
24
24
24
24
24
24
24
24
24
24
24
24
24
24
24
24
24
24
24
24
24
24
24
24
24
24
24
24
24
24
24
24
24
24
24
24
24
24
24
24
24
24
24
24
24
24
24
24
24
24
24
24
24
24
24
24
24
24
24
24
24
24
24
24
24
24
24
24
24
24
24
24
24
24
24
24
24
24
24
24
24
24
24
24
24
24
24
24
24
24
24
24
24
24
24
24
24
24
24
24
24
24
24
24
24
24
24
24
24
24
24
24
24
24
24
24
24
24
24
24
24
24
24
24
24
24
24
24
24
24
24
24
24
24
24
24
24
24
24
24
24
24
24
24
24
24
24
24
24
24
24
24
24
24
24
24
24
24
24
24
24
24
24
24
24
24
24
24
24
24
24
24
24
24
24
24
24
24
24
24
24
24
24
24
24
24
24
24
24
24
24
24
24
24
24
24
24
24
24
24
24
24
24
24
24
24
24
24
24
24
24
24
24
24
24
24
24
24
24
24
24
24
24
24
24
24
24
24
24
24
24
24
24
24
24
24
24
24
24
24
24
24
24
24
24
24
24
24
24
24
24
24
24
24
24
24
24
24
24
24
24
24
24
24
24
24
24
24
24
24
24
24
24
24
24
24
24
24
24
24
24
24
24
24
24
24
24
24
24
24
24
24
24
24
24
24
24
24
24
24
24
24
24
24
24
24
24
24
24
24
24
24
24
24
24
24
24
24
24
24
24
24
24
24
24
24
24
24
24
24
24
24
24
24
24
24
24
24
24
24
24
24
24
24
24
24
24
24
24
24
24
24
24
24
24
24
24
24
24
24
24
24
24
24
24
24
24
24
24
24
24
24
24
24
24
24
24
24
24
24
24
24
24
24
24
24
24
24
24
24
24
24
24
24
24
24
24
24
24
24
24
24
24
24
24
24
24
24
24
24
24
24
24
24
24
24
24
24
24
24
24
24
24
24
24
24
24
24
24
24
24
24
24
24
24
24
24
24
24
24
24
24
24
24
24
24
24
24
24
24
24
24
24
24
24
24
24
24
24
24
24
24
24
24
24
24
24
24
24
24
24
24
24
24
24
24
24
24
24
24
24
24
24
24
24
24
24
24
24
24
24
24
24
24
24
24
24
24
24
24
24
24
24
24
24
24
24
24
24
24
24
24
24
24
24
24
24
24
24
24
24
24
24
24
24
24
24
24
24
24
24
24
24
24
24
24
24
24
24
24
24
24
24
24
24
24
24
24
24
24
24
24
24
24
24
24
24
24
24
24
24
24
24
24
24
24
24
24
24
24
24
24
24
24
24
24
24
24
24
24
24
24
24
24
24
24
24
24
24
24
24
24
24
24
24
24
24
24
24
24
24
24
24
24
24
24
24
24
24
24
24
24
24
24
24
24
24
24
24
24
24
24
24
24
24
24
24
24
24
24
24
24
24
24
24
24
24
24
24
24
24
24
24
24
24
24
24
24
24
24
24
24
24
24
24
24
24
24
24
24
24
24
24
24
24
24
24
24
24
24
24
24
24
24
24
24
24
24
24
24
24
24
24
24
24
24
24
24
24
24
24
24
24
24
24
24
24
24
24
24
24
24
24
24
24
24
24
24
24
24
24
24
24
24
24
24
24
24
24
24
24
24
24
24
24
24
24
24
24
24
24
24
24
24
24
24
24
24
24
24
24
24
24
24
24
24
24
24
24
24
24
24
24
24
24
24
24
24
24
24
24
24
24
24
24
24
24
24
24
24
24
24
24
24
24
24
24
24
24
24
24
24
24
24
24
24
24
24
24
24
24
24
24
24
24
24
24
24
24
24
24
24
24
24
24
24
24
24
24
24
24
24
24
24
24
24
24
24
24
24
24
24
24
24
24
24
24
24
24
24
24
24
24
24
24
24
24
24
24
24
24
24
24
24
24
24
24
24
24
24
24
24
24
24
24
24
24
24
24
24
24
24
24
24
24
24
24
24
24
24
24
24
24
24
24
24
24
24
24
24
24
24
24
24
24
24
24
24
24
24
24
24
24
24
24
24
24
24
24
24
24
24
24
24
24
24
24
24
24
24
24
24
24
24
24
24
24
24
24
24
24
24
24
24
24
24
24
24
24
24
24
24
24
24
24
24
24
24
24
24
24
24
24
24
24
24
24
24
24
24
24
24
24
24
24
24
24
24
24
24
24
24
24
24
24
24
24
24
24
24
24
24
24
24
24
24
24
24
24
24
24
24
24
24
24
24
24
24
24
24
24
24
24
24
24
24
24
24
24
24
24
24
24
24
24
24
24
24
24
24
24
24
24
24
24
24
24
24
24
24
24
24
24
24
24
24
24
24
24
24
24
24
24
24
24
24
24
24
24
24
24
24
24
24
24
24
24
24
24
24
24
24
24
24
24
24
24
24
24
24
24
24
24
24
24
24
24
24
24
24
24
24
24
24
24
24
24
24
24
24
24
24
24
24
24
24
24
24
24
24
24
24
24
24
24
24
24
24
24
24
24
24
24
24
24
24
24
24
24
24
24
24
24
24
24
24
24
24
24
24
24
24
24
24
24
24
24
24
24
24
24
24
24
24
24
24
24
24
24
24
24
24
24
24
24
24
24
24
24
24
24
24
24
24
24
24
24
24
24
24
24
24
24
24
24
24
24
24
24
24
24
24
24
24
24
24
24
24
24
24
24
24
24
24
24
24
24
24
24
24
24
24
24
24
24
24
24
24
24
24
24
24
24
24
24
24
24
24
24
24
24
24
24
24
24
24
24
24
24
24
24
24
24
24
24
24
24
24
24
24
24
24
24
24
24
24
24
24
24
24
24
24
24
24
24
24
24
24
24
24
24
24
24
24
24
24
24
24
24
24
24
24
24
24
24
24
24
24
24
24
24
24
24
24
24
24
24
24
24
24
24
24
24
24
24
24
24
24
24
24
24
24
24
24
24
24
24
24
24
24
24
24
24
24
24
24
24
24
24
24
24
24
24
24
24
24
24
24
24
24
24
24
24
24
24
24
24
24
24
24
24
24
24
24
24
24
24
24
24
24
24
24
24
24
24
24
24
24
24
24
24
24
24
24
24
24
24
24
24
24
24
24
24
24
24
24
24
24
24
24
24
24
24
24
24
24
24
24
24
24
24
24
24
24
24
24
24
24
24
24
24
24
24
24
24
24
24
24
24
24
24
24
24
24
24
24
24
24
24
24
24
24
24
24
24
24
24
24
24
24
24
24
24
24
24
24
24
24
24
24
24
24
24
24
24
24
24
24
24
24
24
24
24
24
24
24
24
24
24
24
24
24
24
24
24
24
24
24
24
24
24
24
24
24
24
24
24
24
24
24
24
24
24
24
24
24
24
24
24
24
24
24
24
24
24
24
24
24
24
24
24
24
24
24
24
24
24
24
24
24
24
24
24
24
24
24
24
24
24
24
24
24
24
24
24
24
24
24
24
24
24
24
24
24
24
24
24
24
24
24
24
24
24
24
24
24
24
24
24
24
24
24
24
24
24
24
24
24
24
24
24
24
24
24
24
24
24
24
24
24
24
24
24
24
24
24
24
24
24
24
24
24
24
24
24
24
24
24
24
24
24
24
24
24
24
24
24
24
24
24
24
24
24
24
24
24
24
24
24
24
24
24
24
24
24
24
24
24
24
24
24
24
24
24
24
24
24
24
24
24
24
24
24
24
24
24
24
24
24
24
24
24
24
24
24
24
24
24
24
24
24
24
24
24
24
24
24
24
24
24
24
24
24
24
24
24
24
24
24
24
24
24
24
24
24
24
24
24
24
24
24
24
24
24
24
24
24
24
24
24
24
24
24
24
24
24
24
24
24
24
24
24
24
24
24
24
24
24
24
24
24
24
24
24
24
24
24
24
24
24
24
24
24
24
24
24
24
24
24
24
24
24
24
24
24
24
24
24
24
24
24
24
24
24
24
24
24
24
24
24
24
24
24
24
24
24
24
24
24
24
24
24
24
24
24
24
24
24
24
24
24
24
24
24
24
24
24
24
24
24
24
24
24
24
24
24
24
24
24
24
24
24
24
24
24
24
24
24
24
24
24
24
24
24
24
24
24
24
24
24
24
24
24
24
24
24
24
24
24
24
24
24
24
24
24
24
24
24
24
24
24
24
24
24
24
24
24
24
24
24
24
24
24
24
24
24
24
24
24
24
24
24
24
24
24
24
24
24
24
24
24
24
24
24
24
24
24
24
24
24
24
24
24
24
24
24
24
24
24
24
24
24
24
24
24
24
24
24
24
24
24
24
24
24
24
24
24
24
24
24
24
24
24
24
24
24
24
24
24
24
24
24
24
24
24
24
24
24
24
24
24
24
24
24
24
24
24
24
24
24
24
24
24
24
24
24
24
24
24
24
24
24
24
24
24
24
24
24
24
24
24
24
24
24
24
24
24
24
24
24
24
24
24
24
24
24
24
24
24
24
24
24
24
24
24
24
24
24
24
24
24
24
24
24
24
24
24
24
24
24
24
24
24
24
24
24
24
24
24
24
24
24
24
24
24
24
24
24
24
24
24
24
24
24
24
24
24
24
24
24
24
24
24
24
24
24
24
24
24
24
24
24
24
24
24
24
24
24
24
24
24
24
24
24
24
24
24
24
24
24
24
24
24
24
24
24
24
24
24
24
24
24
24
24
24
24
24
24
24
24
24
24
24
24
24
24
24
24
24
24
24
24
24
24
24
24
24
24
24
24
24
24
24
24
24
24
24
24
24
24
24
24
24
24
24
24
24
24
24
24
24
24
24
24
24
24
24
24
24
24
24
24
24
24
24
24
24
24
24
24
24
24
24
24
24
24
24
24
24
24
24
24
24
24
24
24
24
24
24
24
24
24
24
24
24
24
24
24
24
24
24
24
24
24
24
24
24
24
24
24
24
24
24
24
24
24
24
24
24
24
24
24
24
24
24
24
24
24
24
24
24
24
24
24
24
24
24
24
24
24
24
24
24
24
24
24
24
24
24
24
24
24
24
24
24
24
24
24
24
24
24
24
24
24
24
24
24
24
24
24
24
24
24
24
24
24
24
24
24
24
24
24
24
24
24
24
24
24
24
24
24
24
24
24
24
24
24
24
24
24
24
24
24
24
24
24
24
24
24
24
24
24
24
24
24
24
24
24
24
24
24
24
24
24
24
24
24
24
24
24
24
24
24
24
24
24
24
24
24
24
24
24
24
24
24
24
24
24
24
24
24
24
24
24
24
24
24
24
24
24
24
24
24
24
24
24
24
24
24
24
24
24
24
24
24
24
24
24
24
24
24
24
24
24
24
24
24
24
24
24
24
24
24
24
24
24
24
24
24
24
24
24
24
24
24
24
24
24
24
24
24
24
24
24
24
24
24
24
24
24
24
24
24
24
24
24
24
24
24
24
24
24
24
24
24
24
24
24
24
24
24
24
24
24
24
24
24
24
24
24
24
24
24
24
24
24
24
24
24
24
24
24
24
24
24
24
24
24
24
24
24
24
24
24
24
24
24
24
24
24
24
24
24
24
24
24
24
24
24
24
24
24
24
24
24
24
24
24
24
24
24
24
24
24
24
24
24
24
24
24
24
24
24
24
24
24
24
24
24
24
24
24
24
24
24
24
24
24
24
24
24
24
24
24
24
24
24
24
24
24
24
24
24
24
24
24
24
24
24
24
24
24
24
24
24
24
24
24
24
24
24
24
24
24
24
24
24
24
24
24
24
24
24
24
24
24
24
24
24
24
24
24
24
24
24
24
24
24
24
24
24
24
24
24
24
24
24
24
24
24
24
24
24
24
24
24
24
24
24
24
24
24
24
24
24
24
24
24
24
24
24
24
24
24
24
24
24
24
24
24
24
24
24
24
24
24
24
24
24
24
24
24
24
24
24
24
24
24
24
24
24
24
24
24
24
24
24
24
24
24
24
24
24
24
24
24
24
24
24
24
24
24
24
24
24
24
24
24
24
24
24
24
24
24
24
24
24
24
24
24
24
24
24
24
24
24
24
24
24
24
24
24
24
24
24
24
24
24
24
24
24
24
24
24
24
24
24
24
24
24
24
24
24
24
24
24
24
24
24
24
24
24
24
24
24
24
24
24
24
24
24
24
24
24
24
24
24
24
24
24
24
24
24
24
24
24
24
24
24
24
24
24
24
24
24
24
24
24
24
24
24
24
24
24
24
24
24
24
24
24
24
24
24
24
24
24
24
24
24
24
24
24
24
24
24
24
24
24
24
24
24
24
24
24
24
24
24
24
24
24
24
24
24
24
24
24
24
24
24
24
24
24
24
24
24
24
24
24
24
24
24
24
24
24
24
24
24
24
24
24
24
24
24
24
24
24
24
24
24
24
24
24
24
24
24
24
24
24
24
24
24
24
24
24
24
24
24
24
24
24
24
24
24
24
24
24
24
24
24
24
24
24
24
24
24
24
24
24
24
24
24
24
24
24
24
24
24
24
24
24
24
24
24
24
24
24
24
24
24
24
24
24
24
24
24
24
24
24
24
24
24
24
24
24
24
24
24
24
24
24
24
24
24
24
24
24
24
24
24
24
24
24
24
24
24
24
24
24
24
24
24
24
24
24
24
24
24
24
24
24
24
24
24
24
24
24
24
24
24
24
24
24
24
24
24
24
24
24
24
24
24
24
24
24
24
24
24
24
24
24
24
24
24
24
24
24
24
24
24
24
24
24
24
24
24
24
24
24
24
24
24
24
24
24
24
24
24
24
24
24
24
24
24
24
24
24
24
24
24
24
24
24
24
24
24
24
24
24
24
24
24
24
24
24
24
24
24
24
24
24
24
24
24
24
24
24
24
24
24
24
24
24
24
24
24
24
24
24
24
24
24
24
24
24
24
24
24
24
24
24
24
24
24
24
24
24
24
24
24
24
24
24
24
24
24
24
24
24
24
24
24
24
24
24
24
24
24
24
24
24
24
24
24
24
24
24
24
24
24
24
24
24
24
24
24
24
24
24
24
24
24
24
24
24
24
24
24
24
24
24
24
24
24
24
24
24
24
24
24
24
24
24
24
24
24
24
24
24
24
24
24
24
24
24
24
24
24
24
24
24
24
24
24
24
24
24
24
24
24
24
24
24
24
24
24
24
24
24
24
24
24
24
24
24
24
24
24
24
24
24
24
24
24
24
24
24
24
24
24
24
24
24
24
24
24
24
24
24
24
24
24
24
24
24
24
24
24
24
24
24
24
24
24
24
24
24
24
24
24
24
24
24
24
24
24
24
24
24
24
24
24
24
24
24
24
24
24
24
24
24
24
24
24
24
24
24
24
24
24
24
24
24
24
24
24
24
24
24
24
24
24
24
24
24
24
24
24
24
24
24
24
24
24
24
24
24
24
24
24
24
24
24
24
24
24
24
24
24
24
24
24
24
24
24
24
24
24
24
24
24
24
24
24
24
24
24
24
24
24
24
24
24
24
24
24
24
24
24
24
24
24
24
24
24
24
24
24
24
24
24
24
24

POINT_DATA 13895
FIELD FieldData 8
Displacement 3 13895 double
0 0 0 0 0 0 0 0 0 
0 0 0 0.00018912271339 0 3.8116449235e-06 0 0 0 
0.00018912271339 0 -7.6006883225e-06 0 0 0 0 0 0 
0 0 0 0 0 0 0 0 0 
0.00018912271339 0 0.00019296854498 0.00018912271339 0 0.0001928952401 0 0 0 
0 0 0 0 0 0 0 0 0 
0 0 0 0 0 0 0 0 0 
0 0 0 0 0 0 0 0 0 
0 0 0 0 0 0 0 0 0 
0 0 0 0 0 0 0 0 0 
0 0 0 0 0 0 0 0 0 
0 0 0 0 0 0 0 0 0 
0 0 0 0 0 0 0 0 0 
0 0 0 0 0 0 0 0 0 
0 0 0 0 0 0 0 0 0 
0 0 0 0 0 0 0 0 0 
0 0 0 0 0 0 0 0 0 
0 0 0 0 0 0 0 0 0 
0 0 0 0 0 0 0 0 0 
0 0 0 0 0 0 0 0 0 
0 0 0 0 0 0 0 0 0 
0 0 0 0 0 0 0 0 0 
0 0 0 0 0 0 5.6165213528e-09 0 -2.1946602399e-08 
-5.8709279053e-09 0 -6.0086268598e-08 -4.5787151588e-08 0 -1.0183814175e-07 -1.6055011011e-07 0 -1.1710087072e-07 
-9.3007129841e-08 0 -1.2429460085e-07 9.4034765124e-06 0 3.5354622285e-06 4.6617543488e-09 0 -8.6867684776e-09 
2.2736903706e-09 0 -3.9747575322e-08 -1.9253425927e-08 0 -8.1598828633e-08 -8.4931445582e-08 0 -1.1484251081e-07 
-1.4230923383e-07 0 -8.4924184634e-08 -1.3985600843e-06 0 1.4773749164e-06 4.6933674254e-05 0 6.0256178909e-07 
0.00018912271339 1.0850206276e-05 2.9943402168e-05 0.00018912271339 -2.4826874899e-06 3.6287961562e-05 0.00018912271339 2.5810357145e-05 1.1444026688e-05 
0.00018912271339 4.8486968871e-05 7.7876357817e-06 0.00018912271339 7.8758286409e-07 1.3452357644e-05 0.00018912271339 -6.066375489e-06 2.0005413329e-05 
0.00018912271339 3.9771584898e-06 3.205929297e-05 0.00018912271339 -8.603670623e-06 2.7223555766e-05 0.00018912271339 1.3706077191e-05 4.3829329633e-05 
0.00018912271339 4.6598696224e-05 2.4289272321e-05 0.00018912271339 1.7193252537e-05 1.4571307889e-05 0.00018912271339 -2.7093743638e-06 1.303219653e-05 
0.00018912271339 -1.431907522e-05 1.4683565312e-05 1.2250187693e-08 0 -6.2554005533e-09 1.6345150971e-08 0 -1.529420771e-08 
1.0359785498e-08 0 -3.0951144835e-08 -2.5446652254e-08 0 -6.7452522657e-08 -3.1928065581e-07 0 -1.808385106e-07 
1.1528053485e-06 0 2.4665712097e-07 7.261119993e-09 0 -2.7216311092e-09 1.5256200904e-08 0 -1.0366206818e-08 
1.5596452107e-08 0 -2.228115738e-08 1.7942341043e-09 0 -4.2537494615e-08 -8.7740264664e-08 0 -1.1277475097e-07 
3.2792220642e-08 0 1.2475453046e-07 3.2962971351e-05 0 5.0129744888e-07 0 0 0 
0 0 0 0 0 0 0 0 0 
0 0 0 0 0 0 0 0 0 
0 0 0 0 0 0 0 0 0 
0 0 0 0 0 0 0 0 0 
0 0 0 0 0 0 0 0 0 
0 0 0 0 0 0 0 0 0 
0 0 0 0 0 0 0 0 0 
0 0 0 0 0 0 0 0 0 
0 0 0 4.0252711642e-08 0 -5.5170244884e-09 1.1496841927e-07 0 1.0393166602e-08 
2.4184331126e-07 0 1.1749555833e-08 5.0367609193e-07 0 -6.9079040921e-08 1.4021198601e-06 0 -1.1814108954e-06 
6.4414660391e-05 0 -5.4187753576e-05 1.5445283362e-08 0 -1.1751347687e-08 7.3443566969e-08 0 3.0292967447e-09 
1.7359779938e-07 0 1.6168038333e-08 3.4671148033e-07 0 -6.0355732878e-09 7.2728772745e-07 0 -1.6901586973e-07 
1.3872945729e-05 0 -5.2900891799e-06 0.00013669307742 0 -0.00013023396321 0 0 0 
0 0 0 0 0 0 0 0 0 
0 0 0 0 0 0 0 0 0 
0 0 0 0 0 0 0 0 0 
0 0 0 0 0 0 0 0 0 
-3.8212068338e-10 0 1.067201176e-08 4.0493019396e-09 0 2.7420436597e-08 6.6535270557e-09 0 4.1466767699e-08 
-1.2552182239e-08 0 5.1210250202e-08 -3.1055648133e-07 0 -1.4890207469e-08 6.2387039795e-05 0 -4.7118198536e-05 
-7.6266695958e-10 0 3.5580310623e-09 1.6583044322e-09 0 1.930482884e-08 5.8219020911e-09 0 3.4800347695e-08 
-1.1749819128e-09 0 5.2421633133e-08 -1.1815389332e-07 0 7.6842789293e-08 1.2212438744e-05 0 2.4299226808e-07 
0.00013059883603 0 -0.00013172663476 0 0 0 0 0 0 
0 0 0 0 0 0 0 0 0 
0 0 0 0 0 0 0 0 0 
0 0 0 0 0 0 0 0 0 
0 0 0 0 0 0 0 0 0 
0 0 0 0 0 0 0 0 0 
0 0 0 0 0 0 0 0 0 
0 0 0 0 0 0 0 0 0 
0 0 0 0 0 0 0 0 0 
0 0 0 0 0 0 0 0 0 
0 0 0 0 0 0 0 0 0 
0 0 0 0 0 0 0 0 0 
0 0 0 0 0 0 0 0 0 
0 0 0 0 0 0 0 0 0 
0 0 0 0 0 0 0 0 0 
0 0 0 0 0 0 0 0 0 
0 0 0 0 0 0 0 0 0 
0 0 0 0 0 0 0 0 0 
0 0 0 0 0 0 0 0 0 
0 0 0 0 0 0 0 0 0 
0 0 0 0 0 0 0 0 0 
0 0 0 0 0 0 0 0 0 
0 0 0 0 0 0 0 0 0 
0 0 0 0 0 0 0 0 0 
0 0 0 0 0 0 0 0 0 
0 0 0 0 0 0 0 0 0 
0 0 0 0 0 0 8.1132709797e-05 0 3.8912679311e-05 
2.3934851372e-05 0 1.2494922646e-05 4.906784116e-06 0 1.55597771e-06 2.4902440708e-07 0 4.4192573576e-07 
2.3005480791e-07 0 3.6249311552e-07 1.3118593429e-07 0 2.7924352534e-07 9.9136202129e-08 0 2.0022599968e-07 
7.6790368258e-08 0 1.2852101186e-07 6.1358847558e-08 0 7.97560731e-08 4.4207328228e-08 0 4.1928946311e-08 
2.9382162073e-08 0 1.6056674575e-08 1.6449705896e-08 0 -9.9447558941e-10 6.7334983564e-09 0 -8.6849310105e-09 
0.00013720556888 0 4.2898237348e-05 4.3997764576e-05 0 2.8617332858e-05 1.1400620158e-05 0 4.5331607025e-06 
1.3585994022e-06 0 6.6726634858e-07 1.5522505713e-07 0 2.5681516648e-07 1.6249798074e-07 0 3.216578609e-07 
1.1310682376e-07 0 2.3845693977e-07 8.5558099973e-08 0 1.6161243156e-07 7.0422399449e-08 0 1.0264313648e-07 
5.2509217759e-08 0 5.8775132504e-08 3.69420599e-08 0 2.8114543732e-08 2.275328229e-08 0 6.6105145636e-09 
1.0868328091e-08 0 -6.0022799527e-09 2.8885704595e-09 0 -6.7762440227e-09 0 0 0 
0 0 0 0 0 0 0 0 0 
0 0 0 0 0 0 0 0 0 
0 0 0 0 0 0 0 0 0 
0 0 0 0 0 0 0 0 0 
0 0 0 0 0 0 0 0 0 
0 0 0 0 0 0 0 0 0 
0 0 0 0 0 0 0 0 0 
0 0 0 0 0 0 0 0 0 
0 0 0 0 0 0 5.7055714941e-05 0 2.2351893822e-05 
5.0515547799e-06 0 2.8842754403e-06 1.8300415238e-06 0 3.7799863915e-07 1.5459334291e-07 0 1.8088064903e-07 
2.040453277e-07 0 2.144618507e-07 1.2081129008e-07 0 1.9732591594e-07 9.1316879507e-08 0 1.5961093155e-07 
6.9500816228e-08 0 1.1347721828e-07 6.0816862564e-08 0 6.4722405628e-08 4.5077039008e-08 0 2.9414410064e-08 
3.2324662493e-08 0 6.0426160843e-09 1.9834506157e-08 0 -8.5472827705e-09 9.546694511e-09 0 -1.2969040221e-08 
0.00011873062967 0 6.6371809064e-05 2.136300125e-05 0 1.4899427711e-05 2.4124787642e-06 0 1.7307403631e-06 
5.3922986805e-07 0 1.8092232345e-07 8.3637444935e-08 0 5.6619980105e-08 1.5658917775e-07 0 2.0399410685e-07 
1.0761843249e-07 0 1.7756488673e-07 7.8964981757e-08 0 1.3387170073e-07 6.4856992324e-08 0 8.7048426081e-08 
5.1906505253e-08 0 4.4563289746e-08 3.9014926102e-08 0 1.6857575446e-08 2.6073527193e-08 0 -2.4470020335e-09 
1.405650823e-08 0 -1.2127906665e-08 4.5092625783e-09 0 -9.3653422683e-09 0.00018912271339 0 0.00014160329782 
0.00018912271339 0 0.00018092363834 0.00018912271339 0 0.00019053089441 0.00018912271339 0 0.00019251164163 
0.00018912271339 0 0.00019302446354 0.00018912271339 0 0.00019296360674 0.00018912271339 0 8.9689456061e-05 
0.00018912271339 0 0.00015810070892 0.00018912271339 0 0.00018776991739 0.00018912271339 0 0.00019154458619 
0.00018912271339 0 0.00019302646227 0.00018912271339 0 0.00019299459253 0.00018912271339 0 0.00019295682779 
0.00018912271339 1.5401945112e-08 0.00019295636728 0.00018912271339 1.231478124e-08 0.00019293560315 0.00018912271339 1.7851539652e-08 0.00019295376811 
0.00018912271339 1.8238779878e-08 0.00019295348224 0.00018912271339 4.2919738049e-08 0.00019291854509 0.00018912271339 2.9694661243e-08 0.00019289474183 
0.00018912271339 3.7373766405e-09 0.00019296938221 0.00018912271339 2.3547806409e-08 0.00019293602066 0.00018912271339 1.5787457009e-08 0.00019295752383 
0.00018912271339 1.6554690718e-08 0.0001929444911 0.00018912271339 3.5256850022e-08 0.00019295515818 0.00018912271339 2.7431004134e-08 0.00019290886349 
0.00018912271339 1.1803581056e-08 0.000192891283 0.00018912271339 0 0.00013497723795 0.00018912271339 0 0.00017661059835 
0.00018912271339 0 0.0001888103585 0.00018912271339 0 0.0001924781665 0.00018912271339 0 0.00019291484022 
0.00018912271339 0 0.00019286234057 0.00018912271339 0 8.5296773056e-05 0.00018912271339 0 0.00015682271536 
0.00018912271339 0 0.00018473738383 0.00018912271339 0 0.00019200037407 0.00018912271339 0 0.00019287064165 
0.00018912271339 0 0.00019289026318 0.00018912271339 0 0.00019287084201 0 0 0 
0 0 0 0 0 0 0 0 0 
0 0 0 0 0 0 0 0 0 
0 0 0 0 0 0 0 0 0 
0 0 0 0 0 0 0 0 0 
0 0 0 0 0 0 0 0 0 
0 0 0 0 0 0 0 0 0 
0 0 0 0 0 0 0 0 0 
0 0 0 0 0 0 0 0 0 
0 0 0 0 0 0 0 0 0 
0 0 0 0 0 0 0 0 0 
0 0 0 0 0 0 0 0 0 
0 0 0 0 0 0 0 0 0 
0 0 0 0 0 0 0.0001890382328 0 0.00019300191622 
0.00018903071637 0 0.00019317519813 0.00018897066173 0 0.00019297653232 0.00018716504373 0 0.00019088500843 
0.00017770019977 0 0.00017835860516 0.00015026855837 0 0.00015010030429 0.00010149167666 0 0.00010207099659 
5.4457150037e-05 0 5.4659534812e-05 2.1809605651e-05 0 2.1792832672e-05 5.5542628568e-06 0 5.628868701e-06 
4.7642873849e-07 0 5.0694626114e-07 2.3765123747e-07 0 2.1994187362e-07 1.5408769997e-07 0 1.7483365221e-07 
0.00018908697971 0 0.00019298018698 0.00018904974325 0 0.00019310544943 0.00018908059953 0 0.00019311903634 
0.00018851355634 0 0.00019243561234 0.00018417423813 0 0.00018630527138 0.00016681067544 0 0.0001661563861 
0.00012668217382 0 0.00012654778932 7.6280240254e-05 0 7.6407993719e-05 3.6173412278e-05 0 3.6250098564e-05 
1.1961794744e-05 0 1.1919727887e-05 2.3120260202e-06 0 2.5431357661e-06 3.3610693436e-07 0 3.10919852e-07 
1.8696055262e-07 0 1.9230890307e-07 7.8110919723e-08 0 2.0037278595e-07 0.00018904698274 0 0.00019290399952 
0.00018899562935 0 0.0001929203669 0.00018911637146 0 0.00019279956608 0.0001879606992 0 0.00019174052127 
0.00017851071203 0 0.0001777568072 0.00014761007199 0 0.00014891680707 0.00010113947902 0 0.00010171867183 
5.3115726597e-05 0 5.2750037504e-05 2.1669353323e-05 0 2.0968549738e-05 5.3819293047e-06 0 5.2170209922e-06 
1.310713821e-06 0 1.2284583426e-06 1.8925435239e-07 0 8.8540102605e-08 9.5696052004e-08 0 1.4334573248e-07 
0.0001890843033 0 0.00019290799359 0.00018904465586 0 0.00019295273172 0.00018904458126 0 0.00019300969165 
0.00018849661629 0 0.00019263429951 0.00018473434764 0 0.00018708917248 0.00016657905645 0 0.00016447296537 
0.0001230925829 0 0.00012438468244 7.7186277558e-05 0 7.7087557109e-05 3.5099422422e-05 0 3.5223954792e-05 
1.1727635693e-05 0 1.1980761497e-05 2.9015666169e-06 0 2.9334190328e-06 5.2076524278e-07 0 5.9725554212e-07 
1.2778369394e-07 0 1.5202891797e-07 5.2523929332e-08 0 1.6045830187e-07 0 0 0 
0 0 0 0 0 0 0 0 0 
0 0 0 0 0 0 0 0 0 
0 0 0 0 0 0 0 0 0 
0 0 0 0 0 0 0 0 0 
0 0 0 0 0 0 0 0 0 
0 0 0 0 0 0 0 0 0 
0 0 0 0 0 0 0 0 0 
0 0 0 0 0 0 0 0 0 
0 0 0 0 0 0 0 0 0 
0 0 0 0 0 0 0 0 0 
0 0 0 0 0 0 0 0 0 
0 0 0 0 0 0 0 0 0 
0 0 0 0 0 0 0 0 0 
0 0 0 0 0 0 0 0 0 
0 0 0 0 0 0 0 0 0 
0 0 0 0 0 0 0 0 0 
0 0 0 0 0 0 0 0 0 
0 0 0 0 0 0 0 0 0 
0 0 0 0 0 0 0 0 0 
0 0 0 0 0 0 0 0 0 
0 0 0 0 0 0 0 0 0 
0 0 0 0 0 0 0 0 0 
0 0 0 0 0 0 0 0 0 
0 0 0 0 0 0 0 0 0 
0 0 0 0 0 0 0 0 0 
0 0 0 0 0 0 0 0 0 
0 0 0 0 0 0 0 0 0 
0 0 0 0 0 0 0 0 0 
0 0 0 0 0 0 0 0 0 
0 0 0 0 0 0 0 0 0 
0 0 0 0 0 0 0 0 0 
0 0 0 0 0 0 0 0 0 
0 0 0 0 0 0 0 0 0 
0 0 0 0 0 0 0 0 0 
0 0 0 0 0 0 0 0 0 
0 0 0 0 0 0 0 0 0 
0 0 0 0 0 0 0 0 0 
0 0 0 0 0 0 0 0 0 
0 0 0 0 0 0 0 0 0 
0 0 0 0 0 0 0 0 0 
0 0 0 0 0 0 0 0 0 
0 0 0 0 0 0 0 0 0 
0 0 0 0 0 0 0 0 0 
0 0 0 0 0 0 0 0 0 
0 0 0 0 0 0 0 0 0 
0 0 0 0 0 0 0 0 0 
0 0 0 0 0 0 0 0 0 
0 0 0 0 0 0 0 0 0 
0 0 0 0 0 0 0 0 0 
0 0 0 0 0 0 0 0 0 
0 0 0 0 0 0 0 0 0 
0 0 0 0 0 0 0 0 0 
0 0 0 0 0 0 0 0 0 
0 0 0 0 0 0 0 0 0 
0 0 0 0 0 0 0 0 0 
0 0 0 0 0 0 0 0 0 
0 0 0 0 0 0 0 0 0 
0 0 0 0 0 0 0 0 0 
0 0 0 0 0 0 0 0 0 
0 0 0 0 0 0 0 0 0 
0 0 0 0 0 0 0 0 0 
0 0 0 0 0 0 0 0 0 
0 0 0 0 0 0 0 0 0 
0 0 0 0 0 0 0 0 0 
0 0 0 0 0 0 0 0 0 
0 0 0 0 0 0 0 0 0 
0 0 0 0 0 0 0 0 0 
0 0 0 0 0 0 0 0 0 
0 0 0 0 0 0 0 0 0 
0 0 0 0 0 0 0 0 0 
0 0 0 0 0 0 0 0 0 
0 0 0 0 0 0 0 0 0 
0 0 0 0 0 0 0 0 0 
0 0 0 -1.7480861478e-08 6.6449436374e-08 -1.2603873553e-07 -5.9370648135e-10 1.6571551511e-08 -5.5448989988e-08 
4.1419956518e-07 -1.283966332e-07 -3.3879382696e-07 1.586763419e-08 2.8547410843e-08 -2.7092908833e-08 -4.5569543241e-08 2.9781795005e-08 -2.0031574338e-08 
1.020999908e-08 2.5824520943e-08 -3.445056612e-08 -7.8340849649e-08 2.0351912172e-08 -1.0846787662e-07 1.014376845e-08 2.9912687365e-08 -5.0173051337e-08 
-4.6363637202e-07 1.0879479273e-07 3.1059590881e-07 5.3650558927e-09 8.0360844788e-09 -3.1588919615e-08 -1.8575825575e-06 -2.0702141749e-06 1.054842299e-06 
1.415148616e-08 1.4903279179e-08 -1.1519502458e-08 -1.5728643666e-07 6.3364877463e-09 -7.4823597201e-08 -2.3667525416e-08 1.0901872302e-08 -8.3890031118e-08 
7.6405249995e-09 1.4044124286e-08 -2.114320582e-08 1.5359689444e-08 1.7651232666e-08 -2.6012874883e-08 5.1950887872e-08 4.7016911049e-07 -4.6504721547e-07 
1.1169012726e-08 1.9853425087e-08 -1.4656336792e-08 -2.1162903486e-07 3.7966058595e-08 9.3493399508e-08 -7.9097672236e-07 -1.5342198862e-07 2.7731242081e-07 
-2.3714154375e-08 -1.0077987906e-08 -7.4639134821e-08 -2.1495606583e-09 3.7035597004e-08 -8.3335102265e-08 -8.0654109776e-08 1.9228363962e-08 -1.862810575e-07 
1.0255246616e-08 5.2828627043e-08 -6.8495806787e-08 -3.1191148463e-08 9.7613940586e-08 -7.2027551466e-08 -2.8987500402e-08 2.2706032486e-08 -1.1709194706e-07 
1.0340105514e-08 3.9546733427e-08 -5.5710860711e-08 -2.2224555188e-07 1.4007975532e-07 -1.8769178666e-07 -3.7128870093e-10 5.3761591621e-08 -7.1265278491e-08 
7.5586809009e-09 1.3503785121e-08 -1.0502736014e-08 1.950836706e-09 9.9993234557e-09 -4.5305197552e-08 -8.2274545074e-08 1.707502725e-08 -1.1628567576e-07 
3.324481173e-06 -3.9104569433e-06 2.4636441211e-06 6.2762080782e-09 2.3393250377e-08 -4.7276447622e-08 -1.4116371567e-07 -2.2231544581e-08 -9.2363083365e-08 
1.3818907149e-08 3.3740944222e-08 -4.0817149412e-08 -1.6210451969e-07 1.3255257815e-07 -1.1149986615e-07 1.6208538223e-08 1.1265850168e-08 -1.4818896764e-08 
5.7346597517e-09 7.4063322625e-09 -1.4045411657e-08 -1.1813934255e-09 6.0967820128e-09 -5.058628566e-08 1.6908588272e-05 -1.9244954899e-06 -6.0209738676e-06 
9.4929790047e-09 1.2704848301e-08 -6.3155108699e-09 -5.3956805878e-07 5.9296613031e-08 4.567336721e-07 -7.5538729321e-08 -5.0885812259e-08 -1.2002744731e-07 
2.6023865265e-07 1.5290995263e-07 -7.4059684739e-08 5.6893799068e-09 3.001934356e-09 -1.4976321386e-08 1.0014415122e-08 6.3144582698e-09 -4.6636504064e-09 
1.5314178598e-05 4.6106434796e-08 -2.1502516005e-06 -5.5285084665e-08 9.5465083014e-08 1.976441842e-07 6.7144909284e-05 -3.7633955544e-06 -7.5909447932e-06 
6.6838290864e-05 2.5784696212e-06 -2.5807249827e-06 1.2158923093e-05 3.0420242605e-07 -2.9412708214e-06 3.9512472068e-09 1.9533504734e-09 -5.721243559e-09 
3.8648877174e-09 7.9364962483e-10 -5.9128429024e-09 5.8284644086e-09 1.668719771e-09 -1.8430285557e-08 5.0050397565e-05 -9.0152924311e-07 -2.7207547021e-06 
2.2384385548e-07 -3.9625395855e-07 -1.1552744365e-06 5.1417718675e-05 -2.3844822508e-06 7.9220566336e-07 5.6882312459e-09 1.7548722345e-09 -2.0142666167e-09 
5.4838951124e-09 4.0789114853e-09 -2.0725743567e-09 1.1194873873e-08 3.5776516153e-09 -5.426774655e-09 3.7910695632e-09 4.2639221281e-09 -5.4355021416e-09 
3.7615104542e-09 2.9989971356e-09 -5.4169564981e-09 5.6911828064e-09 5.2785630014e-09 -1.4377136649e-08 5.3895601052e-09 8.4786777899e-09 -7.6228453413e-09 
4.9879142727e-09 6.8611302526e-09 -7.8516697534e-09 6.598820099e-09 1.0474508016e-08 -1.7592212536e-08 4.4492306481e-09 7.4604580728e-09 -3.9343508359e-09 
4.1984854775e-09 6.8947101162e-09 -4.2927036607e-09 7.810322232e-09 1.4396348967e-08 -1.5569109317e-08 6.9218199998e-09 1.0901600207e-08 -5.0152513141e-09 
6.6499498279e-09 1.1388690439e-08 -5.8932873531e-09 9.413146354e-09 1.7234404792e-08 -1.3117915019e-08 5.2633725724e-09 5.6967844295e-09 -2.4366378511e-09 
5.2529224374e-09 7.2756051503e-09 -2.6479412516e-09 1.0554355707e-08 1.6498778315e-08 -9.9634357467e-09 9.565330671e-09 9.8526263719e-09 -5.6004881253e-09 
1.6316479918e-08 5.7658303525e-09 -1.4597540172e-08 1.4680364613e-08 4.7158974195e-09 -9.7989717539e-09 1.409976709e-08 8.9372666372e-09 -9.4265678218e-09 
1.2970515299e-08 9.7295833215e-09 -2.8444804355e-08 1.6244417618e-08 8.3307721136e-09 -1.9472022646e-08 1.6385911419e-08 1.4513263741e-08 -1.997499442e-08 
-8.8489381569e-09 -4.109055602e-10 -4.9640199883e-08 8.3235632732e-09 6.3267960147e-09 -3.6536129963e-08 1.1563278369e-08 1.5918612029e-08 -3.3340508049e-08 
-6.8771767557e-08 -1.2502932065e-08 -1.0751902771e-07 -3.0122284548e-08 -8.3977280133e-09 -7.4017091332e-08 -1.2979241113e-08 5.9003175534e-09 -5.9420729957e-08 
-1.4086892248e-07 1.3295758692e-07 1.0666617356e-07 -1.8688063911e-07 -8.8750320397e-08 -1.7318058898e-07 -3.5519519983e-08 -2.5546008689e-08 -9.7576250854e-08 
-3.4647634131e-07 3.7913450905e-08 -1.134251123e-07 7.3470921909e-05 4.8438945912e-06 -1.3617557102e-05 7.4131278085e-05 -2.4362519723e-06 -3.5106416791e-06 
1.9030047033e-05 1.5228727877e-06 -1.0652794416e-05 5.0952387294e-05 1.1979801086e-06 6.6402587561e-06 5.6332571261e-05 7.1636691465e-06 -2.6237215772e-06 
4.4383084353e-06 1.0803527149e-06 -1.1839988342e-06 5.7723097186e-05 5.7716673707e-06 4.9066973486e-06 7.4447684975e-05 3.7783465423e-06 -1.5042362351e-05 
-1.3670511036e-06 -1.6125632131e-06 -3.1587331797e-07 5.5717357216e-05 1.2145940222e-05 -8.2908271165e-06 4.6879968268e-05 2.3850130035e-06 3.6279387506e-06 
2.3792291831e-06 -9.2440864213e-07 6.2332962507e-07 4.9331794482e-05 1.5689677744e-06 2.8625710184e-06 4.52958668e-05 -5.320740756e-07 7.2456843893e-06 
-1.6653133139e-07 1.8851587789e-08 -1.3487957481e-07 -1.9943932722e-07 -4.5189977613e-08 1.1912746693e-07 3.561588327e-09 2.6142820172e-09 -3.5364187703e-08 
-3.3196295761e-09 3.0063499869e-09 -5.5584002436e-08 4.6264364914e-09 4.6386431237e-09 -3.1104497259e-08 -1.2715817742e-08 4.7439323267e-09 -7.2431183264e-08 
-3.2618667663e-08 4.9502023885e-09 -9.4723448882e-08 -9.453576763e-09 8.4614358386e-09 -6.6539261258e-08 -5.9501979049e-08 5.6728894148e-09 -1.0966308091e-07 
-1.1798835059e-07 1.0898056921e-08 -1.2867698984e-07 -4.5100333614e-08 1.0477466395e-08 -1.0100707932e-07 -1.7647002892e-07 1.4643778456e-08 -8.5382130929e-08 
-3.1827465032e-07 8.534524022e-08 -1.8728751112e-08 -1.3807463399e-07 1.4271156748e-08 -4.759686008e-08 -2.0722587659e-07 3.4528161336e-08 -1.9087499292e-07 
-3.6594477936e-07 -5.1717790043e-07 -4.7513059696e-07 -3.0616268177e-07 -2.6739079302e-08 2.6683720754e-07 1.1516492548e-06 -3.9778173083e-07 -5.4211103253e-07 
-2.9985377558e-08 4.4411177052e-08 -1.3230634807e-07 -1.3057691929e-08 3.1931931066e-08 -1.0218649629e-07 -1.0939975263e-08 5.0895937996e-08 -1.0625043432e-07 
5.7264495061e-09 4.0381009064e-08 -6.9515644048e-08 1.6673935541e-09 5.2802020967e-08 -8.589409969e-08 -5.151003065e-08 2.4643890623e-08 -1.5249689839e-07 
-5.0355270736e-08 4.4942044009e-08 -1.6261840497e-07 -6.9503719653e-08 8.0719883944e-08 -1.6262035594e-07 -7.7412746803e-08 8.422824605e-08 -2.032013926e-07 
9.6545112376e-09 4.6574966236e-08 -6.3706743378e-08 2.2673259164e-09 6.3240732838e-08 -9.3195620485e-08 5.7481949986e-09 5.7172496991e-08 -7.4176888774e-08 
-2.859400708e-09 7.0547760905e-08 -9.9276179036e-08 -1.2586840789e-07 1.3734136079e-07 -1.9208668297e-07 -3.280150878e-08 8.1561226654e-08 -1.1855470426e-07 
-7.490861953e-09 6.5919102405e-08 -7.7500723647e-08 6.0478375e-09 8.2158688824e-09 -2.2079823771e-08 5.7878927242e-09 1.2337460881e-08 -3.2622301231e-08 
3.2529132679e-09 1.1927416152e-08 -4.2743190774e-08 -2.914077546e-10 1.0612494773e-08 -5.3237518008e-08 2.714619638e-09 7.2643529491e-09 -4.0846592629e-08 
-1.0537360353e-08 2.08563977e-08 -8.4221803528e-08 -2.83046093e-08 1.5448842934e-08 -9.6128787825e-08 -9.993472253e-09 1.3249806333e-08 -7.0613985416e-08 
7.6584873564e-09 1.8727161517e-08 -3.3270637897e-08 2.8137348014e-09 2.0042123677e-08 -5.2726115677e-08 5.7983905667e-09 1.6193544066e-08 -3.7328200492e-08 
-2.3689195025e-09 2.5143890571e-08 -7.1382786859e-08 2.6759821153e-09 2.9550668217e-08 -6.4494711111e-08 -1.4060476712e-06 -2.7069501582e-07 -2.1997414195e-06 
7.0792850336e-06 -2.6662632428e-06 -2.356657011e-06 -8.1634409921e-07 -7.7218689575e-07 2.003742085e-07 -1.9583943371e-06 -7.5218710582e-07 7.4074532141e-07 
-4.5748735454e-07 -1.5589892827e-07 3.4079049229e-07 -1.5717946133e-07 1.4157699416e-07 -3.5486380234e-07 -1.4591441608e-07 2.6510985469e-07 -2.3148962483e-07 
-4.4098795276e-07 4.5671867283e-07 -7.1508889155e-07 -1.7806635857e-07 -1.1431192541e-08 2.4616809669e-09 -5.4140892954e-08 -6.9519490706e-08 -1.9373650445e-07 
-2.6298750945e-07 -1.2263041958e-07 6.0951921982e-08 -9.924527456e-09 2.2511276642e-08 -2.6205060241e-07 -7.2681648143e-08 9.1734799076e-09 -1.5288874805e-07 
1.5413791707e-08 1.3575733752e-08 -1.3085731742e-08 1.6378157795e-08 2.0245957935e-08 -1.9588076846e-08 1.5175227231e-08 2.1422310946e-08 -1.8037881046e-08 
1.3759638259e-08 2.0788504965e-08 -1.560067496e-08 1.2013690928e-08 1.4591183916e-08 -9.0540052782e-09 1.4694773359e-08 2.5843988754e-08 -3.2125452446e-08 
1.5686342122e-08 3.1201027877e-08 -3.4226536243e-08 1.6316562414e-08 2.5094406063e-08 -2.66299099e-08 1.425620604e-08 3.5602054616e-08 -3.9570830597e-08 
1.2705815727e-08 2.9954049466e-08 -3.1652808707e-08 1.387981825e-08 2.5546565267e-08 -2.1804436144e-08 1.3862416331e-08 3.8658035937e-08 -4.4498009808e-08 
1.2653309676e-08 4.3486584889e-08 -5.1975169007e-08 -6.1578434783e-08 -2.218697189e-08 -5.2641381021e-08 -1.4771271192e-07 -1.9097352896e-08 -9.0600205225e-08 
-6.5924479169e-08 -1.4674388818e-08 -3.1327066698e-08 -3.9418688929e-08 8.1444016508e-08 -5.1784688881e-08 5.2052842453e-10 2.1002343919e-09 -3.5380104404e-08 
-1.5081219168e-07 1.0568023846e-07 5.6180339904e-08 -6.8774995204e-08 7.5053468438e-08 -2.5034260448e-08 -1.438582769e-07 -6.1302116361e-08 7.4071006401e-08 
-1.8234885368e-08 5.0873292869e-08 -6.1190136604e-08 -8.6052509492e-09 3.1987200532e-08 -6.1643012983e-08 -3.181183277e-08 -1.0393381937e-09 -4.8523529501e-08 
-3.9420633576e-08 8.5240021202e-08 -6.530275264e-08 -1.030660096e-07 1.2133274467e-07 -9.4477547612e-08 9.7846061531e-09 1.990412392e-08 -2.1271101041e-08 
8.7548118323e-09 1.97577665e-08 -2.8086382041e-08 8.7256520637e-09 2.5255464684e-08 -4.0818392781e-08 1.054037901e-08 3.287640273e-08 -4.5814836316e-08 
1.1368176851e-08 2.384541814e-08 -2.3251119773e-08 6.7965884833e-09 3.2297299378e-08 -5.5958532339e-08 -4.7090755935e-08 1.790447984e-08 -1.1603100247e-07 
-4.0650274487e-08 1.3921901504e-08 -9.88985936e-08 -8.4691286854e-08 1.7924387083e-08 -1.0905962493e-07 -1.3470468104e-07 -5.5492614495e-09 -5.6735002913e-08 
-1.1325853984e-07 -3.0732567706e-09 -1.0048430454e-07 -8.384842821e-08 1.6754946616e-08 -1.2549914398e-07 5.4976550871e-09 1.9532801676e-08 -4.6699084328e-08 
1.3240796735e-08 2.5258582592e-08 -3.7031515927e-08 1.2295026155e-08 3.467619752e-08 -4.6286828458e-08 5.5676870124e-09 4.3503697153e-08 -5.6942222865e-08 
-4.9375215737e-09 1.9043264467e-08 -6.3876028639e-08 1.1417719171e-08 4.5490874865e-08 -5.7221382018e-08 -2.8109551035e-07 2.6910707174e-07 -1.83999002e-07 
-2.0274389168e-07 4.3934959022e-07 -2.3529400853e-07 -1.6146075243e-06 -4.393681336e-07 8.5593998285e-07 -9.3619138331e-07 -4.6986769057e-08 -5.1702703585e-07 
-1.9245753957e-07 1.3610009222e-07 -9.2914122926e-08 -2.2971579931e-07 1.1104018265e-07 2.1290773558e-08 5.8553156222e-09 5.2498473702e-09 -2.2765768169e-08 
5.9616211773e-06 -4.6082197001e-07 -4.6682782158e-07 1.2307901389e-08 1.0302755015e-08 -7.6926934077e-09 -1.4994027236e-07 1.3174366597e-08 3.6503201376e-08 
-8.9819439992e-08 0 -2.1811820213e-08 -3.0771919058e-08 0 8.8994238227e-09 -4.5325141307e-08 0 -5.1616602753e-08 
2.2126406377e-08 0 7.0014637589e-08 -1.3904856478e-07 0 -2.5644138835e-07 -2.2176827959e-08 0 3.8226967561e-08 
-4.65233464e-08 0 -1.4573195008e-08 6.54842656e-08 0 6.0905059629e-08 -8.209682656e-08 0 -1.460952558e-07 
-1.4236237431e-08 0 3.0793945085e-09 -1.9849418448e-08 0 -3.2515884586e-08 3.8069953691e-08 0 4.7869781515e-08 
-9.3716272177e-07 0 2.4041965887e-07 -2.7935224552e-08 0 -2.0357635055e-09 -1.3613656969e-08 0 1.7066061524e-08 
1.2448560066e-07 0 6.79344499e-08 -4.4526209071e-08 0 -8.6666325575e-08 -1.4809380981e-09 0 4.6107244572e-08 
-3.049688057e-08 0 -1.6835419254e-08 -9.8826998009e-08 0 -2.1564248844e-07 2.8150970857e-07 0 -4.3583977035e-08 
-5.3139660392e-08 0 1.7699582965e-08 -7.3512464052e-08 0 -4.198436183e-08 -4.3453960103e-08 0 3.6966759853e-08 
-1.2975592667e-07 0 -1.2239669834e-07 -5.7762688956e-08 0 -6.0080029066e-09 -3.5789970908e-08 0 4.6063069122e-08 
-8.5208306635e-08 0 -9.8150052543e-08 -8.9300949736e-08 0 -3.0286955049e-08 -6.0163199458e-09 0 2.4931113222e-08 
-2.4399196544e-08 0 -5.8306033505e-09 2.4284890181e-07 0 5.5381800256e-08 -7.7464840713e-08 0 -1.1959705664e-07 
-3.110506257e-08 0 2.2720046289e-08 -5.1623495511e-08 0 -3.2499020648e-08 3.6118179172e-08 0 7.3723925753e-08 
-1.3761299081e-07 0 -1.9874207928e-07 8.7916185465e-08 0 4.5703431982e-08 -7.936793269e-09 0 5.7547702065e-09 
-1.4171320591e-08 0 -9.5408215457e-11 -1.8150734617e-08 0 -5.2051028763e-08 1.0494095744e-08 0 3.7587184384e-08 
-1.6997693686e-08 0 -1.418551627e-08 4.0782507781e-07 0 -9.2150381352e-08 7.3409988261e-08 0 -2.2337397026e-07 
-5.0555063011e-09 0 -4.1187081388e-10 2.608305954e-08 0 1.7214057819e-08 -4.9046910078e-09 0 -1.5899911931e-08 
6.386700101e-06 0 -4.4622984771e-07 8.776778198e-09 0 1.1312927238e-08 9.7452819356e-09 0 -9.5732352161e-10 
3.5412349787e-08 0 6.7730326272e-09 -1.5997389512e-09 0 -7.7503224522e-10 -2.1246064824e-09 0 -1.6638014718e-10 
-3.4515245033e-09 0 -7.2530292802e-10 2.9909382581e-05 0 -1.4131177709e-05 6.7357789537e-05 0 -1.0866708392e-05 
5.069124588e-06 0 -6.2417312371e-06 8.6847503744e-10 0 -6.146923071e-09 -3.0900132266e-09 0 -6.2381467562e-09 
-1.2893265609e-10 0 -1.90263483e-08 -2.6924220946e-09 0 1.3427447204e-09 -3.0303757619e-09 0 3.9011833182e-09 
-6.5780092568e-09 0 2.245649309e-09 -4.6931004175e-09 0 7.810881685e-09 -4.6914137979e-09 0 1.2418021061e-08 
-1.0749293842e-08 0 1.0718345457e-08 -2.4150154571e-09 0 1.2360969305e-08 -1.6038594093e-09 0 1.5890344024e-08 
-9.9601760275e-09 0 2.2090971458e-08 -9.8512150874e-10 0 2.6631187599e-08 1.6740389407e-09 0 2.9000988584e-08 
-5.3805713018e-09 0 3.5651316589e-08 3.7258001317e-09 0 2.1382779905e-08 5.1453180676e-09 0 1.7548339531e-08 
5.1110304171e-09 0 4.379473321e-08 1.6775271923e-08 0 3.0727829283e-08 -8.4122043386e-09 0 -7.4521088971e-10 
-5.6760357395e-09 0 -6.4545321091e-10 -9.4007753945e-09 0 -1.0434582293e-11 -1.6897878143e-08 0 -2.2282392962e-09 
-1.4017298587e-08 0 -1.425279306e-09 -2.0665752869e-08 0 -6.3012769923e-10 -1.3051073528e-08 0 -3.114295985e-09 
-1.2571734046e-08 0 -2.4153212573e-09 -2.7577405818e-08 0 -4.5780198466e-09 -1.5180206427e-08 0 -7.191196651e-09 
-1.7469865841e-08 0 -6.3788649883e-09 -2.8488911644e-08 0 -1.0743767215e-08 -6.3796934271e-09 0 -5.7988791404e-09 
-9.6331763484e-09 0 -5.5730896243e-09 -2.3766974272e-08 0 -1.5842746386e-08 -1.1427731889e-08 0 -1.5001883137e-08 
6.7968511313e-08 0 1.7560884111e-08 1.0654600776e-07 0 3.0410823767e-08 5.4015188965e-08 0 3.0440591933e-08 
1.4013816596e-07 0 4.4492486515e-08 1.8495566262e-07 0 5.6903164363e-08 1.0949693794e-07 0 5.9303978065e-08 
2.5908856468e-07 0 4.0655573095e-08 3.1632071015e-07 0 3.4095307291e-08 1.7635762453e-07 0 7.3562588153e-08 
3.0345834556e-07 0 -1.9173038629e-08 2.8275452126e-07 0 3.2895247931e-08 2.4889580561e-07 0 3.4400952108e-08 
3.0122484678e-07 0 -5.6874382284e-07 1.5795265372e-05 0 -1.2528051665e-05 2.5024842613e-07 0 1.4337743746e-07 
2.8141076531e-06 0 -6.2298898424e-07 -1.2391820385e-08 0 -5.5860701012e-08 -4.2229852444e-09 0 -3.6378520726e-08 
-1.0013413693e-08 0 -3.2435058511e-08 -4.1777669361e-08 0 -9.5122471406e-08 -2.5589318445e-08 0 -7.2902122146e-08 
-2.985553597e-08 0 -6.880244923e-08 -1.0943283003e-07 0 -1.1764444074e-07 -6.5909676375e-08 0 -1.0886036526e-07 
-5.4475329316e-08 0 -1.0589126471e-07 -9.2148029141e-08 0 -1.4794811326e-07 -1.1946461162e-07 0 -1.1263627563e-07 
-7.6256051797e-08 0 -1.5122902804e-07 -1.9821323461e-07 0 1.1022521437e-06 -1.6179919134e-07 0 -2.3155927323e-07 
-7.3547745384e-08 0 -2.3165530692e-07 -1.2005398262e-06 0 -3.0804212531e-08 -7.0595007983e-08 0 4.4814592537e-09 
-5.7969342874e-08 0 4.2786339771e-09 -7.369023101e-08 0 -1.2470774502e-08 -6.3707737794e-08 0 1.9961510829e-08 
-4.8103187074e-08 0 3.0947608091e-08 -8.6454863797e-08 0 -3.7906787927e-08 -6.7311216676e-08 0 -2.1655845441e-08 
-8.1899420894e-08 0 -6.5302634867e-08 -9.8095087439e-08 0 -6.6717221848e-08 -7.767189371e-08 0 6.8096089973e-09 
-4.0704750462e-08 0 4.4232869792e-08 -9.9892978502e-08 0 -2.9505971986e-08 -6.3080879409e-08 0 1.6112434954e-08 
-1.1061405131e-07 0 -6.4384317303e-08 -1.0935178385e-07 0 -1.1358617356e-07 -1.2648539732e-07 0 -8.9145693679e-08 
-2.1831895632e-08 0 6.1745926035e-09 -1.8202043247e-08 0 9.3019112305e-09 -1.1150921905e-08 0 4.9493285719e-09 
-1.5153935552e-08 0 1.303028717e-09 -2.3425380775e-08 0 2.9379723326e-09 -3.181258746e-08 0 1.8556415637e-09 
-4.3025501803e-08 0 -3.5158055431e-09 -4.4566012151e-08 0 4.6967813894e-09 -2.2776877535e-08 0 1.4611013054e-08 
-3.1788117974e-08 0 1.5304473503e-08 -2.1894575888e-08 0 2.107065443e-08 -4.2487820343e-08 0 1.4029475995e-08 
-4.1817091666e-08 0 2.2315968942e-08 -3.2031759732e-08 0 -4.2519865239e-08 -1.9177234836e-08 0 -4.2275768863e-08 
-3.1392661396e-08 0 -5.4712572188e-08 -3.0602969791e-08 0 -3.1060103756e-08 -1.9398888675e-08 0 -2.2400053629e-08 
-4.447589049e-08 0 -7.1668457229e-08 -6.4779266231e-08 0 -1.0033256072e-07 -6.3572167422e-08 0 -7.4050126718e-08 
-3.9256382392e-08 0 -3.1750967803e-08 -4.9917150812e-08 0 -4.2354553823e-08 -4.1261521874e-08 0 -2.4914055854e-08 
-6.2207699347e-08 0 -5.2519450753e-08 -6.2638710668e-08 0 -3.8418813711e-08 3.6285175538e-08 0 6.3086669615e-08 
5.9534495712e-08 0 6.5826988863e-08 6.1023334538e-08 0 4.7814156627e-08 2.0805053392e-08 0 4.464049435e-08 
1.8557624659e-08 0 5.7802164144e-08 6.2401123966e-08 0 7.4348435523e-08 2.8990397552e-08 0 7.5007173961e-08 
8.4512074063e-08 0 7.7092537827e-08 5.9629951711e-09 0 6.0514445848e-08 -1.3917914444e-08 0 5.3860332872e-08 
-9.9386424807e-09 0 6.1512182616e-08 -3.6219202325e-09 0 6.558401202e-08 -7.8931008562e-09 0 5.9656257225e-08 
-5.2752351701e-07 0 -3.2134885388e-07 6.721446773e-08 0 4.7358478132e-07 -1.318234092e-07 0 1.6680140285e-09 
-3.2621090028e-08 0 -2.7265460942e-07 -8.8880087823e-07 0 -7.514180816e-08 -1.2672900012e-07 0 -2.5201109854e-07 
-1.4514916966e-07 0 -2.2416687663e-07 -1.2340964857e-07 0 -2.1120193548e-07 3.4507755914e-08 0 -1.3576389204e-07 
5.320266406e-10 0 -2.0718037645e-08 -1.2356476226e-07 0 -1.2357782896e-07 -1.4955633361e-07 0 -1.7033964253e-07 
-1.4117161031e-07 0 -1.6445517534e-07 -1.8663791006e-08 0 2.7132001132e-08 -1.3007230889e-08 0 3.3899807511e-08 
-2.7494240622e-08 0 3.0324949862e-08 -1.1336372651e-08 0 4.4749745166e-08 -2.9084638491e-08 0 4.3457600292e-08 
-3.785944154e-08 0 3.1224749097e-08 -3.7793821926e-08 0 -6.4348000796e-09 -5.3615505169e-08 0 -1.2254122878e-08 
-3.5736544854e-08 0 -1.0222508324e-08 -4.0170880326e-08 0 -1.7770801749e-08 -5.0020738706e-08 0 -2.2780348603e-08 
-5.9790461808e-08 0 -2.5895039206e-08 1.0956374106e-07 0 7.9682000037e-08 1.5600612273e-07 0 6.3560945321e-08 
5.0139419556e-08 0 7.0967764119e-08 1.459801068e-07 0 4.7660468837e-08 -1.9423698911e-08 0 2.8149244127e-08 
-8.6595113344e-09 0 5.0264733411e-08 -6.2257478992e-08 0 -1.1590209901e-07 -8.5394046407e-08 0 -1.2517240529e-07 
-7.9341123784e-08 0 -1.3727042459e-07 -9.6692351432e-08 0 -1.7041730866e-07 -1.0983444741e-07 0 -1.7486663519e-07 
-1.1303173427e-07 0 -1.5347507729e-07 -9.0405566092e-09 0 9.4490402492e-10 -1.1514796436e-08 0 -2.3823091577e-08 
3.3838261136e-08 0 3.2399569881e-08 1.0170846757e-06 0 1.8886376944e-07 -3.9141161045e-08 0 3.467898944e-08 
-1.5348448644e-08 0 1.3693589642e-08 -2.376743332e-08 0 -6.9582306146e-09 -1.8516379594e-09 0 5.1530332993e-08 
-9.2824796037e-08 0 2.4668906561e-08 -2.4588923127e-08 0 4.7292435514e-09 -1.1032571316e-08 0 3.1966906512e-08 
-4.5505026148e-08 0 -1.5941091467e-08 -1.0768401252e-08 0 7.1440534621e-08 -6.9611689294e-09 0 4.7994697216e-09 
-7.3628240059e-09 0 -8.2255767861e-09 4.7678371343e-09 0 3.256790144e-08 -1.7949170119e-07 0 9.4435796286e-08 
-6.733466157e-09 0 1.4851358423e-08 -1.420392102e-08 0 3.6418525839e-09 -1.4880695487e-08 0 -2.1145036715e-08 
8.0640329766e-09 0 5.5189841462e-08 -2.594288087e-09 0 3.0477088186e-08 -1.6754787688e-08 0 -1.6537313935e-09 
-7.2979212854e-08 0 -2.4725302624e-08 -2.9047142774e-08 0 6.9831100737e-08 -2.5385702461e-08 0 3.178891066e-08 
-3.6838513327e-08 0 1.1107744216e-08 -2.4081033696e-08 0 5.8020956254e-08 -5.4230822747e-08 0 2.2941177614e-08 
-2.8901225863e-08 0 1.6922114838e-08 -1.7947142659e-08 0 4.6664233059e-08 -4.2821872131e-08 0 1.3151053682e-09 
-3.9804092298e-08 0 5.7646096433e-08 -1.2791027852e-08 0 3.232865583e-10 -3.3914365281e-09 0 1.7756452412e-08 
5.3015523744e-09 0 6.7129029117e-08 -2.5047477008e-08 0 -3.8743530942e-08 -1.4993707097e-08 0 2.4367560484e-08 
-2.7584492435e-08 0 1.1939467407e-09 -5.3573814457e-09 0 6.4073080716e-08 -6.6177816409e-08 0 -2.4169513272e-09 
-4.0355013931e-09 0 5.6287755824e-09 -6.9081120483e-09 0 1.7560168462e-09 -3.0177221002e-10 0 -1.4776799807e-08 
8.2589334187e-09 0 3.6701650484e-08 -8.7247104057e-09 0 -3.8909933794e-09 -9.1753760272e-08 0 1.6713835018e-07 
1.2179681705e-09 0 2.2672148614e-08 -1.6473802256e-07 0 -2.8406551266e-08 -2.3077144098e-09 0 6.3591342616e-10 
1.1212310287e-09 0 -5.4943138237e-09 3.7658274574e-09 0 1.4898144955e-08 -2.1603866417e-08 0 3.1944800578e-07 
3.3291878713e-09 0 1.2962064491e-08 1.2447107096e-09 0 4.0307568081e-09 1.5516213328e-09 0 7.9047933176e-09 
-7.2465276109e-10 0 -2.5435714337e-10 -1.498148667e-09 0 -1.1303062179e-10 -1.1130101292e-09 0 3.5484667504e-10 
5.4757607953e-08 0 -1.1156412081e-06 5.4067389472e-05 0 -6.3329557061e-06 2.0682908518e-05 0 -1.1410690092e-05 
-1.3101315027e-10 0 -2.4522250649e-09 3.3046441566e-09 0 -2.2518224806e-09 6.2515152864e-09 0 -6.0600348144e-09 
-2.5857140764e-09 0 1.602391939e-10 -4.001916348e-09 0 1.7351455262e-10 -4.444499186e-09 0 1.36929995e-09 
-6.8251138739e-09 0 5.7809596842e-10 -8.5104984976e-09 0 4.2876520426e-10 -1.0350592458e-08 0 2.7313777859e-09 
-6.5652855651e-09 0 -1.2270921951e-10 -6.9433679782e-09 0 -5.6183255574e-10 -1.4348998455e-08 0 1.7156505374e-09 
-9.5559265172e-09 0 -1.208944427e-09 -8.4357341969e-09 0 -1.6242271304e-09 -1.5313399034e-08 0 -4.4710019994e-10 
-5.2957264584e-09 0 -1.7495556256e-09 -2.8955013221e-09 0 -2.0223333546e-09 -1.288212997e-08 0 -2.8894468407e-09 
-4.351730106e-09 0 -4.5104247245e-09 8.1695676859e-09 0 -1.0547073475e-08 7.9883029409e-09 0 -1.6302094751e-08 
1.333897106e-09 0 -9.6612846119e-09 2.382796217e-09 0 -2.1262515493e-08 -3.3822778661e-09 0 -2.7961380592e-08 
-6.5775117792e-09 0 -1.828679767e-08 -4.2916273909e-09 0 -3.5555368051e-08 -2.2848826599e-08 0 -4.8680391183e-08 
-1.8630393563e-08 0 -2.8648517539e-08 -5.0838281638e-08 0 -5.2447869098e-08 -1.6804190322e-07 0 -7.1983945621e-08 
-4.8370296187e-08 0 -3.6273090967e-08 -1.1980637573e-07 0 -4.4992261275e-08 4.9736049615e-08 0 -8.3091511987e-08 
-1.1653242196e-07 0 -1.5598277759e-08 -3.4920550819e-07 0 6.2745132031e-08 7.6166771354e-09 0 3.2539950504e-08 
5.350150173e-09 0 2.302171566e-08 6.1914489922e-09 0 2.6005737589e-08 9.2896921239e-09 0 5.0779745594e-08 
9.6003573909e-09 0 4.1527558537e-08 8.8046288601e-09 0 4.6057607367e-08 -7.9531764416e-09 0 6.6475662884e-08 
7.4994816967e-09 0 5.4462862406e-08 7.79617032e-09 0 6.1836590176e-08 -1.4122977749e-07 0 3.4669930731e-08 
-3.4186358677e-08 0 7.9422091012e-08 -8.4348231896e-09 0 7.1968300012e-08 1.4855296736e-05 0 -1.0771855224e-05 
-2.2976974387e-07 0 1.5448745181e-07 -5.0324211362e-08 0 8.9518421575e-08 -5.6160265451e-08 0 1.4778465117e-07 
-1.5562632726e-09 0 3.5334431985e-09 -1.4307545917e-09 0 1.5740173507e-09 -3.3512568633e-09 0 2.683234242e-09 
-2.2582099636e-09 0 9.6137799548e-09 -2.444558721e-09 0 6.6879551338e-09 -5.2879240047e-09 0 9.8323299885e-09 
-9.4872618975e-10 0 1.0500175453e-08 -1.2530847962e-09 0 8.5881042726e-09 -5.0202489123e-09 0 1.7248057253e-08 
-1.1221828404e-10 0 1.7235809888e-08 -8.7500263684e-10 0 1.6848343759e-08 -3.3002169724e-09 0 2.4267962131e-08 
1.0565227181e-09 0 1.0644593901e-08 5.3596846847e-10 0 1.2318257698e-08 -3.8386385039e-10 0 2.723242935e-08 
2.6824797576e-09 0 1.9711069031e-08 -3.4829248522e-08 0 2.5210511765e-08 -2.825046765e-08 0 2.4311268976e-08 
-3.2404624384e-08 0 3.4688426939e-08 -2.3047984159e-08 0 3.9826497101e-08 -2.933883747e-08 0 4.4106944968e-08 
-3.3599443626e-08 0 1.498755683e-08 -4.0127672878e-08 0 2.1655979297e-08 -4.4796416887e-08 0 1.9428151829e-08 
-4.0342376814e-08 0 7.6250898556e-09 -2.1322312725e-08 0 5.2965753486e-08 -3.4471271881e-08 0 4.7308516164e-08 
-3.1324858806e-08 0 5.9553874968e-08 -4.1684668023e-08 0 4.4953507621e-08 -4.9581524051e-08 0 1.0672230405e-08 
-4.6295187957e-08 0 3.0932961742e-08 -5.0174508488e-08 0 4.1153549998e-08 -5.6139347049e-09 0 5.6554319709e-09 
-9.1360608681e-09 0 1.0452675098e-08 -1.088499094e-08 0 8.8517265906e-09 -1.1815275446e-08 0 6.4985358429e-09 
-7.4550362539e-09 0 3.2911251078e-09 -1.064434206e-08 0 1.9943116174e-08 -1.5672260211e-08 0 1.9095761935e-08 
-1.1210202178e-08 0 1.5605968803e-08 -2.2174862864e-08 0 1.6313635036e-08 -2.2136104881e-08 0 9.510799479e-09 
-1.621102325e-08 0 8.448925362e-09 -2.0939978273e-08 0 2.2385351348e-08 -2.0112476456e-08 0 2.8762107812e-08 
-1.3265464425e-08 0 -1.2169907502e-08 -4.4202336707e-09 0 -1.1437080839e-08 -1.5278329748e-08 0 -8.6033023351e-09 
-8.856778785e-09 0 -5.6390480506e-09 -1.5713174017e-08 0 -5.6743102814e-09 -3.3185174445e-08 0 -4.9309566099e-09 
-3.2584643315e-08 0 -1.2951320452e-08 -2.0744892525e-08 0 -1.3426700644e-08 -2.2351405388e-08 0 -8.5142200983e-10 
-2.6592257429e-08 0 -2.5187791791e-09 -2.1083957793e-08 0 -3.569206231e-09 -3.2615604412e-08 0 5.3529669935e-10 
-3.267086615e-08 0 5.2408300652e-09 6.6151529791e-09 0 3.5209615138e-08 5.1096748182e-09 0 4.606824492e-08 
2.8560457268e-09 0 4.2794735379e-08 7.6119012271e-10 0 3.7830032176e-08 2.7777604983e-09 0 2.8180315615e-08 
2.4364711668e-09 0 6.1724014737e-08 -3.0551114203e-09 0 5.8434232916e-08 3.170777027e-09 0 5.4802273268e-08 
-1.0333150066e-08 0 5.174937723e-08 -8.4453624506e-09 0 4.1912878483e-08 -3.0115345742e-09 0 4.1910749776e-08 
-1.1294256733e-08 0 5.8790666789e-08 -1.4814799294e-08 0 6.296597433e-08 -8.5179243569e-08 0 9.0477233463e-08 
-1.1690402194e-07 0 1.4660891285e-07 -1.3505485332e-07 0 4.3331617714e-08 -2.3170024008e-07 0 2.2263400499e-08 
-1.3170320234e-07 0 2.6665178114e-09 -6.9788910481e-08 0 -1.544523707e-08 -8.136541236e-08 0 8.214344919e-09 
-9.194079932e-08 0 -7.0455546145e-09 -6.0704358331e-08 0 4.7041553273e-08 -3.3613784199e-08 0 6.794312659e-08 
-5.1528101671e-08 0 6.2272699322e-08 -6.6806507371e-08 0 2.3335269557e-08 -5.9807916701e-08 0 1.1351246019e-08 
-2.7608323478e-08 0 1.0057927867e-08 -1.9746150531e-08 0 4.6029129088e-09 -1.9095896084e-08 0 1.9751282392e-09 
-2.1701684925e-08 0 7.3160397376e-10 -2.6584389499e-08 0 3.2488563327e-09 -3.0953536499e-08 0 7.7910712843e-09 
-6.6895000446e-09 0 2.5769064491e-08 -9.1131244232e-09 0 2.3043120237e-08 -1.3314232169e-08 0 2.8416084267e-08 
-1.4594920342e-08 0 3.9780524402e-08 -6.3992750753e-09 0 3.3012060563e-08 -1.8253425344e-08 0 3.4015469754e-08 
-4.4726888091e-08 0 -6.2655938317e-09 -2.9326167497e-08 0 -2.1472867346e-08 -3.7060052105e-08 0 -2.831665951e-08 
-5.3631564315e-08 0 -2.2026879228e-08 -5.4482914515e-08 0 -1.0639065054e-08 -5.3900529144e-08 0 1.8122444559e-09 
-1.5330309239e-09 0 7.1502776018e-08 1.5794590873e-09 0 6.6404056497e-08 -7.6761746231e-09 0 6.8198869845e-08 
-2.4785514471e-08 0 6.7764973289e-08 -1.8344311845e-08 0 7.2001233409e-08 -1.8491173464e-08 0 6.6478292888e-08 
-4.3052795111e-09 0 2.3007652602e-09 -2.3832407787e-09 0 -7.0117002036e-09 4.6685727995e-09 0 2.3702093594e-08 
-1.2996137424e-07 0 1.8363145847e-07 0 0 0 0 0 0 
0 0 0 0 0 0 0 0 0 
0 0 0 0 0 0 0 0 0 
0 0 0 0 0 0 0 0 0 
0 0 0 0 0 0 0 0 0 
0 0 0 0 0 0 0 0 0 
0 0 0 0 0 0 0 0 0 
0 0 0 0 0 0 0 0 0 
0 0 0 0 0 0 0 0 0 
0 0 0 0 0 0 0 0 0 
0 0 0 0 0 0 0 0 0 
0 0 0 0 0 0 0 0 0 
0 0 0 0 0 0 0 0 0 
0 0 0 0 0 0 0 0 0 
0 0 0 0 0 0 0 0 0 
0 0 0 0 0 0 0 0 0 
0 0 0 0 0 0 0 0 0 
0 0 0 0 0 0 0 0 0 
0 0 0 0 0 0 0 0 0 
0 0 0 0 0 0 0 0 0 
0 0 0 0 0 0 0 0 0 
0 0 0 0 0 0 0 0 0 
0 0 0 0 0 0 0 0 0 
0 0 0 0 0 0 0 0 0 
0 0 0 0 0 0 0 0 0 
0 0 0 0 0 0 0 0 0 
0 0 0 0 0 0 0 0 0 
0 0 0 0 0 0 0 0 0 
0 0 0 0 0 0 0 0 0 
0 0 0 0 0 0 0 0 0 
0 0 0 0 0 0 0 0 0 
0 0 0 0 0 0 0 0 0 
0 0 0 0 0 0 0 0 0 
0 0 0 0 0 0 0 0 0 
0 0 0 0 0 0 0 0 0 
0 0 0 0 0 0 0 0 0 
0 0 0 0 0 0 0 0 0 
0 0 0 0 0 0 0 0 0 
0 0 0 0 0 0 0 0 0 
0 0 0 0 0 0 0 0 0 
0 0 0 0 0 0 0 0 0 
0 0 0 0 0 0 0 0 0 
0 0 0 0 0 0 0 0 0 
0 0 0 0 0 0 0 0 0 
0 0 0 0 0 0 0 0 0 
0 0 0 0 0 0 0 0 0 
0 0 0 0 0 0 0 0 0 
0 0 0 0 0 0 0 0 0 
0 0 0 0 0 0 0 0 0 
0 0 0 0 0 0 0 0 0 
0 0 0 0 0 0 0 0 0 
0 0 0 0 0 0 0 0 0 
0 0 0 0 0 0 0 0 0 
0 0 0 0 0 0 0 0 0 
0 0 0 0 0 0 0 0 0 
0 0 0 0 0 0 0 0 0 
0 0 0 0 0 0 0 0 0 
0 0 0 0 0 0 0 0 0 
0 0 0 0 0 0 0 0 0 
0 0 0 0 0 0 0 0 0 
0 0 0 0 0 0 0 0 0 
0 0 0 0 0 0 0 0 0 
0 0 0 0 0 0 0 0 0 
0 0 0 0 0 0 0 0 0 
0 0 0 0 0 0 0 0 0 
0 0 0 0 0 0 0 0 0 
0 0 0 0 0 0 0 0 0 
0 0 0 0 0 0 0 0 0 
0 0 0 0 0 0 0 0 0 
0 0 0 0 0 0 0 0 0 
0 0 0 0 0 0 0 0 0 
0 0 0 0 0 0 0 0 0 
0 0 0 0 0 0 0 0 0 
0 0 0 0 0 0 0 0 0 
2.0550198567e-07 -1.0911181837e-07 4.0747339749e-08 9.9569507555e-08 -3.42183981e-08 1.0781023171e-08 2.2144343862e-08 -3.3278860064e-08 2.3418310664e-08 
1.1768555988e-06 -1.9429615587e-07 -7.1605975608e-07 2.046477689e-07 -1.9651933628e-07 5.6648538125e-08 3.6978808029e-07 -4.4847514797e-08 -1.376166314e-09 
3.8214878699e-08 -3.5006571136e-08 9.4388571474e-09 2.53245396e-06 -1.0184637126e-06 -1.9028490045e-06 5.1423735573e-08 -6.0791470423e-08 4.5784161357e-08 
5.6312988211e-08 -1.6716783257e-08 -4.9200042077e-10 5.8358429836e-09 -1.6946263133e-08 1.3959770655e-08 9.0704397985e-06 -2.1173368516e-06 -1.3045030134e-05 
1.6339442311e-07 -1.2395785721e-07 -6.7293612196e-08 3.108650252e-08 -2.4283685125e-08 -4.2918367128e-10 1.9345360187e-07 -2.1921400944e-08 1.6375539137e-08 
2.4626069571e-06 6.4586460687e-07 -6.0534860215e-06 1.6078378805e-08 -2.6735435478e-08 3.4284401706e-08 8.7386603887e-07 -7.5841069369e-09 -1.5811158057e-07 
1.2465654158e-08 -2.3366020428e-08 4.4978973801e-09 4.4087139756e-08 -6.7044217513e-08 4.8043944635e-08 5.230533395e-07 -5.1244810434e-07 -5.3761737269e-07 
2.0405190514e-07 -7.0060844492e-08 2.7716358186e-08 8.0306636459e-08 -6.1565523771e-08 2.9678057293e-08 5.4526383789e-07 -2.5023521064e-07 -4.6149251356e-08 
1.5343378108e-07 -9.8868634724e-08 4.440776475e-08 9.340236291e-08 -5.1265555784e-08 2.4113876359e-08 5.1475008846e-07 -1.4057344077e-07 -3.8300166506e-08 
6.6801516002e-08 -6.1698131296e-08 3.9239434482e-08 4.0653604669e-07 -2.2901448348e-07 4.4184625507e-08 3.9422205066e-07 -8.3091396811e-10 1.6623576113e-08 
8.1266124069e-06 -3.8604198675e-06 -5.4255666408e-06 1.1291976141e-08 -1.8926646939e-08 -2.7959181419e-09 1.5126938261e-08 -3.062203241e-08 5.0149561593e-08 
2.0806013842e-07 -4.9642648673e-08 1.7842835396e-08 3.3104323487e-08 -3.844415727e-08 1.8382584423e-08 1.1168817407e-06 8.6517924619e-08 -7.4188858034e-07 
1.1156189201e-07 -1.023756304e-07 3.4114477222e-08 1.4839078735e-05 3.388866296e-06 -1.0902743759e-05 2.1653884777e-08 -1.4394255817e-08 -6.9361012707e-09 
9.873431893e-08 -1.1838330481e-08 7.1625200671e-09 5.2176247605e-09 -1.3323801331e-08 2.3417235015e-08 3.7405153575e-09 -1.4315085682e-08 4.4252777555e-09 
2.4352661364e-06 4.2604427922e-07 -2.1209444812e-06 3.0939067705e-07 -2.352414901e-07 -1.7143850814e-07 1.3902091188e-07 -5.7873219301e-08 9.2062519474e-08 
2.8257900288e-08 -6.5876162836e-09 -7.6276554531e-09 2.0881776531e-05 -3.2054091898e-06 -1.5298648777e-05 9.0815405526e-10 -6.880289926e-09 6.021258145e-09 
3.1589100492e-07 4.492684692e-08 -3.5374066326e-07 1.0536018069e-08 -1.7609432948e-09 -1.099125037e-08 9.1911264441e-09 -4.5290330372e-09 -1.039005773e-08 
3.3397493703e-08 -3.8244437897e-09 -6.2020229993e-09 -9.1324757035e-11 -1.8354229996e-09 1.9422190223e-09 -2.9165651972e-11 -4.0098927067e-09 8.6581158477e-09 
3.4337200322e-11 -4.3995776517e-09 1.849400817e-09 0.00017626781616 4.0182686618e-05 -0.0001128805094 0.00017394564178 6.005289065e-05 -5.3566184421e-05 
9.862023073e-05 1.646625627e-05 -9.7417178854e-06 0.00016015570612 -6.5290192446e-05 -4.8475224512e-05 0.00014843238945 -4.2087591645e-05 -9.3005431486e-05 
8.9666773801e-05 -1.8861921791e-05 3.884641536e-06 0.0001797296581 4.642036536e-06 -0.00011750709606 0.00016417967017 1.3571524439e-05 -9.2938759369e-05 
3.2452756077e-05 1.1465297011e-05 -2.4646976004e-05 0.00016614393287 2.0663028913e-05 -0.00010945754794 0.00018080981064 1.9608021671e-05 -0.00012659953404 
1.1133394617e-05 -7.9709541383e-09 -1.4641192807e-05 0.00016781155879 5.0270555818e-05 -0.00012806453739 0.00016543435227 5.0183074101e-05 -9.0798639251e-05 
8.0743167235e-06 -1.3339682015e-06 -3.1939268457e-06 0.00014575898138 -7.8561464457e-06 -9.3120486755e-05 0.00013969802154 4.767452812e-06 -8.3891433725e-05 
1.7658156876e-06 -1.5866817134e-06 -3.4763822623e-06 0.00014498295421 -2.6495538197e-05 -9.1748030144e-05 0.00014430057844 -2.9017152915e-05 -0.00010031787663 
4.4442634454e-07 -5.1862445363e-07 -1.679848376e-07 1.4783946497e-07 2.177007369e-07 1.1702501082e-08 1.5742583263e-09 -5.4647850389e-09 1.7144695536e-08 
3.7110046559e-09 -6.943614791e-09 2.555568867e-08 2.885081696e-09 -1.0229722984e-08 1.4895086882e-08 6.8009082824e-09 -1.2048852032e-08 3.1617222305e-08 
9.7098269616e-09 -1.5757644064e-08 3.8338622029e-08 9.9615179985e-09 -1.9314732798e-08 2.9279941181e-08 9.2010342554e-09 -1.3995909768e-08 4.5862377207e-08 
1.4422104137e-08 -2.0250051838e-08 4.4997703123e-08 1.7450433758e-08 -2.882214783e-08 4.1822406154e-08 3.4441009495e-08 -5.2906704551e-08 4.6642031653e-08 
3.7308497386e-08 -8.5838207567e-08 7.9937200667e-08 2.5487691382e-08 -4.977594899e-08 5.2850349243e-08 6.1540317721e-07 2.5944277012e-07 -6.2222034687e-07 
1.7166680927e-05 2.8274927997e-05 -4.0913591236e-05 5.0254342118e-08 -9.7452409605e-08 5.8990723496e-08 4.3433273254e-07 -2.1557221148e-07 -3.2297593636e-07 
7.328836403e-09 -6.5312625782e-09 -9.2154098122e-09 7.2088225316e-09 -8.2286096344e-09 -7.8408082515e-09 2.5129658265e-08 -1.0101928585e-08 -6.6413033568e-09 
1.0094772473e-08 -1.2694623155e-08 -7.3259468366e-09 9.5313903939e-09 -1.4226022051e-08 -5.4519537795e-09 2.6318264838e-08 -1.9232034477e-08 -3.9947036265e-09 
3.8263183094e-09 -1.0326410299e-08 -4.3723660813e-09 3.3238333775e-09 -1.0416666053e-08 -2.8267663424e-09 2.0163303821e-08 -2.2395437098e-08 -2.4016207569e-09 
3.9466226921e-09 -1.3605906145e-08 -1.2330470857e-09 3.4210142427e-09 -1.2164986267e-08 1.7772923567e-10 1.1692712975e-08 -2.1575885278e-08 1.1527121548e-09 
1.2027639945e-09 -8.3460011408e-09 4.7953114696e-10 4.6494952906e-10 -6.4772043429e-09 1.5558134454e-09 7.5461504335e-09 -1.8763715064e-08 4.5330188773e-09 
1.9374782332e-09 -1.0894146437e-08 5.6737451625e-09 1.0594036523e-07 -5.4759790153e-09 9.236420528e-09 6.6323332152e-08 -5.4815475451e-09 8.6383474395e-10 
5.8236472465e-08 -9.9812635182e-09 -4.0735036202e-10 2.2029644814e-07 -5.3637261133e-09 1.1271667863e-08 1.4852806167e-07 -1.1700782534e-08 1.5796537549e-08 
1.4289593967e-07 -1.807209709e-08 1.4667397065e-08 4.3410618437e-07 3.4011711218e-09 -3.9615789856e-08 3.0126220949e-07 -3.0025719399e-09 1.012101891e-08 
2.8494992358e-07 -1.726407123e-08 2.5269429757e-09 1.1259486827e-06 1.5078444834e-08 -6.9895221633e-07 6.8165368098e-07 2.3854169853e-08 -7.8574442128e-08 
5.9560762648e-07 -1.1783128515e-09 -6.9251015236e-08 2.0746103148e-05 -2.4783558779e-05 -4.6690054859e-05 1.8472612021e-06 8.5894029796e-07 -1.1093965279e-06 
1.3807436482e-06 9.5902004089e-08 -8.8458816418e-07 1.037652825e-05 1.6836971666e-06 -9.9010056243e-06 1.4299000925e-07 -7.3657937914e-08 2.3239772127e-08 
1.4175934055e-07 -5.8918077137e-08 2.1601551124e-08 2.0712704521e-07 -8.9968412479e-08 3.0355787622e-08 3.3418610777e-07 -9.674936176e-08 -1.7282537871e-08 
3.280085181e-07 -1.2008290696e-07 2.0508554037e-08 8.7970820152e-08 -5.6474997595e-08 2.6399981125e-08 1.3485800278e-07 -8.161046889e-08 2.9349901227e-08 
1.1745941695e-07 -8.2492114917e-08 3.1010334451e-08 7.163717632e-08 -6.2522058875e-08 3.3941456822e-08 5.2265197936e-07 -1.8084972059e-07 -7.5027793765e-08 
3.5942534048e-07 -1.5803229305e-07 -7.9293136172e-09 4.0776528031e-07 -1.7038433834e-07 -5.5653304697e-08 2.6789294584e-07 -1.3914322328e-07 -4.4189795499e-09 
1.0257365976e-07 -7.9529233959e-08 3.4386812483e-08 1.6472077573e-07 -9.5921018555e-08 4.161642909e-08 2.6563210761e-07 -1.6339353799e-07 -6.5106378006e-09 
5.5555193398e-08 -2.3589134046e-08 2.7349393092e-09 3.7422061944e-08 -1.6144417102e-08 -3.9242034422e-09 7.7309499435e-08 -2.4832803585e-08 7.4143691871e-09 
7.6230848295e-08 -1.5005878162e-08 3.9590453782e-09 1.0142925674e-07 -2.3235346933e-08 9.4202986333e-09 9.7424429073e-08 -4.3713031375e-08 1.7756523305e-08 
5.8896933449e-08 -3.6732604771e-08 1.115094539e-08 5.9509046328e-08 -3.0507032447e-08 6.5075838654e-09 2.0096829901e-07 -3.5009407367e-08 1.5410294446e-08 
1.4777659391e-07 -4.1195746539e-08 1.8775573926e-08 1.4134629957e-07 -3.0230347981e-08 1.7835225639e-08 1.4854297972e-07 -4.6780111267e-08 2.1781929983e-08 
2.0721082312e-07 -6.03424476e-08 2.2324539834e-08 1.2537608248e-08 -2.4324372042e-08 2.3404444712e-08 5.919936524e-09 -1.5907875458e-08 1.8783885208e-08 
1.2352883197e-08 -2.4933714089e-08 1.8759320556e-08 5.0553108944e-09 -1.6289170396e-08 9.1463887152e-09 1.1364273349e-08 -2.3847711956e-08 1.3923515957e-08 
4.0203895694e-08 -4.6696410125e-08 3.0885785523e-08 3.6405944132e-08 -4.4804501457e-08 3.7215058387e-08 2.0349150436e-08 -3.1595245388e-08 2.9626750166e-08 
2.1311037643e-08 -3.098958816e-08 1.1570207256e-08 2.6759057685e-08 -3.6811056819e-08 2.101567869e-08 1.7625628294e-08 -2.935875516e-08 1.4950045723e-08 
4.2905182962e-08 -4.6634879613e-08 2.5799415437e-08 5.3389143254e-08 -4.7963649036e-08 2.3332474294e-08 9.3864743429e-06 1.5099727927e-06 -1.1374877615e-05 
6.1724299038e-06 3.0117929308e-07 -5.9482034779e-06 3.6967852312e-06 -3.5064709964e-07 -4.3396724974e-06 1.9343031405e-06 8.0119014901e-08 -1.6219046923e-06 
5.1314637367e-06 -5.785232774e-08 -7.5348323356e-06 1.6298777718e-06 3.6964542034e-07 -2.3761415817e-06 1.1719988419e-06 -6.8152899862e-08 -7.3327702626e-07 
1.6959277798e-06 -1.126665859e-07 -2.6733183509e-06 8.2439515233e-07 -1.4997965977e-07 -2.6725568463e-07 6.6791255953e-07 -1.007691239e-07 -1.8669313092e-07 
1.0176036357e-06 -1.0602330104e-07 -4.7688221416e-07 8.9709393416e-07 -1.4297381073e-07 -3.9545994896e-07 8.3671348148e-07 -7.6729881787e-08 -3.1591045857e-07 
2.9071407629e-07 -2.6149631616e-07 -1.1170520394e-07 2.9090490159e-07 -1.4557640157e-07 -3.9666533291e-08 1.7327089326e-07 -1.9858132854e-07 -2.0258303287e-08 
1.5368441736e-07 -8.141747509e-08 -2.1760546235e-08 1.2065932229e-07 -1.0838498088e-07 2.0959989957e-08 7.649483147e-08 -8.656638846e-08 3.7646527034e-08 
1.5627184269e-07 -1.4383558467e-07 3.7489639551e-08 1.0765554099e-07 -1.3154851203e-07 4.8272709353e-08 3.4191501969e-07 -2.3758663857e-07 1.7445839583e-08 
5.5844118059e-07 -4.7942111033e-07 -2.9103608296e-07 3.1076455573e-07 -3.4186450541e-07 -1.5538348128e-07 2.0026818887e-07 -1.6490681499e-07 1.2050906569e-08 
1.356191393e-07 -1.0815979488e-07 3.7370327504e-08 3.9021373628e-07 -2.2955301168e-08 3.6177329393e-09 2.7226666016e-07 -3.5797179175e-08 -8.0426202575e-10 
2.8070903207e-07 -5.1335443504e-08 1.0826677103e-08 4.3441106262e-07 -9.1691926542e-08 -1.8993296907e-08 5.8194448306e-07 -5.3151791082e-08 -1.0081397084e-07 
2.8514694827e-07 -6.0917385906e-08 4.369442618e-09 6.1681270311e-08 -4.382393714e-08 1.7954486326e-08 3.5432998118e-08 -2.9916884584e-08 5.8778289768e-09 
2.3184419783e-08 -2.7345351009e-08 3.8076299415e-09 2.24083771e-08 -3.0066643424e-08 8.6609019865e-09 3.5855393351e-08 -3.7193042554e-08 1.4631576636e-08 
5.7860566491e-08 -4.5690265713e-08 2.0843827155e-08 5.1792972993e-06 -8.8972188069e-07 -4.068170582e-06 4.1070856896e-06 2.6332235375e-07 -3.9452267113e-06 
2.1658315382e-06 -2.4845405636e-07 -1.4518441539e-06 9.314803143e-07 -5.5433669486e-07 -4.6313974274e-07 9.2591453163e-07 -9.8961245712e-07 -1.3446148772e-06 
8.1322427513e-07 -2.8601712978e-07 -5.4593753992e-07 6.09177614e-08 -6.2749356349e-08 4.1473862141e-08 3.1101576167e-08 -4.1584316438e-08 3.9860312766e-08 
3.1026076225e-08 -4.6919650468e-08 4.7166085851e-08 5.1359077534e-08 -6.8027921721e-08 4.7363509394e-08 7.6744578468e-08 -7.9934670851e-08 4.1286200043e-08 
9.480907488e-08 -8.2364689627e-08 4.2776212047e-08 4.1384617937e-08 -1.119745208e-08 -4.1433223689e-09 2.7432705179e-09 -1.1484407626e-08 1.036147892e-08 
1.4814757084e-05 -2.9408233904e-06 -1.4510090609e-05 2.0720060982e-07 -3.478736303e-08 -1.7776957702e-07 0 0 0 
0 0 0 0 0 0 0 0 0 
0 0 0 0 0 0 0 0 0 
0 0 0 0 0 0 0 0 0 
0 0 0 0 0 0 0 0 0 
0 0 0 0 0 0 0 0 0 
0 0 0 0 0 0 0 0 0 
0 0 0 0 0 0 0 0 0 
0 0 0 0 0 0 0 0 0 
0 0 0 0 0 0 0 0 0 
0 0 0 0 0 0 0 0 0 
0 0 0 0 0 0 0 0 0 
0 0 0 0 0 0 0 0 0 
0 0 0 0 0 0 0 0 0 
0 0 0 0 0 0 0 0 0 
0 0 0 0 0 0 0 0 0 
0 0 0 0 0 0 0 0 0 
0 0 0 0 0 0 0 0 0 
0 0 0 0 0 0 0 0 0 
0 0 0 0 0 0 0 0 0 
0 0 0 0 0 0 0 0 0 
0 0 0 0 0 0 0 0 0 
0 0 0 0 0 0 0 0 0 
0 0 0 0 0 0 0 0 0 
0 0 0 0 0 0 0 0 0 
0 0 0 0 0 0 0 0 0 
0 0 0 0 0 0 0 0 0 
0 0 0 0 0 0 0 0 0 
0 0 0 0 0 0 0 0 0 
0 0 0 0 0 0 0 0 0 
0 0 0 0 0 0 0 0 0 
0 0 0 0 0 0 0 0 0 
0 0 0 0 0 0 0 0 0 
0 0 0 0 0 0 0 0 0 
0 0 0 0 0 0 0 0 0 
0 0 0 0 0 0 0 0 0 
0 0 0 0 0 0 0 0 0 
0 0 0 0 0 0 0 0 0 
0 0 0 0 0 0 0 0 0 
0 0 0 0 0 0 0 0 0 
0 0 0 0 0 0 0 0 0 
0 0 0 0 0 0 0 0 0 
0 0 0 0 0 0 0 0 0 
0 0 0 0 0 0 0 0 0 
0 0 0 0 0 0 0 0 0 
0 0 0 0 0 0 0 0 0 
0 0 0 0 0 0 0 0 0 
0 0 0 0 0 0 0 0 0 
0 0 0 0 0 0 0 0 0 
0 0 0 0 0 0 0 0 0 
0 0 0 0 0 0 0 0 0 
0 0 0 0 0 0 0 0 0 
0 0 0 0 0 0 0 0 0 
0 0 0 0 0 0 0 0 0 
0 0 0 0 0 0 0 0 0 
0 0 0 0 0 0 0 0 0 
0 0 0 0 0 0 0 0 0 
0 0 0 0 0 0 0 0 0 
0 0 0 0 0 0 0 0 0 
0 0 0 0 0 0 0 0 0 
0 0 0 0 0 0 0 0 0 
0 0 0 0 0 0 0 0 0 
0 0 0 0 0 0 0 0 0 
0 0 0 0 0 0 0 0 0 
0 0 0 0 0 0 0 0 0 
0 0 0 0 0 0 0 0 0 
0 0 0 0 0 0 0 0 0 
0 0 0 0 0 0 0 0 0 
0 0 0 0 0 0 0 0 0 
0 0 0 0 0 0 0 0 0 
0 0 0 0 0 0 0 0 0 
0 0 0 0 0 0 0 0 0 
0 0 0 0 0 0 0 0 0 
0 0 0 0 0 0 0 0 0 
0 0 0 7.7734356485e-09 0 9.8031780726e-08 -1.2512737896e-08 0 6.0353410084e-09 
6.7825950389e-08 0 2.2680642925e-08 -1.2158434111e-08 0 2.2851186839e-08 -7.6107946321e-09 0 6.0307489029e-08 
5.6565677479e-08 0 1.8165486427e-07 4.0921093565e-08 0 4.2180543459e-08 -6.4714534262e-09 0 -1.6330308136e-09 
-1.6151027531e-09 0 -6.769097845e-09 4.5732060966e-08 0 -3.0186134125e-08 -4.6979722464e-07 0 2.5834352638e-07 
6.9574772845e-09 0 3.0364617296e-08 1.4933589803e-08 0 1.5999443775e-07 -1.2235289606e-08 0 4.2300700918e-09 
-1.1208630617e-09 0 1.8331856246e-08 -4.079363904e-09 0 -1.0009617579e-07 -4.3761562509e-09 0 -5.6845075632e-09 
5.239979691e-08 0 1.0150371523e-08 1.1159259552e-07 0 7.7024485475e-08 4.0818738221e-08 0 1.0261162706e-07 
-9.7820625283e-09 0 5.5600818392e-08 -1.4455091662e-08 0 1.867503089e-08 -5.7772984199e-09 0 1.3212529733e-08 
1.6735017762e-08 0 1.1344226372e-07 -1.1698225961e-08 0 8.6517631353e-09 8.9060582209e-09 0 5.0863540622e-08 
7.7118858139e-08 0 2.6013850285e-07 1.7899518323e-08 0 1.3908908803e-08 -2.7297984021e-09 0 -3.4512609948e-10 
9.3377085223e-10 0 -9.2056972779e-09 5.6795182713e-09 0 2.5051693896e-09 -8.2907643518e-09 0 6.6659399008e-10 
3.0189369928e-08 0 -2.2904763787e-08 1.4196173317e-06 0 -6.9191961362e-07 7.8264102915e-08 0 1.0845393728e-07 
6.244013002e-08 0 3.7752488978e-08 -2.6280936198e-09 0 -2.9845672706e-09 -1.7374351462e-09 0 -7.2885538639e-09 
-6.3062263523e-08 0 -1.420906654e-07 9.627196786e-09 0 -7.154119014e-08 -4.5433836867e-09 0 4.2490017871e-08 
-4.8673048029e-09 0 9.4362514184e-08 2.3890665004e-08 0 6.2701157147e-08 1.8965424943e-08 0 1.4337922514e-07 
3.2327493717e-08 0 1.2385661427e-08 1.2952445191e-07 0 2.3715523485e-07 -9.444747608e-09 0 -1.7135014499e-09 
4.1195191384e-08 0 -3.8653333653e-09 6.1903629342e-07 0 1.57420631e-07 -6.8947866088e-09 0 1.6748432075e-09 
-1.0530892081e-08 0 2.7423790838e-08 2.0216965051e-08 0 -3.0731461752e-08 5.7638943663e-08 0 -3.4584873012e-08 
-1.4568727046e-08 0 1.4300471558e-08 -1.1042331581e-08 0 1.0162239474e-09 6.746554683e-08 0 8.2913495706e-08 
6.3253423405e-09 0 1.1675278915e-08 5.3767957358e-08 0 2.1265312179e-07 -6.6303179091e-09 0 -4.4620958139e-09 
1.3297031855e-08 0 1.668012591e-08 -6.9118179882e-09 0 1.2514180936e-09 8.6469478748e-09 0 3.9885054699e-08 
6.4164228377e-08 0 1.1318622966e-09 -4.0689365671e-09 0 2.480530355e-11 5.6471840857e-09 0 -4.4690051472e-09 
-1.3788326766e-08 0 5.933017058e-09 -5.4835986403e-08 0 -1.1609345956e-07 -6.484007984e-09 0 4.9067386798e-09 
2.9561163181e-08 0 9.3076131188e-08 3.0168164169e-08 0 2.7673173826e-09 3.1906564181e-07 0 1.1407454528e-07 
-1.4298676377e-09 0 -4.136461275e-09 5.3120264703e-08 0 6.6247337167e-08 -1.2553761882e-08 0 4.5406044918e-08 
7.4505890051e-09 0 6.5529300849e-08 3.4121307201e-09 0 1.1487535688e-07 -5.9301687524e-09 0 -3.5699308541e-09 
4.9227705008e-08 0 2.5388873844e-08 1.0593348557e-07 0 1.5588406341e-07 -1.3305876439e-08 0 3.3908873364e-08 
1.7526596624e-08 0 -4.5462742401e-08 3.0362062819e-07 0 -8.0064648212e-07 2.3985987134e-08 0 4.0550389003e-08 
-7.5164034197e-09 0 2.5696064851e-09 -1.0410570313e-08 0 1.2134823051e-08 4.9340688172e-08 0 1.3533186442e-07 
3.1249573298e-08 0 1.9575080341e-07 1.9680758443e-08 0 3.2783418262e-08 -1.5746385827e-10 0 -7.6278938772e-09 
-1.6384486646e-09 0 -1.0410939947e-09 2.7638699239e-08 0 -7.7555534076e-09 8.5720564944e-06 0 8.9435262478e-07 
-1.7041386119e-09 0 7.7418390896e-09 3.9782352195e-08 0 1.5746803233e-07 -8.5297644839e-10 0 1.3635245019e-10 
1.4217006651e-09 0 -8.2233142951e-09 -9.8462216641e-09 0 1.3921292138e-08 3.4408549921e-09 0 7.710486845e-08 
-1.8430631818e-09 0 7.7843533944e-08 1.6500361852e-08 0 -1.3108544302e-08 1.9020661582e-05 0 5.9402665606e-06 
-4.2601351432e-09 0 4.181822388e-08 2.1168738368e-08 0 9.2893711374e-08 -4.3901955954e-08 0 -4.0033296675e-08 
3.2823480333e-08 0 -5.8523148986e-08 -7.8175879184e-10 0 3.8133661251e-09 4.8646161789e-09 0 1.1830890175e-07 
-3.5334470077e-09 0 2.474727649e-08 1.2866760254e-05 0 -1.0745342084e-06 7.9285918336e-05 0 1.3595457995e-06 
5.3964425435e-05 0 1.4042236834e-05 6.9510339951e-09 0 -5.5055240891e-09 1.1701160669e-08 0 -1.7508396115e-08 
1.100998509e-08 0 -4.8746499974e-09 1.179512154e-09 0 -5.1873778009e-09 6.5999437966e-10 0 -5.0224118937e-09 
3.0828663604e-09 0 -9.3581973042e-09 -4.0660293397e-10 0 9.7384247824e-11 -2.8595998574e-10 0 1.6919311637e-10 
-6.6675141522e-10 0 1.7523359697e-10 1.1418894232e-08 0 -3.4160839965e-08 6.0851833693e-09 0 -5.3214891779e-08 
1.9691084542e-08 0 -2.7699074134e-08 1.730381165e-09 0 -6.7599203702e-08 -1.7421222997e-08 0 -8.9932488884e-08 
1.5526186516e-08 0 -5.8107740287e-08 -5.1823754085e-08 0 -1.1315449484e-07 -1.0987826532e-07 0 -1.6062620839e-07 
-1.8564178916e-08 0 -9.3791914324e-08 -1.6364332321e-07 0 -2.255427274e-07 -5.8999322541e-08 0 -4.4580489696e-07 
-8.3117335432e-08 0 -1.2379765379e-07 -7.6270066815e-07 0 -6.7560239876e-07 8.9009482991e-07 0 -3.0974984641e-06 
-2.2127201452e-07 0 -2.8564792169e-07 5.71957435e-07 0 2.5300978099e-06 -6.3914335559e-10 0 -7.2045610508e-10 
-6.0161232829e-10 0 -2.3187581673e-10 -1.2945929e-09 0 -2.8691268497e-10 -9.4241105859e-10 0 -2.1453099543e-09 
-9.4643773136e-10 0 -1.4216113433e-09 -2.1399881755e-09 0 -1.9164603785e-09 -4.2168834664e-10 0 -2.7613579193e-09 
-5.5085871419e-10 0 -2.0925596475e-09 -1.9796629914e-09 0 -3.7120102214e-09 -3.1821711209e-10 0 -5.2982319791e-09 
-5.4536819888e-10 0 -4.5489917404e-09 -1.6486357939e-09 0 -5.7260081408e-09 2.9589318504e-10 0 -5.0903580961e-09 
8.139501271e-11 0 -4.4609202982e-09 -9.2402802206e-10 0 -7.6295686676e-09 4.9534145845e-10 0 -8.0629330659e-09 
1.6311058228e-08 0 -2.7330557586e-09 1.3738885528e-08 0 -3.5074183556e-09 2.264611559e-08 0 -1.0138209838e-08 
2.4463475697e-08 0 -1.0987715288e-09 2.3523158442e-08 0 -2.2680223336e-09 3.4650795253e-08 0 -6.5455701082e-09 
1.5777613915e-08 0 1.3730277314e-09 1.7158970934e-08 0 3.8431565529e-10 3.6645190093e-08 0 2.1182491606e-10 
1.6317839206e-08 0 4.6755799275e-09 1.9954152927e-08 0 3.8955613019e-09 3.2679883622e-08 0 7.1228812066e-09 
7.9769709075e-09 0 5.0051171439e-09 1.1810958555e-08 0 4.7752686523e-09 2.5170579702e-08 0 1.351902902e-08 
1.5306833086e-09 0 4.1005682828e-09 4.5168722837e-09 0 4.3354302426e-09 1.1755460724e-08 0 1.2874257965e-08 
-2.3219196581e-09 0 2.8214982065e-09 -4.8906312219e-10 0 3.0056194746e-09 1.7790798293e-09 0 9.6722495625e-09 
-4.1627783511e-09 0 1.7471825394e-09 -3.4653523857e-09 0 2.1185430954e-09 -4.537245803e-09 0 6.2105746322e-09 
-4.1624469297e-09 0 1.0190237179e-09 -4.2408251418e-09 0 1.2449428594e-09 -7.3309911848e-09 0 3.5665958035e-09 
-3.5554466309e-09 0 5.4830243785e-10 -3.9454444708e-09 0 7.3709698676e-10 -7.3277090774e-09 0 1.9110262846e-09 
-2.306143258e-09 0 2.0151932363e-10 -3.073768431e-09 0 2.8861888821e-10 -5.2284515344e-09 0 5.9418650192e-10 
-8.0419923754e-09 0 1.1519427891e-09 -6.1143241402e-09 0 1.7676603001e-10 -1.5438656697e-09 0 1.5983577926e-10 
-1.4195292754e-09 0 1.3657264308e-10 -3.5166913639e-09 0 -2.1187181018e-10 -1.6557060833e-09 0 -3.8273812931e-11 
2.6964031287e-05 0 1.0467985566e-05 1.1169865485e-05 0 6.3082088181e-06 1.3739724952e-05 0 5.4321379109e-07 
3.4624678539e-06 0 -1.1996544357e-06 5.4417716369e-07 0 -3.4884838959e-07 2.4314180848e-06 0 -1.3842331321e-06 
3.0113979704e-07 0 -5.3077975962e-07 1.3458770551e-07 0 2.9448245929e-07 2.8532405249e-07 0 -5.5556032607e-08 
1.125863655e-07 0 2.4192892888e-07 1.3265487199e-07 0 3.0139360862e-07 1.8461771225e-07 0 1.4718308379e-07 
1.0173469903e-07 0 2.8914634438e-07 8.8550521677e-08 0 2.7278398543e-07 9.590872519e-08 0 2.6386302153e-07 
8.039660539e-08 0 2.4367343116e-07 6.9152123689e-08 0 2.0716945977e-07 6.4263148487e-08 0 2.4035126285e-07 
6.3381271825e-08 0 1.7690114041e-07 5.5756246836e-08 0 1.4286222095e-07 4.5119918733e-08 0 1.8420290093e-07 
5.0053364702e-08 0 1.1015476133e-07 4.4269223104e-08 0 8.5642788198e-08 3.3368592548e-08 0 1.2207826373e-07 
3.9097157436e-08 0 5.6960255509e-08 3.3655796049e-08 0 4.0259411739e-08 2.5677272853e-08 0 6.2058691437e-08 
2.5370855358e-08 0 2.6883395517e-08 2.1170007816e-08 0 1.5708419093e-08 1.8056129513e-08 0 2.6772425004e-08 
1.4200935996e-08 0 3.3881419227e-09 9.7108682427e-09 0 -2.8631360278e-09 1.5136087846e-08 0 7.9917690177e-09 
9.1710462619e-09 0 9.0174517014e-09 5.9446762763e-09 0 -1.3057906668e-09 6.029065186e-09 0 -6.3747324653e-09 
2.891536742e-09 0 -9.3319921181e-09 2.5264774898e-09 0 -7.6112190206e-09 1.303553803e-09 0 -9.3785250544e-09 
1.2958483703e-08 0 1.1941268178e-07 5.1654404671e-09 0 1.0675184935e-07 1.0433578275e-08 0 1.296061069e-07 
2.0046255577e-08 0 1.16951766e-07 1.4048624658e-08 0 9.6525092134e-08 7.5589394049e-09 0 8.1019201895e-08 
2.4250760166e-09 0 7.2588537652e-08 2.5338334946e-09 0 8.7907896218e-08 1.3721258588e-08 0 7.8842398006e-08 
4.2756486754e-10 0 9.5140584987e-08 -1.3749993309e-08 0 1.1828446948e-08 -1.4504985742e-08 0 1.1166580976e-08 
-1.340252496e-08 0 6.1011715948e-09 -1.1799419493e-08 0 8.7759482216e-09 -1.2985201119e-08 0 1.579396291e-08 
-1.1238607873e-08 0 1.1571194681e-09 -8.2930237338e-09 0 -3.0562231561e-09 -9.6243849511e-09 0 7.9426459222e-11 
-1.1885160814e-08 0 1.6601649941e-09 -1.0056262264e-08 0 3.9248097635e-09 -7.0453981802e-09 0 -2.0410109328e-09 
-8.6930450591e-09 0 6.5420413731e-09 7.0074400249e-08 0 5.4987609661e-08 7.0871586087e-08 0 5.1982034308e-08 
6.8304924432e-08 0 9.6316030281e-08 6.3962984317e-08 0 4.8753363463e-08 5.235567562e-08 0 3.801778453e-08 
6.8519246814e-08 0 3.4065806613e-08 6.518342699e-08 0 5.6526424598e-08 6.7857071363e-08 0 8.2283038265e-09 
6.5147155818e-08 0 1.9598972537e-08 5.9204034539e-08 0 1.0021518259e-09 4.6326147185e-08 0 -3.5178500385e-08 
6.5940725733e-08 0 -5.2002058775e-09 1.2656528902e-08 0 -6.6970079675e-09 6.3224959524e-08 0 -1.2996003419e-08 
-1.2402160247e-08 0 1.4682699469e-08 -1.3518648406e-08 0 1.1753214089e-08 -1.3823449079e-08 0 1.8571231197e-08 
-1.1076993759e-08 0 1.8397276824e-08 -1.1069214003e-08 0 1.1083276444e-08 -9.2253788965e-09 0 3.193929273e-08 
-1.2925508603e-08 0 2.830730227e-08 -9.945126338e-09 0 3.9276484892e-08 -3.8295202253e-09 0 3.3300400804e-08 
-8.4871839139e-09 0 2.4797602265e-08 -1.4413827652e-08 0 2.2754197588e-08 -7.3662458355e-09 0 1.8955917791e-08 
-7.141626294e-09 0 7.744701427e-08 -9.7226114838e-09 0 6.722563464e-08 -1.0742970792e-08 0 5.2660537773e-08 
-2.9745223146e-09 0 8.6595789689e-08 -1.3160823021e-09 0 1.0584906097e-07 -9.4987880975e-09 0 4.216920774e-08 
-1.2150189897e-08 0 3.647654404e-08 -7.9032515196e-09 0 3.4073422105e-08 -6.2950122916e-09 0 5.0970551021e-08 
-3.0816806755e-09 0 6.8424400004e-08 -1.0196688312e-09 0 5.7548143288e-08 3.605298231e-09 0 9.7651127638e-08 
6.3404314965e-08 0 2.2527018898e-07 8.5139703624e-08 0 2.077792479e-07 4.1678539451e-08 0 1.9557905815e-07 
5.0610991804e-08 0 2.2738707818e-07 6.707900583e-08 0 1.5049125419e-07 7.9050380799e-08 0 1.7461032465e-07 
7.7986640749e-08 0 1.317542068e-07 6.3386434703e-08 0 1.2769117466e-07 5.0534715721e-08 0 1.5838991729e-07 
3.3471197493e-08 0 1.6641948475e-07 3.3187831961e-08 0 1.4468422122e-07 2.2055606006e-08 0 1.6872234734e-07 
1.1285998759e-07 0 2.0171632056e-07 2.9759835109e-08 0 2.7203956783e-08 3.8643142649e-08 0 2.5654921816e-08 
1.9873015207e-08 0 2.2711164812e-08 2.9792796335e-08 0 3.8804699922e-08 5.2052115081e-08 0 4.2805971947e-08 
4.7229591681e-08 0 5.3774759844e-08 5.8981789658e-08 0 5.2149468105e-08 5.6345073562e-08 0 3.1694164186e-08 
4.5737490093e-08 0 3.4180685471e-08 3.3158434301e-08 0 5.3583746745e-08 3.8183950477e-08 0 6.8035237393e-08 
2.2366108748e-08 0 4.6851589767e-08 4.132820278e-08 0 1.8955394196e-08 -4.5510729395e-09 0 -1.0666825254e-09 
-5.6888936383e-09 0 -5.9676108518e-10 -2.2627686712e-09 0 -7.5219221186e-10 -3.8562855832e-09 0 -1.7135135795e-09 
-7.8294352636e-09 0 -3.2946439705e-10 -8.8739293166e-09 0 -7.4315622374e-10 -9.9846191317e-09 0 8.1431427105e-10 
-4.6175706798e-09 0 -2.6071121369e-09 -4.2420358818e-09 0 -3.541954003e-09 -6.3413462483e-09 0 -2.5702723812e-09 
-8.1919030514e-09 0 -2.0207689024e-09 -1.0526128223e-08 0 -1.6772945046e-10 -7.7041300055e-09 0 -3.0476976125e-09 
1.4207524768e-10 0 -8.4927798629e-09 1.5689879619e-09 0 -6.2581174144e-09 -9.8058468886e-10 0 -8.9293244735e-09 
1.6316412641e-10 0 -8.9605201843e-09 1.0493470903e-09 0 -3.0480733646e-09 2.4109157051e-09 0 2.9938747652e-09 
-1.3045050521e-09 0 -2.3588761389e-09 -2.3064600648e-09 0 -8.3223901152e-09 -4.286228163e-09 0 -5.8022550661e-09 
-3.9894009689e-09 0 -7.0844321266e-09 -3.8939849044e-09 0 -3.0969140545e-09 -4.231224418e-09 0 2.5177614673e-09 
3.8070503906e-08 0 -2.7507113928e-08 3.1556473306e-08 0 -4.0014076389e-08 2.5311549393e-08 0 -3.3663583876e-08 
3.0920504195e-08 0 -1.4198404268e-08 4.0145535445e-08 0 -1.7411097535e-08 3.1549383895e-08 0 -5.0805897239e-08 
4.0488051203e-08 0 -4.3099670724e-08 1.9730139064e-08 0 -6.7113777459e-08 4.7834381851e-08 0 -1.3448206065e-08 
5.4908858996e-08 0 -3.916138088e-09 5.702993945e-08 0 -1.7924743948e-08 4.9879878184e-08 0 -3.4970707319e-08 
4.5609600471e-08 0 -4.7855952055e-08 -1.5564797779e-06 0 4.7339612887e-07 -5.4436341778e-07 0 -5.6619210257e-07 
-1.1843574755e-07 0 6.4025381691e-08 6.5773505531e-08 0 -9.4487423328e-07 5.436762081e-06 0 -1.6492695727e-06 
-2.4384741926e-07 0 -1.0716385687e-08 -6.4404990772e-08 0 -1.166553195e-07 -2.117446337e-07 0 1.0711077016e-07 
-2.2316292173e-07 0 -3.8057122022e-08 -1.7848425784e-07 0 -4.1818564536e-08 -1.8138168844e-08 0 5.9866430879e-09 
-1.5113485219e-07 0 4.7269907835e-08 -2.8799870159e-08 0 -4.3145045947e-08 1.1757894844e-09 0 3.7621906725e-08 
7.6603673398e-10 0 5.3580902635e-08 7.656482812e-09 0 4.6934087662e-08 1.2376556803e-09 0 2.7798326712e-08 
1.4826984183e-08 0 4.5522372763e-08 1.5302937015e-08 0 6.5204126448e-08 1.2992631359e-08 0 3.2012622845e-08 
7.3046971054e-09 0 2.0422841748e-08 1.2575402397e-08 0 2.1041221955e-08 1.8052862243e-09 0 1.7335753903e-08 
-2.2661671716e-09 0 1.5635543288e-08 2.9104014141e-09 0 1.2407396263e-07 6.4208268496e-09 0 1.3649140513e-07 
-1.4804248522e-09 0 1.0508655204e-07 9.3170855333e-09 0 1.390127372e-07 1.3319300634e-08 0 1.5481642404e-07 
2.1894446611e-08 0 1.7758102487e-07 2.901468747e-08 0 1.8497615862e-07 3.8685555161e-08 0 2.0803596231e-07 
2.3908666154e-08 0 1.6112809941e-07 1.8709844653e-08 0 1.3764313623e-07 -1.2415287247e-08 0 6.3774800978e-09 
-1.3835063549e-08 0 8.1679055765e-09 -1.0056207001e-08 0 5.0383590392e-09 -1.0487170504e-08 0 3.7341740184e-09 
-1.0446690052e-08 0 1.987201811e-09 -1.2015576788e-08 0 2.8174149822e-09 -9.9948098005e-09 0 2.5484944517e-09 
-1.3422743191e-08 0 5.2656382424e-09 -1.4642967268e-08 0 1.0027290692e-08 -1.2604924644e-08 0 2.9101984123e-09 
2.6395072101e-09 0 3.1561084802e-08 8.4021947028e-09 0 2.7308115932e-08 1.6297816169e-08 0 4.5118792743e-08 
9.9817248446e-10 0 4.6213912545e-08 -2.811900994e-09 0 2.8663782259e-08 -4.9286019657e-09 0 8.5690222713e-09 
-6.8041002e-09 0 1.4982835819e-08 -8.3029294623e-10 0 1.0283154644e-08 -6.2985754704e-09 0 2.2854703263e-08 
-1.0596268164e-08 0 1.9167431199e-08 5.5280462374e-09 0 1.696112999e-08 4.942798868e-09 0 9.5180969937e-09 
-5.7926539317e-08 0 -1.3647168707e-07 -3.5068177802e-08 0 -1.1527790198e-07 -2.6519159068e-08 0 -8.8135708353e-08 
8.8343766103e-10 0 -8.4394566086e-08 1.7719169246e-08 0 -7.7334031801e-08 9.2303584667e-09 0 -6.3680554962e-08 
3.4741924558e-08 0 -6.3857419543e-08 -3.5826227593e-09 0 -4.4319961847e-09 -2.7729789004e-09 0 -5.3407176108e-09 
-5.2245591563e-09 0 -4.6149587544e-09 -3.0016252954e-09 0 -6.6901594143e-09 -5.6654315225e-09 0 -5.6459493387e-09 
-6.9401153079e-09 0 -4.1564064539e-09 5.9207165706e-08 0 2.1518086892e-08 5.9662094302e-08 0 7.6965001843e-09 
5.1623585432e-08 0 1.7417634805e-08 4.313405549e-08 0 1.308669986e-08 4.2737736257e-08 0 5.9715357557e-09 
4.8448470522e-08 0 1.0997463054e-09 7.6708537494e-08 0 9.7939062492e-08 5.1711381398e-08 0 -3.3580485515e-10 
1.1655822933e-07 0 1.1873946382e-07 1.0876925762e-07 0 1.3718478791e-07 1.5451641117e-07 0 9.8849038716e-08 
2.6101138121e-07 0 -9.1026127431e-08 3.1995068717e-08 0 8.2160133293e-08 4.7730757471e-08 0 8.4497140152e-08 
2.2892355472e-08 0 7.7214152377e-08 3.0501601327e-08 0 9.9288327538e-08 2.9406665382e-08 0 1.2495024178e-07 
4.4364079431e-08 0 1.1872841079e-07 5.3951613286e-08 0 9.6886011445e-08 6.0163096041e-08 0 7.5096616413e-08 
5.8709428421e-08 0 1.099332799e-07 -7.5322962409e-09 0 4.994453528e-08 -1.1782721115e-08 0 4.3959088988e-08 
-6.4162874164e-09 0 6.6720804318e-08 -3.279801812e-09 0 5.8805062162e-08 -8.0082692556e-09 0 7.3304014685e-08 
-1.1707087137e-08 0 5.0980563583e-08 -4.240558907e-09 0 8.6763912121e-08 -1.3225819498e-08 0 3.9709015062e-08 
-1.3030543392e-08 0 2.284106018e-08 -1.4010443767e-08 0 3.0250179392e-08 -1.5077730132e-08 0 1.6911817681e-08 
-1.4661761691e-08 0 2.636211135e-08 -6.7319392565e-09 0 8.4437671917e-09 -3.590152403e-09 0 1.0450734392e-08 
-8.5299743818e-09 0 8.9663683537e-09 -7.9299465627e-09 0 1.3810812947e-08 -4.8543041319e-09 0 1.848842204e-08 
2.1531915986e-08 0 1.0304472934e-07 2.6653849776e-08 0 1.3425296975e-07 8.9627485112e-09 0 9.4261517252e-08 
1.3568622617e-08 0 8.4615980771e-08 9.6846164424e-09 0 1.166238982e-07 -9.3031758666e-09 0 7.0650169134e-09 
1.6095590505e-08 0 6.8268322863e-08 5.6407658958e-09 0 6.3220857481e-08 2.3260293423e-08 0 -1.8070833601e-08 
5.3831548173e-06 0 2.1219716706e-06 4.0472969741e-08 0 3.0211726069e-08 -8.8145309184e-10 0 5.0778631092e-12 
5.5635752392e-08 0 2.4961537802e-08 4.4890872036e-09 0 8.3652666443e-09 2.0490853543e-08 0 3.0161270401e-08 
9.5082316013e-08 0 4.9147749756e-08 3.7485924127e-08 0 1.3582968423e-08 -2.8758740652e-09 0 -2.3232291315e-09 
3.3079995562e-09 0 -6.7000507925e-09 4.3477392228e-08 0 5.7973278986e-09 6.6054657939e-08 0 8.2523734667e-08 
1.6989828926e-08 0 9.6620360448e-09 6.2502164283e-08 0 6.1797882803e-08 1.0401923738e-08 0 9.7994531401e-09 
-3.56630544e-09 0 1.3358273469e-09 5.0166946738e-08 0 1.7399021189e-08 -1.2533084905e-09 0 -5.5760300424e-09 
3.7459747541e-08 0 8.1261445888e-09 1.0711606909e-07 0 -5.8868271525e-12 5.6109257376e-08 0 2.6498322305e-08 
1.8016346386e-08 0 2.1140424942e-08 5.7906681962e-09 0 1.1204407978e-08 4.2131930805e-09 0 4.6618097508e-09 
4.6217637521e-08 0 6.6523829625e-08 -1.621546e-09 0 2.5220411518e-09 2.1084142292e-08 0 3.1433556173e-08 
1.120708799e-07 0 1.0972271921e-07 1.653332497e-08 0 4.7054541277e-09 -1.3874196951e-09 0 -7.2544494898e-10 
3.7554868683e-09 0 -7.5027282087e-09 1.1228603938e-08 0 -1.1100751668e-09 -3.6036597735e-09 0 -3.848946835e-10 
3.0335230496e-08 0 -1.1608535232e-09 -2.9046965273e-09 0 -5.0237626513e-07 8.0369411928e-08 0 2.1473641363e-08 
4.9226967546e-08 0 1.6957337997e-08 -1.0961042599e-09 0 -3.0995314794e-09 8.9169641419e-11 0 -6.2046230634e-09 
4.9723477312e-08 0 2.01281705e-08 3.9765691596e-08 0 -3.8459123109e-09 1.5424949118e-08 0 1.4476142174e-08 
3.3791310839e-08 0 3.7740846572e-08 3.5502875114e-08 0 1.8253000235e-08 6.1424669078e-08 0 4.0973275394e-08 
2.3437552897e-08 0 5.1423122404e-09 1.6814720499e-07 0 6.5075405452e-08 -2.8749613071e-09 0 -3.4454195215e-09 
2.9311719041e-08 0 3.2442780298e-09 2.2406959561e-07 0 8.2728728e-08 2.3296352691e-09 0 -1.5598371616e-09 
-2.4543004539e-10 0 4.9753102308e-09 4.151788521e-08 0 3.734303531e-08 5.132829805e-08 0 1.9621908767e-08 
1.0708754522e-08 0 1.7569048475e-08 -3.9157661653e-09 0 -1.1993510158e-09 6.1189077011e-08 0 2.3742742532e-08 
9.9145686305e-09 0 4.0285452065e-09 8.3642222939e-08 0 9.6229932642e-08 -4.5562970438e-10 0 -5.5505523374e-09 
-3.1471986087e-09 0 4.6573238032e-10 1.8958925897e-08 0 9.8250480338e-09 5.777282727e-08 0 3.3269965051e-08 
4.8652420412e-08 0 1.3996475841e-08 9.3792938064e-09 0 -5.9592786347e-09 -2.0653668602e-09 0 -3.6596195629e-10 
3.6440216607e-08 0 -1.7781098248e-08 -1.6178507094e-10 0 1.8962082145e-09 4.1393540388e-08 0 6.8929578259e-08 
1.9929338288e-08 0 2.4408319608e-09 3.3728559971e-07 0 -2.1908136583e-08 -5.1191654621e-10 0 -3.7574355137e-09 
-2.6268096424e-09 0 1.0147585627e-09 5.0589429449e-08 0 2.0067169056e-08 7.9085741569e-09 0 1.2889453072e-08 
3.5047343318e-09 0 6.2759667454e-09 2.8960743552e-08 0 2.0272917143e-08 4.4585931915e-08 0 3.8527234955e-08 
-2.3195630642e-09 0 -4.1019842222e-09 3.7799982969e-08 0 1.0777354246e-08 1.1859411309e-07 0 2.8575715013e-08 
1.4009458686e-08 0 2.0196050953e-08 3.0656502877e-08 0 -7.0705310461e-09 1.4565499832e-07 0 -2.608311418e-07 
-2.3055790602e-09 0 9.2115018602e-10 2.8597773583e-08 0 2.9969271344e-08 7.3512924652e-08 0 3.0247531599e-08 
7.9053672599e-08 0 6.577836078e-08 2.4060935913e-08 0 1.0189505232e-08 -8.6253471597e-10 0 -1.2698003267e-09 
9.968345076e-10 0 -5.9208732289e-09 2.1981478416e-08 0 -9.4628251572e-11 1.8922674107e-06 0 8.6881412846e-07 
4.2190915937e-09 0 2.8755115324e-09 6.3519497081e-08 0 8.8962372259e-08 -4.5905089146e-10 0 -1.0242733657e-10 
2.2828075257e-09 0 -5.4987834403e-09 2.9451797403e-08 0 4.6703824925e-08 2.0656656855e-09 0 5.0376469707e-09 
2.9375832024e-08 0 2.6411684075e-08 1.754334429e-08 0 -2.8392127502e-09 -8.9670055733e-07 0 -1.8494534144e-06 
-5.6623389541e-10 0 4.3681355231e-09 3.227489435e-10 0 4.3227412221e-09 4.4333833594e-08 0 2.5990813402e-08 
3.2529616016e-08 0 4.5098414062e-08 4.804302702e-08 0 9.5106718154e-09 7.2764693866e-09 0 1.0698268039e-10 
4.4801234535e-08 0 5.5661156908e-08 9.6312239546e-09 0 8.3518478298e-09 6.7676178809e-05 0 2.085198567e-06 
-3.9631502933e-06 0 -1.7429813689e-07 3.7204080488e-05 0 2.4119506608e-06 1.5719131078e-08 0 -4.4989969597e-09 
7.7813327281e-09 0 -1.6355118598e-09 1.0235821743e-08 0 -1.3208442416e-09 8.228643148e-10 0 -3.5614694692e-09 
1.8258570257e-09 0 -3.7531031508e-09 5.1047948307e-09 0 -8.9775509743e-09 -1.5854022648e-10 0 5.6454907952e-11 
-2.2118173523e-10 0 -7.3646121197e-11 -3.7104953567e-10 0 4.4411416661e-11 2.4248778115e-08 0 -1.1990936272e-08 
2.100014819e-08 0 -7.8174492624e-09 2.4958766864e-08 0 -4.7225918315e-09 2.8773474405e-08 0 -1.8532215555e-08 
2.8426087619e-08 0 -1.3706535707e-08 3.5751340305e-08 0 -6.2852743341e-09 9.9833102853e-09 0 -6.0690947134e-08 
2.1899889594e-08 0 -2.9301184004e-08 3.8029662536e-08 0 -8.7725196288e-09 -8.0400124595e-08 0 -2.2159454643e-07 
4.1297845073e-09 0 -1.017662089e-07 3.7639870083e-08 0 -3.6957243067e-09 9.0375100819e-07 0 -2.0844971931e-06 
-3.4155812511e-07 0 -6.3901742277e-07 -7.9690218362e-09 0 -5.5805590285e-08 -1.3885135164e-06 0 5.8547162425e-07 
-3.263492428e-10 0 -3.9636261646e-10 -3.3410049704e-10 0 -8.5003517832e-10 -6.8734152985e-10 0 -5.6693982765e-10 
-4.4273114786e-10 0 -1.5190427289e-09 -3.7894464976e-10 0 -2.1057132553e-09 -9.7512606412e-10 0 -2.122195059e-09 
-1.8629833477e-10 0 -1.9210600348e-09 -8.1133093682e-11 0 -2.3960570831e-09 -7.7672769506e-10 0 -3.581844348e-09 
5.3411738149e-11 0 -3.8298712447e-09 2.9829096336e-10 0 -4.222575725e-09 -2.9216048924e-10 0 -5.0110154305e-09 
4.3962442152e-10 0 -3.3880373443e-09 6.2827567875e-10 0 -3.618446275e-09 5.824430108e-10 0 -6.2186441396e-09 
1.5985693532e-09 0 -5.7783397539e-09 1.1311671185e-08 0 -5.9106130752e-10 1.2119771865e-08 0 -1.9473920174e-10 
2.0305521614e-08 0 -1.1263713129e-09 1.6615426764e-08 0 5.2403321146e-10 1.6354923703e-08 0 1.0807966222e-09 
2.6074349406e-08 0 1.5152944905e-09 1.093219375e-08 0 6.9927012516e-10 1.004895903e-08 0 9.6616126534e-10 
2.5019547644e-08 0 3.1003369496e-09 1.3343834341e-08 0 1.7732325718e-09 1.1647723741e-08 0 1.9442844155e-09 
2.2310008025e-08 0 3.6281068015e-09 9.4526622128e-09 0 1.7704752253e-09 7.6994245941e-09 0 1.8439092376e-09 
2.0063234479e-08 0 4.9171358182e-09 5.6722922964e-09 0 1.6107508699e-09 3.9869640845e-09 0 1.590191945e-09 
1.3134301136e-08 0 4.35490104e-09 2.3420030483e-09 0 1.2428111983e-09 1.1388238408e-09 0 1.1728905567e-09 
6.8741961256e-09 0 3.4009999368e-09 1.9928184638e-11 0 9.1102236076e-10 -7.1098365759e-10 0 7.9280680302e-10 
1.8225932885e-09 0 2.4321390678e-09 -1.1631058255e-09 0 5.3117853313e-10 -1.4339211087e-09 0 4.2922053281e-10 
-1.4828273064e-09 0 1.3662676354e-09 -1.9031762126e-09 0 3.9840255965e-10 -1.8752190642e-09 0 2.6600070046e-10 
-2.7827129033e-09 0 7.1095305312e-10 -1.5163729248e-09 0 7.6252509165e-11 -1.170234178e-09 0 1.0855101041e-11 
-3.5204472956e-09 0 1.2285628994e-10 -2.4192860758e-09 0 1.4414523995e-10 -2.9105939206e-09 0 -4.6778282682e-10 
-8.1584719067e-10 0 2.4357833109e-12 -1.8148332514e-09 0 -5.5070560867e-10 -7.6433113239e-10 0 -5.6985482098e-11 
-8.6189558036e-10 0 -3.6004032672e-10 3.2016710982e-06 0 1.8096118039e-06 1.5098269839e-05 0 2.8854322962e-06 
5.9329539124e-07 0 -2.982121946e-06 3.8526005885e-07 0 4.0311744298e-07 1.2142895521e-06 0 9.6784761667e-07 
7.3465154737e-07 0 3.3408524677e-07 2.9484536759e-07 0 9.2236786725e-08 5.7594111573e-07 0 -1.2069034961e-07 
2.1282310535e-07 0 6.4217522091e-08 1.5278076203e-07 0 1.4189192146e-07 2.1447233554e-07 0 8.1023170455e-08 
2.3399596726e-07 0 1.9166818333e-08 1.1779689694e-07 0 1.4559819938e-07 1.3530394079e-07 0 1.297562725e-07 
1.2987871788e-07 0 1.08002967e-07 8.4504349975e-08 0 1.2652379248e-07 9.8239642217e-08 0 1.3937264967e-07 
9.7525449101e-08 0 1.000828353e-07 6.5040215074e-08 0 9.9019191977e-08 7.2856679203e-08 0 1.1477714117e-07 
7.2739063454e-08 0 9.253813425e-08 4.6588445194e-08 0 6.7925451324e-08 5.2094922047e-08 0 8.9614044316e-08 
5.3734903888e-08 0 8.2236242587e-08 3.523568153e-08 0 2.8950123949e-08 3.9222923331e-08 0 4.2815458195e-08 
3.2713922397e-08 0 4.6354064041e-08 2.442612517e-08 0 7.8698026351e-09 2.9260045905e-08 0 1.8720503697e-08 
2.3726035881e-08 0 1.8695834346e-08 1.3011399025e-08 0 -7.0172088993e-09 1.7593309227e-08 0 -2.2923912385e-09 
1.4758453965e-08 0 3.5729838912e-09 1.9315436566e-08 0 1.5291040814e-09 1.0461770596e-08 0 -3.853737107e-09 
9.3588510853e-09 0 -9.1898987869e-09 6.1752237658e-09 0 -7.2644278192e-09 6.2873237767e-09 0 -9.7130514711e-09 
3.1258222371e-09 0 -6.927478237e-09 5.2881128589e-08 0 4.0272405676e-08 4.2495087973e-08 0 3.4129285879e-08 
5.0116235815e-08 0 3.5430419641e-08 4.2586412411e-08 0 2.8182135659e-08 5.2055594617e-08 0 3.2528871974e-08 
3.4838167749e-08 0 2.8410950336e-08 2.9322715404e-08 0 2.3255853563e-08 3.4531296584e-08 0 2.4890555572e-08 
3.638312735e-08 0 2.3233157273e-08 3.6518529601e-08 0 3.2115325745e-08 -8.5531846047e-10 0 -3.1092032001e-09 
-1.8063301236e-09 0 -4.5524854507e-09 -2.2568460006e-09 0 -2.2605615791e-09 -3.0815462791e-09 0 -1.4347004334e-09 
-1.8823031667e-09 0 5.6731574286e-10 6.1768865842e-10 0 -4.0598604822e-09 5.3480278596e-10 0 -7.7055861016e-10 
9.6234807641e-10 0 2.6240396993e-09 2.6411810095e-09 0 2.1472447552e-09 -1.3798073086e-09 0 2.4055044219e-09 
-4.3398271756e-10 0 2.1223704306e-09 1.7819640453e-09 0 5.2185460866e-09 7.0040104353e-08 0 2.4174121894e-08 
5.9557180658e-08 0 2.3224536495e-08 6.3977006965e-08 0 2.4403748153e-08 5.6370218793e-08 0 3.011535103e-08 
7.1971074925e-08 0 2.2374254075e-08 5.4745596322e-08 0 2.0712487108e-08 5.4080799315e-08 0 2.1070911968e-08 
4.9171909701e-08 0 1.5876572815e-08 5.2328217435e-08 0 2.0143612554e-08 5.2454671964e-08 0 2.3562482092e-08 
4.9597660207e-08 0 2.7991936872e-08 5.1430105932e-08 0 3.0122147379e-08 4.6380757351e-08 0 3.5427689045e-08 
5.078508418e-08 0 1.6786113843e-08 1.1510434736e-08 0 1.421438211e-08 6.1017697945e-09 0 1.0513822579e-08 
9.3785158674e-09 0 1.1379440993e-08 7.054793955e-09 0 8.7418648488e-09 1.2432308442e-08 0 1.1246637459e-08 
3.1658468768e-09 0 8.5223613436e-09 1.8229874088e-09 0 6.902933938e-09 -4.6589828255e-10 0 4.7499121598e-09 
1.6199863595e-09 0 6.1987638278e-09 6.7299507836e-10 0 4.8813876796e-09 3.2145763407e-09 0 6.6384979121e-09 
5.4416183752e-09 0 6.6911976784e-09 1.5477101606e-08 0 2.3757939058e-08 1.5020766232e-08 0 2.3683603053e-08 
2.0117432719e-08 0 3.1610977793e-08 2.4643085203e-08 0 3.7634895742e-08 2.4421019279e-08 0 3.8843918698e-08 
1.7117184634e-08 0 2.4754741267e-08 2.2923299629e-08 0 2.9138125063e-08 2.674902663e-08 0 3.5112123778e-08 
3.9123887527e-08 0 4.5875476278e-08 3.133304731e-08 0 4.2806560519e-08 1.2162355278e-08 0 1.9426501989e-08 
3.7143792498e-08 0 5.2302497855e-08 1.2518655874e-07 0 5.3247421577e-08 1.0562195178e-07 0 7.8176448028e-08 
9.307227068e-08 0 8.4772663884e-08 8.7408897936e-08 0 6.0195765252e-08 1.0001753943e-07 0 2.0812486152e-08 
1.0761412167e-07 0 3.7348040653e-08 9.468838438e-08 0 2.8315402871e-08 8.3936619542e-08 0 3.7891087507e-08 
7.9547202197e-08 0 2.6050058869e-08 6.8717185814e-08 0 3.6861962594e-08 7.6304399771e-08 0 4.5417324732e-08 
6.9794596645e-08 0 5.1472859468e-08 1.428488724e-07 0 4.2187702887e-08 3.1437930326e-08 0 9.1133400188e-09 
2.7171835255e-08 0 8.8590174178e-09 3.0794838e-08 0 1.1903232895e-08 2.0743760512e-08 0 7.3252007434e-09 
5.0014481169e-08 0 1.853910386e-08 4.4229954379e-08 0 1.700340737e-08 4.4164171203e-08 0 1.5366328591e-08 
3.7931611561e-08 0 1.2133103765e-08 4.4040756544e-08 0 1.3906496562e-08 4.3757610792e-08 0 1.9463424729e-08 
3.6949832783e-08 0 1.582190435e-08 2.9693993822e-08 0 1.4086335143e-08 3.1032847235e-08 0 7.8884213031e-09 
-2.7231347281e-09 0 -1.1932595364e-09 -2.1972136922e-09 0 -1.5198884627e-09 -1.8407786414e-09 0 -2.0746293647e-09 
-1.1717812464e-09 0 -1.0799430179e-09 -3.9645047937e-09 0 -8.1619404586e-10 -3.6279518273e-09 0 -2.0112112134e-09 
-3.4544337837e-09 0 -1.2920574916e-09 -2.6821517799e-09 0 -3.2193531474e-09 -1.7631077581e-09 0 -3.7685639797e-09 
-2.0391982569e-09 0 -2.9753085145e-09 -3.5345598493e-09 0 -2.2345325115e-09 -3.1646487729e-09 0 -3.1034628746e-09 
-2.6891187824e-09 0 -3.9879748813e-09 5.9674528416e-09 0 -6.6009778442e-09 3.7868871388e-09 0 -7.5727150395e-09 
2.1144371707e-09 0 -7.0327933101e-09 2.0175628395e-09 0 -7.5561816229e-09 6.5486660299e-09 0 -4.6169153165e-09 
5.0394936642e-09 0 -4.08539326e-09 9.1114815848e-09 0 -5.5304291672e-10 -1.6350472212e-10 0 -6.7260522189e-09 
1.2252638412e-09 0 -6.2562764107e-09 1.0834878074e-09 0 -7.3633283303e-09 2.8536099962e-09 0 -4.5428660989e-09 
4.5145607826e-09 0 -8.4354540134e-10 3.1404829502e-08 0 -3.5962425635e-09 3.868017301e-08 0 -3.7601198211e-10 
3.7595714914e-08 0 1.4107743318e-09 3.4674135733e-08 0 2.1389646239e-09 2.712460343e-08 0 -2.5140146478e-10 
4.3077258914e-08 0 2.4830362788e-09 4.4774069018e-08 0 3.5512670927e-09 4.6746521103e-08 0 7.2483268102e-09 
4.6927166502e-08 0 1.0519080612e-08 4.096072551e-08 0 7.9129425351e-09 3.816251305e-08 0 4.9725348372e-09 
4.9095710912e-08 0 1.1850860463e-08 5.0144101162e-08 0 1.499244894e-08 1.0764505175e-07 0 -4.5869265261e-09 
-8.6550541711e-07 0 2.98394219e-08 -6.9006682285e-08 0 -6.615993268e-08 1.5282005005e-06 0 -7.193902523e-07 
3.7021312365e-07 0 1.0360982811e-07 2.3771461975e-08 0 4.9471964331e-08 3.1824557974e-08 0 7.2028954604e-08 
3.9581075365e-08 0 3.5864203118e-08 1.0089341503e-07 0 5.8907248981e-08 5.045687739e-08 0 5.2491602102e-08 
1.1971300498e-07 0 7.5407149839e-08 3.32773355e-08 0 5.763018858e-08 3.5095245227e-08 0 4.3032010166e-08 
2.2827908685e-08 0 1.4652187588e-08 2.1796784228e-08 0 1.7422549783e-08 1.6485697659e-08 0 1.2282368463e-08 
1.3179641552e-08 0 9.1722781073e-09 3.2463708003e-08 0 1.9375282295e-08 2.5772280709e-08 0 1.3925973873e-08 
2.0563847805e-08 0 1.0059861673e-08 1.6573029902e-08 0 6.839378692e-09 1.3716610752e-08 0 6.6588300784e-09 
9.8150005186e-09 0 5.8405094006e-09 7.0231207108e-09 0 5.410728495e-09 3.9143433172e-08 0 3.87539544e-08 
5.3609687925e-08 0 4.91034636e-08 4.7189355815e-08 0 4.9193106897e-08 5.3880681445e-08 0 5.8834218991e-08 
6.2327415848e-08 0 5.1043381228e-08 7.0273073998e-08 0 6.3529075529e-08 8.1162977409e-08 0 7.9292436161e-08 
7.188346655e-08 0 7.6458148479e-08 6.3094370983e-08 0 7.4669585162e-08 5.5419182353e-08 0 7.2029666281e-08 
1.0274671089e-08 0 1.4006447093e-08 1.5195599545e-08 0 1.9603096995e-08 2.3570513298e-08 0 3.1372855744e-08 
1.8140706255e-08 0 1.8640124538e-08 6.6410056263e-09 0 7.8314749998e-09 5.7812145207e-09 0 2.9779610569e-09 
8.7650281741e-09 0 4.4268667312e-09 6.7033739319e-09 0 1.1241771901e-08 1.431425433e-08 0 9.6188848152e-09 
1.2116664416e-08 0 4.1100714006e-09 -3.1619939922e-09 0 1.261018903e-09 -2.3327584637e-09 0 1.5697678725e-09 
-2.707206481e-09 0 2.1090016639e-09 -1.2474514699e-09 0 3.4092872574e-09 -2.4489810281e-09 0 2.6616658345e-09 
-3.9518923939e-09 0 1.6679538139e-10 -3.9573245596e-09 0 1.7770128401e-10 -3.646682161e-09 0 7.9976076762e-10 
-1.6872269843e-09 0 2.9727670364e-09 -3.2738824404e-09 0 1.2515213624e-09 -2.377412543e-09 0 2.7053546132e-09 
-3.5655507667e-09 0 -3.9247531757e-10 4.4202872529e-08 0 2.884266423e-09 4.1094183521e-08 0 1.6844074881e-08 
4.0517291959e-08 0 3.0683361104e-08 4.5287720769e-08 0 4.6358791614e-09 4.8905842979e-08 0 1.3197871658e-08 
5.1557922538e-08 0 1.931018777e-08 4.3855597152e-08 0 3.2795477092e-08 -8.6208716991e-10 0 -4.9988981088e-09 
-1.346415086e-09 0 -4.4285960699e-09 -1.8236994052e-09 0 -4.8710487607e-09 -1.0952293124e-09 0 -5.9524219521e-09 
-5.3113837438e-10 0 -6.089039098e-09 -2.1018310805e-09 0 -4.87736101e-09 4.3772275804e-08 0 1.0995255365e-08 
4.3923045833e-08 0 1.2784767266e-08 3.781496237e-08 0 9.5744396024e-09 2.9467104419e-08 0 5.0909204527e-09 
3.090959114e-08 0 6.6561007953e-09 3.4065727715e-08 0 5.7731923414e-09 7.7917710345e-08 0 1.7345728781e-08 
9.5546355917e-08 0 1.4725898844e-08 1.1766955944e-07 0 1.1857145752e-08 1.6145564571e-07 0 -1.2017902554e-08 
1.4917839771e-07 0 1.3870674086e-08 1.4770177158e-07 0 6.2702301332e-08 5.3542843056e-08 0 2.2831392351e-08 
4.5299841182e-08 0 2.2665225863e-08 5.0365385007e-08 0 2.6604389806e-08 3.9740382155e-08 0 2.1933311542e-08 
6.3805645536e-08 0 2.8436389917e-08 5.9182202359e-08 0 3.2558001919e-08 5.6210340084e-08 0 2.2255000465e-08 
5.9955288314e-08 0 2.4856581279e-08 6.7149668825e-08 0 2.5693551649e-08 1.2505448771e-08 0 1.6782605137e-08 
1.6729199777e-08 0 1.7834010496e-08 2.1859954519e-08 0 1.9986966094e-08 2.3460079164e-08 0 2.4004899134e-08 
1.5934274803e-08 0 2.1067305755e-08 2.5228989377e-08 0 2.8576806279e-08 3.1522679889e-08 0 3.1702460739e-08 
1.0854678171e-08 0 1.622280657e-08 6.7976431018e-09 0 1.2243442467e-08 2.3722115738e-09 0 7.6326352855e-09 
2.6885098821e-09 0 7.4832925447e-09 -2.8432442721e-11 0 4.7825949966e-09 4.368535725e-09 0 9.0371979541e-09 
8.0858363461e-09 0 1.412268198e-08 9.5367593526e-09 0 1.5550162451e-08 4.4076491936e-09 0 3.7978328515e-09 
1.5300095983e-09 0 3.0997828091e-09 3.1386988025e-09 0 4.9884083138e-09 7.0928980614e-10 0 3.3269870947e-09 
6.698312578e-09 0 6.3722859559e-09 5.5531912893e-08 0 7.8714019254e-08 4.3570129189e-08 0 6.783146881e-08 
3.4648197076e-08 0 5.6753098857e-08 3.7234374592e-08 0 5.6614976488e-08 4.5813138955e-08 0 6.1341797363e-08 
-8.9694970897e-10 0 2.3536752306e-09 -8.5981703338e-11 0 3.6744375321e-09 2.9147802858e-08 0 4.6510121965e-08 
2.3986538724e-08 0 -2.4081155966e-09 -5.5147910652e-07 0 -1.4222663425e-06 0 0 0 
0 0 0 0 0 0 0 0 0 
0 0 0 0 0 0 0 0 0 
0 0 0 0 0 0 0 0 0 
0 0 0 0 0 0 0 0 0 
0 0 0 0 0 0 0 0 0 
0 0 0 0 0 0 0 0 0 
0 0 0 0 0 0 0 0 0 
0 0 0 0 0 0 0 0 0 
0 0 0 0 0 0 0 0 0 
0 0 0 0 0 0 0 0 0 
0 0 0 0 0 0 0 0 0 
0 0 0 0 0 0 0 0 0 
0 0 0 0 0 0 0 0 0 
0 0 0 0 0 0 0 0 0 
0 0 0 0 0 0 0 0 0 
0 0 0 0 0 0 0 0 0 
0 0 0 0 0 0 0 0 0 
0 0 0 0 0 0 0 0 0 
0 0 0 0 0 0 0 0 0 
0 0 0 0 0 0 0 0 0 
0 0 0 0 0 0 0 0 0 
0 0 0 0 0 0 0 0 0 
0 0 0 0 0 0 0 0 0 
0 0 0 0 0 0 0 0 0 
0 0 0 0 0 0 0 0 0 
0 0 0 0 0 0 0 0 0 
0 0 0 0 0 0 0 0 0 
0 0 0 0 0 0 0 0 0 
0 0 0 0 0 0 0 0 0 
0 0 0 0 0 0 0 0 0 
0 0 0 0 0 0 0 0 0 
0 0 0 0 0 0 0 0 0 
0 0 0 0 0 0 0 0 0 
0 0 0 0 0 0 0 0 0 
0 0 0 0 0 0 0 0 0 
0 0 0 0 0 0 0 0 0 
0 0 0 0 0 0 0 0 0 
0 0 0 0 0 0 0 0 0 
0 0 0 0 0 0 0 0 0 
0 0 0 0 0 0 0 0 0 
0 0 0 0 0 0 0 0 0 
0 0 0 0 0 0 0 0 0 
0 0 0 0 0 0 0 0 0 
0 0 0 0 0 0 0 0 0 
0 0 0 0 0 0 0 0 0 
0 0 0 0 0 0 0 0 0 
0 0 0 0 0 0 0 0 0 
0 0 0 0 0 0 0 0 0 
0 0 0 0 0 0 0 0 0 
0 0 0 0 0 0 0 0 0 
0 0 0 0 0 0 0 0 0 
0 0 0 0 0 0 0 0 0 
0 0 0 0 0 0 0 0 0 
0 0 0 0 0 0 0 0 0 
0 0 0 0 0 0 0 0 0 
0 0 0 0 0 0 0 0 0 
0 0 0 0 0 0 0 0 0 
0 0 0 0 0 0 0 0 0 
0 0 0 0 0 0 0 0 0 
0 0 0 0 0 0 0 0 0 
0 0 0 0 0 0 0 0 0 
0 0 0 0 0 0 0 0 0 
0 0 0 0 0 0 0 0 0 
0 0 0 0 0 0 0 0 0 
0 0 0 0 0 0 0 0 0 
0 0 0 0 0 0 0 0 0 
0 0 0 0 0 0 0 0 0 
0 0 0 0 0 0 0 0 0 
0 0 0 0 0 0 0 0 0 
0 0 0 0 0 0 0 0 0 
0 0 0 0 0 0 0 0 0 
0 0 0 0 0 0 0 0 0 
0 0 0 0 0 0 0 0 0 
0 0 0 0 0 0 0 0 0 
0 0 0 0 0 0 0 0 0 
0 0 0 0 0 0 0 0 0 
0 0 0 0 0 0 0 0 0 
0 0 0 0 0 0 0 0 0 
0 0 0 0 0 0 0 0 0 
0 0 0 0 0 0 0 0 0 
0 0 0 0 0 0 0 0 0 
0 0 0 0 0 0 0 0 0 
0 0 0 0 0 0 0 0 0 
0 0 0 0 0 0 0 0 0 
0 0 0 0 0 0 0 0 0 
0 0 0 0 0 0 0 0 0 
0 0 0 0 0 0 0 0 0 
0 0 0 0 0 0 0 0 0 
0 0 0 0 0 0 0 0 0 
0 0 0 0 0 0 0 0 0 
0 0 0 0 0 0 0 0 0 
0 0 0 0 0 0 0 0 0 
0 0 0 0 0 0 0 0 0 
0 0 0 0 0 0 0 0 0 
0 0 0 0 0 0 0 0 0 
0 0 0 0 0 0 0 0 0 
0 0 0 0 0 0 0 0 0 
0 0 0 0 0 0 0 0 0 
0 0 0 0 0 0 0 0 0 
0 0 0 0 0 0 0 0 0 
0 0 0 0 0 0 0 0 0 
0 0 0 0 0 0 0 0 0 
0 0 0 0 0 0 0 0 0 
0 0 0 0 0 0 0 0 0 
0 0 0 0 0 0 0 0 0 
0 0 0 0 0 0 0 0 0 
0 0 0 0 0 0 0 0 0 
0 0 0 0 0 0 0 0 0 
0 0 0 0 0 0 0 0 0 
0 0 0 0 0 0 0 0 0 
0 0 0 0 0 0 0 0 0 
0 0 0 0 0 0 0 0 0 
0 0 0 0 0 0 0 0 0 
0 0 0 0 0 0 0 0 0 
0 0 0 0 0 0 0 0 0 
0 0 0 0 0 0 0 0 0 
0 0 0 0 0 0 0 0 0 
0 0 0 0 0 0 0 0 0 
0 0 0 0 0 0 0 0 0 
0 0 0 0 0 0 0 0 0 
0 0 0 0 0 0 0 0 0 
0 0 0 0 0 0 0 0 0 
0 0 0 0 0 0 0 0 0 
0 0 0 0 0 0 0 0 0 
0 0 0 0 0 0 0 0 0 
0 0 0 0 0 0 0 0 0 
0 0 0 0 0 0 0 0 0 
0 0 0 0 0 0 0 0 0 
0 0 0 0 0 0 0 0 0 
0 0 0 0 0 0 0 0 0 
0 0 0 0 0 0 0 0 0 
0 0 0 0 0 0 0 0 0 
0 0 0 0 0 0 0 0 0 
0 0 0 0 0 0 0 0 0 
0 0 0 0 0 0 0 0 0 
0 0 0 0 0 0 0 0 0 
0 0 0 0 0 0 0 0 0 
0 0 0 0 0 0 0 0 0 
0 0 0 0 0 0 0 0 0 
0 0 0 0 0 0 0 0 0 
0 0 0 0 0 0 0 0 0 
0 0 0 0 0 0 0 0 0 
0 0 0 0 0 0 0 0 0 
0 0 0 0 0 0 0 0 0 
0 0 0 0 0 0 0 0 0 
0 0 0 0 0 0 0 0 0 
0 0 0 0 0 0 0 0 0 
0 0 0 0 0 0 0 0 0 
0 0 0 0 0 0 0 0 0 
0 0 0 0 0 0 0 0 0 
0 0 0 0 0 0 0 0 0 
0 0 0 0 0 0 0 0 0 
0 0 0 0 0 0 0 0 0 
0 0 0 0 0 0 0 0 0 
0 0 0 0 0 0 0 0 0 
0 0 0 0 0 0 0 0 0 
0 0 0 0 0 0 7.5449983273e-08 3.164175318e-09 5.8039742538e-08 
3.0311556504e-08 -1.4468584515e-09 1.3254544482e-08 7.7430168213e-07 2.7008153953e-07 3.5042497357e-07 5.4074400957e-08 -7.3516836891e-10 3.6860041726e-08 
5.4230128528e-08 5.0146573828e-09 5.1408912173e-08 1.0512632456e-07 -1.3588299483e-08 3.7545103355e-08 2.7791198037e-07 1.7629787563e-08 3.3454531206e-07 
1.6439657005e-08 -1.7827150064e-09 -3.2314983894e-09 1.5017222621e-08 -5.2954471839e-10 3.3530727851e-09 2.3056506152e-05 -3.7567691232e-06 4.2388856529e-06 
4.6256054441e-07 -7.3495069783e-09 9.3738176505e-08 7.6779431098e-08 -9.3149242164e-09 5.4573178969e-08 1.3927587499e-07 1.2665010099e-08 2.2952953934e-07 
3.3084732875e-08 1.0345802513e-09 2.0530053976e-08 3.5462489657e-08 2.328151913e-10 1.7779027242e-08 1.5972175704e-05 -1.9701032214e-06 8.5674769109e-06 
1.3762684212e-08 -1.7719646183e-09 -9.5316266107e-09 8.3223467941e-07 2.105589599e-07 -6.9915330267e-08 -5.630754186e-08 1.2872622397e-07 -2.6626070322e-08 
3.1809696646e-07 1.9608958524e-08 2.70073404e-07 8.8382128656e-08 1.4440543682e-08 1.2042203265e-07 4.2344606399e-08 1.5043516819e-09 2.412942293e-08 
8.2006319574e-08 1.2072523719e-09 1.1278866932e-07 9.2357056222e-08 -6.9812271415e-10 1.497966996e-07 4.8935844168e-08 -1.1553594188e-09 3.9527288871e-08 
4.9031499043e-08 3.5718091113e-09 4.4984477625e-08 1.1819928927e-07 -1.1307794271e-08 8.20221138e-08 1.9142291182e-07 1.108889853e-08 2.9388115237e-07 
8.3380445652e-09 -1.2114811022e-09 -8.5527720149e-09 7.2296741636e-09 -8.9313067582e-10 1.0905741139e-09 2.2292039729e-08 3.1738454925e-10 9.4316701395e-09 
2.2468920166e-08 -4.8103392816e-10 7.0801816538e-09 2.4399777393e-06 4.9111534327e-07 6.352943596e-07 5.4480726749e-05 -5.2729021524e-06 1.9260418812e-05 
1.220113649e-07 7.5919703758e-08 -2.2129879101e-08 5.4326336928e-07 1.776654111e-07 3.8497071003e-07 7.1902689466e-09 -8.7674151922e-10 -9.8828035056e-09 
5.6376172326e-09 -7.83915983e-10 1.4467490881e-09 1.1894907319e-05 1.4672842621e-05 1.9978146949e-05 6.0491036043e-05 4.6810743524e-07 2.2134724822e-05 
6.7130253904e-08 -4.0029435828e-09 4.9163371246e-08 7.1362816367e-08 1.0825543306e-08 7.2986380395e-08 8.5674411725e-08 1.380026144e-08 5.198194243e-08 
1.0221924008e-07 1.0208750668e-08 8.9673718388e-08 3.2126679275e-07 1.1358987099e-08 2.8472194284e-07 3.577863234e-07 8.1086294337e-08 2.9679283884e-07 
1.8713194567e-08 -2.2115407281e-09 4.1628547727e-09 4.3055975245e-06 -1.3519001136e-06 1.2629428919e-06 1.9199494414e-06 -7.0920495873e-07 1.0210599453e-06 
3.4186741426e-08 -1.1967698867e-09 8.8711794737e-09 5.8690717428e-08 1.0810972716e-09 4.2987993779e-08 4.6584793307e-06 7.624882248e-07 2.3506184844e-06 
6.2704354666e-06 1.5310482617e-06 2.7678468632e-06 4.2070669095e-08 2.6369861888e-09 3.0080835232e-08 2.3430150514e-08 -9.748122431e-10 8.5882532003e-09 
2.9052919395e-07 2.2435222667e-08 5.9918085719e-08 1.2561701491e-07 5.5047472307e-09 2.4418527833e-07 9.4559655217e-08 -9.9245160418e-09 7.6727107258e-08 
1.8942073266e-08 -3.3200144753e-09 3.5596838694e-09 3.224414328e-08 4.9252406136e-10 2.1919824811e-08 3.1792594764e-08 -5.4625435069e-10 1.5045202849e-08 
3.5839507448e-07 8.2731810782e-08 7.2081409699e-08 4.5577321317e-06 1.9092840327e-06 1.5749691995e-06 1.3603039414e-08 4.9932369292e-11 1.1044052061e-09 
1.4421337676e-08 -4.5089231214e-10 1.2092711734e-09 2.9530960464e-08 -2.6591368386e-10 1.5014635395e-08 8.400217187e-05 3.1008779208e-05 1.5011255716e-05 
6.2739169361e-08 7.1709168874e-09 8.798540384e-08 7.4184557251e-08 -2.2436863561e-09 1.0727094021e-07 8.5311586855e-07 -6.0169551009e-08 6.2757302305e-08 
4.7086711319e-07 -1.9974655533e-08 -4.6803540735e-08 3.4838862249e-09 -3.7077636915e-10 1.9791089752e-11 2.2183128404e-07 4.0170840861e-08 8.2080280815e-08 
6.4098619846e-08 6.9342162513e-09 4.1451519386e-08 7.3024491835e-08 -3.8518486325e-09 4.8153148234e-08 8.9603061255e-08 9.0540333926e-09 7.6221296963e-08 
1.2238715331e-08 -1.8326926126e-09 -2.1601065441e-09 3.3863306995e-07 1.5577910112e-07 3.9568728547e-07 1.601758943e-07 9.2335431609e-08 1.3503161217e-07 
5.5487815101e-08 4.1585721126e-09 4.7294584311e-08 8.5474851981e-05 1.365155842e-06 3.7950472175e-05 2.7457653935e-06 -1.4375581593e-06 4.3076202352e-07 
4.4009694545e-08 -1.5591185692e-09 2.9423721137e-08 4.7359536768e-08 1.4058008987e-09 4.054971655e-08 4.6832949188e-08 3.091830921e-10 2.3556236181e-08 
1.0705701606e-07 -2.8641990102e-10 1.884444665e-08 8.9596938478e-08 -1.2349113153e-08 5.2238194959e-08 1.4980522429e-07 9.2363518731e-09 1.6745360371e-07 
4.6964379136e-09 -1.209866581e-09 -8.4245128677e-09 5.5163694336e-09 -1.4152619739e-09 -1.0961934675e-08 3.0837546341e-05 -4.1469850276e-06 1.20298475e-05 
7.9291350919e-06 -7.9743931516e-07 6.8665057075e-07 7.9667546213e-08 -2.0904297588e-09 8.1576070411e-08 9.1631998608e-08 5.6600861551e-09 1.7789621502e-07 
3.911426993e-09 -2.8468281937e-10 -7.5384214796e-09 2.8538341253e-09 -9.7179314917e-10 5.7804209153e-11 6.3983548478e-08 7.311396447e-09 7.2996337559e-08 
5.8394899998e-08 -1.4835259842e-09 5.1396627382e-08 7.1016736079e-08 6.1433930334e-09 5.7653946226e-08 2.2700676457e-05 1.9258784022e-06 -6.3424862393e-07 
8.3426329444e-05 -1.9117443545e-06 2.8366180845e-05 4.4771508516e-08 -1.1618668256e-09 2.8461761379e-08 1.1705621916e-07 -5.2378046125e-09 8.2972887362e-08 
3.9072000988e-06 2.3588049024e-06 4.1474757426e-06 2.8470871778e-05 1.9685267546e-06 2.1754793724e-05 2.6703205268e-08 -2.2170818703e-10 9.8738982763e-09 
6.8386034324e-08 -2.7705931948e-09 5.4981866294e-08 8.725329297e-08 5.3552298501e-09 1.0406764244e-07 9.2023248368e-05 -2.1673046794e-07 3.9446053241e-05 
0.00013595061183 -8.4174594873e-06 2.8613158251e-05 0.00013362963222 6.4540435719e-07 3.2341657022e-05 0.00012890551579 1.4241226421e-05 2.5040775927e-05 
4.1821461083e-05 9.1821425027e-06 2.8217435509e-05 0.00013952979293 -4.151379465e-07 7.9437220956e-05 1.7900761251e-09 -2.2516030816e-10 -4.7042121088e-09 
1.7438390461e-09 -9.9099005607e-11 -4.9498325872e-09 5.17617501e-09 -2.0718628498e-10 -8.3756636339e-09 1.6271546566e-09 -1.478709516e-09 -2.9195152876e-10 
8.0394589891e-10 -8.1935682841e-10 1.198875742e-09 5.6383706891e-09 -2.469442595e-09 -3.1551757662e-09 2.0876253637e-09 -6.8787811974e-10 -5.2823314321e-09 
2.0363798508e-09 -5.2894614467e-10 -5.1639620878e-09 4.1392879047e-09 -8.7513873026e-10 -7.6726990112e-09 3.0847733475e-09 -1.2460355342e-10 -7.0766534737e-09 
2.9622960876e-09 -8.3925499659e-10 -6.6242797702e-09 5.8588293273e-09 -1.2345593861e-09 -9.1418966198e-09 1.1332512407e-09 -5.0527996743e-10 1.1688596181e-09 
1.1903390579e-09 -2.6155746202e-10 4.5861861443e-10 6.4510605417e-09 -9.9544267133e-10 -3.1711632652e-09 2.2778779986e-09 -3.6962172809e-10 5.5042540973e-10 
1.9538661953e-09 -3.7275898856e-10 1.6045466689e-09 4.7917621077e-09 -4.1872991955e-10 9.9307742424e-10 3.0413850071e-09 -3.2703725626e-10 -6.9920758983e-09 
2.5186903445e-09 -1.5355934918e-09 -6.3793877764e-09 4.7582682935e-09 -9.5763231434e-10 -1.4320942399e-09 2.7491678045e-09 -8.1190034085e-10 -1.5499951454e-09 
2.8009449186e-05 -2.9893075371e-06 1.3335904621e-05 5.0512380172e-05 -1.1477685214e-06 2.6604026322e-05 5.4606361387e-05 -6.5687851379e-07 2.5582835323e-05 
5.3401487019e-06 -4.7568155506e-07 1.8326419174e-06 1.3782857358e-05 -3.9904942707e-07 1.1474853716e-05 1.5022717321e-05 -7.6089307601e-07 1.1338488101e-05 
5.6261298547e-07 -8.7468101532e-08 3.3487903183e-07 2.2721129578e-06 3.2742647568e-08 1.0847995533e-06 1.757924297e-06 -2.9365815761e-07 9.6548228204e-07 
2.855179114e-07 5.5558246932e-09 3.2653929089e-07 3.032286853e-07 -5.8298558881e-09 3.083452527e-07 3.6012372852e-07 2.1057504751e-08 3.3904494399e-07 
1.5372075938e-07 2.8161030982e-09 2.8917613606e-07 2.0003163373e-07 -2.0738463796e-10 3.2464427171e-07 2.4594856597e-07 7.9956300314e-09 3.2411216488e-07 
1.0798455897e-07 4.1879108025e-10 2.1946629042e-07 1.2694693287e-07 1.8825282345e-09 2.5745716005e-07 1.5816531927e-07 8.6088799174e-09 2.7187429369e-07 
8.2637968809e-08 9.6050149613e-10 1.5042094149e-07 9.433427735e-08 2.1427930378e-09 1.875003617e-07 1.0458160523e-07 5.7129255686e-09 2.0977524417e-07 
6.9197041112e-08 6.2860810943e-10 9.3615774677e-08 7.4981688647e-08 -1.4185965322e-09 1.1695754775e-07 8.2237342154e-08 -5.0268469092e-10 1.3821400899e-07 
4.2891114374e-08 -9.292902212e-10 3.8408885676e-08 5.2251953037e-08 -1.7101786035e-09 5.5933521982e-08 5.8997079992e-08 -7.1568958381e-10 6.7142669272e-08 
2.9729436476e-08 -2.8162142655e-10 1.8495965598e-08 3.703503841e-08 -1.2650876217e-09 2.9084507964e-08 3.9637202384e-08 9.3570094777e-10 3.0270283273e-08 
1.428351001e-08 8.1977810705e-10 1.3876531104e-09 1.9864328342e-08 1.2589114242e-10 6.6997640444e-09 2.6660396326e-08 7.9738944279e-10 1.443008779e-08 
2.4144098505e-08 -2.3008652621e-10 1.2066150073e-08 1.7790933436e-08 2.45688249e-10 4.9864162262e-09 1.0138824055e-08 6.7391426036e-10 -3.3995518838e-09 
1.062550849e-08 -5.1880180639e-10 -3.1916328515e-09 7.1652987582e-09 -5.7182548183e-10 -8.2347273907e-09 5.9628013049e-09 -6.9830040306e-10 -8.5724313925e-09 
2.3324711883e-05 -4.141904926e-06 1.4949724192e-05 7.3002955912e-06 -5.7564188643e-07 2.292678891e-06 1.2218234006e-05 -2.1822669671e-06 6.516470549e-06 
4.1300585564e-06 -8.4130635307e-07 3.3964011834e-06 1.8668846067e-06 1.0685796478e-08 5.7325647695e-07 4.1509932581e-06 -4.0403739527e-07 2.5737825596e-06 
8.7169525485e-07 -1.273935094e-07 4.8233470592e-07 2.9632453237e-07 -4.7319254077e-09 4.914927522e-08 9.5748570816e-07 -2.2864752369e-07 5.900037298e-07 
1.0312041548e-07 -2.9381001523e-08 2.1196627531e-07 2.2000208326e-07 6.3988730749e-08 2.0217108128e-07 3.7643683386e-07 -6.4162379027e-08 7.5175276492e-08 
1.6127932971e-07 1.7875427161e-08 1.2066278272e-07 1.2185718574e-07 3.3442537354e-09 1.0375988701e-07 1.851359208e-07 1.6589850867e-08 1.6562362662e-07 
1.0409748496e-07 8.1769948266e-09 1.090958328e-07 9.0398083519e-08 4.7806562786e-09 9.8152399435e-08 1.0786169241e-07 -1.2127363632e-08 7.7331356121e-08 
8.2168643042e-08 9.9469345073e-09 9.9204979441e-08 6.7102408294e-08 7.4512194847e-09 8.9020537731e-08 8.5825884903e-08 -8.1612865065e-09 7.5135468815e-08 
6.673688285e-08 3.7773093421e-09 1.0024121257e-07 6.1662980869e-08 3.0691673295e-09 7.6325739137e-08 7.0249170608e-08 6.1499458164e-09 8.3621521592e-08 
5.2176382306e-08 1.0362999641e-09 4.143705221e-08 4.3398373782e-08 5.6922499848e-10 2.7976826804e-08 5.32433192e-08 1.3175162748e-09 4.9346765833e-08 
3.6722404515e-08 1.4984100788e-10 1.9682467188e-08 3.0552038029e-08 -3.626918674e-10 1.1431298284e-08 3.7836048456e-08 -9.7871137397e-10 2.1351370838e-08 
2.1647264259e-08 -1.0943923228e-09 3.1739096041e-09 1.5663696065e-08 -2.0220910246e-09 4.2227532974e-10 2.6871422195e-08 -5.1958820064e-10 1.0426986512e-08 
2.5145885549e-08 -7.5795904124e-10 7.177812665e-09 1.8263041684e-08 -4.7813584093e-10 4.0194560765e-09 1.069648626e-08 -1.8345473921e-09 -2.5520543107e-09 
1.0713402194e-08 -7.0587187723e-10 8.3596042683e-10 6.5403327066e-09 -2.085369126e-09 -1.9408989737e-09 4.5834795536e-09 -8.252626467e-10 4.8453718189e-10 
0.00014257945705 -6.394035537e-06 3.1332206783e-05 0.00012833221286 -8.4612933601e-06 4.212152499e-05 0.00010141751234 1.9301519059e-06 2.8263050947e-05 
0.00012296059367 -1.070313171e-05 2.852387912e-05 0.00012816003947 5.8681793654e-06 4.0317906839e-05 7.4252917532e-05 -5.1344093837e-06 1.9688357945e-05 
0.000141563551 2.0136240373e-05 1.2220235669e-05 0.0001324913156 4.4527996858e-05 3.0552799446e-05 7.8674689896e-05 1.7167535235e-05 4.306420193e-05 
0.0001469551346 2.1132383757e-05 8.8039013601e-05 0.00014118812247 4.6315956789e-06 8.7684070843e-05 5.7918355282e-05 2.8095937019e-05 2.5106265035e-05 
0.00013371276385 1.7824038503e-05 9.2253101308e-05 0.00014073567633 1.2904993016e-05 9.0692833544e-05 5.2951970693e-06 2.7143476395e-06 5.2623159148e-06 
1.1658028455e-05 1.6866820049e-06 1.4032655695e-06 7.5427765377e-08 4.4394867352e-11 5.2840063587e-08 7.7508764876e-08 1.0816314549e-09 4.9619689929e-08 
8.6485021226e-08 8.810623518e-09 5.8442947181e-08 1.0288676876e-07 2.28981103e-08 8.0575056376e-08 8.5559122551e-08 6.0158826895e-09 6.6298256259e-08 
7.245014835e-08 4.9675657784e-09 5.7272733168e-08 7.2587038433e-08 9.7013530237e-10 5.1665156525e-08 7.5182397502e-08 9.3617545626e-09 6.6178612741e-08 
8.0133079328e-08 7.4110731083e-09 6.6615088785e-08 1.0148922551e-07 1.9800043629e-09 7.9920779072e-08 3.4650933982e-08 1.8895439525e-10 1.9177975729e-08 
2.9390919844e-08 -1.0050470837e-09 1.379425779e-08 3.6023922235e-08 -1.8189446975e-11 1.8433727476e-08 3.5599656293e-08 -7.2907413214e-10 1.652458976e-08 
4.234840525e-08 2.8381666505e-09 2.2266376842e-08 1.8781055088e-08 -2.8715401074e-09 3.7429767913e-09 2.4610962164e-08 -3.1455597006e-09 7.8706136105e-09 
2.3978386244e-08 -2.4157155415e-09 8.254069625e-09 2.3753866146e-08 -1.7372364252e-09 8.9063288415e-09 2.5562216714e-08 -3.2100364609e-09 6.5248839634e-09 
3.1962438789e-08 -1.6390627365e-09 1.1145733728e-08 4.0389026855e-08 -5.6513190138e-10 1.6062928412e-08 4.4592431671e-07 1.1842126793e-07 1.5119387239e-07 
1.4217918688e-07 6.3674811595e-08 2.5920871618e-08 2.3667250032e-07 1.0642390393e-07 1.3688851102e-07 2.5088875769e-07 1.2564675962e-07 -1.5932130469e-08 
6.541675576e-07 4.0509881734e-07 4.0652952532e-07 4.4267554504e-07 9.237491322e-08 1.8506996464e-07 8.5936690828e-07 4.6291992552e-07 4.9102595356e-07 
2.4376699412e-06 8.0404855112e-07 1.6259750257e-06 2.1490417728e-06 7.178363109e-07 9.919185649e-07 5.1782851469e-06 7.6704926272e-07 3.5815454997e-06 
2.8864379947e-06 5.659510668e-07 1.6670099249e-06 2.3953707778e-06 4.0240678205e-07 1.6841693028e-06 1.4195867976e-06 9.1257446708e-07 1.2054208656e-06 
5.0205680784e-06 1.7389249789e-06 2.7181504533e-06 6.385028099e-08 5.296657286e-09 4.8954518105e-08 5.713896485e-08 2.7467768047e-09 3.6035937619e-08 
5.8308790872e-08 5.7059197198e-10 4.3249042609e-08 5.8617185377e-08 -3.4364641667e-09 4.5704857327e-08 6.569593891e-08 -3.753662155e-09 4.914546991e-08 
5.8949714314e-08 5.2622574259e-09 3.6080295261e-08 5.2531170754e-08 9.9882104608e-10 3.2366187294e-08 5.0018319127e-08 -1.7734111696e-10 3.3030145525e-08 
4.9683485152e-08 -1.0046690425e-09 3.2490134644e-08 4.9802373521e-08 -2.0391661007e-09 3.7501292224e-08 5.4477154559e-08 -2.4753279487e-09 3.9609097804e-08 
6.5329682345e-08 -4.8457090645e-09 5.9342468183e-08 4.5085031122e-08 3.3817462569e-09 3.6840789797e-08 4.7775070018e-08 3.6022815384e-09 3.9955673916e-08 
5.1895755654e-08 4.7911894067e-09 4.9298741293e-08 5.7951471433e-08 7.0543585159e-09 6.0238735128e-08 5.6148004775e-08 5.173537679e-09 5.8108541583e-08 
5.4234076214e-08 3.9435533345e-09 4.7601157007e-08 6.3922537917e-08 8.3787362174e-09 5.8941912206e-08 6.2417032588e-08 8.0862735587e-09 6.4020855893e-08 
7.7034975205e-08 8.9890584469e-09 8.5281629923e-08 6.6752022286e-08 7.9484898659e-09 7.4471079514e-08 4.7504047752e-08 2.6964054953e-09 3.6948089551e-08 
7.3852134328e-08 5.387232961e-09 9.1639756186e-08 1.2518034587e-07 1.4878804191e-08 1.0087880779e-07 9.6674842404e-08 -1.0223055793e-08 6.970425628e-08 
9.545131248e-08 -1.2284045032e-08 5.1769859262e-08 9.8241832748e-08 -1.243215487e-08 6.7831523837e-08 1.2632897301e-07 1.2570940866e-08 7.784550056e-08 
1.0438391448e-07 9.8225319652e-08 2.2063464592e-09 8.9690741813e-08 3.7675402238e-08 4.2589325067e-08 1.0214462331e-07 3.909422844e-08 1.3093527701e-08 
8.4690152372e-08 -8.675162397e-10 2.7041308606e-08 8.652202609e-08 1.1967736317e-08 6.6851489331e-08 9.2486499503e-08 -5.2556052166e-09 5.6805192731e-08 
8.3665596322e-08 -4.5299928672e-09 4.8984387312e-08 2.5206976958e-07 -3.0216562903e-09 1.7985408118e-07 3.084343677e-07 1.2935535141e-08 3.1172213303e-07 
2.2929387769e-07 1.5802003929e-08 3.0395097878e-07 1.7385297717e-07 8.445757053e-09 2.3121372913e-07 1.851599709e-07 1.4525913624e-08 2.2976920308e-07 
1.7623132949e-07 5.4284701944e-10 1.5899486324e-07 3.5298050245e-07 4.0670848785e-08 2.2994316854e-07 3.4731651274e-07 6.500745868e-08 3.9305569459e-07 
4.4501530634e-07 1.8063712641e-07 3.5489780907e-07 2.4502833437e-07 6.8401018577e-08 2.7728349689e-07 1.2294630774e-07 8.614234343e-09 1.2798272227e-07 
1.6384831831e-07 2.4930040191e-08 1.6842735497e-07 1.2168435644e-07 7.8201995617e-09 1.2393338912e-07 3.0658629336e-07 6.3193587132e-08 2.6676789382e-07 
1.4143003774e-08 -6.8449766149e-10 -5.4422133663e-10 1.2115193097e-08 -1.5295584475e-09 -6.0434635232e-09 6.4745514764e-09 -1.2970121658e-09 -8.9034404716e-09 
9.8569195644e-09 -1.5189647697e-09 -7.8781622223e-09 1.9466162081e-08 -1.5987913487e-09 2.9336343208e-09 2.2772076872e-08 -2.7307163626e-10 8.8506382255e-09 
1.8476882608e-08 -5.7085748581e-10 3.3024237768e-09 9.2373720925e-09 -1.7697894698e-09 -5.8082937546e-09 1.3798340701e-08 -1.9663021324e-09 -2.436633138e-09 
1.1310136623e-08 -1.5003481028e-09 -8.0055746611e-09 2.0664370337e-08 -1.6536625049e-09 6.1278820052e-09 1.6459295347e-08 -2.0751642208e-09 1.4315207739e-09 
1.5290741093e-08 -2.2784355182e-09 1.2366952582e-09 1.4359788953e-08 -3.9817761554e-10 2.7596008638e-09 1.0661963797e-08 -5.2799813396e-10 1.675327433e-09 
9.2276315771e-09 -6.6843942772e-10 -5.7148254133e-10 5.402553932e-09 -1.0055064882e-09 -3.0978539643e-09 1.866582906e-08 -4.1022311094e-10 4.9866309311e-09 
2.4326372386e-08 -3.2036544942e-10 8.294113151e-09 2.0540110879e-08 -2.3959043798e-10 5.8827081695e-09 1.6711192348e-08 -1.3546719493e-09 3.4086271937e-09 
1.1409506708e-08 -1.4305775437e-09 1.4201659776e-09 9.9332660931e-09 -7.8716562475e-10 1.6464636235e-09 2.236962249e-08 -2.7398053456e-10 6.0397638805e-09 
2.9366038795e-08 -7.0909932789e-10 9.4207903953e-09 5.101342366e-05 3.5245841019e-07 3.5821276738e-05 7.3857873249e-05 -2.3909640922e-07 2.7804639814e-05 
3.662010177e-05 -3.4126083455e-06 2.6445144824e-05 4.1868881503e-05 -3.7448749729e-06 1.8564940637e-05 2.5752836771e-05 -3.0379189708e-06 2.1402582335e-05 
4.022258216e-05 2.413824224e-06 2.961944346e-05 2.7786665311e-05 5.7791548562e-07 1.828799948e-05 4.3652205659e-05 1.4840725263e-06 2.4183908873e-05 
5.3158288844e-06 3.7938314247e-07 4.2212756662e-06 1.2131346488e-05 9.0936405267e-07 7.3913580238e-06 1.1898853397e-05 -2.6883018374e-06 5.1872114782e-06 
1.5409646582e-05 -1.2614751218e-06 1.0135213104e-05 1.6833446951e-05 1.7352590634e-06 1.3850144398e-05 2.7835226709e-06 -7.0123905992e-07 3.7993819623e-07 
1.6445556323e-06 -2.3947230253e-07 6.6929695117e-07 1.286982681e-06 2.779574592e-07 3.4800558807e-07 2.1472376335e-06 6.6793333561e-08 6.8607395087e-07 
4.921106843e-06 -2.1596677413e-07 4.1281735188e-07 3.5580679196e-06 2.9005363932e-06 4.1140120339e-06 6.4434189433e-06 8.2899414202e-06 8.8002172449e-06 
1.6317473014e-06 1.2132648074e-07 9.2780172177e-07 4.5629828286e-07 1.3390553882e-07 1.6065467736e-08 3.6760897946e-07 1.0497907897e-07 1.3028593748e-07 
7.5088702804e-07 -4.0875696993e-07 2.621492625e-07 1.7576749411e-06 2.8195735493e-07 6.4472196637e-07 3.8102860884e-06 1.313647482e-06 1.9634490734e-06 
7.2694926577e-08 -7.2862220136e-09 4.8458199396e-08 7.0427316197e-08 -3.9113337026e-09 4.7893367307e-08 6.9814753923e-08 -5.9013799793e-09 4.8992781286e-08 
7.2456784519e-08 -6.6586365537e-09 5.308634205e-08 7.9414791031e-08 -5.4230065608e-09 4.86569565e-08 8.2766904787e-08 -1.1924095588e-08 5.3407890733e-08 
9.1705713612e-08 -1.3478007117e-08 6.5903075107e-08 8.4401172211e-08 -1.1083172605e-08 6.3909603556e-08 8.0199639111e-08 -8.2969037868e-09 6.3925044273e-08 
7.9459706072e-08 -2.8475885569e-09 6.9865348975e-08 1.2645269052e-07 1.2449828421e-08 2.4328763145e-07 1.5982997237e-07 2.3715224966e-08 2.581449781e-07 
1.4714938675e-07 7.1632146221e-09 1.905659724e-07 7.959032252e-08 1.2013239673e-08 7.7745971091e-08 9.3525474256e-08 5.3578185967e-09 1.1821017737e-07 
8.929558667e-08 1.2890656029e-08 1.112641545e-07 1.0622630492e-07 7.8486323532e-09 1.4939765825e-07 9.6313768146e-08 5.9001624683e-09 8.6136282961e-08 
1.1452291489e-07 1.8533529279e-09 1.385364801e-07 1.0309264464e-07 1.3323392466e-08 2.0147665787e-07 8.4880279823e-08 2.6170685347e-09 1.4815599197e-07 
3.7320919932e-08 1.8548676947e-09 2.5478640402e-08 4.0179740403e-08 2.2967183861e-09 3.1958540026e-08 4.8432645638e-08 2.3337332743e-09 4.3349423313e-08 
3.8855149819e-08 1.8067145391e-09 3.002672788e-08 2.7686783841e-08 3.9313012167e-10 1.4016541989e-08 2.738907454e-08 6.1626928128e-10 1.4583461009e-08 
3.2449561766e-08 1.0068089011e-09 2.1552803075e-08 3.0812146689e-08 4.203114922e-10 1.7711285842e-08 3.5568173182e-08 1.2176269057e-09 2.188436642e-08 
2.6007915088e-08 -8.2815242449e-10 1.1551273758e-08 4.0005347328e-08 1.0498647211e-09 1.9239848095e-08 3.389039595e-08 -6.2932577562e-10 1.3556816631e-08 
3.1079889682e-08 -3.8556222724e-10 1.343803791e-08 5.2532237848e-08 6.2772076406e-10 3.212818099e-08 4.366489081e-08 1.8605770717e-09 2.5176487238e-08 
4.0001792699e-08 3.0757474771e-10 2.2569815154e-08 3.8333044505e-08 -9.2281131357e-10 2.2112089147e-08 3.2948697536e-08 -4.6298032336e-10 1.5968357189e-08 
2.8509423664e-08 -4.7994230159e-10 1.1812206758e-08 4.3350955205e-08 -1.5795726507e-09 2.7898226802e-08 4.6200823977e-05 1.4361713302e-05 1.5884618163e-05 
3.1966372333e-05 4.6976541142e-06 2.7167563718e-05 1.7164141557e-05 3.0079496511e-07 8.2432124159e-06 4.0215915484e-05 -6.3241204367e-07 1.9618798157e-05 
2.3308560321e-05 -1.1098646487e-06 1.6810538172e-05 1.0200862628e-05 1.6532967152e-06 8.2522590486e-06 9.3507219722e-06 -1.7972935233e-08 4.9547050026e-06 
8.5386244322e-09 -3.849769445e-10 -1.7758404064e-09 1.1272378064e-08 -1.1989393171e-09 -1.0126084349e-08 1.1969517276e-08 -1.8418055587e-09 -4.4377021783e-09 
1.5325758913e-08 -2.7559957686e-09 -7.6733854818e-10 9.2702229546e-09 -2.5570106025e-10 -1.0060618097e-09 1.5353571521e-08 -2.2633167598e-09 1.744347552e-10 
2.0660720359e-06 9.4915895131e-07 2.5109653101e-07 7.9926096949e-07 -1.5463187474e-08 5.875016461e-07 5.2450160703e-07 1.0044519765e-07 3.6987226788e-07 
8.9696058837e-07 5.4486680055e-08 -8.0956546587e-08 4.3237098773e-07 6.0335203516e-08 3.9820633542e-07 1.8720170489e-06 -4.2566967696e-07 1.2478544035e-06 
6.3815202609e-08 1.3744395402e-07 4.2681258917e-08 6.7746801997e-08 1.2714192367e-07 6.8270785797e-09 -1.1363081349e-08 7.1375886469e-08 -1.7014387659e-08 
2.4482455188e-07 6.8255093769e-08 -4.5659381524e-08 1.2221973401e-07 -4.640860782e-08 -4.9461115599e-08 6.9196397889e-07 -1.4179134152e-07 3.1683955872e-07 
1.5967825754e-07 -7.1235443513e-09 8.668812119e-08 1.4366626158e-07 4.761400067e-08 1.2037276956e-07 1.899209092e-07 -6.2571832651e-09 1.7728751996e-07 
2.1679943367e-07 7.4918221858e-08 1.0959631462e-07 1.5312311986e-07 -2.1021843495e-08 1.3655757787e-07 1.0359917105e-07 2.6201216549e-09 8.2468066622e-08 
2.8697341413e-07 3.5227053281e-08 1.2823977624e-07 2.4991167807e-07 5.0026120823e-08 6.2711211856e-08 1.2845792432e-07 3.583043278e-08 4.2437486881e-08 
7.5464849618e-08 1.3055576058e-08 7.0045330355e-08 7.8126715503e-08 1.2892777924e-10 7.2684424418e-08 7.1881681317e-08 1.4724742253e-09 5.2683760681e-08 
7.5922970842e-08 8.9906703129e-09 6.5962675085e-08 6.4982000028e-08 8.9599088604e-09 7.1227984632e-08 6.8892674323e-08 1.3037431587e-08 6.5544892065e-08 
7.0753997852e-08 1.1618605405e-08 6.7152438907e-08 6.1189743581e-08 4.8087419804e-09 4.5937235852e-08 5.2627654815e-08 3.68484693e-09 3.2836694913e-08 
4.8825660952e-08 2.945308164e-09 2.9644681257e-08 4.0813290603e-08 1.5366714071e-09 2.6600096801e-08 4.9127645108e-08 2.2219644663e-09 3.38957438e-08 
8.0801124271e-08 -1.6737084512e-09 8.809438069e-08 7.1321208028e-08 3.5435648894e-09 9.9654169961e-08 6.8345306063e-08 -1.4999403793e-09 7.7160477254e-08 
5.8774397587e-08 3.5254215374e-09 6.6925829689e-08 7.5876276607e-08 -1.9142038748e-09 7.6032747212e-08 9.0684121203e-08 3.1357248842e-09 1.6101282429e-07 
8.2192830763e-08 -2.5294580377e-09 1.2591191826e-07 6.9312015808e-08 2.1224079392e-09 8.8743190421e-08 7.5709786967e-08 4.506361086e-09 9.9835075915e-08 
8.4936222033e-08 8.2753522747e-11 1.2104554757e-07 4.5956745523e-08 -2.0510247967e-09 3.3447663019e-08 5.5018854863e-08 3.5535852919e-09 6.1401361843e-08 
5.2778336584e-08 -3.1815210252e-10 4.5115449608e-08 4.6375117222e-08 -2.0435779781e-09 3.2491343115e-08 6.0123604161e-08 7.5781257561e-10 6.9016744864e-08 
1.1744051866e-05 -9.5300374769e-07 9.7758171641e-06 7.0189452311e-05 -3.5229375451e-06 2.2614621758e-05 0.00018912271339 2.3181524251e-07 0.00019263242561 
0.00018912271339 6.640484531e-06 0.00017559569758 0.00018912271339 3.1886893274e-08 0.00019266332797 0.00018912271339 -1.9630440261e-06 0.00017130187755 
0.00018912271339 -2.3677359955e-08 0.00019284799254 0.00018912271339 5.3422425813e-07 0.00019232409292 0.00018912271339 4.0717119163e-06 0.00015523976338 
0.00018912271339 5.4875876319e-08 0.00019273645281 0.00018912271339 7.4487997739e-08 0.0001918572022 0.00018912271339 2.0790336216e-06 0.0001618467152 
0.00018912271339 -1.0079961807e-06 0.00014177298991 0.00018912271339 3.8697700191e-08 0.00019284709823 0.00018912271339 -1.2783630523e-08 0.0001928569335 
0.00018912271339 1.5244725945e-09 0.00019291266066 0.00018912271339 1.21143116e-06 0.00018789563796 0.00018912271339 -1.8845638949e-06 0.00013135597368 
0.00018912271339 -3.7371380631e-07 0.00018737876003 0.00018912271339 7.4766036533e-08 0.00019300434598 0.00018912271339 4.5606487428e-08 0.00019286433638 
0.00018912271339 2.5963365005e-06 0.00012474476052 0.00018912271339 1.8638135377e-08 0.00019285794569 0.00018912271339 -2.0369740102e-09 0.00019256110101 
0.00018912271339 -9.7106884074e-07 0.00018448121333 0.00018912271339 -5.9866117518e-07 0.00018968011895 0.00018912271339 4.7697253402e-08 0.00019283395439 
0.00018912271339 7.5435772879e-07 0.00018181543189 0.00018912271339 7.5145586704e-07 0.0001908856714 0.00018912271339 4.945518442e-08 0.0001929141689 
0.00018912271339 4.3699855551e-08 0.00019304849558 0.00018912271339 5.7035745234e-09 0.0001928514341 0.00018912271339 9.379454124e-08 0.00019210603585 
0.00018912271339 -5.7444810293e-08 0.00019161331437 0.00018912271339 3.7948706851e-06 9.9744305223e-05 0.00018912271339 1.4997702848e-06 0.0001681032104 
0.00018912271339 1.1106335158e-07 0.00018979997339 0.00018912271339 7.4603621179e-08 0.0001924395979 0.00018912271339 -1.8129564727e-09 0.00019277978397 
0.00018912271339 -9.1993239056e-06 0.00011629894297 0.00018912271339 3.821137185e-08 0.000192828368 0.00018912271339 -3.3231586805e-06 0.00018288096126 
0.00018912271339 -7.3806580395e-07 0.00017045364916 0.00018912271339 3.1384272154e-06 9.6656759575e-05 0.00018912271339 1.5332510821e-08 0.00019279594052 
0.00018912271339 -2.8311424136e-08 0.00019282640649 0.00018912271339 -3.2288556608e-08 0.00019290390845 0.00018912271339 4.1912694801e-06 0.00012136460352 
0.00018912271339 1.1027780176e-08 0.00019292379847 0.00018912271339 -6.9901563454e-06 0.00010905535859 0.00018912271339 -9.0996057659e-09 0.00019283651179 
0.00018912271339 6.4507750045e-09 0.00019295139703 0.00018912271339 7.3218865158e-09 0.00019295459494 0.00018912271339 1.2159145611e-08 0.00019293794001 
0.00018912271339 6.0542385276e-06 0.00012780888614 0.00018912271339 -3.2235056617e-06 7.5881522143e-05 0.00018912271339 5.1310135942e-06 8.1093477402e-05 
0.00018912271339 -3.5929611059e-09 0.00019286062616 0.00018912271339 1.0488625569e-08 0.00019285418076 0.00018912271339 -6.6159828695e-09 0.00019285449035 
0.00018912271339 4.6343524009e-06 7.3898028203e-05 0.00018912271339 -5.2331278079e-06 0.00012578770847 0.00018912271339 -6.330904622e-07 6.9882687594e-05 
0.00018912271339 -4.3551174534e-06 0.00017998083496 0.00018912271339 4.4776524693e-06 0.00016047316804 0.00018912271339 1.2635134926e-06 0.00015899434702 
0.00018912271339 6.2694004898e-08 0.00018908034703 0.00018912271339 -5.2205071252e-07 0.00018679864694 0.00018912271339 2.4992838561e-07 0.00018728611712 
0.00018912271339 5.0816352824e-08 0.00019231443156 0.00018912271339 -1.3558851202e-09 0.00019121405747 0.00018912271339 1.5927153698e-07 0.00019015455383 
0.00018912271339 3.3242708839e-08 0.00019306504515 0.00018912271339 -8.2612902347e-08 0.00019293250701 0.00018912271339 8.3232804222e-08 0.00019295199976 
0.00018912271339 2.5440871489e-08 0.00019293268843 0.00018912271339 -5.2917562869e-09 0.00019294536074 0.00018912271339 8.6044225475e-08 0.0001929648751 
0.00018912271339 -2.9616447091e-09 0.00019288219871 0.00018912271339 1.6644695715e-08 0.00019288682599 0.00018912271339 2.7454738006e-08 0.00019289925856 
0.00018912271339 2.4257574279e-08 0.00019288643408 0.00018912271339 2.0689899583e-08 0.00019292507087 0.00018912271339 9.2226369438e-09 0.00019292005221 
0.00018912271339 1.3583036067e-08 0.00019287424273 0.00018912271339 9.5575883553e-09 0.00019290251454 0.00018912271339 1.970351655e-08 0.00019290870032 
0.00018912271339 1.4687928364e-08 0.00019288260051 0.00018912271339 3.2465210275e-08 0.00019288811275 0.00018912271339 2.1215939275e-08 0.00019290770361 
0.00018912271339 1.0379173742e-08 0.00019286616347 0.00018912271339 1.1207702912e-08 0.00019286279044 0.00018912271339 3.2178563085e-08 0.00019285585839 
0.00018912271339 2.4452540094e-08 0.00019283628848 0.00018912271339 2.5356515031e-09 0.00019284323502 0.00018912271339 -5.4953601242e-06 0.0001536664398 
0.00018912271339 9.4089580888e-07 0.00017306418657 0.00018912271339 -5.0952724449e-06 0.000145546139 0.00018912271339 5.8546381935e-09 0.00018331392078 
0.00018912271339 -3.3467658234e-07 0.00018873321851 0.00018912271339 -5.9496289343e-08 0.00018172100422 0.00018912271339 2.8585118983e-07 0.00019119062129 
0.00018912271339 -1.1664713988e-07 0.00019216254196 0.00018912271339 -2.1589624484e-07 0.0001909124248 0.00018912271339 -2.7943432389e-09 0.00019265581074 
0.00018912271339 1.2553572005e-08 0.00019298173117 0.00018912271339 2.0780985032e-08 0.00019230661925 0.00018912271339 -1.2440303988e-08 0.00019292487246 
0.00018912271339 -2.1336063364e-08 0.00019287556339 0.00018912271339 1.439641309e-09 0.00019302837818 0.00018912271339 -1.760720097e-08 0.00019286349936 
0.00018912271339 2.843308554e-06 8.0428040401e-05 0.00018912271339 6.2156509548e-06 8.2234993881e-05 0.00018912271339 6.3901595228e-06 0.00012033615815 
0.00018912271339 2.1788889593e-05 9.3264155957e-05 0.00018912271339 3.1586832366e-05 7.7147401194e-05 0.00018912271339 -5.9345123583e-06 0.00012466708241 
0.00018912271339 2.8673753418e-05 5.115649084e-05 0.00018912271339 4.3576204067e-05 7.1045128121e-05 0.00018912271339 1.1695995989e-06 0.00012080179204 
0.00018912271339 1.5797832645e-05 8.6579860486e-05 0.00018912271339 8.5085225702e-06 7.7378010722e-05 0.00018912271339 -2.1954723847e-07 0.0001236054489 
0.00018912271339 3.3634466444e-06 5.9207251164e-05 0.00018912271339 1.2220292685e-06 6.165128158e-05 0.00018912271339 3.1920076274e-06 0.00011294066901 
0.00018912271339 6.7915037571e-07 0.00010067430842 0.00018912271339 5.1975392073e-08 0.00019280258211 0.00018912271339 1.154603199e-07 0.00019196674639 
0.00018912271339 2.3099756932e-07 0.00019306530065 0.00018912271339 1.5043752854e-08 0.00019277686572 0.00018912271339 6.7388678666e-08 0.00019282345143 
0.00018912271339 -2.0353210954e-08 0.00019031835238 0.00018912271339 -4.0263589402e-07 0.00019020844869 0.00018912271339 -1.9671365792e-07 0.00018271887033 
0.00018912271339 -7.8810773803e-08 0.00018803230874 0.00018912271339 -1.4755379149e-07 0.00019084744889 0.00018912271339 2.0027786277e-07 0.00018766928298 
0.00018912271339 2.0679731692e-07 0.00019237901652 0.00018912271339 -9.3836534033e-08 0.00019175213559 0.00018912271339 5.2263089603e-08 0.00019294997269 
0.00018912271339 4.1641943662e-08 0.00019295553877 0.00018912271339 4.525710785e-08 0.00019303753792 0.00018912271339 6.3103858496e-06 0.00016993470219 
0.00018912271339 1.9725855399e-06 0.00015111860276 0.00018912271339 -6.4010305092e-07 0.0001427147002 0.00018912271339 7.1485711035e-07 0.00017421509826 
0.00018912271339 1.6369674343e-06 0.00017875614116 0.00018912271339 2.3750261141e-06 0.00018324001834 0.00018912271339 7.5916149277e-07 0.00018905906081 
0.00018912271339 1.8358955789e-06 0.00018667373837 0.00018912271339 2.3681196031e-06 0.00015432455579 0.00018912271339 3.0729181109e-06 0.00017012466731 
0.00018912271339 3.2948838204e-07 0.00015222254134 0.00018912271339 3.0304946344e-06 0.00018101342211 0.00018912271339 1.1481521485e-06 0.00017837071955 
0.00018912271339 4.0413596908e-08 0.00019278364558 0.00018912271339 4.5491065559e-08 0.00019284029028 0.00018912271339 3.4210424875e-08 0.00019276839015 
0.00018912271339 -2.8079279102e-08 0.00019284087157 0.00018912271339 9.6713999276e-09 0.00019284513986 0.00018912271339 2.1555331907e-08 0.00019282100243 
0.00018912271339 5.6320907916e-08 0.0001929140706 0.00018912271339 6.1213873323e-08 0.00019283733084 0.00018912271339 6.1956952579e-08 0.00019291439875 
0.00018912271339 -9.6564610902e-09 0.00019260267079 0.00018912271339 1.3521852777e-07 0.00019299655469 0.00018912271339 1.5167634777e-08 0.00019271525514 
0.00018912271339 -2.5494742688e-08 0.00019250022882 0.00018912271339 -7.8632665651e-07 0.00015922442746 0.00018912271339 -3.2967688042e-07 0.00017123710891 
0.00018912271339 -1.8689048172e-06 0.00015833503607 0.00018912271339 7.7164068443e-07 0.00012037819616 0.00018912271339 5.9142526864e-07 0.00014201262278 
0.00018912271339 -1.3989882129e-06 0.00018152882288 0.00018912271339 -8.3738768269e-07 0.00018362770634 0.00018912271339 -9.1660660717e-08 0.00018879755673 
0.00018912271339 -1.9279877425e-07 0.00015028860767 0.00018912271339 3.0790948435e-06 0.00016193184773 0.00018912271339 4.7759444809e-07 0.00017778085919 
0.00018912271339 -1.7979911875e-07 0.0001871599567 0.00018912271339 1.4052084897e-07 0.00019026304953 0.00018912271339 -2.1997717347e-08 0.00019284251909 
0.00018912271339 1.1854684178e-08 0.00019279805884 0.00018912271339 -9.5952965358e-11 0.00019281961888 0.00018912271339 -2.412729643e-08 0.00019288301672 
0.00018912271339 -8.1032432255e-09 0.00019291780492 0.00018912271339 -5.1262845871e-09 0.00019304515928 0.00018912271339 5.089362318e-08 0.00019288900366 
0.00018912271339 -1.7557258003e-08 0.00019314060981 0.00018912271339 1.2276980752e-08 0.00019283466034 0.00018912271339 -1.741726366e-08 0.00019283844503 
0.00018912271339 9.4765153474e-09 0.00019280793639 0.00018912271339 -3.8048768998e-08 0.00019301115 0.00018912271339 -3.6691630929e-09 0.00019289115081 
0.00018912271339 5.2945541431e-07 0.00019052355364 0.00018912271339 7.2179006522e-07 0.00019185656386 0.00018912271339 3.0285732678e-07 0.00019199518827 
0.00018912271339 3.190772286e-07 0.00019305136624 0.00018912271339 3.043703513e-07 0.00019268362907 0.00018912271339 1.4691168905e-07 0.00019281650945 
0.00018912271339 2.2676048871e-06 0.00014688492102 0.00018912271339 7.4289229302e-06 0.00013381684251 0.00018912271339 3.2697975153e-06 0.00016368795765 
0.00018912271339 4.6046273466e-06 0.00014760304213 0.00018912271339 1.5933765822e-06 0.0001707888801 0.00018912271339 2.8513010331e-06 0.00017244797208 
0.00018912271339 4.313383073e-08 0.00019287196227 0.00018912271339 6.5519589528e-08 0.00019285758728 0.00018912271339 1.7378111685e-08 0.00019280277332 
0.00018912271339 2.4834427306e-08 0.0001928125542 0.00018912271339 2.7235555725e-08 0.00019273768636 0.00018912271339 7.1400858152e-08 0.00019288993881 
0.00018912271339 9.5634063e-09 0.00019118080289 0.00018912271339 2.7389331988e-08 0.0001916128831 0.00018912271339 4.0715759827e-07 0.00019130549884 
0.00018912271339 5.4789019755e-08 0.00019242566522 0.00018912271339 -4.9218907551e-09 0.00019248982775 0.00018912271339 -2.1479192162e-07 0.00019140531466 
0.00018912271339 2.0174402024e-06 0.00014252087713 0.00018912271339 -4.1566363415e-06 0.00012580339583 0.00018912271339 1.859926853e-08 0.00019289081671 
0.00018912271339 -1.2028200199e-08 0.0001928488537 0 0 0 0 0 0 
0 0 0 0 0 0 0 0 0 
0 0 0 0 0 0 0 0 0 
0 0 0 0 0 0 0 0 0 
0 0 0 0 0 0 0 0 0 
0 0 0 0 0 0 0 0 0 
0 0 0 0 0 0 0 0 0 
0 0 0 0 0 0 0 0 0 
0 0 0 0 0 0 0 0 0 
0 0 0 0 0 0 0 0 0 
0 0 0 0 0 0 0 0 0 
0 0 0 0 0 0 0 0 0 
0 0 0 0 0 0 0 0 0 
0 0 0 0 0 0 0 0 0 
0 0 0 0 0 0 0 0 0 
0 0 0 0 0 0 0 0 0 
0 0 0 0 0 0 0 0 0 
0 0 0 0 0 0 0 0 0 
0 0 0 0 0 0 0 0 0 
0 0 0 0 0 0 0 0 0 
0 0 0 0 0 0 0 0 0 
0 0 0 0 0 0 0 0 0 
0 0 0 0 0 0 0 0 0 
0 0 0 0 0 0 0 0 0 
0 0 0 0 0 0 0 0 0 
0 0 0 0 0 0 0 0 0 
0 0 0 0 0 0 0 0 0 
0 0 0 0 0 0 0 0 0 
0 0 0 0 0 0 0 0 0 
0 0 0 0 0 0 0 0 0 
0 0 0 0 0 0 0 0 0 
0 0 0 0 0 0 0 0 0 
0 0 0 0 0 0 0 0 0 
0 0 0 0 0 0 0 0 0 
0 0 0 0 0 0 0 0 0 
0 0 0 0 0 0 0 0 0 
0 0 0 0 0 0 0 0 0 
0 0 0 0 0 0 0 0 0 
0 0 0 0 0 0 0 0 0 
0 0 0 0 0 0 0 0 0 
0 0 0 0 0 0 0 0 0 
0 0 0 0 0 0 0 0 0 
0 0 0 0 0 0 0 0 0 
0 0 0 0 0 0 0 0 0 
0 0 0 0 0 0 0 0 0 
0 0 0 0 0 0 0 0 0 
0 0 0 0 0 0 0 0 0 
0 0 0 0 0 0 0 0 0 
0 0 0 0 0 0 0 0 0 
0 0 0 0 0 0 0 0 0 
0 0 0 0 0 0 0 0 0 
0 0 0 0 0 0 0 0 0 
0 0 0 0 0 0 0 0 0 
0 0 0 0 0 0 0 0 0 
0 0 0 0 0 0 0 0 0 
0 0 0 0 0 0 0 0 0 
0 0 0 0 0 0 0 0 0 
0 0 0 0 0 0 0 0 0 
0 0 0 0 0 0 0 0 0 
0 0 0 0 0 0 0 0 0 
0 0 0 0 0 0 0 0 0 
0 0 0 0 0 0 0 0 0 
0 0 0 0 0 0 0 0 0 
0 0 0 0 0 0 0 0 0 
0 0 0 0 0 0 0 0 0 
0 0 0 0 0 0 0 0 0 
0 0 0 0 0 0 0 0 0 
0 0 0 0 0 0 0 0 0 
0 0 0 0 0 0 0 0 0 
0 0 0 0 0 0 0 0 0 
0 0 0 0 0 0 0 0 0 
0 0 0 0 0 0 0 0 0 
0 0 0 0 0 0 0 0 0 
0 0 0 0 0 0 0 0 0 
7.58464109e-06 0 7.547447703e-06 1.5380132507e-07 0 1.7491415414e-07 0.00011809777827 0 0.00012019309749 
1.1912994686e-06 0 1.0598015899e-06 2.4826364886e-07 0 1.9033792749e-07 0.00010664063966 0 0.0001095153001 
4.7972886487e-06 0 4.494540043e-06 7.3404949701e-08 0 1.7473866047e-07 4.7319177788e-08 0 4.0310015629e-08 
0.00018804609756 0 0.00019173070207 0.00011435948953 0 0.0001130223491 4.3302865528e-05 0 4.3353594244e-05 
3.7431798523e-07 0 3.7698389493e-07 2.2500276398e-07 0 3.0578909466e-07 1.2917955481e-07 0 9.4191889276e-08 
0.00018044169959 0 0.00018268209693 3.8267449893e-08 0 7.0833449218e-08 2.0981253383e-05 0 2.0653973331e-05 
0.00017693764543 0 0.00018013527037 3.4391995846e-05 0 3.2745536304e-05 4.6486779072e-07 0 4.272490493e-07 
3.3817827287e-07 0 3.0334764652e-07 2.1068379572e-05 0 2.1378754735e-05 1.9270405863e-07 0 2.0085619343e-07 
1.9714950221e-06 0 2.0072278923e-06 1.3956445962e-07 0 1.174475967e-07 0.00012081393831 0 0.00012106346714 
3.7286646412e-07 0 4.2613585425e-07 1.8351626734e-08 0 4.4029700845e-09 7.0385563974e-08 0 1.2970013991e-07 
6.8433509472e-08 0 4.4309113137e-08 1.2058929008e-07 0 2.7737938271e-07 0.00011049421279 0 0.00011291690785 
0.00018929496739 0 0.00019302592612 0.00013445117575 0 0.00013607168273 4.3206737689e-05 0 4.3507784868e-05 
2.1541066862e-08 0 6.2668900154e-08 1.8636150524e-08 0 2.5170035915e-08 0.00018852481973 0 0.00019225369327 
0.00017573017345 0 0.00017670248872 4.8926436807e-06 0 4.9135373916e-06 3.5581349244e-07 0 3.720881314e-07 
3.9767378779e-05 0 3.8615919654e-05 2.4108089901e-06 0 2.4834590784e-06 1.6468109267e-06 0 1.447875808e-06 
0.00016659501757 0 0.00017068595567 8.5768909052e-08 0 1.0217571832e-07 3.9017415066e-05 0 3.9430130118e-05 
0.00018819469579 0 0.00019231826052 1.3304177356e-07 0 2.1537951613e-07 2.0723205774e-07 0 1.6166487134e-07 
0.00017314675548 0 0.00017682348305 0.00013483441647 0 0.0001355269495 2.7474225081e-07 0 3.2362005435e-07 
9.9145153778e-08 0 8.387240812e-08 7.3839489668e-05 0 7.3904459169e-05 2.4708680072e-07 0 2.9747145858e-07 
9.2118696462e-05 0 9.143001614e-05 7.4834428993e-08 0 1.3853024228e-07 2.6273720818e-07 0 2.6183194418e-07 
7.8956313824e-08 0 5.6880031148e-08 0.00017332713274 0 0.00017824176199 7.356741049e-05 0 7.42251748e-05 
3.220285209e-08 0 1.1178570646e-08 1.2990647147e-07 0 2.0595945372e-07 0.00018726426795 0 0.00019078022827 
1.8617236796e-05 0 1.8748884252e-05 1.2133463992e-07 0 1.301434345e-07 3.7552451677e-06 0 3.3076423915e-06 
0.00018634914097 0 0.0001904430839 1.1972992513e-08 0 2.8024655405e-08 1.5944582748e-07 0 1.3709196114e-07 
3.1562189422e-05 0 3.0099031028e-05 3.0875881332e-07 0 2.1184240432e-07 2.0389342819e-07 0 2.4517640081e-07 
1.4261052362e-05 0 1.3749239923e-05 1.1836808227e-06 0 1.0995340052e-06 4.6638680685e-08 0 5.913842319e-08 
0.00015277114049 0 0.0001558630696 1.0932968158e-05 0 9.8030545561e-06 3.7183441313e-07 0 3.8244183787e-07 
0.00015782527132 0 0.00015694474936 0.00018920010444 0 0.00019302672741 8.6114954095e-08 0 7.6567661601e-08 
3.2747048764e-06 0 3.558256884e-06 7.4213451457e-05 0 7.4282228983e-05 7.5519468441e-05 0 7.4844492516e-05 
4.9988509977e-07 0 6.2048006653e-07 1.7565876702e-08 0 5.3581055998e-08 1.0784669512e-08 0 6.5112959625e-09 
6.3467991351e-05 0 5.1476707986e-05 0.00018912735273 0 0.00019319816032 1.6509611272e-07 0 2.0618453896e-07 
5.2925961081e-05 0 5.299321563e-05 6.0756547748e-09 0 -4.460462675e-09 5.6223477604e-08 0 8.0368251848e-08 
6.165457535e-06 0 5.8287048186e-06 1.9477507874e-07 0 1.6795431878e-07 1.5069151212e-06 0 1.5280278929e-06 
0.00012763063217 0 9.8548184671e-05 0.0001891486349 0 0.00019296869817 1.843275361e-07 0 1.420964319e-07 
2.1379793393e-07 0 1.9048235372e-07 1.0626305547e-05 0 1.0225038612e-05 0.00018494614728 0 0.00018901509901 
0.00015685523493 0 0.00015682120745 1.4271958169e-07 0 2.6404629893e-07 1.7975087715e-05 0 1.693130816e-05 
2.5816951547e-07 0 2.6008043062e-07 0.0001891323051 0 0.00019296734877 0.00018911625808 0 0.00019296220656 
0.00018910031836 0 0.00019298744042 0.00013975647903 0 7.6861678883e-05 0.00015601875434 0 0.00012030898368 
0.00010789311802 0 7.8129632279e-05 1.9703710077e-08 0 7.5679238355e-08 1.9154858625e-08 0 3.5835017522e-08 
1.2084824833e-07 0 1.5080595783e-07 2.7872921075e-09 0 -2.84063333e-09 2.2482711125e-09 0 -4.2162428184e-09 
6.7755426817e-09 0 -6.8008005343e-09 0.00017123570145 0 0.00014920279233 0.00017556977439 0 0.00016849636961 
0.00014376458908 0 0.00012960684171 0.00018229688707 0 0.00018013679115 0.00018578304515 0 0.00018745661814 
0.00016682969669 0 0.00016749127793 0.00018840474722 0 0.00019067445573 0.00018839336101 0 0.00019208587638 
0.00018382022701 0 0.00018589563465 0.0001887176227 0 0.00019262707826 0.00018908310864 0 0.00019294632451 
0.00018788130032 0 0.00019175154823 0.00018915376091 0 0.00019306292299 0.00018912556418 0 0.00019298911717 
0.00018893134539 0 0.00019281022209 0.00018916929689 0 0.00019299334038 4.4870173508e-09 0 2.8712121637e-09 
4.0537260016e-09 0 -3.0354685155e-10 8.5629268333e-09 0 1.5945421212e-10 7.4372233667e-09 0 1.2720777403e-08 
7.0262608504e-09 0 7.9435445994e-09 1.4644131046e-08 0 1.468122737e-08 5.0082701056e-09 0 1.4674351516e-08 
5.0045597697e-09 0 1.1555118792e-08 1.5348794573e-08 0 2.7841847535e-08 9.1382359247e-09 0 3.0703190892e-08 
8.5518432857e-09 0 2.6755555522e-08 1.640880159e-08 0 4.3721031028e-08 9.6970578552e-09 0 2.779275481e-08 
7.0763739487e-09 0 2.3652307127e-08 1.894185299e-08 0 5.8810247245e-08 2.9514189883e-08 0 6.1105913876e-08 
0.00018909156635 0 0.00019307548033 0.00018915131973 0 0.00019317576331 0.00018912656845 0 0.00019303377473 
0.0001889916023 0 0.00019305376101 0.00018866067069 0 0.00019271547701 0.00018882316787 0 0.00019290847457 
0.00018817589102 0 0.00019222294678 0.00018672610273 0 0.00019080125587 0.00018755829623 0 0.00019161195146 
0.0001802385988 0 0.00018427470582 0.00017234778694 0 0.00017494947921 0.00017919375216 0 0.00018310896644 
0.00015581800489 0 0.00015666619867 0.00013622494275 0 0.00013618722181 0.00014759391462 0 0.00014964448956 
0.00012304555666 0 0.00012207477741 9.7383463134e-05 0 9.6925757762e-05 0.00010612215643 0 0.00010518730109 
7.6032736362e-05 0 7.5992602337e-05 5.3730080751e-05 0 5.3662150555e-05 7.1392217145e-05 0 7.1311163558e-05 
3.3966740618e-05 0 3.411947891e-05 2.0317624545e-05 0 2.0311940119e-05 3.3324774799e-05 0 3.3499724177e-05 
9.9852421127e-06 0 9.8100095481e-06 4.5779094578e-06 0 4.4487196856e-06 8.7046508454e-06 0 8.6930744847e-06 
1.7262202527e-06 0 1.7376042475e-06 3.0508829335e-07 0 4.1780167472e-07 1.1372230581e-06 0 1.4190424142e-06 
2.0305854049e-07 0 2.4884514946e-07 1.7055516184e-07 0 1.9182236859e-07 2.0423604414e-07 0 3.3872426424e-07 
1.6567465433e-07 0 3.087774121e-07 1.1976271405e-07 0 2.4041411541e-07 1.5634894555e-07 0 1.726254949e-07 
1.2923981013e-07 0 1.489120909e-07 1.0508520647e-07 0 1.7049088701e-07 6.7117891349e-08 0 1.0457216195e-07 
3.9913583009e-05 0 3.039468284e-05 6.2027219914e-05 0 5.5441983271e-05 0.00010069582585 0 8.8049064557e-05 
1.3944684432e-05 0 1.3064409448e-05 2.8364307357e-05 0 2.4071252509e-05 5.0823281209e-05 0 4.7332818011e-05 
1.5011751788e-06 0 1.2892343521e-06 3.4305987075e-06 0 3.3868082299e-06 1.7566755476e-05 0 1.6801434386e-05 
3.9880361283e-07 0 4.4357223652e-07 1.0399675159e-06 0 7.4625023826e-07 2.617931682e-06 0 1.9275842489e-06 
2.0114596372e-07 0 3.3167904695e-07 2.2166646016e-07 0 4.2331376572e-07 6.0853680777e-07 0 6.2589438257e-07 
1.5259689791e-07 0 2.4292696795e-07 1.7445353503e-07 0 2.8717464855e-07 2.9592550077e-07 0 3.3617767932e-07 
1.1479076689e-07 0 1.6251267976e-07 1.2818085909e-07 0 2.0376351553e-07 1.9531533916e-07 0 2.5642909104e-07 
8.7523651497e-08 0 1.019503756e-07 9.9951179379e-08 0 1.2654947146e-07 1.4095140461e-07 0 1.6375559309e-07 
6.5184240208e-08 0 5.9244588293e-08 7.4915034599e-08 0 7.8006148791e-08 1.023491768e-07 0 1.0166994693e-07 
5.2718514497e-08 0 3.4552212002e-08 6.314086572e-08 0 4.9658268889e-08 8.3373282335e-08 0 6.6311194207e-08 
2.5034981712e-08 0 3.8632667514e-09 3.4595017444e-08 0 1.3122232503e-08 5.0551117354e-08 0 2.8003476933e-08 
7.5096267795e-08 0 5.0175563079e-08 4.8500943806e-08 0 2.6333916125e-08 1.6407976265e-08 0 -2.6931873844e-09 
1.1642543933e-08 0 -4.1366508823e-09 2.5363738466e-08 0 7.2754415832e-09 1.1359498532e-08 0 -1.5331894981e-09 
2.0578635943e-05 0 1.9648577299e-05 1.099777044e-05 0 1.0455576172e-05 2.5383907261e-05 0 2.4040279052e-05 
2.3444918251e-05 0 2.2092259672e-05 9.3104502179e-06 0 8.5986807746e-06 3.3289394374e-06 0 3.3811210882e-06 
5.3929895099e-06 0 5.2377383692e-06 2.7948656204e-06 0 2.5206083622e-06 1.4087885531e-06 0 1.278238711e-06 
3.391866975e-06 0 3.360797266e-06 1.1778351279e-07 0 1.3806874202e-07 8.1382969841e-08 0 1.2179182756e-07 
1.0982748846e-07 0 1.6269052447e-07 1.5838835758e-07 0 1.5735345657e-07 1.2065155248e-07 0 1.2194528421e-07 
1.3928177501e-07 0 1.9735305865e-07 1.0193780827e-07 0 1.7729667431e-07 1.5908758899e-07 0 2.2668499477e-07 
1.7935379547e-07 0 2.0780770362e-07 1.8220254905e-07 0 1.8521796891e-07 1.8273239248e-07 0 1.6216534055e-07 
2.1510967721e-07 0 2.2061210436e-07 0.00012629138456 0 0.000128462908 9.5212541179e-05 0 9.7053379687e-05 
0.00010343569871 0 0.00010394858927 0.00015764349576 0 0.00016041601309 0.00015321951377 0 0.00015555557447 
7.8030463082e-05 0 7.9359443795e-05 5.8121779996e-05 0 5.8433531196e-05 9.4748051823e-05 0 9.5525241581e-05 
5.8023075888e-05 0 5.7629551755e-05 0.0001518458388 0 0.00015377305663 0.00015790254494 0 0.00016035747917 
0.00012652516018 0 0.00012785363559 0.00017389173582 0 0.00017660677481 0.00010262559349 0 0.00010371353773 
1.4801039651e-06 0 1.5048166333e-06 3.3335201767e-07 0 3.4505091334e-07 3.0860863329e-07 0 5.4051444751e-07 
3.3286474337e-06 0 3.0463717459e-06 2.5994367184e-06 0 2.3248522841e-06 2.5583979976e-06 0 2.3676264395e-06 
1.0591731061e-06 0 8.7754673849e-07 3.1207373512e-07 0 3.8346897224e-07 5.5030606509e-06 0 5.5753090595e-06 
1.0591355473e-05 0 9.7252610265e-06 2.9389033828e-07 0 2.9545780016e-07 1.1057745937e-05 0 1.1032641161e-05 
2.8880506934e-07 0 2.4735299893e-07 2.7445885852e-07 0 2.0267796839e-07 3.2092590431e-07 0 2.7392561451e-07 
2.9758554918e-07 0 3.1439558877e-07 2.5049676282e-07 0 2.2011354356e-07 2.2771667345e-07 0 1.7281742678e-07 
2.5384657582e-07 0 1.9440468056e-07 2.1493664131e-07 0 1.6615367157e-07 1.9860482271e-07 0 1.4903453213e-07 
2.1816708772e-07 0 1.8005978434e-07 1.8891301789e-07 0 1.5368822942e-07 2.2606783128e-07 0 2.0394006099e-07 
0.00011296699116 0 0.00011534662149 0.00014159060464 0 0.00014583827114 9.0288481252e-05 0 9.1869072494e-05 
9.6543822656e-05 0 9.6755779607e-05 0.00012046601624 0 0.00012239508627 0.00013216613734 0 0.00013461941409 
0.00014348824946 0 0.00014704257918 0.00010377863415 0 0.00010410398767 8.996672995e-05 0 9.1391160563e-05 
6.9689187052e-05 0 7.0048320955e-05 5.5747167063e-05 0 5.5230309589e-05 5.6755625331e-05 0 5.5672228377e-05 
0.00015968293544 0 0.0001640835183 1.262456933e-06 0 1.256476166e-06 3.0648845291e-06 0 2.6907236056e-06 
4.1838473916e-07 0 4.4239403442e-07 1.8951520921e-06 0 1.7500897407e-06 1.9685900324e-05 0 1.9455566675e-05 
1.6153768436e-05 0 1.4496501134e-05 3.7196524669e-05 0 3.6802082113e-05 2.5782454568e-05 0 2.4189194365e-05 
7.4416522099e-06 0 7.455476347e-06 3.3728682241e-06 0 3.5568479549e-06 1.1636177505e-05 0 1.1371113632e-05 
1.243166362e-06 0 1.2059966828e-06 4.4016248775e-06 0 3.1841133218e-06 6.8974740255e-08 0 1.5214359123e-07 
9.6316694521e-08 0 1.9299239954e-07 4.2850937302e-08 0 1.134280826e-07 3.7275561992e-08 0 8.7125379204e-08 
9.839684049e-08 0 2.2642827961e-07 1.1644785323e-07 0 2.7820309512e-07 1.0235862687e-07 0 2.2656960174e-07 
4.274076904e-08 0 1.1330221798e-07 7.2251456592e-08 0 1.56715167e-07 4.4268092277e-08 0 1.0293933224e-07 
9.9446945903e-08 0 2.0213659591e-07 1.3139246775e-07 0 2.3700881489e-07 3.076945233e-08 0 1.9007898908e-08 
4.0811147295e-08 0 2.4184311009e-08 1.4864001076e-08 0 5.8955441276e-09 2.6168116399e-08 0 2.0678205654e-08 
6.0000755574e-08 0 4.2897515739e-08 7.0917473365e-08 0 6.1145716917e-08 8.4172329824e-08 0 6.2398056926e-08 
3.2552252502e-08 0 3.3789434943e-08 3.1147393494e-08 0 4.0815390214e-08 4.7731391107e-08 0 4.9924318971e-08 
6.5425022889e-08 0 6.8134727072e-08 9.4389070068e-08 0 9.382303955e-08 6.462371489e-08 0 8.0033036491e-08 
0.00018895895751 0 0.0001926614793 0.00018921376586 0 0.00019307887951 0.00018884981858 0 0.00019278818214 
0.00018884055406 0 0.00019275380137 0.00018918489294 0 0.00019310340436 0.00018824000551 0 0.00019218197419 
0.00018753418606 0 0.00019136393797 0.0001870780724 0 0.00019094670839 0.00018824012915 0 0.00019205155806 
0.00018423687202 0 0.0001881368277 0.00018479817645 0 0.00018906801543 0.00018397019693 0 0.00018809001495 
0.00018022644494 0 0.00018439783741 0.00011256572101 0 0.0001137880899 0.00013853391515 0 0.00013927495485 
0.00013518020821 0 0.00013681449465 8.8458413356e-05 0 8.7404467589e-05 8.8342117307e-05 0 8.5833624728e-05 
0.00014879431971 0 0.00015026978865 0.00013608330467 0 0.00013640785025 0.00016682014927 0 0.00016759639204 
7.6446579707e-05 0 7.4604276809e-05 5.827591067e-05 0 5.4810197079e-05 9.390824998e-05 0 9.1874341448e-05 
0.00012334169561 0 0.00012260949919 0.00014658352218 0 0.00014608720934 7.7290379167e-05 0 7.6878932485e-05 
6.5755452631e-05 0 6.5246824749e-05 5.8462055622e-05 0 5.7776586794e-05 1.8821398862e-05 0 1.8196474087e-05 
2.6985754356e-05 0 2.6134475656e-05 8.7786285838e-06 0 8.2057185793e-06 2.9248318602e-05 0 2.8634785818e-05 
4.1884420518e-05 0 4.0486323108e-05 4.8505061282e-05 0 4.7945957121e-05 3.3126734782e-05 0 3.2323136248e-05 
3.607321255e-07 0 3.3833386184e-07 4.1319140149e-07 0 3.7577994606e-07 3.9424403925e-07 0 3.9987363073e-07 
3.1685590045e-07 0 3.1472539658e-07 6.1414598098e-07 0 7.0402515515e-07 1.674604365e-06 0 1.6854285595e-06 
3.8348007542e-07 0 3.7527632777e-07 2.6562313048e-07 0 3.4139567473e-07 2.9499858731e-07 0 3.79225466e-07 
2.3050655424e-07 0 2.8175001671e-07 2.0285799974e-07 0 2.2183720388e-07 3.2677260465e-07 0 4.2909669826e-07 
2.1271504342e-07 0 3.2737597429e-07 6.0008504536e-07 0 6.6278342147e-07 2.724135308e-06 0 2.6520491013e-06 
1.5484574332e-07 0 2.393309919e-07 1.6956972153e-07 0 2.7736974395e-07 1.8560946622e-07 0 2.5540543431e-07 
2.2184353796e-07 0 2.7898696069e-07 1.0685353502e-07 0 2.3532790616e-07 1.3745579842e-07 0 2.9812971092e-07 
1.3546076699e-07 0 1.0385797649e-07 1.1064859105e-07 0 9.5607061562e-08 1.0873042326e-07 0 8.3771009648e-08 
1.5659595507e-07 0 1.1627640204e-07 1.6256640621e-07 0 1.2941292222e-07 9.6612366026e-08 0 6.8741617158e-08 
1.1709283603e-07 0 8.8751431989e-08 1.0233529912e-07 0 7.4336696113e-08 1.6696627628e-07 0 1.2620149207e-07 
1.4693149617e-07 0 1.1315012621e-07 1.850130642e-07 0 1.4718433416e-07 1.2732707396e-07 0 1.093540716e-07 
0.00018610450564 0 0.0001896997583 0.00018457962109 0 0.00018779530328 0.00018254485943 0 0.00018625266812 
0.00017758597441 0 0.00018003271349 0.00017129816376 0 0.00017243291402 0.00017672236977 0 0.0001798636411 
0.00016405329066 0 0.00016420704237 2.900206867e-08 0 6.9003091771e-08 5.4958232958e-08 0 1.0261208701e-07 
2.3457669139e-08 0 4.8479247462e-08 2.767496971e-08 0 4.5053622929e-08 4.2570465302e-08 0 6.5703734578e-08 
6.0040303237e-08 0 8.8922673669e-08 3.3428924909e-05 0 3.1558607908e-05 4.7015177502e-05 0 4.6384089704e-05 
1.5346464803e-05 0 1.5218084476e-05 6.2810973337e-06 0 6.3893466193e-06 1.2492784287e-05 0 9.7878868055e-06 
3.069534294e-05 0 2.8424765459e-05 0.00015983693857 0 0.00016332967602 0.00017508307994 0 0.00017881650176 
0.00016670252365 0 0.00016975219473 0.00017176698711 0 0.00017589376993 0.00018229356397 0 0.00018655577814 
0.00018580840031 0 0.00018922531814 3.7220725416e-05 0 3.5891155729e-05 5.3166671983e-05 0 5.178214508e-05 
2.0649717602e-05 0 1.9643116858e-05 1.3123603578e-05 0 1.1936070243e-05 3.2774044754e-05 0 3.1668826208e-05 
5.9535083285e-06 0 5.2653415969e-06 5.2613522895e-05 0 5.1899354906e-05 5.144199515e-05 0 5.0493531724e-05 
7.4699311736e-05 0 7.3904366895e-05 1.1628812718e-06 0 1.3642176873e-06 4.4576815069e-07 0 2.955227315e-07 
2.9737166244e-06 0 2.6925287898e-06 6.6757358535e-07 0 6.6685579721e-07 3.7439627418e-07 0 3.9004044071e-07 
3.5472617948e-07 0 2.6268307352e-07 4.6375628278e-07 0 4.1461185492e-07 3.6712248271e-07 0 2.4895840219e-07 
2.5513836479e-07 0 2.1340869567e-07 3.4003620409e-07 0 2.4368425628e-07 2.1388234851e-07 0 1.7190110175e-07 
2.6624621663e-07 0 2.2173397787e-07 2.478417723e-07 0 2.927795738e-07 2.6136837202e-07 0 2.6488952721e-07 
2.9050893372e-07 0 2.2868143484e-07 1.989451955e-05 0 2.0119563393e-05 3.5089968009e-05 0 3.5205083885e-05 
1.2309680292e-05 0 1.2511663445e-05 1.1390881637e-05 0 1.1336456428e-05 1.9578507277e-05 0 1.916131441e-05 
1.521480966e-07 0 1.613046597e-07 1.80201477e-07 0 2.0025053894e-07 1.5707826869e-07 0 1.4765122348e-07 
1.9709694445e-07 0 1.8093442613e-07 2.1855040521e-07 0 2.2270338838e-07 6.9966288719e-06 0 6.6727892941e-06 
1.3204999955e-07 0 1.2356159602e-07 1.6471100216e-07 0 1.398921048e-07 0.0001202956446 0 0.00010806465297 
0.00018919812796 0 0.00019297398989 7.5204776451e-06 0 7.5718804398e-06 1.5836061181e-07 0 1.3924083461e-07 
0.00012015646073 0 0.00011940764849 2.0335040567e-07 0 2.1115741875e-07 1.2859845969e-06 0 1.213307256e-06 
0.00010667779252 0 0.00010788531505 5.1235190628e-06 0 5.0308486843e-06 5.1559057667e-08 0 2.1921019356e-08 
6.6945731659e-08 0 1.705796405e-07 0.00018838846467 0 0.0001920970045 0.00011947623197 0 0.00011114924408 
4.2049640796e-05 0 4.0722492039e-05 2.9754109502e-07 0 3.2327989259e-07 1.21630228e-07 0 7.1149098903e-08 
1.2636566131e-07 0 2.5777877479e-07 0.00017948674637 0 0.00018236223155 4.768194671e-08 0 5.9364995362e-08 
1.7752200049e-05 0 1.3391309076e-05 0.00017732635669 0 0.00018052851547 3.1306361818e-05 0 3.0274993653e-05 
4.1213118451e-07 0 4.2079686347e-07 2.7346791206e-07 0 2.1252348123e-07 2.0626259651e-05 0 2.0528340898e-05 
1.6275823523e-07 0 2.0451542538e-07 2.1953537985e-06 0 2.1343604999e-06 1.2931948385e-07 0 1.1093576566e-07 
0.00011851247972 0 0.0001177818077 2.2337800349e-07 0 3.5157640914e-07 2.1168842955e-08 0 -8.0238884232e-09 
5.3784110187e-08 0 1.086422749e-07 7.1651619661e-08 0 2.5385516332e-08 1.6244358242e-07 0 1.8042297721e-07 
0.00011734382339 0 0.00011256146619 0.00018910310026 0 0.00019285967196 0.00013110461433 0 0.00013358917178 
3.8479573525e-05 0 3.5475831359e-05 2.1775576633e-08 0 1.5722100011e-08 2.7381133956e-08 0 7.2155464111e-08 
0.00018859914569 0 0.00019230903408 0.00017391456508 0 0.00017380486119 5.3890692401e-06 0 4.8238383535e-06 
2.2844303246e-07 0 3.9080610717e-07 3.7501837311e-05 0 3.6570923048e-05 2.7997214761e-06 0 2.6380591955e-06 
1.2330085974e-06 0 9.6864061319e-07 0.00016595113416 0 0.0001686535308 9.3686376106e-08 0 7.6770633432e-08 
2.6757575252e-05 0 1.4530759546e-05 0.00018867099966 0 0.00019225040361 1.3570817749e-07 0 1.6374857403e-07 
1.9555892612e-07 0 1.3509854349e-07 0.000173253723 0 0.00017583534306 0.00013705537741 0 0.00013537957947 
2.3273670141e-07 0 2.8530235458e-07 1.0124925767e-07 0 5.9165602254e-08 7.4537393591e-05 0 7.2676459163e-05 
1.6292286312e-07 0 3.1685799716e-07 9.3242939097e-05 0 9.1246499349e-05 8.7018433853e-08 0 1.1280640951e-07 
6.2172685199e-07 0 6.9663883433e-07 7.3667701246e-08 0 3.5122808164e-08 0.00017432439115 0 0.0001778592063 
7.1987042606e-05 0 6.6636584482e-05 3.6397374444e-08 0 -4.1084199323e-09 1.2994719169e-07 0 2.0280025927e-07 
0.00018776018016 0 0.0001909241709 1.8321625411e-05 0 1.8077288871e-05 1.1891216395e-07 0 1.2356492593e-07 
2.75018769e-06 0 2.2535299026e-06 0.00018765389235 0 0.00019083987766 1.4227851783e-08 0 2.5623790159e-08 
1.5716626274e-07 0 1.0408337455e-07 2.7361005128e-05 0 2.6387398809e-05 2.5330751762e-07 0 2.2883827997e-07 
1.9812154636e-07 0 1.8748652966e-07 1.2672328027e-05 0 1.28524728e-05 1.5178138052e-06 0 1.1284712702e-06 
5.3170878236e-08 0 4.1712854151e-08 0.00015143902941 0 0.000152791404 9.3534198402e-06 0 7.6104632938e-06 
5.0033410259e-07 0 3.0771638134e-07 0.00016414845112 0 0.00015654585734 0.00018914237023 0 0.00019284421406 
3.664884416e-06 0 3.4623499159e-06 9.1683662987e-08 0 6.5938204963e-08 7.4180897591e-05 0 7.3369974386e-05 
7.6359619166e-05 0 7.5869705214e-05 7.2848144125e-08 0 4.7020908038e-07 1.2099669405e-08 0 -1.4912513593e-09 
1.7639487306e-08 0 5.9887312767e-08 4.8992237423e-05 0 3.2214826442e-05 0.00018903755663 0 0.00019293013708 
5.2089351988e-05 0 5.2253502902e-05 1.4297813526e-07 0 2.2454274176e-07 7.4846429014e-09 0 -1.2046999326e-08 
3.8269152121e-08 0 7.7041094136e-08 6.2099814186e-06 0 6.2366578588e-06 1.6345230283e-07 0 1.7578388749e-07 
1.5096389617e-06 0 1.7502078039e-06 0.00012776395719 0 0.00010149472798 0.00018908857464 0 0.00019286100478 
1.5421309293e-07 0 1.1167807464e-07 2.0462010297e-07 0 1.442143475e-07 1.0165048139e-05 0 9.4592839275e-06 
0.00018602089853 0 0.00018940180241 0.00015584343785 0 0.000157421581 1.6620596868e-07 0 2.2040793144e-07 
1.7357711863e-05 0 1.5941519321e-05 2.2625461357e-07 0 2.8846789592e-07 0.00018909856207 0 0.00019287655979 
0.00018910757391 0 0.0001928682328 0.00018907195418 0 0.00019288028809 0.00016020837491 0 0.00012770895259 
0.00013764668931 0 8.1085933808e-05 9.9360411876e-05 0 7.2949030118e-05 1.424139695e-08 0 3.5880625815e-08 
1.3893914785e-08 0 6.7171280733e-08 8.3777265704e-08 0 1.3010705848e-07 9.2273123844e-09 0 -1.4058519933e-08 
3.3371257237e-09 0 -7.9849301681e-09 3.0661892316e-09 0 -6.6035505926e-09 0.0001774816184 0 0.00016902583629 
0.00016941585903 0 0.00015231141164 0.0001462176223 0 0.0001345414944 0.00018414658573 0 0.00018638310198 
0.00018057301877 0 0.00017782623175 0.00016895362147 0 0.00016610664602 0.00018895199172 0 0.00019227061208 
0.0001875831955 0 0.00019110768095 0.00018244071023 0 0.00018530581243 0.00018905512543 0 0.00019281317216 
0.00018873107848 0 0.00019257553328 0.00018837136464 0 0.00019199577121 0.00018912603953 0 0.00019287037607 
0.00018912670758 0 0.00019290325556 0.00018895393937 0 0.00019271695763 0.00018911753738 0 0.00019286361968 
4.0235217418e-05 0 3.5235828366e-05 1.8811096646e-05 0 1.3477975076e-05 9.6153945222e-05 0 8.1453947099e-05 
1.2247450904e-05 0 9.0999122389e-06 7.313546503e-06 0 3.1932306734e-06 3.6569051757e-05 0 2.9135448519e-05 
1.7365397722e-06 0 1.5978244111e-06 9.4889760348e-07 0 7.823691627e-07 1.0737295862e-05 0 7.7940685586e-06 
5.6920329296e-07 0 3.7601325113e-07 9.1642796818e-08 0 1.8481953649e-07 1.9438717004e-06 0 1.2302151378e-06 
9.516641928e-08 0 2.8001482598e-07 1.2509033275e-07 0 2.6977417547e-07 2.951487409e-07 0 2.5753512306e-07 
1.3466991827e-07 0 2.5420784421e-07 1.2157095414e-07 0 2.4102020938e-07 1.9311135155e-07 0 2.9573303702e-07 
1.1599747055e-07 0 1.9732126089e-07 1.0718823401e-07 0 1.6483488933e-07 1.4835543162e-07 0 2.6981850582e-07 
9.9495720888e-08 0 1.1630983156e-07 8.5383760865e-08 0 8.8651298409e-08 1.3502986823e-07 0 1.7094952507e-07 
7.514004458e-08 0 6.614145331e-08 6.8096914269e-08 0 4.6567788679e-08 1.0170187138e-07 0 9.0729735627e-08 
6.1146971865e-08 0 3.1827114705e-08 5.204013695e-08 0 1.8823014156e-08 8.3183336679e-08 0 4.9415606498e-08 
3.8254603071e-08 0 -8.1381356227e-10 2.9086924796e-08 0 -8.2438552269e-09 7.4235775255e-08 0 2.9601274017e-08 
5.3967642023e-08 0 1.3099811869e-08 5.2513432165e-08 0 8.9653879477e-09 2.0305946012e-08 0 -1.3288681708e-08 
2.9142353376e-08 0 -6.9113128642e-09 1.4648458037e-08 0 -1.3258499046e-08 1.3450513303e-08 0 -1.1617690086e-08 
4.4698642073e-09 0 -4.747498372e-09 5.0465622272e-09 0 -1.4497306791e-09 9.7193623248e-09 0 -7.653987856e-09 
8.0055024343e-09 0 2.6438635506e-09 8.7647979831e-09 0 8.2936087656e-09 1.6626665929e-08 0 5.8207820445e-09 
5.7095270061e-09 0 9.6828372953e-09 5.737358536e-09 0 1.3982205106e-08 1.8336149815e-08 0 2.1376111402e-08 
9.8980564581e-09 0 2.8563181339e-08 1.0982803832e-08 0 3.5297110325e-08 1.9820393602e-08 0 4.5631243211e-08 
7.408999015e-09 0 2.7358834796e-08 8.8936224964e-09 0 3.0260404713e-08 2.1899028421e-08 0 6.7227134959e-08 
2.2892344962e-08 0 6.2523165125e-08 0.00018910453147 0 0.00019289407108 0.00018905520272 0 0.00019292910803 
0.00018907975036 0 0.00019289467243 0.00018873014589 0 0.00019280866615 0.00018908636941 0 0.00019284391569 
0.00018899607125 0 0.00019276550984 0.00018746686535 0 0.00019166956336 0.00018865700963 0 0.00019219484073 
0.00018820816514 0 0.00019237106357 0.00017146337363 0 0.00017479474861 0.0001808771703 0 0.00018470387398 
0.0001799186854 0 0.00018320934819 0.00013452532572 0 0.00013309017831 0.00015422191808 0 0.00015435218176 
0.00014516429281 0 0.00014725870521 9.7101209992e-05 0 9.7621556638e-05 0.00012118486266 0 0.00011993975281 
0.00010600422338 0 0.00010417636069 5.2208844363e-05 0 5.2683607246e-05 7.7006790953e-05 0 7.7267854369e-05 
7.2366316202e-05 0 7.243042397e-05 2.0061971017e-05 0 1.9538297867e-05 3.3077319755e-05 0 3.2517167179e-05 
3.2421197704e-05 0 3.2369794404e-05 4.4663200037e-06 0 4.390942236e-06 1.0160255032e-05 0 9.6621640855e-06 
9.084592735e-06 0 8.733765628e-06 8.7361806283e-07 0 9.3597990255e-07 2.2717985185e-06 0 2.2126799357e-06 
1.7746986487e-06 0 1.7288605748e-06 2.6726398427e-08 0 7.6240219928e-08 1.0786110586e-07 0 2.3232409846e-07 
1.4369682751e-07 0 2.7507748515e-07 2.4852436208e-07 0 2.9258511831e-07 1.3110841959e-07 0 2.0196053128e-07 
1.0579113248e-07 0 1.5818042952e-07 9.1781821443e-08 0 1.5200270511e-07 8.7584241699e-08 0 1.3306253841e-07 
4.7150007479e-08 0 9.4304039058e-08 2.2977507225e-05 0 2.2599793894e-05 9.9246108443e-06 0 9.9563170238e-06 
1.8674271558e-05 0 1.8260758091e-05 8.9113511597e-06 0 8.416153945e-06 2.1706498437e-05 0 2.0396607471e-05 
4.9809303724e-06 0 5.2556479652e-06 3.5991361129e-06 0 3.7828505449e-06 1.3249850897e-06 0 1.6275033189e-06 
2.9482281409e-06 0 2.9485089219e-06 3.7601947462e-06 0 3.4595710934e-06 1.2050643744e-07 0 1.2757535615e-07 
9.0264802331e-08 0 9.5246879044e-08 1.2550502425e-07 0 1.0868941282e-07 1.2504414739e-07 0 9.2486385862e-08 
1.5915473646e-07 0 1.216655842e-07 1.1394679969e-07 0 1.4086514922e-07 1.4775350295e-07 0 1.5520522386e-07 
1.8096225094e-07 0 1.5978686855e-07 1.5415614361e-07 0 1.77379198e-07 1.8067244207e-07 0 1.2453111786e-07 
1.8082875541e-07 0 1.3986873252e-07 2.0817083029e-07 0 1.6452519624e-07 0.00010317983681 0 0.00010318793106 
9.7445290475e-05 0 9.4918888028e-05 0.00012585312523 0 0.00012604418614 0.00015203531941 0 0.00015426807687 
0.00015653052297 0 0.00015895925171 5.737827822e-05 0 5.342131823e-05 7.9444029894e-05 0 7.6170024275e-05 
5.3665537242e-05 0 5.2091119272e-05 9.6511202487e-05 0 9.4650496969e-05 0.00012823615604 0 0.0001284807676 
0.00015660419225 0 0.00015934619899 0.00015124040744 0 0.00015255635448 0.00017346834113 0 0.00017726824779 
0.00010603712301 0 0.00010276710673 2.2942190728e-07 0 3.1548041116e-07 2.2230659835e-07 0 2.2789518721e-07 
2.1883238205e-07 0 2.892049426e-07 2.0107089273e-07 0 2.5565666728e-07 2.2582307226e-07 0 3.4363731479e-07 
2.2837827464e-07 0 1.720944286e-07 1.9856571058e-07 0 1.6691727358e-07 1.7208327022e-07 0 1.2495072117e-07 
1.7889814329e-07 0 1.5438312739e-07 1.5969699038e-07 0 1.3926717164e-07 1.8393009422e-07 0 1.9355633785e-07 
1.8755945533e-07 0 2.2216214021e-07 6.6898809647e-07 0 7.5473654392e-07 4.3795206036e-07 0 5.2221911225e-07 
1.7300171302e-06 0 1.5816505627e-06 3.0565475354e-06 0 2.8685713386e-06 3.670154723e-06 0 3.4994801768e-06 
4.2185682499e-07 0 4.747488002e-07 1.3892619989e-06 0 1.0772975507e-06 2.8618892737e-06 0 2.6766172974e-06 
1.0637540579e-05 0 9.1653249909e-06 5.96593743e-06 0 5.7701004619e-06 3.0399757202e-07 0 3.5543587317e-07 
1.1055697411e-05 0 1.0955889503e-05 0.00013971138084 0 0.00014290400004 0.00011233686194 0 0.0001129806962 
9.7142075694e-05 0 9.6268243545e-05 9.1098061309e-05 0 9.0894850895e-05 0.00014178239535 0 0.00014355523296 
0.00013115878772 0 0.00013152519858 0.0001193919012 0 0.00011982511241 9.0302102971e-05 0 9.0357566925e-05 
0.00010275023024 0 0.00010314544636 5.4763245898e-05 0 5.3063111801e-05 7.0306221182e-05 0 6.8637363934e-05 
5.660740884e-05 0 5.5624310682e-05 0.00015809234557 0 0.00016159502117 2.932544629e-06 0 2.4791545842e-06 
7.3646899113e-07 0 1.0256890751e-06 1.5223259543e-06 0 1.5423500648e-06 4.4424819744e-08 0 3.2156747176e-07 
3.2715503195e-05 0 3.0972097162e-05 1.3587184349e-05 0 1.2705437425e-05 1.6718756565e-05 0 1.5669373163e-05 
7.0730981887e-06 0 6.3036177986e-06 2.1889660115e-05 0 1.8760046416e-05 9.9456014716e-06 0 1.0215680031e-05 
3.9507105137e-06 0 3.7823279298e-06 1.2781480261e-06 0 9.3846913808e-07 3.6966831596e-06 0 2.5503656548e-06 
4.4751163783e-08 0 7.2398865843e-09 3.4252307043e-08 0 3.9280295577e-09 2.927046026e-08 0 7.2481443503e-09 
1.6803665074e-08 0 -4.4757848183e-09 8.6322044304e-08 0 4.0887062572e-08 7.5025209014e-08 0 3.9369240602e-08 
6.3802107397e-08 0 2.3351911803e-08 5.2835283168e-08 0 3.1495077227e-08 3.6035036724e-08 0 2.7565323182e-08 
3.6748731978e-08 0 1.9141329106e-08 9.8913797711e-08 0 6.7861303287e-08 7.1170027276e-08 0 4.6618602026e-08 
7.2356332696e-08 0 5.8175180517e-08 6.3266296893e-08 0 1.8329791573e-07 4.4638535237e-08 0 1.4368212514e-07 
2.9621452975e-08 0 8.3157712118e-08 3.7429046745e-08 0 1.1224433164e-07 7.6020937767e-08 0 1.6445900285e-07 
7.941175588e-08 0 1.8045750873e-07 1.106215095e-07 0 2.3949830239e-07 5.025682903e-08 0 9.1891394304e-08 
7.3716664555e-08 0 1.3824298997e-07 3.9962860209e-08 0 1.0958733596e-07 9.4138607915e-08 0 1.6653230094e-07 
1.3663198081e-07 0 1.8279431027e-07 0.00018895324614 0 0.00019270762889 0.00018911781829 0 0.00019286020914 
0.00018899245334 0 0.00019271547114 0.00018907346029 0 0.00019288575481 0.00018892544225 0 0.00019275724304 
0.00018848812093 0 0.00019224387463 0.00018776271925 0 0.00019139368284 0.00018826143844 0 0.00019182142968 
0.00018560404755 0 0.00018949440112 0.00018502542202 0 0.00018892343364 0.00018850078635 0 0.00019232165446 
0.00018473034995 0 0.00018830411891 0.00018118473471 0 0.00018409831359 0.00014350662091 0 0.00013697843385 
0.00014336411013 0 0.00013831166329 0.00011877650431 0 0.00011180734722 8.6800545332e-05 0 7.4218805827e-05 
8.7499526505e-05 0 8.1040935193e-05 0.00015093808375 0 0.00014843404703 0.00016550188748 0 0.0001664432818 
0.00013820806018 0 0.00013653024031 9.4595091638e-05 0 8.9857813693e-05 4.9759069881e-05 0 4.156135574e-05 
7.263327151e-05 0 6.2063799421e-05 0.00012554964495 0 0.00012507915891 0.00014632262042 0 0.00014731859535 
6.6743578686e-05 0 6.505565463e-05 7.813420672e-05 0 7.7834680492e-05 5.8663910337e-05 0 5.8208358651e-05 
8.5031018015e-06 0 7.5367702532e-06 2.5847916949e-05 0 2.4382069141e-05 1.8637544264e-05 0 1.6477416003e-05 
2.7782978516e-05 0 2.7010608561e-05 4.0383225876e-05 0 3.920942154e-05 4.7724829343e-05 0 4.6735473544e-05 
3.2290548486e-05 0 3.1288100888e-05 2.5553531566e-07 0 2.6107789737e-07 4.0948917358e-07 0 4.4519106556e-07 
2.2723372502e-07 0 3.3742370836e-07 2.6407089859e-07 0 2.9540820594e-07 2.0307116202e-06 0 1.6238325124e-06 
4.3770307241e-07 0 6.2037235135e-07 2.0390113456e-07 0 1.9163259773e-07 9.0820216609e-08 0 3.4974074266e-07 
1.8111057453e-07 0 3.2538836567e-07 1.8264189742e-07 0 2.7057523288e-07 1.7585875712e-07 0 2.4377148555e-07 
1.132453191e-07 0 6.4246319831e-08 9.5114536715e-08 0 4.6601557286e-08 9.7072769159e-08 0 5.1377203416e-08 
1.7881655283e-07 0 1.1860685221e-07 1.3989641887e-07 0 8.6381680556e-08 1.5633705321e-07 0 1.028179527e-07 
1.3851724487e-07 0 8.9603475954e-08 1.2744271335e-07 0 8.0988811447e-08 1.0918420652e-07 0 6.7245854485e-08 
1.2186699144e-07 0 8.6768681113e-08 1.5954423892e-07 0 2.554572309e-07 6.205034817e-07 0 6.7484219243e-07 
2.8528716376e-06 0 2.7448575803e-06 9.9608422459e-07 0 9.7043658885e-07 1.6949218405e-07 0 2.2272501162e-07 
1.3320292114e-07 0 1.79817247e-07 1.409146561e-07 0 1.8653105376e-07 2.1496506055e-07 0 2.2722510187e-07 
3.3180949799e-07 0 3.1772252581e-07 1.0157258896e-07 0 1.7564581107e-07 0.00018476792717 0 0.00018787235061 
0.00018654778783 0 0.00019030011315 0.000182486271 0 0.00018674428944 0.00017553947589 0 0.00017897888127 
0.00016892642566 0 0.00017228109233 0.00016271089309 0 0.00016348070702 0.00017606888199 0 0.00017940302347 
2.8902227913e-08 0 4.2909064822e-08 3.3230825949e-08 0 3.4240744209e-08 5.044721291e-08 0 5.0740908757e-08 
6.5626478648e-08 0 8.2860605551e-08 3.7099460473e-08 0 6.7701877046e-08 6.9429547768e-08 0 6.8085534639e-08 
4.1750626054e-05 0 3.6772112626e-05 2.7844906107e-05 0 2.4614827426e-05 1.2762030427e-05 0 1.1150456666e-05 
8.65211597e-06 0 6.1813238813e-06 5.3154122267e-06 0 4.1365748154e-06 2.1026207563e-05 0 1.8283726997e-05 
0.00017574245785 0 0.00017927108253 0.00015902363328 0 0.00016221851219 0.00016638688523 0 0.00016894359168 
0.00018252821192 0 0.00018717514271 0.00017127746995 0 0.00017534713412 0.00018639372185 0 0.00019014660795 
5.1127961166e-05 0 4.9915645681e-05 3.5204741486e-05 0 3.2845784064e-05 1.8918083803e-05 0 1.8200654079e-05 
2.9545469357e-05 0 2.8390812598e-05 1.2126118234e-05 0 1.0807348383e-05 5.752443251e-06 0 5.2854187598e-06 
4.9848875595e-05 0 4.7166586827e-05 5.1249375949e-05 0 4.9441759221e-05 7.4179881487e-05 0 7.3073016785e-05 
4.2575843237e-07 0 3.4148547533e-07 1.3029769788e-06 0 1.4346888741e-06 6.722654924e-07 0 7.5045013899e-07 
2.9833494052e-06 0 2.8524752237e-06 3.0383078774e-07 0 2.9681395659e-07 2.4961864684e-07 0 4.0066431407e-07 
3.7820535881e-07 0 5.704540525e-07 3.1916473075e-07 0 2.6062421608e-07 2.6577668366e-07 0 1.9476671337e-07 
2.3429782535e-07 0 1.6734702987e-07 2.3956777868e-07 0 1.6929062594e-07 2.0462246925e-07 0 1.3790231925e-07 
2.3903438184e-07 0 1.9496365643e-07 2.6107887287e-07 0 2.5055205316e-07 3.5595300834e-07 0 2.1020648615e-07 
3.4280775686e-05 0 3.4199532779e-05 1.9423726849e-05 0 1.9399746297e-05 1.1222656911e-05 0 1.1222769853e-05 
1.2246319754e-05 0 1.2383876955e-05 1.9185745212e-05 0 1.8352978664e-05 1.5489681303e-07 0 2.1431947141e-07 
1.4341310392e-07 0 1.6404195014e-07 1.6459844826e-07 0 1.876396778e-07 1.4147966904e-07 0 1.4953285173e-07 
1.8628730275e-07 0 2.4287576054e-07 7.1390727133e-06 0 6.9208633582e-06 1.0957440056e-07 0 8.519297198e-08 
1.234722827e-07 0 1.1865366674e-07 1.458065449e-07 0 1.4022814078e-07 1.4225856686e-07 0 1.1125918094e-07 
0.00011973569726 0 0.00010910371772 0.00018910154269 0 0.00019286867636 1.9043607421e-07 6.5979887711e-08 3.6455089552e-07 
5.1539199814e-08 -1.1237205217e-09 2.1831725383e-08 1.0908074469e-07 8.6853633638e-09 1.6192720614e-07 9.5054261782e-08 1.6994810227e-08 1.3186420896e-07 
2.476705294e-07 -6.2226624209e-10 5.179321527e-07 2.6680471145e-08 -1.9066154223e-09 -1.8106204802e-08 3.655892065e-05 5.1733280077e-06 6.7280768591e-06 
1.5567344989e-07 4.3201638996e-08 3.2260795637e-07 5.6884160068e-08 -4.7279093741e-09 5.1668442844e-08 5.6612567713e-08 2.975530351e-09 3.2316223942e-08 
7.8750198797e-08 -7.528386687e-10 7.6521498147e-08 7.1092225907e-08 1.3783154512e-08 8.0593920799e-08 7.123000155e-08 -4.1877134322e-09 9.3294682766e-08 
2.14788158e-07 3.4465736246e-08 3.3034857292e-07 1.5743033242e-08 -3.1216765386e-10 -2.7236200257e-08 3.9130535542e-08 3.8026583262e-10 -1.3679071222e-09 
3.6515871872e-08 -3.5809578361e-09 1.6181343212e-08 6.0899590747e-05 -5.1218367302e-08 1.940402601e-05 1.3270508738e-06 -7.7571541266e-08 1.4006535006e-06 
1.3705667016e-08 -2.7811112222e-09 -2.4701267873e-08 8.6885570822e-05 1.8651466448e-05 3.0377503919e-05 1.2896689184e-07 3.4305203414e-08 2.3895850695e-07 
1.3018741261e-07 7.2333065686e-09 2.3755748773e-07 2.381602517e-07 7.7364487467e-08 4.5542364829e-07 3.0789233702e-07 8.1007707625e-08 4.1818994713e-07 
3.3723954999e-08 -2.3960979749e-09 9.513618574e-10 1.0295416925e-06 1.1861171923e-06 6.6165488001e-06 6.3210476823e-08 -3.9174651119e-09 4.8252787475e-08 
4.1908889911e-08 -3.7597105123e-09 1.659718674e-08 5.4071029728e-07 5.4390096671e-08 4.9368548738e-07 1.3336866423e-07 2.6950323045e-08 2.8749312385e-07 
2.8065395367e-08 -6.9249004862e-10 -9.8517045876e-09 4.9465996632e-08 2.362862158e-09 2.2868424746e-08 4.7674631104e-08 -3.6293998966e-09 4.1715613309e-08 
3.467765807e-06 -1.6202481177e-06 2.0716904316e-06 8.1456847254e-08 -2.433962712e-09 9.8174685571e-08 2.000574227e-08 -2.1289039154e-09 -3.914227093e-09 
2.6160063272e-08 -8.0572060468e-10 -1.8482328484e-08 4.3359965316e-08 3.312053889e-07 1.4892309343e-06 8.6269671967e-09 -1.6940209787e-09 -1.9405872166e-08 
7.6717333574e-07 -5.1566037564e-08 8.0522386548e-07 8.9970144558e-08 5.389424362e-09 1.2414996436e-07 1.8739154379e-07 5.0885048232e-08 3.6503679887e-07 
2.0686988937e-07 6.7020796405e-08 3.6853914847e-07 1.8182243728e-08 -2.4921843212e-09 -1.171038482e-08 9.8463962445e-08 5.2030426153e-09 1.3619371951e-07 
0.00011199869779 2.9042711297e-06 1.9171642397e-05 5.8361157222e-08 -2.4660719104e-09 7.0853096377e-08 5.9178331184e-08 5.2688679294e-09 5.3441540511e-08 
6.9060024917e-07 1.5447616051e-07 8.0258367927e-07 2.3892985248e-07 4.9480156231e-08 4.1380798729e-07 2.4360761791e-07 2.094093647e-08 3.9609864736e-07 
9.578777785e-08 2.1474896519e-08 2.1239722582e-07 1.0617702753e-08 -9.9998038241e-10 -2.1093008464e-08 8.7122586881e-08 2.104297726e-08 1.243864491e-07 
8.8683654074e-08 8.1649279566e-11 1.3452147599e-07 1.4351520883e-07 3.7775209555e-08 2.7512363197e-07 0.0001049500143 2.3921671717e-06 3.4207588274e-05 
7.8535311895e-08 1.376400496e-08 8.1353809609e-08 2.7118340714e-07 1.1282384409e-07 4.6823076659e-07 2.8536293274e-05 4.3834403203e-06 9.0483655272e-06 
4.1107246445e-08 -5.0488041155e-11 3.0395588746e-09 1.0241095371e-07 1.8125482599e-09 2.1654114245e-07 1.1783325631e-07 2.8131531915e-08 2.2263582815e-07 
0.00012068646144 -1.4714418162e-05 3.7748159524e-05 0.00014943059621 -1.1547425892e-05 2.8928170357e-05 7.5745595051e-05 -2.3231734639e-06 3.0810930191e-05 
5.1401948476e-09 -7.1149028058e-10 -1.3650670856e-08 1.1526068154e-08 -1.9613609966e-09 -2.1112300254e-08 4.7726176168e-09 -6.2205255083e-10 -1.5244980318e-08 
0.00013508689622 9.3382311003e-06 2.8978589432e-05 0.00013748725826 2.5459070883e-05 2.4336762457e-05 9.3688469673e-05 2.7532862777e-05 2.876427668e-05 
0.00014343261676 -3.1328316042e-06 2.861456572e-05 0.00014494965712 3.1861667473e-06 2.5394130369e-05 9.8182644267e-05 1.0882980263e-05 2.4184843121e-05 
0.00011203544144 1.7328649545e-06 2.4391980012e-05 3.7297395416e-05 -1.210928357e-05 1.0967314465e-05 9.5011807051e-07 -1.0954491637e-07 6.7834638021e-07 
1.8770926671e-06 1.9095553601e-06 6.2927212272e-06 3.1861844114e-07 3.641755155e-07 3.6639635306e-06 3.6809730073e-07 2.6614326133e-07 1.57237279e-07 
1.0188525676e-06 3.1201721532e-07 1.0516628605e-06 8.2706338739e-07 -6.1199203121e-07 -6.8318125773e-07 5.6673632417e-08 1.9678598879e-07 2.6235496019e-07 
1.4695170719e-07 3.1697723768e-08 2.996555347e-07 2.1149038622e-07 3.7645029147e-08 2.7499237028e-07 2.8863205046e-07 5.1370294308e-08 2.9290867669e-07 
1.0658197844e-07 2.5315194988e-08 2.4107313178e-07 1.2670366756e-07 2.8849385741e-08 2.5801711117e-07 1.5889853094e-07 2.3042038371e-08 3.1905947957e-07 
8.2771876629e-08 1.4979228863e-08 1.6775304256e-07 9.3265728634e-08 2.06756302e-08 2.1202316577e-07 1.1207552114e-07 2.249128918e-08 2.5188611221e-07 
7.8436152461e-08 1.6075820098e-08 1.4460828195e-07 5.3810152894e-08 3.4017536829e-09 4.2793294747e-08 6.0067426129e-08 3.9031964875e-09 6.3990646558e-08 
6.3665384612e-08 7.0612255003e-09 7.9310846007e-08 4.1895357617e-08 8.754373146e-10 1.2392649731e-08 4.9007622979e-08 2.2114632284e-09 2.8330843956e-08 
5.4808614758e-08 3.7747203849e-09 3.7156472524e-08 2.3925176126e-08 -2.0128901894e-09 -1.7522641321e-08 3.0810464741e-08 -8.349808257e-10 -7.3641939582e-09 
3.7374732118e-08 1.4294124112e-10 1.5250751856e-09 4.4694921321e-08 1.3887601967e-09 9.9331416007e-09 3.226813131e-08 -4.4766300299e-10 -1.1104840725e-08 
1.7602980204e-08 -2.1580161957e-09 -2.1751982996e-08 1.4645756731e-08 -1.526598546e-09 -2.3908656896e-08 2.0809990687e-08 -1.0402487899e-09 -2.4066420287e-08 
1.3138878139e-08 -6.0412017542e-10 -2.5063242627e-08 5.9048230455e-08 -2.9146433885e-09 7.7488472564e-08 5.1828211208e-08 -2.7127924018e-09 5.8768049628e-08 
6.5359443271e-08 -2.3541247949e-09 9.2906700769e-08 4.7133878236e-08 -3.5997770808e-09 4.4978318813e-08 3.9184972596e-08 -2.005803266e-09 2.8798179721e-08 
5.3769027007e-08 -2.7559275937e-09 5.5234283218e-08 2.5889426458e-08 -1.8706143632e-09 6.0319099334e-09 1.8728266546e-08 -7.6323203847e-10 -3.6629020635e-09 
3.4403375673e-08 -2.5621413967e-09 1.7130190292e-08 4.249141779e-08 -3.4928840892e-09 2.8094697226e-08 2.7831585511e-08 -2.7635094165e-09 4.9704659234e-09 
1.2227128438e-08 -5.4495350035e-10 -9.7188659229e-09 1.3635835248e-08 -1.9194950856e-09 -9.0745472823e-09 4.2505722151e-09 -8.3460706796e-10 -1.3082693134e-08 
3.8044416588e-09 -1.7164087318e-09 -1.3477819525e-08 8.0837348853e-09 -1.6408402764e-09 -1.6150909977e-08 6.1067670733e-09 -1.4007310962e-09 -1.8439774984e-08 
6.434935847e-09 -4.3772316447e-10 -1.7717188832e-08 1.1318651474e-08 -2.1638340334e-09 -2.2852682671e-08 1.0331097991e-08 -2.4241819542e-09 -2.1466957253e-08 
8.1010911497e-09 -5.1058546043e-12 -1.9282841878e-08 2.286687014e-07 7.0607382468e-08 3.9967145425e-07 1.9587715211e-07 6.4687794195e-08 3.5915111347e-07 
2.3384137948e-07 7.0143412789e-08 3.738221285e-07 3.0174614282e-07 1.0802128969e-07 4.3621091998e-07 2.2210809291e-07 8.5481731778e-08 4.108093021e-07 
1.8542207198e-07 6.2224723261e-08 3.6822323625e-07 1.6673001629e-07 4.3107376203e-08 3.2306847021e-07 1.6671303609e-07 5.0651980378e-08 3.2766381305e-07 
2.1733342961e-07 8.2867981091e-08 4.0982695558e-07 1.6992919536e-07 5.2961403257e-08 3.1435009678e-07 6.5399780629e-08 -9.9089955038e-10 4.5897586845e-08 
5.8032870374e-08 -2.3282264528e-09 3.4633545845e-08 7.2604879097e-08 -2.504587811e-09 6.073625718e-08 6.6886927267e-08 2.3677239514e-10 4.9516991089e-08 
5.3204971375e-08 9.612554209e-10 2.5144049505e-08 4.252809859e-08 -1.9351723675e-09 1.0465980187e-08 3.8025109452e-08 -2.9658933281e-09 8.4312892628e-09 
4.7438372475e-08 -2.8837532194e-09 1.9280714484e-08 3.8745499721e-08 -5.4469434216e-10 4.155015601e-09 3.0926005417e-08 -1.428639531e-09 -4.8073625663e-09 
4.4866598709e-08 3.6582783178e-10 1.3940658104e-08 3.2744167501e-08 4.7312433717e-11 -1.2406456615e-09 5.2486496759e-08 -4.1066312407e-09 3.1216124572e-08 
9.3220972562e-07 -3.5395032163e-07 1.4642098103e-06 5.9912642768e-07 -1.4062668585e-07 1.7281719683e-07 2.7119707789e-07 1.4668794814e-07 1.3486723353e-06 
2.617818979e-06 -4.8945875216e-07 1.1694122099e-06 1.0750562536e-06 -7.4969959219e-07 8.5591458162e-07 5.0069905074e-07 1.1275180172e-07 8.1073388996e-07 
4.2534685092e-06 -1.2072313661e-06 1.2161997046e-06 1.1609343839e-07 6.4669957693e-09 1.9027135778e-07 1.1443347405e-07 7.6063152965e-09 1.7425628371e-07 
1.0576522184e-07 6.1233328948e-09 1.4719540771e-07 1.0648456998e-07 3.9195912557e-09 1.8777427976e-07 1.1718241582e-07 4.2442460255e-09 2.2847378625e-07 
9.494911451e-08 1.2243109375e-09 1.2604439537e-07 9.1020743776e-08 1.0404451912e-09 1.1733535972e-07 8.6207611945e-08 -2.0873556551e-09 1.1744586456e-07 
9.7828645446e-08 3.6820682498e-09 1.4820512216e-07 9.8265010686e-08 1.6811352705e-09 1.6436508937e-07 1.0763104804e-07 2.2637353771e-08 1.7628954861e-07 
9.7187795499e-08 1.2449627306e-08 1.2988870679e-07 1.0879345026e-07 2.0569067163e-08 1.7414058409e-07 1.2516417431e-07 3.0602246985e-08 2.2987209465e-07 
1.0390522225e-07 2.3749895977e-08 1.7325211016e-07 8.0904346956e-08 1.2648126383e-08 9.0348941118e-08 7.8826837929e-08 5.0464903949e-09 8.8244058639e-08 
8.7085253614e-08 1.6888936335e-08 1.0336220117e-07 7.2788709887e-08 8.6522130314e-09 6.7734420822e-08 9.438465594e-08 1.996373222e-08 1.283507822e-07 
8.445340989e-08 1.7818320704e-08 1.0255462765e-07 1.0052580589e-07 2.3993798991e-08 1.640915438e-07 2.4885319162e-07 2.214908909e-08 3.6256688149e-07 
3.2946863514e-07 4.0715666885e-08 3.9246958381e-07 2.2223809625e-07 4.022520871e-08 3.6747624004e-07 2.5217475781e-07 4.9024297801e-08 4.4832701017e-07 
5.0527507274e-07 2.6355668154e-07 1.6119226208e-07 5.6063656044e-07 1.0704183871e-07 2.5259676902e-07 2.3274053052e-07 1.1702759546e-07 2.0537732406e-07 
3.6307901902e-07 1.1979982149e-07 5.9696430241e-07 6.5745270731e-07 2.4721862452e-08 4.2859041132e-07 3.0426711936e-07 9.6171860851e-08 4.3798839184e-07 
4.0914741549e-07 1.3552660923e-07 4.5239122057e-07 2.4738750446e-07 7.1704300613e-08 4.3987663328e-07 2.4336382891e-07 -7.4072336952e-09 3.7943766096e-07 
2.0475397039e-07 1.4040842287e-08 3.3766699317e-07 5.036437713e-07 6.3995294494e-08 5.5361182254e-07 4.3969330533e-07 -1.5463187165e-08 4.5094233772e-07 
3.367968657e-07 2.189722447e-08 3.7023683719e-07 5.234668649e-07 8.0376185949e-08 4.5332072733e-07 2.917555647e-07 4.033525445e-08 4.0396910629e-07 
1.8859881597e-08 -2.8492103935e-09 -4.3111867404e-09 2.7217186584e-08 -3.4101968066e-09 4.1613078268e-09 3.8737344567e-08 -4.1431605198e-09 1.6174789947e-08 
2.8763291798e-08 -2.8254991294e-09 3.8714814704e-09 1.806540398e-08 -2.3334446208e-09 -8.4557579599e-09 1.1923946109e-08 -2.0799298171e-09 -1.2972731768e-08 
2.6023768465e-08 -2.2765305895e-09 -3.2853978367e-09 2.5486782324e-08 -2.7032518786e-09 -7.2379765147e-09 2.0589730269e-08 -1.3513857205e-09 -2.3283870054e-08 
2.6669163307e-08 -1.2301740493e-09 -1.8545983117e-08 1.0443393428e-08 -5.0643276232e-10 -2.1659368816e-08 1.5638568377e-08 -2.4583797228e-09 -2.3278592181e-08 
3.2891178006e-08 -1.2712372523e-09 -1.070051331e-08 3.3446464962e-08 -1.6566334353e-09 -8.6393654909e-09 4.025807192e-08 2.6436446437e-10 7.2163292831e-10 
1.963644771e-08 -2.4986622957e-09 -2.2839133443e-08 2.0431688392e-08 -2.0276524886e-09 -1.960349741e-08 2.7645648039e-08 -1.6086409103e-09 -1.4291048469e-08 
3.1523718665e-08 -2.0092110179e-09 -5.763514505e-09 3.8461427722e-08 -3.0521979695e-10 5.4876234109e-09 4.5698617243e-05 1.3657687429e-06 1.4105484754e-05 
6.8286135766e-05 4.9152793687e-06 1.8639928876e-05 8.7402402264e-05 9.477330615e-07 2.0210243188e-05 3.3133871696e-05 -1.9879950339e-06 9.8422865378e-06 
2.0218874879e-05 -2.6062145459e-07 1.145644344e-05 5.6778933585e-05 1.1722823787e-05 1.3268208059e-05 3.3131122908e-05 3.4429152789e-06 7.2507559847e-06 
5.4420401895e-05 7.8164622623e-06 2.4511963895e-05 1.253598935e-05 4.5549920883e-06 5.7307762367e-06 4.1175768848e-06 2.8972042648e-07 2.2944253866e-06 
1.4370191276e-05 1.3755858831e-06 1.5204240743e-06 1.8636125348e-05 1.555764991e-06 4.8905230355e-06 1.3074568212e-05 3.974488064e-06 1.8208722686e-06 
1.7807982647e-07 3.6594690581e-08 3.4713517414e-07 1.3575107484e-07 3.6100795149e-08 3.1029327437e-07 1.9326114674e-07 4.3868482891e-08 3.621999464e-07 
1.4539287911e-07 3.9679066301e-08 2.8337169562e-07 1.5673032428e-07 4.0135384869e-08 2.9526583691e-07 1.6990197229e-07 4.7657626003e-08 3.4040017065e-07 
1.3635405365e-07 3.5131856598e-08 2.7346714281e-07 1.9383479779e-07 4.7973426353e-08 3.8228988524e-07 2.1191975003e-07 7.3090033987e-08 4.009423766e-07 
1.1817221513e-07 3.2125041408e-08 2.6724067497e-07 1.0097605468e-07 2.858015485e-08 2.1276177134e-07 1.9856042793e-07 3.576038905e-09 3.2464693709e-07 
1.3777538141e-07 2.0775222237e-08 2.6599207759e-07 1.7642382369e-07 2.9240099824e-08 3.2083576936e-07 1.6004033429e-07 3.4995543727e-08 2.9297802144e-07 
1.080140929e-07 9.3465727089e-09 2.335957272e-07 2.1992127517e-07 4.4123964892e-08 3.3632585587e-07 8.9677990651e-08 5.0234252599e-09 1.8025674405e-07 
6.4442173641e-08 -4.9711677643e-09 7.0677030084e-08 7.6971595089e-08 -4.1112810547e-09 9.6001807013e-08 6.8805204567e-08 -4.705556243e-09 7.2388041897e-08 
5.8145047645e-08 -4.2379390629e-09 6.1214658668e-08 6.4044477378e-08 -4.0748322677e-09 8.170256448e-08 4.6422231902e-08 -4.3253040198e-09 3.1574491968e-08 
5.0130973142e-08 -4.3727677733e-09 3.2236687629e-08 5.2147505877e-08 -4.4508140375e-09 4.6660188534e-08 6.0350959974e-08 -4.6695676636e-09 5.0084328791e-08 
7.2875869664e-08 -3.8396739837e-09 6.9788209653e-08 6.5693122127e-08 8.9332749603e-09 5.4460223945e-08 6.4761997517e-08 9.1743412063e-09 6.6922122028e-08 
5.9956850613e-08 6.2548978699e-09 4.3193929721e-08 6.6546399016e-08 8.1716438967e-09 5.3528977795e-08 7.5429097319e-08 1.4903953933e-08 8.1201093649e-08 
4.7576200654e-08 1.7281572118e-09 1.3871164612e-08 5.3461024207e-08 3.0672224073e-09 2.7808660813e-08 4.879479507e-08 1.588937306e-09 1.6466214273e-08 
4.7276592848e-08 1.3121801753e-09 1.7578250586e-08 5.2138422986e-08 1.1366013081e-09 3.0198506386e-08 5.7550430402e-08 2.9751716468e-09 3.9747503254e-08 
5.6688455067e-05 5.1059795266e-06 1.3070878223e-05 2.8753935975e-05 -1.160844794e-06 1.8589306674e-05 1.1606770348e-08 -2.295311924e-09 -1.7818551979e-08 
1.5374507186e-08 -2.2414766002e-09 -1.162807708e-08 1.5248735159e-08 -2.4614813112e-09 -2.0849565473e-08 2.0495316791e-08 -9.0629805948e-10 -1.2933777052e-08 
2.2770709759e-08 -2.0905830523e-09 -9.9368300358e-09 6.4798640169e-07 -1.6550106779e-07 5.6565978794e-07 1.3590982098e-06 -7.1912145301e-07 2.6977574355e-07 
3.1331795053e-07 -7.8352914069e-08 1.1525103361e-06 6.5856376793e-07 3.0942852361e-07 -1.4750398461e-07 3.8877770236e-07 1.2401007204e-07 4.125302315e-07 
5.5791122788e-07 2.2503799266e-08 5.1296575827e-07 3.2334717993e-07 7.6734604232e-08 4.2432361381e-07 2.8517501811e-07 1.0305181261e-07 2.4324370677e-07 
6.5974524034e-07 2.7134216177e-08 6.011575452e-07 3.4341138511e-07 2.1758453607e-07 5.7490605556e-07 5.3765878907e-07 5.4300762232e-08 4.7018914404e-07 
4.6378915024e-07 7.4053706034e-08 4.3936222576e-07 1.1599894571e-07 3.2146951177e-08 2.0538217496e-07 8.9078334209e-08 5.6703567879e-09 1.3662326387e-07 
1.1268122824e-07 3.1026183907e-08 2.0167822673e-07 1.3865899519e-07 3.8007336087e-08 2.5924038692e-07 1.1724361768e-07 9.0992602112e-09 1.9548972941e-07 
9.5125844528e-08 9.1710604669e-09 1.3501466219e-07 1.3993013555e-07 2.6574929969e-08 2.5425599836e-07 9.0744009037e-08 5.596123653e-09 1.2577720472e-07 
7.4022348857e-08 1.4234836042e-09 6.4527762283e-08 8.4832116693e-08 2.7704136472e-09 9.679921345e-08 8.26395171e-08 -1.8384129793e-09 8.7008418946e-08 
8.8267016649e-08 8.7878475217e-10 1.0450015368e-07 8.9904736302e-08 1.7473888996e-08 1.7529170488e-07 7.1774764584e-08 1.6563683574e-08 1.0695744177e-07 
8.1564568692e-08 2.1091025925e-08 1.3675854317e-07 9.7922099947e-08 1.8688316228e-08 1.8263740145e-07 9.0802971078e-08 -1.5371373315e-09 1.4408462531e-07 
8.1581451305e-08 -2.3294127754e-09 1.2429627191e-07 9.6091064689e-08 1.3509607967e-09 1.8086192143e-07 6.8208827037e-08 1.1548862199e-08 9.0807143831e-08 
7.7609598479e-08 1.7336766736e-08 1.0116310053e-07 7.9296395224e-08 -2.1074127444e-09 1.1299588376e-07 7.4341320099e-08 -2.3407364628e-09 1.0704295172e-07 
8.2424887899e-05 1.6874679633e-06 2.7152409223e-05 2.7187456863e-07 1.0338784354e-07 4.6742536655e-07 0.00012507295669 1.2428215939e-06 0.00012696540323 
2.4356170567e-06 -1.580579106e-07 2.3754965894e-06 0.00018852927145 -1.2657468116e-08 0.00019279276347 3.5508790304e-05 -2.3014474026e-07 3.5699232083e-05 
3.7688469757e-05 8.0093687165e-08 3.6814548617e-05 0.00018155019552 -3.1141474555e-07 0.00018071230464 0.00017987777789 4.426833051e-07 0.00018058851345 
2.193692672e-07 3.7745935992e-08 1.7790218379e-07 2.0798072988e-07 9.764716769e-09 1.9291577094e-07 0.00018903448376 4.57394759e-08 0.00019296716185 
0.00018897183612 1.9336901756e-08 0.00019293182917 0.00012001652955 6.8843237182e-07 0.00011972634714 0.00012435268444 -8.1827765161e-09 0.00012471164001 
4.3407951397e-06 9.7858605649e-08 3.7992643026e-06 4.1855771072e-06 1.993633828e-08 4.2208646367e-06 0.00018895884722 2.4114919393e-08 0.00019294777628 
2.0422295333e-07 7.9354948718e-09 1.7884792267e-07 0.00018872296924 -2.2561204918e-07 0.00019280018253 0.00018825639399 -7.0814190193e-08 0.00019264863894 
0.00017764264147 -9.5368965242e-07 0.00017579618934 5.8200395173e-05 -6.1162656904e-07 5.9983976636e-05 1.1832024305e-05 2.9261566701e-07 1.1247845845e-05 
6.2595428548e-05 5.5277303341e-07 6.2336445011e-05 6.3335918683e-05 6.3701207506e-07 6.3283037746e-05 1.9716064324e-05 1.3661489907e-06 1.7618210846e-05 
1.9485448107e-05 5.1660703142e-08 1.9359217108e-05 0.00016382281157 -4.1528880721e-07 0.00016605369277 0.00016570163206 1.0180502966e-07 0.00016462510786 
1.9031288819e-07 1.1090252459e-08 2.1254043636e-07 1.5321899037e-07 9.5294499815e-09 1.7183524246e-07 3.8018247818e-07 -4.8153043441e-08 3.8610636049e-07 
8.2200481269e-07 -3.0576524623e-08 9.1189088565e-07 0.0001889761745 2.3219736413e-08 0.00019297768577 0.00018898220084 2.7866727516e-08 0.00019295555794 
0.00018875378002 -1.1184944665e-08 0.00019039665247 0.00018697020893 2.7852309843e-07 0.00019207870846 1.596900176e-07 -5.214056144e-09 1.6690957285e-07 
1.6298317731e-07 1.1046669774e-08 1.8258724762e-07 0.00018904697319 2.1447198585e-08 0.00019297835388 0.00018907229788 6.4508370366e-09 0.0001929720336 
7.9276874462e-05 -1.1797172047e-06 7.6619048659e-05 7.8579891299e-05 -2.1006997268e-08 7.926480985e-05 0.00015385976935 -5.9366591563e-07 0.00015646968244 
0.00015949231931 7.2015261425e-07 0.00015828964214 0.00018463834043 3.2477509261e-07 0.00018636519013 0.00018625662462 -5.8884626689e-07 0.00018761257033 
4.4007055359e-07 -3.206448576e-08 2.3783576119e-07 0.00018887668382 -3.9507363975e-08 0.00019308360677 0.00018907471005 1.4570090726e-08 0.00019280609602 
1.0500579043e-06 -2.5429448455e-08 1.1180008349e-06 1.2494658315e-05 -6.3550073823e-07 1.261745996e-05 0.0001888642277 4.0413930792e-08 0.00019305818261 
0.00018907353456 4.8351800974e-08 0.00019297057449 1.5699970561e-05 3.1041498703e-07 1.4255622559e-05 7.7088049498e-07 -1.2837980863e-07 6.8202089271e-07 
0.00018760872411 6.2926192532e-07 0.00018911373084 0.00013024763187 3.2949403406e-07 0.00012946997243 0.00012522883463 -4.8434302762e-07 0.0001273037297 
2.4810261434e-07 8.5275188702e-09 1.7525287629e-07 3.111559182e-06 3.3430096983e-08 3.0015685665e-06 2.4952518394e-06 -4.2506825631e-08 2.7464422441e-06 
0.00018853929854 5.1578659978e-08 0.00019279211181 0.00018870014109 -1.4463491466e-07 0.00019261186713 2.765094476e-07 -1.4817895275e-08 2.1352765619e-07 
1.689137401e-07 1.1906698563e-09 1.5154071521e-07 4.2053265094e-06 -1.9048216072e-07 4.1367286474e-06 0.00018903233094 2.0205497973e-08 0.0001929804238 
3.8347440913e-05 1.4095959833e-07 3.7353257812e-05 3.857075838e-05 2.124219099e-07 3.8752710616e-05 0.00018844415808 -1.5749624279e-07 0.00019215473712 
0.0001884639168 -6.4382772735e-08 0.00019248491645 1.2371377657e-07 -8.0151142417e-09 1.7950738778e-07 0.00018297479654 -1.8482410269e-07 0.00018609653903 
3.4786215458e-05 -5.7914817471e-08 3.2325384087e-05 0.0001166907279 2.7000825962e-07 0.00012172011605 0.0001187453942 3.6163298371e-07 0.00011876338615 
2.2279862899e-07 1.5499126248e-08 1.8628524783e-07 0.00018629355695 2.793921823e-07 0.0001896416053 0.00018742460353 -3.7638854287e-07 0.00018919126067 
3.4317526641e-05 -3.6344482163e-07 3.4412888906e-05 0.00018906241793 1.3431535403e-08 0.00019297214891 0.00018900583397 4.1676246377e-08 0.00019295139377 
9.2651625893e-06 -3.8731509984e-08 9.0568099486e-06 1.0920682035e-05 6.2344947269e-07 1.0483262367e-05 3.235832122e-06 -1.3625790234e-07 3.1633685484e-06 
0.00018003123847 -2.5699406419e-07 0.0001799506706 0.00015877073683 5.2138217849e-07 0.00016193855652 0.00016268455897 5.7203376404e-07 0.00016263602653 
1.2103996624e-07 1.4924740807e-08 1.4810225842e-07 1.329535887e-07 4.0117948773e-09 1.5946925536e-07 0.00018877084121 2.6872383055e-08 0.00019300323331 
0.00018887799001 5.990803275e-08 0.00019288345208 8.7544362316e-05 1.3839296117e-07 8.8026643059e-05 8.7408693821e-05 -5.4805134605e-08 8.9061627654e-05 
1.1257979194e-07 6.7159348103e-09 1.6766664573e-07 1.0223414597e-07 -4.2035361591e-09 1.3887457281e-07 3.8101024781e-05 -6.5923092913e-07 3.8074000375e-05 
3.9820578549e-05 3.4710401811e-07 4.0562241696e-05 9.2303908417e-05 3.8277792699e-07 9.2762014549e-05 0.00018907069369 1.084228479e-08 0.00019294693893 
0.00018902511049 2.1122719522e-08 0.00019291931745 1.8847853416e-05 -1.835221206e-07 1.8973498277e-05 0.00015505639423 -2.4440560566e-07 0.0001547372837 
0.0001890168753 1.5185127485e-08 0.00019300910666 0.00018907630633 1.6507129354e-09 0.00019303182225 9.0251519789e-07 -1.5448185422e-10 1.0571217849e-06 
8.152997005e-05 1.0915471949e-07 8.2492803503e-05 8.0979669287e-05 4.7248236533e-07 8.199775009e-05 0.00018909909032 2.1234336132e-09 0.0001929715877 
0.00018908827347 9.6661330766e-09 0.00019296710084 0.00018906284016 1.253583092e-08 0.00019298079538 0.00018907718473 1.9517843512e-08 0.00019290725874 
0.00018908205538 1.3790754546e-08 0.00019290549241 0.0001890490158 1.2470762159e-08 0.00019291490187 2.5696192502e-08 -3.6739496538e-09 1.4912022618e-07 
3.6396635209e-08 -1.0506204264e-08 1.3673037521e-07 1.4482252104e-07 3.1854914188e-09 1.8799212576e-07 3.2952292169e-08 8.2508863392e-09 1.1582836671e-07 
2.4925004793e-08 3.650745672e-09 1.35201656e-07 1.0363509088e-07 -9.0702868299e-10 1.4598143102e-07 0.00018908147744 1.8129225671e-08 0.00019295979636 
0.00018908661407 1.7136304993e-08 0.00019295425708 0.00018905711067 1.553505751e-08 0.00019296207145 0.00018908552753 1.4841265869e-08 0.00019296955712 
0.00018908545807 1.0803858105e-08 0.00019296856346 0.00018907957201 1.0173861221e-08 0.00019298506866 0.00018908137919 1.1200519922e-08 0.00019296267659 
0.00018907441554 2.2392375699e-08 0.00019296666924 0.00018906577078 6.1894411798e-09 0.000192991552 0.00018906397578 2.5858252843e-08 0.00019297965295 
0.00018906701722 3.5671224467e-08 0.00019296567669 0.00018904499098 2.8928251922e-08 0.00019299251941 0.00018906480644 3.6068164976e-08 0.00019293985352 
0.00018906656338 3.496490305e-08 0.00019292004867 0.00018903505944 2.9915952506e-08 0.00019298962586 0.00018903526509 2.4084655824e-08 0.00019294871079 
2.9089139657e-08 -2.1566976472e-09 1.483012193e-07 2.8992400569e-08 2.2399462897e-09 1.5072285083e-07 1.3510458979e-07 1.5040245392e-08 1.4414545503e-07 
3.6988455223e-08 -3.3530052231e-09 1.7450634721e-07 3.6400409022e-08 2.7839171715e-09 1.7363386983e-07 1.4917918244e-07 4.5022165833e-11 1.6741574195e-07 
3.9456659586e-08 1.4889485947e-08 1.1580274731e-07 2.7954803208e-08 5.5796693182e-09 1.5134339798e-07 1.5184591115e-07 -8.8438481423e-09 1.7346184028e-07 
3.7372452898e-08 8.4132557353e-09 1.5891747316e-07 5.1272543563e-08 2.659666786e-10 1.4376952764e-07 1.1374458733e-07 -7.4867804118e-09 2.0749041049e-07 
2.8156439612e-08 6.7115080359e-09 1.4337882902e-07 2.8241616643e-08 6.6293983024e-09 1.3137292818e-07 1.4204692055e-07 1.4898190906e-08 1.6557443253e-07 
1.1087777047e-07 1.4262174531e-08 1.3432857594e-07 0.00018895221119 2.0079887488e-08 0.00019312579895 0.00018896645434 -2.4940790496e-08 0.00019306073842 
0.00018895946723 2.3282869638e-08 0.00019300645661 0.00018899137031 -5.4736557129e-08 0.00019308846889 0.00018900397464 7.7948361887e-10 0.0001931970712 
0.0001888552389 1.0396880403e-08 0.00019311676451 0.0001882242722 7.4879548465e-08 0.00019165038526 0.00018861161331 -1.5531424489e-07 0.00019305165337 
0.00018889093473 -1.0509666365e-08 0.00019307864467 0.00018152792692 5.912863044e-08 0.00018292089419 0.00018636765494 -2.205337671e-07 0.00018956011731 
0.00018793666374 1.1080738369e-07 0.00019163300678 0.00015872797433 1.4035694942e-07 0.00015771084625 0.000172322968 -2.5467267207e-08 0.00017224486687 
0.00017832479069 6.030164139e-08 0.00017874321765 0.00011548008884 2.7355365987e-07 0.00011543489301 0.00014053087437 2.8842927976e-07 0.00014003685291 
0.0001506102675 2.6698247017e-07 0.00014901875978 7.0182537832e-05 -1.0448843259e-07 7.022225275e-05 9.3808937312e-05 2.0843483981e-07 9.4116979218e-05 
0.00010794794284 1.9026989347e-07 0.00010735343343 2.9519954797e-05 1.9873752673e-07 2.9967980039e-05 4.6378964558e-05 8.7332268776e-08 4.6391571114e-05 
6.0551888762e-05 -7.4876288771e-08 6.060650903e-05 7.1406885923e-06 -1.1453313537e-08 7.5003256398e-06 1.4937688443e-05 -6.6015180304e-08 1.4873571613e-05 
2.1410058814e-05 1.907635899e-07 2.1955272407e-05 1.3767973726e-06 5.5384700864e-09 1.5819137457e-06 3.9415736287e-06 -4.4094245331e-08 4.1764508923e-06 
5.3304505526e-06 -1.8301021244e-08 5.5103641288e-06 2.3970685264e-07 -5.2492955493e-09 2.2107566368e-07 3.1961002166e-07 -1.0083559835e-08 3.079789652e-07 
1.1362063595e-06 -6.7885228322e-08 1.3700940217e-06 4.1458704075e-07 -2.5717152083e-08 4.2049824493e-07 3.182373921e-07 -3.0782879768e-08 2.9155401329e-07 
1.9739446035e-07 -1.0438907268e-08 2.0317889414e-07 2.3356549441e-07 3.8628751503e-09 2.0879035354e-07 1.7057672977e-07 -4.0593793147e-09 1.9291478439e-07 
1.5177716003e-07 9.9901300097e-09 1.9067122302e-07 0.00018901348777 4.3195361533e-08 0.00019296030892 0.00018897341175 3.0290680597e-08 0.00019290861736 
0.0001889674019 4.0113884715e-08 0.00019295651049 0.00018904651494 9.5070109756e-09 0.00019302286921 0.00018909022366 3.7955901732e-09 0.00019288115738 
0.00018899458289 2.1974702515e-08 0.00019298052371 0.00018861853728 5.0078531332e-09 0.00019300427828 0.00018826792615 -2.5601262351e-08 0.00019216733046 
0.0001890210848 -6.353520624e-08 0.00019289047486 0.00018706638378 -2.6021141854e-07 0.00018993048711 0.00018258054436 -1.2751787226e-07 0.00018328377832 
0.0001885096859 -2.4885280085e-07 0.00019160266245 0.00017169331031 2.7881435841e-07 0.00017208016369 0.00015634725986 -8.8214588326e-07 0.00015648249049 
0.00017954990176 6.3292147738e-08 0.00017759253025 0.00013624225809 -7.5591702626e-07 0.00013766864367 0.00011314850216 -2.5907616952e-07 0.00011370802813 
0.00014545380646 -1.259867325e-06 0.00014456541386 9.3859620843e-05 -3.755654759e-07 9.4704817226e-05 7.0161893401e-05 -4.2985363481e-07 7.0404005007e-05 
0.00010634944038 1.3051883852e-07 0.00010790453904 4.5347974379e-05 2.4206193852e-07 4.4345073839e-05 2.9109119862e-05 3.8234941739e-07 2.8761853047e-05 
5.9795004711e-05 8.4039597239e-08 6.0079015536e-05 1.5458500445e-05 1.1645089362e-07 1.5672966841e-05 7.789858437e-06 1.9859092352e-07 7.9638514999e-06 
2.1755381546e-05 4.0787433921e-07 2.2140894361e-05 4.2380327468e-06 5.178992495e-08 4.119725595e-06 2.0298924837e-06 5.7803786799e-08 2.2251642202e-06 
6.4163700399e-06 3.2121861333e-07 6.5669516747e-06 4.4413906891e-07 2.8312435829e-08 4.4440561836e-07 1.5674698743e-07 8.487549928e-09 1.30546201e-07 
1.704550848e-06 4.1351195806e-08 1.7171457874e-06 1.0384581972e-06 -4.4122250073e-08 1.1309945346e-06 3.0769243334e-07 6.4215836556e-09 3.7443991423e-07 
1.1849495608e-07 1.2013382907e-08 1.5503841079e-07 1.6283802419e-07 4.7518654751e-09 1.6363535864e-07 1.1734284385e-07 6.7266545021e-09 1.5910051926e-07 
1.2534892836e-07 4.4301939387e-09 1.5677957716e-07 0.00014043297966 1.1311766476e-06 0.00013821950504 0.00012192515546 4.5645020355e-07 0.00012222054146 
0.00014383928671 1.3492514416e-06 0.00014110967607 0.00014090748615 1.3068980352e-06 0.00014086836743 0.00015699042616 -3.1290696386e-07 0.00015596671841 
0.00010791147817 8.5835338411e-07 0.00010903745967 0.00010345354405 5.3392063351e-07 0.00010685143397 0.00012104316039 5.2652943554e-07 0.00012545520654 
0.00013695468291 7.6450363128e-07 0.00013855221146 0.00010547902124 7.6992256638e-07 0.00010591492321 3.569320098e-06 -1.0587405745e-07 3.3784189875e-06 
7.5067005728e-06 2.1585597237e-08 7.7085188276e-06 6.1091068756e-06 -3.5835493562e-08 6.4363229392e-06 6.8754090525e-06 1.9408721647e-07 7.7225660563e-06 
2.8203482216e-06 -1.6501204058e-07 2.8424809138e-06 8.6656971869e-07 -2.3040502476e-08 9.213722132e-07 3.2421710194e-07 1.9708071942e-09 2.1064124958e-07 
8.5509963401e-07 7.0827124739e-08 8.662180924e-07 1.1663801857e-06 1.0030042021e-08 1.1965295442e-06 4.8839678278e-07 9.7666676582e-09 5.3173062252e-07 
1.6437610793e-06 -1.1603233877e-07 1.7860200374e-06 1.9591311738e-06 -6.627864921e-08 1.996744024e-06 0.00018890498661 4.0550586702e-07 0.00019293579364 
0.00018838085801 4.2929823756e-07 0.00018956718408 0.00018885996104 2.2669209216e-08 0.00019289509932 0.00018910951032 -7.0138957748e-08 0.00019325426539 
0.00018840534508 9.5990696501e-09 0.00019286131397 0.00018726882392 2.4484236263e-07 0.00019107441206 0.00018825255911 9.0860107934e-08 0.00019314063109 
0.00018866289807 -4.4210069624e-08 0.00019312548497 0.0001887760421 1.9841343382e-07 0.0001936503 0.00018892760937 -4.2363758509e-09 0.00019304466438 
0.0001887763275 5.4517531416e-09 0.00019315074919 0.00018861725958 -4.4986813169e-09 0.00019305168899 0.00018878540305 4.7061068709e-08 0.00019314443395 
0.00018879648943 -2.5458646997e-08 0.00019296895389 2.4242165452e-05 5.8243255255e-07 2.4280773894e-05 1.76646834e-05 7.1281903977e-07 1.7165591681e-05 
2.6942677789e-05 2.8261669639e-07 2.7424359479e-05 2.7237239048e-05 3.3749770132e-07 2.8839305873e-05 3.7366718687e-05 -5.4097131856e-07 3.663144481e-05 
5.4805225104e-05 -5.2449951282e-07 5.5230612267e-05 3.5004856816e-05 -2.0535870533e-08 3.5152463988e-05 5.5156201673e-05 5.0983531929e-08 5.5282162787e-05 
5.6247396074e-05 -3.8826336158e-07 5.5515005148e-05 8.0038305357e-05 -2.6172547497e-07 7.9730669742e-05 2.3247326149e-05 5.3985631057e-07 2.3661717764e-05 
5.755300039e-05 2.402024991e-07 5.8544992679e-05 3.6088338739e-05 6.5985654253e-08 3.4465767925e-05 5.3139812359e-05 -1.2590218151e-07 5.4677984841e-05 
5.5595389558e-05 2.9759801564e-07 5.6629435626e-05 7.9824406778e-05 1.5748205954e-07 8.0710163249e-05 5.7020556074e-05 1.1009406931e-07 5.6971697646e-05 
2.1887767624e-05 -8.7516818954e-07 2.2243869016e-05 2.2681042612e-05 -4.670186022e-07 2.3401314102e-05 2.7045913331e-05 -3.5377124973e-07 2.7291971739e-05 
1.513272872e-05 -2.6189137084e-07 1.5702928159e-05 2.8260817698e-05 -8.9519830175e-08 2.8650087853e-05 3.875652048e-05 6.8615436405e-08 3.8692905788e-05 
5.8767288488e-05 3.9949558505e-07 5.8953424097e-05 0.00018420533252 -1.8201912605e-07 0.00018408183911 0.00017411855098 -2.3580739537e-07 0.00017416000838 
0.00017279403494 6.4503220328e-07 0.00017384721699 0.00016137682488 9.8864954312e-08 0.00016443922181 0.00018514334742 -3.0842318165e-07 0.00018687432849 
0.00018821947687 -2.8785390717e-07 0.00018960112459 0.00018653492983 -1.0768807155e-07 0.00018756301287 0.00018638692574 -6.8102438146e-08 0.00018745551615 
0.00018019150499 -3.4190263196e-07 0.0001801982442 0.00016908109527 -6.4289015753e-07 0.00016931745872 0.00017038830651 -3.8542993553e-07 0.00017036199098 
0.00015704950144 -9.072252347e-07 0.00015793927926 0.00018672122806 -5.327477522e-07 0.0001885374319 0.00018190153915 3.3000157292e-07 0.00018471420685 
0.0001740230871 3.6900422449e-07 0.00017298734897 0.00016414144902 5.5396093432e-07 0.00016364740647 0.0001729458544 3.4607492047e-07 0.00017259345193 
0.00018118515818 5.9182590022e-08 0.00018329118668 0.00018558025181 1.4822033814e-07 0.00018976045634 0.00018460462803 2.321855343e-07 0.00018718574615 
0.00018685205063 2.7435955211e-07 0.00019079744411 0.00018372866211 6.0908293703e-07 0.00018563507627 0.00017439554832 1.1531916216e-07 0.00017476951256 
0.00017166896005 3.545243039e-07 0.00017152139391 0.00016118152253 4.644253871e-07 0.00016084623698 0.00018533582831 2.3362777169e-07 0.00018832798871 
1.5060161461e-07 1.8804096588e-08 1.6522111317e-07 1.5899406255e-07 3.1661764672e-08 1.8157969272e-07 1.6437560002e-07 2.4460722392e-08 1.74687228e-07 
1.3525592337e-07 1.435409916e-08 1.6183068732e-07 9.1294877138e-07 -1.0101065014e-07 9.4654105545e-07 3.9448175397e-07 -2.6217718408e-08 3.5285322598e-07 
2.9975275165e-07 1.602973665e-08 3.5358911318e-07 2.1901155045e-07 2.6745041528e-08 1.8922185606e-07 1.9460098496e-07 1.241792637e-08 1.8559633193e-07 
1.7855908726e-07 1.6718853238e-08 1.6909923604e-07 4.8395952196e-07 -1.0851167981e-07 4.2254469309e-07 3.1106159257e-07 9.3351847014e-09 2.51175556e-07 
3.09766724e-07 1.6877949453e-10 2.3161034458e-07 2.4508309391e-07 -4.626702789e-09 2.4066643398e-07 1.9925583596e-07 9.4312943769e-09 2.0607967204e-07 
1.5491834146e-07 8.8934739964e-09 1.8771378981e-07 1.7215362606e-07 5.7233232736e-09 1.8565604157e-07 2.8700078561e-07 -1.3238136026e-08 2.6662486377e-07 
3.8550015498e-07 -4.8164372933e-08 4.6378623559e-07 5.7484992899e-07 -1.9696980474e-08 6.8138847551e-07 1.9200585307e-07 -5.6569147704e-09 1.8068727238e-07 
2.1468981803e-07 -2.507110722e-09 2.2972789169e-07 1.7140008561e-07 7.3699573747e-10 1.7933819268e-07 4.4834602231e-07 -6.5287591455e-08 4.912421129e-07 
1.0077427635e-06 -6.366042678e-10 1.0538718636e-06 0.00018905476289 2.4014736589e-08 0.000192989336 0.00018903531445 2.2276721992e-08 0.00019296428797 
0.00018901675808 3.6811555439e-08 0.0001929855782 0.00018890431647 5.4700393387e-08 0.00019297397558 0.00018897647798 1.9257241415e-08 0.0001930056585 
0.00018906391446 1.6803235458e-08 0.00019298352515 0.00018905299387 2.9776003597e-08 0.00019296138721 0.0001890712315 -3.6804310303e-09 0.00019299867139 
0.00018887828475 -2.3756306109e-08 0.0001930270843 0.00018890516293 1.1058315813e-08 0.00019303469209 0.00018897650743 5.9643425469e-08 0.00019306734653 
0.00018905748299 3.0788925236e-08 0.00019295189556 0.00018907916457 6.2330933061e-09 0.00019301829349 0.00018899873733 3.2451285218e-08 0.00019297091937 
0.00018897834702 3.383275811e-08 0.00019300103407 0.00018899135076 3.6711696089e-08 0.00019303063823 0.00018898208383 4.5748805691e-08 0.00019303300627 
0.00018892024935 2.2729374265e-08 0.00019295791334 0.00018902047198 1.9772856758e-08 0.00019303011948 0.00018902311388 1.6974873764e-08 0.0001930131074 
0.0001890210623 2.1837736639e-08 0.00019300337654 0.00018896925015 3.9812072222e-08 0.00019313957622 0.00018894994446 5.2288890979e-08 0.00019300389073 
0.00018904335033 2.2677942644e-08 0.00019297769883 0.00018905985017 2.2788774277e-08 0.00019307338719 0.00018901400902 2.4925440092e-08 0.00019307958298 
0.00012325801875 1.5386349239e-07 0.00012383049531 0.00014328382068 7.7545243331e-08 0.00014276509864 0.00013919724479 6.934178048e-07 0.00013919782854 
0.00011848299423 1.1710293798e-07 0.00011984179222 9.7700756364e-05 -1.203135238e-07 9.6398384456e-05 9.9349007307e-05 -1.9749397417e-07 0.00010022934663 
0.00010090900649 4.3415382013e-07 0.0001016296458 0.00013533603426 7.9755422437e-07 0.00013718551195 0.00013705042953 5.0495050152e-07 0.0001365034082 
0.00010432011806 3.4743843725e-07 0.00010499290483 8.5130070579e-05 2.3296818849e-07 8.6151609625e-05 0.00012732472952 2.625000858e-07 0.00012706100781 
0.00014803156512 6.7202120313e-07 0.00014669348166 0.00014623040584 8.2445734687e-07 0.00014472274553 9.7981531032e-05 5.0173480239e-07 9.7728972405e-05 
0.00012116267604 4.3229747318e-07 0.00012269707537 0.00010076075838 5.4888775927e-07 0.00010051173041 0.000101898842 4.432650569e-08 0.00010227342728 
0.00014415041512 9.5135022491e-07 0.00014200095802 0.00010539800571 1.6585335866e-07 0.00010500183092 8.4598642127e-05 8.2794248777e-08 8.5045453511e-05 
9.1866707121e-06 3.0348679065e-07 9.0449746311e-06 1.0560482408e-05 3.1958691208e-07 1.1159868076e-05 7.7774200978e-06 6.032202164e-07 8.406917316e-06 
1.4611470115e-05 1.2569174894e-06 1.4647094941e-05 2.0699956836e-06 -1.0180679506e-07 2.4459578005e-06 2.1575720266e-06 1.1531091799e-07 2.2232730286e-06 
4.3029617947e-06 -5.5477962098e-10 4.3124609602e-06 9.0487918193e-06 2.2997765802e-07 8.8873629383e-06 4.6130678269e-06 4.831482594e-08 4.708511438e-06 
2.0025044415e-06 -1.7760095671e-07 2.1033826035e-06 1.4066571051e-05 9.9495599099e-08 1.4134802714e-05 6.7031163219e-06 -1.1209423119e-07 6.6721068103e-06 
1.0319661486e-05 -1.9686053901e-07 1.0300781365e-05 1.0081416554e-05 -1.6854380352e-07 1.0138446338e-05 1.9134807619e-05 -2.0371428364e-07 1.906910508e-05 
4.0625071732e-06 -1.3308363511e-07 4.1136312143e-06 2.1261988558e-06 6.2503959918e-08 2.180437406e-06 2.2178871076e-06 3.1500924442e-08 2.4891486761e-06 
7.0573624564e-06 -2.3601702403e-07 8.1733627682e-06 7.6237689738e-06 -2.1122006479e-07 7.8250372039e-06 3.2518167321e-06 -8.7018745216e-08 3.582629381e-06 
1.5679462838e-06 -3.6961073807e-08 1.9446536061e-06 0.00018899558328 1.5639857621e-08 0.00019299399992 0.00018901940368 1.8853913714e-08 0.00019301022163 
0.00018900449046 8.1463063822e-09 0.00019299110062 0.00018904462042 -6.2021274373e-09 0.00019300340039 0.00018902526869 -7.9864352826e-09 0.00019300889827 
0.00018902257021 -1.1392871612e-08 0.00019304466106 0.00018902697884 3.3721013367e-09 0.00019307438576 2.2720748589e-07 1.2507702416e-08 1.9091318258e-07 
1.7441999361e-07 -4.3347867239e-09 1.7324702613e-07 1.6685435904e-07 -6.6423222175e-10 1.7953901814e-07 1.7924465005e-07 1.3040897287e-08 1.9029457731e-07 
2.1447310421e-07 9.0422830096e-09 1.7896684606e-07 2.865213199e-07 -1.0333194965e-08 2.2602716309e-07 0.00018891785724 -2.3979773978e-07 0.00019305880951 
0.00018808850575 9.7154516487e-09 0.00019320171513 0.00018789417322 8.8581998985e-08 0.00019205314589 0.00018853726086 -2.3696729139e-07 0.00019257155912 
0.00018761337919 -2.2913713857e-09 0.00019156627171 0.0001887755998 -7.1273369484e-08 0.00019291269199 0.00018843974936 3.6029673109e-08 0.000192831673 
0.00018864191981 -7.989316989e-08 0.0001922614891 0.00018822348911 -2.2895874505e-07 0.00019181569712 0.00018834605753 -9.2843218688e-08 0.000192613904 
0.00018848923583 -1.3290579244e-07 0.00019146548051 0.0001889490717 -3.3094478101e-08 0.00019295080073 0.00018025099912 -2.4897612754e-07 0.0001820088344 
0.0001687504909 4.3156547295e-07 0.00016810043009 0.00016807982445 -3.9681051594e-07 0.00016432636129 0.0001856049655 3.5646553182e-07 0.00018781222986 
0.00018435352491 2.7381063504e-07 0.0001847313776 0.00017840170503 -4.3029762698e-07 0.00017811529137 0.00018497377787 1.0844820283e-07 0.00018640419078 
0.00016981876787 -5.1556699778e-07 0.00016937862577 4.5048638222e-05 -5.8826636237e-07 4.7951851822e-05 6.7433724737e-05 -6.9081634965e-07 6.7910400446e-05 
8.4656293853e-05 2.5808641694e-07 8.3580881354e-05 7.469373504e-05 -4.6920752313e-07 7.5869149144e-05 4.5375935634e-05 -3.4384217556e-07 4.5918750477e-05 
6.8209537997e-05 -1.7856863741e-07 6.9458678591e-05 8.5964044374e-05 2.5606701663e-07 8.6281592506e-05 3.4524307098e-05 8.3116569562e-08 3.4332643842e-05 
2.1440952987e-05 2.0086245415e-07 2.0925204936e-05 1.2017453616e-05 -1.9054148894e-07 1.2388619235e-05 1.4210795549e-05 4.1818417968e-07 1.298023748e-05 
2.1328873146e-05 -9.2593341411e-08 2.1574774878e-05 7.4434316292e-05 7.0898120739e-09 7.5225244662e-05 4.9480421005e-05 4.5367839011e-07 4.9006593001e-05 
4.9645473308e-05 1.9200468902e-07 5.0278869681e-05 3.8529595275e-05 -2.9614124425e-07 3.737691986e-05 7.1365291666e-05 5.469144914e-07 7.1786262463e-05 
7.5120813798e-05 4.6731606386e-07 7.5282218753e-05 5.0168591661e-05 3.1437912081e-07 5.0187688142e-05 3.9181710422e-05 3.2085979579e-07 3.97503877e-05 
5.0950541648e-05 4.5832421586e-07 5.0899270643e-05 7.1853635656e-05 6.3428977092e-07 7.2210026474e-05 2.7787941156e-05 2.4951831777e-07 2.7135958514e-05 
2.8057280773e-05 2.4418427947e-07 2.8130694299e-05 2.8646741954e-05 1.9833439229e-08 2.8872858172e-05 0.00018900360379 2.5221464341e-08 0.00019295505875 
0.00018902220902 1.5151648802e-08 0.00019296840404 0.00015385405165 -6.376031215e-07 0.0001554660192 -6.1627002598e-08 2.317456465e-08 6.8030776027e-09 
-9.7031221421e-08 3.5649483372e-08 -1.0264934572e-07 -2.8289979791e-10 -7.7977469101e-09 6.2889304527e-08 2.7577209151e-09 -1.3792184096e-08 5.9550812739e-08 
-2.3411268701e-08 7.2610697329e-09 2.9678137803e-08 -5.3805448728e-08 2.3826212032e-08 -4.4755256777e-08 -3.295158351e-08 1.032399174e-08 1.1058723143e-08 
-3.8247731501e-08 3.1326398161e-08 -2.7167220247e-08 -6.7082422092e-08 3.145133595e-08 -3.6488666809e-08 -3.534160563e-08 1.6913719466e-08 2.9169200711e-09 
-1.1929701873e-08 5.20165489e-09 7.8892721896e-09 -3.7847150867e-08 6.850011325e-09 4.5507761396e-08 7.0035343882e-09 -1.3388178606e-08 4.3179560337e-08 
-7.2143932389e-08 1.5989892553e-08 -4.6790365341e-09 -5.3411682708e-08 3.5879199073e-08 -2.3992858699e-08 -1.711523713e-08 -1.4381682795e-09 3.8493113017e-08 
-1.4611276851e-08 1.9006357368e-08 -1.4154959596e-08 3.4620206199e-08 -1.1843432881e-08 5.8856931861e-08 -1.7496449359e-08 4.2451082625e-10 4.64891839e-08 
-3.2032958495e-08 1.515608854e-08 1.3090362384e-09 -6.7619267934e-08 5.043785478e-08 -9.1472836691e-08 -2.3741013162e-08 5.4530323031e-09 3.6831975797e-08 
-6.5247547811e-09 -7.6729681145e-09 5.551273054e-08 -1.6794806888e-08 4.1801867686e-09 4.1991081667e-09 -2.3676656601e-08 1.2592475066e-08 -3.5318458787e-08 
1.1461006562e-08 6.2728669538e-08 4.875415121e-08 9.8695925359e-08 -9.9247342294e-08 -5.0067865467e-08 -2.1421990992e-08 2.3921646414e-08 -3.1156556683e-08 
1.1330705262e-09 -2.2457671791e-08 7.3878916601e-08 -1.4379914398e-08 7.6963230719e-09 6.5974510234e-09 -4.4367907149e-08 1.0519358974e-08 -1.1616940594e-08 
-6.8911728243e-08 3.2206526831e-08 -1.2394980712e-07 4.1889350211e-08 -1.9606216987e-08 -7.5206191182e-09 3.2051418805e-09 -9.6378789932e-09 5.4758764018e-08 
-5.3218299721e-08 2.6932662913e-08 9.3830145065e-10 -3.4923220199e-08 1.9992766259e-08 -1.3519048998e-08 -3.2333407237e-08 5.1838197474e-09 2.0867309485e-08 
-1.3280500961e-09 -1.3098277018e-08 6.5700686914e-08 -5.5820271746e-08 2.1050205257e-08 -9.7191368056e-09 -2.1176035849e-08 9.5352564523e-09 3.6504624595e-09 
-2.0066196283e-08 3.9037723687e-08 -4.2638226282e-08 -8.4914517728e-09 -1.0490551121e-09 3.8813184685e-08 -1.1296995485e-08 5.6598858144e-09 3.9572827851e-09 
-5.74065649e-08 1.3046049461e-08 2.3965200591e-08 1.5887720375e-08 -2.0380204904e-08 3.4873135024e-08 -8.3582404927e-09 -1.0089798014e-09 3.8270902213e-08 
4.4269423104e-08 -1.3118434335e-08 -2.0996220303e-08 2.9145988315e-08 -5.1551869803e-08 -1.5401096117e-07 -1.1927807491e-08 2.2703877726e-08 -1.8111951242e-08 
-1.1559486647e-07 6.3632464445e-08 -2.116396828e-07 -3.5895091668e-08 7.7678176585e-09 -2.0533738827e-08 -8.2826991151e-08 3.3390160818e-08 -7.1830216345e-08 
8.9510211345e-08 -1.3788561072e-08 7.7160966161e-08 -3.5489150755e-08 9.7474771885e-09 2.3740319105e-08 -8.8990480497e-09 2.4976206126e-09 2.0683523843e-08 
-4.0624771235e-08 3.0374845949e-08 -7.5677222761e-08 -9.4814470893e-08 1.2842275401e-08 -4.6722256443e-08 -3.1339493987e-08 7.4146049735e-09 4.2781620334e-08 
5.1219584801e-08 -3.4170353573e-08 6.9071997797e-08 3.3961154627e-08 -3.3858761662e-08 7.1649191652e-08 -3.0086652521e-08 1.2358953115e-08 -1.5548177978e-09 
-6.6315942541e-08 2.1010907299e-08 -2.1594606228e-09 -2.6485999792e-08 1.4820537721e-09 5.0752714759e-08 -9.6044079489e-09 5.0779473671e-09 1.4259123357e-08 
-4.9648135163e-08 1.5634219124e-08 1.9713298664e-08 -3.6979769629e-08 1.8245567378e-08 -7.1878534175e-09 -2.8868251131e-08 1.7985274884e-08 -6.0276462376e-09 
-5.6799147242e-08 7.7035990944e-08 -1.1178545394e-07 -8.1990737734e-08 1.7279099886e-08 -6.4066481706e-08 2.8941207397e-08 -2.932156151e-08 4.8117009016e-08 
-4.2931707213e-08 4.1100694775e-09 3.8857510966e-08 -5.7795147606e-08 3.3070407412e-08 -3.7455320597e-08 -1.5868599641e-08 4.3062548835e-09 2.5871824911e-08 
-1.2639133218e-08 5.772475964e-09 1.7643269699e-08 -4.3107360974e-08 1.074417534e-07 -2.2555856302e-07 -2.8167372691e-08 1.3665148396e-08 -1.5537904538e-08 
-6.6820969529e-08 2.9250060149e-08 1.7598625646e-09 -2.9317813158e-08 1.1727496829e-08 1.859525744e-08 -2.7635528627e-08 4.0079441212e-08 -6.0730470654e-08 
-4.0079839171e-08 8.9178961388e-09 2.9982149334e-08 -5.6038334971e-08 2.1888184652e-08 -3.3020629046e-08 -8.3876061781e-08 3.861076711e-08 -6.4076205688e-08 
-2.5523000588e-08 3.6738974002e-09 4.4433858255e-08 -1.8669417614e-08 6.1424789399e-09 1.7801091815e-09 -1.1208830433e-07 2.6119148379e-08 -1.5542401352e-07 
-2.3309195102e-08 1.0672978833e-08 -4.1121836476e-09 -2.0494866215e-08 4.7701526831e-09 2.0717899414e-08 -1.2403704377e-08 1.5419192709e-09 2.7313643228e-08 
-1.996804629e-08 2.6975020479e-08 -3.766336907e-08 3.3140088848e-08 -2.3454019509e-08 4.1165218324e-08 1.0700075044e-07 -4.0275976248e-08 6.6261802775e-08 
-4.1911708805e-09 1.6367813729e-09 2.2932261868e-09 -1.5044151624e-08 7.0110806428e-09 1.3131302147e-09 3.0534374495e-08 -3.108049581e-08 4.9025412452e-08 
1.8179429203e-09 -3.5539914286e-09 4.2748094591e-08 -2.6539371128e-08 7.6874164273e-09 3.9116782505e-10 -3.8043607787e-08 1.6069344144e-08 1.5176981325e-08 
1.5254706755e-09 -8.5536675893e-09 4.104530187e-08 -8.0897101696e-09 -6.9944962903e-09 5.5096978231e-08 -5.6972230489e-08 4.3654886954e-08 -4.3495595205e-08 
5.1230001604e-09 -7.1536313017e-09 2.2864584404e-08 -7.2742719202e-08 4.2596389146e-08 -3.9007812307e-08 -3.7039934959e-08 5.7581513142e-09 3.5010690293e-09 
-1.7360640317e-08 7.2083161921e-09 6.7341666578e-09 -1.0661168406e-08 4.4628794919e-09 6.2779575197e-10 -9.573056425e-09 3.6839365538e-09 1.8061293183e-09 
-1.7434677609e-08 6.0304527621e-09 5.5900167159e-09 -9.2982313147e-09 3.0229692195e-09 1.6729620016e-10 -2.000974453e-08 8.1072762405e-09 2.6679243591e-09 
-5.8453261565e-08 1.260110124e-08 -8.4759333244e-08 -4.4662895528e-08 1.9253442238e-08 -7.6843143099e-08 -3.4453905414e-08 7.2735043183e-09 -4.3850975071e-08 
-6.4792179916e-08 8.255220198e-09 -6.427158096e-08 -5.3063007064e-08 1.6012226117e-08 -5.8162206443e-08 -7.9001445087e-08 2.5085642444e-08 -9.3598380546e-08 
2.6494506576e-08 -1.2882030629e-08 7.0994509459e-08 3.0497653374e-08 -2.0011882105e-08 7.1022749858e-08 4.5138562105e-08 -2.1915625447e-08 6.5194596556e-08 
6.8323978614e-08 -2.384018313e-08 7.2201006029e-08 7.5906715019e-08 -3.7819382452e-08 7.4037631719e-08 4.231508528e-08 -1.8502166214e-08 6.8887679709e-08 
6.0621257235e-08 -1.4094362712e-08 7.1257991801e-08 3.6125028587e-08 -1.1116032179e-08 7.2038973775e-08 1.0484495337e-07 -2.4920574812e-08 7.3826608882e-08 
-2.9358761495e-08 1.8689409722e-09 4.7363601892e-08 2.8768276804e-09 -4.8840361319e-09 6.5566609802e-08 1.6701857453e-09 -4.6491021878e-09 5.8713770394e-08 
-5.8205718875e-09 -1.9737860531e-09 4.8515967785e-08 1.2518058281e-08 -7.0031944535e-09 5.333077851e-08 -1.0041081853e-08 -1.7413820221e-09 5.7671413899e-08 
-5.1887605006e-08 2.0716546295e-08 2.3986366858e-08 -3.7670607468e-08 1.0246829257e-08 3.6718671078e-08 -2.8206179107e-08 -2.6760713857e-09 5.9611793253e-08 
-2.2434933731e-08 -2.2077160047e-09 5.3859971001e-08 1.184310228e-08 -2.5792591265e-08 6.8433420212e-08 -2.9158380239e-08 2.1668544868e-10 -7.4407122235e-09 
-4.968096026e-08 2.1818077441e-08 5.1312672189e-09 -4.5082172474e-08 2.2289846283e-08 2.5181547904e-09 -5.8941910997e-08 2.7083839044e-08 1.7251899902e-09 
-6.6206539488e-08 3.1113968581e-08 -2.2672740519e-08 -5.7456250778e-08 3.2856160115e-08 -2.0887370301e-08 -4.8288990165e-08 2.4671698723e-08 -1.0683973258e-08 
1.4300381843e-09 -2.1109651441e-08 7.2404748404e-08 1.7383724445e-08 -3.7321427334e-08 6.9824214927e-08 7.9179019868e-09 -1.5486766019e-08 5.8945845299e-08 
5.1103996067e-09 -1.3532551121e-08 6.8143865859e-08 1.6017747515e-08 -2.5507576361e-08 6.4667099452e-08 -2.8294589045e-10 -1.7857691852e-08 7.1547104765e-08 
-9.7562724803e-09 8.3135692343e-08 3.3106119431e-09 -1.5541288269e-09 3.6159509538e-08 2.9995206465e-08 -2.4126640052e-08 -3.1148381391e-08 9.4347088867e-08 
-7.0595261193e-08 7.3517280034e-10 -5.1025088984e-08 -5.0652175478e-08 -1.1287596578e-08 2.0251457624e-08 -1.4271096243e-07 -2.7401684305e-08 1.6015418302e-07 
-1.9422702924e-07 -2.6250958972e-08 2.9691723165e-08 -1.0455918346e-07 -3.4397742265e-08 -3.0526984822e-08 -7.7049050994e-08 1.8024582343e-08 2.176085266e-08 
7.5946949995e-08 1.2545110881e-08 6.6437784589e-08 2.5585782744e-07 1.6266867279e-07 4.9393232077e-08 -1.1543586623e-07 -2.9096165121e-08 5.2904260545e-09 
1.5949465172e-09 4.7832460991e-09 -2.6319549505e-09 2.0183222901e-09 8.925823379e-09 -5.3846836805e-09 2.8019433931e-10 1.7525482249e-08 -1.4548955327e-08 
-6.1764449306e-09 1.0390813873e-08 -5.8653579855e-09 8.1884140368e-10 1.2619520981e-08 -1.0276818342e-08 6.7065825946e-09 6.71593057e-09 -7.6040069425e-09 
2.8967767578e-09 7.9006192737e-09 -1.0258816507e-08 -1.0543585218e-08 9.4449607254e-09 -9.8699377832e-09 -4.8007011137e-09 8.4273330781e-09 -8.3165731091e-09 
-1.7267941439e-09 2.8497688329e-09 -3.9580304573e-09 -3.8963108111e-09 4.5723461472e-09 -3.7564147187e-09 -3.4204418211e-09 8.9477872332e-09 -5.7750123939e-09 
-5.0773005803e-08 1.8068009073e-08 3.029138659e-08 -4.0085247137e-08 8.9775836088e-09 2.1911848937e-08 -7.0591336839e-08 3.2424405013e-08 -1.5493291883e-08 
2.0030666249e-08 -7.9124806134e-09 1.1382358669e-08 2.1079881189e-08 -6.4630638124e-09 4.346442499e-09 1.9102412273e-08 -7.280000133e-09 2.68476469e-08 
5.6185604291e-08 -1.5615938679e-08 3.3220904757e-08 1.3833903599e-08 -7.6428818644e-09 3.0840646437e-08 -8.2379213961e-08 1.0288162784e-07 -1.7562773947e-07 
-9.3513426414e-08 6.4272794061e-08 -1.5581101793e-07 -1.6121230808e-07 1.1864270676e-07 -2.1484212508e-07 -7.4911291965e-08 8.763824601e-08 -1.1344453545e-07 
-6.8485893016e-08 4.999183441e-08 -6.7178771662e-08 -6.885005537e-08 6.6623009277e-08 -7.7386550015e-08 7.2533123248e-08 -2.2883799528e-08 4.3929689833e-08 
9.1891891356e-08 -4.028911819e-08 5.1857511613e-08 1.3600278343e-07 -3.9897839706e-08 5.757122181e-08 4.2180287893e-08 -6.4924381035e-09 1.0808388623e-08 
5.4935311081e-08 -7.2474261137e-09 2.6882330381e-08 3.727286698e-08 -5.8300251943e-09 5.3961812372e-08 3.4980905769e-08 -6.2351014691e-09 3.8890532416e-08 
-5.2871833299e-08 5.977720136e-09 -1.1104283713e-08 -6.2168500733e-08 1.4679549588e-08 -1.3213632482e-08 -6.8250734682e-08 7.9392824755e-09 -7.3596687596e-09 
-7.3260694083e-08 6.9375741473e-09 -2.9576418632e-08 -8.2174047676e-08 1.7846245802e-08 -3.6149849877e-08 -6.3609307734e-08 1.4186456683e-08 -3.0247471286e-08 
1.3663041615e-08 -3.2272930551e-09 2.6299130348e-08 8.4569169273e-09 -2.0532674333e-09 1.3086956119e-08 -2.0569921258e-08 2.8732764423e-08 -1.0992029935e-07 
-5.5048701791e-08 2.9719637526e-08 -9.5664821167e-08 -5.8240271897e-08 3.873754977e-08 -5.3504843064e-08 -1.5898431776e-07 4.9098640434e-08 -1.047234438e-07 
-1.1816770351e-07 3.3691326427e-08 -1.2943021907e-07 -1.0617386493e-07 1.5942631747e-08 -8.8349074637e-08 3.6239669646e-08 -3.6100460292e-08 7.3194677654e-08 
-1.3434441959e-08 -9.4115608458e-09 6.3561947529e-08 -2.5145689663e-08 -7.139876168e-10 5.263538063e-08 1.1982509894e-08 -1.7977834678e-08 5.2894367724e-08 
1.9111525425e-08 -2.2468264745e-08 7.025812563e-08 -5.1126412595e-08 1.3537890083e-08 2.2838717705e-08 1.2089832895e-07 -2.6432971125e-08 5.6516557488e-08 
-4.8453248318e-08 3.1265262682e-08 -1.7590655492e-08 -4.1380034689e-08 2.4156689201e-08 -9.7246460612e-09 -4.7825759249e-08 3.3021947867e-08 -3.2811303147e-08 
-6.6647903461e-08 2.9636637036e-08 1.3964844031e-09 -3.6381353393e-08 4.3021852017e-09 5.4790424991e-08 -4.8463007227e-08 1.4002336641e-08 3.8390218067e-08 
-1.195351765e-08 -1.8145467673e-09 4.8439434269e-08 -2.0911659821e-10 -3.3187217406e-09 3.1861011576e-08 -7.0687541701e-09 7.7666029911e-10 3.0929831855e-08 
-2.0642760783e-08 5.4515666083e-09 3.1919603619e-08 -4.542137714e-09 9.2539132825e-10 2.1170494279e-08 -1.2274601727e-08 1.2881508805e-10 4.1377662721e-08 
-6.3196446561e-08 2.7310615497e-08 -7.9491301156e-08 -3.9822163806e-08 1.898820185e-08 -4.3720657158e-08 -6.840561858e-08 2.0989723512e-08 -5.5493846522e-08 
-5.531881678e-08 1.0476804779e-08 1.8301905113e-09 -4.7485274286e-08 3.5707609295e-09 -7.0738376155e-11 -4.2833634e-08 8.0783243905e-09 -4.291616444e-09 
-2.387423983e-09 -2.1071755752e-09 2.9402457795e-08 -7.8308316282e-09 1.5972896342e-09 2.7934513155e-08 -1.2703354705e-09 -1.6809292814e-09 2.2159455294e-08 
-9.2890047829e-09 -2.1451650599e-09 4.4162536911e-08 2.2898938598e-09 -9.4212394389e-09 4.8012983531e-08 -4.2875372055e-08 1.1885889328e-08 -5.8594954222e-10 
-5.1412196015e-08 1.355424088e-08 9.3577636742e-09 -3.5656314053e-08 8.685523355e-09 6.9431987804e-09 -6.0659684237e-08 2.4049813755e-08 -4.2504473393e-09 
-4.4739253201e-08 1.4697095349e-08 1.8239382812e-08 -4.2126531705e-08 1.2202647954e-08 2.9831072412e-08 -4.508568337e-08 1.6618174908e-08 1.9111907338e-08 
-2.813760045e-08 9.0970745939e-09 2.715609616e-08 -4.320163499e-08 1.6894739493e-08 1.0020669915e-08 -5.1975637869e-08 9.2826252733e-09 1.5313373477e-08 
-3.330963537e-08 7.8571903903e-09 1.5217942654e-08 -3.6690507383e-08 6.0112201093e-09 1.1038848486e-08 -2.401473945e-08 5.3024924219e-09 2.4409795799e-08 
-5.9573473452e-09 2.6668076822e-09 1.1095685171e-08 -1.0986674999e-08 3.4228178766e-09 1.2046742873e-08 -2.2534244984e-08 3.2405833825e-09 2.6104063704e-08 
-4.5706220864e-09 1.5558712477e-09 1.0467342225e-08 -1.449879706e-08 2.9893244554e-09 2.678276185e-08 -2.3159378824e-08 -2.7633263857e-08 -8.9093464125e-08 
-1.538391673e-07 5.8084828924e-08 -1.0622077404e-07 -1.6676675395e-07 1.7535749042e-08 -2.1088354952e-07 3.018013038e-09 -7.7461641334e-09 2.557516405e-08 
-3.8005722737e-10 -4.1030237876e-09 2.4692454679e-08 -1.7065653752e-09 -8.0144778336e-09 4.4244077691e-08 4.6460089047e-09 -1.2361762438e-08 4.2692082105e-08 
-3.9706350257e-09 -4.5005969877e-09 4.0878684716e-08 1.5948866674e-09 -5.8027850187e-09 2.1623655758e-08 -5.2501409333e-08 1.5054763354e-08 2.1053491019e-08 
-5.2086357566e-08 1.5725044052e-08 1.0360428705e-08 -3.1823320122e-08 7.3179852157e-09 3.4408996226e-08 -2.2631340389e-08 7.9727922131e-09 1.1564466095e-08 
-1.6278033012e-08 5.2899781672e-09 1.3796962544e-08 -2.3300249369e-08 6.3127664446e-09 1.0104356956e-08 -1.0034994233e-07 6.6206424592e-08 -9.0370153874e-08 
-3.4152732459e-08 2.0197511903e-08 -8.3649484038e-08 -1.1688538576e-07 6.4403726265e-08 -1.2467628876e-07 -1.3424766512e-07 6.0433015323e-08 -1.9137762921e-07 
-8.0061059128e-08 9.3187906492e-08 -1.6932310472e-07 3.1261949451e-08 -5.9006207234e-09 6.6972020129e-08 -1.0171686508e-08 -1.5100029754e-09 6.2326418502e-08 
8.4651202974e-09 -2.4325085241e-09 5.9659689541e-08 -6.1647361378e-08 2.7684933388e-08 1.2162873035e-08 -7.1230683115e-09 -1.5455463586e-09 5.9935787116e-08 
-2.44858434e-08 5.117383274e-09 1.1139990552e-08 -6.6295002245e-09 2.8359762138e-09 5.2306348767e-09 -1.8127976882e-08 5.6003179295e-09 1.3855872491e-08 
-3.5735841701e-08 1.1284627112e-08 2.4105425274e-08 3.4677086412e-08 -4.6540464582e-08 7.2758461777e-08 2.4051126585e-08 -3.3578550819e-08 6.5340949237e-08 
-4.9596152219e-08 2.060833103e-08 1.3401716386e-08 -3.7312214915e-08 1.7350557803e-08 7.9451100706e-09 -4.620886162e-08 2.1051344344e-08 1.0642618406e-08 
-4.9964296207e-10 -4.0430255144e-09 2.5239572751e-08 -1.5845183276e-09 -6.6826795499e-09 4.3487576944e-08 -8.3797706687e-09 -1.306732515e-09 3.8624961865e-08 
-1.9548906968e-08 8.8013918721e-09 1.3889801834e-08 -2.7039630317e-08 1.232372901e-08 9.9379759573e-09 -2.387007849e-08 9.5925844787e-09 1.4116293934e-08 
-3.0046197092e-08 1.3327223973e-08 8.7827356139e-09 -3.4199532543e-08 1.3933218784e-08 1.7439315782e-08 -1.3565254689e-08 1.1054648109e-08 -3.9250875582e-09 
-2.4307683163e-08 1.9773628269e-08 -1.013310909e-08 -9.8271330435e-09 1.2068188629e-08 -6.1092821785e-09 -1.229046096e-08 9.6608119545e-09 -3.8138232602e-09 
-1.991370437e-08 1.4726283087e-08 -8.8849008763e-09 -2.6315289435e-08 1.5953259273e-08 -5.0403598675e-09 1.6477866659e-08 -2.7831620656e-08 7.3390553028e-08 
-4.4800923034e-08 1.9795516146e-08 -1.6651423067e-09 -5.8889699843e-08 2.6768831951e-08 -2.2587188854e-08 1.5049757911e-07 -2.6911824517e-08 6.4572949706e-08 
1.6868274274e-07 -4.5494661083e-08 6.1401781724e-08 -1.0514839534e-08 4.3527151651e-09 -3.4961573906e-10 -2.547484112e-08 1.0241457088e-08 2.3755758441e-09 
-1.8352385433e-08 8.8282670003e-09 -5.1647947755e-10 -1.4643926076e-08 6.890585086e-09 -1.595129481e-09 -2.8337448139e-08 1.3253614405e-08 -2.0104095638e-09 
-2.270470666e-08 8.212780974e-09 -1.4945476171e-10 1.5294654659e-09 -1.1635897659e-08 5.2190912152e-08 -9.0634180399e-09 -3.9416377696e-09 4.7156044003e-08 
-1.827159014e-09 -9.2080043646e-09 4.9552624484e-08 -1.381538585e-08 3.2708601075e-09 5.9898196885e-09 -7.9275726444e-09 1.3135284853e-09 5.9147774861e-10 
-1.6448691677e-08 2.6613342988e-09 3.076552365e-09 -2.6425562394e-08 9.7902053365e-09 2.4420946517e-08 -1.8261837809e-08 6.934510053e-09 1.7906686942e-08 
-3.1562030179e-08 1.182613159e-08 2.3470815613e-08 -1.875224554e-08 9.1551526413e-09 5.5817302308e-09 -1.2858842765e-08 6.8242124122e-09 7.4568049035e-09 
-2.171730734e-08 9.8091467339e-09 1.2482557976e-08 -8.1486880766e-09 1.0272413556e-09 -2.4994047897e-10 -3.9641120508e-09 5.6506196501e-10 -6.2673478532e-10 
-1.0234940414e-08 1.5437206399e-09 1.5142396145e-09 -9.1485011971e-09 2.3093091183e-09 -3.8134435233e-12 -1.5678146384e-08 1.9960134159e-09 3.6825868827e-09 
1.1066948514e-08 -6.5379276509e-09 -7.2150190439e-08 -1.7913868432e-08 -1.0221013477e-08 -3.5041396002e-08 -9.6683921455e-08 5.539927891e-08 -2.2764334708e-07 
2.5028220161e-09 -1.1606637823e-08 5.1357033322e-08 6.5240118201e-09 -1.566611931e-08 5.3035336759e-08 -3.6956696554e-09 -1.0443506801e-08 5.7429724254e-08 
-9.2177271404e-10 3.5743434914e-09 -2.3274379966e-08 -7.8185066279e-09 4.7019086582e-09 -3.1980848797e-08 -9.1697854749e-09 1.0477698462e-08 -3.412332868e-08 
-2.213991543e-08 6.1488379798e-09 -3.4199703577e-08 -1.3520514367e-08 5.0591695545e-09 -2.5748461994e-08 -7.9527985923e-08 1.48947124e-08 -1.2129919153e-07 
-6.5835063063e-08 2.2056367294e-08 -1.0727897918e-07 -7.0831294935e-08 1.4690175826e-08 -1.2037045594e-07 -9.8227063378e-08 2.115938366e-08 -1.4767674178e-07 
-1.0522062372e-07 4.1307654113e-08 -1.6308254306e-07 -8.7353278833e-08 2.130588294e-08 -1.1504327594e-07 -2.6214782864e-08 4.9424577336e-09 -6.3408222994e-09 
-3.6161311295e-08 4.3099451062e-09 -9.7117289376e-09 -1.2927657761e-08 7.5356913022e-10 -2.7070022569e-09 -2.0592102563e-08 3.4625080868e-09 -6.8574667666e-09 
-3.127578998e-08 3.0764080482e-09 -1.2321484374e-08 -4.2123461044e-08 9.5979313263e-09 -1.7849515282e-08 -3.1538375365e-08 1.0297711276e-08 -2.9015491683e-08 
-4.1494552605e-08 4.9101434263e-09 -3.4973394435e-08 -5.721538626e-08 1.2296645183e-08 -4.1499263265e-08 3.7132395475e-06 -7.2363656826e-07 -1.8632885243e-06 
9.9605551575e-06 -2.322056572e-06 -6.1576727047e-06 -1.6148850887e-08 -3.000818022e-07 1.2686060524e-07 1.0958970259e-06 -4.5369749974e-07 2.1826613571e-08 
1.9871396562e-06 -6.0187755304e-07 -1.7732762047e-06 -9.0169409099e-09 5.053415875e-09 1.1702832348e-09 -8.3369298201e-09 4.1958261204e-09 1.4859686595e-09 
-9.892607034e-09 4.7613660501e-09 5.7030098399e-10 -5.8294455387e-08 2.693435394e-09 -2.3844161138e-08 -1.0770044558e-07 2.6515296879e-08 -8.8422875261e-08 
-1.0936512577e-07 2.1895059964e-08 -9.8570529312e-08 -3.1744452565e-08 1.1888642168e-08 1.4510600412e-08 -4.5675038691e-08 1.5336767655e-08 4.9892296371e-09 
-3.8481894285e-08 1.0511889849e-08 1.9569254059e-08 6.3307085887e-08 -3.0015526085e-08 3.263291762e-08 3.519328908e-08 -1.8747066691e-08 4.9546090963e-08 
4.5235032675e-08 -2.9685893108e-08 5.7144859614e-08 -4.849003721e-08 3.4313282294e-08 -1.1578400375e-07 -5.2276256885e-08 2.9825498431e-08 -9.4264246324e-08 
-5.2166405979e-08 2.2667728462e-08 -1.0361607966e-07 -6.5205643511e-08 3.592002928e-08 -1.5444703859e-07 -7.8702922878e-08 5.1365235261e-08 -1.4874918452e-07 
-5.8879391957e-08 4.4104418184e-08 -1.3225039923e-07 -5.1885635052e-09 1.0414926644e-09 2.0828165563e-09 -4.7022237352e-09 5.8365491493e-10 7.4018252888e-10 
-5.778230397e-09 1.7571095487e-09 1.2022524385e-09 -6.2524972448e-09 2.3682747886e-09 2.5533864265e-09 -2.4966965481e-09 5.3185186966e-09 -1.1918999693e-08 
5.2260783447e-10 3.9902002072e-09 -1.1969534266e-08 -8.4276587666e-09 5.4804810312e-09 -1.4025502214e-08 -1.108012972e-08 6.8562086449e-09 -1.3213243595e-08 
-4.5014068529e-08 1.4956049097e-08 -3.2459406359e-08 1.6957895636e-07 2.3111120033e-07 6.3415141909e-08 -2.4792177276e-08 -1.4511975439e-08 2.9612885348e-07 
4.0620367618e-07 3.1642440683e-07 7.0539865852e-08 5.6301226985e-10 1.7319619722e-09 -2.4772071943e-09 3.1828157609e-09 3.6655579623e-09 -2.2126663382e-09 
5.5621314858e-09 3.3071611505e-09 -5.147689253e-09 -2.9565827954e-08 9.1432719362e-09 9.9375084167e-09 -2.9765626023e-08 1.1165939152e-08 1.1976979726e-08 
-2.8007022721e-08 6.9688963022e-09 2.354029204e-08 7.8167281794e-08 -6.8463627977e-09 7.62500783e-08 7.6737049177e-08 -1.6593810546e-08 5.9879954535e-08 
6.0617019884e-08 -1.7065295462e-08 3.3998554521e-08 -4.5287774227e-08 -2.0188554819e-09 1.2528534329e-08 -1.5000309405e-08 -6.5269861822e-10 3.9863816716e-08 
1.3790659164e-05 -5.1776906631e-07 -7.2377782159e-06 5.5738343791e-06 9.0994044396e-07 -7.5367190926e-07 1.4611537073e-06 7.9052852459e-07 -5.1788518527e-07 
-1.566609882e-06 2.904961675e-07 2.743987375e-07 -6.557478797e-09 -5.9593493918e-09 4.9671206002e-08 -3.4225150953e-08 2.4318733008e-08 -1.4222304295e-08 
-4.2065634232e-08 2.4388010314e-08 -6.488956511e-09 -3.3650568362e-08 1.8195475962e-08 -2.8057358225e-09 -3.2313274961e-09 1.2792766265e-09 -1.6806059381e-10 
-2.0183274558e-09 7.36081681e-10 -4.903418531e-10 -5.1781028894e-08 1.6652805167e-08 -2.4874234884e-08 -7.1441488032e-08 2.1948307934e-08 -3.525652839e-08 
-9.793172961e-09 3.0162580819e-09 -1.1935621843e-08 -4.0983491579e-09 1.7945220065e-09 -6.2976120748e-09 3.6743984937e-08 -5.3424312468e-08 8.2567105712e-08 
4.2199295711e-08 -5.829199311e-08 7.6718309117e-08 8.8469186564e-08 -7.9102419574e-08 7.1862608734e-08 1.0131261018e-07 -8.9355709958e-08 6.5186317023e-08 
-1.2933606481e-07 1.1924181452e-08 -1.149429913e-07 -4.7859586426e-07 -5.214101922e-07 2.7021925228e-07 3.8611756516e-06 -1.0576857973e-06 2.1897930074e-07 
1.0263696424e-08 -1.0607633223e-09 8.5435627403e-09 -3.1819405643e-08 7.8956896472e-09 -6.0205662104e-08 -5.7026600604e-08 1.559589532e-08 -1.0334254057e-07 
1.2176915448e-08 -1.8472492541e-08 3.9114302379e-08 3.8246146663e-09 -8.4471085827e-09 2.0106327941e-08 8.4892689631e-09 -1.4415537034e-08 4.0063858089e-08 
-6.4524802118e-08 1.9186080806e-08 -8.9084549801e-09 -5.1580741543e-08 1.6615736958e-08 -1.2460319336e-08 -5.8546454147e-08 2.4027199343e-08 -2.7452116953e-08 
-3.5997129798e-08 1.3330925587e-08 1.0731996715e-08 -2.7392885789e-08 1.23239546e-08 3.4132328375e-09 -8.1045697371e-09 1.1604444932e-08 -5.8984079458e-09 
-1.3179640154e-08 2.2661639063e-08 -1.7012078343e-08 -2.2875199861e-08 2.1042264488e-08 -1.2866078867e-08 2.0518960478e-07 4.149450703e-09 1.035262964e-07 
-2.2185707096e-07 -1.9060268049e-08 -2.1559716639e-07 -5.6560938723e-07 2.0563446931e-07 -1.2801336183e-07 -2.2689287143e-07 9.5443402918e-08 -2.6797556057e-07 
4.2919635917e-08 -9.6313121386e-08 -9.7291523538e-08 -4.4652216476e-08 2.2919037172e-08 -2.6093418824e-08 -4.0623792262e-08 1.6101082796e-08 -1.35534844e-08 
-4.6841483873e-08 2.2080426983e-08 -1.4573242037e-08 -3.7863755185e-08 1.2916708773e-08 -1.5429369001e-08 -4.0766860671e-08 1.891046119e-08 -2.8906261511e-08 
-3.2120800705e-08 1.7026265208e-08 -1.502680351e-08 2.2797262515e-07 1.0290740277e-07 -3.7223962179e-07 3.1504463815e-07 -4.7753999899e-08 -3.5942774464e-07 
2.3927893805e-07 -4.3961464167e-08 -1.3535006881e-07 2.6036279793e-07 -4.974203263e-08 -1.3445411312e-07 4.0739069059e-08 -6.2553716793e-08 -1.3408381579e-07 
-6.6553847075e-08 2.382750165e-09 -4.3175154886e-08 9.0613810574e-08 -1.1580602847e-07 -5.6241984353e-08 3.7479556595e-08 -6.1381345594e-08 9.0420680497e-08 
-1.8974871561e-08 1.0973273389e-09 3.4122168819e-08 -1.7581947494e-09 -7.3257519615e-09 -5.9281348242e-08 -9.1327473917e-10 6.8441022699e-10 -4.5097658945e-10 
-5.6390931865e-09 3.7544961653e-09 5.9995590793e-10 -4.6707441433e-09 3.6046886172e-09 1.5466627893e-09 -3.6094079737e-09 2.801551734e-09 7.1434007345e-10 
-1.2887527457e-08 6.7718352235e-09 5.2420440723e-09 -4.5591349753e-09 3.031193296e-09 3.9426552533e-11 -4.7193480778e-09 -1.8310631418e-08 6.3876526501e-08 
7.1001164606e-09 6.5529405755e-09 -3.0500283634e-08 5.5056289257e-09 -4.9063914811e-09 9.8688243406e-08 -2.6376061615e-07 -5.6267669311e-08 -1.4052327661e-08 
-7.5138187063e-08 1.3173784804e-08 -4.8778738748e-08 1.021519326e-07 -8.9902365881e-08 -4.2219343641e-08 -3.0118192526e-08 -3.3369832172e-09 6.522127708e-08 
-3.2512443699e-08 9.3878803313e-08 -1.4460544935e-07 -1.1727040915e-07 9.9646883587e-08 -2.5153830692e-07 -6.8893160049e-08 9.4855420544e-08 -2.1374701867e-07 
8.1155934631e-09 8.9227538202e-09 -1.2989345091e-08 -7.6415875914e-09 1.1120388721e-08 -1.371725802e-08 1.3355249478e-09 6.2259433038e-09 -2.9547221911e-09 
4.5570432773e-10 1.7193012976e-08 -1.2171018396e-08 -5.9506894944e-09 2.5409138748e-09 -3.4746482809e-09 -8.4099148999e-09 8.3324425496e-09 -5.0811666181e-09 
-7.9728517744e-09 1.236140598e-08 -6.9892820413e-09 -1.4049891078e-08 1.1895751241e-08 -5.0562463685e-09 -5.3029819112e-08 5.0782514507e-08 -5.6969570173e-08 
-5.3718653873e-08 3.0463800036e-08 -2.6785866659e-08 -5.7031875398e-08 5.3824225777e-08 -6.0078344443e-08 -6.3178204e-08 4.1276728862e-08 -3.2669296395e-08 
-6.1159974605e-08 3.0841090798e-08 -3.2442244663e-08 -6.1259301891e-08 3.186392288e-08 -1.6652080253e-08 4.6517777219e-07 -1.1545121281e-07 -3.9378943476e-07 
2.6768336226e-07 -3.986965922e-08 -1.6549162887e-07 5.7621454898e-08 -5.5009951517e-09 -1.7896564484e-08 2.212351824e-08 5.3381055186e-08 -1.5079074117e-07 
1.4725915105e-09 -1.3646670221e-08 6.5788429181e-08 -3.0357509788e-08 2.0782795302e-09 4.9891922198e-08 -1.6467315096e-08 -3.7565632407e-09 5.4559548934e-08 
1.5033054174e-08 -2.2367283152e-08 6.6538643846e-08 -1.3876430634e-08 -8.4936513499e-09 6.0243369055e-08 -1.923518268e-08 2.7327747804e-09 1.0993611789e-08 
4.8037885865e-09 -1.4020751558e-09 1.8209276206e-08 2.0381261714e-08 -4.1185189788e-09 4.9343410139e-08 -4.7047997781e-09 8.3061092886e-10 1.6997510344e-10 
-3.6727629337e-09 5.4927760047e-10 1.8784425865e-10 -7.2243956516e-09 2.8232880224e-09 1.5818558791e-09 -9.6302768145e-09 2.4018564188e-09 4.4030035046e-09 
3.9596812772e-07 7.3646822415e-07 -1.0350688881e-06 1.7276867015e-07 3.3471473426e-10 -1.9499631654e-07 1.8667444634e-07 -8.2452431035e-08 2.7356665323e-08 
1.4700926891e-07 -1.0446486445e-07 3.527189621e-08 3.4195068509e-08 -3.2895473e-08 9.9048527789e-09 1.2351842796e-08 -3.7088314694e-08 -8.1623169625e-08 
-3.3876749374e-08 7.9721990145e-09 -8.5850062862e-08 -2.0375502638e-08 1.3599701341e-08 -5.9154699057e-08 -4.5082333384e-08 1.9208724853e-08 -9.2364743369e-08 
1.3927016006e-08 -1.9192562584e-08 5.1071270428e-08 -2.411058174e-08 2.7872678252e-08 -2.4532270235e-08 -2.5296241475e-08 2.6776944197e-08 -1.9996802227e-08 
5.1579319583e-09 -9.6704897414e-09 2.0540124972e-08 2.0120109609e-09 -6.3875464176e-09 2.2118233519e-08 1.3001673457e-08 -1.9439986715e-08 1.7317033304e-08 
1.0602949434e-08 -1.6660746516e-08 2.4160965848e-08 1.8372448356e-08 -2.4852786895e-08 2.3927188641e-08 1.5840497926e-08 -2.1385704569e-08 4.7574143573e-08 
2.3694352653e-08 -2.6003835187e-08 4.2775347489e-08 -9.3099508622e-09 2.3983205005e-08 -4.0509885037e-08 -1.2179718448e-08 2.1446650733e-08 -4.4156624095e-08 
-5.7985006502e-09 1.9219674759e-08 -2.7760839494e-08 -1.1091628597e-08 5.9060925092e-09 8.6955322035e-10 -2.5108043045e-08 1.1633092798e-08 6.8965594284e-09 
-1.8748953116e-08 9.3172736665e-09 2.8623635349e-10 -1.1631532101e-08 6.0617709059e-09 1.4036542123e-10 -2.7767977864e-08 1.3368432715e-08 3.9628018307e-09 
-8.1617080468e-08 4.2327974654e-08 -7.669735586e-08 -8.3478327455e-08 3.7040181666e-08 -1.0529108554e-07 -7.5571103091e-08 3.9793251517e-08 -1.0349428032e-07 
-6.3981014455e-08 7.1970364733e-08 -1.4779392792e-07 -8.9586027372e-08 5.507072728e-08 -1.1688828101e-07 -6.4775245409e-08 7.0248163021e-09 7.7005344889e-09 
-4.3031300513e-08 3.2569777191e-09 2.0413858389e-08 -5.464835875e-08 3.216189112e-09 2.6117632982e-08 -4.3803737342e-08 5.0462420419e-09 3.0596992667e-08 
-6.2340661036e-08 9.872464428e-09 1.5787401039e-08 -2.5367798956e-08 1.1813867972e-08 2.8720123643e-09 -8.4163942341e-09 4.1381005662e-09 -2.4311372691e-10 
-1.5543988424e-08 7.8208961353e-09 3.6696596595e-09 -1.6607677891e-08 -9.3901561803e-10 5.6281972133e-08 -2.5562476307e-08 2.1723852876e-10 5.0229730428e-08 
-5.9144865752e-08 3.7807806216e-08 -8.791369822e-08 -3.4047580384e-08 6.0819817899e-08 -2.306138836e-08 -2.1519822461e-07 2.3510021011e-08 -2.5354820926e-07 
-7.5571940184e-08 8.0167204243e-08 -2.1023363667e-07 -1.81042946e-08 1.2184524267e-08 -5.7985298633e-09 -3.0801268796e-08 2.253008649e-08 -2.3408979146e-08 
-1.5338407775e-08 1.4081246009e-08 -9.6105545746e-09 -1.1112832849e-08 1.2137873554e-08 -6.2275456056e-09 -1.6404415944e-08 2.4241996181e-08 -2.4404870975e-08 
-2.5215564672e-08 2.2258368218e-08 -1.7891542901e-08 -4.4807916501e-08 6.6337558146e-09 2.8456292274e-08 -3.7517357298e-08 1.2259209287e-08 -5.6178252632e-09 
-3.4174701219e-08 1.6165374574e-08 -7.1869012806e-09 -4.2859634084e-08 1.6970491698e-08 -4.3982297748e-09 -3.9959256539e-08 8.3347569229e-08 -1.0560288545e-07 
-5.3940882338e-08 5.0909860081e-08 -8.2756090958e-08 1.6216326799e-08 -2.1862714748e-08 4.4062374904e-08 8.0365298607e-09 -1.1074164853e-08 5.0026047148e-08 
1.1727351482e-08 -1.271643133e-08 4.7100118644e-08 1.7760586664e-08 -2.4842490451e-08 5.8173984529e-08 4.3436673913e-09 -1.1015888499e-08 6.2393450303e-08 
5.3359695917e-09 -1.455093256e-08 5.6573140481e-08 -1.1984041494e-12 -2.6965638054e-09 2.3621835334e-08 -3.6061650811e-08 2.3727022265e-08 -9.6919157737e-09 
-2.7412429014e-08 1.7740046553e-08 -7.9457459203e-09 -3.0773331635e-08 1.7677520819e-08 -3.1363173171e-09 -2.2089694209e-08 2.2343565729e-08 -6.6551447195e-08 
-3.1062109579e-08 2.8469329339e-08 -5.2143437741e-08 -1.7702090737e-08 2.6924154251e-08 -6.6001645473e-08 -1.7397828645e-07 6.4011528683e-08 -2.57525242e-07 
-3.1986183773e-09 1.5691190361e-08 -8.4090095286e-08 -1.1373074914e-07 6.894304286e-08 -1.74142934e-07 1.1969477585e-08 -2.286364996e-08 6.9229241257e-08 
3.5131270301e-08 -4.0212833724e-08 5.6997933558e-08 1.6374438093e-08 -2.4295750964e-08 6.0301924429e-08 2.8199924489e-08 -3.3639556859e-08 4.3377210534e-08 
3.4813388263e-08 -3.4258062871e-08 6.2223911139e-08 -2.1147197781e-08 7.9414093016e-09 8.200984439e-09 -1.4034072862e-08 5.1647898805e-09 4.1259737267e-09 
-2.494268992e-08 7.3460890775e-09 7.8793343472e-09 -2.5548794545e-08 7.7245255659e-09 2.01672723e-08 -1.5108860024e-08 6.1065518726e-09 1.3128087764e-08 
4.8808913645e-08 -4.9881849815e-08 6.5922689924e-08 -3.2224154172e-08 1.3695829113e-08 -9.0679318469e-09 -4.2044528676e-08 2.6272529233e-08 -1.7447270231e-08 
-5.0343946953e-09 3.0625299053e-09 3.8300124966e-09 -9.4369327274e-09 9.6633114687e-09 -1.3423812212e-08 -7.0333759865e-09 1.3899734975e-08 -2.8329892586e-08 
2.8586663884e-10 8.0046278426e-09 -7.9893279236e-09 -9.0262822689e-09 1.2883143611e-08 -1.2505816778e-08 -2.2858459287e-08 1.8659588867e-08 -3.3687664543e-08 
-1.2242952048e-08 1.1957937454e-09 -2.0232068999e-09 -2.4221305583e-08 4.8335471909e-09 -3.6023875455e-09 -1.9730713226e-08 5.8614367793e-08 -7.7758283541e-08 
-3.1432738959e-08 4.0699451853e-08 -5.0807127172e-08 -3.0250406123e-08 3.1384839468e-08 -5.380268432e-08 -3.6647259642e-08 4.8757333513e-08 -6.4292630828e-08 
-3.2964952785e-08 1.3988956601e-08 6.8128881277e-09 -3.377194268e-08 1.2410677722e-08 3.4615861891e-09 -2.4532230858e-08 9.6795433126e-09 5.2129771475e-09 
-2.2202552726e-08 9.5505312392e-09 7.9006939491e-10 -2.4268385266e-08 1.0834568486e-08 7.792548819e-09 -3.3262342437e-08 2.1690710855e-08 -5.5738689874e-08 
-4.8533559114e-08 2.8975148304e-08 -6.139564295e-08 -1.8569498677e-09 8.2949113035e-10 -4.2950340414e-10 -5.5240305933e-09 2.4218788323e-09 1.3077844009e-09 
-3.4210965719e-08 1.4870753104e-08 1.0523814043e-08 4.9536392015e-08 -3.9524567044e-09 7.5780697351e-08 -1.5857578094e-09 -2.8445761116e-09 6.3976609483e-08 
-8.9360008621e-09 -3.6420820555e-09 4.6960010142e-08 -1.6421959818e-08 6.2498977807e-09 2.2541698481e-08 -1.1308274101e-08 5.4891017039e-09 1.1252530792e-08 
-1.8465066891e-08 7.8131623411e-09 1.8895682488e-08 -1.2406840706e-08 1.8231620084e-09 -1.1786241318e-08 -1.4099819174e-08 5.7630165742e-09 -1.3351037875e-08 
7.4833626504e-09 -6.2917575869e-09 3.0433846284e-08 9.5904543859e-09 -7.3657277589e-09 4.0138536026e-08 1.2234291469e-08 -1.6516829344e-08 3.5680867393e-08 
8.2943239036e-09 -9.8191125294e-09 4.0154463136e-08 -2.2281704849e-08 1.0610784386e-08 -6.0460416737e-08 -4.7628319631e-08 4.2269355562e-08 -6.1180523736e-08 
5.2308187775e-09 -1.0772180872e-08 2.1200242673e-08 2.3643532672e-09 -7.5899304081e-09 3.5319104496e-09 5.5087397989e-09 -1.1101369146e-08 1.4643230369e-08 
-1.4466750329e-07 5.3183779019e-08 -1.8293508536e-07 -4.659405276e-09 3.2008073208e-09 3.4278106201e-09 -5.6764580452e-09 3.0535902262e-09 9.9693149533e-09 
-1.4012458971e-06 2.0676913225e-07 3.3708521067e-07 -4.2664803718e-07 -2.1858778142e-07 -1.4116644671e-07 -1.0174440642e-08 -1.354050763e-08 7.2435787454e-08 
-5.8695821363e-09 -8.7451474045e-09 6.9150648924e-08 -1.2307764209e-08 6.7358480785e-09 1.0816871327e-08 3.13045494e-06 -1.0361926677e-06 5.4424953174e-07 
-4.6961550882e-08 2.8715887299e-07 1.174534376e-07 1.0284417711e-06 -6.7333351824e-07 -1.2753042853e-06 -1.5238700543e-07 -1.1103904435e-07 9.5091924097e-08 
-9.6073491652e-08 3.2714253918e-08 -8.4505645184e-08 -1.0362555646e-07 4.0727044065e-08 -1.4187282778e-07 -3.7263835834e-08 1.9568261211e-08 -6.2703391984e-09 
-3.1863485148e-08 1.9607453798e-08 -9.4171788168e-09 -4.5901956276e-08 2.6365531021e-08 -2.4036140606e-08 3.9196290295e-09 -9.7112578621e-09 6.408820116e-08 
1.6632387974e-08 -1.2502994587e-08 5.7423241244e-08 2.1003451936e-08 -1.8486703772e-08 6.3524565695e-08 -5.2615525231e-08 5.6173992592e-09 -1.0790751503e-07 
-3.1506489161e-08 9.8544114699e-09 2.3199123262e-08 -4.7543533608e-09 3.8420492482e-09 2.4890559032e-09 -4.3377345741e-09 3.216769217e-09 2.7953090657e-09 
-3.3007091846e-09 2.7777873721e-09 4.1281609612e-09 -4.8516642646e-09 6.4692718932e-10 1.0313727047e-08 -1.6583607983e-08 2.006851648e-09 1.055866942e-08 
-7.3808690916e-09 2.2757863933e-09 7.7846657842e-09 -1.2078702137e-08 2.2880093802e-09 1.6348005599e-08 -2.268450449e-08 1.9884978826e-09 2.0308628904e-08 
-4.4516794398e-08 6.0417581939e-08 -1.3355172532e-07 -3.4273612608e-08 4.1102956929e-08 -1.1033481351e-07 -2.94673435e-08 7.0844308258e-08 -1.8282578493e-07 
-2.8167521974e-08 -7.1253504697e-09 6.7456616718e-08 -3.6958793717e-08 3.4929107401e-09 5.2771049423e-08 -1.9667921153e-08 -4.5497297288e-09 6.1724553711e-08 
-2.0322561336e-08 -4.1634948911e-09 6.6690818955e-08 -6.2336063227e-09 7.3181435284e-10 -6.5235801529e-10 -1.676004693e-08 1.9381978081e-09 1.6789646328e-09 
-4.5178475354e-09 -6.1498839525e-10 3.1240500887e-08 -7.7358824035e-09 -3.0856431904e-09 5.2475208197e-08 -1.843256601e-08 2.8388739313e-09 3.5948646415e-08 
-3.7534661896e-08 2.5763834657e-08 -2.0372212917e-08 -3.3344679971e-08 1.5170433823e-08 2.4178582607e-10 -4.4575645949e-09 9.2111477598e-10 1.351219499e-08 
-1.1654503254e-08 3.1758161553e-09 -4.1702547697e-08 -1.3423835697e-08 9.5310473636e-09 -4.4320598907e-08 -2.740336922e-08 -1.7084398362e-08 6.818930817e-08 
1.3144972718e-08 -4.6086957151e-08 6.6447587964e-08 2.2078924501e-09 -2.5252778243e-08 7.531459357e-08 -1.2672827057e-08 -1.8324134519e-08 7.6699094419e-08 
2.1652275274e-08 -3.8960835106e-08 7.5632805772e-08 -1.3500983934e-08 1.0427581133e-09 2.2076149588e-08 -3.7079785101e-08 1.9251063259e-08 5.9788896631e-10 
-4.650992416e-09 1.6220861329e-09 1.8509415787e-08 -1.3457538407e-08 1.5275468136e-08 -4.468945275e-08 -3.4585990258e-08 7.2429867193e-09 4.4582389641e-08 
-1.9279229713e-08 -6.120694911e-10 5.1818784838e-08 -2.1079969481e-08 -1.9258598902e-09 5.6210782617e-08 4.4432323242e-09 -1.7812983457e-08 6.566250324e-08 
3.0031615936e-06 8.8139315707e-08 -3.3849492261e-06 6.174789563e-07 -1.2794356765e-08 -2.094719559e-07 -6.1829983478e-09 1.3508231807e-09 1.219424545e-08 
-1.1212218036e-08 4.2600903774e-09 1.4881046105e-08 -7.3683128918e-09 2.0691473672e-09 7.6160491309e-09 -1.0814205332e-08 1.6487120803e-09 1.3697391896e-08 
-1.4608301944e-08 3.7738853837e-09 2.2335361499e-08 1.8955645771e-08 -1.7087205415e-08 5.1997522605e-08 -2.6051078863e-08 6.7290968351e-09 -5.8608180819e-09 
-2.0279432531e-08 4.9849751315e-09 -6.6752996123e-09 -2.8938579578e-09 2.7576614725e-10 -7.4623596751e-10 -7.1815661306e-09 1.7026452826e-09 -4.6042389092e-11 
-7.7467236125e-08 1.8043396824e-08 -1.3029684808e-07 -1.1644270928e-07 2.5648559764e-08 -1.65503884e-07 2.678944541e-10 1.7240531177e-09 -1.5529324877e-08 
-6.8321537985e-09 7.1598586549e-09 -2.5640396121e-08 -2.7656289423e-08 1.389016901e-08 -2.5070462168e-08 -1.0514253433e-08 8.0382695043e-09 -7.162764498e-09 
-2.6552668993e-08 1.8740851442e-08 -2.2847194397e-08 1.7936418367e-08 -2.3365197164e-08 1.9613407909e-08 2.4982434445e-08 -2.9507177042e-08 2.6232514787e-08 
1.4191299016e-05 -2.467896759e-06 -6.1204842974e-06 4.2068831796e-06 -7.1496350855e-07 -2.5243090825e-06 -2.5824233694e-08 1.9796049779e-08 -1.3742600306e-08 
-3.6922121118e-08 2.7738455278e-08 -1.7106651675e-08 -3.5386554235e-08 1.7313847846e-08 -2.0654220057e-09 -2.5724130802e-07 -8.9815502574e-08 -2.4341602781e-07 
-1.2867164151e-07 8.5905947852e-08 -2.2369984037e-07 -1.0720522779e-08 1.4212767569e-08 -1.1067186611e-08 -7.2969167804e-09 1.2594325317e-08 -7.4425135943e-09 
-1.7375724058e-08 1.0706966586e-09 3.9803339716e-08 -1.623668234e-08 5.6487557726e-10 4.3733335212e-08 -9.7230796368e-09 1.4717505106e-10 3.5354409262e-08 
-1.6231299988e-08 1.7008486248e-09 2.7901736057e-08 -1.6536495716e-08 2.8567497513e-09 3.2154860395e-08 -2.4751711694e-08 5.4611078847e-09 3.2186766441e-08 
5.3440661639e-08 -8.7091157072e-08 -9.0108932818e-08 1.3999107027e-07 -5.4261379186e-08 -1.1929047603e-07 1.1062276154e-07 -9.3006145091e-08 5.9243225104e-08 
-5.8978488348e-09 6.919372779e-10 3.4137665471e-09 -6.520136515e-09 2.2801248811e-09 4.3040873503e-09 8.6358424838e-10 6.0257591592e-09 -1.1670275744e-08 
-7.7726670787e-09 7.808819527e-09 -1.3535176228e-08 -8.1872559094e-08 4.4426676336e-08 -4.1498660927e-08 -5.3836125701e-08 2.445885915e-08 -8.9710969937e-09 
-6.4386983612e-08 2.6086173146e-08 -1.2361319128e-09 -7.9498431012e-08 1.7127241253e-08 -1.1127645316e-07 -8.5634498154e-08 1.0994022824e-08 -8.0580967973e-08 
-2.0460216242e-07 2.1403099323e-08 -2.4697365507e-07 -2.2802440213e-08 9.5408336979e-09 9.4263393429e-09 -1.5896780495e-08 1.1218790735e-08 -3.8662058838e-09 
1.8993291759e-08 -2.4140184894e-08 5.4942991835e-08 5.9407005155e-08 -9.658568935e-08 1.2380431479e-08 -5.2656544555e-09 -2.4956471054e-08 8.6778843575e-08 
1.1379354613e-05 2.5711982436e-06 -5.4084068018e-06 4.8943193806e-06 1.2088736813e-07 -3.1605149189e-07 -2.051570869e-09 -1.8579801391e-09 2.3655195417e-08 
8.1146441289e-10 -4.8745764272e-09 2.5924962157e-08 6.5189809118e-09 -1.054032707e-08 3.3362386604e-08 7.1723068481e-10 -2.8495632691e-09 1.5116365781e-08 
4.5979543185e-10 -5.7197710655e-09 3.5859893527e-08 -8.3900828646e-08 1.4447234424e-09 -9.2351935727e-08 -3.1090074579e-09 2.4595737804e-09 -3.2013109407e-08 
-5.851079043e-09 1.0223225873e-09 -6.1786595723e-09 -2.533710597e-08 8.6669128832e-09 -6.4523287593e-09 -1.889387372e-08 8.0869853595e-09 -3.4660180462e-09 
-1.5933052431e-08 7.4937997139e-09 -5.6058279198e-09 -4.5335034845e-08 8.4523127843e-09 2.6815435908e-08 -6.6514205976e-08 8.5711628593e-09 1.273575103e-08 
7.5531313582e-06 -4.3547651482e-06 -8.2630821381e-07 9.1430494724e-06 -2.3597328071e-06 1.5943635004e-06 1.6815294205e-06 -3.4505817667e-07 -4.2320389134e-07 
-4.8600051833e-07 -2.8389334253e-07 1.0098081209e-07 2.2407881596e-09 9.3463242993e-09 -7.6923542421e-09 2.1023222266e-09 7.325206728e-09 -4.297964957e-09 
-6.3108336746e-09 1.4292756897e-08 -1.2029305108e-08 -3.4795154404e-09 1.953854454e-08 -2.1639874178e-08 -2.0800191352e-09 4.1695767431e-10 -2.6763788035e-10 
9.6597098382e-10 1.8871811195e-09 -6.1444401047e-09 -7.5761188574e-09 3.2141808934e-09 4.8741597674e-09 -4.2448601608e-09 8.9517097871e-10 4.0268480829e-09 
-7.1627893968e-09 2.7268846232e-09 9.9366822009e-09 1.8553466945e-08 -3.51513962e-09 4.8791836144e-08 1.9340639357e-05 -8.2481682394e-07 -8.0775599212e-06 
-1.2841946012e-09 4.6564476557e-10 -5.2973862993e-10 -2.1177016372e-09 1.0030160388e-09 -6.2839387405e-09 1.1179539196e-05 9.6725939852e-07 -1.6373865271e-06 
1.1838856968e-08 -4.4604518343e-09 6.5833392871e-08 -7.131139105e-08 5.5321981481e-09 4.9659276794e-09 -4.4516685166e-08 2.5345936159e-09 3.836926403e-08 
-5.7996449764e-09 3.6671625153e-09 1.1757556728e-09 -1.3767797043e-09 1.3501655511e-09 -1.2663946643e-10 -6.354396452e-09 4.0959939074e-09 8.4964581819e-10 
-9.7925126965e-09 1.1964068528e-09 2.9773093749e-08 -1.0038823254e-08 1.176780853e-09 2.6215352102e-08 -6.7050410469e-08 2.1740567639e-08 -9.7149264652e-10 
-7.3569949483e-08 2.0520600421e-08 -5.7821282614e-09 -6.6480987812e-08 2.2419735767e-08 2.4027105917e-09 -5.4797583402e-08 1.2100464021e-08 2.4102445875e-08 
-5.5873569291e-08 1.1985524248e-08 1.7854446599e-08 -1.4026576817e-08 6.7709440767e-09 -7.5148386009e-10 -1.5253151767e-08 9.7373454296e-09 -3.1760048038e-09 
-1.4696375929e-08 9.1405827653e-09 -2.8159335273e-09 -7.7724011627e-09 3.0539924048e-08 -4.5958224288e-08 -3.8284805493e-08 3.3631173677e-08 -3.4551442174e-08 
-3.4891333033e-08 5.0531099871e-08 -6.0007820012e-08 2.3117703716e-09 -6.9490261e-09 4.7144243175e-08 -5.8435837352e-09 -2.4571874599e-09 4.5921807952e-08 
-4.4884425489e-09 -5.6812079086e-09 5.3447395712e-08 -2.2131610794e-08 6.6150972277e-09 2.5116144586e-08 -2.8474271193e-08 9.9033019703e-09 2.0093620926e-08 
-5.3215685911e-09 -1.1752870574e-09 3.5097886442e-08 -2.75909726e-10 -4.3945850712e-09 3.7794610886e-08 9.6530196346e-10 -2.5099187062e-09 2.9245556225e-08 
-3.9672987488e-08 3.9837408788e-09 4.4989481807e-08 -4.6247298596e-08 1.3262889032e-08 3.2954679019e-08 -2.9144368356e-08 1.0347814274e-09 5.5392449769e-08 
-2.4698069066e-08 9.5299274589e-10 5.1881122117e-08 -3.161136947e-08 4.9577047522e-09 4.7068125146e-08 -3.8895047032e-08 9.4945526984e-09 3.6990828244e-08 
1.4079695249e-06 -7.1403674338e-07 -1.2688546665e-06 1.1047605019e-06 -4.61636505e-07 2.5423147265e-07 -1.9080018223e-09 -6.2189084951e-09 5.8679552705e-08 
-5.4236714828e-09 -1.0048921264e-08 6.0915764033e-08 -3.5624400053e-09 1.265588637e-08 -8.0332848154e-09 -4.1261013411e-10 1.8892109141e-08 -1.5752580682e-08 
-2.8091621205e-08 5.5955562407e-09 4.3827918627e-08 -4.1493624372e-08 1.3923868541e-08 2.9366042648e-08 -4.7254604974e-08 1.8154817772e-08 2.4151204236e-08 
-3.9214255495e-08 1.3771909596e-08 2.7185252175e-08 -3.4201049541e-08 1.1072294484e-08 2.9998244312e-08 -3.7662128577e-08 2.495723194e-08 -4.6127851016e-08 
-7.5908180634e-08 3.4178400008e-08 -5.746187522e-08 -3.6787645328e-08 7.2201444207e-09 -1.4115463533e-08 -4.4072685599e-08 9.536950912e-09 3.4005429719e-08 
-4.9221446716e-08 1.2194554463e-08 2.9500251938e-08 -3.597763428e-08 6.7251364519e-09 3.9684390678e-08 -4.981094713e-08 1.9557220408e-08 2.2932518815e-08 
-4.7467854934e-09 6.7134819461e-10 7.0233816144e-09 -3.2181922306e-09 4.9268146433e-10 3.1265721179e-09 -1.2448346879e-08 1.7034039585e-09 5.7673451153e-09 
1.2886594598e-09 6.7613523493e-09 -8.0298897794e-09 1.1272648545e-09 4.2041779692e-09 -5.6496060095e-09 -6.2091585387e-09 1.046737136e-08 -2.4296672445e-08 
-3.2298463633e-08 3.1620990353e-09 4.6042620014e-08 -1.8433697818e-08 4.5661618075e-10 4.9652304056e-08 -2.9341437113e-08 4.2070814354e-09 3.9538938088e-08 
-3.4734513844e-08 5.3225078528e-08 -7.2261737538e-08 -3.7455204605e-08 3.983980754e-08 -3.9848999076e-08 -1.9294305061e-08 3.4580411606e-08 -3.894788425e-08 
-1.066421596e-09 9.7361330645e-10 -2.9460808805e-10 -3.7507186746e-08 7.3212751694e-09 2.5314016708e-08 -5.1277196548e-08 9.8867310607e-10 4.5145783506e-08 
-2.5268265707e-08 2.2372023453e-08 -7.4777058892e-08 7.3352040458e-09 -1.4198439323e-08 2.7655647564e-08 1.473250973e-07 -7.3415046409e-08 5.7883716809e-08 
8.2983123767e-08 -5.7863439764e-08 6.5630856859e-08 4.0874973853e-08 -2.6984995958e-08 6.4296706275e-08 1.5725494687e-07 -6.94601236e-08 6.3980157943e-08 
8.2582007712e-08 -3.3950253163e-08 4.4229946133e-08 1.7236966554e-05 1.7484031227e-06 -4.1373305493e-06 1.7741719196e-05 2.6916855104e-06 -7.4899198689e-06 
3.5749686405e-06 4.3176040354e-07 -1.6431677742e-06 1.0903163307e-07 -8.1777066481e-08 6.6372088482e-08 2.1733868118e-07 -2.824015238e-08 5.3456034864e-08 
1.4702068285e-07 -1.6075796496e-08 3.6175877836e-08 2.9321966438e-07 2.9193162477e-09 4.8051662892e-08 1.9071011315e-07 -2.0302426694e-08 6.3477717924e-08 
1.45637233e-07 -1.5953254852e-08 8.0615917618e-08 -3.9109609996e-08 2.3684206517e-09 3.2049433615e-08 -2.8654165301e-08 3.9441922347e-09 3.3467997134e-08 
-2.6234147868e-08 9.1284064076e-10 4.8191934278e-08 -4.0449995917e-08 2.2621565796e-09 4.3740134303e-08 2.8232805285e-08 -2.5021034113e-08 7.0715276136e-08 
1.0776024586e-07 -5.854349263e-08 6.7457603618e-08 8.9323583698e-08 -6.5590326498e-08 6.9991884135e-08 4.1454788427e-08 -3.4748417742e-08 6.9646041555e-08 
-7.6673998757e-09 1.2963565946e-09 1.7614130665e-08 -1.2861536867e-08 1.6259178003e-09 1.941491381e-08 -4.4450361935e-08 6.5710067814e-09 3.487811918e-08 
-6.0027077483e-08 2.7258871501e-08 -3.2029065044e-09 -5.4018443915e-08 1.6603544511e-08 2.1848270097e-08 -5.4002651076e-08 2.4931924218e-08 9.9839941493e-10 
-6.559624461e-08 3.7947962392e-08 -1.5932978178e-08 -5.5465662368e-08 2.4450045964e-08 1.4873905582e-08 -4.6106786298e-08 5.4268434312e-09 -1.3566507644e-08 
-4.2616152578e-08 4.0085463469e-09 -1.9251715398e-08 -2.753461573e-08 6.3122253786e-09 3.1370944106e-08 -4.2004518279e-08 2.1241892088e-08 1.553444736e-09 
-3.6629671648e-08 1.6623902405e-08 6.9165914303e-09 -5.9500524587e-08 2.3211120142e-08 -9.8596257229e-08 -7.6177761331e-08 2.0778821319e-08 -1.014312822e-07 
-2.9857522003e-09 -4.6680046966e-10 2.0517661611e-08 -3.0899863258e-09 -4.7656563882e-10 2.1630230845e-08 -2.9136336227e-09 8.4054795194e-10 1.4182934555e-08 
-9.8336723985e-09 1.7516851665e-09 2.896628376e-08 -1.2257676702e-08 3.2620536874e-09 2.8400721844e-08 -1.0917298876e-08 5.5199941303e-09 1.5874561556e-08 
-1.1088419684e-08 3.4673984299e-09 2.5641665906e-08 -2.0265652301e-08 5.6927306684e-09 3.1793690968e-08 -2.0927805107e-08 8.5141155374e-09 2.0025005372e-08 
-3.0396635476e-08 2.9488915928e-08 -3.2318317653e-08 -8.0866590235e-08 1.0420344965e-08 -1.3500124076e-08 -9.1945337711e-08 8.8221395638e-09 -4.8658388595e-08 
-8.4756801335e-09 4.8689799337e-09 7.7030405759e-10 -7.2426673576e-09 4.0385184129e-09 2.2509621795e-10 -6.6485018366e-08 3.6100478808e-08 -8.3255008838e-08 
-2.4788385632e-08 3.1509431252e-08 -4.5451708147e-08 -9.9971008252e-09 3.1582616072e-08 -5.7555072674e-08 -3.6308379435e-08 3.594469666e-08 -7.1827997496e-08 
9.6326049866e-09 -7.0464357019e-09 3.4721886794e-08 4.2245370814e-09 -6.0567624644e-09 3.4307501874e-08 9.5796809502e-09 -9.5572110462e-09 2.7768740634e-08 
-1.4555241779e-10 -1.5388227744e-09 2.2017954431e-08 2.3498669209e-09 -6.4763095643e-09 5.0056793314e-08 5.4648350847e-08 -5.989148736e-08 7.6529081223e-08 
-9.3792007782e-09 -8.0590087139e-10 4.8208905526e-08 -3.1742666876e-11 -1.5535701871e-09 4.465600725e-08 -6.3564335585e-08 1.7825731266e-08 -6.1047176019e-09 
-5.6060801252e-08 1.9893285139e-08 1.8116076914e-10 6.0978437209e-08 -4.0703198551e-08 4.4963507572e-08 3.2325953757e-08 -2.7760538818e-08 5.3271567614e-08 
2.9039412196e-08 -2.9149096915e-08 2.5812155336e-08 3.7685102408e-08 -3.6609626025e-08 3.2790757438e-08 4.0765154576e-08 -3.43316908e-08 5.9415536816e-08 
4.3334518854e-07 -9.518462379e-08 -1.450469707e-07 2.3775846452e-07 -3.0080774458e-07 -3.066188769e-07 -4.5497472718e-08 2.4503260517e-08 -4.0788410008e-09 
-1.4370987218e-07 2.6623573066e-08 -4.1584722388e-08 1.1977812857e-08 -1.7582695956e-08 3.003690242e-08 1.9520092384e-08 -2.6404629703e-08 2.9827095403e-08 
-5.9640443352e-08 7.3732757862e-09 -2.3886391139e-08 -7.8931709457e-08 8.1676827494e-09 -5.3226912967e-08 -5.1091667411e-08 9.2338022281e-09 2.7310480179e-08 
-3.3164497609e-08 5.4531631577e-09 3.76334302e-08 -5.1144715321e-08 2.3070181631e-08 -9.3168164226e-08 -3.2374238085e-08 2.0290308223e-08 -7.8584966167e-08 
-3.4655682111e-08 2.6303239569e-08 -8.9673373302e-08 -2.1496875807e-08 4.8513343045e-08 -9.8364454656e-08 -4.7945583816e-08 4.5015903891e-08 -7.9350441722e-08 
-5.3275173182e-08 1.4133633626e-08 -1.3316865461e-09 6.1174230704e-08 -6.4685724559e-09 7.7410000438e-08 -1.6882474147e-08 -6.1468165701e-10 5.8854290898e-08 
-1.116840742e-08 3.4412277042e-08 -1.0047954959e-07 -6.3650997207e-09 1.9482746647e-10 2.9596817368e-08 -3.5401938646e-09 -9.7407967859e-10 3.3499506818e-08 
-1.6741619696e-08 3.2629611968e-09 3.5460383051e-08 -7.634213575e-09 -6.4186725185e-09 5.8496824624e-08 -1.7359232029e-08 -3.1146601768e-09 5.6894372588e-08 
-3.7761359195e-08 2.7411415531e-08 -3.9310462068e-08 -5.3404633601e-09 4.2635187347e-09 3.9453453139e-09 -4.2789611655e-09 3.1546995594e-09 2.6958445941e-09 
5.9177808986e-10 -1.6693403893e-09 2.3058316136e-08 -4.3898559956e-08 1.7456941478e-08 1.6409348264e-08 -3.2571832859e-08 8.0225924982e-09 3.436123897e-08 
-3.6452275609e-08 1.3397443863e-08 1.9581281495e-08 -1.0556126293e-08 4.0343477429e-09 -9.153780573e-10 -1.3131345762e-08 6.5024717264e-09 -2.5067534226e-09 
1.0245724566e-07 -7.272538533e-08 7.5151470123e-08 -1.5196754212e-08 1.9451107199e-09 3.9093974722e-08 -3.404457533e-09 -3.1230826553e-10 2.2810074675e-08 
-7.5688019745e-08 4.064243982e-08 -2.2456278926e-08 6.5560437048e-09 -2.9297177842e-08 6.1405383685e-08 -4.718387673e-08 9.2406043283e-09 1.1618069822e-08 
-4.674382441e-08 1.6810545312e-08 -4.5182172492e-09 -4.9507757895e-08 1.0519481348e-08 -9.6217806913e-09 -1.8634189279e-08 6.026328534e-09 2.727727363e-08 
-4.7139957487e-08 5.5402249721e-09 3.9397893307e-08 -2.0827188704e-08 1.0274308656e-09 4.2172908829e-08 -2.945505249e-08 1.8882835394e-09 2.9408591643e-08 
-2.4852452978e-08 3.9721728996e-09 7.8918671604e-09 -3.1730424068e-08 4.9272854624e-09 2.077295124e-08 -2.4885159183e-08 2.9697880877e-09 1.9540832686e-08 
-6.1003378141e-09 3.0052131039e-09 1.364036008e-09 -3.1171460354e-09 1.524040678e-09 1.9193905837e-10 -3.8532468232e-09 1.4371659881e-09 4.7376056613e-10 
-7.5660518058e-10 5.4617725508e-10 -3.5443078423e-10 -9.3453023644e-10 8.9279931909e-10 -2.0576484737e-10 -3.8946299437e-09 2.6227872504e-09 2.1366553986e-09 
-4.6170450873e-09 2.8424694476e-09 1.0838784717e-09 4.4153596469e-09 -1.1211960502e-08 4.9184538316e-09 5.2779255193e-09 -1.1665809496e-08 6.2879669711e-09 
6.0015801903e-09 -1.1323445152e-08 1.6299044343e-08 -3.3551425318e-08 1.0741090059e-08 3.0127716453e-08 -4.6572645985e-08 1.5441003389e-08 2.870662308e-08 
-8.4334980866e-08 -7.4566073887e-09 3.3544735052e-08 -4.238572656e-08 -1.0497188012e-08 6.5273222007e-08 -6.7525343918e-08 -6.824119056e-10 2.5778941161e-08 
-1.8020541693e-08 1.2095300815e-09 -5.7299000418e-09 -3.3188301673e-08 3.6735393693e-09 -1.8851832662e-08 -1.0737355997e-07 3.2917748236e-08 -9.6524866352e-08 
-1.3416723882e-07 6.72503485e-08 -7.0964312826e-08 -1.1183413108e-07 2.3163421777e-09 -1.7093342102e-08 -1.3294963345e-07 -1.9414302596e-08 -7.7386231056e-08 
-6.5678758814e-08 1.2645723925e-08 -6.0507073839e-08 -9.2607018869e-08 2.7261111936e-09 -3.301274865e-08 -6.6450729946e-08 1.4220263299e-08 -1.0732056695e-08 
-1.4392154023e-08 1.2930422581e-08 -1.6674252587e-08 -2.8080714871e-08 1.1129068626e-08 -1.4930541336e-08 -1.7243561788e-08 2.4009854692e-08 -2.4733431752e-08 
-3.1990385596e-08 2.347585224e-08 -2.2031576824e-08 -1.7183597935e-08 1.3219195269e-08 -2.6992895409e-08 3.332649834e-07 1.2602814926e-08 -1.0100277915e-07 
3.322157617e-07 -9.8992555444e-08 -3.8862046833e-07 2.774353845e-07 -1.3145888536e-07 -1.6347061315e-07 1.3078683769e-07 -2.7039016441e-08 1.8728624869e-09 
2.8050518677e-07 -2.8473395435e-08 -3.0788116719e-09 3.9234329218e-07 -2.369218197e-08 -1.832698094e-07 -7.7046268369e-08 5.260342545e-08 -2.8624399219e-08 
7.882426656e-09 5.8049448852e-09 -1.5049142093e-08 -6.3806197976e-10 1.6316430515e-08 -1.6287585225e-08 -4.725540007e-09 1.3659114105e-09 -1.9977803547e-09 
-1.1701645828e-08 7.9503088774e-09 -6.6264458168e-09 2.907276927e-09 6.8664948052e-09 -2.8653297777e-09 -3.8327655124e-09 1.2226472394e-08 -6.7745079738e-09 
-3.4858918896e-09 1.4517640906e-09 1.2882211602e-08 -3.4337226139e-09 3.8865158012e-10 1.9696436773e-08 -3.6405324686e-09 2.2056281201e-09 1.0805316523e-08 
-9.2608352647e-09 3.9500158291e-09 1.748175017e-08 -7.6205988093e-08 5.2185186776e-08 -5.6589338309e-08 -3.9836736885e-08 1.1468768837e-08 3.41890593e-08 
-5.2415579493e-08 1.3652992766e-08 2.5875770507e-08 -6.4798175144e-08 2.6005536312e-08 3.4151641534e-09 -4.7634649019e-08 1.6563142159e-08 3.1341534256e-08 
7.4823884475e-08 -6.3106370691e-08 6.9004661795e-08 -3.1066493296e-08 3.6118849024e-08 -3.6196161931e-08 -3.0917281508e-08 2.9223510944e-08 -2.5051191221e-08 
-4.7359500539e-08 3.7081114241e-08 -3.5610436729e-08 -4.439738427e-08 3.2048024006e-08 -2.0245458644e-08 -3.9277592304e-08 4.2864598235e-08 -4.6448206855e-08 
-7.8924421495e-09 1.2250721676e-08 -2.277373614e-08 2.189649888e-09 1.8979998121e-08 -2.6291492501e-08 -1.618797942e-08 1.4086869748e-09 3.7306167405e-08 
-1.7470649974e-08 8.5820619553e-10 3.3530858844e-08 -7.5856057972e-08 3.0573726578e-08 -2.9387065325e-08 -7.065405779e-08 2.7135971138e-08 -3.1151843658e-08 
-8.2043992486e-08 2.5102376953e-08 -3.606706963e-08 3.8819366497e-09 -8.4467109483e-10 2.0099335778e-08 1.1353562805e-08 -4.9188693688e-09 3.4387219578e-08 
-6.0720126699e-08 5.5714200336e-08 -7.1981761733e-08 -5.4662236104e-08 4.223078655e-08 -3.5248748577e-08 -6.8516776363e-08 4.1524623384e-08 -2.8503095713e-08 
-6.7941320651e-09 3.5027327027e-09 -1.923361041e-10 -1.403435942e-08 6.5684666979e-09 2.731194307e-09 -1.7014098548e-08 5.9467351157e-09 -5.2413073619e-09 
-1.4681195309e-08 -3.2691661757e-09 6.2860629408e-08 -1.7348594523e-08 -2.874031317e-09 5.6843523221e-08 -5.0123808847e-09 3.9120847222e-10 -6.005561203e-10 
1.0230459186e-08 -3.0462237139e-09 -4.5532448756e-10 8.330504298e-09 -5.7493147692e-09 -1.1298889213e-09 -2.9684530359e-08 1.4233170654e-08 -5.8934061235e-09 
-5.6383642467e-09 -6.9637478756e-11 2.8157595895e-08 -3.0706887862e-09 -2.4501540921e-10 2.1180511768e-08 -1.315117852e-09 -5.7491640152e-11 9.7346927323e-09 
-5.6503450613e-09 7.2340419453e-10 2.0152397001e-08 -2.9489770436e-09 5.7281240776e-10 1.3763224553e-08 -2.3746656255e-08 -3.0587066482e-09 -5.9620318386e-10 
-9.6191762644e-08 4.7937973326e-09 -3.9281478029e-08 -3.7503513747e-08 2.4706294277e-08 -3.9580229317e-08 -9.466045772e-10 5.021604139e-10 -5.1289767969e-10 
2.889668413e-08 -3.169259655e-09 5.0343124201e-09 5.8544301513e-08 -4.5110729604e-09 1.643214483e-08 4.229251764e-06 -2.9348107944e-06 -6.1726948895e-06 
-1.6203810804e-09 3.2395465043e-10 3.0549249306e-09 -3.1700025765e-09 1.2446355383e-09 8.0454343001e-09 -1.9450991929e-09 9.4153999005e-10 2.357842028e-09 
-6.6861801252e-08 6.3899657144e-08 -1.0673995268e-07 -2.954155318e-08 7.7606482303e-08 -1.3611063222e-07 -4.1221514872e-08 5.4688544601e-08 -8.8544286713e-08 
7.3143989388e-07 3.6759495026e-07 8.0026831352e-07 -5.7209855121e-08 3.5186360753e-08 -1.9324798754e-08 1.7165031534e-09 -2.9635499272e-09 2.3471806657e-08 
5.8241702736e-08 -5.0908687731e-08 6.3787486392e-08 4.6685731651e-08 -4.5261445145e-08 4.9266876128e-08 -6.1083228778e-08 2.7485047275e-08 -5.7119673887e-08 
-5.1421593627e-08 2.3290517032e-08 -5.4921160837e-08 -4.9365834499e-08 3.9337954215e-08 -6.068199669e-08 -1.9706430281e-08 6.6784608161e-08 -9.4537445355e-08 
-6.8616469262e-09 4.5405707486e-08 -5.8193825299e-08 -5.2645156559e-09 4.203233846e-08 -5.1989199906e-08 -1.1929950855e-07 4.0522363206e-08 -1.5138884264e-07 
-2.2793794445e-08 1.1879034707e-08 -2.2210560033e-09 -1.7356834348e-08 8.2055896404e-09 -2.2049254057e-09 -4.0295806937e-09 2.3352735041e-09 1.2375271258e-08 
-1.9623390103e-08 1.0766720991e-08 -4.542140906e-09 -1.6929487086e-08 9.9923751351e-09 -3.1061198984e-09 -2.8333338571e-08 6.3298381736e-09 4.0489984121e-08 
-2.5739275533e-09 -1.5442782534e-09 2.3391829237e-08 -2.5541743087e-09 -1.5415478829e-09 2.2422610077e-08 -5.1240673064e-08 8.0880737933e-09 2.3357428536e-08 
-5.8771959143e-08 6.4080323795e-09 2.3565093475e-08 -5.8813773307e-08 8.4736291958e-09 -1.1247248836e-10 -4.0608538793e-09 2.0119397144e-09 1.4777446807e-08 
-5.9082083663e-09 1.0584928146e-09 2.3453859254e-09 -9.6425362127e-08 5.5394421593e-08 -1.1585316266e-07 -2.2235043682e-09 1.4211529461e-09 6.9048386874e-11 
-8.3816832979e-08 3.0605995573e-08 -4.4961667616e-08 -1.4438895569e-08 5.295433441e-09 2.1564648914e-08 -1.119914099e-09 4.1444206516e-10 -4.9231406345e-10 
-6.7239987459e-09 2.3463236107e-09 -6.2228835392e-11 -4.3548299369e-08 8.591104804e-09 1.7620503567e-09 -1.0742073967e-07 1.3560504626e-08 -1.6205898693e-07 
-9.5160586162e-08 2.7300080868e-08 -1.395217747e-07 -1.9253778736e-08 -1.3152737785e-09 5.3335214464e-08 -3.1551951839e-08 4.0770900913e-09 4.5710601727e-08 
6.0522094772e-08 -8.1485930625e-09 5.4979784836e-08 7.2806323903e-08 -1.4676515117e-08 4.2196173747e-08 9.5718190366e-08 -4.9533914803e-09 2.7617295434e-08 
9.9561735097e-08 -8.9023898839e-09 6.8331921781e-08 1.2073587426e-07 -1.6583499407e-08 5.658916271e-08 -8.713023012e-09 1.0731631174e-09 -5.7315722396e-09 
-2.1590379485e-08 5.3940709528e-09 -2.3942417905e-08 -4.6241346956e-09 3.2286367472e-09 7.3248003212e-09 -4.301175056e-09 3.3354626595e-09 6.3619908106e-09 
-1.2688402145e-08 6.3702213862e-09 1.0098173735e-08 -9.1108023216e-09 -7.1791150407e-09 6.0144503281e-08 -4.1322543913e-08 1.4929142723e-08 9.0747348872e-09 
-6.1084673891e-07 3.0506408714e-07 3.2316327552e-08 -9.298111017e-07 1.8154169526e-07 -6.0479409693e-08 -1.175840878e-08 1.7116209645e-09 2.289447363e-08 
-1.7579732078e-08 2.0001139707e-09 2.2990223052e-08 -1.6952634411e-08 2.8192549358e-08 -2.567744878e-08 -2.0740238399e-08 7.5685061436e-08 -1.0725260853e-07 
-3.4890192956e-08 6.7673495949e-08 -9.0447702398e-08 -1.1417490751e-08 4.7818065286e-08 -7.3178572206e-08 -2.3550795536e-08 4.1874713592e-08 -5.3007092663e-08 
-1.475719432e-08 8.2819078937e-09 -1.2592650313e-08 -1.3700796748e-08 7.0742603273e-09 -6.6620792455e-09 3.8091730288e-07 4.6986096545e-09 3.1105419516e-08 
-1.539970872e-08 1.0516458598e-09 -1.789691251e-09 -3.7386625429e-08 4.5373021719e-09 -5.9101326987e-09 -6.7298399055e-08 3.5449576281e-08 -2.3289491224e-08 
-5.7542782039e-08 3.8194355225e-08 -4.2032486428e-08 -4.2627960318e-08 1.2777582377e-08 2.3169195354e-08 -5.1003928952e-08 2.2161983784e-08 1.0910901107e-08 
-4.5578630644e-08 1.8163276519e-08 3.4970075127e-09 -4.387934851e-08 4.4618703198e-08 -5.8779695589e-08 1.6923657229e-07 -6.2071430716e-08 6.9035398984e-08 
-5.480053526e-08 3.2598373831e-08 -1.1558649712e-08 -6.0281934317e-08 2.9263728016e-08 3.8978178336e-10 -3.0778763433e-08 7.3787055251e-09 9.9685189957e-09 
4.1215731319e-08 -3.050708442e-08 2.6409003313e-08 2.3542585676e-08 -2.2639116884e-08 3.7740307864e-08 -7.9395438565e-08 4.5141583521e-08 -5.0864053026e-08 
-6.5116651878e-08 4.8136147231e-08 -6.5505140185e-08 -4.3858583672e-08 4.6483012269e-09 -2.6898521674e-08 -6.6847086527e-08 7.3876151534e-09 -4.8216191989e-08 
-6.5721014475e-09 2.5142466213e-08 -3.4431315516e-08 -2.1908534463e-09 2.5254780948e-08 -2.6696780007e-08 1.1721653579e-09 3.1146964243e-09 -5.9707324617e-09 
-2.6567681536e-09 2.8490052946e-10 1.0317556851e-09 -1.5386373932e-08 4.4943745591e-09 2.6572889991e-08 7.4418174156e-09 -1.1918167417e-08 1.9711907857e-08 
5.9962411385e-09 -1.1217333777e-08 1.4367154621e-08 -3.9195059865e-08 9.6848218425e-09 -2.026800606e-09 -4.3986567564e-08 2.6491444916e-08 -1.3875514326e-08 
-6.9850338622e-08 -3.3277550311e-08 2.3918287989e-08 -3.5325527953e-07 -5.0472521784e-08 -9.405324238e-08 5.8134631681e-09 -8.9371861003e-10 1.6013221903e-08 
-2.4439853625e-09 1.5761519797e-09 -2.1722740257e-09 1.7179931623e-05 -2.6669838409e-07 -1.0727806201e-05 7.8281236018e-09 4.7861038957e-09 -9.6290588156e-09 
-3.5582206377e-07 1.0132972353e-06 -7.1028276616e-07 3.0343050817e-09 5.3661741389e-09 -2.5123070536e-09 -7.758784259e-09 3.6765631679e-09 -2.9799802306e-10 
-8.4163342655e-09 3.9978331569e-09 1.4041237328e-10 -1.1925300275e-08 4.5050018367e-09 -4.8098942746e-10 -1.9233228844e-08 6.9422659021e-09 3.1191323885e-09 
-2.0450174043e-08 7.832097812e-09 1.0553936716e-09 -1.3379941679e-08 3.0842479035e-09 1.0722800912e-08 -1.7654814167e-08 2.2977030491e-09 1.7109967692e-08 
-9.1286594246e-09 1.4681712057e-09 7.3472175738e-09 -1.5113336366e-08 1.3201150841e-08 -1.0935314168e-08 -1.8929423858e-08 1.1719547674e-08 -7.2149722829e-09 
-8.2036059729e-08 2.0668213785e-08 -2.4871913534e-08 -3.2896026028e-08 1.2763571354e-08 2.7445298025e-09 -1.8624995991e-08 4.3559613704e-09 -8.0940128219e-09 
3.4674027725e-09 -1.1897125785e-08 5.6395846051e-08 -1.4570495647e-08 -2.3270192225e-09 5.0477146392e-08 -2.7716904617e-08 4.0613067057e-09 4.4739842486e-08 
2.7518957613e-08 -2.9929032523e-08 2.8516924447e-08 3.4647481586e-08 -3.6297563703e-08 3.4968438637e-08 -1.2954629459e-08 6.8059615766e-09 -1.8087564019e-10 
-2.0170833202e-08 1.0605644132e-08 -5.8743987677e-10 -1.5462148256e-08 8.9840277906e-09 -2.0176460046e-09 -2.613849431e-08 1.3730195792e-08 -2.4405981338e-10 
-1.5545858922e-07 2.8810557932e-08 -2.2302125357e-07 -6.9915767734e-08 2.8909281745e-08 -6.0854302102e-08 -7.5084055916e-08 3.7553875237e-08 -4.0332108902e-08 
-7.5007061251e-08 3.1838155101e-08 -1.9685045065e-08 -8.8423080703e-08 5.0334926026e-08 -8.7398477883e-08 -9.1001166911e-08 3.7957431778e-08 -6.8491145188e-08 
-2.5816830749e-08 3.0710688642e-09 3.8320859635e-08 -2.2937095763e-08 2.6524439609e-09 2.6222787861e-08 -9.8922071732e-09 3.3563119771e-09 -5.1583796428e-08 
-1.8627448492e-08 5.3516895555e-09 -6.8449941593e-08 -2.1323691473e-08 7.0692390622e-09 -4.4400067015e-08 -2.3558069054e-08 2.663039795e-09 6.7631636625e-09 
-3.2641864381e-08 2.8929030493e-09 1.4158773392e-08 -1.6235897418e-09 1.159615673e-09 5.7298361202e-10 -5.5608143201e-08 9.2388678607e-09 2.1934419983e-08 
-1.4178268603e-08 6.9830623632e-09 1.210151052e-08 -2.2422011941e-08 8.3399545791e-09 1.6703287246e-08 2.2028443884e-07 -4.0286666144e-08 4.8538119335e-08 
1.8628783442e-07 -2.979912851e-08 6.5176781561e-08 -1.6187772636e-08 1.8136067402e-09 -6.7312499236e-09 2.857765308e-09 -6.229601405e-09 1.0694961767e-08 
-1.5322348577e-07 4.4869483095e-08 -1.0405018465e-07 -6.3468085529e-08 4.0341473834e-08 -5.989523105e-08 -5.0864064333e-09 1.202073212e-09 1.949450722e-08 
-7.0573371013e-08 5.462739719e-09 1.1524235689e-08 5.070135686e-08 -4.1407540966e-08 -1.5128364972e-07 -1.203000987e-07 1.2090676983e-07 -1.1662779055e-07 
-7.7129639866e-08 6.2870811303e-09 -6.0691863148e-09 9.3293316379e-10 1.8368675972e-08 -1.2775363298e-08 -2.8348947289e-09 1.1769706801e-08 -6.3867429497e-09 
-4.8337013143e-09 3.0209284245e-09 5.9655111617e-09 -3.2449421903e-09 2.535285171e-09 6.9244428619e-09 -3.0114964589e-09 1.4665467524e-09 1.1570137488e-08 
-3.7056607993e-08 6.7062026685e-09 1.7875885686e-08 -3.3920548721e-08 9.1922684494e-09 6.3386434331e-09 -3.7514770817e-08 8.4495490745e-09 3.5700149344e-09 
-1.45782644e-07 1.1461426813e-08 -1.8818898949e-07 -1.3713146746e-07 6.1297833032e-09 -1.8166272017e-07 4.9545222766e-08 -4.4341377507e-08 4.4579437858e-08 
-1.0996275384e-09 -6.1104015538e-10 2.1820570188e-08 4.4191903392e-07 -5.7819710631e-08 -3.4282424237e-07 1.3245426547e-06 2.7363952869e-07 -5.0887650726e-07 
7.3389126622e-07 -6.98821228e-08 -8.7829314978e-07 3.9629366831e-08 -1.5708756596e-08 2.5401164106e-08 1.6811550945e-08 -1.0194014963e-08 2.5952181334e-08 
8.1092548296e-09 -7.5888228743e-09 -2.7237123197e-10 3.2701861987e-08 -2.0534352924e-08 1.7154701117e-08 1.6232836479e-08 -1.2800689538e-08 1.8194785408e-08 
-8.2959864506e-08 1.690672123e-08 -2.0753487078e-08 -2.9180157147e-08 8.4091117135e-09 1.8994326302e-09 -2.7463084614e-08 7.2400694572e-09 4.3617937446e-09 
-2.367632786e-08 1.1259114459e-08 -5.0948077188e-09 9.5299368661e-08 -2.7075772477e-08 4.7764236443e-08 3.4919567356e-09 -3.0203563558e-09 4.2273204239e-08 
2.1472367212e-08 -2.2902026973e-08 6.5622919684e-08 2.1346548572e-08 -2.1766676205e-08 5.5200724464e-08 -2.4090364029e-07 -2.9389585923e-08 -1.8737968582e-07 
-6.2539973862e-09 3.3074830951e-08 -4.8974898539e-08 -7.6402481108e-09 4.1814891957e-10 -6.5425206541e-10 -1.181320531e-08 2.2803687839e-09 -9.8788960138e-11 
-2.0183537912e-09 2.4092706731e-08 -2.2076687785e-08 1.4398596436e-09 2.9742448386e-08 -3.4236361154e-08 -8.5500363284e-08 5.3914011989e-08 -1.3442136511e-07 
-9.4371576963e-08 5.8339482794e-08 -1.0325363101e-07 -8.504971557e-10 3.4302874878e-08 -3.6785994261e-08 -4.4777532772e-10 2.7549178377e-08 -2.5706597557e-08 
-1.5711258448e-08 3.1532260082e-08 -3.1284611444e-08 2.0810809386e-07 -3.9300639409e-08 4.4828476793e-08 1.9283989038e-07 -5.2331087013e-08 4.0193668532e-08 
-2.5389000238e-08 5.4644531377e-09 -1.3218458712e-09 -3.1132718979e-08 5.979533631e-09 1.558346109e-09 -2.0100916912e-09 3.6360561844e-12 1.39542566e-08 
-1.2791863311e-09 -1.1571118229e-10 1.7057912067e-08 -9.1332600094e-09 4.1350552118e-10 2.6780234631e-08 -2.513468621e-09 -2.0972952087e-10 2.2084247395e-08 
-3.811414964e-09 3.6689776385e-10 1.8092888284e-08 -2.4361956089e-08 7.548714089e-09 -4.1595776365e-09 -1.7452106048e-08 6.9134652184e-09 -1.9397297288e-09 
-7.0033861731e-08 3.4276491443e-08 -5.3027364804e-08 -5.2218017927e-09 2.7099496003e-09 1.3603025123e-08 8.049048082e-09 -1.0830781536e-08 2.5066768418e-08 
7.323699452e-08 -4.8323387757e-08 5.5994949854e-08 -1.1590209063e-09 9.779221868e-10 -4.0844333787e-10 -5.7469752602e-09 3.1775646266e-09 1.4145285384e-10 
2.9956021772e-08 -3.3920338368e-08 3.6450229042e-08 -6.8524644433e-09 9.3890598148e-10 -3.5119079465e-10 -9.8185469852e-09 1.3439943038e-09 -8.5256129751e-10 
-1.5710206161e-08 2.7481375029e-09 9.8954338785e-10 -1.8534735906e-08 3.6534569472e-09 1.7501441101e-10 -1.0069469499e-08 2.9491894476e-09 -1.7350879454e-10 
-8.3342613199e-08 2.4937496365e-08 -6.7816940335e-08 -3.7467128902e-09 5.1250548602e-10 1.7650109269e-08 -2.0630723076e-08 1.0614293508e-08 -6.0699654419e-09 
-1.5751049126e-08 6.5932521652e-09 -6.0943751995e-09 -3.2039478456e-09 2.0821762524e-09 9.635888312e-09 -3.6066144322e-08 9.2740645371e-09 -3.2777676958e-09 
-1.5983539851e-08 3.8072273465e-09 -1.4383569961e-09 -2.3431315045e-08 3.7206006594e-09 -1.4941301886e-09 -3.215516787e-08 7.2195698986e-09 1.7392099596e-09 
-8.6922032247e-08 3.3491188491e-08 -5.7396332609e-08 7.0898919086e-09 -5.4197001719e-09 3.0254343593e-08 1.1572157633e-07 -5.1580310152e-08 6.2863778744e-08 
-9.7527431321e-08 7.8801502736e-09 -3.2984884595e-08 -9.6810641123e-08 1.9280552379e-08 -6.3998533171e-08 -1.3936987052e-09 -1.8960684417e-10 1.6214154417e-08 
-4.0148497523e-09 2.4291182935e-09 9.125891959e-10 -5.3004400166e-09 2.6202242432e-09 1.8277455506e-11 -7.8541380231e-08 3.5661974288e-08 -2.812679193e-08 
-2.5036591194e-08 4.7743183513e-09 9.5037193073e-10 -1.3436325355e-07 8.9350891013e-09 -1.1246251895e-07 -2.3597116964e-08 3.0602655816e-08 -8.4730600246e-08 
-1.4026445985e-08 3.7280128447e-08 -7.4994307345e-08 -2.4028925772e-08 6.7615381138e-09 3.2547390135e-08 2.0188278573e-09 -6.0024975789e-09 3.2614663228e-08 
7.52134317e-09 -9.6306161515e-09 2.8258545157e-08 1.8090027232e-08 -2.3238342609e-08 5.7721873159e-08 -6.6515635482e-08 3.274050526e-08 -6.571744458e-08 
-1.8629964981e-08 1.0833259555e-08 -9.9029007955e-09 -2.9850675568e-08 8.8299304075e-09 -6.6477091971e-09 -2.2713495356e-07 9.3600436735e-10 -2.7212682091e-07 
-1.6376734559e-08 3.880566489e-09 -9.1140764086e-09 -1.6625510737e-08 6.1643994364e-09 -8.6931517123e-09 -4.4023830686e-08 6.7353409649e-09 2.9853255067e-08 
-3.2759622518e-08 4.0272081282e-09 4.1157682026e-08 -2.6076592924e-08 3.4296329747e-09 -1.8069584141e-08 1.3816020868e-08 -1.093571975e-08 2.7617265916e-08 
1.257490518e-08 -1.3359334275e-08 2.067202907e-08 1.4878028289e-07 -1.9271693877e-08 6.4917063294e-08 -1.5610161868e-07 1.4830153799e-08 -1.8221885472e-07 
-1.95046364e-08 2.7508674869e-09 -1.9755134626e-10 -2.5515445943e-08 2.0788684458e-09 1.2854822411e-09 -2.6275546905e-08 5.0216557953e-09 5.0587870649e-09 
-2.4742671772e-07 7.3044317576e-08 -6.6071853977e-08 -3.0002570753e-09 1.1513345736e-09 1.0705417962e-08 -3.3324188434e-09 1.7663169003e-09 8.6748249638e-09 
-4.3040394814e-08 7.9804674462e-09 1.6223377608e-08 -6.0844143808e-08 1.0524759985e-08 -3.0896425131e-08 -1.6067214391e-08 5.7644384594e-09 -6.4341906896e-09 
-1.5314237616e-08 4.8052362982e-09 -4.0419490118e-09 -3.3822507982e-08 2.7006710851e-09 -4.1418506815e-10 1.3429233652e-09 -5.2245860715e-09 2.3836687735e-08 
-5.6797927928e-10 2.1733574485e-08 -1.7106502048e-08 1.9635061127e-10 2.1687505029e-08 -1.7789807107e-08 2.5636331292e-09 -2.5475849528e-09 2.3807475859e-08 
3.7364570956e-09 -3.611156335e-09 2.2882833615e-08 -1.3876789983e-08 -2.3658088573e-09 5.7348509374e-08 -2.1120258589e-08 9.321580369e-10 4.6233641135e-08 
-3.9642329333e-09 -7.1111750915e-09 6.4493938705e-08 1.2324666721e-08 -2.6317565529e-08 -1.1394796846e-08 1.8004447305e-07 -1.0744964477e-07 -2.9309096827e-07 
-3.212605396e-08 2.4360205795e-09 2.1764548044e-08 6.9995530962e-10 -4.3915694136e-09 2.279196183e-08 -5.0856803714e-08 1.1221945552e-08 -2.239398068e-08 
-1.1541214176e-08 3.4294970998e-09 -9.442596761e-11 -9.3979601578e-09 3.804810158e-09 4.3736765403e-12 -1.0839862686e-08 5.8720756401e-09 -3.1834454626e-09 
-1.2496723808e-08 6.2060040002e-09 -3.9126668476e-11 -1.4013526479e-08 7.5911811788e-09 -8.8320268092e-10 -1.4496809921e-08 8.3835352875e-09 -1.8831462897e-09 
-2.1435419409e-08 3.6675672445e-09 3.4210642804e-09 -5.6126584064e-08 2.9369088892e-08 -4.2920435315e-08 -4.049563741e-08 3.0065800181e-08 -4.0653607568e-08 
1.3070854215e-08 -1.5399355472e-08 4.431324621e-08 -3.7412258031e-08 6.0826246053e-09 2.8767759531e-08 -7.5412765488e-08 2.8904725302e-08 -3.2177295267e-08 
-4.3216520963e-10 -2.9511299422e-09 2.1190332116e-08 -3.189440756e-08 1.1225596219e-08 -1.778355769e-08 -2.4212731812e-09 4.5323359568e-10 6.1312805708e-09 
-2.3620687369e-09 4.897883541e-10 8.3366745998e-09 6.7469620659e-09 -2.506689666e-09 4.1493757766e-08 -5.0634397335e-10 -7.5666631426e-09 5.8422667315e-08 
-1.6602473251e-09 1.1696898817e-09 1.3483982856e-09 -2.1064802244e-09 1.606134705e-09 2.7309821839e-09 6.2337331232e-08 -5.1225698949e-08 6.0056834916e-08 
1.9206640032e-06 -2.6516308539e-06 -1.3639079387e-06 -1.9429991518e-07 6.502355723e-09 1.3061035112e-07 1.3299252943e-09 7.7972273735e-09 -4.0071339765e-09 
-4.3021941994e-09 1.2398517346e-08 -7.0142288018e-09 -1.3514101112e-09 2.3117054582e-08 -3.4087934426e-08 -1.2989423683e-08 4.0572481146e-09 -8.2365283682e-10 
-1.6072226445e-08 2.4220818796e-09 3.6490388606e-08 -5.47388369e-09 1.0078041227e-09 3.530386511e-09 -1.1470859169e-08 5.6220645447e-09 2.2528636726e-10 
-1.6452998461e-09 1.2307363454e-09 -6.197317776e-10 -4.0668870318e-09 2.7773598668e-09 1.1727581097e-09 2.1317347059e-07 -6.4301991782e-09 6.2365077077e-08 
1.0511336785e-07 -1.0063564085e-08 7.604131799e-08 2.0588738657e-07 -5.4322416574e-08 5.9335746151e-08 -1.8613276659e-08 5.1413379422e-09 -2.1593751258e-09 
4.8001762454e-09 -4.0166051631e-09 2.7800595787e-08 3.6973534909e-09 -4.1750172314e-09 3.8457444991e-08 2.6536567313e-09 -2.8494479842e-09 2.3324779628e-08 
1.6914745757e-09 -3.2003189698e-09 1.3572498072e-08 1.8842677443e-09 -4.7519820722e-09 1.4445812316e-08 1.98491842e-09 -4.7603578687e-09 1.2410277089e-08 
-3.4314094524e-08 1.7404426564e-08 1.5390941108e-09 -1.8373340396e-08 3.1675150776e-08 -3.588392904e-08 9.878158221e-09 -1.3202733333e-08 2.3367524165e-08 
2.789365037e-09 -7.0540683485e-09 2.2755384701e-08 -2.8340429931e-08 7.7029730505e-09 3.641694504e-08 -1.8115641142e-08 1.2139392974e-09 4.489453504e-08 
-8.2841621724e-08 4.3914547002e-08 -8.9561809247e-08 -2.501888113e-08 2.0786815744e-09 4.5187408958e-09 -2.5117632992e-08 5.69693173e-09 3.6950468751e-08 
-9.1856872868e-09 5.8690453854e-11 3.760535297e-08 -6.7592711811e-09 -4.2339740211e-10 3.7301853145e-08 5.8838690284e-09 -1.0788012501e-08 2.0073056648e-08 
-1.9474206435e-08 1.930214258e-09 4.3649782558e-08 -3.1265286725e-08 9.7126751232e-09 4.4164517645e-09 -2.8687085544e-08 1.009402043e-08 -3.556026065e-10 
-1.8016955203e-08 -6.9328916739e-10 5.0934080348e-08 7.8586134212e-09 -1.3883185161e-08 6.577132196e-08 4.5945021621e-09 -9.7900026063e-09 8.8989317923e-10 
7.8778412907e-09 -1.3037055681e-08 1.5105790474e-08 1.7440049376e-08 -2.133587681e-08 1.6054014062e-08 2.5711932523e-08 -2.3512404565e-08 1.6377323188e-08 
1.2317827559e-08 -1.5072971944e-08 1.6910945255e-08 -3.7040176032e-08 5.5380438702e-09 2.9512663789e-08 -3.9553440166e-08 1.1762353666e-08 -1.0298745972e-08 
-3.3525675745e-08 1.4791772466e-08 -2.762425742e-08 -2.2363003621e-08 5.8343239651e-09 2.9059715286e-09 -5.2534188868e-08 3.4880380696e-08 -6.1641174116e-08 
-1.5327356824e-08 5.6544685755e-09 -6.4685692018e-09 -6.0814522168e-08 9.3725254036e-09 -1.5909005668e-08 -2.1714222758e-08 1.2500059935e-09 2.7208881588e-08 
-4.6827401372e-09 4.1348727437e-08 -5.288736379e-08 -3.5012769065e-09 3.1699211232e-08 -3.6625031042e-08 -8.6816639257e-09 4.0558983655e-08 -6.2252798487e-08 
-6.498216198e-08 6.6084700211e-09 9.5862529667e-09 -9.6860261288e-08 2.8195052864e-08 -6.7451691801e-08 -9.8952179976e-08 3.4072389195e-08 -1.0452984434e-07 
-9.9374838329e-08 2.3016463948e-08 -1.0071665812e-07 -2.2732015867e-09 1.8550102902e-10 1.1033064434e-08 -9.6003940415e-09 4.4342751254e-09 -4.7223059232e-10 
-1.4470534107e-08 5.6178013352e-09 -9.4264901943e-10 -1.2301427786e-07 -1.071438024e-08 -7.3486677326e-08 -1.338789857e-08 2.8903553535e-09 -8.0382392212e-10 
-4.4529484114e-08 3.5452684654e-09 -5.8788514294e-09 8.5065749252e-08 -4.5733564087e-08 5.4681973145e-08 6.2960573632e-08 -3.6950302177e-08 3.7465768997e-08 
-1.2857401626e-08 -2.6547471649e-10 4.3421801749e-08 -2.3129584422e-09 3.1550510959e-08 -4.1173164951e-08 -3.443920793e-08 3.638493808e-08 -4.3425997069e-08 
-4.5910074568e-08 3.7073706097e-08 -5.2154254113e-08 -9.8178438646e-09 4.1697328372e-09 -1.2775805397e-10 1.2961163472e-07 -9.8288811384e-09 3.8217990904e-08 
1.5808817852e-07 -9.4822927461e-09 5.5525888532e-08 -3.4749098871e-09 3.7671381286e-08 -4.4512317521e-08 -1.6598037356e-08 5.4183823915e-09 -1.5399488375e-09 
-1.0809030635e-08 1.500430337e-09 -5.2050624709e-09 -1.3123616799e-08 7.662407077e-10 -1.145167851e-09 -1.8314984532e-07 1.0648340182e-07 -1.1609870338e-08 
6.225275047e-09 -1.2950216359e-08 3.4200179508e-09 -5.7853140226e-09 4.2681982834e-09 6.9478159845e-09 -3.5741113284e-09 2.7913630887e-09 8.1445601599e-09 
9.6825967177e-09 -1.8700422042e-08 5.7548695892e-08 -1.5525100297e-08 6.7440591161e-09 -1.337178158e-09 6.9206679878e-09 8.8060272669e-09 -2.0195100639e-08 
2.1710690265e-07 -6.6174638039e-08 6.4233498443e-08 -1.3887636351e-08 8.3803964669e-09 -6.0006734417e-09 -1.3113669263e-09 8.4607585647e-10 -3.8495303921e-10 
2.5656395713e-10 -8.9712433323e-10 2.7573109908e-08 8.2897420947e-10 -1.6334909518e-09 2.382483735e-08 -1.0430091294e-07 1.2954400715e-08 -8.9235559701e-08 
-1.1648791666e-07 1.1937541634e-08 -8.1590722094e-08 -1.2377637345e-07 1.0444648968e-08 -1.4366183336e-07 -1.0592099591e-07 1.0075487985e-08 -1.2821139015e-07 
-2.3640995372e-08 6.2977558332e-09 -4.9440528225e-09 -9.1095935412e-09 2.3073250422e-09 -1.393680273e-09 -3.4673751735e-08 2.6541283284e-09 6.0436344015e-09 
-1.1646497719e-08 8.238445595e-09 -4.4877775358e-08 -3.8550093514e-08 7.7622173937e-09 -5.310179514e-08 -3.2037158634e-08 1.8418007192e-08 -5.2002438291e-08 
-4.2610567212e-08 1.2048192942e-08 -3.7439073179e-08 -3.1995878533e-07 1.1387617865e-07 -5.3987533199e-08 2.0188000517e-09 7.7705333422e-09 -3.4758595741e-09 
-6.0796471611e-10 -1.0921538478e-09 1.7141207519e-08 -5.815699355e-10 1.0686121146e-08 -3.4716902974e-08 -2.184110789e-08 1.4452540497e-08 -3.6184994985e-08 
-9.5003923151e-09 2.1377613364e-08 -4.1958057891e-08 -1.9777852934e-08 4.7246973253e-09 -2.4448041048e-09 5.5329320698e-09 -9.1110172296e-09 3.0564109463e-09 
-3.0027128632e-08 4.1349568814e-09 2.9146373189e-08 3.6225725611e-08 -2.4833814394e-08 2.0909721616e-08 -4.3854523251e-09 2.9947631264e-09 1.0554308083e-08 
-4.24297331e-09 3.1706129304e-09 9.1946217561e-09 -5.787547464e-08 -1.4985714776e-09 -6.5192861503e-08 9.8337769286e-09 -1.0365174628e-08 5.4934740012e-08 
-3.0199888864e-08 9.5075546899e-09 2.7528303232e-08 2.3995145327e-09 1.129969043e-08 -6.147975726e-09 -9.0773034052e-10 1.0103483554e-08 -2.6217437185e-08 
1.6371068309e-07 -5.2099223759e-07 -3.2615960279e-07 -5.0698554327e-09 2.2434219911e-09 1.6585207152e-08 -4.0216306613e-09 1.1899459332e-09 1.5165778137e-08 
-4.769311899e-08 3.3132939215e-09 8.4193254003e-09 1.2198714913e-08 -1.1466039777e-08 1.8716733951e-09 1.1321915949e-08 -1.2279601755e-08 5.7923838791e-09 
-9.514241566e-09 1.6853735407e-09 3.8582800582e-11 -8.0776055989e-09 1.8201871077e-09 -1.8204308133e-09 1.5998164018e-09 -5.8569829114e-09 4.3149645078e-09 
1.2860241736e-09 -3.6399477586e-09 4.246043277e-09 4.7501177882e-09 -7.4931944574e-09 1.398593104e-08 2.1585961101e-09 -4.118646355e-09 9.9373375903e-09 
2.1733634346e-09 -1.1243003196e-09 2.115809364e-08 5.3406741963e-09 -4.8260934463e-09 2.0769220163e-08 2.9320502606e-09 -3.3824412293e-09 1.0443988442e-08 
4.2271430561e-09 -3.7273531534e-09 1.877909897e-08 -6.5641096445e-10 3.8332295441e-10 -2.7857146532e-10 -6.3919269137e-10 4.7552365542e-10 -2.52895432e-10 
-2.128896913e-09 1.0016225357e-09 1.1252428077e-10 -1.5381024415e-09 7.2846658902e-10 4.827261702e-10 -2.3223521195e-09 4.5887559389e-10 6.9311510784e-11 
-1.2353910771e-09 3.7407935004e-10 -1.5141478157e-10 -3.2087056347e-09 7.0511326603e-10 1.4021654322e-09 -4.4608970956e-09 3.5790443685e-10 1.5725542341e-08 
-1.6322233223e-09 3.257296986e-10 9.1584005734e-10 -9.9787646488e-10 2.1841776586e-10 1.4229541209e-10 1.1958530591e-10 -8.671595931e-10 1.2643579443e-08 
5.9883285129e-10 -1.0550099976e-09 1.1923030194e-08 1.6382104579e-09 -1.8629524646e-09 7.0664472823e-09 1.8552055612e-09 -2.2915933612e-09 1.0880552798e-08 
-1.4227947272e-08 -1.5273724191e-09 5.0861862253e-08 -4.4163750636e-08 2.2318960583e-08 -1.7491067506e-08 1.9627376463e-08 -2.643544531e-08 3.532044909e-08 
-2.6353899096e-07 8.5358046817e-08 -1.1893971842e-07 7.1019403484e-08 -4.4642780969e-09 3.3411234368e-08 8.6761287098e-09 -6.0933787918e-09 4.8096861136e-09 
-4.9998454299e-08 6.7233985652e-09 -2.1557631323e-08 2.9032770799e-08 -2.247202202e-08 4.6314468772e-08 -3.42990497e-09 -8.337253667e-09 8.8678054853e-09 
9.1086025707e-08 1.3303341094e-08 1.3074952984e-09 5.3050574112e-08 -9.1108038215e-09 2.9842266457e-08 6.0480232926e-08 -2.8452158182e-08 1.1768823634e-07 
-7.6453226826e-09 -3.6167870052e-09 -1.809047606e-09 -4.0497115113e-09 -2.6128832953e-09 -3.071614509e-09 4.7327542251e-08 -3.1165635872e-09 1.537602e-08 
6.1785222776e-08 3.8099249174e-08 -2.3620085572e-07 5.6514251539e-08 1.11749638e-08 -3.6251931114e-08 -3.5579642657e-09 -1.2363754906e-08 2.310079025e-08 
6.6745744717e-09 -1.909208498e-08 5.1647040391e-08 9.3935600373e-08 -1.0412531186e-08 2.9432844156e-08 6.48792635e-09 -9.3651846055e-09 1.3844427125e-08 
-1.3611744919e-09 -3.5037197805e-09 -3.3984082567e-09 2.3696348147e-08 -7.4452097573e-09 3.0672530578e-08 5.2672011095e-08 2.0717814463e-08 -8.4363297072e-09 
1.9020598803e-09 -2.6861760281e-09 -3.0465255281e-09 2.3302189258e-07 3.1096699769e-08 -1.1705434014e-07 -4.7869722333e-09 -4.7283292412e-09 2.5868494121e-09 
1.8372255687e-08 -1.0854956425e-08 1.5713462573e-08 1.4744971155e-08 -2.5251594385e-08 9.3886648888e-08 4.1935914125e-08 -1.0116256458e-08 3.4596487773e-08 
5.0766516672e-08 2.6870441442e-08 -8.8347699133e-09 2.7730428203e-09 -7.3139026448e-09 2.0529712959e-08 4.3128375584e-08 -2.9521148987e-08 7.1246798953e-08 
-1.204225614e-08 -6.8374720702e-09 1.0245994688e-08 1.7031638069e-09 -4.0062324141e-09 7.1481625103e-09 1.5906364071e-08 -1.1095066199e-08 2.9798823497e-08 
1.2916709116e-08 -4.6732770672e-09 1.299009655e-08 5.3176595605e-08 3.3351703222e-08 -2.93147254e-08 -7.672005082e-09 -7.0479883587e-09 5.3329892665e-09 
2.5505998174e-09 -1.3410034312e-09 -6.9777057942e-09 -2.8373869855e-09 -2.8431636769e-09 -5.8971323295e-09 -3.8568961122e-09 -1.8222820587e-09 -6.6958943308e-09 
-3.1751444401e-09 -1.8706315757e-09 -1.1847945637e-09 1.0724951573e-08 -1.4355048719e-08 7.6582256346e-08 5.7454291878e-08 -1.7703017988e-08 4.8344711e-08 
6.3841149606e-08 3.9824624623e-09 4.3995015363e-09 2.1399224823e-09 -3.9432520521e-09 5.2595845667e-09 4.8304853032e-07 -9.4066409326e-08 -8.374664341e-07 
3.4594505499e-08 5.0804826429e-09 -2.7694810138e-08 -6.7719221508e-09 -5.6350902797e-09 1.2081533863e-08 -3.4738519776e-09 -9.9157362852e-10 -9.6462454363e-10 
4.7893188414e-09 -1.5090138596e-08 2.6767212123e-08 8.2116728366e-08 2.9412998886e-09 1.4274189121e-08 3.6114434022e-08 -3.8018197094e-08 1.7912663509e-07 
2.4506143205e-08 1.9520318833e-09 2.6072667366e-08 4.058830603e-10 -1.201058213e-09 -9.0152254119e-09 3.3996050901e-09 -1.3041899539e-09 -6.3113888124e-09 
3.5260085654e-08 1.4261112569e-08 -4.0239408472e-09 2.4081659281e-08 -4.4417962567e-09 9.7655375099e-09 1.4468273801e-08 4.3048394331e-09 -1.1236700784e-07 
5.2828633102e-08 -9.6662347221e-09 4.3307132412e-08 6.3105435187e-08 1.089099893e-08 1.1777141542e-08 9.0602839891e-08 -6.4321844927e-08 4.14093727e-08 
-1.1903795709e-09 -1.4903926972e-09 -6.1705691883e-09 1.7738051457e-07 7.1045966444e-09 1.58430301e-07 3.3029130016e-08 1.3939749406e-09 6.588428436e-09 
4.4071111699e-08 -3.928892078e-09 1.1968500459e-08 1.0025060707e-07 3.9361983163e-09 -2.0193959011e-08 5.8505899089e-08 -6.3404286516e-09 2.6241437154e-08 
4.8528006443e-08 4.7898647143e-08 -7.532892456e-08 4.515955656e-08 3.1313005354e-09 5.0496385483e-08 -6.341279336e-09 -3.623525762e-09 -1.5850547406e-10 
3.2574847553e-08 1.613834867e-08 -2.2348113885e-08 -8.7163225258e-09 -4.6433882547e-09 5.4713380357e-09 -1.0072754878e-08 -3.0572029059e-09 1.9046119293e-09 
4.8300479907e-08 -1.9725417123e-08 8.4912556704e-08 3.37211357e-08 -7.4506922334e-09 1.4142957945e-08 1.6675274593e-09 -9.7359387749e-09 1.0253273165e-08 
-4.5277186075e-09 -1.408995613e-08 5.3302135439e-08 2.37801629e-08 -1.0011840427e-08 3.4797707017e-08 2.3760967982e-08 -7.7420774691e-09 1.8931152302e-08 
-2.1688703435e-09 -1.0118333106e-09 -1.161433562e-09 8.9185398874e-09 -2.4566780191e-09 3.4638715131e-10 1.3915351322e-08 -5.1346157226e-09 1.9290580562e-08 
-2.3407795383e-09 -2.3084699354e-09 -2.2510290484e-09 1.2610963964e-08 -1.2228037374e-09 4.5530966027e-09 5.6692217686e-08 -3.3801840434e-08 6.4255692009e-08 
-5.9256285383e-09 -4.9030650006e-09 -9.2620020576e-10 -5.4856388834e-09 -1.091261062e-08 2.2136802136e-08 9.4916664294e-10 -3.9446057124e-09 7.2146048246e-09 
-4.3807174476e-09 -1.8853843828e-09 -4.5168138989e-10 1.6365615978e-07 4.1188286122e-07 -2.8804041275e-07 -3.0306124316e-09 -2.3851959837e-09 2.0850486919e-09 
7.4213837788e-08 -3.0915495657e-09 4.8801448835e-08 5.2460414399e-08 1.7487678756e-08 5.5168913412e-09 4.4189546326e-09 -2.7369502862e-09 2.5701825092e-09 
-9.7990985444e-10 -1.535859041e-09 -7.9665602235e-09 2.2904740918e-08 -2.9540164697e-08 1.0591453984e-07 -7.0661312444e-09 -1.9760455797e-09 -2.9924626941e-09 
5.042532585e-08 6.2708351513e-11 9.7114586938e-10 4.2766537039e-08 5.709338437e-09 3.6019223803e-09 1.2662013608e-08 -1.613575752e-08 2.9868448933e-08 
-2.5718260316e-09 -6.2149674086e-09 4.7164856915e-09 1.3399215084e-09 -6.3027157434e-09 7.8515158981e-09 6.8678659682e-08 -4.4705332614e-09 -2.2516337533e-09 
3.2638167185e-08 -1.9361586641e-08 5.1271520071e-08 3.866769569e-08 -1.295051408e-08 2.7401139843e-08 3.9081557654e-09 -1.4647689312e-09 -6.4433106875e-09 
-9.3482985354e-09 -4.7991583016e-09 4.9583269707e-09 2.3941126617e-08 -1.8615466316e-08 4.1519965045e-08 -3.2104016141e-09 -1.8768517294e-09 -9.3080326544e-10 
4.4438417092e-08 -3.622540852e-08 1.2538808004e-07 1.6038072945e-07 1.2228162282e-08 2.8292115433e-08 -7.7348258831e-09 -6.0139638823e-09 2.3672125019e-09 
1.0507606617e-08 -5.8255496531e-09 7.970943342e-09 4.6183414147e-08 1.0893599752e-08 -7.4582544442e-09 1.5192392911e-08 -9.6495821284e-09 1.2971921831e-08 
3.2351071258e-08 1.8866990971e-08 -1.142734806e-08 -2.2580019137e-09 -1.1374302099e-09 -3.8219609599e-09 1.9119579131e-08 -1.3472265765e-08 6.9287769094e-08 
4.2819734326e-08 8.5057382712e-09 4.5697377714e-09 5.8741243345e-07 5.9485879451e-08 -7.7604881074e-08 -3.0266659079e-09 -2.1272961481e-09 -4.0883545842e-09 
8.7849856775e-08 1.5096033406e-08 2.3020347551e-08 -2.9021161498e-09 -9.0651373774e-09 9.7746351175e-09 6.4466284423e-08 -6.4056002049e-09 2.3941723961e-08 
-5.7082198119e-09 -2.2664090724e-09 -1.4208713906e-10 8.8893492434e-09 -2.1429924396e-08 5.003187439e-08 -9.0153961673e-08 -1.038735052e-08 -2.6538638914e-07 
2.0916495257e-08 -1.4216624812e-08 2.7876338561e-08 6.9150513479e-08 -1.0093371183e-08 5.6301047552e-08 1.9070512452e-08 -4.1694183666e-09 1.9897541706e-08 
-1.126857828e-08 -7.6087484692e-09 2.4501322368e-08 8.5790279658e-11 -9.6565565183e-09 3.7449665315e-08 -7.1714174726e-09 -1.0777224344e-08 4.6150410258e-08 
4.2251523007e-08 3.0111912574e-08 -2.0012087606e-08 1.4410126073e-09 -8.7999135221e-09 1.2603059262e-08 9.9863877411e-09 -1.5792357008e-09 -2.070966075e-09 
3.708594588e-08 -3.1508117933e-08 8.6069591595e-08 5.7807922228e-09 -8.5142785004e-09 1.6441571658e-08 2.5364700745e-08 -6.4450696759e-09 1.554524706e-08 
8.1385701316e-08 8.0082067067e-08 1.1575698184e-07 7.1051973211e-08 6.0570795898e-09 2.0436991348e-08 1.2397623263e-07 -1.7710615662e-08 3.479622672e-08 
8.5936892461e-08 -1.5366321817e-08 -8.2510603964e-08 8.0829239235e-09 -1.2489852756e-09 1.0014505842e-08 5.9312717141e-09 -1.1470559448e-08 2.2809736309e-08 
-1.9632155137e-09 -4.3737770956e-09 -1.7373752992e-09 -6.9194404625e-09 -1.0654380855e-08 1.5035919771e-08 -8.9669530602e-09 -5.7551160546e-09 2.1385087908e-09 
-3.1409673764e-09 -2.7525481348e-09 1.7299796312e-09 9.9993028839e-09 -3.0941242543e-09 5.3875496231e-09 -1.3868207104e-08 3.0925049463e-08 -2.5413698008e-07 
-2.0416653199e-09 -1.8197268969e-09 -3.9014881763e-09 5.2187077771e-08 -1.8156549102e-08 4.08274468e-08 6.4142238492e-08 1.8030534568e-08 -7.4405582818e-08 
-7.0338141752e-08 -6.2997094139e-07 -3.4922193662e-07 2.3542268137e-09 -5.2166758936e-09 1.5291796031e-08 4.3923307126e-08 2.137319214e-08 -1.1435124567e-08 
3.2705339523e-08 -3.3992730147e-09 3.4612451354e-08 -5.6670500603e-09 -4.0089863434e-09 1.5023342944e-09 2.3061526294e-09 -1.7523441629e-08 9.5991844011e-08 
-1.1817428626e-08 -3.2217559029e-09 2.7528543128e-09 2.5193906531e-07 1.6138911342e-08 4.5526848955e-08 -5.0633316442e-09 -3.1781001589e-09 -2.8278810947e-09 
-4.222065369e-10 -1.4214249527e-09 -6.5774503384e-09 -5.5372836002e-09 -3.4350558228e-09 -4.5715289008e-09 4.5936823905e-08 4.2680203482e-10 -6.4491341976e-09 
4.1032929428e-08 -1.3392867713e-08 6.3521313439e-08 2.818475882e-08 -2.004341456e-09 6.2686928058e-09 -5.4885583583e-09 -7.6101066935e-09 7.8962585639e-09 
1.6286245083e-09 -1.230748952e-09 -5.2371391766e-09 7.0960254347e-08 -1.0247678011e-08 4.3208554389e-08 -4.5341449523e-09 -2.038328179e-09 -3.8092465891e-09 
2.7213294163e-08 2.1916816094e-08 -6.9146806561e-08 3.2735347862e-08 -4.9061977377e-09 8.8942293821e-09 1.7336781039e-08 5.2802166208e-08 -5.0370175509e-08 
5.533127587e-08 2.6716601118e-08 8.2954884529e-09 1.6289958193e-09 -4.7371431613e-09 4.3581489402e-09 3.9843082769e-08 -9.2550378612e-09 4.6168098545e-08 
1.0180083146e-08 -4.6680539898e-09 1.2938101636e-08 5.2461745881e-08 1.1273229348e-09 1.796879614e-08 3.9367058512e-08 -3.318777126e-10 3.6620137602e-08 
2.6323355674e-09 2.7334060648e-10 -7.8559302945e-09 -2.6554055785e-09 -8.7204718885e-10 -4.3083986414e-09 6.9583466194e-08 2.6957744772e-09 5.9187224111e-08 
6.5950918349e-08 2.7318239259e-08 -1.471812456e-08 3.6484770371e-08 3.6790701233e-10 4.1426506636e-09 3.71579806e-08 6.1113442504e-09 -9.5272141638e-09 
-5.5216540007e-07 3.7190124003e-07 -1.3880026813e-07 -7.9451478078e-09 -3.8961503796e-09 1.7286351681e-09 -1.2989486488e-08 -3.82351849e-09 8.4744205291e-09 
1.3367851427e-08 -3.5682811438e-09 2.1176499348e-08 5.2323027293e-08 -1.9823093496e-08 1.5125417455e-07 1.5229485686e-08 1.9670768174e-08 -1.5571777012e-07 
3.8802524793e-08 -4.4934726563e-09 1.9602577226e-08 -1.2194576295e-08 -6.1271162195e-09 2.0620422452e-08 1.0047080927e-07 6.0761647331e-10 2.4935614199e-08 
1.7581505258e-08 -1.6262528171e-09 8.4401657927e-09 -1.2773040716e-09 -9.7232007006e-10 -3.2141316908e-10 2.2569980097e-07 5.3248704329e-08 -6.7346637842e-08 
1.9142838106e-08 -1.1136336747e-08 4.5237058488e-08 1.2817834081e-08 -3.3241353721e-09 1.9089381202e-08 8.0455312348e-08 -2.3780826116e-08 3.3428604523e-08 
4.2939683885e-08 3.3236256263e-08 -3.7801120178e-08 4.2233608835e-08 -1.4569493923e-08 3.2410116035e-08 -3.8912196676e-09 -1.5409846764e-09 -2.3053100159e-09 
3.4587943262e-08 -1.5678623674e-08 1.8107932093e-07 -3.7854708963e-09 -5.7318193164e-09 3.4291088209e-09 -3.0057455084e-09 -3.2264242557e-09 -4.0555584794e-09 
6.4437544902e-08 -2.420252041e-08 9.9584813702e-08 4.8710981631e-08 4.5429332491e-08 -3.8696820323e-08 1.8319355875e-09 -8.6149127302e-10 -5.7644176721e-09 
-1.0695604387e-09 -9.4695246123e-10 -7.7042190214e-09 5.1043414434e-07 -2.711479761e-07 -7.4912976719e-09 3.7850162477e-08 -4.8328621792e-09 2.742504929e-08 
1.8196316224e-07 -2.1952118719e-08 4.4961383235e-08 5.5533808209e-08 -4.0008259727e-09 -3.8899342228e-08 3.2960642012e-08 1.0305486263e-08 -1.4930922036e-09 
5.7789247242e-08 1.8631427952e-08 1.6384107859e-08 1.6795366817e-08 -2.8660332375e-08 7.2028516312e-08 -1.3110750179e-09 -1.3604020747e-09 -4.3398966863e-09 
6.752287893e-09 -1.3853360153e-08 2.1223382319e-08 6.134891879e-09 -7.2256879098e-09 6.3970282257e-09 -1.9551087445e-07 -7.2684579127e-08 -2.8495734196e-07 
-8.2603823426e-09 -1.4837274875e-09 -3.4962408081e-10 4.3742971454e-08 -2.1541607569e-08 4.8967319219e-08 -2.0927059082e-09 -1.1655140396e-09 -3.3006801641e-10 
2.1529118371e-09 -6.1981924305e-09 5.4342895421e-09 5.9503520918e-08 3.9458725599e-08 -9.9257168169e-08 -3.2201969658e-09 -1.5466175508e-08 3.3467440571e-08 
6.1537063972e-08 2.0175854769e-08 -2.6593480737e-08 -8.7512111367e-09 -1.6462711046e-09 2.5340051235e-09 2.0695981483e-09 -7.8497166429e-09 4.4309054428e-08 
3.5162005814e-08 -2.045362567e-08 2.2964098999e-07 4.0507655999e-08 4.8062090949e-08 -5.2823242223e-08 5.5715863222e-08 -1.6088459355e-08 5.6013844019e-08 
-1.5223502577e-09 -1.254269694e-09 -1.5640525061e-09 4.1876253356e-09 -1.2962158344e-08 8.3128272273e-08 7.5135179012e-08 -1.2791110075e-09 1.6125395603e-08 
-3.4008710068e-09 -1.6149570375e-09 -3.185324475e-09 2.1639629436e-07 4.0045729981e-10 -2.3489220646e-07 6.967317696e-08 -2.8255702804e-09 3.619862319e-08 
3.065982781e-08 -7.3827115128e-09 1.4202734266e-08 3.7311985477e-08 -1.5541760053e-08 4.301502526e-08 2.2484566712e-08 -1.5270683529e-08 3.9035794178e-08 
3.7922386494e-08 -1.0512081974e-08 4.1441506945e-08 4.4081007681e-08 -1.4586227076e-08 4.8343267405e-08 3.2404204286e-08 -1.1298644411e-08 4.9255825908e-08 
2.9593638746e-08 -1.9974183863e-08 5.084850446e-08 3.2375388315e-08 -1.0750788502e-08 2.3378958317e-08 2.5284753454e-08 -1.416739992e-08 2.9564587505e-08 
4.3924951311e-08 -1.4469466461e-08 4.238098624e-08 3.9233664569e-08 -8.3706969987e-09 2.4005120337e-08 3.2001783861e-08 -1.2147852471e-08 3.3209838437e-08 
1.9925573264e-08 -8.5348259181e-09 1.4961087945e-08 9.0460127747e-08 4.6016930649e-08 -6.8617158137e-08 1.2004904269e-07 3.2796925805e-08 -2.0925218749e-08 
7.9375931385e-08 -5.7819960199e-09 1.2093692594e-08 9.7527571442e-08 3.1027457181e-08 -1.3541098159e-08 1.6158338291e-07 -2.7837257238e-08 1.6344594562e-08 
2.3667741023e-07 5.2329824584e-08 -2.1199003907e-08 2.4289836097e-08 -1.5408653622e-08 4.1319092193e-08 1.6301181165e-08 -1.1011643133e-08 2.0418054537e-08 
2.1702659675e-08 -9.0223975703e-09 2.3344006863e-08 1.720445069e-08 -8.8006444283e-10 1.9820944528e-09 6.8242566437e-09 -1.0483340736e-09 -4.9585137738e-09 
1.0754184914e-08 -1.2639796911e-09 -1.9653441912e-09 1.8198167828e-08 -7.4128727582e-10 4.5976889512e-09 7.4586938349e-09 -1.4563398939e-09 -3.2625942272e-09 
1.1912867331e-08 -5.4166859778e-10 1.8861364256e-09 1.5717973496e-08 -1.5669442104e-08 1.2348562368e-07 2.1919744015e-08 -3.0301327666e-08 1.3152419581e-07 
2.5764840945e-08 -1.6535285786e-08 1.6830034439e-07 7.3229773308e-09 -1.1347586633e-08 1.2566285275e-07 1.6503069969e-08 -2.6566169472e-08 1.3559698949e-07 
7.1555486827e-09 -2.2467622071e-08 9.7301735489e-08 -4.4339832825e-09 -2.8590420651e-09 -1.3689024677e-09 -3.9882354051e-09 -3.8507546351e-09 2.1555412843e-09 
-5.3044938023e-09 -3.6360549815e-09 -5.7455215499e-10 -4.9484143972e-09 -3.9429876065e-09 -1.103576792e-09 -4.5668710784e-09 -5.3689936632e-09 3.0545909398e-09 
-3.2597730588e-09 -4.2714481919e-09 2.405045902e-09 8.3022387662e-08 3.1271246723e-08 -4.0143802179e-08 1.0746092444e-07 3.5267637962e-08 -1.5220856489e-07 
6.4968195921e-08 2.2783362343e-08 -1.4096217615e-08 1.0825185282e-07 1.2538506116e-08 6.0026001891e-08 1.0735533801e-07 5.8962730382e-10 4.8807006371e-08 
8.3407587743e-08 -2.596657196e-10 5.8561660694e-08 7.8451577204e-08 -1.5171226053e-08 4.8761517857e-08 7.2638137642e-08 -4.0316025616e-09 5.0878884596e-08 
9.8717501359e-08 -1.6092427783e-09 4.9090506275e-08 -5.4124804001e-09 -3.2756871161e-09 -1.4958181569e-09 -6.2691831694e-09 -4.4261875039e-09 8.3462381416e-10 
-4.5040849673e-09 -2.3816662669e-09 -1.5702587634e-09 -4.9409986198e-09 -3.1116833519e-09 5.1970770034e-10 -5.1599751975e-09 -2.9330386812e-09 -3.078925402e-10 
-5.84454479e-09 -5.1242324816e-09 1.1645680483e-09 -5.0754904411e-09 -3.6470627344e-09 -2.483626684e-09 -6.7531387952e-09 -4.486491996e-09 -5.9355403059e-10 
6.4636018519e-08 1.077647378e-08 -1.4863304784e-08 6.4886124429e-08 3.3351261314e-09 -2.3741426408e-08 6.7217023747e-08 1.8809446703e-09 -1.3257989399e-09 
6.9929179971e-08 2.23953208e-09 9.2287786378e-09 7.487277442e-08 2.174728414e-10 1.5198709149e-09 7.1556162048e-08 1.0390704192e-08 -2.0058524066e-08 
1.4839712966e-07 1.632594044e-08 -1.3585654792e-09 1.2963362877e-07 1.0903153576e-08 -1.0847948245e-09 9.3013409728e-08 2.676407699e-08 1.4605403129e-08 
1.1773852058e-07 5.9230322591e-09 9.8504102473e-09 9.2109799552e-08 9.3850102032e-09 1.1766818087e-08 1.2251008093e-07 7.2158982412e-09 2.4473988242e-08 
-5.460055685e-09 -5.3199402961e-09 2.5843502923e-08 -4.6887758658e-09 -6.034101673e-09 1.2098076639e-08 -1.0166586492e-08 -3.3611435703e-09 1.4897180701e-08 
-1.2357732044e-08 -3.4489746437e-09 2.4388042096e-08 -1.0774277019e-08 -5.5036848395e-09 1.2567565402e-08 -7.1391823693e-09 -7.6116231451e-09 2.1674415382e-08 
2.394897241e-08 -9.1083179895e-09 3.1674993254e-08 3.8078411982e-08 -8.2676758652e-09 3.9022626909e-08 2.3935583072e-08 -1.2696086593e-08 3.4660117534e-08 
2.3497779783e-08 -4.6575277153e-09 2.4521986226e-08 1.7199293949e-08 -6.3622640166e-09 3.293268339e-08 9.6083441443e-09 -3.2873617677e-09 2.3735416668e-08 
8.2757206789e-09 -8.25294252e-09 2.2509039604e-08 1.2965019802e-08 -6.5031180433e-09 1.6733928945e-08 6.0439654774e-08 -8.3432654759e-10 4.6469878912e-08 
5.6438489379e-08 -7.4392081498e-09 4.081377513e-08 4.4711631574e-08 -3.0341696458e-09 3.6382027392e-08 3.9142035249e-08 -1.3285091228e-09 3.7440072628e-08 
3.7357418857e-08 -6.6784280171e-09 3.4846797593e-08 5.2238193691e-08 -3.3487145263e-09 4.3391054592e-08 1.0974088031e-08 -1.8936983549e-08 4.0050691145e-08 
1.188610364e-08 -1.9671587433e-08 6.2604620766e-08 1.5441690584e-08 -1.6968919645e-08 4.7422807935e-08 6.0945395621e-09 -1.440255826e-08 3.4784192304e-08 
8.3434546678e-09 -1.1680370993e-08 5.2593667645e-08 3.1031641419e-09 -1.6114828429e-08 4.6339838879e-08 -5.748227533e-09 -3.8043397759e-09 3.6301305438e-08 
-8.1743412025e-09 -6.9415253355e-09 3.0998714463e-08 2.1551278673e-09 -8.0092433374e-09 3.0814476513e-08 6.0456691226e-08 -4.0280447138e-09 1.6678408551e-08 
6.3845677578e-08 -5.6582506369e-09 1.810514204e-08 6.5810289768e-08 -7.7001385166e-09 2.6512971475e-08 1.6268730918e-08 -8.9614129044e-10 1.8944183076e-09 
6.1840056831e-09 -1.501446821e-09 -4.708368091e-09 1.1376775825e-08 -1.5844479215e-09 5.6286830421e-10 -4.5063273782e-09 -2.4030008893e-09 3.3800409308e-11 
-6.8843612742e-08 9.0794752887e-08 -8.8270464393e-08 -2.3322520722e-07 4.0691805762e-07 -6.8843698481e-08 6.8077062356e-08 -1.4598867269e-08 4.7230288782e-08 
2.1012480888e-08 6.1812485683e-08 -9.2001506793e-08 7.5989343028e-08 1.7364363281e-07 -1.818416059e-07 1.9009946128e-08 -2.5493676828e-09 1.8914950963e-08 
1.1977043417e-08 -5.085857892e-09 1.6097747173e-08 2.1556981124e-08 -2.643940117e-09 2.3377292615e-08 3.3919296841e-08 -2.2205793624e-09 2.6885367014e-08 
2.4964565472e-08 -5.3390066939e-09 2.454617591e-08 2.2336825229e-08 -5.0360424058e-09 2.0080278001e-08 1.652044531e-08 -6.1828811325e-09 1.6019613444e-08 
1.8679653305e-08 -6.8169607185e-09 1.99554594e-08 3.0339531919e-08 -6.5513993366e-09 2.2925904042e-08 3.6618114547e-08 -1.3264795697e-08 2.961861771e-08 
4.3551321499e-08 -8.8360835161e-09 2.1445840518e-08 2.4215786002e-08 -9.3174979503e-09 1.4414804089e-08 1.144628012e-07 -5.433097709e-09 -1.235449336e-08 
4.8810509249e-08 -5.9844112628e-09 8.5753614007e-08 3.8212249498e-07 -3.2761128966e-08 1.373102429e-07 -3.576648182e-08 3.6946625804e-08 2.7730634714e-07 
1.445494532e-07 1.3747298107e-07 3.3270967721e-08 2.6908228299e-07 -3.6124598266e-08 1.6615988101e-07 -7.964869728e-09 -2.6346060081e-09 -3.032504568e-09 
-1.0881410467e-08 -3.9780834639e-09 3.9442450281e-09 -6.7150287624e-09 -2.9947490871e-09 -3.1565429069e-09 -4.8495827937e-09 -2.6195221812e-09 -5.7466009849e-09 
-7.2148191907e-09 -4.2338621684e-09 -1.1669946821e-09 -8.7039325704e-09 -3.8164411813e-09 -1.3795371891e-09 6.232803318e-08 1.4212223586e-08 -5.3535604912e-08 
7.3673314531e-08 5.0020826315e-09 -3.3794009691e-08 7.7125515559e-08 1.1822234221e-08 -2.3832304262e-08 -5.7157580339e-09 -1.9943870781e-09 -4.8118556572e-09 
-9.6133797575e-09 -2.509819807e-09 -1.0814397667e-09 -6.7376380812e-09 -2.8452254941e-09 -3.8163484905e-09 5.740130486e-08 2.9927570932e-09 1.4085114033e-08 
4.7257963697e-08 4.8770805078e-09 8.6695951942e-09 5.4101392995e-08 1.0917619118e-08 8.6233175053e-09 5.8075243417e-08 5.2210588521e-09 1.6270646016e-08 
4.9315870594e-08 5.3720185569e-09 1.1525099867e-08 5.0287818347e-08 -6.6644731453e-10 1.6069671026e-08 7.7138299966e-08 -2.4573673969e-09 1.5648427325e-09 
7.9824117223e-08 9.0068467591e-09 -3.6361396145e-08 7.7256012047e-08 1.4384237413e-09 1.6179027837e-08 -5.0688314916e-10 -6.002468351e-10 -4.4359034036e-09 
-7.8393335263e-10 -6.2288716668e-10 -5.3763111471e-09 -2.0592947499e-10 -2.5825430772e-11 -2.1528327948e-09 -7.5646351319e-10 -4.6427423768e-10 -3.4498470919e-09 
-1.1967641306e-09 -4.4843309714e-10 -4.342436242e-09 -1.8940831576e-09 -1.3629775225e-09 -5.0948271414e-09 -5.2334263496e-09 -5.4002952424e-09 1.0507280196e-09 
-1.3660171117e-09 -1.388458264e-09 7.7537670433e-10 -1.1399825189e-09 -3.1149379117e-09 1.6524916017e-09 1.1917055391e-09 -1.9173343854e-09 5.8175360258e-09 
-1.4544714802e-09 -1.4316487795e-09 2.8244925484e-09 -1.2163135556e-09 -3.4694287704e-09 3.9104260549e-09 -2.9796870369e-09 -2.5524538173e-09 -1.0004821311e-10 
3.8650118113e-08 4.6996437184e-09 6.0443712435e-09 4.0821524775e-08 9.6635605734e-11 1.0422212899e-08 4.401761783e-08 1.4453603558e-09 1.2170175336e-08 
1.3911252505e-07 3.1216612172e-08 -5.2824639672e-08 1.4184437914e-07 3.6444450122e-08 3.8005908047e-08 1.7778807407e-07 2.9114757262e-08 -2.3631135867e-08 
1.3996039727e-08 -1.4338788609e-08 3.1061096656e-08 1.836214357e-08 -1.2788185929e-08 4.76593388e-08 7.8790967138e-09 -1.097922646e-08 3.4822099644e-08 
5.8379683113e-08 2.6798176004e-09 1.0182713881e-09 5.4789482362e-08 -4.0814430633e-09 1.2589524347e-08 6.1205342666e-08 -1.064805409e-09 5.7434129094e-10 
3.8240527919e-09 -2.0216806944e-09 9.4084093468e-09 3.2999915869e-09 -1.9312541481e-09 9.0194165434e-09 1.0161007242e-09 -4.1930447944e-09 7.6674944727e-09 
6.3260063106e-10 -1.7586043232e-09 6.1012474605e-09 2.4595228302e-08 -7.6359154066e-09 1.2242796443e-08 4.4023404885e-08 -6.8019616447e-09 1.7917506667e-08 
2.9602106233e-08 -6.100513181e-09 1.2363556639e-08 4.6507527179e-08 1.4439423174e-09 9.3021952159e-09 5.5165280998e-08 8.4278333871e-09 7.1806276977e-09 
4.2975835592e-08 8.1623565986e-09 3.3287201269e-09 4.6669650396e-08 -3.8929663231e-09 4.0923204901e-08 3.1817682136e-08 -7.5658690604e-09 3.3797259454e-08 
3.9859174102e-08 -1.046227273e-08 4.2915641405e-08 -6.6833193512e-09 -3.1951840207e-09 4.2949036744e-10 -4.5989209713e-09 -1.980699572e-09 -6.1595255428e-09 
-8.9108544457e-09 -2.7519749839e-09 -3.6951445555e-10 -5.0556102392e-10 -1.159296126e-08 1.609592733e-08 -1.1875455618e-09 -1.002300985e-08 1.1248764523e-08 
-3.5236224233e-09 -1.1541176074e-08 1.5549592965e-08 -4.9270715438e-09 -9.9511712616e-09 1.4438073646e-08 -4.9144154089e-09 -9.2511162064e-09 9.6722113635e-09 
-2.3837494127e-09 -8.9027464299e-09 9.0586142147e-09 3.3840391872e-08 -6.1509573933e-09 1.1641521703e-08 -4.7588316386e-09 -1.020314216e-08 1.2057058532e-08 
-5.8377255276e-09 -1.180938761e-08 1.9482955131e-08 -6.9289526597e-09 -9.6666088821e-09 1.2407494515e-08 -7.0975876467e-09 -2.0785587488e-09 -4.0911148213e-09 
2.2344387272e-08 -4.6761479392e-09 2.6376588593e-08 3.1471695642e-08 -1.9479523114e-09 3.1071677035e-08 3.5460121105e-08 -4.6022716352e-09 3.1801508367e-08 
-3.689047588e-09 -2.6380662561e-09 -3.1640085802e-09 -3.066231087e-09 -3.8527033723e-09 3.9864684232e-10 -1.6124112127e-09 -3.2998848866e-09 4.48873839e-09 
-7.6858585154e-09 -8.8936822464e-09 9.4698810219e-09 -5.8754179992e-09 -8.3024097274e-09 7.3966326164e-09 -6.8893301188e-09 -7.5105715607e-09 6.9028728576e-09 
8.4798402388e-08 1.5178233391e-08 -3.1205294977e-09 1.0238325029e-07 4.6219816129e-08 -4.0573155626e-09 1.4120257535e-07 1.9003520567e-08 8.1506510575e-09 
3.0314080836e-08 -4.9064777218e-09 3.4380131944e-08 2.7402634229e-09 -1.3137644575e-09 -6.3954675618e-09 5.5277467158e-09 -6.9027866524e-10 -3.6958607361e-09 
5.8055258508e-09 -1.3739130662e-09 -1.6308722203e-09 3.1387014204e-08 2.4465052646e-08 -2.219466702e-08 1.0618564138e-09 3.8001320661e-08 -3.6524417208e-08 
4.1856713186e-08 3.1888614697e-08 -2.6380845268e-08 5.2393721546e-08 2.856738838e-08 8.0189946403e-10 4.838006668e-08 2.992217401e-08 -2.0139341871e-08 
1.4547813526e-08 6.4216893226e-09 -1.1261926013e-08 3.7523445895e-08 3.3146619195e-09 5.5931716493e-09 -5.8074690464e-09 -2.7000884342e-09 2.2921084899e-09 
-8.7691334101e-09 -5.3075146778e-09 8.0926727004e-09 -5.7503776308e-09 -3.023737698e-09 3.8319396892e-09 -4.9303655066e-09 -1.4443990551e-09 1.4551231645e-09 
-9.5083324964e-09 -3.3638397443e-09 6.1166385596e-09 -9.4741942578e-09 -3.1427985363e-09 3.6801409915e-09 7.7367427293e-08 -9.8252790587e-10 5.522083965e-08 
7.4835355514e-08 -1.0000720491e-08 5.0306799598e-08 4.2264877616e-08 5.3440025916e-08 -4.6534989514e-08 -1.1529000915e-08 1.2297302704e-08 -1.2095596086e-08 
5.9328480016e-08 1.0436872918e-08 -1.0715234536e-08 5.8073016683e-08 5.6452030059e-09 -1.1562683404e-08 1.1928084256e-07 2.8584455794e-09 2.3370902786e-08 
8.247487852e-08 -6.7700372962e-09 4.2892358477e-08 8.2980604149e-08 -1.5125812826e-08 4.7157539366e-08 -4.1916854937e-09 -8.5653031897e-09 8.1943196799e-09 
-5.2668956972e-08 1.5720821369e-07 -4.8417765224e-09 6.7761155366e-08 -7.2498734093e-09 2.9449689175e-08 2.5399388286e-08 -1.6692421969e-08 1.7791855753e-07 
3.2772565956e-08 -1.6881111003e-08 1.9619313184e-07 -7.8308691924e-09 -1.0336851613e-08 2.4304234954e-08 -1.1071172122e-08 -6.4118224688e-09 1.2311612571e-08 
-8.3657864913e-09 -8.1182775483e-09 1.2029923775e-08 -9.6545808997e-09 -7.9600137849e-09 9.9229946327e-09 -9.4799670182e-09 -1.005652034e-08 1.9919752064e-08 
5.906832404e-08 1.701930413e-08 2.1217213475e-09 6.4193512982e-08 8.8620492715e-09 6.052537468e-09 5.9670697166e-08 1.46017243e-08 -5.8361456263e-09 
4.9933999886e-08 1.2479800657e-08 -6.5962243411e-10 5.3330748565e-08 5.3814938577e-09 4.1429455397e-09 5.5531887102e-08 -4.0842070536e-10 1.3154569103e-08 
1.3739307745e-09 -1.3894618254e-08 2.2321882309e-08 3.9385588225e-09 -1.1974847958e-08 1.5590016587e-08 9.5481170966e-10 -1.1427484557e-08 1.5286478389e-08 
-5.1097936904e-10 -2.1383133337e-09 -7.069654591e-09 -2.6873402259e-09 -3.2245047522e-09 -5.6089297917e-09 1.2391516434e-09 -2.2996619466e-09 -6.4167375669e-09 
7.3659485623e-10 -2.6907944909e-09 -5.5607052631e-09 -1.7210983112e-09 -4.0999218413e-09 -2.6083242519e-09 -2.9385445885e-09 -3.5520985544e-09 -4.6736907335e-09 
-5.2660602182e-09 -2.5959307963e-09 4.6168545651e-09 -5.0747243074e-09 -1.2133432242e-09 1.8402229441e-09 4.7406983685e-08 2.4405622441e-08 -4.8592537186e-08 
2.590442022e-08 -1.765774411e-08 6.1438021629e-08 2.170505315e-08 -1.8280871379e-08 4.0457780785e-08 1.9053318792e-08 -2.1810184274e-08 5.4678977118e-08 
8.9034220376e-08 -2.7816339445e-09 2.5890916507e-07 6.9674247164e-08 -1.064611816e-08 2.3450522144e-07 1.1443637839e-07 1.085047893e-08 2.6892330011e-07 
1.0201712537e-07 -2.4846675476e-08 2.7219982698e-07 1.1337227163e-07 1.6688975952e-09 2.3412353818e-07 8.3961406347e-08 -8.2746583195e-09 2.0649453686e-07 
-8.7539163224e-09 -6.499880841e-09 4.0361056691e-09 -6.9235998514e-09 -5.7694264507e-09 2.2958175338e-09 -6.1217198641e-09 -6.2231154978e-09 3.7983344801e-09 
-6.3291077828e-09 -7.0949764147e-09 4.8999558281e-09 -6.84840231e-09 -6.3415207023e-09 2.6211668965e-09 -1.8189814005e-10 -4.4126417607e-09 2.0731885816e-08 
-6.6362916567e-09 -2.9081075883e-09 1.1007993402e-08 -7.3389168181e-09 -2.3765253517e-09 8.4138851506e-09 -9.9780252876e-09 -2.7950859436e-09 1.0746227881e-08 
-8.2936890845e-09 -1.0468281915e-09 3.761894668e-09 -1.0718185509e-08 -1.2058418916e-09 4.8624166467e-09 3.3132774806e-08 -1.2863779036e-08 1.1981379943e-07 
2.9512957086e-08 -2.2610331269e-08 9.7915264966e-08 1.9178826376e-08 -9.3816163863e-09 1.0367535756e-07 1.6674573057e-08 -1.9081638515e-08 8.3461165901e-08 
3.3044690132e-08 -1.6312563744e-08 8.060448851e-08 2.5943150313e-08 -9.8836187755e-09 1.5932582236e-08 1.5644001735e-08 -4.7099549806e-09 4.9313057848e-09 
1.2182657753e-08 -6.0596499942e-09 6.0270472239e-09 1.6884957092e-08 -1.0794253945e-08 1.4774579498e-08 9.2405243443e-09 -4.8623313087e-09 4.2348469877e-09 
2.4689788635e-08 -9.4086374377e-09 1.5189089492e-08 3.2062174663e-08 -7.6193361135e-09 1.4223054319e-08 1.5799107472e-08 -4.9827479504e-09 5.4603249903e-09 
1.7741005684e-08 7.8470573695e-10 -9.2517240854e-09 2.021457199e-08 1.1668060137e-09 -8.3843867603e-09 1.9920880618e-08 2.5830299465e-09 -1.1123820624e-08 
2.2708957181e-08 3.0050095947e-09 -9.9272757875e-09 3.2316425572e-08 2.0535259193e-09 -2.4825739694e-08 -3.2209682393e-09 -1.3924774446e-09 3.3310006991e-10 
-4.1190935398e-09 -2.6216812501e-09 1.0063166955e-09 -3.0353025015e-09 -1.8833873187e-09 6.6436628492e-10 -5.6445787727e-09 -4.6298155873e-09 2.0315270028e-09 
-5.0701886131e-09 -3.0395953566e-09 5.3498592882e-10 -1.2304571852e-08 -7.4590653559e-09 1.6995502804e-08 -1.1497403473e-08 -6.1961757822e-09 8.0945731939e-09 
-9.9765802318e-09 -8.9193243268e-09 1.2789423256e-08 -3.9532781308e-09 -2.0723117486e-09 2.1499337444e-10 -3.2047089334e-09 -1.5002499027e-09 1.443865637e-10 
-3.2445927332e-09 -1.7978967048e-09 4.9608422869e-10 -6.3394281759e-09 -3.9336344469e-09 8.0974163589e-10 3.0884961797e-08 -5.3898386812e-09 4.3841014253e-08 
9.4987049999e-09 -9.3877029396e-09 3.2354223035e-08 1.9533691405e-08 -4.9912790961e-09 3.008547099e-08 2.1827630228e-08 -6.1399048121e-09 4.5073712356e-08 
9.0255700921e-09 -1.1257454453e-08 4.5573675387e-08 7.9238462857e-07 -5.047753812e-08 1.0403211233e-07 2.4255094916e-08 5.4049583206e-08 7.2815336924e-08 
-9.3401724333e-08 -2.5273228748e-08 -1.1650494093e-08 4.5584582141e-08 1.6254575535e-08 -1.0236144917e-09 4.6668234135e-08 1.090279203e-08 3.5180797322e-09 
3.8992261992e-08 1.0053667813e-08 -3.4801125818e-09 4.0335950864e-08 2.120211175e-08 -1.0241230066e-08 4.0682408483e-08 1.6721726081e-08 -8.6420259516e-09 
4.8783102036e-08 2.3542555475e-08 -6.2737885516e-09 3.3789942627e-08 -1.1312988403e-08 1.5329384172e-07 4.9135610671e-08 -1.9589599238e-08 1.1500463954e-07 
2.8549796828e-08 -2.4327838175e-08 1.2667821053e-07 3.3442532064e-08 -2.0060247568e-09 2.6376142195e-08 1.9095838984e-08 -2.1533093237e-09 1.8029453547e-08 
2.8161736121e-08 4.8503387413e-11 2.2834765958e-08 4.3841801598e-08 -1.4725233475e-09 3.1229481297e-08 2.4136808193e-08 -3.7358800674e-09 2.3294583933e-08 
3.035096893e-08 2.0971552572e-09 3.0829313457e-08 4.3938824848e-08 -2.0193104711e-08 8.3010576735e-08 3.0524232179e-08 -3.1384539874e-08 8.3826640743e-08 
5.5079078581e-08 -2.233897353e-08 1.1155720418e-07 4.8328938858e-08 -1.4682467435e-08 1.0235516375e-07 3.9067908387e-08 -3.7487380932e-08 1.1210116617e-07 
4.3132204045e-08 -3.4675793646e-08 9.225250087e-08 8.8342211673e-08 1.8717548713e-09 6.655181481e-08 1.1214193738e-07 1.1086358012e-08 1.0367027105e-07 
4.8275788737e-08 2.7281899273e-08 -3.2329888238e-09 2.2782473472e-08 1.2120441104e-08 -4.0922887186e-08 4.5668208869e-08 2.4915602883e-08 7.7790188692e-09 
-4.1989290953e-09 -6.6547298583e-09 5.3980939483e-09 -3.6529735069e-09 -7.3653515858e-09 6.6882052171e-09 -1.4875552111e-09 -2.4318563211e-09 -7.1195268942e-09 
5.3926465903e-10 -1.4245355661e-09 -7.8940812293e-09 -1.8980631772e-09 -2.2529026831e-09 -7.0816069023e-09 6.5947034438e-08 -1.892982133e-07 1.3795224213e-08 
6.7849789716e-08 2.1229155201e-08 5.5443345599e-08 -1.003542756e-07 -1.5145606836e-08 -2.0931549896e-07 6.8565747371e-08 3.9984031517e-08 -3.914684614e-08 
7.4005811995e-08 3.1534820909e-08 -1.5345210099e-08 8.8127023429e-08 3.995250844e-08 -6.4419340712e-08 4.1611386655e-08 1.1011471202e-08 -5.3822257716e-09 
4.9084747609e-08 2.0330422076e-08 -2.169951841e-10 4.2878371897e-08 2.7002983693e-08 -1.5270679833e-08 5.9437470102e-09 -1.158328992e-08 1.2822172982e-07 
-2.3896993852e-10 -3.0361650351e-09 3.0367407337e-08 -7.2139559586e-09 -7.4998533788e-09 5.6128339928e-09 1.4370093732e-06 -2.6495221305e-08 4.9139299007e-07 
4.026608314e-07 2.2689504436e-07 1.9528803086e-07 3.4330271559e-07 3.4879354621e-08 -1.8544097827e-08 1.7320748292e-08 2.7617572671e-09 -2.8630669325e-08 
1.6685674487e-08 1.3094967794e-09 -2.0705876974e-08 1.8806914478e-08 4.3371364535e-09 -2.3010575662e-08 1.9719444728e-08 6.6513525524e-09 -3.1498248215e-08 
5.0149822712e-10 -1.8492648071e-09 6.0757116024e-09 1.7592041367e-09 -2.3469673663e-09 9.7171419445e-09 3.818397898e-09 -4.5190564334e-09 1.0363876154e-08 
-3.351777085e-09 -3.8360509882e-09 3.704712265e-09 3.3512483846e-08 -3.4669707856e-08 1.2758048291e-07 3.5578037283e-08 -3.3664227327e-08 8.3798541005e-08 
3.1367729176e-08 -3.8122265039e-08 1.1275002141e-07 2.2972052882e-08 -3.4958833033e-08 1.1452778711e-07 2.8351553244e-08 -3.0512344893e-08 7.2385177754e-08 
2.4627521419e-08 -3.1484310905e-08 8.2402449392e-08 5.8916503143e-08 3.6859081543e-09 7.611908756e-08 5.1984942047e-08 3.2487319979e-09 7.6134521155e-08 
6.1137430962e-08 6.6054598791e-09 7.8470471156e-08 5.1581791885e-08 6.6930236285e-09 7.0231927289e-08 4.6555480846e-08 1.3339608745e-09 5.8338927514e-08 
1.2653679113e-08 -3.6312668443e-09 4.1647895293e-09 2.1992558783e-08 -7.7282215081e-09 1.2156195538e-08 7.8590797221e-09 -4.0917580694e-09 3.4881720054e-09 
1.4169994162e-08 -8.3203841014e-09 1.1098235015e-08 1.6978850355e-08 -5.4944479006e-09 8.9934577093e-09 5.0332376466e-09 -5.104799711e-10 1.6893834404e-09 
1.6321388729e-08 -2.0310836646e-09 6.4068232993e-09 1.0793456553e-08 -2.2616514891e-09 3.5737478944e-09 6.6185356569e-09 -2.5040802848e-09 3.0472517228e-09 
1.0753993288e-08 -2.5210777231e-09 5.5168202687e-09 -4.1041836571e-09 -2.0591969257e-09 1.5909942781e-10 -5.039742492e-09 -2.7171392591e-09 -9.6715246358e-10 
-2.9701200326e-09 -1.4504679439e-09 -4.7838391592e-11 -2.6865275415e-09 -1.3534094572e-09 -2.7993795107e-11 -3.2532893527e-09 -1.9567306569e-09 -1.0839421471e-09 
-4.7613347367e-09 -2.6395262654e-09 -7.3154027412e-10 1.6262209037e-08 -1.2023357118e-09 3.6125562455e-09 2.4735595702e-08 -1.1571406813e-09 7.0349932918e-09 
1.2701094723e-08 2.3922223878e-11 2.0181790742e-09 1.742975425e-08 2.6419080695e-10 2.5235216672e-09 2.7968537773e-08 2.4094059052e-10 5.9192004126e-09 
2.9685814377e-08 -1.8766001935e-09 8.3819117063e-09 6.8200949988e-08 -2.3863501156e-08 1.8539112454e-07 5.4778213156e-08 -2.469661676e-08 1.5085929578e-07 
5.9332198342e-08 -2.574874361e-08 1.4304005453e-07 2.9051038525e-08 -3.5484402033e-08 1.3847306622e-07 8.7668239067e-09 1.7284783943e-09 -5.5268051893e-09 
1.3157627963e-08 3.6614779067e-09 -1.0900646651e-08 -1.2757537738e-09 -1.2844661081e-08 1.9088654216e-08 -1.3740645015e-09 -1.4331026511e-09 -5.4260174668e-09 
-3.7492063818e-10 -4.8214884301e-10 -2.9090694133e-09 -1.778149938e-09 -1.3285083594e-09 -4.2340288363e-09 -3.9260559491e-09 -3.6230779105e-09 2.4566055323e-09 
-2.7047716271e-09 -1.5267634194e-09 8.0081667976e-10 -4.2515656325e-09 -2.1712419824e-09 8.4423694346e-10 7.0535086777e-08 1.3234453295e-08 5.8100274752e-09 
7.3043142658e-08 1.5511963682e-08 2.5325482297e-09 7.6653596558e-08 1.8509231587e-09 1.6317496863e-08 8.2844388767e-08 4.0494223077e-09 1.0026186366e-08 
6.5381447258e-08 3.9583694196e-09 1.5322158179e-08 -1.1659560298e-09 -1.1376393882e-09 -1.9064622399e-09 -3.2179234508e-09 -2.0774340598e-09 -2.5953574232e-09 
-1.2823616299e-09 -1.1182905687e-09 -1.0391310261e-09 -1.2057811249e-09 -9.6910064845e-10 -1.5419688218e-09 -3.391112966e-09 -1.8934435171e-09 -2.1812516442e-09 
-3.2436249994e-09 -1.9299686301e-09 -3.6363193439e-09 1.1420820393e-07 -3.2990295032e-09 8.8656880609e-09 1.4960295725e-08 -2.7856194537e-09 1.052720326e-08 
3.394097686e-08 -4.1653116257e-10 2.1676115832e-08 1.9902610237e-08 -1.9150948778e-09 1.545149153e-08 5.7146442252e-08 -4.9174348933e-09 4.307267736e-08 
6.2925492981e-08 -6.756419886e-09 5.4982941132e-08 4.7527704864e-08 -4.0253668503e-09 3.8572492891e-08 8.274869278e-08 1.0732541746e-08 9.671271921e-09 
6.6368625107e-08 9.0836578351e-09 1.6929148514e-08 7.0494523521e-08 1.0467241314e-09 1.8907929964e-08 2.9312461338e-08 -4.5069165564e-09 4.1169577443e-08 
3.3762753767e-08 -8.0113974172e-09 2.9180285352e-08 2.6948472449e-08 -1.0723684393e-08 3.9358837388e-08 -1.7230252217e-09 -1.5373750084e-09 3.3324598989e-09 
6.9368541972e-08 1.1887783064e-09 5.6312536812e-08 4.6731156271e-08 -2.8201836977e-10 4.6641938928e-08 2.1511865923e-08 -3.5653049774e-09 1.5603726035e-08 
1.0080283615e-08 -2.4751067451e-09 1.5423677246e-08 -1.0928234256e-08 -3.014611013e-09 7.0133329246e-09 3.1465404071e-05 1.0007499883e-06 3.6308203577e-06 
4.3289294961e-05 -2.1782558222e-06 4.8947819899e-06 3.3002951724e-06 -1.6688216504e-06 6.641104446e-07 4.8964596371e-06 -2.0832760929e-06 -2.887916631e-06 
-4.5660004802e-07 6.5990827099e-07 -1.3562198636e-07 2.1370873519e-08 3.525492795e-10 3.0574412898e-08 2.5952788841e-08 1.5662951769e-09 3.7161911925e-08 
3.1644674481e-08 1.2013468624e-09 4.2244459336e-08 3.7827519242e-08 1.7543916613e-09 5.1210466339e-08 3.221908351e-08 3.0107599902e-09 3.9719426e-08 
-3.7185983794e-09 -5.6142183824e-10 2.0606529761e-09 -2.6407703924e-09 -1.2890351903e-09 3.1264739941e-11 -4.0033899292e-09 -2.0143388069e-09 -7.8226894941e-10 
6.7903235298e-08 1.5566822534e-08 -6.5744416163e-09 5.9318016159e-08 2.4363961073e-08 -1.146451544e-08 6.490509211e-08 1.8031387002e-08 1.6898725196e-09 
2.3297948848e-06 4.1501099819e-07 1.8855157267e-06 4.1026079938e-06 -1.9590032148e-06 1.4513880399e-06 -9.9613602809e-09 -2.8487151739e-09 8.9151847417e-09 
4.0460819335e-08 -2.6281053088e-08 1.7206604962e-07 7.1938525658e-08 -1.4466460036e-08 4.6768593636e-08 7.2926498824e-08 -1.5477407079e-08 8.0023808557e-08 
5.9831608227e-08 -2.5062331413e-08 7.6535039992e-08 6.6679300504e-08 -2.1033084033e-08 4.3152349158e-08 6.7067655992e-08 -2.6072433902e-08 6.3195874101e-08 
7.0722921703e-08 -1.1958832613e-08 3.714957945e-08 7.9701295456e-09 -1.4720453467e-08 1.1054765245e-07 1.3872336449e-09 -9.8752934742e-09 1.0958215035e-07 
3.2330906458e-09 -7.609809058e-09 9.9597039907e-08 1.5210930611e-09 -1.5841337903e-08 9.1354061235e-08 9.0084331562e-09 -1.9182548583e-08 8.9828310215e-08 
-3.6303742171e-09 -1.6183518875e-09 4.8785545976e-09 -4.804647634e-09 -9.1996261219e-10 4.4139585406e-09 -6.5197464845e-09 -2.9937513351e-09 1.3000599878e-08 
-3.9551953945e-09 -3.2697318135e-09 4.7528734058e-09 2.4105438797e-08 -9.1274357938e-09 1.7371855239e-07 3.6929158075e-08 -2.8843397155e-08 1.8106759973e-07 
1.3916681543e-08 -2.0433558614e-08 1.322457371e-07 1.2850291378e-09 -2.1220077582e-09 1.928523245e-09 4.4458337872e-09 -2.2406858673e-09 2.137101829e-09 
-5.7932504725e-10 -2.6162328169e-09 -2.8244213125e-09 -5.1679853962e-10 -1.7077068238e-09 -3.8368651175e-09 1.8707678468e-09 -1.9323513094e-09 -4.1771913851e-09 
3.9438264973e-09 -1.3967494969e-09 5.8940903342e-10 3.7348394449e-08 -3.9414281107e-08 1.5232587251e-07 2.0344188384e-08 1.0558931402e-08 -2.6599073917e-08 
1.999494652e-08 4.4935458084e-09 -1.1198860157e-08 8.5691989791e-09 5.9954587842e-09 -7.8377542518e-09 1.9841782237e-08 1.554213395e-08 -2.3101905391e-08 
1.7879503235e-08 7.3199538772e-09 -9.8106399256e-09 3.352403416e-08 1.0809070137e-08 -2.614944757e-08 4.0607480935e-08 -2.4140878218e-09 3.838291419e-08 
1.8367859637e-08 -6.7664009747e-09 2.2445352409e-08 3.2751713807e-08 -9.7087382282e-10 2.5224709897e-08 3.6284385741e-08 -1.3201188207e-10 2.9648070648e-08 
1.6151903206e-08 -4.271202729e-09 1.665815457e-08 2.1432587815e-08 -5.8351227914e-09 2.8021757354e-08 2.8937018403e-08 -7.9435799938e-09 5.9849107829e-08 
1.4963288529e-08 -1.4620851604e-08 5.8650417657e-08 5.4609295782e-09 -1.0325540721e-08 5.9270178174e-08 2.7300136281e-08 -5.9308465436e-09 1.1686899433e-08 
-4.0856648149e-10 -6.5058912883e-10 -6.4287194387e-09 7.3629401868e-10 -1.3068722538e-09 -6.8909569191e-09 1.2766509603e-09 -7.7106040067e-10 -7.0536142312e-09 
5.5131207725e-10 -5.8647906736e-10 -6.9573129984e-09 -2.5829020222e-10 -1.4464128356e-09 -6.2630558049e-09 -7.7511196485e-09 -4.7132456104e-09 5.728187586e-10 
-7.5854750341e-09 -5.5095652421e-09 6.6618815552e-10 1.1002954551e-07 3.1027254161e-09 9.9827066539e-08 9.0302246989e-08 2.6162944632e-09 6.8088834785e-08 
1.322710823e-07 -1.708364011e-09 7.5143702171e-08 3.0881065253e-10 -1.709471362e-09 3.4192354082e-09 -1.559572908e-09 -1.2252961599e-09 -1.1676919237e-09 
-3.0723247067e-10 -6.2483024562e-10 -6.5176764387e-09 -4.7759664659e-10 -1.3900986339e-09 -8.8053012137e-09 5.5264179519e-11 -5.6452458055e-10 -8.229821933e-09 
5.5741896082e-10 -1.6836595388e-10 -5.9154238977e-09 1.4035291029e-09 -6.3782344365e-10 -9.4048264436e-09 8.472972271e-10 -7.5563550909e-10 -8.2122556773e-09 
1.4867864354e-08 -1.5313581466e-09 2.4606886947e-09 3.1715859399e-08 -4.4359705038e-09 9.3759729576e-09 1.9621154177e-08 -3.443679241e-09 4.5614782092e-09 
1.9714849591e-08 -3.7649248125e-09 5.2051892622e-09 3.0716777037e-08 -4.637484044e-09 9.8689168783e-09 4.1655619054e-08 -3.7427427354e-08 1.0846917211e-07 
2.0088656266e-08 -4.5724607236e-09 2.310579495e-08 3.1331819929e-08 -3.4030648055e-09 3.4732409619e-08 -6.7803262071e-09 -5.5332914926e-09 2.9493898795e-09 
-7.6560798086e-09 -5.2874938453e-09 1.9987147864e-09 5.6170978921e-08 -1.3237902201e-08 4.0918896428e-08 6.9370199498e-08 -1.0792805534e-08 4.2705792046e-08 
5.2966323146e-08 -1.3466840487e-08 5.3319872424e-08 6.7684788369e-08 -1.2153355923e-08 6.0918490221e-08 5.3773925312e-08 -2.0810778983e-08 6.6995364526e-08 
7.7922777388e-08 -1.1713301193e-08 6.625125579e-08 5.5854217989e-08 -2.2520098144e-08 1.0258862513e-07 2.7304035414e-09 -9.978881795e-09 2.2369834835e-08 
-3.1782422592e-10 -1.1985038234e-08 2.2590932464e-08 -2.932366405e-09 -9.5758319253e-09 2.2011944613e-08 3.2099179589e-09 -1.2643878903e-08 3.305301583e-08 
1.0742770273e-08 -1.1854190181e-08 3.2769622833e-08 5.6044224043e-08 -3.9066934317e-09 2.0442849469e-08 6.4273803952e-08 -1.0263695475e-09 1.5711166946e-08 
-2.4541753161e-08 1.3157299891e-07 -1.0608191454e-07 1.6511247151e-05 -6.874724957e-06 -2.1791423345e-06 2.2544140898e-05 -4.8182243397e-06 3.2508046438e-06 
6.8793349734e-06 -6.9113592933e-06 8.0982025826e-06 -2.4053239475e-07 2.4888308361e-06 -4.7927919039e-07 1.0598686219e-08 -8.3704190442e-09 2.2069124279e-08 
1.0412958573e-08 -6.4489031243e-09 1.9666486164e-08 1.9104272333e-08 -6.6680216773e-09 3.047865621e-08 7.2801995955e-08 1.2779324966e-08 -1.8467948745e-08 
6.5945387055e-08 -7.0108983536e-09 2.0777448393e-07 8.8481657982e-08 -1.6668720648e-08 1.6019573113e-07 -4.3251708932e-09 -1.8085215094e-09 -1.279678701e-09 
-3.9996697373e-09 -2.1745006539e-09 -2.7379296909e-09 -3.922973544e-09 -2.0545671949e-09 -6.8533269297e-10 1.2422708321e-08 -2.7849201062e-09 3.7177518638e-09 
7.9863440827e-09 -3.2494603545e-09 3.2435845576e-09 2.6127177626e-09 -4.4949484316e-10 -7.9426308149e-09 1.7588013552e-09 -5.2694929136e-10 -8.1413007112e-09 
5.4566864642e-10 -6.6459415924e-10 -8.9698549123e-09 3.5283636781e-09 -1.2459938666e-09 -9.5139787198e-09 8.2468200127e-10 -6.4548387984e-10 -9.0400988967e-09 
4.4474084868e-08 -1.8881966576e-08 6.8191043268e-08 5.1689262662e-08 -1.632225093e-08 9.0119864017e-08 1.3260787767e-09 -6.2341358221e-12 -3.4584610004e-09 
2.0259725025e-09 -5.4415947872e-11 -1.9921682882e-09 1.2910037175e-09 -9.3127151711e-10 -5.6290834051e-09 1.7367177456e-09 -7.1753323288e-10 -5.2982077007e-09 
5.4948481419e-09 -8.8539017415e-10 -3.7801923876e-09 1.9871297164e-09 -6.7074159848e-10 -5.0083472669e-09 1.4293194174e-09 -6.2020177969e-10 -4.8615318475e-09 
3.5119678675e-09 -8.1819658936e-10 -6.709764256e-09 1.510732115e-09 -1.0493302312e-09 1.9382435274e-09 2.3460155858e-09 -6.6989502463e-10 2.1212106818e-09 
2.0075802335e-09 -1.9604282842e-09 2.382429436e-09 3.3585257493e-09 -1.9697401584e-09 4.8867748418e-09 1.0227205096e-09 -2.2603352467e-09 2.2039996745e-09 
5.2708322946e-08 -3.3812081009e-09 1.1525696873e-07 4.0340619517e-08 -2.7066958633e-09 1.2717239729e-07 3.8003550895e-08 -1.4401998141e-08 1.0727961937e-07 
1.1772160024e-08 -6.545204268e-09 9.8738280854e-08 1.6774071958e-08 -6.9546208766e-09 8.8453147365e-08 2.0387720157e-08 -5.4881627493e-09 5.1634256138e-08 
3.0200108298e-08 -1.1553787904e-08 5.9507264482e-08 5.9819343403e-10 -2.8156356567e-10 -7.6219871944e-09 8.7629151794e-10 -1.7424435392e-10 -7.7554025621e-09 
5.7710245545e-10 -7.4249999307e-10 -9.0865686511e-09 5.1746419611e-09 -2.2042251412e-09 2.0365504639e-08 7.2753974707e-09 -5.3190815603e-09 2.0614557757e-08 
8.2645776961e-09 -3.2089496935e-09 1.043853923e-08 9.3661012167e-08 2.1296535157e-08 -1.6686841762e-08 9.2423654963e-08 7.2301304756e-08 -5.7523357319e-08 
6.0711523582e-08 3.5667922125e-08 -3.5819340673e-08 -1.2836899978e-08 -1.9685502071e-09 9.0664428232e-09 -1.1027885303e-08 -4.7800963699e-09 1.1177530272e-08 
-1.1337010837e-08 -4.6049581992e-09 6.8189757502e-09 -7.8636998565e-09 -6.2211553078e-09 6.4168070009e-09 3.1217897427e-09 -3.2991899924e-09 -1.9647207277e-09 
5.2186063195e-09 -2.1258919018e-09 -4.6062845977e-09 2.5135080398e-09 -3.5914282473e-09 -1.2625207299e-09 3.5735649608e-08 -6.5497707014e-11 1.0206353314e-08 
3.0836360886e-08 -1.8102650357e-09 1.1449019705e-08 4.4999572255e-08 -1.6551644103e-10 1.6216460246e-08 3.9412144669e-08 -2.7465247868e-09 1.4498227453e-08 
2.8178340184e-08 2.406685894e-09 -4.7944873182e-08 3.462431079e-08 5.4214405341e-09 -6.076808456e-08 9.0322877361e-09 -2.1570760873e-11 -8.5808211152e-08 
3.2312738902e-08 -1.4519786166e-09 -5.8804375975e-08 3.9898473165e-08 -2.1397773624e-10 -7.5212986713e-08 4.5121717269e-08 1.7528232455e-09 -3.5718967503e-08 
-8.2676454615e-11 -1.3462019304e-10 -3.5676548158e-09 -4.6091241664e-10 -1.3584122068e-10 1.0911040846e-10 -7.6210417841e-10 -2.8093826205e-10 7.2140240078e-11 
-2.0832715879e-09 -5.5268593359e-10 -2.6541123982e-12 -1.3116927861e-09 -5.6193713741e-10 -4.914789839e-10 -1.2175083182e-09 -4.2140835068e-10 -2.3197390076e-10 
1.0192464129e-07 9.297145347e-08 -1.816811986e-07 -1.390720905e-09 6.1225983509e-08 -1.5902644585e-07 1.0195630225e-08 1.0063516803e-07 -1.2132462531e-07 
7.2821326684e-09 7.670148424e-08 -8.5248350482e-08 9.0371442087e-08 4.6409628656e-09 -7.2347198199e-08 4.7108007358e-08 -2.8676649965e-09 1.8483679263e-08 
5.505853552e-08 -3.6544065253e-09 2.3337467198e-08 4.5725448824e-08 -3.8060442038e-09 3.7116779044e-08 5.2199426017e-08 -4.5497431363e-09 4.6688617829e-08 
4.5281123261e-08 -6.4402146371e-09 2.7113883793e-08 -1.3244521283e-09 -2.9206114358e-09 -5.2739473815e-09 2.4190341927e-09 -2.1581689137e-09 -5.6694191272e-09 
1.1673214437e-10 -3.5007075553e-09 -2.4827539634e-09 -1.1489913592e-08 -2.732724749e-09 4.9343717353e-09 2.9426521289e-08 -1.6925073382e-09 2.3609271544e-08 
3.8682492599e-08 -1.0405640165e-09 4.1766016968e-08 2.7006921867e-08 -6.135758802e-10 3.4029783965e-08 1.6760246789e-08 -8.037919636e-10 2.4550288795e-08 
2.14382049e-08 -3.4704885442e-09 2.7359916767e-08 2.6339319417e-08 -1.160486642e-09 3.2442018764e-08 1.05582675e-08 2.5097638001e-09 -1.1194322565e-09 
1.7958088468e-08 3.8526471593e-09 -1.1336938517e-09 2.5976211814e-08 6.6114013101e-09 -2.7261673356e-09 3.2500209536e-08 7.3277729707e-09 -1.6069384022e-09 
2.0453089334e-08 8.0709777554e-09 -1.9836933965e-09 -4.2977026033e-09 -3.5275184803e-09 1.786772961e-09 3.8573989303e-08 -1.5446360017e-09 1.6193885237e-08 
3.1590732108e-08 -4.7133199874e-09 1.4744037129e-08 4.6697648488e-08 -2.514054228e-09 1.8909853259e-08 4.4446287234e-08 -1.8332830175e-08 5.094183566e-08 
3.2050286244e-08 -2.3572952981e-08 5.3350132211e-08 3.9575834402e-08 -2.2985762595e-08 6.5977013561e-08 1.4170815932e-08 -9.659822174e-10 -1.7231724358e-09 
8.0390387499e-09 -1.3809598084e-09 -3.4096820671e-09 4.3215979987e-08 -1.3085299464e-09 3.2793157054e-08 3.1218530054e-09 -1.7517692169e-09 -5.5509635971e-09 
3.168686924e-09 -1.3390104681e-09 -6.33926517e-09 6.5637240891e-10 -1.4800384134e-09 -7.1472945782e-09 9.9852874521e-10 -1.3337295959e-09 -6.9193564014e-09 
1.033670444e-10 -2.1465825108e-09 -6.410616708e-09 4.8529571821e-09 -1.8610027214e-08 -7.3723769845e-08 3.7392914531e-08 1.4469825775e-08 1.5135204182e-10 
3.2041561291e-08 7.5006049511e-09 4.4718775867e-08 6.5862461649e-09 -4.6681716977e-09 1.3502154119e-08 9.6541940863e-09 -1.9954562146e-09 1.5699932605e-08 
6.3053753113e-09 -4.6697082987e-09 1.2357212976e-08 1.304523351e-09 -9.4325457315e-09 1.204204352e-08 -5.2538347585e-10 -6.6979676429e-09 8.0188471966e-09 
3.5166887947e-09 -6.4271355133e-09 1.0165747419e-08 5.6522545574e-09 -9.5477059751e-09 1.6100058014e-08 3.1840624648e-09 -6.2923788077e-09 1.1225667715e-08 
8.6016052071e-10 -9.198209949e-09 1.2864359958e-08 -1.909798366e-08 -1.663313423e-08 -1.9942752138e-09 7.463619592e-08 2.1220039034e-08 1.8432047673e-08 
6.8774647107e-08 8.4294382278e-09 2.3542640004e-08 8.9718450854e-08 6.2583229847e-09 1.758501306e-08 8.2831153305e-08 2.8002146096e-09 2.2124937999e-08 
1.767779291e-08 -1.4851483147e-09 2.261050634e-08 2.1309991657e-06 6.0538194881e-07 -1.0563866715e-06 9.1890183745e-06 -1.0452584667e-06 -1.8638526957e-06 
-5.8195901844e-10 -6.8318752895e-09 8.3850675974e-09 3.6406327296e-09 -5.9978465117e-09 1.1316021833e-08 1.0676129575e-07 1.2507318018e-08 2.6784303844e-07 
1.05073118e-07 -9.7202139323e-09 2.2757014226e-07 4.4441652487e-08 -2.6378827389e-08 2.0448726028e-07 -4.5199815114e-09 -2.1687242786e-09 -7.7236792481e-10 
-3.3088202399e-09 -1.3627081284e-09 1.5830626624e-10 -6.2086247228e-09 -3.0702758779e-09 -1.1373645258e-10 3.5344828699e-08 -4.6033642699e-09 1.326747384e-08 
-4.3936225662e-10 -2.1110100833e-09 -5.7478961266e-09 -7.7409577774e-10 -1.5530653041e-09 -6.4672791227e-09 -1.4388318178e-09 -1.0875726163e-09 -1.1096415091e-09 
-1.270615385e-09 -8.9505779263e-10 -1.5999368023e-09 6.2278566505e-08 2.8217476594e-09 8.1885509837e-08 6.5323006821e-08 3.7953199333e-09 6.9524684249e-08 
-5.4211254713e-09 -2.9894248728e-09 -4.5579142068e-09 -8.8334213445e-10 -7.8529194575e-10 -5.5717375053e-10 -2.6594531941e-09 -1.52918155e-09 -7.3087481188e-10 
-9.6525762038e-10 -7.6089876292e-10 -5.9431808309e-10 2.1245530304e-08 -1.1781371738e-08 2.9864858474e-08 1.7641339495e-08 -9.2738567887e-09 2.2772188881e-08 
1.82262337e-08 -6.5455247651e-09 2.490204264e-08 1.3478939865e-08 -8.4361523138e-09 2.3068414422e-08 9.8281851498e-09 -7.0878595763e-09 1.8088775949e-08 
1.2153352076e-08 -1.161220562e-08 2.3196039578e-08 -9.5788352878e-10 -1.3770416607e-10 -3.692140336e-11 -1.090924139e-09 -2.4295192188e-10 -2.6360159406e-10 
-3.1699012636e-09 -4.6672460744e-10 -6.4963868587e-10 3.4722263799e-08 4.0012032493e-08 -3.339977222e-08 -4.3920599164e-09 -4.7042145736e-09 2.6953495651e-09 
-5.1092467001e-09 -6.9744999917e-09 5.0901037644e-09 -2.4719408784e-09 -3.8008204223e-09 2.205175586e-09 -3.1530438827e-09 -4.2635835085e-09 2.6831661767e-09 
-3.9841291285e-09 -7.377528705e-09 6.0918752312e-09 1.0525168922e-08 3.3405328427e-10 8.5982041958e-10 1.8943935681e-08 1.2188157579e-09 2.3384348537e-09 
2.6719211484e-08 1.1750223632e-09 4.5281192853e-09 3.1868115036e-08 2.8023230852e-09 4.5653325978e-09 2.4334384988e-08 3.0130751052e-09 2.2122462424e-09 
1.0320167799e-08 -8.1847098657e-09 1.1222112676e-07 1.1114275387e-08 -1.3548549226e-08 7.7783524547e-08 6.3866399257e-08 -5.7810037616e-09 4.539048653e-08 
4.8059532212e-08 -1.5471518349e-08 5.7281843652e-08 5.4263963864e-08 -1.3645054444e-08 4.7607443852e-08 3.1049148412e-08 2.5907812144e-08 -2.3326932967e-08 
2.9785947472e-08 9.4436215325e-09 -1.7181066463e-08 3.0796334771e-08 2.0236044324e-08 -2.4405622126e-08 1.3269971309e-08 -1.2519892605e-08 2.733477214e-08 
1.2380213411e-08 -1.5291237059e-08 2.8021576542e-08 5.597678255e-09 -1.1800936048e-08 2.0669594376e-08 5.2701529846e-08 -3.3567414988e-09 3.7444717064e-08 
6.9713212443e-08 -6.4662784859e-10 4.6671723312e-08 8.3352067056e-08 -3.5845681785e-09 1.9915384965e-08 9.6685846887e-08 -5.3507061238e-09 5.4290143692e-09 
7.2036259879e-08 -1.2194459662e-08 2.9159414753e-08 2.9027283809e-08 -1.8285334077e-09 2.4961462511e-09 4.7888471515e-08 -2.8606458884e-09 6.6770301524e-09 
2.5400031848e-08 -2.5701625239e-09 4.3923353554e-09 1.9791192903e-08 -2.5891865952e-09 3.3361456881e-09 3.8301962338e-08 -4.5403576844e-09 1.0319679753e-08 
4.2005416279e-08 -2.839549957e-09 6.5168991088e-09 3.1832652787e-08 -3.6801036608e-10 2.5622109202e-08 3.1202956818e-08 -1.0263904137e-09 1.7764908937e-08 
-2.7405116391e-09 -1.0751192243e-09 5.4186315442e-09 -3.1468323302e-09 -2.9073807927e-09 5.640316524e-09 4.6080141362e-08 -8.802514588e-09 2.248756717e-08 
5.5180478066e-08 -7.2892766835e-09 2.2444853999e-08 5.4112821985e-08 -1.198123619e-08 3.048432797e-08 1.3282322721e-08 -1.7155106381e-08 3.4475241713e-08 
2.2437366998e-08 -1.6807843448e-08 3.4856034507e-08 7.0404425022e-08 1.0490314386e-08 7.0289886075e-09 8.2210196423e-08 -1.1182108983e-09 1.8282095091e-08 
1.566911255e-08 6.9350798979e-09 -5.6154988477e-08 -8.0221432143e-09 3.4469082751e-09 -8.2677526619e-08 -1.0946275123e-08 7.8502472195e-09 -9.6133989801e-08 
1.4294567268e-08 8.1907793166e-09 -3.7062908859e-09 8.976983468e-09 4.3546407337e-09 -1.725970477e-09 2.5785619106e-08 1.5018609833e-08 -8.822000723e-09 
2.2346996276e-08 1.0644866999e-08 -5.9350230971e-09 1.1416906996e-07 5.2072775973e-09 9.9609505787e-08 1.4417894994e-07 -3.8142160431e-09 -1.7404407172e-08 
8.5971004952e-09 -5.7967519453e-09 1.3295243118e-08 1.9811910822e-09 -7.0570869657e-09 1.3176122331e-08 2.9034309994e-09 -8.7012373918e-09 1.5251118737e-08 
5.6597666366e-09 -1.9620049008e-08 6.676245777e-08 2.0523116107e-09 -1.1498508242e-08 5.7808976851e-08 5.7994429708e-08 -3.3466698145e-08 9.1708353918e-08 
5.6840497e-08 -2.6608785706e-08 5.8543923286e-08 6.9684966553e-08 -2.58778783e-08 5.4366811246e-08 8.3148349007e-09 2.8244940352e-09 -5.1450826968e-09 
1.9218036696e-08 7.2342552652e-09 -2.272248476e-08 -1.4165596214e-09 -2.0871794989e-09 -6.6331960766e-09 -2.3386286626e-09 -8.8996801377e-09 1.4562739467e-08 
-5.5305891882e-08 -3.7158695659e-09 -1.3970363651e-07 -1.2000306816e-07 -1.6085756909e-07 -1.2443154004e-07 -5.8344285674e-08 -2.0662734168e-08 1.8282676173e-08 
-5.3816753501e-08 -8.1813473426e-09 -6.1028867907e-08 5.2963678896e-09 -3.6985919149e-09 2.5093722054e-09 1.1872023789e-08 -9.2567588007e-09 1.0734212705e-08 
8.5084537551e-09 -6.9509107154e-09 7.0357798945e-09 1.4600455347e-08 -8.9158986481e-09 1.6718486002e-08 2.0851522647e-08 -1.0115381155e-08 1.7358625641e-08 
1.1947629324e-08 -1.0936991144e-08 1.5769340853e-08 1.3077548966e-08 -1.1575507026e-08 2.0439870272e-08 1.9872773579e-08 -1.3356740554e-08 2.2704578009e-08 
2.2866342881e-08 -1.0878120622e-08 2.3127307619e-08 7.3329547256e-09 -4.8833829346e-09 1.1324877053e-08 2.2551193068e-08 -2.1560165226e-09 1.534640799e-08 
1.3896456465e-08 -3.9327911738e-09 1.2000642586e-08 1.0786060416e-08 -2.7549009763e-09 1.07852784e-08 1.0073899744e-08 -1.0429501672e-09 7.1760493533e-09 
1.3138718357e-08 -2.1773564366e-09 8.4129646721e-09 6.3608360578e-09 -4.7929218248e-09 8.1421944657e-09 6.9584907303e-09 -2.4626086618e-09 3.9131366387e-09 
5.1163502965e-09 -3.1045020464e-09 6.4142861062e-09 2.7721625722e-08 -5.5027406132e-09 3.1887295735e-08 2.6490947606e-08 -9.3336080199e-09 2.9223726949e-08 
1.6569619501e-09 -3.4889756427e-09 3.2505824654e-10 -8.5469451338e-10 -3.4659404625e-09 2.4345281365e-10 2.551951745e-08 -2.9384013205e-08 9.2839971733e-08 
1.4755111292e-08 -2.8653996672e-08 8.455701191e-08 1.742184411e-08 -3.1662566858e-10 1.4132103119e-08 2.5380824414e-08 -8.882750766e-10 1.4285503457e-08 
1.4917134519e-08 -1.696462218e-09 5.9275144046e-09 8.8748369208e-07 -1.0352674411e-07 -2.8877286713e-07 1.0877670023e-07 5.0833149829e-07 -8.1495991937e-07 
1.3542102899e-08 -2.9832755161e-09 8.8710779936e-09 1.0522930702e-08 -3.2505595814e-09 6.230225796e-09 1.286631309e-08 -1.9775623175e-09 3.7735144899e-09 
1.95357722e-08 -1.6334640027e-09 1.3664834092e-08 3.4715913929e-09 -8.9390070852e-10 -1.0197722589e-08 1.7378302717e-09 -1.2390945455e-09 -8.1295921714e-09 
5.5287783192e-09 -6.0273025062e-10 -7.8208352935e-09 4.4538356689e-09 4.998172922e-11 -9.0696158842e-09 3.0032947418e-09 -6.5267594768e-10 -8.0530730093e-09 
-4.4579902139e-07 1.5176489867e-07 -1.9175216065e-07 -3.8538354303e-09 -2.9800085952e-09 -3.7775726391e-09 -3.8816815473e-09 -4.3880498145e-09 -5.1927107193e-10 
-2.6478224965e-09 -2.8659591323e-09 -3.1896293065e-09 2.0343677782e-08 3.7931798779e-09 -4.3650039566e-09 2.3696889577e-08 7.3496839592e-09 -6.1256715961e-09 
1.0780950636e-08 -6.4439443965e-09 3.1869464166e-08 1.288360205e-08 -5.544938208e-09 4.9710197887e-08 -2.3160013891e-09 -1.7452090382e-09 1.0255563902e-09 
-2.7575212596e-09 -4.1815046678e-09 3.1578200418e-09 -2.5250316274e-09 -2.8849931664e-09 1.6184290896e-09 -2.9697994258e-09 -2.1648177141e-09 8.8617965911e-10 
-4.7600904381e-09 -5.1760495513e-09 2.9006567483e-09 3.7662917989e-08 1.0861117463e-08 1.6710330173e-08 3.3273453137e-08 1.417968133e-08 3.7008986361e-08 
2.9264386398e-09 -1.6871626953e-09 6.8779004498e-09 -8.7182459703e-09 -4.6430284208e-09 -3.6497302178e-11 -1.0058840513e-08 -4.6590000837e-09 2.1077038877e-09 
-9.3649528903e-09 -3.6062295391e-09 3.4709141629e-10 -9.7580433711e-09 -3.7309989309e-09 -2.4816607744e-10 -1.1567961809e-08 -3.3563899682e-09 2.4707888234e-09 
-1.0740402873e-08 -5.0239934277e-09 2.531684437e-09 -9.3157145715e-07 2.7680488446e-07 -5.2364739204e-07 1.1021336781e-05 -3.6784556056e-06 -1.8481859968e-06 
-3.5991371568e-07 -2.4519207994e-07 -4.1288919103e-07 -4.8473655117e-09 -4.3852057964e-09 2.9273171761e-10 2.6545656135e-10 -4.963767793e-09 5.2544522577e-09 
7.713833986e-10 -3.2283463917e-09 -1.1571664563e-09 6.4723749947e-08 -6.5683271131e-09 2.4588215113e-08 4.7075660528e-08 -1.2816730115e-08 3.3332433032e-08 
4.9978918963e-08 -1.6488356902e-08 4.0446282695e-08 2.6433656885e-08 -1.1290675002e-10 1.8881148538e-08 2.9679936099e-08 -7.0635351144e-10 2.0470625892e-08 
-1.1950097453e-08 -4.78857021e-09 4.9312314434e-09 -1.0559236724e-08 -6.5404232121e-09 5.321228757e-09 -1.2404338942e-08 -4.8327218025e-09 6.2966835386e-09 
6.1164726665e-10 -6.5047203206e-10 -5.7152831589e-09 1.2189175835e-10 -1.3331523162e-10 -3.8970318281e-09 -1.7579249553e-10 -7.4081081441e-10 -5.1283500877e-09 
-2.4557621117e-09 -1.8328893e-09 -7.5836610886e-09 -4.8604055058e-10 -8.1413309084e-10 -5.4601610299e-09 -1.1977638403e-09 -1.1082163449e-09 -5.520662298e-09 
-3.5077794892e-09 -2.1091748399e-09 -5.4365180505e-09 -9.9093274531e-10 -1.112507572e-09 -3.8427966937e-09 -2.3228748175e-09 -2.0470030816e-09 -6.1599856423e-09 
-3.7189524393e-07 -3.232449156e-07 -6.1962454517e-07 -2.9825022876e-07 5.0385611474e-07 -8.6775382512e-07 -1.2678745753e-09 -5.1181634214e-09 5.0118881128e-09 
-1.7523040953e-09 -5.1697560464e-09 5.6493215282e-09 1.0066545111e-08 -7.6090891587e-09 1.616508267e-08 2.0486209214e-08 -2.6286467641e-09 9.718542456e-09 
1.3788892317e-08 -3.1818702056e-09 8.4992269122e-09 8.0265808455e-08 -4.1410831295e-08 3.5560003095e-08 -1.9130656736e-09 -2.8968413638e-10 3.0605721645e-10 
-3.0044250938e-09 -1.0368786999e-09 2.2690248645e-10 -3.8136089784e-09 -9.43224141e-10 1.5665830775e-10 -3.2431285364e-09 -9.1720584289e-10 1.0972424455e-09 
-2.5154700645e-09 -1.0520190774e-09 6.825432064e-10 2.76254763e-08 -1.9743990832e-09 3.0815918115e-09 3.075852546e-08 -1.0072942488e-09 8.3428797283e-10 
7.3047940098e-08 7.9568202814e-09 3.0567591285e-09 7.7037446986e-08 2.3411806756e-08 -1.0086617469e-08 9.0304566144e-09 -8.0250245198e-09 1.1386899753e-08 
1.6787335261e-08 -7.111759731e-09 1.3157017695e-08 2.0863024331e-08 -3.3561082677e-09 1.3708761724e-08 2.4865537337e-08 -6.4327694212e-09 1.4537972102e-08 
2.2593052305e-08 1.3897783618e-09 2.1857834361e-09 1.841070214e-08 5.0035701849e-10 2.407985383e-09 3.0667029959e-08 -1.4843890332e-10 6.1271009489e-09 
1.5733390153e-08 -4.1502800757e-10 2.1975785644e-09 3.5758743213e-08 9.5624768116e-10 5.6171966201e-09 9.4793527243e-08 2.8105849047e-08 1.2465106263e-08 
8.9976317812e-09 -1.6869298893e-09 1.5469332174e-08 6.4683950132e-09 -3.9706063639e-09 1.2403894221e-08 1.3016106097e-08 -4.5670638882e-09 1.9753973221e-08 
5.0082496822e-08 -3.9288265331e-09 1.4290347108e-08 4.0892089358e-08 -5.9690511227e-09 1.5172364227e-08 3.9166976189e-08 -1.0704438833e-08 2.2781004377e-08 
2.0228430624e-06 3.9944980823e-08 3.5643719038e-08 5.9775519821e-07 1.6251402998e-07 1.4254851714e-07 3.0066892249e-08 1.1098764396e-09 2.85321214e-08 
2.4700647789e-08 -2.6024147815e-10 1.3903516507e-08 6.6468266564e-08 -2.3668258956e-08 1.8172316126e-07 5.2316823396e-08 -2.3211314744e-08 1.4518826833e-07 
1.0029098286e-08 5.2942171529e-10 -5.2253154131e-09 2.5322154472e-08 2.0909566487e-09 -1.9830277009e-08 -5.6880456261e-10 -9.4022501006e-10 -4.9537265744e-09 
-1.341166238e-09 -1.5305330102e-09 -5.1667878473e-09 -9.5392969643e-10 -1.168742132e-09 -3.3688713891e-09 -3.2708526975e-09 -2.5964104394e-09 -5.2425250381e-09 
1.0019910711e-08 -8.7065872648e-09 9.1487080986e-09 2.2797235569e-08 5.5771591797e-10 -7.3979522099e-09 2.5423991604e-08 1.8883739809e-09 -8.6569873579e-09 
4.0477603007e-08 6.2342922187e-13 3.0478640882e-08 1.1467997986e-08 -2.0712171915e-10 6.7550601615e-09 1.6291217056e-08 6.0752516894e-10 1.8997213206e-08 
9.2662467755e-09 -3.1386213186e-10 1.0164957093e-08 1.5035267786e-08 -4.305781854e-10 1.7160226046e-08 -4.4360466026e-09 -4.0767245763e-09 -2.5508573291e-09 
2.979755902e-09 -1.025173378e-09 -1.0431675829e-08 3.5167396515e-09 -4.2254391286e-10 -9.3074001086e-09 8.0001272126e-08 -3.5905627921e-08 7.4032166631e-08 
4.6706846656e-09 -6.3479509868e-10 3.6598919229e-09 -2.2791136046e-10 -1.1029110255e-09 -2.031208213e-09 1.9277538059e-09 -6.9220596157e-10 -3.6178572439e-09 
-1.9527586709e-09 -1.8994711501e-09 -4.8943595814e-09 -2.606699072e-09 -1.118035542e-09 -3.0094869536e-09 -1.9859013856e-09 -9.6754131687e-10 -5.0603709387e-09 
-2.717868779e-09 -7.5603938471e-10 -4.000166359e-09 -2.9500673879e-09 -1.7432146385e-09 -4.0836057212e-09 -4.3098521885e-10 -4.6860284273e-09 1.5045427261e-09 
-4.5456922871e-09 -6.2536939795e-09 6.6121717827e-09 1.7984783997e-08 -2.9691018164e-08 8.7366177935e-08 3.0828534871e-08 -1.2729114805e-08 3.1123830992e-08 
3.1592436947e-08 -9.525550223e-09 3.4537377919e-08 1.4355314478e-09 -1.8697386213e-08 5.3253805798e-08 -2.6531095371e-09 -1.1940800162e-08 4.6517559571e-08 
-9.0645918748e-10 -1.4201989664e-08 6.7824434033e-08 1.9636402827e-08 1.4190520431e-09 2.1288935348e-09 2.3369092677e-08 2.813651675e-09 1.6844706013e-09 
4.647482877e-08 -1.0441904374e-08 4.0682781619e-08 3.3190794621e-08 -1.5039297686e-08 3.7585423935e-08 1.2010323765e-07 -5.3161047341e-09 2.7784488897e-07 
4.8930584868e-08 -1.1916857317e-08 2.2835657183e-07 1.103623617e-07 3.2427426578e-07 -4.2027682031e-08 -1.9014118489e-07 4.3459742398e-08 -2.5701636123e-07 
3.2792010456e-08 1.169782465e-07 -7.4900782472e-08 1.191163075e-05 -1.3776180563e-06 3.6506044424e-06 -2.1672736227e-07 2.624671416e-07 -1.2762492485e-06 
1.4326578216e-05 4.5786422356e-06 6.4747144692e-06 1.9583249822e-05 -4.5592003133e-06 3.4018737478e-06 -3.9325152204e-07 -8.4921965297e-07 -8.4476701884e-07 
2.8312580467e-08 -2.0377508288e-09 3.1692311652e-08 2.7008277394e-08 -2.0181983421e-09 2.4821473821e-08 -3.2511596713e-09 -2.8572895965e-09 1.2603397787e-09 
-3.9523022067e-09 -2.358818629e-09 -1.9536470794e-09 6.4755127444e-09 3.6910464786e-09 -5.2443017771e-09 3.064830158e-09 -5.138520304e-10 1.3169697458e-09 
7.2332993815e-09 -2.4075720461e-09 4.9368083852e-09 2.9878149539e-09 -3.5596094738e-09 2.1027784608e-10 6.8979934662e-09 -3.1797338924e-09 3.8816459487e-09 
8.2374197448e-09 -3.1703278209e-09 5.5739473938e-09 3.7985174586e-08 8.2080218503e-10 3.5707083384e-08 4.5129486701e-08 4.5080090253e-09 6.0238306835e-08 
2.9920673478e-08 3.4572126346e-09 4.4256656657e-08 3.2847580426e-08 2.2357052089e-09 3.2393781704e-08 2.4381436812e-08 2.0693222817e-09 2.91662976e-08 
-3.3846123398e-09 -1.9564980429e-09 -2.4896598084e-09 1.4877148906e-08 -2.0443327514e-08 4.6748040421e-08 1.5451469745e-08 -1.5188341248e-08 4.1692575764e-08 
2.1198244636e-08 -1.9200827573e-08 5.7911739614e-08 6.8241603372e-08 2.4739800987e-08 -1.0719726992e-08 -4.8463323285e-09 -1.6569952985e-09 -6.5308584642e-10 
-3.2529045699e-09 -8.9455562914e-10 1.8306140785e-10 -2.9746737806e-09 -6.3152919628e-10 -1.8683511337e-12 -5.7767560359e-09 -1.2609727766e-09 -9.5254941572e-10 
-4.855379868e-09 -7.9299183574e-10 1.213312387e-10 -7.0386961906e-09 -2.1279585403e-09 -2.5147168992e-10 6.7098624858e-08 2.7702385756e-09 6.4056033942e-08 
5.0134613286e-08 -5.5830714982e-10 4.7173438256e-08 7.0042291094e-08 -3.3083205707e-10 5.4721146733e-08 3.8153829448e-08 -2.348515405e-09 1.3193754742e-08 
3.8944008911e-08 -3.4639465395e-09 2.808283045e-08 -3.3255113758e-10 -8.4691354424e-10 -4.0481008041e-09 -5.8080841014e-10 -1.5051085101e-09 -7.1632839716e-09 
-1.226724421e-08 -2.7893780892e-09 1.702701952e-08 1.680980915e-08 1.6210751285e-09 -3.7263581644e-08 1.8434052224e-08 5.3365551235e-09 -4.0320237356e-08 
6.1779160986e-08 -1.2794183936e-08 3.4350460211e-08 6.7524309349e-08 -1.0467770726e-08 3.6296770086e-08 1.7123519724e-08 -3.5842367873e-09 1.877838178e-08 
1.904312327e-08 -1.9999899685e-09 1.1340990242e-08 6.812837845e-08 -2.3809590064e-09 7.8076950315e-09 5.6697654388e-10 -1.5149713945e-09 -8.3817196508e-09 
4.5100701419e-09 -2.416283236e-09 1.3752759152e-08 4.317167752e-08 -5.3877180687e-09 4.059777964e-08 6.1992383173e-08 -6.3469699264e-09 4.5911764402e-08 
6.1418868274e-08 -2.1190486067e-09 4.7760175328e-08 4.4127492601e-09 -2.4352343482e-09 2.8687696929e-09 5.9438788569e-09 -4.9823102842e-09 6.6160477012e-09 
3.1368318604e-09 -2.8182932344e-09 2.7868443811e-09 -8.8177967782e-09 -6.246784583e-09 5.3430701953e-09 4.5643387109e-08 4.9466924141e-09 9.8102996385e-09 
5.3821803832e-08 7.3543497976e-09 1.5583013347e-08 5.0572117008e-08 2.7946357457e-09 1.6104665048e-08 3.1510904583e-08 -1.0480901835e-08 1.9282584113e-07 
1.2286925201e-07 -1.5915912032e-08 2.5177253107e-08 1.502891285e-07 -3.5827271358e-09 1.4508115499e-08 1.103515442e-07 -2.2583488559e-08 5.0415961255e-08 
-1.1422640219e-09 -7.7102825425e-10 -5.9078489832e-09 -1.7776752083e-09 -5.9692455168e-10 -4.7359418565e-09 4.3555953836e-08 -1.1624306342e-09 1.0070588579e-08 
5.1327181422e-08 1.7153918253e-09 5.1319684123e-09 3.6640916691e-08 -3.5899234272e-09 9.2808036833e-09 6.9948320757e-08 -3.0949490617e-08 6.8224796038e-08 
3.5129395397e-08 1.6001023563e-09 7.3785768268e-09 3.5294842014e-08 6.5979114699e-10 8.7354676529e-09 4.5358347448e-08 1.4694859234e-09 1.3404495791e-08 
4.5165953086e-08 5.6424489244e-10 1.453054313e-08 6.822133107e-09 -9.4033464585e-09 1.0100773307e-07 2.4179136515e-08 -6.8901010885e-09 1.4891935561e-07 
1.7640984865e-08 -8.3298415131e-09 1.5044216314e-07 2.0892469047e-08 -1.7269102073e-08 1.2249140062e-07 4.2669782226e-08 -4.8924576915e-09 1.7953163717e-08 
-3.0796120277e-09 -3.209709784e-09 1.6891498753e-09 -3.2901657551e-09 -2.3232689562e-09 8.9016879791e-10 3.7822029616e-08 3.2618808535e-08 -1.9083066608e-08 
4.6747407749e-08 3.6598503257e-08 -2.639531951e-08 4.2039591701e-08 3.5644299368e-08 -2.2938458133e-08 3.199330463e-08 5.2512005443e-08 -5.3511706469e-08 
2.3661374284e-08 -1.6335649253e-09 1.9896811059e-08 1.1221636621e-08 -3.6700407058e-09 1.1299489424e-08 5.5226450715e-09 -1.6366777776e-09 -7.8163804868e-09 
1.9045126184e-09 -1.738090818e-09 -4.6252370008e-09 1.0155194893e-08 -1.3489432178e-09 -5.3907702142e-10 8.2001887506e-09 -1.1154843496e-09 -4.6629344478e-09 
4.5144310237e-09 -2.2369310646e-09 -3.1649785715e-09 1.1100515108e-08 1.1369210169e-09 -1.4446299487e-08 8.931048963e-08 7.7633736598e-09 1.8672144114e-08 
-7.4762361962e-09 -1.1337323119e-09 -3.8617551238e-09 -9.7383550547e-09 -1.4134634352e-09 -7.5207444711e-10 -5.948315673e-09 -1.0228335541e-09 -4.1830584933e-09 
4.7747607816e-08 -4.2239885077e-09 1.2176001927e-08 8.1054679042e-09 -5.5157856056e-09 3.1137377465e-08 6.8616279006e-09 1.3130136348e-09 -5.6231736535e-09 
1.0604436903e-09 -6.8109464717e-10 -9.1897173414e-09 1.4358562469e-09 -4.4188953122e-10 -5.8140225349e-09 1.2487040695e-09 -3.6465708494e-11 -6.6861679875e-09 
-2.9509835266e-07 2.303190392e-07 -2.0913491239e-07 8.394017438e-08 7.8293266081e-09 -1.7805616703e-07 -1.078589709e-07 1.7013189634e-07 -3.233888363e-07 
-5.8968004023e-07 -3.6958435719e-07 1.2211022631e-08 4.8231388673e-09 -2.788407433e-09 -1.6805650694e-09 1.0315242351e-08 -2.3223086237e-10 1.7806305012e-09 
2.0469825433e-08 -1.7772836625e-09 6.8831649418e-09 2.0183258975e-08 -1.95151503e-08 3.8615691662e-08 1.6260265183e-08 -1.3903208524e-08 2.214226209e-08 
2.4613926307e-08 -1.6204308326e-08 2.9531266625e-08 2.4751458799e-08 -1.8360327867e-08 3.5825246782e-08 1.6149293599e-08 -1.6609173489e-08 2.911970338e-08 
6.3991242126e-11 1.4487136176e-08 -8.0411389453e-08 3.2535736216e-08 1.0954136406e-08 -4.6069252273e-08 2.2497580411e-08 1.3385006468e-08 -9.1651366239e-08 
1.40999455e-07 1.1732379827e-08 1.2045845571e-07 1.8942868428e-07 -3.8215985522e-09 1.4487444234e-07 1.6613918575e-07 2.2268780842e-09 4.6795302172e-08 
1.7263153208e-07 2.1955993946e-08 1.2963794746e-07 3.241204188e-09 -4.7923125821e-09 3.5609313346e-08 -1.4368002052e-09 -4.9413012461e-10 -8.2774127451e-10 
-3.3655662846e-09 -1.0136647003e-09 -2.6083863573e-09 -1.0454976893e-09 -4.5168542346e-10 -1.7439659648e-09 -1.32286437e-09 -6.8575989735e-10 -1.4995263851e-09 
-3.0566119225e-09 -1.2626552939e-09 -3.7954681877e-09 -3.5901146726e-09 -1.3314867113e-09 -2.0382666536e-09 3.6266076705e-08 6.3593899375e-10 3.0562568684e-08 
1.9313654695e-08 3.2216617295e-10 1.345084726e-08 -2.5900522436e-10 -2.1995716476e-09 -6.7203183461e-09 -2.1678306043e-09 -1.5294253012e-09 -8.3238506947e-09 
-3.7899677917e-09 -2.7544068812e-09 -6.0804853578e-09 9.9928567101e-09 7.1709396691e-09 -7.3752206071e-09 1.9246167662e-08 8.5543675995e-09 -8.5486528237e-09 
3.0469036166e-08 5.1773956635e-10 1.7884606974e-08 1.718749136e-08 1.896496084e-08 -4.3017127934e-08 3.3920917154e-08 2.0051005635e-08 -4.1916392399e-08 
-5.1421200243e-09 -4.8073712708e-09 2.9380609035e-09 -3.638234563e-09 -4.2750629238e-09 2.9940078961e-09 6.6109637293e-08 -9.9762618326e-10 3.8897333503e-08 
7.2747711151e-08 -3.7044495783e-09 4.3189248005e-08 5.5332935448e-08 -6.5672111989e-09 3.6249594791e-08 1.9041498125e-09 -1.6410871184e-08 3.5762361088e-08 
3.6930079675e-09 -1.4661258051e-08 2.7117451889e-08 -2.3103050798e-09 -1.1687346078e-08 3.0008520916e-08 4.8475711456e-08 1.4145145883e-08 6.0993868198e-10 
1.2548829707e-08 -1.2944223396e-09 -3.2734375083e-09 5.9171515698e-09 -1.1080466961e-09 -5.8437835808e-09 5.0900745608e-09 -7.0733582936e-10 -4.3566798644e-09 
5.6292609756e-09 -1.6245061423e-09 -5.0827412549e-09 9.1717879392e-09 -1.1281584052e-09 -1.878660025e-09 3.4292830507e-09 -1.1780051474e-09 -3.1686407882e-09 
5.0697955901e-09 -1.3411039171e-09 -5.412433037e-09 2.4047743376e-09 -9.2803071313e-10 -6.5360709476e-09 -1.9802026043e-09 -1.2634570352e-09 9.8974567902e-10 
4.5381743374e-05 -1.8368889873e-06 5.536743347e-06 2.432262537e-08 -2.3147195734e-08 7.3138569449e-08 1.1332127251e-08 -2.4089033724e-08 6.979885935e-08 
3.2787325948e-08 -1.083133828e-08 7.6062102393e-08 3.4042862365e-08 -6.4661876472e-09 5.3456253904e-08 4.1615406314e-09 2.1347569623e-09 -6.4360069081e-08 
8.2445025267e-09 2.0068567148e-09 -4.9155867969e-08 2.7347181228e-08 2.6037354555e-09 -3.6276959656e-08 5.121816568e-05 4.1803371671e-06 5.5211804114e-06 
3.0233851876e-06 2.6712013069e-06 -9.6958541562e-07 7.4894178453e-09 -2.1474404956e-08 1.0574283877e-08 4.6885975758e-09 -2.6984909005e-09 8.4372729689e-09 
6.4345530887e-09 -9.2267485052e-10 1.1408355825e-08 1.0073837101e-08 -1.9710030684e-09 1.4637315593e-08 4.7669489774e-08 -3.1970369796e-08 1.0497835053e-07 
4.8476511905e-08 -2.6261033288e-08 6.7352796187e-08 4.1397835606e-08 -2.5559289894e-08 9.0769866418e-08 6.5187921722e-09 -1.9416036686e-09 -1.2335042935e-10 
-1.9440900985e-07 2.009744785e-08 -2.0754435117e-07 -3.9927462909e-08 1.9008960879e-08 -1.9923644812e-07 -6.8022694835e-08 3.6277719461e-08 -1.7024003706e-07 
-1.6951248756e-07 -1.0620879324e-08 -1.7068175923e-07 -6.1251065786e-08 2.8346787156e-08 -2.2543799861e-07 -1.6384220528e-07 -4.7211761602e-09 -3.3014460408e-07 
-1.0497466577e-08 -9.7040950381e-09 3.6360064271e-08 -1.2853647182e-08 -6.9910862831e-09 2.3994351864e-08 -8.5241471634e-09 -1.0464702922e-08 3.7297595869e-08 
-4.0712339175e-09 -1.5475873337e-08 4.2847456754e-08 -8.0996799966e-09 -1.1704791364e-08 2.9522997008e-08 -9.431750836e-09 -1.0756805755e-08 2.8110437567e-08 
-5.7976096663e-09 -9.0492094063e-09 1.7804174287e-08 -9.3015752927e-09 -6.8461062282e-09 1.8794565921e-08 7.6892082434e-08 3.2887624889e-09 2.2010016667e-08 
5.5056465651e-09 -2.1776832404e-09 -3.060055684e-09 4.5826623831e-08 -2.2173612093e-08 6.149047203e-08 1.0334240147e-08 -3.1516845735e-09 8.010196352e-09 
5.7464480729e-09 -2.2569039351e-09 6.6440864706e-09 1.0316111541e-08 -2.22525607e-09 1.0524495672e-08 5.6720474002e-09 -4.512713598e-09 8.6858138797e-09 
1.0661569389e-08 -5.8382953994e-09 1.0737285265e-08 -7.2156701038e-09 -1.2718139359e-08 5.1163086047e-08 -1.0564469192e-08 -7.9713943596e-09 3.1770023403e-08 
-6.0429288041e-09 -1.387374625e-08 4.0180143541e-08 3.5139802572e-09 -5.1698946443e-10 -9.0775224876e-09 1.1549386962e-08 -1.5932027293e-09 -3.0530524899e-10 
1.3409068565e-08 -1.4879110815e-09 4.6152757148e-09 1.6355522681e-08 -1.943814008e-09 5.9994518251e-09 6.9713134493e-09 -2.4204952789e-09 -1.5474599303e-09 
-5.4053728761e-09 -1.4739235426e-09 -2.136674689e-09 -4.9327124726e-09 -7.645176982e-10 -3.5031977422e-09 -3.2977155523e-09 -5.4957577168e-10 -1.95870395e-09 
-2.6957036262e-09 -4.3921436011e-10 -3.6350732345e-09 -4.8242538203e-09 -1.3653129372e-09 -4.160328229e-09 -8.8595475595e-10 -7.9385552034e-09 7.1535701329e-09 
-1.5477726539e-09 -5.0634437717e-09 3.2773493028e-09 2.8383982626e-08 -1.255684693e-08 2.330780512e-08 3.7908292395e-08 -1.7535164418e-08 4.1525791245e-08 
6.5757598053e-09 -1.5317023145e-08 3.4535641132e-08 1.3609347198e-08 -1.0998917938e-08 2.8412216708e-08 1.3397747329e-08 -1.5208582873e-08 3.3063266825e-08 
7.9378764886e-08 -1.9005684656e-09 5.5474476265e-08 6.913163627e-08 -3.9226863133e-09 4.9245678231e-08 1.8258713529e-08 4.5874160559e-08 -4.353736465e-08 
3.0599749303e-08 2.3798980739e-08 -3.155301622e-08 2.7144957555e-08 4.5845715314e-08 -4.5114967787e-08 7.9491842385e-09 -2.343847416e-09 1.0779085782e-09 
1.4552415959e-09 -4.5041743175e-09 5.838796885e-09 -1.0041680681e-08 -7.5578202836e-09 7.8452398446e-09 2.5123818764e-08 3.968948285e-09 1.900594527e-09 
4.5435954669e-08 -2.0089747069e-08 5.2865131389e-08 3.9583886127e-08 -1.9898251148e-08 6.8188911177e-08 5.8196214794e-09 -1.4722935627e-09 -4.9009764418e-09 
4.5601777639e-08 -1.8876975065e-08 7.022276199e-08 4.9738158181e-08 -1.2069195428e-08 9.269147996e-08 6.2893755232e-08 -9.9789272055e-09 3.8119894124e-08 
6.0176547607e-08 -5.9073362188e-09 2.5236333239e-08 5.0210697756e-08 -6.0292165521e-09 1.9984875502e-08 4.6854430085e-08 -1.032470674e-08 3.8236779769e-08 
5.6487243806e-08 -9.2988374708e-09 5.2096781287e-08 1.7079901309e-08 -3.2446949451e-10 2.8595294735e-09 1.5431515112e-08 -2.2879675917e-09 3.7664309645e-09 
2.673553615e-08 -3.7067197559e-09 8.173346652e-09 1.4395712284e-08 -1.2337821236e-09 2.5496549005e-09 -7.4431278231e-09 -7.303274183e-09 4.8385333595e-09 
-3.5197264649e-09 -9.031227269e-09 9.7866570897e-09 -3.5906662105e-09 -7.009367969e-09 5.772455232e-09 7.535706773e-09 -6.5553893488e-09 1.0890437569e-08 
8.9493226653e-09 -4.0816231002e-09 5.751999615e-09 2.368117433e-09 -3.6985781088e-09 5.5086816412e-09 1.9850409846e-08 -7.6947700199e-09 8.1877030002e-08 
1.1240388625e-08 -6.7907119222e-09 9.0900404418e-08 1.3492508889e-05 -2.3993343588e-06 1.5698427469e-07 3.4875712898e-06 6.0454875593e-06 4.4159454358e-07 
2.6253905205e-08 4.8697611919e-09 -6.9691748555e-09 2.8770675337e-08 1.398418059e-08 -9.3525388994e-09 -3.2248064407e-09 -3.0137394422e-09 -3.704461602e-09 
-1.625602425e-09 -1.6905588693e-09 -6.927153142e-09 -3.0089166949e-09 -1.2414644275e-09 2.1769756454e-10 -2.5315059834e-09 -1.1935858242e-09 3.8571545751e-11 
5.151567397e-09 -4.6473002826e-09 6.3783455966e-09 4.5303290215e-05 2.0839306515e-07 1.9105820603e-05 -5.0452050673e-06 -1.019262558e-05 7.2331820843e-06 
-1.7659516246e-09 -3.3055132447e-09 4.1272775879e-09 -1.9695305881e-09 -1.4893399459e-09 3.0601694008e-09 2.8537045307e-10 -1.8619170999e-09 5.6512241754e-09 
-1.9578340639e-09 -1.594072505e-09 3.4052565673e-09 -3.4378827373e-09 -2.8379397295e-09 2.3441031924e-09 -8.3461991516e-09 -2.3370798578e-09 4.0396525355e-09 
-2.4168653222e-09 -1.9008480311e-09 2.4476277553e-09 -5.8020859117e-09 -1.3018670061e-09 -1.1884168963e-09 -1.4096051419e-09 -2.4378520153e-09 -1.4370155794e-09 
-1.5937087114e-09 -1.8127348827e-10 9.2326242218e-11 2.1182121949e-08 -7.0878993104e-09 1.180600076e-07 3.6938797965e-08 -5.7391816837e-09 1.7368492927e-07 
6.1917328986e-08 3.2011308283e-08 8.3895321181e-08 5.670919256e-08 -5.7654097258e-09 6.4806348744e-08 3.1876473208e-08 -2.2039063218e-08 7.6756084144e-08 
4.0073413108e-08 2.9600587021e-09 3.7590489668e-09 5.8061371916e-08 -3.5381238655e-09 9.5242313963e-09 7.1490490231e-08 -7.8161533012e-09 1.7159941923e-08 
-1.0805198694e-07 1.9245523799e-08 -1.632446544e-07 -4.8666964765e-08 2.3173715283e-08 -1.4779306737e-07 2.8806925721e-09 -1.2506435149e-08 3.629294078e-08 
-7.25084884e-10 -1.4768632393e-08 3.5261744807e-08 -3.0408750047e-09 -9.6365671478e-09 3.2927855172e-08 -6.5823588201e-09 -1.1426044189e-08 3.2484689463e-08 
-1.4678642812e-09 -1.5708256261e-08 5.0086147697e-08 1.2880398322e-08 -3.317176954e-09 5.7959904675e-09 9.6167429931e-09 -1.4134251668e-09 5.0241768633e-09 
5.762759878e-09 -3.1240799513e-09 6.3289915746e-09 -1.0273569728e-08 -3.8803585047e-09 3.5985587999e-09 -1.0719029252e-08 -5.7282391562e-09 4.6172257052e-09 
-8.8202985687e-09 -4.4137840458e-09 3.0439926597e-09 -9.0981509105e-09 -3.6719331266e-09 1.8422335395e-09 1.1342491087e-07 4.4039846301e-08 -1.0211728204e-08 
6.7264464272e-09 -1.1697826601e-08 1.7065783007e-08 1.2798657436e-08 -1.2991188305e-08 1.9333510212e-08 4.2106946922e-09 -8.1795676272e-09 9.569705112e-09 
8.8428569795e-09 -8.6470948637e-09 9.8237153319e-09 4.6887641624e-09 -1.0073427719e-08 1.1915958208e-08 1.1834690334e-08 -1.5774694768e-08 4.9080673259e-08 
5.1865157047e-08 -1.3239753754e-08 1.4208262439e-07 -9.9854011683e-09 -5.7835321672e-09 4.3309316483e-09 -8.9833684044e-09 -5.0221534855e-09 2.0679826226e-09 
-4.641592127e-10 -7.8401329265e-10 -4.5094958768e-09 -3.7920347356e-10 -6.2566781437e-10 -2.9357083221e-09 6.0562087165e-05 -2.3495669729e-07 1.0076842763e-05 
4.8934466882e-05 -7.4573200036e-06 -2.0854631472e-06 1.8154978013e-05 1.9836783193e-06 5.0384180359e-06 5.782615733e-08 1.5754798839e-08 8.324972388e-09 
5.0467099956e-08 7.311651176e-09 1.3102495772e-08 4.9558452589e-08 1.2764615849e-08 5.146033373e-09 -1.5366470521e-10 -7.1357314364e-09 8.9978847271e-09 
4.2232634139e-08 2.5298859444e-09 9.8640356767e-09 6.5558953657e-08 -4.6344852862e-09 4.265149024e-08 1.8986976487e-08 2.1038967453e-09 -4.2784334699e-10 
2.1316368222e-08 6.2871718902e-09 -1.1822486571e-09 8.7900499441e-09 -5.1461330459e-09 4.6460413502e-09 5.0413107178e-09 -3.9273609814e-09 2.7150995845e-09 
3.2841296886e-09 -1.3641023328e-08 4.7490732693e-08 9.6491092682e-09 1.6189479941e-09 -1.4495359755e-09 1.8863503382e-08 7.1103255288e-09 -2.3466554867e-09 
4.8745540748e-08 -1.9410996075e-09 3.2977428712e-08 4.0230228299e-08 -7.0108302448e-09 3.1339885554e-08 4.1381410471e-08 -1.867201978e-09 3.1967727211e-08 
7.1743569969e-08 7.2679506652e-09 -8.8150273271e-08 7.5620467175e-08 -2.9767839289e-09 -2.7415989016e-08 6.1974050798e-08 -5.5355721014e-09 -5.5431222537e-08 
6.5721166832e-08 -3.8144646407e-09 -2.0428420218e-08 6.0856181719e-08 4.6022859534e-09 -6.7908233655e-08 -8.6765214578e-10 -6.0354554936e-10 -3.0403349837e-09 
-3.4001776256e-09 -1.3098110522e-09 -5.6754419987e-09 -1.3855476095e-09 -9.9145184215e-10 -5.0364976553e-09 -1.1886465017e-09 -9.2061802886e-10 -3.0949159972e-09 
-3.9058240127e-09 -1.7691122137e-09 -4.9650828836e-09 1.8866549504e-05 2.7099777316e-07 -5.7911876731e-07 6.0802057704e-09 -5.3018101256e-09 5.4525515967e-09 
2.0663077771e-09 -4.8440349594e-09 5.3539535109e-09 7.4032453257e-09 -1.03661581e-08 2.0092056427e-08 7.995443809e-09 -9.6637049548e-09 1.3206484492e-08 
-8.5118635234e-09 -3.114849079e-09 1.3403107679e-08 -1.1358141331e-08 -3.5179168314e-09 2.0105764817e-08 -1.2489198812e-08 -2.2455432135e-09 1.1813649455e-08 
-1.2883591678e-08 -5.3626811385e-09 1.5098754358e-08 -1.5695872e-09 -1.7939834507e-09 1.3380095501e-09 -1.02196719e-09 -3.1799587344e-09 3.5653793821e-09 
-8.4746090743e-11 -2.3372864166e-09 2.0991887845e-09 -1.4323095891e-09 -3.0933639726e-09 1.9973502568e-09 -1.5453678549e-10 -5.2427287089e-09 4.9531330655e-09 
3.9204358122e-08 -1.5371343414e-08 9.5516853578e-08 5.8677538119e-08 -1.2830610534e-08 1.5498943984e-07 5.7385666366e-08 -1.0386517446e-08 1.5703080302e-07 
1.3283505878e-08 -1.4588451226e-08 2.4821272671e-08 -3.2115663928e-09 -1.2660340958e-09 1.8143910772e-09 -4.1429213024e-09 -1.1609563435e-09 2.6028543847e-10 
-3.3753000103e-09 -1.350367208e-09 1.5243971571e-09 2.8136897003e-08 -1.2172953354e-08 2.2031192468e-08 3.4668064057e-08 -1.8132792367e-08 3.6354351734e-08 
2.9512674394e-08 -1.481812755e-08 2.9090315734e-08 -9.4738423311e-09 -8.9703393519e-09 2.1843184726e-08 -4.9859076397e-09 -1.3280124739e-08 2.8093446657e-08 
1.9208601793e-09 -4.2168028649e-10 1.2229118924e-09 5.1839521583e-08 4.2340130816e-09 7.9996649775e-08 3.6211035381e-08 5.6498528726e-09 4.6274881805e-08 
1.6367029435e-08 -2.3834631476e-09 2.0515650167e-08 1.4140897484e-08 -2.3587994174e-09 1.6656825187e-08 1.1115273653e-08 -2.400204577e-08 6.2070592982e-08 
2.0640531506e-08 -2.4485101182e-08 5.351560877e-08 2.6623365591e-08 -2.4293910281e-08 6.742499893e-08 9.071275424e-09 -1.0753229166e-08 1.3307340115e-08 
2.0870173569e-09 -8.0674727864e-09 7.5071576422e-09 5.558761398e-09 -4.2379456594e-09 3.2423658061e-09 3.453855143e-09 -3.7269340915e-09 2.4565245995e-09 
-3.7014691922e-09 -9.0429101199e-10 -1.4047722929e-09 -3.4518214165e-09 -1.4065963449e-09 -1.0939449937e-09 -2.5084563134e-09 -6.1968132123e-10 -1.7913260143e-09 
-3.4456459447e-09 -6.5380098111e-10 -2.472284873e-09 -3.3356457345e-09 -1.3337212562e-09 -2.1148802839e-09 5.6207920778e-08 5.0033763327e-08 -9.572256289e-08 
-3.3938741646e-10 -1.3455160274e-10 -2.3564955158e-09 -1.6362412075e-09 -4.578116603e-10 -3.5951202133e-09 4.3369815401e-08 -1.1075170925e-08 9.7513751032e-08 
4.3045271625e-08 -9.0294462509e-09 1.2811660594e-07 6.5983794476e-08 -1.0653345095e-08 5.480169742e-08 4.4929821018e-08 -2.2366472512e-08 7.8348442336e-08 
4.3721764383e-08 2.959039204e-10 2.9851377164e-09 1.7316871942e-09 -1.9901215264e-09 6.2654101558e-09 -9.1605045743e-10 -1.5083279038e-09 3.3944365494e-09 
-5.4703729094e-09 -4.1764618945e-09 2.0402841145e-09 -3.6061776103e-09 -2.5303250906e-09 9.1509320163e-10 1.5767797841e-08 -8.8010202419e-09 1.902789378e-08 
4.7091825918e-08 2.1429490209e-08 3.2417248986e-08 7.672915545e-08 1.8902196497e-08 -7.8932178353e-09 9.6551108759e-08 1.7831901044e-08 -2.1891055582e-08 
7.1651017451e-08 -1.1342590403e-08 3.084480437e-08 5.67169617e-08 3.585969679e-09 -4.4100201859e-08 4.4326995189e-08 2.5806921291e-09 6.2257434596e-08 
3.552348783e-08 -1.969785273e-08 4.1440010258e-08 2.6514458229e-08 -1.6889603855e-08 3.3433378511e-08 2.9531538349e-08 -1.3035752309e-08 2.382065557e-08 
2.2197509309e-08 1.7410121612e-09 3.0153505244e-08 1.3973440702e-08 1.6793745951e-10 1.8842567009e-08 4.4987900381e-08 1.4759607394e-08 -1.0535815618e-07 
4.5410619696e-08 -6.4010052405e-09 -1.2060566375e-07 -2.8873251367e-09 -7.8672868252e-09 7.2673142938e-09 4.8697637317e-08 -3.3733735911e-08 1.3702455939e-07 
7.4122474019e-08 -3.1769106421e-08 1.0213321653e-07 5.1582944523e-08 -3.6224199993e-08 8.9518346872e-08 -6.6414165879e-09 -9.2532075919e-10 -3.2977083406e-09 
-4.2594865013e-09 -5.6961244834e-10 -4.1894390245e-09 5.9749645102e-09 -6.2206774172e-09 6.7260473449e-09 1.6473768183e-08 -5.5067299383e-09 2.234315543e-08 
7.9902940965e-09 -6.6998262804e-09 1.5373201361e-08 9.4074727955e-09 -7.5482051294e-09 1.7088130044e-08 5.8883042041e-09 -1.0074699855e-08 1.9219732193e-08 
1.4182200437e-08 -1.0436402217e-08 2.5761817835e-08 2.5729452578e-08 -9.8597628512e-10 1.4954161642e-08 1.8326617414e-08 -1.9219935667e-09 5.6653803747e-09 
2.5465734474e-08 -6.0204499286e-10 1.1153267114e-08 -4.0097974689e-09 -5.5973387302e-09 3.9350013532e-09 9.1120796865e-08 1.8132118114e-09 4.926433298e-08 
3.2345881326e-08 -7.9139496602e-09 1.7501015446e-08 3.0920604093e-08 -1.0436857571e-08 2.2896075294e-08 4.1338995483e-08 -1.4164687954e-08 1.9620939208e-07 
4.9184974738e-08 -6.2269448724e-09 1.7087275369e-07 1.2098904774e-06 3.3124597469e-07 4.9828606544e-07 4.0281942493e-06 -6.9252173992e-07 4.4404934493e-07 
2.6368087247e-05 -1.1849713871e-06 3.3461567626e-06 -2.1407195102e-07 1.0369393438e-06 1.8794029514e-07 2.134180038e-07 7.667622923e-07 6.4019549397e-08 
1.870871174e-08 -4.3378230689e-09 5.1014771077e-09 3.8878252576e-08 -2.4519105714e-09 1.0657200358e-08 3.2250023165e-08 -1.1398907333e-09 5.751603917e-09 
2.9024336382e-08 -9.3446362847e-10 1.3572316428e-09 1.9984970074e-08 -2.1914622886e-09 2.7301316904e-09 8.8071333239e-09 5.8203155952e-09 -2.1175468909e-09 
2.2084825765e-08 1.4790907976e-08 -7.7451363426e-09 1.0718783999e-06 2.5068201109e-07 8.9477311867e-07 5.8133005042e-09 -1.194601868e-09 4.4132685692e-09 
4.6361228695e-08 1.0263022153e-08 -6.8995451015e-08 3.3499949607e-06 -9.1757613122e-07 -1.5872049048e-06 3.4979889747e-08 -2.7877051829e-09 6.033371207e-09 
1.7779566366e-08 3.5826710672e-09 3.1504621697e-10 3.8533225259e-08 1.012461466e-08 9.7432557428e-10 3.8728593735e-08 8.8628714694e-09 4.9224744881e-10 
-1.0281081827e-08 -5.006169016e-09 2.6674456152e-09 -8.4315113558e-09 -5.5995126586e-09 3.7518871244e-09 -6.8604707449e-09 -4.6410665194e-09 -1.6891538249e-09 
6.9673332674e-08 -4.9442711347e-09 4.6682108587e-08 6.0916998656e-08 -1.1662177612e-08 4.68455516e-08 9.3048957013e-09 -1.5262741382e-08 2.5332087069e-08 
1.0590054943e-09 -5.0555311232e-10 -5.7638600479e-09 2.4921192901e-10 -6.0949074787e-10 -4.63802299e-09 7.2724073716e-10 -1.0411189514e-09 -6.571295873e-09 
7.0706175565e-10 -3.9211515343e-10 -3.8296875752e-09 6.1031957264e-09 -1.2371564375e-08 1.9666155193e-08 6.6583187229e-08 -3.6464302438e-09 -1.2832705499e-08 
6.354746129e-08 -1.5337794301e-08 -4.0600799024e-08 6.9252232309e-08 -6.7123644587e-09 1.2046772369e-08 8.396360227e-08 -1.1074476838e-08 7.2655834221e-10 
4.431159823e-09 -3.2542450756e-09 2.2500796511e-08 5.9207089911e-08 3.692391386e-08 -2.7176687319e-08 -2.9295532109e-09 -1.4844722206e-09 -1.629644483e-09 
-6.2292150371e-09 -6.9568288025e-09 9.9170875305e-09 5.8315312148e-08 2.9963730328e-08 -1.2469056629e-08 6.7188260233e-08 2.5237749755e-08 -7.4279021492e-09 
5.3649501462e-08 3.4888141708e-08 -2.2170698704e-08 -5.1374355141e-09 -9.1189837385e-10 1.2349032341e-09 -3.7903365787e-09 -1.8396426269e-10 6.6319410507e-10 
-5.6678432081e-09 -2.9864598125e-10 8.2954920792e-10 -4.9377471408e-09 -7.2330225789e-10 1.0908693897e-09 -8.980630889e-09 -8.3924875894e-10 1.6930938626e-09 
-7.9418986327e-09 -7.1558321179e-10 1.8502308746e-09 2.2534095791e-08 -9.6621843601e-10 9.257230281e-09 2.7676421985e-08 -6.2019927015e-10 1.2431204573e-08 
-8.2483964107e-09 -8.1904152661e-10 2.6214676687e-09 8.7115734355e-09 -3.7600644301e-10 1.8471966078e-09 1.3405780769e-08 -1.799581459e-09 3.478813436e-09 
6.7015458043e-07 -3.4346081525e-07 -1.4949553447e-07 -8.2573629402e-09 -7.6142348734e-09 1.3558919104e-08 1.149995273e-08 1.3034792233e-09 -8.136460763e-10 
2.8953957539e-08 -3.3224759571e-09 1.4818936106e-08 3.4930033718e-08 -5.194180321e-09 1.4979239006e-08 9.016735792e-10 -7.9012761127e-09 8.6420522298e-09 
-1.0558098289e-09 -5.6359318796e-09 5.9430951097e-09 -2.5921479207e-09 -1.0875345736e-09 -5.1876882147e-11 -1.9357142226e-09 -9.8516782341e-10 -8.497243115e-11 
4.6736035814e-08 -6.962108432e-09 4.6247833975e-08 4.2446290305e-08 -2.3223569832e-08 5.160458802e-08 3.3167907765e-08 -2.7682243413e-08 6.3806986542e-08 
3.9937991742e-08 -2.1627252208e-08 4.4599698581e-08 4.5450251365e-08 -2.753487986e-08 5.8204394338e-08 5.3478911729e-08 -2.0798729021e-08 4.573653207e-08 
6.183939511e-08 -7.9671518312e-09 5.7968426591e-08 1.8065154629e-08 -4.9315198182e-09 2.4854024267e-08 9.3532324937e-09 -6.0333339552e-09 1.7285812935e-08 
1.2201329047e-08 -4.2939380514e-09 1.5942461716e-08 3.5656224577e-08 -1.0280066675e-08 1.8284930134e-07 -5.4917249159e-09 -9.8140506456e-09 1.2004299326e-08 
-8.8727312551e-09 -7.9054501124e-09 7.0902781955e-09 -5.737673553e-10 -5.8561726094e-10 -3.8030641754e-10 -2.0841182984e-09 -1.4378704617e-09 -6.959371368e-10 
-1.1215164838e-09 -1.0498068055e-09 -8.8420594181e-10 -6.1098351673e-10 -6.8781949532e-10 -7.7188830991e-10 -2.2583376987e-09 -1.6645302584e-09 -1.4836729578e-09 
-1.4727698276e-09 -1.1752068195e-09 -8.5385880396e-10 3.0792609525e-08 -2.8109908408e-08 6.0963796544e-08 4.2207860857e-08 -2.627683347e-08 5.8362429474e-08 
3.9297465976e-08 -3.0297602422e-08 6.6112550591e-08 3.4424506727e-08 -2.3764207814e-08 4.9296887196e-08 4.819551966e-08 -2.0657067971e-09 1.2048298903e-08 
7.544790777e-09 -1.2306472661e-09 -2.9174412068e-09 1.2847252399e-08 -1.3392367303e-09 4.869242311e-09 3.9224124846e-08 -1.1113035499e-08 1.2385467356e-07 
6.016604494e-08 -6.520797073e-09 1.8207578162e-07 4.7545968675e-08 -3.4817195751e-08 7.7109711613e-08 5.5746456344e-08 -2.6079765969e-08 5.0430293316e-08 
3.9677586749e-08 3.3413994902e-09 7.490061025e-09 7.7313156793e-09 3.3651234365e-09 -1.7342455892e-09 -6.1689739833e-10 -1.617707268e-10 -3.9232844542e-10 
-2.6386576172e-09 -4.6000691873e-10 -1.1058181718e-09 6.5931268927e-08 -4.7974939291e-09 2.0046580642e-08 -3.0601159485e-09 -2.5362992145e-09 -6.8339482919e-09 
-4.444346536e-09 -2.7796540615e-09 -4.920337438e-09 1.0447131708e-07 2.3468936584e-12 2.6961191793e-07 6.823039439e-08 -1.8028230864e-08 2.2582879161e-07 
1.4097188581e-08 3.0827806909e-09 -3.767715999e-09 -1.0801788309e-09 -1.2010494361e-09 -2.5284338059e-09 -1.3111195958e-09 -1.2237180707e-09 -1.6786160197e-09 
-2.7562217217e-09 -2.0312686513e-09 -2.6072357092e-09 -8.5458559168e-10 -1.0415496987e-09 -2.2864414705e-09 -2.4889273165e-09 -2.0684166195e-09 -4.0753301552e-09 
1.5148106885e-08 -1.3019126413e-08 2.1679904668e-08 -7.0580520396e-09 -9.3999803557e-10 -2.2640346192e-09 -5.3916607231e-08 1.1570662059e-07 -2.1144515839e-07 
6.685173422e-08 -8.6528987254e-09 6.5223547773e-08 8.8365638451e-08 -1.491058415e-08 4.2458221857e-08 7.2650443722e-08 -1.6422616691e-08 7.4118982991e-08 
5.7128120802e-08 -1.0411517562e-08 1.1931524124e-07 8.5154374696e-08 -1.5453496045e-08 1.1493381638e-07 6.4775249304e-08 -1.3344310352e-08 9.417554795e-08 
-7.3805463593e-09 -8.1099307446e-09 1.0272366154e-08 -4.3822242558e-09 -6.570936769e-09 4.7181668158e-09 2.3000740499e-08 -1.3195233111e-09 2.8739974942e-08 
1.4376520114e-08 -2.0384997118e-09 2.0051708197e-08 1.3632506261e-08 -1.6630300514e-09 2.0616354167e-08 4.8509793585e-10 -7.4200222067e-10 -6.0001155354e-09 
-8.7587391127e-11 -7.6826482485e-10 -5.4424445619e-09 -3.9123875505e-11 -6.802846912e-10 -4.439730715e-09 -2.5150263627e-09 -4.5811783544e-09 4.5083798432e-09 
-3.6534594773e-09 -1.8287043966e-09 9.7833489768e-11 -2.3204105394e-09 -1.2024953128e-09 -5.2635747998e-11 4.6379435632e-08 -1.6983008231e-09 6.3801554981e-08 
6.6642321527e-08 5.2989606635e-09 7.5452157701e-08 2.188223032e-08 4.5464560236e-08 -1.2266314548e-07 4.0082660456e-08 -1.4406839667e-08 3.014646093e-08 
3.2097192484e-09 -1.3904495685e-09 -6.9921898922e-09 1.7294539931e-09 -2.3839084143e-09 -5.5027333514e-09 6.3825659035e-09 -2.1774347879e-09 -3.2742943204e-09 
5.97455074e-08 1.6623654323e-08 -3.3527376765e-08 6.5320384713e-08 1.2580133342e-08 -9.5859508216e-09 6.6582202853e-08 2.0525916407e-08 -4.6865114848e-08 
4.7725995544e-08 -4.6452957136e-09 4.3113881663e-08 -6.9431097122e-08 8.8512042058e-09 -1.3180123182e-07 -2.300763485e-08 2.0778022929e-09 -1.155737407e-07 
-4.2899161093e-08 6.7719034165e-09 -1.2068581596e-07 -1.1888246001e-07 1.1787174933e-08 -1.651416725e-07 -2.3647751492e-08 -4.2679823298e-09 -1.754644385e-07 
-8.0798095324e-08 -6.24237798e-09 -1.6524564436e-07 -8.4167618711e-09 -4.7913405867e-09 -6.1594171366e-10 -6.8745958214e-09 -3.6654613862e-09 -3.1593454023e-09 
2.3964866916e-08 -2.414218374e-09 9.8783023789e-09 1.0203202731e-09 -4.7288598222e-10 -8.7353725557e-09 1.2304847512e-09 3.1788166581e-10 -5.9307534403e-09 
8.5940574935e-09 -7.084882151e-09 1.3028921614e-08 3.5164103011e-08 -1.0097121649e-08 2.0817432448e-08 1.40846929e-09 -1.83254133e-09 3.7489196434e-09 
-3.4574497031e-09 -1.2795071758e-09 -6.8015170339e-10 -4.1328305981e-09 -1.8186750335e-09 5.3257141706e-10 -7.2341946175e-09 -3.9349695517e-09 8.1449068195e-10 
-7.0398402573e-09 -3.0264175701e-09 6.6038235793e-10 5.7192911465e-08 -4.1426901478e-09 -3.7806185484e-08 1.1626089594e-09 -8.783680241e-10 -5.6922222723e-09 
1.9976705116e-10 -6.4977603857e-10 -4.5616855955e-09 6.3428089513e-10 -5.2325275648e-10 -3.9159041925e-09 2.6461985457e-09 -1.0313416061e-09 -6.2607000026e-09 
3.4815713292e-09 -9.5384001074e-10 -6.7645194303e-09 2.5699069201e-09 -6.7435999499e-10 -5.9378898603e-09 -2.2661012303e-09 -4.0241876999e-10 -2.4718805064e-09 
1.839349766e-09 -7.3950763847e-09 2.6014980305e-08 -2.5656961785e-09 -1.3718236892e-09 -8.9530846471e-11 -1.2985111092e-08 -1.8644201362e-09 4.4483844503e-09 
-1.3163544441e-08 -3.6029045715e-09 6.133769857e-09 -1.4035179113e-08 -1.8845718747e-09 7.7673690432e-09 -1.4119052208e-08 -2.4858649696e-09 1.2224147886e-08 
-1.3859528079e-08 -4.9073023314e-09 1.4194255309e-08 -1.2770317863e-08 -4.4174601352e-09 9.4694498208e-09 3.0350055797e-09 -8.833549473e-10 4.2750476864e-09 
2.3628532362e-09 -2.5907184644e-09 5.6825030466e-09 -1.5169747541e-09 -1.2251307293e-09 -4.5576046009e-09 -1.0879544232e-09 -1.1611126182e-09 -3.0067199734e-09 
-1.1443492992e-09 -1.0461571943e-09 -2.6517944502e-09 -6.5649821172e-10 -1.0726193552e-10 -5.9177224956e-10 6.8523454677e-08 -1.2662498452e-08 4.4086927228e-08 
5.9956644146e-08 -1.3957266446e-08 5.5803864592e-08 -8.4213093038e-09 -5.3997516761e-09 3.153293778e-09 3.839329165e-08 -1.6491165948e-09 7.1696364056e-09 
2.7732186529e-08 -1.7635166765e-09 3.5145120693e-09 1.663202004e-08 -3.1522399778e-10 1.1638014144e-09 3.8949785652e-08 -7.164922921e-10 6.3858396744e-10 
2.7261313659e-08 -8.7153216941e-10 -2.3476934369e-11 4.7223887704e-08 -1.7294942777e-09 2.6717467791e-09 -1.2449549236e-08 -1.831301925e-09 4.3357855225e-09 
-1.1102911206e-08 -2.5866695147e-09 6.2429215272e-09 -8.8335778309e-09 -1.4825580632e-09 9.0987557622e-10 -1.7988942167e-09 -2.2284569624e-09 -6.0751526273e-09 
-2.9937046574e-09 -3.1139656571e-09 -5.1249896565e-09 -1.9510042768e-09 -2.2795438464e-09 -5.5618912802e-09 -1.527384783e-09 -2.30843595e-09 -6.2751067905e-09 
-4.8582834978e-08 2.0697339369e-07 -4.6342166472e-08 5.290983839e-08 6.7791322912e-09 1.8762590324e-08 6.0791820586e-08 1.5977111975e-08 1.2258768978e-08 
5.5119660086e-08 1.8174945107e-08 1.1572584511e-08 -3.3479578845e-09 -7.7552904642e-10 -2.8666140595e-09 -3.1974712246e-09 -1.3401534867e-09 -3.3805444949e-09 
-6.704600052e-10 -4.9902457777e-10 7.8093946892e-10 -1.5577565522e-09 -8.0151198091e-10 1.2193441117e-09 -2.226823021e-09 -1.2705548702e-09 2.308166465e-09 
-1.9264457745e-09 -1.4775410909e-09 1.0938435821e-09 -1.3798518645e-09 -1.2212838174e-09 2.1813399198e-09 6.8108475503e-08 -1.1500199146e-08 1.1430921423e-07 
1.2399227759e-07 -2.4683039727e-08 1.0976387658e-07 1.0847102237e-07 -1.0718339534e-08 1.7233835743e-07 6.4000808258e-08 -1.067260439e-08 1.7352412536e-07 
-5.2198535662e-10 -9.6013758809e-11 -2.9364558611e-10 -5.8708719535e-10 -1.985460437e-10 -5.1568652408e-10 -1.7144114939e-09 -4.6440413792e-10 -9.6788132671e-10 
-8.3343223168e-10 -5.1600454981e-10 -7.3803873986e-10 -7.6576403133e-10 -3.8554315519e-10 -4.561595237e-10 1.124861713e-08 8.0063069433e-10 7.317586893e-10 
2.5272199793e-08 4.8088809461e-09 1.3772460652e-09 -2.0094437076e-09 -1.1588030847e-09 -9.1563709546e-11 -2.2977288521e-09 -1.1838020674e-09 -8.2009509271e-11 
-4.1557824733e-09 -3.9109877765e-10 1.0983024141e-09 -4.140635792e-09 -4.3652969148e-10 1.437549389e-09 -2.6717446698e-10 -1.5712572502e-10 -7.4555752517e-12 
-4.6139814359e-10 -2.5928158575e-10 -6.9737142689e-11 -1.2650549943e-09 -5.2496938747e-10 -1.736517027e-10 -6.1940319433e-09 -4.3004786564e-09 2.5181706864e-09 
-4.8390418052e-09 -3.7098466409e-09 2.5457209892e-09 9.2502536083e-09 -4.1714596561e-10 1.3840577373e-08 1.2138966724e-08 -9.6747983226e-10 1.8801804216e-08 
-8.8659950032e-10 -8.8854716245e-10 -6.1046633354e-09 -1.3222730158e-09 -1.0415763729e-09 -3.9767644738e-09 6.06236914e-08 -5.5272363344e-09 5.894615729e-08 
6.4357849647e-08 -7.9110753086e-09 5.2387590084e-08 5.8522654655e-06 -8.752204461e-07 2.8477226313e-06 1.3231828881e-05 -3.238305217e-06 2.6013667455e-06 
1.5084432668e-08 -2.947372403e-08 1.0281972734e-07 1.1313490819e-08 -2.432457926e-08 1.0411678969e-07 2.3833097823e-08 -2.1033875585e-09 2.8615433142e-08 
5.0572259244e-08 1.1764206989e-09 1.7309674084e-08 -2.713351919e-09 -1.1128011565e-09 7.352630641e-11 1.4956613832e-08 -1.9327328697e-08 3.7563909047e-08 
1.6683792221e-08 -1.7951301795e-08 3.2829758602e-08 5.5983140092e-09 -1.4787302971e-08 2.4546060002e-08 6.5960757473e-09 -1.8548564265e-08 3.6952697451e-08 
1.8318997219e-08 -2.2813497906e-08 4.9283515621e-08 8.2069048709e-09 -1.7714629685e-08 3.319143086e-08 -1.1874708425e-08 -1.4922168026e-09 1.8322147956e-09 
-1.1054684325e-08 -1.7261720956e-09 1.7889224132e-09 -1.2919371965e-08 -1.5678292864e-09 4.5065918132e-09 -1.1847023274e-08 -3.4572031165e-09 4.4321676445e-09 
-3.8964002177e-09 -1.1462067901e-09 3.290723357e-10 -5.7879641833e-09 -1.1416446824e-09 4.4150103645e-10 -7.5125180132e-09 -2.8554629077e-09 -2.3861544805e-09 
4.9672782816e-06 -1.086989192e-06 -9.07117606e-07 5.2081420763e-08 -4.1519941351e-09 3.2670509612e-08 -1.1674164237e-09 -4.009895267e-10 5.3824956403e-10 
-2.6438695062e-09 -9.5427996654e-10 1.4096556267e-09 5.8192193525e-08 -3.3821801926e-08 8.2928528048e-08 6.0589691542e-08 -2.9882671097e-08 7.7462999564e-08 
5.639358683e-08 -1.82456976e-08 1.044262969e-07 5.030709908e-09 -1.6386326942e-09 -4.2616669074e-09 1.2966297845e-08 -4.7677567016e-09 4.8450530868e-09 
2.0570432136e-08 -4.3202663839e-09 5.4262007904e-09 1.7023546248e-08 -3.0125804243e-09 3.2871020467e-09 1.003285877e-09 -2.1261105134e-10 -1.0164703957e-09 
3.4530999028e-09 -1.5208880563e-09 -4.2772008247e-09 1.0165551228e-09 -3.8192391002e-10 -2.7165401182e-09 4.1957523785e-09 -1.2980374405e-09 -5.4823052027e-09 
5.5812162495e-08 -9.5802093171e-09 8.9402353044e-08 6.0825682906e-08 -1.1691923457e-08 6.8738654629e-08 1.0429021838e-07 -3.2246347675e-09 2.5797579138e-07 
-8.4337983595e-10 -6.0673276806e-10 -2.6604536881e-09 -4.7849406913e-10 -5.4485766645e-10 -2.2819693023e-09 4.1029622061e-08 -2.8918346265e-08 1.1963968365e-07 
4.6618674708e-08 -1.502770559e-08 4.5147254207e-08 3.3338400687e-08 -2.0082271485e-08 4.5483405165e-08 4.3849103403e-08 -1.528594355e-08 4.0122295468e-08 
9.2148345866e-08 -6.041580966e-09 2.4460373086e-08 7.6225027394e-08 -1.5692129221e-08 1.0046617729e-07 7.4991668568e-08 -1.1921629997e-08 8.5356678394e-08 
2.402391069e-08 1.8478195852e-09 1.651404432e-09 1.7003285296e-08 -4.1735974575e-10 2.0195620548e-09 2.6247877191e-09 -8.895963566e-10 3.9981009817e-09 
1.2014477792e-09 -2.9699282856e-10 -5.9969504641e-09 -8.4163700789e-09 -1.1552981799e-09 -2.4751821997e-09 -1.0932612611e-08 -1.4257033885e-09 3.5481962647e-10 
3.8109344925e-08 3.5461706689e-09 3.7578420673e-08 4.9279838922e-08 6.7152837238e-09 5.9350285015e-08 2.1519038757e-08 -2.6478940228e-08 5.976419522e-08 
3.9544289065e-08 7.9831222548e-09 1.1181434998e-09 4.7836957858e-08 8.2766504684e-09 7.195756263e-09 2.4829085679e-09 -2.6212552098e-10 -9.4218973886e-09 
1.3093799545e-09 -2.2276047269e-10 -5.1443850993e-09 2.3521188374e-09 -1.0981595597e-10 -8.2093341172e-09 7.4535616705e-10 -1.3261877167e-10 -5.0653900789e-09 
2.1237145179e-09 -9.9904600975e-10 -4.7742876795e-09 -5.7523381722e-10 -8.5613643981e-10 -7.8842737315e-09 3.7775553088e-10 -1.2740616256e-09 -2.4271593643e-09 
4.8268681143e-09 -1.4546953253e-09 2.8274368563e-09 1.5947487634e-09 -4.1371551121e-09 6.6077254449e-09 2.3294391599e-09 -2.0296909801e-09 5.0711480837e-09 
7.9438598098e-09 -1.3403786169e-09 -2.8265608229e-09 1.3233093669e-08 -1.1717797269e-09 1.5465242061e-11 1.6360867624e-08 4.1680538895e-10 2.2936566749e-08 
-1.3012147621e-08 -5.4207023272e-09 9.6679662077e-09 -1.238516783e-08 -6.6910377118e-09 1.4862643093e-08 -5.5727555706e-11 -4.7371040982e-10 -5.1641276058e-09 
-1.2390650678e-09 -1.3140197185e-09 -8.2038772355e-09 -8.3275869533e-10 -1.0219791917e-09 -9.1118682649e-09 -3.9406333406e-08 -7.9352586897e-09 3.5247637459e-08 
5.8720107385e-08 6.5558846279e-08 6.6013119581e-08 5.7483587279e-08 2.7003644552e-09 9.4840326491e-08 4.1195343321e-08 1.5903606311e-09 2.6331617942e-08 
2.1353907929e-07 8.4836222202e-09 -2.7245589877e-07 3.2502223238e-06 8.5956078122e-07 5.558429569e-07 1.4769138039e-09 -2.7813521806e-09 2.4740878863e-09 
3.859085662e-09 -3.2853732066e-09 3.0291820765e-09 -3.3931355786e-09 -2.0822877621e-09 7.5290955933e-10 4.5114949969e-09 -1.3619074292e-08 2.5442598224e-08 
2.0689577001e-09 -9.1513019907e-10 -7.2620619849e-09 5.2555560405e-09 -1.1307662125e-09 -8.367015976e-10 6.0491854933e-08 -3.2559586036e-09 8.6160603275e-09 
5.0526339412e-08 -1.4919364669e-09 1.2157810789e-09 5.8710828854e-08 -1.1126810043e-09 -6.4716559106e-09 1.3078783993e-09 3.4547481586e-10 -4.7703852063e-09 
3.4644690095e-09 -8.8826914533e-10 -5.5861916924e-09 1.4316491722e-08 -2.0486615251e-09 5.981749258e-10 8.3171851144e-09 -1.2080531403e-09 -3.4778819632e-09 
1.0289921374e-08 -1.73963738e-09 -2.4098935694e-09 7.4142002514e-08 -9.0544983168e-09 2.0356230782e-07 2.777017513e-08 -2.6671163703e-08 1.4058956669e-07 
-1.1639520392e-09 -9.4279181739e-10 -5.7948892665e-09 -2.1894193596e-09 -5.1840189056e-10 -7.3918510162e-10 -3.1599902379e-09 -6.7323166527e-10 -5.138910088e-10 
1.2016971622e-07 -4.805768344e-09 6.276129242e-08 1.2203549895e-07 4.0250216935e-08 7.1310240262e-08 -9.8316432334e-10 -2.9993902437e-09 -3.8787496524e-09 
-3.7085067393e-10 -8.0160749803e-11 1.079756043e-10 -7.5358205885e-10 -1.0603451959e-10 1.5688424244e-10 -2.3614007768e-10 -1.0237349596e-10 1.4187035791e-10 
-5.031850839e-10 -4.5853139184e-11 1.6067608255e-10 7.0724737739e-08 -1.5991274796e-08 3.8544474793e-08 6.2485263456e-08 -1.9850967495e-08 4.8383868172e-08 
6.2149024215e-08 -1.2167622181e-08 4.0498474811e-08 1.216065185e-09 -1.0143423504e-08 2.3267347461e-08 6.3873928434e-09 -1.2591303007e-08 2.1007488306e-08 
-8.8585427466e-10 -1.0927783167e-08 1.8455176442e-08 -1.6775617729e-07 5.6177652902e-08 -2.1743391572e-07 1.386208637e-08 -3.9902050149e-08 -5.3154205958e-08 
-4.7724091778e-09 -9.7422166582e-08 9.7342260002e-08 -4.1737771866e-09 -3.5769538332e-09 -4.4226330246e-09 2.921047343e-08 5.8117272343e-09 -2.959739382e-10 
1.1985186606e-08 1.0792815743e-09 -2.6662644003e-10 3.286500549e-08 4.5981679118e-09 2.7240192171e-09 2.4936374877e-08 5.2300884912e-09 7.3418727552e-10 
4.0281611557e-08 1.148651085e-08 2.8054527126e-10 5.4026599062e-09 -1.763583361e-08 3.735909895e-08 -5.5307762732e-08 1.8629562027e-08 3.3408464491e-08 
-4.323986101e-08 -2.8213529633e-09 2.7905077249e-08 2.2424078377e-07 -5.9320330606e-08 1.2188001046e-07 -2.7768866641e-08 -1.1234585158e-07 7.1705849434e-08 
1.2566786987e-06 -8.7690481633e-07 -1.8816692763e-07 4.5299881948e-08 1.1382649549e-08 7.0987710242e-09 3.7388853859e-08 1.4421409643e-08 2.9961143098e-08 
-4.2238116952e-07 2.6430680649e-07 -1.9918284181e-07 -4.5449289424e-07 -3.2413206123e-07 -4.9184959526e-07 -2.9136305803e-07 -1.0196797208e-07 -5.954403241e-07 
9.6539829422e-08 -1.4146972506e-09 2.5144224086e-08 8.913334684e-08 -1.3628843181e-09 4.4380878888e-08 8.9600847714e-08 7.7969657853e-10 6.6538174576e-08 
5.0368924888e-09 -1.1731161843e-09 -5.9309169161e-09 9.9183058071e-09 -1.0497333639e-09 6.8949471275e-10 2.4537540847e-08 -2.226154965e-08 4.5428644731e-08 
7.7512218494e-09 -3.5293077211e-08 -6.6917131025e-10 2.0221833599e-08 3.2210933115e-09 4.0322619055e-08 -3.3435995236e-10 -5.1871361422e-10 -4.2774068336e-09 
-3.1221764116e-10 -5.1128414959e-10 -4.4816591214e-09 -2.3087638186e-09 -1.3506625009e-09 -7.657226946e-09 -1.7956804916e-09 -7.7366265473e-10 -1.6889161315e-10 
-2.6484040254e-09 -1.4698282413e-09 -1.0992260118e-09 4.5429630485e-08 2.4648811199e-09 5.425310387e-08 -2.7246743337e-09 -8.9131439976e-10 -1.7004179719e-11 
-2.9895593269e-09 -1.0824940792e-09 1.5148800774e-10 -4.9585346509e-09 -6.7425446876e-10 -1.3632610046e-09 7.6380299568e-08 2.374586711e-08 -3.8665640072e-08 
5.8008504528e-08 3.4033839907e-08 -8.2999808648e-08 7.0735596017e-08 3.4208713899e-08 -4.4219833852e-08 7.2988173728e-08 2.2124322439e-08 -1.9813369681e-08 
5.8879534975e-08 3.1360328515e-08 -4.7696192547e-08 6.4856738093e-09 -4.6986909877e-10 1.6762713843e-09 1.5266240945e-07 -7.7637179474e-09 -1.1029733462e-08 
5.490936403e-08 -1.6745219809e-08 -8.5467426894e-09 1.530185703e-08 -2.1985095507e-08 4.6339054026e-08 6.4349447562e-09 -6.8281604137e-10 1.1006912296e-09 
-8.1166831097e-10 -1.9972928553e-09 1.8348564676e-09 1.7000802081e-08 -2.0946102424e-08 9.3348400294e-08 4.4469361792e-08 -1.5685512429e-08 1.0749505638e-07 
3.9906475919e-08 -8.3916514832e-09 6.6636066613e-08 2.1891395276e-08 -1.8898048338e-08 6.954163219e-08 5.5082039716e-08 -1.8741047378e-08 5.2440635721e-08 
5.7646614242e-08 -1.2683486652e-08 4.4106876669e-08 4.8101259101e-08 -2.0863915715e-08 4.596506984e-08 9.4569240564e-09 -7.9636334007e-13 -1.8697458469e-09 
5.8663576833e-09 -3.3142360668e-09 2.9935074598e-09 1.9716091071e-09 -6.8382426582e-10 -6.2621539222e-09 1.1193138526e-09 -6.3036733664e-10 -5.5035049011e-09 
-7.3335116594e-10 -1.0562551708e-09 -3.0199728718e-09 -2.6662406043e-09 -2.3865896821e-09 -5.2292624246e-09 -1.3805074082e-09 -1.7101899998e-09 -5.4286709284e-09 
-5.4380101397e-09 -1.2260008213e-09 -5.8857426223e-09 6.2097771776e-09 -4.4391243358e-09 1.0813883651e-08 3.0381455443e-08 5.3635528308e-10 2.0173053603e-08 
2.6092342711e-08 5.6756886593e-11 1.2054781288e-08 2.1024548919e-08 -6.8079371781e-10 8.1992354365e-09 1.5367790869e-08 -2.8750545001e-10 6.6992865275e-09 
4.0388266405e-08 -4.5254616475e-09 4.5048891812e-08 2.9593959198e-07 -1.9719081845e-09 1.5544228341e-08 1.9467963782e-07 1.138256081e-09 -1.1215652487e-08 
1.9042083993e-07 -1.233834972e-08 -2.0872511528e-08 1.0154995515e-07 2.8003102749e-08 4.6409362126e-09 2.5256519599e-07 4.4189196553e-08 6.1345786315e-08 
-8.3002882954e-10 -4.4659139139e-10 -1.1025555935e-09 -8.8934480213e-10 -5.6197870341e-10 -1.6798850928e-09 -9.515919555e-10 -5.1279653961e-10 -2.0592879535e-09 
-2.3531116855e-09 -1.1159289833e-09 -2.4566460531e-09 -9.1884498763e-09 -1.050389453e-08 2.0364061401e-08 -5.3009952146e-09 -1.2938492934e-08 2.3061387959e-08 
5.0226198061e-08 -1.6633883503e-09 4.4587129131e-08 6.1417361364e-08 5.1696951673e-09 5.8487873879e-08 6.0832300265e-08 -1.9571504228e-09 4.5464866721e-08 
5.0643854307e-08 2.9659920404e-10 4.2186073407e-08 3.9875921902e-08 3.1025918398e-09 4.0761216422e-08 1.1875718909e-08 -4.4634034234e-09 5.3195015669e-09 
9.1253279983e-09 -5.2717008832e-09 4.8347817803e-09 1.3676726308e-08 -3.8513578683e-09 4.1637707387e-09 4.5810672019e-08 -1.8152986997e-08 3.9012888077e-08 
-5.7457011164e-09 -7.1554041974e-09 5.0705870414e-08 -9.4052395429e-09 -4.6859417465e-09 3.4023135278e-08 -2.5257028882e-09 -5.2524096643e-09 4.0775752396e-08 
-6.9008731894e-09 -8.741585064e-09 3.1600935803e-08 -4.9775320558e-09 -4.8877924556e-09 -5.6559768082e-10 5.0860941008e-08 -9.0283007152e-09 3.2352642763e-08 
3.9670516662e-08 -1.2992540392e-08 3.1124314873e-08 4.8345844348e-08 -1.0247492472e-08 2.7259608495e-08 4.853365505e-08 -6.0627176244e-09 2.8123913991e-08 
3.8131083855e-08 -9.2637122334e-09 2.608908774e-08 -9.817307108e-09 -8.9588133712e-09 1.58014926e-08 -6.7195983728e-09 -1.1113033568e-08 1.8649975491e-08 
-1.8621979838e-09 -2.2302362562e-09 1.3050292176e-09 -1.916341517e-09 -3.4696900658e-09 2.0818147459e-09 5.4408806627e-09 -3.9990138378e-09 3.423556205e-09 
6.8441220256e-09 -5.7240889091e-09 9.9909834613e-09 3.461295782e-09 -4.6759133377e-09 4.1677084206e-09 -6.5151804403e-10 -5.249989238e-09 2.238364104e-09 
4.7124897405e-08 -3.1741120439e-08 1.5525093051e-07 2.5317667838e-08 -1.9434237461e-09 2.8262693921e-08 -1.1951488294e-09 -1.1677961849e-09 -1.4563552631e-09 
-8.0233480557e-10 -9.8627781347e-10 -2.1041911653e-09 -5.945863624e-10 -7.6125330543e-10 -1.1826954804e-09 -1.817652346e-09 -1.5656550756e-09 -2.6994967066e-09 
7.6134915078e-07 4.3054176244e-07 1.4367709194e-07 2.8137952168e-07 2.7008869079e-07 -2.7396937721e-08 1.1979737367e-06 1.4168010049e-06 -1.706807667e-07 
1.4904642022e-07 -2.1389468872e-07 -9.175688302e-07 -7.8320218139e-09 -2.7274253876e-09 5.0385003775e-10 -5.977396583e-09 -1.4930453463e-09 7.6555378682e-10 
-9.445161318e-09 -2.2282901007e-09 7.8751298344e-10 1.8963482218e-08 -3.2456892786e-09 4.9294575112e-09 4.9150493091e-08 1.0045691451e-08 9.5771137576e-09 
4.6336605119e-09 -3.7134257113e-09 2.1868559165e-09 -4.5919337304e-10 -4.6813937964e-09 1.0747775175e-09 -3.886996796e-09 -1.3697675626e-08 3.6436493554e-08 
-5.4979929252e-09 -2.9614897859e-09 1.9568074571e-09 8.0465050324e-08 4.5172846585e-09 8.2540979583e-09 7.1600634995e-08 1.3789962364e-08 -1.3646880655e-08 
1.1059201632e-08 -2.3711210988e-09 1.6105138488e-08 4.2930548348e-09 -2.0965363404e-09 9.7055579406e-09 6.2763451522e-11 -6.4424436513e-10 -8.4674185569e-09 
-1.0462369221e-10 -4.1752099746e-10 -5.379460964e-09 6.9815161316e-11 -3.8950231828e-10 -5.7423276077e-09 -2.4036320029e-07 1.5103782547e-07 -5.5041103097e-07 
2.9977421145e-07 -1.0812562633e-07 3.7446641041e-08 2.0213692651e-07 -4.7979459864e-08 5.2587588875e-08 1.404109894e-06 -4.7492927873e-07 3.3910849548e-07 
1.4517147768e-07 -1.4117781831e-07 1.0667772948e-09 -1.4098555031e-08 -2.1629180393e-09 1.1401287657e-08 -1.4630717573e-08 -2.9531488724e-09 1.8343983323e-08 
-8.2255743254e-09 -7.4914946011e-09 5.6706271017e-08 -1.132755433e-08 -4.944588786e-09 3.881158161e-08 4.5824530319e-10 -6.5480969722e-10 -5.4931976157e-09 
1.680710107e-09 -7.4351423017e-09 1.4081072585e-08 6.9720740052e-08 -5.1157860415e-09 2.3244780615e-08 5.5085508964e-10 -1.0151445667e-09 -3.6618411847e-09 
7.6313874622e-10 -5.9325683526e-10 -3.7399004764e-09 -2.7589159667e-09 -1.1559900743e-09 -6.2525203746e-10 -1.3904028641e-09 -7.534104992e-10 -9.1190021479e-10 
4.8564099522e-08 -2.1804142122e-09 9.9990892702e-08 3.235547702e-08 -1.030114396e-08 8.9622241947e-08 8.8661772885e-08 -1.4288160882e-08 2.069951781e-07 
7.9028394517e-08 -4.8366593281e-09 2.7846054192e-08 2.2225280361e-08 2.0481261145e-08 -3.4817177937e-08 1.5948403754e-08 2.3302564287e-08 -5.8152230187e-08 
-5.1586971141e-09 -1.8530316074e-09 -3.4077885452e-09 2.9804884517e-08 -3.6532857172e-09 2.9659951858e-08 -4.0296667408e-10 -1.9567459132e-10 -1.848202741e-09 
1.7054733424e-09 -5.7345164542e-09 5.6483174885e-09 -2.9068755859e-09 -8.7655922435e-10 -7.1818475162e-09 -3.5923662509e-09 -7.0743513325e-10 -7.3901781185e-09 
-1.4434819403e-09 -5.7490310731e-10 -7.4548348239e-09 -2.7866412507e-09 -1.4317134692e-09 -7.8878421676e-09 1.5742765514e-06 -2.4594061194e-07 -5.3636893615e-07 
1.8585870174e-07 2.8660709968e-07 -6.5412001391e-07 -3.1238711166e-09 -8.8568576706e-10 -5.274229363e-09 9.1603637276e-08 9.7918460959e-09 -7.6425239174e-08 
5.2708517706e-08 4.5203153491e-08 -1.4895981227e-07 1.1577562989e-07 2.4364149238e-08 -7.2134585486e-08 1.0099197154e-07 1.2910495416e-08 3.6492294664e-08 
1.3061281566e-09 -5.8235954638e-09 4.3258075151e-09 1.347767146e-09 -5.3441733275e-09 4.248471554e-09 1.467996342e-09 -9.7406608352e-09 1.1474952741e-08 
4.3402110424e-09 -8.6653632174e-09 8.4993858849e-09 4.1341946902e-09 -8.6376236784e-09 9.0284020154e-09 2.3712567329e-09 -3.9406556627e-09 2.5928536408e-09 
3.538636107e-08 -1.6695824153e-08 3.5938053758e-08 3.1856166045e-08 -1.7564068574e-08 3.8625993187e-08 -4.1545338233e-09 -1.099125737e-09 -8.0666946608e-10 
-3.7098545764e-09 -1.1789885072e-09 -5.372862328e-11 2.2043160489e-08 -6.2630737128e-09 6.5912764885e-08 5.6320775091e-09 -7.7243365452e-10 8.1969819577e-09 
4.6983455836e-08 -1.4323971398e-08 3.7032065885e-08 3.3572776722e-08 -4.7185551112e-09 2.8259967959e-08 -8.1221224092e-09 3.3198754866e-07 -5.0494347323e-07 
-5.754385857e-07 4.9743749285e-07 -2.2385629213e-07 -1.671156511e-09 -5.8209568683e-10 -2.3007452041e-10 -1.185524302e-09 -1.4439409596e-10 -1.741026394e-11 
-2.4474583353e-09 -7.4459766562e-10 -8.1318516515e-11 7.2533503573e-08 -7.2397127e-09 2.9507729637e-08 6.1434716656e-08 -7.0134386042e-09 2.5681417478e-08 
7.4969239983e-08 -1.0192142583e-08 2.8238349867e-08 8.5487506091e-08 3.0282186924e-10 2.079340515e-08 6.7102119307e-08 -5.3393547897e-10 2.3581103971e-08 
1.917281948e-08 1.0085033333e-08 -4.3100819329e-08 1.2520512955e-08 1.8767698978e-08 -6.4229322285e-08 -8.2150173939e-09 -2.6957474328e-09 -9.8070076022e-10 
-1.0539384447e-08 -2.2731851269e-09 4.3454740186e-10 9.6738241049e-09 -6.1821462345e-10 2.4041155932e-09 7.3662014778e-09 -4.6733812483e-10 5.0732467689e-09 
-1.1668544452e-09 -9.305275272e-10 -5.3120362373e-10 -5.8372913986e-10 -4.9646391196e-10 -1.8755985767e-10 -8.3529808331e-10 -6.500481332e-10 -1.9741006813e-10 
-1.6617807834e-09 -1.118690726e-09 -3.5236025941e-10 4.6683725773e-08 -3.2282271012e-08 7.2482032165e-08 4.9988549768e-08 -2.7329331201e-08 5.7776845377e-08 
1.345787432e-07 -2.1331514996e-07 -7.4427814409e-07 -1.0087243069e-07 -1.8912708864e-07 -1.321610084e-08 2.9845769874e-07 3.2957826499e-09 -1.7926957283e-07 
-2.2507807681e-09 -6.2073058116e-10 -3.9785417846e-09 4.0187759552e-09 -6.8695160967e-10 -3.1414960893e-09 -1.1373611938e-08 -1.8250753139e-09 3.0803640955e-09 
-1.2971765536e-08 -1.6566660524e-09 6.1713581735e-09 -3.8771323809e-09 -8.0751765519e-10 -1.7162216904e-09 7.5945038383e-08 2.3130981142e-09 1.2433457103e-07 
1.0139613468e-07 2.3453969093e-08 9.2453548437e-08 4.3900393729e-09 -6.5077960641e-09 8.9317945721e-09 4.3446307702e-08 1.3210688244e-08 3.1412629857e-08 
4.6422389685e-08 1.1236614127e-08 2.4342980346e-08 5.960214026e-08 2.2723271005e-08 1.5639510261e-08 6.1523857868e-08 -2.4741550633e-08 5.8478159392e-08 
5.0804616721e-08 -2.261274122e-08 6.072173486e-08 5.3476949702e-08 -2.5538407548e-08 7.1867451304e-08 -3.715312911e-08 3.1416043734e-09 -1.0650565273e-07 
-2.558821235e-10 -2.3107185084e-10 8.6742112889e-11 -2.0565623296e-10 -1.4274811794e-10 1.1088658585e-10 -8.419076161e-10 -5.807709907e-10 4.5241984372e-11 
-6.5278263109e-10 -4.8865752854e-10 6.7461034912e-11 -4.8705040687e-10 -4.1549066067e-10 -7.0472059336e-11 -8.8880314793e-10 -6.0443563137e-10 -2.9841696819e-10 
4.7686731396e-08 -1.1463202081e-08 1.116376623e-07 4.9149737533e-08 -8.9467336601e-09 1.4545971958e-07 2.1163948268e-08 -6.4770962557e-09 6.7612979975e-08 
3.1914357032e-08 -5.2897035641e-09 5.6147430603e-08 1.0486297908e-07 1.317238315e-09 8.2178938958e-09 8.5945998675e-08 -1.864318318e-08 2.9414141699e-08 
4.4966910777e-09 -1.6440579001e-08 8.8124593878e-08 1.8523322355e-09 -9.9195968155e-09 1.093485513e-07 1.9724874846e-07 -6.7842427454e-08 1.4961791165e-07 
9.9548965185e-08 -1.5874400696e-07 -8.9575698476e-08 6.0082796378e-07 5.8976621922e-08 1.9019759563e-07 1.0939907241e-06 2.9413720205e-07 1.6403070366e-07 
1.1578509548e-08 -4.7309261193e-09 4.4824938709e-09 1.1577864697e-06 -2.5716028173e-07 5.2691615402e-10 2.2482110309e-06 -8.7598973744e-08 6.2607470399e-07 
-7.0468528968e-09 -3.0885663259e-09 -8.3284098427e-10 -7.2292975398e-09 -3.932652579e-09 -8.1019230393e-10 -6.2545955174e-09 -3.5180982037e-09 -2.4243612341e-09 
-6.0357996349e-09 -3.5135696453e-09 -1.3762742594e-09 -5.8433051051e-09 -3.015599093e-09 -1.2390941946e-09 6.097138362e-09 -2.1321971535e-08 5.252832366e-08 
-4.2720019726e-09 -2.5460088482e-09 -2.0928433515e-09 3.2187397389e-08 -9.1293762889e-09 2.6917162202e-08 1.9001695638e-07 -8.0576546945e-08 7.2996222582e-08 
1.5178895104e-07 4.2100710144e-08 -1.1239927949e-07 2.5285359026e-07 6.739034954e-09 -5.357879306e-08 -3.7083494583e-09 -9.4132063598e-09 4.582793869e-08 
1.2964273939e-08 3.1113168358e-10 -3.8278042559e-09 4.4338830584e-08 -1.3830405458e-08 8.5276633168e-08 5.3641538991e-08 -2.6199098988e-09 6.564887432e-08 
4.0706109343e-08 -4.398894965e-09 5.8528226849e-08 2.9515822859e-08 -1.1501187937e-08 5.6070092635e-08 5.770161162e-08 8.4215163745e-09 1.9908986313e-08 
5.6466470232e-08 3.2531138794e-09 2.0485038815e-08 1.2873369052e-07 -3.9511486208e-08 4.2579777189e-08 1.4932817898e-07 -6.7774410509e-09 -4.7296640627e-09 
9.9850136597e-08 -2.4263691005e-08 2.2796619901e-08 -1.0825157859e-09 -1.0328896009e-09 -2.227617015e-09 6.8765085696e-08 1.8929357181e-08 1.8910365475e-08 
2.9265736242e-09 -6.3707690987e-09 1.0417879408e-08 -4.0713896848e-09 -3.2293540487e-09 -5.4267969243e-09 -3.079194326e-09 -2.5981028219e-09 -4.9292410873e-09 
-3.1460894987e-09 -2.2937932296e-09 -3.8308678655e-09 -2.6528056138e-09 -1.9589449357e-09 -4.2367964447e-09 -1.6286317993e-09 -1.6067785741e-09 -4.1551823125e-09 
-2.4086614282e-09 -2.2173683658e-09 -5.322745462e-09 5.7015217493e-08 -2.2165113311e-08 1.3691836343e-07 8.9415063154e-08 -2.8856552734e-09 -2.8679047071e-08 
7.9523864803e-08 1.4107284539e-08 -1.6722243739e-07 1.063388828e-07 -1.065490579e-08 -2.4343584345e-08 -4.9851586772e-09 -2.5700276843e-09 1.2418101907e-09 
1.2852273798e-08 -3.9471314307e-09 5.3881550914e-09 2.2572268426e-08 2.1443669214e-08 -2.9185108882e-08 1.8807119025e-08 2.6263449519e-08 -5.0341922995e-08 
1.5677837234e-08 3.2896222973e-10 -3.0536084089e-09 3.3251278761e-08 1.5107205855e-09 -1.5166338409e-08 -8.8068368571e-10 -6.6945965248e-10 -1.1996697865e-09 
-9.7816476424e-10 -7.6181492762e-10 -2.1486393976e-09 -1.5675027575e-09 -7.8045416901e-10 8.0653315631e-11 -3.8813202981e-09 -1.6491282064e-09 -5.176947548e-10 
2.2619668264e-08 5.9490457607e-09 -2.5405332797e-10 1.7417308168e-08 4.4088771251e-09 -2.3350024585e-10 3.5267530618e-08 1.3161731481e-08 -2.7498339294e-09 
-1.2315860833e-08 -3.8126584302e-09 2.4428845148e-08 -1.3511895703e-08 -2.4190409751e-09 1.4845128523e-08 6.7437437822e-08 -3.3750975852e-08 8.3129555892e-08 
-3.2836252294e-10 -1.3498093694e-10 -5.619641062e-10 -1.4203709562e-09 -4.2078649844e-10 -1.4277523971e-09 -7.3149038098e-08 1.1253550974e-08 -4.6282605744e-07 
-4.1173298275e-07 8.4756807075e-08 -2.4393150113e-07 -5.6636274991e-07 6.6069880807e-08 -3.1416586527e-08 -8.6767458317e-09 -4.0842102884e-09 5.4053445029e-10 
-4.4688343344e-09 -2.6061798962e-09 1.0567061614e-09 -3.1801808821e-09 -1.760298718e-09 -2.2561903796e-09 2.1643015862e-08 -2.7127698597e-08 6.9129518328e-08 
1.1907972951e-08 -2.4673033218e-08 6.1147621273e-08 -1.1184883532e-08 -5.8858885459e-09 8.5999669884e-09 -1.0189027384e-08 -6.7850601197e-09 6.3830237968e-09 
5.5470264894e-08 8.0688342505e-09 2.4659227199e-08 3.4374851777e-08 -2.3358733815e-09 3.6236167739e-08 -5.3746991954e-09 -2.976634828e-09 2.7990927889e-09 
-4.7689503751e-09 -3.4070880171e-09 4.394592754e-09 -4.3034056874e-09 -3.8941600407e-09 3.4325358297e-09 3.708117801e-09 -7.2999597839e-09 1.1847893062e-08 
5.9344022164e-08 3.8910529906e-08 -4.0000200697e-08 6.3335842253e-08 2.6106444803e-08 -2.3442565916e-08 4.5192845853e-08 8.0288255822e-09 -3.4974119934e-08 
4.4416944591e-08 1.7143078351e-08 -5.3777776288e-08 3.5918517237e-08 -2.4689570925e-08 6.8517857507e-08 1.4526324738e-08 -1.7575390773e-09 2.5627000651e-10 
1.8104381667e-05 -1.3597381912e-05 -3.8484688005e-06 -2.9910919084e-06 5.477067404e-06 -6.7887869279e-07 5.5553322055e-05 -1.0033862244e-06 4.3508958662e-06 
1.8632394777e-05 -2.1780009965e-07 2.9677082432e-06 1.3094772671e-06 -5.0289730107e-06 6.0070780642e-07 4.5434307883e-08 -1.5449865981e-08 3.4554417976e-08 
6.7539209206e-10 -2.4069386982e-10 -3.7302566912e-09 6.0450858811e-09 -1.2052987246e-09 -3.2140967392e-09 8.6873350322e-08 -7.6940444721e-09 1.5050910447e-07 
1.2929311388e-07 4.6893773219e-08 1.0583524475e-07 5.5411956686e-06 1.9827032979e-06 1.4648686697e-06 1.7807075055e-05 -8.8067628741e-07 5.514972075e-06 
1.1238996588e-06 2.1394961587e-06 2.0194029008e-07 3.9077126511e-08 -8.3709966807e-09 2.242090859e-08 4.8350082676e-08 -5.3248486009e-09 2.3509397087e-08 
3.8610422638e-08 -5.0079342542e-09 2.3495341257e-08 -4.009026716e-08 1.0257411504e-08 -1.2397377268e-07 8.1379020318e-09 1.0491321493e-08 -1.3230930592e-07 
5.8513966127e-08 -2.3816873239e-08 1.6291656328e-07 3.1462867782e-08 -6.3672232416e-09 1.9634005368e-08 -3.9532971726e-10 -1.2606393084e-08 6.0173358538e-08 
-8.2461010839e-09 -6.1160178194e-09 5.4835463113e-08 -8.2909800001e-10 -7.9158273952e-09 7.2363145994e-08 -4.7433313449e-09 -8.0009887994e-09 8.1200284269e-08 
-3.6474834508e-09 -1.401993027e-08 6.8880792747e-08 -9.6198314105e-10 -5.4123024962e-10 -2.303380699e-09 -1.1840371033e-09 -8.449858815e-10 -2.2116514184e-09 
1.8877922255e-08 -4.4239122107e-09 4.1271308293e-08 -5.3990433113e-09 -6.3972766858e-09 2.8334352649e-09 3.8031571858e-09 -3.9725617835e-09 2.4708833025e-09 
6.9887318658e-08 2.3113044848e-09 8.8703602585e-08 5.6582190432e-08 2.4538090472e-09 6.7334350141e-08 -3.448989725e-10 -9.3327415809e-11 -7.3391103223e-10 
5.6571008402e-08 -1.1798478323e-08 3.2846593406e-08 5.9539835023e-08 -1.4427314096e-08 3.3635995142e-08 4.4459858914e-10 -2.0211474595e-10 -3.3996184859e-09 
2.6122487779e-10 -2.1077519562e-10 -3.2530485734e-09 1.9272959954e-09 -6.4191898969e-10 -6.8047757849e-09 1.275609632e-09 -6.7297344017e-10 -5.7445787213e-09 
7.2397352184e-08 -7.4879504716e-09 2.2219689591e-07 3.7262642624e-08 -4.4006954497e-08 1.6394556353e-07 2.3947027209e-08 5.5411341429e-09 -1.0971416367e-08 
3.3432239555e-08 8.9594338867e-09 -4.3159810246e-09 -1.8073952692e-08 7.0147895028e-08 -2.6477678553e-08 1.8024883487e-10 -1.7122307698e-09 1.997516341e-09 
-1.3845218551e-08 -3.4275822885e-09 1.9777719445e-08 1.2240125101e-07 2.7929441338e-08 3.5584442039e-07 1.7863605306e-07 4.3320416509e-08 -1.5469049094e-08 
1.0806456666e-07 7.5506132415e-08 -9.1556548779e-08 4.049181933e-08 1.230799713e-09 -2.9644533285e-08 4.9732552996e-08 -1.3855115669e-09 -3.3539370213e-08 
1.0519977271e-08 -1.6892829268e-09 -1.8915197889e-09 1.4098694532e-08 -2.0221756738e-09 1.3754844e-09 9.3871965752e-09 -2.8111072971e-09 2.4494470198e-09 
1.5348690261e-08 -1.9481714102e-09 3.4455435767e-09 1.9429268337e-07 2.7730515345e-08 3.5623025065e-09 -7.9861649502e-09 -1.7838716531e-09 -1.517391967e-09 
-3.2215632208e-08 -1.5432586091e-07 -1.4773440301e-07 4.3217041896e-07 2.8251158299e-08 -2.0670089634e-07 7.1220963605e-08 1.9261407544e-08 5.7421324996e-09 
6.427101663e-08 1.3993231751e-08 1.9494329661e-08 -1.5109934037e-10 -2.4720022606e-09 5.5860888143e-09 -1.323772717e-09 -2.9441805072e-09 5.0458861669e-09 
-2.6707852697e-09 -5.6134593885e-09 1.3909942705e-08 -1.2222747684e-07 1.7282164264e-07 -6.4052215789e-08 1.0065295337e-06 1.9448473241e-07 -9.2992266336e-07 
-6.2356652009e-09 -2.4039980067e-07 5.4598090359e-08 -1.5183142039e-09 -4.3953736484e-10 -2.5600681764e-09 1.9498711071e-08 -1.9122783425e-09 7.9894154741e-09 
-2.672728491e-09 -2.0525820577e-09 -4.8198618862e-09 -1.8177170948e-09 -7.312279018e-10 -8.5548698824e-09 2.8594277983e-08 -7.8866574662e-09 8.8023813247e-08 
4.511115161e-08 -1.3362482277e-08 6.4757058792e-08 4.0870729358e-08 -6.650001888e-09 7.2514398525e-08 8.042224396e-08 -4.7784650358e-09 3.3804326731e-08 
6.0712601777e-08 -9.0322362101e-09 3.4994628536e-08 6.3745461274e-08 -2.3226209409e-08 3.4503425925e-08 6.4472541318e-08 -1.6758572622e-08 4.3436693221e-08 
9.6013018945e-09 -2.1075627968e-09 -8.5882081126e-10 1.9110943661e-08 1.6268651173e-08 -1.7295994063e-08 1.7895945471e-08 1.0563977222e-08 -8.4010660992e-09 
6.5583393524e-09 6.9781583087e-09 -3.9762725391e-09 1.9432807103e-08 1.7472536951e-08 -1.3679739405e-08 1.7308259282e-08 1.1153537568e-08 -6.1563699528e-09 
3.2809695349e-08 1.8641933261e-08 -1.7414122315e-08 6.4783520187e-09 2.405449959e-09 -5.2444813694e-09 7.8065367281e-09 -1.2463479958e-09 -4.59463244e-09 
2.6456517835e-08 -2.2270379451e-09 2.9137327679e-08 -6.1340508422e-09 -7.31072721e-09 5.5332149491e-09 -8.4184257386e-09 -8.2856739469e-09 8.7472763998e-09 
-8.8367069278e-09 -6.1003922069e-09 2.3680936441e-09 4.5758295103e-08 1.0498644393e-08 4.8690754166e-09 1.9974944352e-08 4.3317194057e-09 -7.1140073106e-09 
3.4522659767e-08 -5.0240427852e-09 4.4721839835e-08 1.1890195463e-07 -1.440410821e-08 -1.5841970361e-07 7.0494730676e-08 -6.4026695288e-09 1.178046847e-07 
8.893856175e-08 -1.4128356892e-08 8.8178483355e-08 7.5588253602e-09 -1.0276054247e-08 1.2291920477e-08 6.3335491616e-09 -1.286339111e-08 1.8387315559e-08 
-4.7962443674e-10 -5.1983115348e-10 -3.9986501446e-09 -4.5021016255e-10 -4.6702276998e-09 5.031560916e-09 -2.9021294488e-09 -7.3811496903e-09 1.2410413649e-08 
-3.0951963507e-09 -3.9287475555e-09 5.2097466239e-09 -2.8051453266e-09 -4.5275125449e-09 3.9163690008e-09 -2.5778677382e-09 -8.2731819228e-09 1.0017139331e-08 
-9.9968191101e-09 -4.8654374954e-09 3.7764697471e-08 -9.686985887e-08 1.4335421618e-07 -4.5607523201e-07 -7.4704187188e-09 -7.4523954678e-09 6.9947065247e-08 
-5.8543391457e-09 -9.3864976495e-09 7.3976136743e-08 -2.0890422824e-09 -9.1087589886e-09 9.7835353535e-08 -2.1438227847e-09 -1.6214153538e-08 7.2499642592e-08 
-9.5091175335e-09 -1.4245607701e-09 1.3364315701e-09 -4.9627849285e-09 -5.0446652989e-10 5.5079637002e-10 -8.5097739753e-09 -7.688545429e-10 3.0382429299e-10 
-4.5187065335e-09 -8.6561677206e-10 7.9635273355e-10 -9.7697889203e-09 -2.4237636866e-09 2.451601755e-09 -3.9750462153e-10 -9.6451226608e-10 -4.8533030603e-09 
4.0119999032e-11 -6.9879694446e-10 -4.2961042568e-09 -9.4044254385e-11 -7.6447989241e-10 -4.151769526e-09 4.9778749361e-08 2.0962733761e-10 -1.4874999314e-08 
4.3254659361e-08 2.322027471e-09 -1.6321439149e-08 5.5767502993e-08 -5.8320693973e-10 -1.7586990667e-08 -3.8789818864e-10 -3.1002827702e-10 1.0950286499e-10 
-1.0848392857e-09 -6.2819615726e-10 8.6099154967e-11 5.8087108204e-08 2.5745960574e-09 5.4820077696e-08 -3.5242024445e-08 -1.5121041835e-08 -1.6723638022e-07 
-2.7759229125e-08 -5.5707389986e-08 -2.3263850141e-07 4.2164128257e-08 -2.4622644966e-08 -1.0171324649e-07 2.9263157063e-08 -3.5853276246e-08 -1.000718496e-07 
3.4005288279e-08 -1.3311736324e-08 -2.0165371792e-07 6.4236608604e-08 3.2132296282e-08 -9.2461173652e-08 5.5910240408e-08 4.2809185317e-08 -9.155919006e-08 
3.88776871e-08 -2.2203603992e-11 4.3193700835e-08 2.5098236563e-08 -2.2180164977e-09 4.6774494177e-08 2.9807746114e-08 -2.8603477621e-09 7.1872094798e-08 
4.319285054e-09 -3.9044297547e-09 4.8324976505e-08 6.5511811852e-08 -6.8101532233e-09 4.7684755903e-08 3.0588734901e-08 2.7898874489e-09 -1.8431473093e-09 
4.9027305312e-08 5.6370218438e-09 -4.6179304515e-09 2.7977149565e-08 5.6507263772e-09 -3.2106522505e-09 2.1229446752e-08 3.5162868396e-09 -3.1322715428e-09 
4.2317454725e-08 8.5131100157e-09 -9.4776470481e-09 4.5442369296e-08 3.8323294966e-09 -5.5911583212e-09 -3.4744659471e-09 -2.5207188315e-09 -3.6844366253e-09 
-3.1060305216e-09 -2.1682066338e-09 -2.5838001642e-09 2.6966163612e-08 -7.0836424424e-10 -5.5244108104e-10 4.9300812461e-08 6.6947278943e-10 -3.4954386485e-09 
-3.0950577863e-09 -1.8153303035e-09 -3.5818264979e-09 6.5828836773e-08 2.4199276292e-09 2.310050489e-08 6.1069084147e-08 -3.1407628321e-10 2.4241487566e-08 
6.7497768232e-08 -4.6414734607e-10 2.765499193e-08 6.2699204234e-08 -4.6048228712e-09 3.0029631286e-08 7.4338400384e-08 -3.9817539714e-10 2.6697945953e-08 
5.0235037807e-08 3.6050106348e-09 4.8221709105e-08 4.5054399954e-08 2.5923115935e-09 3.7054814282e-08 -3.0050964645e-07 7.7549281015e-09 1.7108997062e-08 
-9.7251907016e-09 1.5439136288e-09 6.3530115592e-09 -5.305614246e-09 -2.7534733456e-09 -1.8996905166e-09 -5.2746857869e-09 -2.8871915812e-09 -3.4664256313e-09 
-5.6087474823e-09 -2.524958629e-09 -2.999262236e-09 6.0989621506e-08 -6.470799393e-09 4.375345351e-08 -9.7644031495e-09 -9.2096898145e-10 1.6502489605e-10 
3.1477184755e-08 2.7845461993e-08 -2.9214302537e-08 3.0664112923e-08 3.3150639609e-08 -3.0248317306e-08 4.2292933298e-08 3.937848011e-08 -3.3865774202e-08 
2.899191853e-08 4.4789383954e-08 -4.5071707469e-08 5.4782822473e-09 -6.8739724205e-09 9.1773633517e-08 8.0226262744e-09 5.940349397e-08 -6.9492907376e-08 
1.6455562212e-08 6.0151475563e-08 -6.7437397862e-08 -1.0853239165e-09 -5.353276216e-09 6.2060379784e-08 2.6935181281e-08 6.8370400734e-09 -2.4636868896e-09 
4.5323098941e-08 8.6467825326e-09 -1.489932594e-09 2.6538790963e-08 5.5126705454e-09 -2.2447398675e-10 1.9301019131e-08 5.7720441798e-09 -1.0631882813e-09 
3.9592292784e-08 1.1461985037e-08 -4.3155952503e-09 5.6552380614e-10 -5.7801936148e-10 -6.3593042963e-09 -1.3061694108e-10 -7.2521964338e-10 -5.8235191153e-09 
6.6389718639e-08 -4.1655220491e-09 2.5400411263e-09 6.8210543245e-08 -3.013108663e-09 2.2045000548e-08 7.3759297298e-08 -4.2659129973e-08 -1.8886034888e-08 
1.3458962321e-07 -6.1002429546e-09 -3.6203077039e-08 -8.245035468e-10 3.5736238982e-08 1.3637389878e-07 6.1122873471e-08 1.045375948e-08 9.833029668e-08 
4.5866204227e-08 4.8747770241e-08 2.2043053034e-07 4.2047633576e-08 -2.7207925263e-08 1.2770456714e-07 7.3328527396e-08 2.3290177169e-08 1.8574154101e-07 
2.2790639231e-08 -3.5991914815e-09 -8.3727095037e-08 4.0946701006e-09 -5.6561113151e-09 -1.1164094897e-07 4.4923795482e-08 -3.758595991e-09 -5.0022254785e-08 
3.4115766567e-08 -4.3954653973e-09 -7.1164309594e-08 5.9556630391e-10 -8.7384675238e-09 1.2433306325e-08 4.660910842e-10 -9.7604930807e-09 1.5095843397e-08 
-7.4690619674e-10 -6.558260497e-09 6.2381721874e-09 -5.7247332005e-08 1.9910937438e-07 -1.1844458944e-07 -8.5314997076e-08 4.8444309678e-08 -3.3406844487e-07 
6.2437630805e-08 5.9534636786e-09 2.301042486e-08 6.1717726439e-08 3.0747273329e-09 2.062245765e-08 -1.3836208202e-08 -2.9910661964e-09 2.0136898775e-08 
6.4242650998e-08 -2.235019926e-08 6.4427740153e-08 -3.8820176193e-09 -8.923631545e-10 -4.1420745267e-10 -3.9640848617e-09 -7.2862246622e-10 -1.2093765945e-09 
2.4492143801e-08 -2.4115311288e-09 4.9183738316e-09 1.8277603802e-08 -1.0183561537e-09 4.341407701e-09 1.7584522147e-08 -3.0060718263e-09 5.4237257446e-09 
-5.5836778033e-10 -5.9492936375e-10 -1.0198898445e-09 -1.8510882137e-09 -1.2020339202e-09 -1.4556811788e-09 -1.9684790422e-09 -1.3141011115e-09 -2.7433276268e-09 
1.9590616314e-08 4.3202082878e-08 -8.9221960994e-08 3.6791429742e-08 3.4298348234e-08 -8.0744702892e-08 1.2304376913e-08 3.0846182645e-08 -7.7080631235e-08 
2.3792246394e-08 3.7719576069e-08 -6.4435387877e-08 3.5898146486e-08 3.0395139352e-08 -5.7005136399e-08 4.6246054705e-08 3.9061437345e-08 -5.3583473864e-08 
2.6358911043e-08 3.1189692167e-08 -4.1052126657e-08 3.8646361028e-08 2.5193133101e-08 -3.2579512103e-08 6.486412304e-08 -1.0784764581e-08 6.4890479915e-10 
7.0549767026e-08 -8.407082669e-09 3.8287951655e-08 1.0296024639e-08 -1.1711923047e-08 1.5711100999e-08 3.9122398248e-05 -9.1764960619e-06 8.3184481928e-06 
2.9137248577e-08 -7.35809981e-10 1.4994933023e-08 -1.6379821861e-09 -5.4311549102e-09 3.9093360485e-09 -1.5674580068e-09 -3.9464567679e-09 -9.0643248932e-10 
-8.6511252106e-10 -1.8186976424e-08 5.5045385602e-08 3.2889043974e-09 -2.049185764e-08 7.2274798096e-08 8.3952773662e-09 -2.5132580106e-08 8.6360340331e-08 
4.0604383838e-09 -2.1711475364e-08 6.6100867828e-08 1.2725570146e-08 -6.7619198523e-09 6.9069645705e-08 2.9415148964e-09 -6.0336317207e-09 5.1202765707e-08 
3.2933367875e-08 4.6514817718e-08 -1.163021564e-07 2.9585779242e-08 5.9765620964e-08 -1.0252170143e-07 4.925324365e-08 4.997463958e-08 -4.5820118725e-08 
7.7083806512e-08 -3.2958645876e-08 6.1891726159e-08 8.0554791484e-08 -2.7936921908e-08 5.1792792732e-08 8.9032336963e-08 -3.4394654897e-08 7.2129388421e-08 
7.3458840092e-08 1.187317671e-09 2.5052760651e-08 7.1873190355e-08 -8.4127170352e-10 3.3261619804e-08 3.6791923953e-09 3.6109079271e-08 -1.0894106564e-07 
3.5474369708e-08 4.1169555281e-08 -1.1843297764e-07 2.1159167324e-08 2.4443603219e-08 -1.0539461185e-07 5.7415873293e-08 -1.6877883856e-09 -4.8018431442e-09 
2.1470720156e-08 9.5218120721e-09 -7.0010347539e-09 2.219547838e-08 7.9167309991e-09 -7.3293801556e-09 1.9388494457e-08 5.4890508361e-09 -3.9677261932e-09 
1.9961921032e-08 4.2540555231e-09 -3.756560347e-09 3.6147643011e-08 1.084838089e-08 -1.5651167928e-08 -4.444330361e-09 -5.787580204e-09 7.062087087e-08 
6.0141743692e-09 -7.1999819983e-09 8.1075099636e-08 -5.8809062175e-09 -3.9786700991e-09 -2.4105825992e-09 -7.1865386758e-09 -4.493407483e-09 -1.5388568822e-09 
-5.9754241491e-09 -4.359936106e-09 -2.7326411961e-09 -5.4980734819e-09 -3.5135210465e-09 -3.837580654e-09 7.4879509133e-09 6.6605922325e-09 -2.4699651819e-09 
1.9237361502e-08 9.9565245052e-09 -3.2754808311e-09 -8.1769741903e-09 1.7317255346e-08 1.5289320326e-08 7.3648112054e-08 -2.2440481103e-08 4.7842402689e-08 
-2.5160614356e-09 -3.795262341e-10 2.2118657237e-10 5.3197224875e-08 2.0679808207e-08 -2.3634186586e-09 1.3395922483e-07 -1.9959611263e-08 1.5717839601e-07 
4.5837198659e-08 -2.1871475028e-08 6.4416619808e-08 3.7146094385e-10 -1.1758085886e-08 1.6956358672e-08 -7.8535604151e-10 -5.5654752571e-10 -7.4296054265e-11 
7.4492648311e-09 -1.7730130909e-08 6.2385549114e-08 -4.2549012854e-09 -9.900373651e-09 1.4283422245e-08 -1.3561257588e-09 -2.3401575691e-10 4.6365217591e-10 
-2.1395769946e-09 -1.1183714097e-09 9.8239677615e-10 3.9198462658e-09 -1.9529639471e-08 7.3713133235e-08 -2.3879964366e-10 -5.88094101e-09 4.5969857384e-09 
-1.7686026743e-10 -5.0475448936e-09 4.5163879062e-09 2.0543052949e-08 -4.5661142937e-10 5.8195278808e-09 -1.885696457e-09 -1.0650530078e-09 -5.2736007145e-11 
6.5963909691e-08 -2.0129521898e-08 4.0696878266e-08 -2.0417207545e-08 5.9107078204e-08 -6.5810587362e-08 -2.2860126837e-09 -4.8406010249e-09 3.6136646643e-09 
-2.6590625456e-07 4.640614619e-08 -2.1444128088e-07 -3.3228140514e-07 -1.4230434154e-08 -1.7173649894e-07 -7.9092143948e-10 -5.2649035147e-10 -4.049709496e-10 
-1.0130131639e-09 -5.2485259235e-10 -1.4628506222e-10 -1.551435218e-10 -1.1231849638e-10 4.5091400498e-11 -5.3322306105e-10 -4.9890081294e-10 -4.0715203233e-10 
-8.9377798771e-10 -6.4063741458e-10 -2.75641033e-10 1.2146707073e-08 1.8555743077e-09 -2.9679179297e-08 -5.0394115072e-10 -5.5014800824e-09 3.8943950744e-09 
-2.4203619505e-09 -4.6571127694e-09 3.1422422971e-09 1.924088759e-08 1.5240233429e-09 -4.3754190611e-08 1.9397070072e-08 3.3859799113e-09 -4.1144879327e-08 
3.837808898e-08 1.1209281789e-08 -1.1948308051e-08 2.8047294243e-08 1.5444134549e-08 -3.0778570554e-08 5.7261645662e-08 2.1733522444e-08 -1.6589424575e-08 
2.5118780504e-08 4.0685225285e-09 7.9209024408e-10 1.8550553821e-08 4.6545040624e-09 -4.5325982211e-10 -5.8061332704e-10 -4.2760224181e-10 -7.6559430105e-12 
-4.7312106842e-10 -4.0436939768e-10 -5.4760894493e-11 -4.2898743083e-09 -2.5798959292e-09 -1.808149605e-09 -2.4606585514e-09 -1.6218895163e-09 -1.4153908658e-09 
6.1790666571e-05 -6.5071670255e-07 3.5680509898e-06 7.3599841186e-09 5.1408255021e-09 -2.1346382645e-09 4.1501790421e-08 1.4335719899e-08 -1.5706216865e-08 
2.6385523103e-08 8.371674809e-09 -4.8489194875e-09 2.0209988987e-08 9.8800402776e-09 -4.9716123251e-09 3.9931799939e-08 1.6127473988e-08 -1.0723537441e-08 
4.9425808828e-08 2.0237252447e-08 1.0089700536e-08 6.0646962881e-08 5.9078189092e-10 1.6746651686e-07 4.4890624202e-08 -4.8101292692e-10 3.402307912e-08 
1.8117113418e-07 5.5439491379e-08 -2.5123937316e-08 2.0234845581e-08 9.7366135276e-09 -4.06060166e-09 2.1997205823e-08 8.7553697298e-09 -3.4066969072e-09 
3.3848034209e-08 1.4609510231e-08 -5.9844446549e-09 1.8493950615e-08 6.7309264389e-09 -1.6676501252e-09 2.3811838119e-09 -5.3672719344e-09 4.8444920508e-09 
3.1843649835e-09 -4.2049605191e-09 2.8620336748e-09 -5.8619142292e-09 -2.1505008199e-09 -1.7321809736e-09 -2.3677055604e-08 -2.9166455647e-08 -7.6801226124e-08 
2.6866650863e-08 -2.5630415622e-08 -3.4289075608e-07 1.0414730068e-07 -2.0196025763e-08 -1.5775426005e-07 2.7148841967e-09 -6.1868367673e-10 -8.1463758923e-09 
7.5292414379e-09 -1.3754226358e-09 -6.0696824073e-09 6.0442483076e-09 -2.961295028e-10 -6.4876649213e-09 7.4776709696e-09 -5.3373268259e-10 -8.2932560117e-09 
2.3943771317e-09 -4.2743801294e-10 -7.5354337939e-09 5.0762721888e-08 8.8976105552e-09 1.4605240747e-08 5.1422996313e-08 7.7121791368e-09 2.2577868903e-08 
6.25935248e-09 -5.4086754833e-09 4.7599014859e-09 8.6974828488e-08 5.0915893818e-09 7.8387168932e-08 1.3023854013e-08 -2.3825719728e-09 1.3622527678e-08 
1.9093629571e-08 -2.6449233504e-09 1.6690701998e-08 1.8588083023e-08 -3.2872263676e-09 4.8590340451e-09 -6.8012943796e-09 -5.6140193742e-09 3.3880430766e-10 
-5.9864554629e-09 -8.7264102576e-10 -4.3531330698e-09 -4.360301814e-09 -9.8318501111e-10 -6.0831264063e-09 -3.5718389335e-09 -5.4062657801e-10 -5.0967327461e-09 
4.5333813303e-08 1.5287823794e-08 -3.1139415841e-08 3.8370894133e-08 5.9107256322e-09 -1.7996955098e-08 4.9120536238e-08 8.4859328485e-09 -2.0566654892e-08 
-4.5464270955e-09 -2.430922172e-09 4.8991612974e-10 -4.2366819871e-09 -2.1970967646e-09 7.8010973367e-10 7.0244289771e-08 7.7513628585e-10 5.6312430713e-08 
-2.0070599879e-09 -1.3084004915e-08 2.0827262731e-08 5.9147998216e-08 -7.798974241e-10 1.9214473697e-08 -4.5803554795e-09 -3.8295160736e-09 -3.7520989129e-09 
-4.2815708189e-09 -3.1554460078e-09 -4.3921791941e-09 2.733296393e-08 -2.281233709e-09 1.4452584769e-08 3.1278765241e-08 -2.02064381e-09 1.4553315969e-08 
3.7256116974e-08 -2.2536679906e-09 1.8711713228e-08 3.8912747385e-08 2.5861260418e-08 -1.7896694842e-08 2.9584561772e-08 3.0056051218e-08 -2.5769193603e-08 
2.7443824293e-08 2.5319306249e-08 -2.0091962425e-08 3.933743335e-08 2.5653499743e-08 -2.2463749147e-08 2.992639124e-08 3.3635318044e-08 -3.3324476121e-08 
4.2632141772e-08 3.385629611e-08 -2.9450431527e-08 -6.8348118808e-09 -4.2025934556e-09 1.62166251e-09 5.5962441851e-08 -2.0564444543e-09 2.1535770104e-08 
-1.2786018023e-08 -4.1811781809e-09 2.9705730342e-08 -1.295277996e-08 -4.6498634213e-09 3.5312001657e-08 -1.4009234102e-08 -3.6089021383e-09 2.8376024682e-08 
-1.3256611939e-08 -4.0019540214e-09 3.2361909148e-08 1.126555863e-09 -3.3981389892e-10 -5.1249645497e-09 -1.8774746421e-09 1.7456920156e-08 -3.8012472826e-07 
-1.1141566458e-07 -7.7768555795e-08 -9.3598020802e-08 5.6355044482e-08 9.9441537061e-10 2.1206349736e-08 -1.3870560096e-10 -1.4740104201e-08 2.5845749827e-08 
1.2110210771e-06 -1.1033787006e-07 3.4631700549e-07 -7.4149064812e-07 -5.3186632499e-07 -6.8397427594e-07 4.8281577683e-08 2.0182771354e-08 -2.9333874956e-08 
4.8424712693e-08 2.4106648795e-08 -5.255162813e-08 5.2576219666e-08 2.7894941973e-08 -3.3639517522e-08 1.0915089322e-08 -2.9794162014e-09 3.4500252919e-08 
2.591287155e-08 3.4638781777e-09 -8.5788014689e-09 6.1938513445e-08 -2.6300987061e-09 -1.7350551276e-08 -1.5433104312e-09 -5.8768745846e-10 -1.5892339811e-11 
-1.3979209126e-09 -5.2747307927e-10 1.1749319088e-10 -9.9702490741e-10 -5.1969707263e-10 9.3339715969e-11 4.3198752544e-08 6.2689470367e-09 6.0264716758e-09 
2.6966222465e-08 -5.3098984399e-08 1.4841806208e-08 6.6799970366e-09 7.7633111555e-08 -9.5546543179e-08 -9.2711090919e-10 -3.4684847666e-09 2.0618297066e-09 
-3.2286012768e-10 -6.2756314178e-09 5.2633517275e-09 -2.3573485839e-09 -4.0728845725e-10 8.0908587386e-11 -2.8093546698e-09 -9.946490836e-10 1.3468553074e-10 
8.6829798786e-08 1.8613229782e-09 5.1151605455e-08 1.1229829975e-07 3.5497940338e-09 6.5071086924e-08 9.9980022309e-08 -1.539903278e-10 3.7524293775e-08 
1.6668691113e-08 1.5476963174e-09 9.0256201205e-10 3.5774652439e-08 4.0501921903e-09 4.7057602949e-09 1.6465929832e-08 -1.921367703e-09 1.0090702292e-08 
-4.3619525802e-09 -2.3995175102e-09 5.3342759623e-10 4.3976924666e-08 -8.531506549e-09 2.1894332137e-08 5.2297241628e-08 -1.1274111687e-08 2.8755787005e-08 
5.1918540432e-08 -4.9481599891e-09 2.1402175362e-08 -9.9220507034e-10 -1.1131945252e-09 -1.6904483409e-09 2.9693809269e-08 -2.1966495604e-08 5.018618534e-08 
5.3903400628e-08 3.8170163769e-09 -1.8470835361e-08 -2.3620607276e-09 -4.1748586149e-10 -5.8349970671e-09 -1.9109408347e-09 -9.4759748813e-10 -6.0622235723e-09 
1.3716700337e-08 -1.0322030947e-09 4.6008071598e-09 -3.8717455847e-09 -1.3504933493e-09 2.9777482614e-10 -5.8892866237e-09 -1.9454525323e-09 7.9610999183e-10 
-4.664363304e-09 -1.8893998784e-09 7.395697763e-10 5.5372446285e-08 2.5546856255e-08 -5.9286696928e-08 4.66788418e-08 1.9873611283e-08 -8.0268706429e-08 
1.5768742607e-08 -3.8005252703e-09 5.0314174601e-09 1.7205943497e-08 -3.1958077348e-09 3.4312019962e-09 9.3446564874e-09 -5.1957172376e-09 6.4557214176e-08 
6.5014878566e-08 -3.1389103615e-09 4.5263750316e-08 7.4579638833e-08 -1.4128917994e-09 5.5196441439e-08 -4.8648437827e-08 3.3820010009e-08 -1.7751382807e-07 
-1.0676226499e-07 2.845867755e-08 -2.0399086863e-07 8.6246329325e-08 -1.0735394239e-08 8.6022408752e-08 6.374294374e-08 -7.1277032146e-09 1.4488730785e-07 
-5.1389855297e-09 -3.2906215217e-09 2.4547799833e-09 -4.0282370581e-09 -4.1047136318e-09 3.0699420567e-09 1.2182257744e-07 2.3593981001e-08 -3.065062977e-07 
1.4664409245e-07 -8.8667178151e-10 -6.4733260099e-08 -4.5201162938e-09 -2.9904205126e-09 -2.9624797218e-09 -4.9814495405e-09 -2.5395301262e-09 -4.4665754027e-09 
2.6933618751e-08 4.3908708091e-08 -1.5857220497e-07 -2.6004842304e-09 -3.8122081393e-09 -3.1660291464e-09 -1.4414019203e-09 -2.2515952441e-10 3.8658716293e-11 
3.9093484089e-08 -5.8150046854e-09 1.5385404576e-08 -2.2500066547e-09 -1.195389534e-08 1.9436316985e-08 8.6167219995e-10 -1.5872617877e-08 2.980176708e-08 
6.3918440978e-10 -1.4427221104e-08 2.8055711152e-08 -3.2946365981e-07 1.8686041855e-06 -7.7512052934e-07 -4.2238563827e-10 -1.1340887188e-08 1.7335701723e-08 
-1.7339796442e-09 -2.063339132e-10 1.4133518258e-10 -4.1461496068e-09 -4.9184756005e-10 -3.9872956972e-10 6.1269838053e-09 -8.268670675e-10 -7.4636801736e-09 
7.6311326711e-09 7.3768487753e-09 -3.5029572515e-09 1.8102248323e-08 1.0522185291e-08 -4.5285265698e-09 5.0837526351e-09 3.2433383198e-10 -3.4905916821e-09 
2.2324807856e-09 -2.6629959116e-10 -5.8657755808e-09 2.2139230498e-08 8.6863089381e-09 -2.0351906379e-09 1.7840415547e-08 6.0516857466e-09 -9.7946758619e-10 
1.2327204492e-08 1.284106638e-09 1.2774531139e-10 7.9059205561e-08 2.063381149e-09 5.7327732295e-08 3.5008150192e-09 -2.2683331365e-09 6.8008441394e-09 
2.838499886e-09 -2.1114044426e-09 7.8223852053e-09 1.3962761806e-08 -6.0615903292e-10 5.8943798018e-09 1.0685965609e-08 -2.156336506e-10 9.1310133641e-10 
6.0079117851e-10 -6.3389022626e-09 8.1780480813e-08 2.4383566786e-08 -1.9195929329e-10 -8.91278554e-11 4.325454014e-08 -1.804238493e-10 -4.3012969001e-09 
5.4041441164e-08 1.2898862e-08 2.940290114e-08 -1.5122228327e-07 -3.9896896554e-08 -2.8604238272e-07 -1.2174135485e-09 -6.8854027147e-10 -1.6209020599e-10 
-1.4484749603e-09 -8.6610658748e-10 -1.0511112459e-10 3.4570080852e-08 -6.5671899434e-09 1.6862851575e-08 -1.4797998382e-07 1.1479219249e-07 -1.4299284297e-07 
7.1059968738e-08 -3.4467636075e-08 6.3467422281e-08 6.7602039642e-08 -1.9507745142e-08 5.8655182935e-08 6.1061955619e-08 -1.659469211e-08 4.0745595557e-08 
-3.6541499713e-09 -1.407748792e-08 2.8812248939e-08 2.0476314739e-09 -1.8349029276e-08 4.1802284591e-08 2.7284577504e-07 -2.813120307e-07 -5.0053177882e-07 
-5.1639484607e-10 -4.7980763595e-10 -7.1408376523e-10 2.1356108519e-08 -5.8452810783e-10 3.3432619345e-09 5.6707171071e-08 9.2657664791e-09 -4.1962641946e-09 
5.0137543369e-08 1.6269981253e-08 -9.2746064956e-09 2.7861791489e-08 4.3749709687e-09 -1.3154864339e-09 2.9418993674e-08 1.6486903162e-09 2.2253229159e-10 
2.1454061722e-08 1.2983149042e-09 8.3789028909e-10 4.2859506356e-08 4.947184602e-09 -6.5862439885e-10 9.3431982117e-09 -1.5649239145e-09 -3.7077762155e-09 
6.7015469501e-09 -2.0628745116e-10 -5.1011784205e-09 6.0550742883e-09 9.8474072697e-08 -2.0647146285e-07 -6.2315025383e-08 1.2975565252e-07 -3.0074436393e-07 
4.3132135474e-08 6.9382107319e-08 -1.2208743603e-07 -6.6912131841e-09 -2.0511087061e-09 1.3450267341e-09 -5.1583663432e-09 -2.1073360962e-09 1.0656921245e-09 
-5.4709591038e-10 -4.6908165301e-10 -1.3572348636e-10 -5.6890434158e-10 -5.6661984948e-10 -4.9510226142e-10 4.1313265665e-09 -6.844348533e-09 5.874839053e-09 
4.1030877433e-08 6.513459669e-10 -1.3421666872e-08 3.3950997722e-08 1.7968768118e-08 -8.2827331457e-09 2.9639369021e-08 2.1007320999e-08 -1.4447245695e-08 
2.0745725034e-08 4.804249606e-08 -7.9992139005e-08 1.8201568116e-08 5.9874211612e-08 -1.0684399127e-07 4.0083171145e-08 5.0114697789e-08 -5.7632234657e-08 
1.4698731555e-08 6.4499845182e-08 -9.9175670186e-08 4.295071337e-08 4.2879045664e-08 -4.9257984832e-08 2.2314946124e-08 -3.0484155756e-09 4.6243159228e-09 
1.8416656267e-08 -2.1275424756e-09 2.6447119209e-09 -1.7544608604e-09 -7.6667985591e-09 8.6249293261e-09 -4.6349697043e-07 7.3489826811e-09 1.0390091199e-07 
-3.7815403547e-11 -3.8792973581e-09 2.3081502702e-09 2.5596948248e-08 5.3006545365e-10 -4.1007698417e-09 3.6856230172e-08 2.1531254923e-10 -7.1743649237e-09 
1.7058879929e-08 1.039156435e-08 -4.1928618433e-09 2.0328020006e-08 1.6917798125e-08 -9.9708440527e-09 4.8035950861e-08 3.1887939511e-08 -1.4785882962e-08 
5.2885872119e-08 2.4662815226e-08 1.1934638838e-09 5.7335670972e-08 2.4228039192e-08 -2.6617584836e-09 5.3876531207e-08 3.1566843945e-08 -1.6819111829e-08 
5.4857859347e-08 2.3733853394e-08 5.7456072038e-09 -3.6696072904e-09 -2.9249379697e-09 -4.4897777054e-09 4.9303641742e-08 5.3058296208e-10 2.4737681337e-08 
1.4296396411e-08 -2.3705994312e-09 1.1738865832e-08 9.7887743549e-09 1.7759926994e-10 9.7544635019e-10 1.9228951328e-07 -3.1009085054e-08 1.8915409218e-07 
-3.4537127926e-10 -6.8470855218e-10 -9.1799109003e-09 9.4871825972e-11 -7.0008587624e-11 -4.7027352564e-09 -7.1474074003e-10 -5.4446669257e-10 -7.7460285556e-09 
6.657192074e-08 -6.9193578888e-09 4.4418129047e-08 2.4136302761e-09 -1.9295950638e-09 -5.6425885018e-09 4.883984494e-07 -1.5510897463e-07 2.4310254005e-07 
1.5321366796e-07 -1.4684919695e-07 -2.1182031129e-07 2.6498349771e-08 3.1909885423e-09 7.2538590717e-10 5.9819729493e-08 8.7803522475e-09 -1.0061626281e-08 
-3.3198201588e-10 -1.5006135774e-10 -1.0767401922e-09 8.8645563005e-09 8.807935267e-09 -7.2051016289e-09 4.2114291807e-06 -2.0217868603e-07 9.095602478e-07 
-4.506273186e-09 -3.3944484991e-09 -3.7254160222e-09 4.0975551369e-08 2.5593071848e-08 -1.122145445e-07 -2.0798273781e-08 5.0896557221e-08 5.8909047024e-09 
1.6861989553e-08 -1.2682044499e-09 2.4703240279e-09 -4.4350272667e-09 -4.8241539614e-09 -1.4143069399e-09 -4.3815320095e-09 -4.1379788731e-09 -3.5156859732e-09 
2.2606630604e-08 -9.3404981321e-09 3.9998354413e-08 2.4312709584e-08 2.3815854222e-08 -2.3100070982e-08 -4.1374766345e-09 -2.6925748009e-09 -3.6650801316e-09 
2.532379248e-09 -3.8146067797e-09 2.5124113092e-09 -5.4461777651e-10 -2.9366857118e-10 -4.8817571385e-09 -7.5403726219e-10 -4.933984676e-10 -3.8039089245e-09 
-3.2623592273e-10 -4.6531451854e-10 -4.7679592532e-09 1.9164462021e-08 -2.0251109907e-09 8.8690684701e-09 -1.8093428426e-09 -7.6145828734e-10 9.0675689073e-11 
1.0596773056e-05 -3.3065743553e-06 -7.0980842865e-06 1.1098895529e-06 5.6841683304e-07 5.0131353839e-07 1.9114934713e-08 -8.5439326959e-10 1.2070928511e-08 
7.8531521643e-09 -1.7502396604e-09 8.7549068815e-09 -7.3350830187e-10 -9.5699628392e-10 -2.7460834886e-09 -3.9983453253e-10 -8.4874585578e-10 -3.6548718954e-09 
-5.2369721522e-10 -7.8558708227e-10 -2.6509508883e-09 -9.4898544498e-10 -1.4381048504e-09 -5.5435727083e-09 -5.7188853119e-09 -3.6771232643e-09 1.8042716106e-08 
-1.2002021238e-07 1.0159659947e-07 -3.9242349703e-07 -3.6567418959e-08 -1.5820012934e-09 -3.1817792664e-07 2.5659996073e-08 8.7719809781e-09 -1.7808720473e-07 
2.9959637818e-08 2.7389485132e-08 -1.7033007434e-07 5.5651222477e-08 1.5508016433e-08 -1.4935865786e-08 5.3890765761e-08 1.2436228264e-08 -1.8969718385e-08 
7.0177649892e-08 2.0281555009e-08 6.0484097532e-08 3.7094175149e-08 -1.1236562797e-08 1.5381665382e-07 5.4111073846e-08 3.8442558255e-08 -3.2892676529e-08 
-4.9102561347e-09 -5.4109721135e-09 1.6077542526e-10 2.0193901949e-08 9.134617891e-09 -3.0429944931e-09 6.0067645766e-08 -5.20130041e-08 -5.396732162e-08 
7.6334885201e-08 -2.5088473993e-08 3.3071819137e-08 -9.7156047727e-09 -1.4453819815e-09 -2.91514011e-08 -3.9955200244e-09 -4.6410533601e-09 5.405805118e-08 
1.5247606887e-09 -5.0674767723e-09 6.0081196794e-08 -1.0652684027e-09 -6.7059968489e-10 3.104973478e-11 -2.1522469223e-09 -1.4201503031e-09 -6.7529699427e-10 
2.948705354e-08 2.1387599132e-08 -1.7622035975e-08 -7.8393464459e-09 -4.3982740107e-09 3.0907886883e-08 -5.9355177037e-09 -2.2906189327e-09 1.7008930777e-09 
5.4973942155e-08 3.3161823725e-08 -2.9251710838e-08 8.6833247855e-08 8.1820751295e-09 -1.1509615949e-07 5.0858242239e-08 -2.9078886469e-08 -4.4691442657e-08 
-2.7470021627e-09 -1.3563634976e-09 1.3805579605e-09 -2.5593581466e-09 -1.3482040102e-09 -4.3976192875e-10 -3.5959279281e-09 -9.1224867123e-10 -9.9750819558e-10 
7.8426090729e-08 -1.8763735187e-09 2.6107062791e-07 7.4014293923e-08 5.8595308012e-08 -2.8264421397e-08 -2.6444429525e-07 1.9162126944e-08 5.6379744459e-09 
2.223558077e-07 2.1675689051e-09 1.3635455004e-07 1.8799672636e-07 -2.9711002011e-07 2.0203078836e-07 1.0983886965e-06 2.4369813716e-08 1.7924149344e-07 
2.4221937387e-08 1.8965223244e-08 -1.1662040213e-08 2.2052330454e-08 2.0025024115e-08 -1.4394168994e-08 3.943396757e-08 -2.132826193e-09 2.8476770835e-08 
-2.8947315157e-09 -1.9260460532e-09 -2.7299727819e-09 -1.8569860683e-09 -2.8129080807e-10 4.5548791519e-10 4.700563771e-08 -1.9585109427e-09 2.2712981403e-08 
5.6951699877e-08 -2.2087302434e-09 2.5950035056e-08 4.7808423581e-08 -2.0612752398e-09 2.7572831628e-08 1.7898016853e-07 8.0056284931e-09 -1.8568286482e-08 
-1.0659986888e-08 -1.0175570164e-09 1.6383847004e-09 -2.583871769e-09 -6.1893405188e-10 -3.1014307709e-09 -4.753149541e-09 -1.1754839745e-09 1.108571094e-09 
-1.176211733e-07 3.1797669189e-09 -1.6163078035e-07 -6.8240536365e-08 -2.7385243878e-09 -2.1205068073e-07 -3.6256491307e-09 -2.1514735094e-09 6.808245968e-10 
5.465326135e-08 3.8577669994e-08 -1.3323152148e-07 1.8286019022e-08 4.9329102602e-09 -4.6832761533e-09 7.3073273253e-09 -2.1635020513e-09 1.051920083e-08 
4.9812415664e-09 -4.3743474075e-09 1.0076562551e-08 -3.0954286086e-09 -6.1764846664e-09 3.2442655867e-09 -3.2664474478e-09 -5.1304767379e-09 8.8193197499e-10 
-1.6376606535e-10 -3.562912628e-09 5.1236429037e-09 1.9345307233e-08 -5.8006769329e-10 1.8732631864e-09 5.7674564632e-09 -2.0501535188e-09 8.3841669882e-09 
-2.2921393808e-09 -2.058368872e-10 1.8752583273e-10 -6.3400677847e-09 -5.6762748635e-10 -1.5879941656e-10 7.1689627399e-08 2.3695780245e-08 -7.4146051836e-08 
1.0373426599e-07 -2.1624920511e-09 -2.598462956e-08 9.0401280578e-08 1.7166088513e-09 8.3420115755e-10 4.8935551398e-08 1.1592614206e-08 1.2283271308e-08 
3.6476003411e-08 -1.4452537213e-08 5.0766126118e-08 6.2641414113e-08 -1.5393404945e-09 3.105424904e-08 -2.4013670329e-08 6.5281786775e-08 -1.7323219589e-07 
3.3128083188e-08 5.4600343257e-08 -1.4153044839e-07 -2.2068245438e-07 5.2303730256e-08 -5.2596491847e-07 -1.2582125378e-07 1.0459723813e-07 -2.5569518799e-07 
-1.599267051e-07 9.8831480195e-08 -2.6947523807e-07 -2.4562952327e-09 -4.9648842628e-08 -7.9073527566e-08 6.2095619845e-10 -3.9836195357e-10 1.015810993e-09 
5.4080396607e-08 -4.3883752864e-10 1.2965920617e-07 -1.8628783766e-09 -7.1506803282e-09 9.1367471353e-08 -8.3814065205e-10 -4.190061127e-10 -3.0572798451e-09 
4.9528130656e-08 1.9410246263e-09 5.8523141558e-08 3.8175855308e-08 -1.4254904198e-09 4.3991980208e-08 3.6485665123e-08 -3.0178777878e-09 4.2645332938e-08 
7.3984619645e-08 -2.0299873682e-09 2.705306956e-08 4.0968125328e-08 2.4613532858e-09 5.0774496773e-08 5.9844317226e-10 -1.7426993157e-08 4.2371483614e-08 
4.9787744542e-08 -9.3664627592e-09 7.9712277235e-08 4.5817424026e-08 -5.7837312381e-09 5.7997873792e-08 7.2738271195e-08 -3.5734684017e-08 8.992053801e-08 
2.5682173631e-08 1.6245029363e-09 -3.7361286118e-09 8.4083537904e-08 2.9294210051e-08 -5.4164696898e-08 5.460980857e-08 -1.3929439075e-09 2.2839438589e-08 
5.1065542818e-08 2.6077674508e-10 1.9222509124e-08 1.2683316331e-07 2.6109027452e-09 3.7166315584e-08 -1.3716254426e-09 -7.7420930262e-10 6.5600564889e-11 
4.5384921019e-08 -1.5404352576e-09 1.9553580216e-08 2.5043529798e-08 -1.6243854187e-09 1.5857996515e-08 -4.3042085431e-09 -7.555321316e-09 2.2660615197e-08 
4.871119723e-08 2.1056271611e-08 -2.086474672e-08 7.8623869241e-08 1.8850321587e-08 -2.6712764452e-08 3.7196246037e-08 -2.1765115647e-08 1.5670565703e-07 
1.0342566699e-09 2.2791785093e-10 -4.5839851099e-09 -2.201012764e-09 -4.5447460243e-09 3.1497489778e-08 1.6364262562e-09 -1.0600460306e-09 -8.7053094453e-10 
1.3036518142e-09 2.4152955081e-10 -3.4121361232e-09 1.0898170257e-09 -6.0320130308e-10 -3.4736761315e-09 5.2869890295e-08 -3.8339803063e-10 -1.4528364723e-08 
-7.2613688814e-09 -4.3521395246e-09 -1.0355946605e-09 4.8840538138e-08 2.6358731887e-08 -1.3856232586e-08 4.9775479778e-08 2.730858726e-08 -2.106981889e-08 
3.9376226831e-08 -1.6603953264e-09 6.5717749042e-08 7.4903909889e-08 3.5556379003e-09 2.1592783722e-08 9.2208271507e-08 3.1633240305e-09 2.1747866324e-08 
8.4975235246e-08 -6.7934632565e-10 3.3280274787e-08 -2.9222797416e-09 -3.1694284706e-10 2.8123116653e-10 1.9650339501e-08 -8.2118939609e-10 5.8566266361e-09 
1.7892676063e-08 -8.4164295096e-10 2.8763249671e-09 7.4935550094e-08 2.9911371554e-09 6.6226907802e-08 -1.4894792159e-08 1.4749310948e-08 -1.1742649225e-07 
2.059449016e-09 2.5799993588e-08 -9.5990645019e-08 5.2158165974e-08 -5.5696083043e-09 2.2304012496e-07 8.7181026203e-08 -7.3836604641e-09 2.3840335639e-07 
6.0805023484e-08 -5.6985898575e-09 6.1195490428e-08 1.9208714799e-06 -3.6598464119e-07 1.0574435932e-07 -1.6540945427e-08 5.0919586725e-08 -1.467398366e-07 
-7.8319119058e-08 7.054035812e-08 -6.8590867139e-07 6.9551665307e-08 6.9511777993e-09 1.852743213e-07 1.5000016029e-07 3.2660781582e-08 2.4104057071e-07 
6.3666459294e-08 3.6707175735e-08 2.6645246056e-07 -1.5336951543e-09 -1.3445910796e-09 -2.9550392993e-09 2.2230958229e-09 -5.2593308267e-09 5.3353397936e-09 
-2.0865757264e-09 -2.6046943838e-09 1.4526786402e-08 -3.6360818207e-10 -3.0765246389e-09 2.0320431089e-08 2.2887850633e-07 -9.9541048645e-09 4.0190384392e-08 
3.3912976839e-08 -1.7670098371e-09 3.0535457064e-08 1.3125040482e-08 -2.4153488683e-08 7.44644943e-08 5.1829582699e-08 4.9935409003e-08 -6.3786025019e-08 
-1.7354386374e-09 -3.999165861e-09 4.4223976971e-08 8.6354712234e-08 1.2862587257e-09 3.0401187447e-08 3.0899726369e-08 9.8164028458e-10 -3.0973011297e-10 
2.6769366378e-08 6.4217664436e-10 -1.8195780858e-09 2.7531736734e-08 2.9481904447e-08 -3.0425615672e-08 2.7595947217e-08 3.7739566667e-08 -4.8883296754e-08 
-8.7868494452e-10 -2.0322494011e-10 -7.8935999102e-11 -1.2027216157e-09 -1.69419726e-10 -9.1413758286e-11 -5.3875378713e-09 -5.0242289223e-10 -7.0691563107e-10 
-7.5164752408e-09 -6.9143110113e-10 -9.8057658348e-10 -4.675859949e-09 -2.1899439493e-09 9.1596848913e-10 -2.7888093817e-07 1.0129739519e-07 -2.9126210288e-07 
9.1650975402e-10 -1.5706687799e-09 3.3021232548e-09 3.4395960777e-08 -1.2518890702e-09 4.1213163658e-08 1.7550854837e-08 -2.3265338291e-09 2.9807008649e-08 
3.607997323e-09 -3.9480617848e-09 3.1117989554e-09 1.2043691041e-09 -3.5401368784e-09 2.2096173484e-09 3.4113414166e-08 -2.5993285564e-09 1.996709308e-08 
2.6645954139e-08 -3.7584371249e-09 1.916077758e-08 3.3477120036e-08 -2.3552669193e-09 2.363990762e-08 4.3589984817e-08 2.0684651519e-08 -1.193472512e-08 
-6.2028561633e-09 4.0736965987e-08 -2.267623688e-07 3.3805225148e-08 -1.0897569407e-09 3.6357863033e-08 4.3971134977e-08 1.8529896755e-08 -5.677087487e-09 
3.6922799956e-08 -1.0759507852e-08 2.1857638445e-08 9.0083778298e-08 8.399599716e-09 9.8922600458e-08 1.0171210633e-07 5.4478044055e-09 9.8633038514e-08 
8.0780893942e-08 2.507461385e-09 6.6049875147e-08 7.7240581625e-08 5.1677835176e-09 7.5263078468e-08 -2.5228390188e-07 7.6374310817e-08 -2.5184198907e-07 
1.3495029067e-08 -1.7014111558e-09 2.1193644941e-09 1.4379545028e-09 -3.0385071625e-09 2.1732824844e-09 -7.8239574652e-12 -2.659401343e-09 1.8506796584e-09 
-3.4882741078e-10 -7.0343437602e-10 -3.2194366763e-09 9.2788314394e-09 -2.2156751743e-09 1.3118394656e-08 -2.8963792924e-09 -8.8308304277e-10 -1.7954434284e-09 
2.0504739398e-08 3.0042271659e-09 -3.7485918468e-09 9.4720616621e-09 -3.2197439187e-08 -4.5147169261e-08 2.0891451211e-08 -6.4687770566e-10 1.6943356402e-09 
2.8846164112e-08 4.4513227057e-08 -5.5579665431e-08 2.5831592494e-08 5.5267909192e-08 -6.3818304642e-08 1.3151863898e-08 -1.9699388256e-09 1.9235760859e-08 
4.74993875e-09 -1.7865144364e-09 1.2260219042e-08 7.1892638522e-08 -1.3475036961e-08 3.9564188584e-08 8.7605364944e-08 6.7501458646e-09 2.362059085e-07 
2.2222489355e-08 1.9950593291e-09 -2.256141755e-09 5.4083228915e-08 -3.0951002377e-08 -1.101915319e-08 1.3948154659e-07 6.1374820941e-09 2.1868385584e-08 
1.1133744547e-07 4.6895985198e-09 2.6986966332e-08 -7.1308425987e-09 -5.3475148299e-09 4.5822811507e-08 2.8220908638e-08 3.7954357656e-08 -4.0131307379e-08 
4.5279828722e-08 -9.2404268887e-09 1.1530623453e-07 -5.1165740127e-10 -6.7532681157e-10 -2.4072055156e-09 -5.4860745568e-10 -7.1735557232e-10 -1.7040294669e-09 
-5.5927401603e-10 -6.366893887e-10 -1.4933840199e-09 6.0111816693e-08 2.4370575056e-08 1.3408051448e-09 1.4912284309e-09 4.8394358273e-10 -4.1275830675e-09 
6.0274176235e-08 -7.4136018584e-09 5.6303867992e-08 6.6223480442e-08 -1.0090984361e-08 5.2338900691e-08 4.184734806e-08 3.373187139e-09 -8.5200113347e-09 
2.3672314729e-08 -1.2459799159e-10 -1.5783462998e-09 2.6751180027e-08 3.6916988273e-11 -2.428821062e-09 4.7732348225e-08 -1.9770020299e-08 5.2945259298e-08 
2.363552707e-08 1.022865823e-08 -2.8437749763e-08 -1.3140235295e-08 -2.5904682089e-09 1.2961950536e-08 6.8876120836e-08 4.6809309846e-09 7.3495227441e-08 
5.8756242732e-08 2.4728200006e-09 6.2298889066e-08 1.9044222936e-08 3.9868602067e-10 1.6023197761e-09 -3.0900219471e-09 -6.6651536839e-10 -3.3790287012e-09 
4.0543778112e-08 4.1545938503e-08 -1.454866941e-07 7.6532773696e-08 4.2134312115e-10 2.2534994737e-07 9.1372401628e-08 -1.7959251624e-09 2.5532172634e-07 
4.2993959293e-08 -5.0757684072e-09 1.9970187554e-07 7.0037576539e-08 -1.5908759828e-09 2.1263726398e-07 2.0176296888e-07 -5.1570359163e-08 -4.3311140572e-08 
7.815365724e-08 -4.1319717947e-09 -1.3860541087e-08 5.135821514e-09 -5.9696139303e-09 7.5713429363e-08 8.0937320792e-07 -7.5996994605e-08 3.2102605579e-07 
-1.0782222585e-08 -1.0657119387e-09 3.4611095232e-09 4.8193503053e-08 1.1703462956e-08 2.7928698358e-08 1.1039681975e-08 1.0599472558e-08 -5.1500727149e-09 
1.386556992e-09 8.5282521501e-11 -8.4779862292e-10 1.1955670489e-09 -2.3585674217e-10 -5.0554125113e-10 8.1472026591e-09 7.3763225384e-09 -2.8478412937e-09 
-4.7938887711e-10 -1.1946751722e-10 -2.3866506847e-09 -3.7031369321e-10 -1.615012501e-10 -2.9494393811e-09 4.3134713695e-08 1.8877959719e-08 3.5230258321e-08 
1.903796161e-08 -1.2195891939e-09 1.9676038221e-09 1.8079696008e-08 -1.8916123061e-09 3.7641420053e-09 2.5228925171e-08 -1.3655348929e-09 8.4628616751e-09 
4.148780354e-08 -2.3950763345e-09 2.2422282662e-08 4.144796914e-08 -2.1784735367e-09 2.6679904805e-08 7.3147598823e-08 -3.2736525843e-09 1.0919597034e-08 
6.6302619875e-08 -9.4198274696e-09 -5.4521602918e-09 7.4293195023e-08 3.4642011159e-09 6.9238161224e-08 3.2277911832e-08 -8.5129174853e-08 -8.2102917146e-08 
-1.5106709077e-08 2.6248678233e-08 -1.3503204232e-07 2.4120695662e-08 -1.1198751869e-09 8.2613446628e-09 -5.8179963778e-10 -8.4340730321e-11 -1.6588205714e-10 
-2.027794342e-10 -1.4432102243e-10 1.4686323633e-10 -3.1805089713e-10 -7.899936965e-11 -3.4612797844e-10 -2.0305766952e-10 -3.3364253777e-11 -4.3550538658e-11 
2.2874973512e-08 1.2516972762e-10 -2.9055710726e-09 4.4467923853e-08 1.5029387301e-08 -4.2275390444e-09 1.9976515753e-08 -1.2005213569e-09 1.2938585786e-08 
2.257262073e-06 1.3574987885e-07 4.0739889404e-07 -2.0352255093e-09 -3.7193390843e-10 -4.3568514577e-09 7.5544666807e-08 3.8725264356e-10 4.8041478782e-08 
-1.3227615355e-10 -4.929204866e-11 5.9736934105e-11 -1.0625212692e-10 -8.7807403128e-11 7.4147994729e-11 3.0117285279e-08 4.1159628257e-08 -4.1759487529e-08 
3.8266917302e-10 -6.1033838721e-11 -5.1433694313e-09 9.7040250601e-10 1.0512016883e-09 -3.365363965e-09 2.7672484678e-05 -3.8382966294e-06 -5.2927713108e-06 
-7.5527263836e-08 5.5057638358e-08 -2.2773452938e-07 3.7194078818e-08 -2.2506004544e-09 2.2541787479e-08 -1.106128766e-08 -5.7415268285e-09 4.7732326493e-08 
5.5778087732e-08 -1.7978682986e-09 3.1540931764e-08 8.1811822793e-08 7.2850224768e-10 4.0093810906e-08 -4.9787367374e-07 -5.3702262551e-08 -4.9538835048e-08 
-4.6011613845e-10 -3.0621055656e-09 1.9949888376e-09 -3.0353742196e-10 -3.3553595645e-10 8.6855022591e-10 2.0495836477e-09 -3.5658554516e-09 2.1925802079e-09 
-7.3877757346e-10 -5.3991780064e-10 -1.4658250878e-11 7.9301427439e-08 7.0534625005e-09 9.3935679985e-08 2.8144845265e-08 -9.4429890171e-09 2.3215620056e-08 
4.426660856e-09 9.0951180386e-10 -4.8237380479e-09 2.2823895024e-08 -1.5873238242e-09 2.0491208841e-08 -9.3542102374e-09 -8.87756433e-10 -9.7522164186e-10 
6.1358025477e-10 -8.251503916e-11 -5.1526319902e-09 1.9268565758e-09 1.0591015171e-09 -4.4439167588e-09 1.6572982014e-07 -1.5800255065e-07 2.1981642539e-07 
-6.5833154901e-08 4.2763673122e-07 8.264959308e-09 -5.0476591978e-07 -2.7233253261e-07 -2.775448605e-07 1.3666073926e-06 -1.0152614887e-06 -1.6077741196e-06 
2.0877411253e-06 -2.4370457133e-06 1.2773755486e-07 1.3428285169e-05 2.5633953165e-06 -1.1291402031e-06 3.8606133738e-06 -8.3505956525e-07 -4.7136107998e-07 
-2.8554732813e-10 -2.3236614805e-10 7.7914420863e-11 -2.2834485449e-10 -1.5214681416e-10 9.2864054075e-11 -9.8249553235e-10 -2.7361402246e-10 -2.6320981173e-09 
1.1765344767e-09 -1.6574565019e-09 -3.1155364937e-09 -9.7404648041e-11 -1.5755652944e-10 -4.2608623093e-09 -6.2917314703e-10 -1.246414005e-10 -5.6604189501e-11 
-2.8717814186e-10 -6.6232304218e-11 4.0368913641e-11 4.8666656562e-10 -7.6490026984e-10 3.353333484e-09 -1.4575044845e-10 -2.3029560399e-09 1.1558830251e-08 
6.8706951695e-08 -6.0376540187e-10 1.9491234107e-07 -3.6202925505e-10 -2.745350496e-10 9.6757579393e-11 -1.1107888855e-09 -6.006334127e-10 3.0630138617e-09 
-5.1528864004e-09 -4.7015601517e-10 1.1831238505e-09 2.546912209e-08 8.2707215257e-09 -1.4771666126e-08 1.3752130069e-05 -2.1901041657e-06 5.4398141425e-06 
2.131978145e-09 -1.7390268614e-12 -6.8171931979e-09 3.2688065119e-05 2.6204547957e-06 -6.534672443e-06 -9.3468877862e-10 -2.4613654017e-10 -1.8532026574e-09 
2.3103520353e-08 -1.1140448743e-09 1.9976368463e-08 3.009278814e-08 -1.5675754209e-09 2.9970965159e-08 -9.7741575682e-10 -1.6647314142e-10 -1.2825305633e-09 
2.2565195005e-09 -5.0085695009e-10 -7.1066203943e-09 -3.1661015926e-10 -2.9074925034e-10 9.2178293185e-11 2.7734392756e-08 -6.8222159834e-09 2.64613815e-08 
1.765905239e-08 4.0538455613e-09 -5.3533689246e-09 5.833794126e-08 3.383420144e-08 -1.4825668168e-08 -1.02827984e-08 -7.2555128799e-09 5.2322112556e-08 
8.0600178997e-10 -9.6797840605e-09 1.0963790695e-08 3.653093732e-08 1.5233406802e-08 -9.675901874e-09 -2.040485732e-09 -2.1004002515e-09 -5.5489569301e-09 
7.1796796744e-09 -2.7513027353e-09 5.9611439672e-09 5.8793025179e-08 -2.0356171959e-08 1.457978903e-07 4.28138515e-08 -1.25127574e-09 1.4336037216e-07 
-4.9038153173e-09 -2.2647064841e-09 -1.5347717649e-09 -1.6768880589e-09 -1.1085216832e-09 -7.4664605715e-10 -1.168341088e-09 -5.7046008363e-10 -2.3636570759e-10 
6.2507907497e-08 4.1489999581e-09 8.53242023e-08 -6.673260388e-09 -3.9998169834e-09 2.4631339624e-08 1.9210726824e-10 -6.1188306143e-10 9.4486444499e-10 
-2.7431339418e-09 -6.0292966292e-10 2.6000309272e-09 3.0175339741e-05 3.0450264522e-08 1.2986146453e-05 -9.2559513582e-10 -2.5330356689e-10 6.0921096648e-10 
-4.0384554371e-10 -2.3105683701e-10 1.0732326476e-10 -2.2356062936e-10 -1.9645121878e-10 6.6101389671e-11 1.4233240049e-09 -3.0077602698e-10 -5.1554782171e-09 
2.463740148e-10 -1.4663501941e-10 -4.9323662939e-09 1.3425838063e-09 -4.1221181605e-09 2.5635770864e-09 -8.7810105511e-10 -8.1365609899e-10 -2.8031958616e-09 
7.2099903001e-10 -3.3592752078e-10 -3.0515289712e-09 -2.7869239052e-10 -1.8987583124e-10 7.5200900119e-13 8.8722051373e-06 -4.236875904e-07 8.0689558359e-06 
2.3117993894e-07 3.2197605672e-08 2.2348016932e-07 0.00014556344193 3.2467150145e-08 0.00014459201221 1.3910028153e-05 1.0214027138e-06 1.2659708391e-05 
0.00012135039495 -2.8504053058e-07 0.00012288287641 1.3067841932e-05 -8.0649072243e-08 1.2403638185e-05 6.7480173049e-08 -7.3873028535e-10 6.8336870841e-08 
9.2818889238e-08 -6.8357253073e-10 7.0460711016e-08 3.5328783969e-07 2.0558089468e-09 2.480460895e-07 0.00010764671778 1.6525882587e-06 0.00010271606567 
0.00012908931206 3.9648186539e-07 0.00013197257351 0.00012430183416 7.194612894e-07 0.00012479717646 3.7814506774e-07 3.2127568033e-08 2.5455862535e-07 
3.8302499636e-06 -7.1142995002e-08 3.4993063315e-06 1.1956237997e-07 -1.5402605737e-09 2.0158262912e-07 0.00018496556525 -4.6424564416e-08 0.00018835831484 
3.2136419657e-06 2.6878533915e-07 3.1769063056e-06 1.2682554183e-07 -1.3249499363e-08 2.3697030276e-07 0.00017922888022 9.6238225649e-08 0.00018278578562 
1.8756325975e-07 -9.7829461162e-10 1.3616122233e-07 2.6317676707e-05 4.1754658547e-07 2.5174885825e-05 2.4142653006e-07 -7.5209695181e-09 2.027065525e-07 
0.00018872066393 4.5985392941e-08 0.0001925207045 5.3026381479e-07 6.032073071e-08 5.8217687769e-07 2.9340644805e-07 -1.4467033535e-08 5.3484487497e-07 
5.5310067579e-07 9.5623332434e-08 6.2604018449e-07 6.2114230885e-06 3.2373067121e-07 6.0609018694e-06 9.0233748643e-05 1.9898210264e-07 9.0333003106e-05 
1.7455561262e-07 9.1839964114e-09 1.0930109333e-07 5.2784115781e-05 6.2252112701e-07 5.1512166873e-05 1.6710224011e-07 2.9188296578e-08 3.0374334259e-07 
0.0001890570704 6.5832875269e-09 0.00019272125705 6.5009849164e-08 7.8545387455e-10 1.461560854e-07 5.8142977428e-08 -3.5689853456e-09 9.9026141145e-08 
3.8470184954e-07 9.7039404827e-09 2.9893371679e-07 1.7987870932e-07 3.3113708642e-08 1.462119198e-07 5.55285413e-08 -2.1800146316e-09 7.8694667775e-08 
0.00010816051846 3.2612301696e-06 0.00010702007086 5.4204341539e-05 8.7237530817e-07 5.2306008379e-05 0.00010982415135 2.915296555e-07 0.00011156915647 
1.0473816453e-06 -1.1431233144e-07 9.1948926778e-07 3.2769909139e-08 -8.5464826346e-10 9.5849962253e-09 2.1911738808e-07 -9.4581367219e-09 1.9686009993e-07 
5.3139638688e-05 5.3185178205e-07 5.1276363694e-05 3.3191717035e-07 2.0824829749e-08 3.8633997886e-07 1.2114309348e-05 4.0558700018e-07 1.1375926782e-05 
0.00011562109865 -1.4266876468e-06 0.00010890945577 3.4202213158e-08 -1.469524321e-09 6.6887814801e-09 5.8349813849e-08 7.9433634728e-09 1.4139622603e-07 
6.7345661272e-08 -2.9256697068e-09 1.4818284749e-07 3.0143371452e-05 -4.4814774377e-07 3.0078447089e-05 0.00017263854445 -1.9913705976e-07 0.00017568074845 
0.00017857016964 4.2866537954e-07 0.00018307839036 0.00018910539777 3.0685964775e-08 0.00019288166833 3.8251160891e-08 -1.5271809077e-09 8.3621689779e-08 
1.2529882661e-05 -5.3986771002e-07 1.2458739271e-05 9.9055321939e-05 -1.2784568116e-07 0.00010027287218 0.00011512324539 1.4132063407e-06 0.00011061287404 
9.1167906319e-08 1.0252451911e-09 5.5765897298e-08 3.3251299575e-05 1.9681854621e-06 3.2922404382e-05 3.3165325946e-07 7.830249926e-09 3.7369210699e-07 
2.5525862638e-06 -1.5121266042e-07 2.1636874746e-06 5.3530353081e-06 5.6979830141e-07 4.3483671719e-06 2.6839525771e-07 6.679362266e-08 4.2434410505e-07 
1.8591010012e-07 4.7999161684e-08 2.3979841381e-07 0.00018041544517 -5.5268258061e-07 0.00018402672567 0.00017765133925 6.4622581473e-08 0.00018035528162 
2.4464817547e-07 5.8910388919e-09 1.8187332489e-07 3.4113927946e-05 5.7539764088e-07 3.2078399452e-05 0.00011124410168 6.6073899755e-07 0.00011189448007 
0.00017533299684 5.7174639069e-07 0.00017881650808 1.1671153459e-07 5.8196500845e-09 6.4498366011e-08 1.4858456854e-07 1.1969439338e-10 1.5689418231e-07 
4.7289678793e-07 4.1493990475e-08 6.8630881187e-07 2.7552088969e-08 -1.4153226805e-09 1.3978793676e-08 1.3465398716e-07 6.7572181847e-10 1.638585137e-07 
4.2107440693e-05 -5.1688157283e-07 4.2018155433e-05 2.4406811403e-07 -1.389949992e-08 2.5889690986e-07 1.0646331565e-06 1.6314828632e-07 7.6065806131e-07 
1.229956629e-07 3.3246175494e-09 1.3351743844e-07 0.00013514125365 2.9167755568e-07 0.00013410181455 1.7812313066e-07 -7.9912399585e-10 3.2318750078e-07 
0.00018893236795 2.8986719288e-08 0.00019282111758 2.7729388155e-05 7.4449067666e-07 2.4175870605e-05 7.5463532576e-06 6.4696568111e-07 7.5283789073e-06 
4.0404060024e-08 -4.4493653594e-10 1.6338863299e-08 8.5894768535e-08 -1.6334269082e-09 5.533597903e-08 6.351650121e-07 -6.129591462e-09 4.7546403637e-07 
7.069634169e-08 -2.8154783459e-09 5.8797040001e-08 0.00016361780513 -1.9532734758e-07 0.0001684436977 4.1025608874e-07 2.6087673489e-08 3.2458068146e-07 
3.4851275301e-08 -1.4998695091e-10 4.5521823347e-08 2.6124205205e-06 2.745900289e-07 2.7614632726e-06 1.1702772133e-07 -1.4959857891e-08 2.0019450805e-07 
4.0834003777e-08 2.0459827932e-09 9.2324414544e-08 6.4977148709e-05 1.3486242089e-06 6.2346228195e-05 4.5365818652e-05 3.2879047884e-07 4.4393287473e-05 
2.4227935767e-07 2.1332974349e-09 1.7598926624e-07 1.7350100806e-07 -2.1782066737e-09 4.6743339394e-07 1.3996811311e-07 1.8894428357e-09 9.4123555804e-08 
3.600567751e-06 -5.6554057109e-08 3.9522532756e-06 3.4769915249e-08 -2.2660933483e-09 3.8429545828e-08 4.5485315014e-06 1.4352082824e-07 5.1524988528e-06 
2.6877971307e-06 2.5441087766e-07 2.7361531718e-06 1.428793746e-07 3.9963249768e-08 2.4031550935e-07 1.3578138424e-07 1.6132276635e-08 2.4498542135e-07 
1.3705166963e-07 -5.523824755e-09 1.092974582e-07 3.5789381319e-07 3.1852424177e-08 3.6465772807e-07 0.00017239172971 1.1378969362e-07 0.00017548435767 
2.5453074103e-06 1.1748559286e-08 2.617980382e-06 5.2511209828e-05 9.5455666045e-08 5.2332510247e-05 8.4555640729e-06 1.5944582415e-07 8.2685339016e-06 
0.00018804696189 -6.8631435229e-08 0.00019134141613 1.4658988116e-07 1.2197970826e-08 2.108914486e-07 6.2748913755e-08 3.9384343645e-10 1.9603693433e-08 
0.0001137117821 -3.6087447893e-07 0.00011676384374 8.4554534244e-06 -5.6943380215e-07 7.2438468475e-06 1.5784141281e-05 8.102467774e-07 1.5637526303e-05 
7.4545126654e-07 2.3990726004e-08 6.786306203e-07 1.6471378468e-07 7.5103275344e-10 1.6383064066e-07 8.1200427333e-05 1.415170401e-06 7.7992412826e-05 
0.00016105360094 -7.273345126e-07 0.0001626006072 0.00016296881195 -7.718091053e-07 0.0001653070373 4.7941089984e-05 4.3752103497e-07 4.7028161115e-05 
3.2356067074e-07 6.4267328234e-08 3.3450195709e-07 0.00018777848525 -1.9488065642e-07 0.00019206331719 0.00010451468084 -4.745465528e-07 8.9462513111e-05 
2.6692775633e-07 -7.8684897819e-09 3.496350766e-07 4.0403400547e-07 9.8488896379e-08 2.9615879203e-07 1.1902972888e-06 2.8166521469e-08 9.2449389462e-07 
2.8698260175e-07 1.5959542067e-08 2.1537761342e-07 4.379994387e-07 -4.1721584883e-08 4.5448296098e-07 1.8606588079e-07 1.1327260249e-08 2.2168028215e-07 
3.0166793891e-05 -1.282970365e-06 2.7436883614e-05 0.00012760200688 7.3987529203e-07 0.00013194118592 1.7513533262e-07 -1.4946534522e-09 1.6058156561e-07 
1.17861411e-07 1.0972210884e-08 2.3191524471e-07 1.6721290204e-07 -1.0656989645e-08 2.5928422456e-07 2.6302870596e-07 1.1289230517e-08 1.9363468903e-07 
0.00014505604419 7.1657860246e-07 0.00014706207004 0.00011809171144 -2.2061939601e-07 0.00011881846336 0.00016944527256 -1.2686420879e-07 0.00017238556606 
9.0771198885e-08 5.5151375027e-10 1.9000140361e-07 2.4540359139e-07 3.8452760624e-08 2.3121081334e-07 3.9945999209e-05 4.5259527315e-08 3.8203888253e-05 
8.8061577409e-08 -3.1421417295e-09 1.1574086613e-07 2.2151018722e-07 3.481939799e-09 1.7658469827e-07 2.8314723619e-08 -2.1884173177e-09 3.3333743282e-08 
0.00017913241765 1.4862955259e-06 0.00018122367682 0.00010434452853 5.2550411239e-07 0.00010525303605 1.2654158014e-05 1.4145346212e-07 1.0920163469e-05 
7.305031811e-08 -9.6811827364e-10 6.0758594917e-08 3.5157180424e-05 1.8014610861e-06 2.9644355181e-05 0.0001819663486 -2.4358503705e-07 0.00018522806178 
2.22627099e-05 -1.3770359824e-07 2.0192505105e-05 1.437195566e-05 2.9285781121e-08 1.371394148e-05 6.4304501085e-07 1.8506515493e-07 7.5232109863e-07 
6.0548534469e-07 2.9174050617e-08 4.3520973072e-07 5.7212041725e-05 3.0420817551e-08 5.7017051109e-05 1.6661703643e-05 4.8041666632e-07 1.5624786898e-05 
0.00013156221775 5.6414753033e-07 0.00013178072507 4.1363261558e-07 1.788442379e-07 5.0831048854e-07 9.3155936559e-05 5.7230462276e-07 9.146014771e-05 
4.3827901172e-05 -1.6544089033e-07 4.2676409156e-05 0.000169712921 2.0268491284e-06 0.0001720724616 0.00018923683119 -4.4658604233e-08 0.00019277360978 
0.00018826958769 5.3019372255e-08 0.00019236007943 6.8523537416e-05 1.1042842116e-06 6.5611097967e-05 8.0158776785e-05 9.9930164373e-08 7.8536827404e-05 
6.0371788795e-08 -2.7561178803e-09 9.6456940975e-08 0.00018019822477 -4.0552055366e-08 0.00018425222469 0.00018813431927 4.1374809968e-09 0.0001923762696 
2.5191384853e-08 -5.5029353473e-10 2.8262709725e-08 0.00013302987412 3.2216383496e-07 0.00013440948164 6.2983395164e-05 1.2111200532e-06 6.1989514751e-05 
0.00018905143859 1.7730684294e-08 0.00019291485342 3.2661255578e-07 6.1004362855e-08 1.8229391446e-07 4.561603226e-05 -4.0260136432e-10 4.3147254103e-05 
0.00017205138184 -9.9068380499e-07 0.00017681290075 6.9687657558e-08 -6.6551554539e-10 6.2245451098e-08 0.00018818937513 2.0786916998e-07 0.000191696768 
1.8070609684e-07 8.4690711153e-09 1.237706081e-07 1.6638418087e-07 1.5680923415e-08 1.2289272125e-07 8.4963018548e-08 -2.4804167768e-09 1.4428265935e-07 
9.0871007273e-06 3.9888069664e-07 8.02779417e-06 0.00018596734226 2.1500339153e-07 0.00018952509475 3.8891863674e-06 8.1759373931e-08 3.6150996625e-06 
0.00016325636651 -7.5122506772e-07 0.00016713084369 0.00010512095505 1.7823545671e-07 0.0001000335931 8.4463929325e-07 -1.3631475648e-07 7.2092861809e-07 
7.0974205891e-05 5.3952291599e-07 6.9834192926e-05 8.6975653532e-05 -1.467239382e-06 8.594941811e-05 1.2925831514e-07 -2.2852633864e-09 9.1848107355e-08 
5.1658725122e-06 -2.2461779835e-08 3.6871515936e-06 6.1970495359e-05 2.373592021e-07 5.4823064928e-05 3.5002284578e-07 1.2570535614e-07 3.7568413359e-07 
1.4273965118e-08 -6.3753768712e-11 -4.9239973746e-09 2.574172125e-08 -1.7754750585e-09 7.1053250153e-08 0.00014637737421 -1.5700856245e-07 0.00014749478113 
5.8080403461e-05 -9.0034525998e-07 5.7551626265e-05 0.00018718088446 9.3211912027e-08 0.00019095303322 1.8156217249e-07 -9.7837777662e-09 2.3106588164e-07 
0.00012435204307 -2.9445749986e-07 0.0001224075219 3.7870803734e-05 7.3673895936e-07 3.8045055093e-05 3.0691816405e-07 2.4456723924e-08 3.0393972669e-07 
4.3059575895e-07 6.3359096824e-08 4.598550055e-07 1.2453253658e-07 -1.1556623181e-09 9.3512313718e-08 1.6134026789e-07 6.4231065728e-09 1.184927655e-07 
0.00018188244627 9.8900054993e-07 0.0001852695578 0.0001870988616 -1.7502027559e-07 0.00019073588987 6.003792456e-06 2.370374862e-07 6.2692144082e-06 
9.4548888988e-08 3.6698673773e-09 4.6309630542e-08 1.9723261638e-07 -2.5717823997e-08 2.0873494969e-07 2.8429341491e-07 5.9884914826e-08 4.9128356135e-07 
2.9310552904e-08 -1.0873382261e-09 7.7506329412e-08 2.4951322044e-07 5.7537545769e-08 3.1653090039e-07 2.547626472e-05 -1.2363148556e-07 2.4915552919e-05 
9.0695630664e-07 1.3617454178e-07 1.6463445258e-06 2.4132910938e-08 1.9503592401e-09 6.2546394952e-08 0.00012558833724 -1.0117100415e-07 0.00012845655075 
0.00017517203008 -3.5590640491e-07 0.00017908178238 3.8583773561e-06 -3.9624253088e-09 3.532933221e-06 7.2935228504e-08 -3.6687129439e-10 1.1404452128e-07 
7.1394327853e-08 -2.4983140821e-10 2.9787173251e-08 3.25041171e-07 2.1834411667e-08 2.1376138149e-07 3.7386020407e-07 8.1885531888e-08 6.5937776999e-07 
1.1421179616e-06 1.9435437424e-07 1.2520838901e-06 1.4635941043e-08 -1.3166443199e-09 -3.8173403346e-09 0.00018870893396 7.2515454228e-08 0.00019241995079 
0.00015689725512 1.2918829992e-06 0.00016003567203 1.6278918791e-08 -7.9647659833e-11 3.6936252141e-08 3.1378120683e-07 9.4051264872e-08 3.7950257e-07 
3.7961719326e-08 3.5257956971e-10 9.7054405386e-08 1.7466170976e-07 5.9403557186e-09 1.2244325185e-07 6.6482784875e-06 7.4268517477e-09 6.3727192753e-06 
0.00018883207012 -2.2825297475e-08 0.00019269237481 0.00018909048197 -4.1200812372e-09 0.00019286075827 0.00014606438993 -7.8775619748e-07 0.00014772528358 
1.2671756298e-07 1.0792021203e-08 8.6306533366e-08 9.0827359056e-08 -1.9953732285e-09 1.6393500986e-07 0.0001889906002 -3.5414138406e-09 0.00019300896855 
0.00010958225947 5.4743141877e-07 0.00010932661535 2.0771090266e-05 -5.0772617495e-07 2.0354808394e-05 1.3190150888e-06 1.7454363464e-07 1.3942430914e-06 
1.5525034245e-08 -8.480611421e-10 6.6654716986e-09 3.3773286783e-08 -1.1967020742e-09 1.5664886239e-08 1.0894381348e-08 -7.7087159355e-10 5.3188404364e-09 
1.0089236245e-08 -9.5806847383e-10 1.0266089975e-08 2.9213722293e-08 -1.0118476296e-09 2.399806042e-08 3.6435341383e-08 -1.332807037e-09 2.605084353e-08 
1.297095613e-05 2.2983397203e-07 1.2461242678e-05 8.996720333e-07 -2.1216942781e-08 1.0556731976e-06 8.1036291884e-06 3.2792923171e-08 7.1666137515e-06 
2.8456652512e-05 -3.9266164237e-07 2.7522610307e-05 4.2033792571e-06 2.2665683467e-07 4.8305365344e-06 8.9675729029e-06 1.2919178402e-07 8.3695713319e-06 
2.551036067e-08 -3.5288194348e-10 3.3090187352e-09 6.197769564e-09 -3.1491530977e-10 -1.659887122e-10 2.1137904464e-08 -8.2719573913e-10 1.0765797884e-08 
2.305814143e-05 2.363125058e-08 2.2410857278e-05 2.451514907e-05 2.2458870433e-07 2.4223484125e-05 6.8383134625e-06 8.1566573546e-08 7.1391961835e-06 
1.1188763063e-05 4.233574523e-07 1.0222198641e-05 1.2019006749e-05 -1.4738023838e-07 1.1490297473e-05 3.194296302e-05 3.42054616e-07 3.0960883152e-05 
1.7535207187e-07 1.1390119326e-08 2.2448353833e-07 1.9376930601e-07 1.9229042745e-11 1.8255714691e-07 2.1091591204e-07 4.1006546705e-09 1.6121726547e-07 
2.0607687629e-07 9.6362883512e-09 1.6691290197e-07 1.7173198999e-07 2.838434518e-09 1.2243375902e-07 1.81528487e-07 8.2853439566e-10 1.7308248465e-07 
1.6700151944e-06 6.9531051447e-08 1.9984695666e-06 1.8512782242e-05 3.6850729513e-07 1.8074369619e-05 1.3971038697e-05 6.2478758729e-07 1.2862866259e-05 
1.4058848884e-07 2.2488520779e-09 1.832348568e-07 1.5921125592e-07 3.1833920616e-09 1.3003722604e-07 1.4713401015e-07 5.1340345044e-09 1.2612929007e-07 
4.9675265558e-08 -5.0302979911e-10 5.8029017589e-08 3.2327726604e-08 -8.257791733e-10 2.8837061699e-08 4.571425018e-08 -1.322320865e-09 3.6729181905e-08 
4.5571625634e-08 -1.6937163334e-09 4.9684600473e-08 3.0531470248e-08 -1.1899762807e-09 3.9795303392e-08 3.6986107484e-08 -2.2423157638e-09 1.2696628962e-08 
5.3837380449e-08 -1.9649494385e-09 3.2209906195e-08 5.9576208976e-08 -2.9637100403e-09 3.2447805747e-08 5.7550442459e-08 -2.6894156333e-09 3.254280774e-08 
8.0602111704e-08 -1.9726692378e-09 5.7744515839e-08 4.7410423299e-08 -1.2168894991e-09 3.4264756611e-08 1.2209369739e-08 -4.3558571886e-10 1.3443960703e-08 
1.2777666236e-08 -4.5968128586e-10 1.9402040512e-08 1.0316812916e-08 -9.7702945284e-10 1.5396329592e-08 1.2139136467e-07 -4.5454291451e-10 9.9113077502e-08 
1.6585880749e-07 -2.5021283703e-09 1.4905611341e-07 9.9000265356e-08 7.1962518624e-10 1.1108200476e-07 9.4873580241e-08 -1.2088196133e-10 9.8134128734e-08 
1.2896435018e-07 2.1034572e-09 1.4235138058e-07 2.8057944489e-07 1.9494969977e-08 1.962402816e-07 2.1438518126e-07 3.1571164233e-08 2.4463162139e-07 
2.4363721116e-07 -6.264603826e-09 1.6467974261e-07 1.687048625e-07 3.7622267564e-09 1.8506897396e-07 1.1280700089e-07 1.3777918951e-09 9.2684626703e-08 
2.2146808519e-07 8.4735242218e-09 2.901770632e-07 2.0728194281e-07 6.485144022e-09 2.4609208769e-07 3.0589915187e-07 6.9868392809e-09 2.3576073234e-07 
2.9050613378e-07 3.4794659659e-09 2.2452022718e-07 2.5708605589e-07 -4.0192541382e-09 2.0999643452e-07 1.9007928178e-07 1.0096721738e-08 2.353961722e-07 
8.1476388761e-08 -9.8655028521e-10 6.0697289204e-08 1.2935653816e-07 -1.6505306937e-09 9.1014356568e-08 1.2150692456e-07 1.0448659374e-09 8.3255789303e-08 
0.00018908710098 1.3535088953e-08 0.00019293378091 0.00018906253261 2.891548703e-08 0.00019295655853 0.00018906405569 2.8858531659e-08 0.0001929581097 
0.00018907160871 8.3094926505e-09 0.00019297559756 0.00018909952924 1.1536829973e-08 0.00019301747768 0.00018908571854 2.9635284222e-08 0.00019293774996 
0.00018186327112 -1.778392096e-07 0.00018514620721 0.00018497463721 -6.0267927436e-08 0.00018937954723 0.00018797890596 4.8225908355e-08 0.00019220712559 
0.00018757687185 -9.972946276e-08 0.00019139790153 0.00018832610927 -6.7495413423e-08 0.00019216069906 0.00018349068583 2.2504391798e-07 0.0001872446152 
3.2593511985e-07 3.991624356e-08 2.6071142256e-07 2.9855495545e-07 2.7828719239e-08 2.248385837e-07 2.8370680068e-07 5.3958158273e-08 3.1288346375e-07 
2.7230697288e-07 2.3441983843e-08 2.3022871465e-07 3.0355353101e-07 2.424228342e-08 2.3072580967e-07 2.6021666434e-07 2.6562634361e-08 1.8855037696e-07 
3.7933007682e-07 2.3334616278e-08 2.7795355281e-07 4.5526276792e-07 5.5136398121e-08 4.7124947147e-07 3.7546891417e-07 9.1568741932e-09 2.5525794032e-07 
2.0148613946e-08 -9.0220945233e-10 3.9590405807e-09 0.00014724530423 -2.9918386864e-07 0.00014743423172 0.00016692189707 4.3751380315e-07 0.00016892240501 
0.00017539892507 1.790329521e-07 0.00017905350171 0.00017766527449 -5.6428041429e-07 0.00018005614603 0.00018555329282 -1.3841122121e-07 0.00018873295561 
0.00016826828595 -5.2326961256e-07 0.00017066624079 1.4947934939e-07 9.3740097548e-09 1.991516048e-07 8.2136030318e-05 2.7108575747e-07 8.2666607422e-05 
9.4299053807e-05 -6.5736418699e-07 9.5045567557e-05 6.480092605e-05 8.2183703118e-07 6.3821376563e-05 4.2154926005e-05 5.8294845553e-07 4.0826162055e-05 
5.5871769769e-05 3.9677023128e-07 5.49821285e-05 7.7285330325e-07 5.7419188126e-08 8.1368614173e-07 2.3031157282e-07 1.7445995227e-08 1.4453536641e-07 
3.1442630651e-07 -3.4977950752e-09 4.4225363987e-07 3.9157502223e-06 1.1218826531e-08 3.6673031759e-06 7.1683246241e-07 -1.5492142952e-08 8.8761640337e-07 
1.9839021555e-06 4.7342103587e-08 1.7944416977e-06 3.1726216088e-05 8.6000014892e-07 2.9608887061e-05 8.3714400156e-05 -8.6510849143e-08 8.0935868473e-05 
5.6747724005e-05 6.5250502162e-07 5.5636512184e-05 1.9287912914e-05 4.4834610549e-07 2.0635548961e-05 7.0025952731e-05 -5.3935106809e-07 6.5733149578e-05 
4.2235071443e-05 3.0120160643e-07 3.6676165422e-05 7.8186198992e-05 -2.9794623533e-07 7.8761760426e-05 3.6977670153e-05 3.3234451081e-07 3.6233603171e-05 
6.5414131656e-05 -7.7863033738e-08 6.5770427957e-05 0.00010248143875 3.88139006e-07 0.00010182627577 5.7848567646e-05 6.0052498375e-07 5.5986237696e-05 
7.0137888426e-05 3.6711957852e-07 6.814791977e-05 1.0447628629e-07 1.0310764315e-08 6.3820033046e-08 1.4888656832e-07 1.5723349365e-08 9.6452341309e-08 
1.2800265651e-07 2.2173024229e-08 1.0755084726e-07 1.1904132546e-07 1.5337506194e-08 1.0042785079e-07 1.7587217699e-07 2.8301716408e-08 1.3220825374e-07 
1.4190779294e-07 1.2685305333e-08 8.6500695562e-08 1.5026069535e-07 2.0284507935e-08 1.1236838095e-07 1.0482470675e-07 1.5125381302e-08 8.0676885716e-08 
1.2375846979e-07 8.594451284e-09 7.3850327277e-08 2.1200782804e-07 -6.0816345025e-09 2.5559786578e-07 1.8399998213e-07 6.1487493462e-09 2.3428978813e-07 
2.9305534133e-07 6.0196307163e-09 2.402932193e-07 2.515070669e-07 1.985629256e-08 1.7467377621e-07 2.5378704579e-07 1.0702736026e-08 1.9025789374e-07 
0.00012893860805 7.208532806e-07 0.00013044600127 9.416430952e-05 4.7351802408e-08 9.5285996314e-05 0.00011875326824 -3.9367539036e-07 0.00011678348906 
0.0001287011852 -2.1983423933e-07 0.00012754033117 0.00014547734191 -1.7065766696e-07 0.00014484592513 0.00016670095158 2.2352075226e-07 0.00016891496215 
3.5981375309e-06 -4.3528573602e-08 3.7100347292e-06 7.3635892395e-06 -1.1232006932e-07 6.8310915893e-06 3.5400274523e-07 3.6262545052e-08 2.4755480785e-07 
1.3250227394e-07 1.6524482022e-08 2.0574033781e-07 1.3109712164e-07 -5.5393449396e-09 2.1591213637e-07 1.2133330773e-07 5.2331048022e-09 1.8362074774e-07 
2.0169173191e-07 -1.2223964338e-08 1.4867578028e-07 1.403162067e-07 3.2033335004e-08 3.7130160085e-07 1.3884819943e-07 -3.9361185291e-09 2.1121643848e-07 
3.324255324e-05 -5.3982663778e-07 3.0082585979e-05 8.1311241241e-05 -8.1510543696e-08 8.1061609184e-05 5.4170504586e-05 2.6841190136e-07 5.2292361635e-05 
2.4113336599e-05 4.9200877873e-08 2.3116038843e-05 4.5957460827e-05 3.5758725231e-07 4.4864482921e-05 2.1752161285e-05 -3.9310807208e-07 2.1290587062e-05 
2.8424064822e-05 1.5638034706e-07 2.7896481753e-05 5.2592308428e-05 9.2979863488e-07 5.1300849378e-05 5.5736790902e-05 1.4224787888e-06 5.4787285666e-05 
4.6838788583e-07 3.4860244643e-08 5.502294501e-07 3.5535805927e-07 -8.2293680648e-09 2.8173419195e-07 3.2470759355e-07 1.8114610607e-08 2.9632479293e-07 
3.2518561329e-07 -3.5472351229e-10 1.9220422903e-07 3.120857745e-07 1.0301913068e-08 2.2855850874e-07 2.6138047951e-07 -1.7606471775e-09 2.2205206376e-07 
1.1798386625e-07 -1.0444813133e-09 1.002052011e-07 1.2677571636e-08 -7.7948856316e-10 2.1413034288e-08 1.0785747544e-08 -1.1688800196e-09 1.669850596e-08 
0.0001217391586 2.3778248426e-08 0.00012128411577 9.2328692098e-05 3.0330368765e-07 9.0372373267e-05 7.9906263208e-05 -8.8019887681e-07 7.5609855814e-05 
2.6144189019e-05 3.0048740545e-07 2.5066182892e-05 4.8541437198e-05 9.8062510007e-07 4.8059146446e-05 5.121331193e-05 3.8758843592e-07 4.9696185464e-05 
3.977072258e-07 -2.2596228754e-08 4.4715964348e-07 3.5507464887e-07 -2.4047284737e-09 3.0134567239e-07 1.7472737155e-07 3.1610058621e-08 2.8491023082e-07 
2.4921466749e-07 1.8799814819e-08 1.8212546537e-07 2.1016195287e-07 -1.3087065363e-09 1.4561648267e-07 2.7638321889e-07 1.1969487057e-08 1.989186778e-07 
1.3180717395e-07 5.0198275666e-09 2.5513818283e-07 1.368086627e-07 -4.60402085e-09 2.4297534426e-07 3.5627425364e-07 6.0871610222e-08 5.9332092811e-07 
9.9610685015e-08 7.1369977016e-09 5.4791095562e-08 1.1259114104e-07 9.8003091123e-09 8.3083329443e-08 8.3402773094e-08 6.1875173398e-09 4.1839915641e-08 
1.3006267115e-07 9.3300735303e-09 7.504645418e-08 1.0699088094e-07 4.2490050113e-09 5.5504174899e-08 5.3769934805e-08 -1.0696614059e-09 3.8688414201e-08 
0.00010567744192 4.2567275991e-06 7.4599091142e-05 9.2767717566e-05 1.7673867143e-06 6.8176495485e-05 0.00010729956082 -2.5646734303e-06 7.3325459047e-05 
9.2091433593e-05 -1.4403243719e-06 6.7245228495e-05 0.00011163214246 -4.8024712803e-07 0.00010912007753 0.00016653707733 3.0222434489e-07 0.00016874585898 
0.00015094893876 6.7004585125e-08 0.00015352542926 0.00012382371238 2.7060895351e-07 0.00012335719456 0.00013257146995 -2.8813562838e-07 0.00013236444336 
0.00010862989056 -6.8019376725e-07 0.0001098597182 0.00015693702104 1.6243883421e-08 0.00016010589921 0.00016138600237 3.1595487218e-07 0.00016335798736 
0.00011492995152 -1.0790025694e-07 0.00011634799371 0.00012275895006 -1.2396636414e-07 0.00012448341621 3.9907339857e-07 3.056680542e-08 3.6878722793e-07 
4.6672205865e-07 5.8682005378e-08 4.6482677628e-07 2.7646354821e-07 -2.376651602e-08 2.4491422555e-07 2.4762658866e-05 -1.7022291634e-07 2.1937952327e-05 
4.525396924e-05 -1.0635688758e-07 4.2949147998e-05 6.9166454688e-05 -6.468996413e-07 6.9156914439e-05 1.9722757075e-05 4.1186559282e-09 2.0541323416e-05 
8.3516155871e-06 1.1794331667e-07 7.5769502841e-06 2.6952926312e-05 6.3935466209e-07 2.6275903058e-05 1.8385048697e-07 4.7277845603e-08 3.5833964119e-07 
2.6463399889e-07 5.8787520602e-08 3.6317118277e-07 1.8441533197e-07 6.6895946259e-08 3.4702594807e-07 1.8404613848e-07 5.9744215611e-08 3.4258198712e-07 
2.6456960654e-07 7.5461358405e-08 4.097103072e-07 2.6683812417e-07 8.1339858851e-08 4.0030822658e-07 6.0048206135e-05 1.5155169899e-07 5.9197381948e-05 
3.5154999799e-07 6.5811906155e-08 3.649093634e-07 1.5011201846e-07 1.9547088889e-08 2.3798128532e-07 2.1133640378e-07 8.186868809e-09 4.0628121234e-07 
9.2661738896e-08 3.7558725667e-09 2.2574993714e-07 1.2944444246e-07 -2.5790784937e-08 2.320106538e-07 2.3480883907e-07 3.9457239461e-08 2.8653275457e-07 
3.525593433e-08 -1.7605883492e-09 2.2758197578e-08 1.2254326673e-08 -1.3371176229e-09 7.8799725088e-09 1.2770925208e-08 -1.080176634e-09 -4.076268128e-10 
3.0668908865e-08 -1.3613730657e-09 1.9357126146e-08 8.6399280915e-09 -7.4848876902e-10 5.764603776e-09 2.9815098947e-08 -2.0405702399e-09 3.2940895895e-08 
0.00015159890825 1.7763459213e-07 0.00015303798597 0.000141120285 4.9042657564e-07 0.00014283957861 0.00012718782264 2.5788343261e-07 0.00012986025599 
0.00011378292928 -3.2530570479e-07 0.000113780422 0.00015179067595 -1.0725321552e-07 0.00015185100269 0.0001748672196 -2.5262571075e-07 0.00017866556575 
0.0001600885724 1.5358168491e-08 0.00016169098841 0.00015099366364 3.3570393884e-06 0.0001331553128 0.00014295052988 5.8848297917e-06 0.00011656075372 
0.00014772810949 -9.8073890052e-07 0.00011856267292 0.00014954906003 -3.459969794e-07 0.00013489707651 1.5138952956e-07 -2.8258888064e-09 1.1202993698e-07 
1.3724606777e-07 -4.5727414814e-10 1.2539912842e-07 1.0413385874e-07 -1.834374007e-09 7.4054092886e-08 1.1771908306e-07 1.4047127231e-08 1.8915394579e-07 
1.8477548243e-07 4.3172013315e-10 2.4055835286e-07 1.1204400656e-07 -1.4169352208e-08 2.787546603e-07 2.7051058935e-07 1.4673196668e-08 3.5246236578e-07 
5.0642151418e-07 -1.535636213e-09 5.9045140772e-07 0.00018905240114 3.3173428146e-08 0.00019294763583 0.00018911465282 6.3799906869e-08 0.00019291345589 
4.3143353727e-07 3.4129923688e-08 3.0265339985e-07 3.6871372117e-07 1.7370682375e-09 2.3467434518e-07 2.9496038646e-07 9.4533202557e-09 2.1753928651e-07 
2.7179841384e-07 -9.197677151e-09 2.1335810639e-07 2.0270324913e-07 6.1415363497e-09 1.3958409212e-07 0.00012698293881 6.1949846522e-07 0.00012739490553 
0.00011762493704 8.7894330389e-07 0.00011810733503 0.00010915769935 6.9632938782e-09 0.00011097610484 7.9224995678e-05 -1.4458388e-07 8.0013210622e-05 
7.0754113059e-05 -3.4799290375e-07 7.0138563321e-05 8.6341042056e-05 -1.5319565974e-08 8.6621964199e-05 0.00012171815946 -2.4190125851e-06 7.0600280854e-05 
0.00013269170532 -3.4110062633e-06 9.556925225e-05 0.00018243678132 -9.0849946519e-08 0.00018477180375 0.00016012312542 -3.1089980301e-07 0.00016134917805 
0.00018224327491 -8.6797320712e-08 0.00018576875556 2.3392910817e-07 -1.5491101298e-08 2.2686486968e-07 2.6251095721e-07 1.6822524529e-08 3.4375865301e-07 
1.1493199208e-05 3.1316642214e-07 1.0206681569e-05 1.2296597028e-05 1.7494168175e-07 1.1628409911e-05 3.5273305241e-05 3.1130373541e-07 3.6360127711e-05 
0.0001486614837 4.8560737299e-07 0.00015062909981 0.0001548687867 -1.6695151687e-07 0.00015612494209 1.7473907723e-07 -1.322718372e-09 2.469744902e-07 
2.0952256544e-07 1.0163811849e-08 2.1193415388e-07 0.00014039075474 -7.1034150606e-08 0.00014090638327 0.00012470371005 6.6778041111e-07 0.00012402211251 
0.00015870576708 -3.0462671587e-07 0.00016068246964 0.00010445109992 -1.1079162872e-07 0.00010469185915 0.00011770262354 -5.3535710064e-07 0.00011795783453 
0.00013284169183 -5.398861811e-07 0.00013497430925 0.00011987250781 -9.5308515531e-07 0.00012013049456 0.00013127350142 -1.8688367303e-07 0.00013259400586 
0.00010411920562 7.7995504543e-08 0.00010406609148 6.7788856222e-09 3.2021778791e-10 -1.5793804194e-08 6.5657169835e-09 8.1066808729e-11 -1.2796828253e-08 
1.2062789001e-08 -1.0012527591e-09 -5.139716399e-09 2.227500119e-08 -8.3968411567e-10 -1.328841533e-08 1.0903188029e-08 -7.4386035375e-10 -8.625375403e-09 
7.8418331879e-08 -2.3532830018e-09 4.7304367059e-08 8.9391124299e-08 -1.8016834317e-10 5.557977581e-08 8.3152679949e-08 8.3258934297e-11 4.5322163568e-08 
9.8033469566e-08 -1.0695453266e-09 6.8291236802e-08 1.1753320604e-07 2.3006741202e-09 7.234781565e-08 1.1280025291e-07 -8.787479978e-10 7.261082564e-08 
7.0943542281e-08 -8.8843067833e-10 6.4340144909e-08 1.0337805466e-07 4.3745610438e-10 1.0671936756e-07 9.8477675633e-08 -1.2086037145e-09 7.742577389e-08 
2.5156904809e-07 6.5617299866e-08 2.776884606e-07 1.8468715902e-07 3.4213560024e-08 2.0231977394e-07 1.4667667418e-07 3.3801344013e-08 1.7094255317e-07 
1.8795556133e-07 4.0618297138e-08 1.6834656407e-07 1.3236415217e-07 1.8856485846e-08 1.2489017768e-07 2.3514041563e-07 3.3307168436e-08 1.932462575e-07 
0.00015537650512 1.2222244162e-07 0.00015754310029 0.00012972250864 -1.3130549012e-06 0.0001303637644 0.0001425501985 4.6290180012e-07 0.00014591625413 
0.00014486726727 -1.0215879239e-06 0.00014741195949 8.8921389229e-08 5.7303678488e-09 2.401560136e-07 1.6736925986e-07 4.2184806232e-09 2.676412623e-07 
1.6601263496e-07 1.5933290329e-08 2.9707263984e-07 6.2175518847e-07 -4.882454746e-09 5.5478182984e-07 2.863788351e-07 2.1035718664e-08 2.0348672184e-07 
5.2066200981e-06 -1.6069197517e-07 5.3501125332e-06 2.5841466412e-06 1.023803217e-08 2.7599745503e-06 4.964875236e-06 -7.8911900949e-08 4.6895542837e-06 
1.6852728417e-05 7.3052308105e-07 1.6915670738e-05 1.5228246718e-07 4.0858470342e-08 2.7564711843e-07 2.1316687948e-07 4.6984173108e-08 3.3956031489e-07 
2.3765271292e-07 7.2081663479e-08 3.1451285152e-07 7.5823341965e-09 -5.6908195321e-10 -1.0080037334e-08 8.0889456153e-09 -5.2200802907e-10 -8.0258977606e-09 
2.7009073175e-08 -8.4132330251e-10 -2.5832460973e-09 9.2900875139e-06 4.3587534476e-07 8.1842264039e-06 1.7247799938e-05 -5.4952313381e-07 1.5625477011e-05 
3.580932211e-06 1.1434766822e-07 3.960183534e-06 1.0909956037e-06 -2.3127693732e-08 1.0911012097e-06 3.1102412024e-06 -1.871984755e-07 3.4858428769e-06 
8.4697548046e-06 1.1895521302e-07 7.7122617172e-06 0.00017667315704 1.1764171746e-07 0.00017929649901 0.00015809004575 6.0391262935e-08 0.00015947786805 
0.00016365504823 -3.0549605113e-07 0.00016533678419 0.00017509075924 3.4077653655e-07 0.00017755370571 0.00017138710425 7.0051939296e-08 0.00017441268277 
1.3719980586e-07 2.1614073897e-08 2.8401295973e-07 1.9360309255e-07 5.360100096e-08 3.1140048893e-07 2.0532206023e-07 3.0737435526e-08 3.770448458e-07 
8.2976544395e-08 -4.655324482e-09 1.9320430777e-07 4.294077441e-08 -1.446692973e-09 1.1481705938e-07 7.34046055e-08 -3.3503885394e-09 1.4489554067e-07 
6.6061037368e-08 -3.0939176203e-09 1.4069597255e-07 3.1691347845e-08 -1.8157619102e-09 7.7851628929e-08 3.715078956e-08 -2.2077246794e-09 1.047984485e-07 
0.00011865892222 1.1045694313e-07 0.00011622407243 7.5129148657e-05 -8.8509504161e-08 7.397459499e-05 1.0269552146e-07 2.111595468e-08 3.2898546303e-07 
5.2928556499e-06 2.5346175283e-07 4.7898400227e-06 6.9337317254e-06 -4.3841043592e-08 6.4688392091e-06 8.6115263254e-06 9.3855308583e-08 8.0151473385e-06 
1.817037823e-05 1.4256773625e-07 1.7738127577e-05 2.228275975e-05 5.120188898e-07 2.1571464604e-05 1.5961853258e-05 3.4833697463e-07 1.5548330657e-05 
3.0426834711e-05 -2.7786707701e-07 2.938324298e-05 1.0608336256e-05 2.9632264645e-07 1.0590380299e-05 1.9689056793e-05 6.1011628084e-07 1.8257365168e-05 
2.5026351899e-05 1.9397835603e-07 2.38536546e-05 1.3311588685e-05 -1.2577004823e-07 1.2908333687e-05 6.2941654516e-08 -2.9797195584e-09 1.5522302596e-07 
2.4012130049e-08 -1.7575628021e-09 7.5300684767e-08 4.5366960314e-08 -2.5580845206e-09 1.1022336935e-07 0.00012565344813 -2.8791976789e-07 0.00012652271917 
0.00013665085157 8.1918593349e-08 0.0001376984473 0.00012083071652 -5.2333709248e-07 0.00011855366669 9.4427590095e-05 1.0397856311e-06 9.4249346043e-05 
8.6298129232e-05 8.7819146e-07 8.4852589687e-05 9.3930829287e-08 3.7444978778e-09 4.737387062e-08 8.1808927193e-08 4.3053411214e-09 3.8551543084e-08 
6.0321223178e-08 1.8457429441e-09 2.7965616265e-08 7.7197180146e-08 7.6977637096e-10 3.0094697589e-08 6.6510748782e-08 1.3716772121e-09 2.1311835514e-08 
9.3489231189e-08 1.9267300759e-09 4.6060089054e-08 0.00010240082163 -5.7124229039e-07 9.9854724339e-05 6.8618034361e-05 4.5377968289e-07 6.6785075636e-05 
6.2341828451e-05 -1.269726411e-07 6.1452562877e-05 2.8268048003e-05 -2.33647932e-07 2.6893447181e-05 4.5570702185e-05 3.611343732e-07 4.5009356474e-05 
1.3347028234e-07 3.6615971333e-09 9.0265277818e-08 1.2716119001e-07 -7.2592188806e-10 1.1144201356e-07 1.7639714149e-07 6.1283466623e-09 1.348873033e-07 
1.6918454256e-07 7.6867016113e-09 1.1315845659e-07 1.6900281269e-07 7.4306852323e-09 1.3964305396e-07 1.2577591284e-07 1.6635438752e-09 9.4834884481e-08 
2.1775910616e-06 2.996633694e-07 1.3906472151e-06 1.2472144743e-06 1.8207974651e-07 9.3154241415e-07 2.4811176818e-06 -1.2820878056e-08 1.9807125457e-06 
5.5689012685e-06 4.4973914228e-08 5.1976130673e-06 3.9347284416e-06 2.2665103366e-07 2.8808265429e-06 4.7641491365e-08 2.6791802437e-09 1.0899109659e-07 
1.8049519218e-08 2.3746761468e-09 4.4381142789e-08 2.0911090618e-08 4.5010161303e-09 6.4259467564e-08 5.8627569026e-08 6.0742755871e-09 1.1392486303e-07 
1.6246740481e-08 2.3376643271e-09 4.1152370583e-08 4.3063599013e-08 -2.2735792742e-09 9.1980731869e-08 2.8211897998e-06 9.9756682331e-08 2.7150643688e-06 
9.6586904459e-06 3.6542617979e-09 9.5442064735e-06 7.1654071712e-05 2.8494935992e-06 7.0762994227e-05 6.7914086001e-05 3.031567395e-06 6.6166854807e-05 
0.00010952962238 1.4330106033e-06 0.0001115040095 0.00012281067032 2.3941245061e-06 0.00012254826047 0.00012221048092 4.4646114352e-06 0.00011991056496 
8.2938832881e-05 1.7252646806e-06 8.0215205234e-05 9.650209487e-05 9.7850121239e-07 9.3007588388e-05 4.9062175662e-05 5.2131655127e-07 4.3974188922e-05 
8.8961440625e-05 3.3495190896e-07 8.6926424659e-05 1.4532447446e-07 2.5790447968e-08 2.4314689449e-07 2.1028063634e-07 2.9944252933e-08 3.2953399951e-07 
5.4041924796e-07 -3.2701327695e-08 6.8645705983e-07 1.2999031276e-07 3.8437339781e-09 8.0509668795e-08 9.3111557388e-08 6.7057182158e-10 6.2515189586e-08 
1.2373983183e-07 2.2516990649e-09 8.5101041952e-08 3.7896366309e-08 -2.0171579218e-09 1.0509622237e-07 7.7502693486e-08 -2.4501529471e-09 1.8172953414e-07 
4.3168532653e-08 -9.2906181194e-10 1.09742278e-07 0.00014556752576 -4.990838316e-07 0.00014655097448 0.00016646935004 2.1635800259e-08 0.00017036562609 
3.6570263387e-05 2.0618767433e-07 3.4619507009e-05 2.2236502169e-07 -1.2815343692e-09 1.9618965749e-07 2.3148009203e-07 4.0260310385e-08 2.8511480325e-07 
3.1723509537e-07 3.7169037008e-08 2.3096222604e-07 2.8264673671e-06 1.1542059655e-07 2.9052850551e-06 4.283916674e-06 -1.3776551105e-07 3.6795809876e-06 
1.2367566642e-05 -2.1428479127e-07 1.1715521362e-05 5.1712038285e-07 5.9545659478e-08 7.7384130643e-07 2.5536595398e-07 6.5421385226e-08 3.2088690571e-07 
3.0972857081e-07 4.2671644011e-08 3.508809521e-07 3.4410431332e-07 6.4040617561e-08 4.5074761462e-07 3.0719748234e-07 6.6370172781e-08 3.442386697e-07 
3.0880120915e-07 3.6218976715e-08 4.8417610138e-07 1.0528388605e-05 6.6370059049e-07 8.0067739355e-06 1.6143274409e-05 1.2471698472e-06 1.5691574316e-05 
2.276924394e-06 4.5993368719e-08 1.2713171693e-06 2.2272170462e-06 1.5974571972e-07 1.4557779604e-06 3.5893098288e-06 6.8549371132e-08 3.08402066e-06 
1.2283847542e-05 7.1255612031e-07 1.2266992998e-05 6.0218351402e-09 -7.438143825e-10 -2.3851636003e-09 2.339998353e-08 -1.388013098e-09 3.9343799133e-10 
2.3643514615e-08 -1.5837420067e-09 1.3167952562e-08 3.9603601995e-05 1.3639172413e-08 3.9369340992e-05 3.7356813382e-05 2.0850218892e-07 3.7417328975e-05 
1.5332849502e-05 1.1527341289e-07 1.5224435013e-05 3.2645174543e-05 3.2286921798e-07 3.181644164e-05 1.6541139907e-05 -4.7357276557e-08 1.6314829676e-05 
3.9740004568e-07 -1.6610202269e-08 4.2368443845e-07 2.8443089742e-07 6.2917989256e-08 3.429431155e-07 1.3518355184e-07 -9.3325190001e-10 2.9928765823e-07 
1.1716333402e-07 -1.0903752049e-08 2.210571539e-07 9.5655378881e-08 -5.1424553688e-09 2.0981793585e-07 1.0647715491e-07 -1.1177027428e-09 2.3672198464e-07 
7.5928074745e-08 -3.213927202e-09 1.6922702332e-07 1.1690935723e-07 -3.3568170207e-10 2.4936611073e-07 2.2682995478e-07 5.5158464316e-09 1.6004924162e-07 
2.5347567548e-07 1.591109432e-09 1.8175135715e-07 1.8393994936e-07 -2.0261163554e-09 1.3186336887e-07 2.1645210077e-07 6.8579590192e-09 1.5878398658e-07 
2.1214893144e-07 -8.0881010306e-10 1.6518782456e-07 1.0440931699e-07 -5.3897517037e-09 1.3307118028e-07 1.3476621501e-07 -3.3764991894e-09 1.6029576761e-07 
1.9868466188e-07 -8.1262427031e-09 1.9491863657e-07 1.447033251e-07 -4.5754885348e-09 1.6208511259e-07 1.5539472167e-07 -6.2306162558e-09 1.5686748896e-07 
0.000179496063 -1.0220081958e-09 0.00018249280363 0.00016430989969 -6.2195775575e-07 0.00016439923764 0.00011534975156 8.402794173e-07 0.00011051396891 
0.00010325232374 1.1087938908e-06 7.6642316219e-05 0.00010146275525 1.6514651245e-06 7.4930650081e-05 9.0519141879e-05 -1.0235110552e-06 8.4849618322e-05 
7.0407736899e-05 3.6690601432e-06 4.9429705381e-05 8.9958963434e-05 3.7973123411e-07 8.4729737183e-05 5.4460814027e-06 7.952149475e-08 5.1255574029e-06 
2.0213923406e-05 3.4503946739e-07 1.9735921284e-05 2.2932737978e-05 3.9302740231e-07 2.2441423638e-05 1.8927644631e-07 -1.3983838739e-07 2.2424192028e-07 
2.4850915921e-06 2.8930128451e-07 2.0793729992e-06 6.811219407e-07 -1.7364566226e-08 5.1235400492e-07 1.6043875241e-07 1.0157380204e-07 3.2835227548e-07 
1.6913253155e-06 2.474642207e-07 1.6312807579e-06 4.8697379177e-07 8.7086673765e-08 5.9398472018e-07 7.3900173585e-08 1.4455839445e-09 1.0280154887e-07 
4.8238111727e-08 3.425916958e-09 8.1783391543e-08 2.8241411144e-08 2.8232165948e-09 7.2918875809e-08 9.6225835086e-08 7.3533395946e-09 1.6558487851e-07 
3.2090370087e-08 3.9547655588e-09 7.8550405346e-08 4.2441905627e-08 6.7607663819e-09 7.9348054267e-08 6.409008269e-08 7.5657372976e-09 8.8538434845e-08 
2.5897529166e-08 5.596564896e-09 7.4794826946e-08 2.6463972737e-08 5.1575329913e-09 7.8927862202e-08 7.0876364698e-08 4.9773880372e-09 1.465477437e-07 
1.4905410243e-05 1.5559666418e-07 1.4640042865e-05 1.6331329663e-05 -2.2642684606e-07 1.6317299166e-05 4.2786966727e-05 6.2103423061e-07 4.0762978327e-05 
4.5039013403e-05 -1.3577382366e-07 4.4200957669e-05 3.7528360387e-05 -2.31102444e-07 3.7246803766e-05 2.3889772568e-08 2.9362458326e-09 5.6640784166e-08 
3.2132466955e-08 3.1602557571e-09 6.442389275e-08 6.6461746167e-08 7.9976527815e-10 1.3480954615e-07 8.1616085654e-08 -8.1241298297e-11 6.1630150353e-08 
9.9425587458e-07 3.166785574e-08 9.6451266839e-07 2.4943650528e-07 1.189651846e-08 3.6898390453e-07 4.2844676779e-06 5.3212936228e-09 4.3519176242e-06 
2.5281467195e-07 -2.4305534976e-08 3.4318839124e-07 1.0109454016e-06 1.2213553079e-07 1.2168266404e-06 2.9769652851e-06 1.7155390646e-07 2.7305900511e-06 
9.7531711369e-06 3.0211563132e-07 9.1239576947e-06 -1.8256500742e-08 -6.5804828276e-08 2.0712332908e-07 1.336753647e-06 5.3026282505e-08 1.2690113289e-06 
2.5798302793e-06 1.5308497209e-07 2.6267365986e-06 7.0354876128e-08 -3.5161685223e-09 4.4811047795e-08 7.6178237172e-08 -3.3832448224e-09 4.8188048717e-08 
9.1739183144e-08 -3.7908904996e-09 6.4188405895e-08 8.5367629272e-08 -3.4787456527e-09 6.0266808659e-08 2.0800872242e-08 2.6394296098e-09 6.1044864842e-08 
1.4167342396e-08 2.1176942859e-09 5.6941319822e-08 3.7397672358e-08 7.6117429812e-10 1.2160636708e-07 2.7392753556e-05 5.5956260628e-07 2.7194088487e-05 
3.623754428e-05 2.0817405578e-07 3.5298009456e-05 5.5424957907e-05 -9.6927667374e-08 5.3813443563e-05 1.4355401932e-07 1.5874833862e-08 3.2116924115e-07 
1.1644556637e-07 1.3608966828e-09 2.290575194e-07 9.8708652127e-08 3.8116806978e-09 1.9667653675e-07 1.1109948567e-07 -1.5812062345e-08 2.9209733452e-07 
0.00014807009991 -1.8395336676e-06 0.00012150449327 0.00015362938332 -2.1457171675e-06 0.00013603320676 0.00014870415297 -1.6713145252e-07 0.00013488508563 
0.00011750699401 -2.1351133254e-06 0.00011075040467 0.00014390622036 -2.6901108518e-06 0.0001207172282 8.1317295307e-05 4.5570699555e-07 8.1447764649e-05 
5.294751022e-05 2.5405809736e-07 5.1816789628e-05 3.2133512783e-05 5.4469276716e-07 3.1072134421e-05 1.8454335295e-05 -3.9539481336e-07 1.6748772329e-05 
3.4975947876e-05 1.4600003426e-06 3.3307251487e-05 3.6449976152e-05 -2.9923001552e-07 3.485336593e-05 8.3322458968e-05 4.2737544735e-07 8.2383528176e-05 
6.7315350417e-05 6.8836537646e-07 6.7304718452e-05 7.9920242523e-05 2.8014575216e-08 7.9570683104e-05 2.5764999398e-08 -1.915615865e-09 4.1912936576e-09 
4.3216155268e-08 -1.8420885731e-09 2.1024169869e-08 9.2450507098e-08 -5.4176603374e-09 7.786304326e-08 8.6092959662e-08 -4.9539819772e-09 7.2280742377e-08 
1.3456849013e-07 -2.3807014385e-09 9.6545568549e-08 4.1424947192e-05 2.2266221115e-07 4.0012330689e-05 9.6657138813e-05 -5.2484025655e-07 6.2202506135e-05 
8.8896881067e-05 -3.2404430016e-07 7.5147623862e-05 0.00012038686497 -3.4398624461e-06 0.00010865700586 9.0064580038e-05 -3.1154218772e-06 7.3029950505e-05 
0.00017233365184 -1.7395434981e-07 0.0001748935133 0.00017411010916 1.8113510428e-07 0.0001766257831 0.00017909208595 -2.0206818056e-07 0.0001835442567 
0.0001553197779 3.5534721428e-07 0.00015796991559 2.3978016726e-07 2.6133277349e-09 1.9888620625e-07 1.1466450576e-07 -2.9758843711e-09 8.0124523353e-08 
2.8091331907e-06 1.9917860496e-07 2.5675684796e-06 9.4108907599e-07 5.7273599182e-08 1.0167523189e-06 5.9217169932e-06 3.2253962005e-07 5.4549235979e-06 
8.5516528602e-05 3.9881977356e-07 8.3423807579e-05 8.9932622765e-05 4.3747140466e-07 9.0838567728e-05 2.6973459399e-05 3.316523798e-07 2.6324587838e-05 
1.5501228608e-05 5.5421674649e-07 1.5516896935e-05 2.171229373e-07 3.3592325743e-08 1.8230196701e-07 2.6538906531e-07 2.9218954077e-08 1.9693635392e-07 
2.3453360169e-07 2.2511164888e-08 1.6125325143e-07 1.8601141982e-07 1.7470902785e-08 1.2124128091e-07 2.1730756623e-07 7.0582641886e-09 1.5523167903e-07 
2.201881655e-07 1.5690713898e-08 1.5170549893e-07 4.8561134003e-07 7.4053270365e-08 2.4657124744e-07 2.6414017337e-07 3.8791881123e-11 2.3270664897e-07 
2.7898773859e-07 -2.8433645797e-10 2.5461072963e-07 0.00018798954882 -1.4474456872e-08 0.0001917561679 0.00018742816734 1.529661127e-07 0.00019124069812 
0.00018904688971 3.6223506067e-08 0.00019294241242 0.00018644036526 -1.3980373191e-07 0.00019002062582 0.00018909693867 1.087286572e-07 0.00019304898968 
1.4849180456e-07 -1.0089335467e-08 2.2386563138e-07 3.2231477505e-05 -1.4552651107e-08 3.1509760872e-05 3.8677210071e-05 -1.3017713882e-07 3.8404911379e-05 
7.0520805948e-05 -9.1593982255e-08 7.1023070387e-05 8.085257084e-05 -2.0517276845e-07 8.1517795118e-05 3.6371636301e-08 -4.5628910754e-10 6.4093409025e-08 
1.3807042007e-08 -1.0606182848e-09 3.1189171529e-08 3.2669223582e-08 -2.2212676209e-09 5.6661149796e-08 6.0471900792e-08 -1.9432623652e-09 3.9095416037e-08 
6.185260861e-08 -2.3497046509e-09 4.7078429626e-08 9.347416037e-08 -1.1557917708e-09 6.7239256301e-08 1.0145548113e-07 -1.7047695209e-09 7.3103206898e-08 
2.9064641577e-06 4.1207490158e-08 2.6356176472e-06 2.0728818548e-06 1.1725027521e-07 2.0902675233e-06 9.4849022301e-08 -2.9243042711e-09 6.9971193817e-08 
1.4104266183e-07 -3.1084723781e-09 1.0257953881e-07 0.00018903328034 5.1479830679e-08 0.00019294174486 0.00018906135312 -9.3407645678e-09 0.00019299760335 
2.8385529791e-05 -1.5654223154e-07 2.8254419639e-05 6.5845749139e-05 -1.5653187071e-07 6.4679126404e-05 3.7224943479e-07 1.98112772e-08 3.9342504261e-07 
3.118851069e-07 7.775032607e-08 3.2182659373e-07 3.3939297831e-07 5.0770704041e-08 3.8365810993e-07 9.1933956517e-05 -9.0299894002e-08 9.1420322935e-05 
1.6391230503e-05 3.4050513815e-07 1.5906626938e-05 2.5996989156e-05 2.9125043114e-07 2.5402459062e-05 4.4621924676e-05 -1.1241345841e-07 4.3300169212e-05 
3.5304096825e-05 -1.6270479182e-07 3.4018501079e-05 4.9899802484e-05 1.0603093473e-07 4.8498610654e-05 1.9225544417e-05 1.8439897633e-07 1.7967462881e-05 
2.3409130897e-07 4.9449908472e-08 2.0124034329e-07 1.8407174838e-07 4.3506535024e-08 1.8137381148e-07 0.00018788993672 1.3790272266e-07 0.00019146547015 
0.00017910925876 1.2526427551e-07 0.00018302709331 0.00018722756497 -1.8512381144e-07 0.0001917012057 0.00018911093199 2.7444336102e-08 0.00019285117028 
0.0001867507986 -2.7810201629e-08 0.00019062776094 5.4946534002e-08 3.7270974919e-10 1.5849011096e-08 5.9117440092e-08 -1.9695017364e-10 2.9826836566e-08 
3.3856394046e-08 -2.9384832713e-10 -2.3059116031e-09 4.4003279667e-08 -5.1371502007e-11 1.6682321113e-09 4.8309275755e-08 -5.2865755182e-10 1.3659021594e-08 
7.6824770524e-08 1.0517855726e-09 3.6621002901e-08 1.5595942199e-07 -3.4451561476e-09 1.8293809418e-07 1.6737720123e-07 7.5457116585e-10 2.124839775e-07 
1.7954979209e-07 -1.1398132604e-10 2.5952020887e-07 2.9767425407e-07 -1.3863636007e-08 2.6905161115e-07 7.3598999575e-08 -3.0301833615e-09 4.7274489177e-08 
2.3887718329e-05 3.2286215929e-07 2.2181739189e-05 3.1625857397e-05 6.6329210899e-07 3.1151551819e-05 2.0237649553e-05 8.4498683587e-07 1.3819311348e-05 
5.2841785226e-05 -1.6520195654e-06 4.5922809154e-05 7.7713422183e-05 2.2454315532e-06 7.5613907958e-05 2.4777039551e-05 7.4154481966e-09 1.7161654574e-05 
3.8254963275e-05 1.2180613299e-06 3.8662805462e-05 4.5914226774e-05 -5.4489637099e-08 4.5314628466e-05 8.8596822019e-08 4.8452196429e-09 4.3736247217e-08 
1.0006508634e-07 1.0002310544e-08 6.8668453843e-08 1.7325674004e-05 -4.8271186064e-08 1.6339925614e-05 3.1920231776e-06 1.3998166301e-08 2.8365703284e-06 
1.6333626225e-05 3.3100452621e-08 1.5437900519e-05 3.6358217492e-05 -2.7026153458e-07 3.4053363767e-05 1.1221303139e-05 -2.3173722434e-07 1.0202778021e-05 
1.0850736305e-05 1.9899045425e-07 1.0650604283e-05 3.7095623294e-08 -3.6880705442e-10 1.2940231472e-08 3.5573541743e-08 -6.024555938e-10 2.1854824968e-09 
6.3275911698e-08 -8.1768863032e-11 3.3836263736e-08 4.7840000451e-07 1.7125793037e-07 8.0018983526e-07 2.2442230089e-07 6.2372236205e-08 3.0397390002e-07 
5.1230489377e-08 -2.1855281061e-09 4.9622724687e-08 5.0709452434e-08 -1.6716487972e-09 2.9048068824e-08 4.5998727532e-08 -1.621981344e-09 4.3824606268e-08 
0.00016497053667 -2.2090742521e-07 0.0001677053515 0.00013994163347 -1.4309655681e-06 8.7966289234e-05 0.0001323353355 -1.771500531e-06 6.7479887517e-05 
7.7306107974e-06 3.5418964404e-07 6.2890997445e-06 3.9774056294e-06 2.7456677606e-07 3.3561179131e-06 2.6772813996e-06 1.8211916591e-07 2.4531415698e-06 
7.6310252751e-05 2.7831277472e-07 7.4731591752e-05 8.8789773307e-05 -5.9761042194e-07 8.831137627e-05 4.6705823261e-05 -4.9064591168e-07 4.475444619e-05 
5.4481299572e-05 -2.0849953079e-08 5.3341296509e-05 0.00018071994091 7.4799375863e-07 0.00018438358391 0.00018087724817 2.3254584227e-07 0.00018496667714 
0.00018719236196 6.8541330744e-08 0.00019069029324 0.00016015721517 -3.9117148247e-07 0.00016208052488 0.00017382939765 2.2064785253e-07 0.00017712253603 
0.00018099700555 -4.1720682499e-08 0.00018527759956 0.000173761105 -1.931038676e-07 0.0001772994221 0.00018176175556 7.8800960427e-08 0.00018587693847 
0.00016248926083 -3.5197259645e-07 0.00016443781551 0.0001892585884 3.2026806108e-08 0.00019294629399 0.00018894374688 2.5881491346e-08 0.00019285386374 
0.00018900056126 2.6620286187e-08 0.00019287066115 5.1201335537e-07 9.3788479621e-08 3.6738234859e-07 6.1796673594e-08 -8.8559138727e-10 4.8703199673e-08 
4.351012485e-08 -8.363139518e-10 3.3424023143e-08 3.8476267735e-08 -3.6290712316e-10 3.5783275911e-08 2.3508833483e-08 -2.9338480028e-10 2.1564356825e-08 
7.0964981899e-06 2.7993821791e-07 5.8664482529e-06 2.6077582375e-05 1.6986908959e-07 2.4137025328e-05 6.7254271849e-06 -2.1745639503e-08 6.3703768898e-06 
9.0682484516e-05 -5.6917533161e-07 8.9935330037e-05 5.2638625882e-06 2.2922543144e-07 5.0959252884e-06 1.1244043443e-07 1.0296403118e-09 9.0086910278e-08 
3.9084576584e-07 8.5506973248e-08 2.8296567565e-07 3.061428625e-07 3.7916287892e-08 2.8260490567e-07 4.2196583015e-07 7.2269941479e-08 2.0385547266e-07 
2.5897671531e-07 3.8225037508e-08 1.8536682312e-07 2.4651391284e-07 3.263533974e-08 1.7147586802e-07 2.2283691243e-07 2.3912794478e-08 1.4757514809e-07 
0.00018488767852 7.587321363e-08 0.00018902931887 0.00018471245087 2.5352401177e-07 0.00018950964479 0.00018071742924 -1.7883277343e-07 0.00018470929973 
5.8423779143e-05 1.5878153314e-08 5.821727484e-05 2.9185363648e-05 1.3164646202e-07 2.8617608998e-05 0.00018645665835 -2.7083608048e-07 0.00018995632583 
9.1027290579e-07 4.830159952e-08 1.0835479092e-06 8.4042536826e-07 3.8355771632e-08 7.6289797802e-07 1.3994158894e-06 -7.9433156766e-08 1.4726631446e-06 
4.3040612046e-07 -1.5484238084e-09 4.4665755072e-07 3.6844783775e-07 -2.3728562989e-08 3.3276498299e-07 1.4066646086e-07 -1.7913155333e-09 1.5064143003e-07 
1.0889386851e-07 -7.7574438596e-11 9.9775094211e-08 0.00016663829282 6.078866595e-08 0.00016839174829 0.00017951511717 -9.1298370305e-08 0.00018349604248 
0.00018003446271 3.0491473727e-08 0.00018330003214 3.6568142066e-05 6.032701502e-07 3.3712091149e-05 1.1005716022e-05 1.7654999974e-07 1.1015586828e-05 
1.8416031127e-05 2.2938975702e-07 1.8186726034e-05 0.00013793727129 -8.3623617011e-06 6.3766807392e-05 0.00014686303289 -3.4314934061e-06 0.00011616082619 
0.00018324317566 -8.202532588e-08 0.00018690039756 0.00018189844138 2.5962522981e-07 0.00018577593098 0.00017442363202 -1.2229959611e-07 0.00017802738634 
0.00015674497961 4.2948558322e-07 0.0001600330199 0.00015185540715 4.7800638478e-09 0.00015613896284 0.00016858312081 4.7546459693e-07 0.00017226109765 
1.2674226322e-07 8.0675269968e-09 1.689681898e-07 8.6677228512e-08 1.3331874762e-09 1.6385130018e-07 8.5991920447e-08 8.5746861445e-09 1.5043383118e-07 
9.6888860589e-08 3.926524088e-09 1.3162094395e-07 9.1988713452e-08 -7.0295932124e-09 1.4562768783e-07 7.6027794348e-08 -2.2191740891e-09 5.0710432938e-08 
5.1355134523e-08 -2.2286617763e-09 2.798555368e-08 7.2207740372e-08 -1.1265595155e-09 5.2409961279e-08 9.3702664768e-07 5.0963876616e-08 9.1749171007e-07 
2.3714521555e-07 -9.3875415199e-09 4.2100556956e-07 1.445001674e-07 -9.6507650296e-09 3.0969556452e-07 0.00010866863408 5.3106955622e-07 6.4952012376e-05 
0.0001232782336 1.9479188207e-06 0.00010545152188 0.00016677383284 3.1320616408e-07 0.00016358476893 0.00014214500107 -6.7614146466e-07 0.00013605737598 
0.00018154673872 9.8925354253e-07 0.00017729420124 0.00018251602449 4.9417228208e-07 0.00018424561313 0.00016881816463 -6.4583042753e-07 0.0001704636665 
0.00015044171768 -9.1797400416e-07 0.00015166313469 0.00017480879018 -1.6292863542e-07 0.0001781544468 0.0001845638784 -1.9207058016e-08 0.00018859669632 
0.00018314053501 -4.6476183708e-09 0.00018674805626 0.00018738147736 -1.4798072943e-07 0.00019156972366 0.00018132568332 -3.6861755709e-08 0.00018502465587 
1.6924882505e-07 2.3947592567e-08 2.8072285746e-07 0.00017911296174 4.3457300467e-08 0.00018341795341 0.00016470467995 7.6959296208e-08 0.00016738768339 
0.00016041161683 1.039652942e-07 0.00016324186326 0.00014756680374 -2.1562616112e-07 0.00014907331679 5.6473567707e-06 -2.0574627351e-07 5.6275778383e-06 
3.7019056581e-06 2.801664106e-08 3.8213443123e-06 9.8716194555e-08 1.7541660861e-09 5.7235147234e-08 1.307251893e-07 6.3196529774e-09 7.5005307752e-08 
9.4590287531e-08 2.5830462463e-09 5.0777233974e-08 0.00018888926497 -4.8079742204e-08 0.00019262782238 0.00018880685501 -7.4101794608e-08 0.00019278575548 
1.8233749479e-07 2.1580905012e-08 1.326353973e-07 2.0965357926e-07 1.9877891417e-08 1.6646988871e-07 1.8189256023e-07 8.8020902793e-09 1.2107507117e-07 
2.2128192444e-07 -1.8877331543e-08 2.1988866513e-07 2.4161393916e-07 -2.098728165e-08 2.5449559439e-07 2.7890177947e-07 -2.0488039265e-08 3.1473953971e-07 
5.4597732678e-08 1.1517432577e-09 1.34570409e-08 7.8368408826e-08 1.7617420673e-09 3.2432662832e-08 1.4794498672e-06 8.2931242539e-08 1.5407445594e-06 
1.0115791098e-06 -4.97913336e-08 1.0759899715e-06 3.8975089301e-07 3.6551832815e-08 3.8526565413e-07 2.9732623161e-07 1.2662477681e-10 3.8589721605e-07 
2.3139499757e-07 3.4940545262e-08 3.8405193168e-07 4.329089061e-07 6.3191575312e-08 5.4606417564e-07 0.00015923312587 3.1559233718e-07 8.7937360768e-05 
0.00010393513556 -1.4773753652e-06 8.0645874929e-05 4.8040468273e-08 -1.3668485914e-09 9.8407667164e-08 1.3217641671e-08 -1.0405618121e-09 3.3073295303e-08 
1.9516259893e-08 -2.567017812e-09 4.1422375452e-08 4.5890208368e-08 -3.6050021651e-09 6.6469576537e-08 1.2843192148e-08 -1.627387909e-09 2.1047672035e-08 
3.6548477e-08 -3.5892829712e-09 6.4120761743e-08 0.00018055059611 -8.0649424025e-08 0.00018357670037 0.00018119171589 -6.0071350511e-07 0.00018432251431 
0.00016618414285 -3.1752424192e-07 0.00016762751712 0.00018493752691 -4.0584344325e-08 0.00018910281816 2.1167498317e-07 2.7213522771e-08 3.7085123524e-07 
1.2860798224e-07 9.4481169826e-09 2.8453275964e-07 6.429586516e-07 8.3062156449e-08 5.1631835611e-07 1.1308500656e-06 6.014635839e-08 1.2885398573e-06 
9.7063742795e-07 1.3403818915e-07 8.84807611e-07 6.1965049363e-08 -3.3803761725e-09 1.3737962071e-07 1.3159309208e-07 1.9608833576e-09 9.5037492636e-08 
1.7145757933e-07 1.3169845794e-09 1.4124361791e-07 1.7566587156e-07 8.210892703e-09 1.1613460829e-07 8.324066812e-06 -1.160560946e-08 8.4484686488e-06 
2.1529054793e-06 1.0180869256e-08 1.8276537997e-06 9.3617532344e-06 1.876977903e-08 8.6440376614e-06 7.5127542134e-08 3.6500931776e-09 3.3946863544e-08 
6.2858110363e-05 1.7971637536e-06 4.1266822142e-05 8.9305321997e-05 -5.2743029849e-06 8.3198720267e-05 1.4651205638e-06 1.8939664669e-07 1.2985914534e-06 
5.8724197251e-07 -1.5789185206e-08 4.8988133496e-07 0.00015751017192 2.3968322943e-06 0.00015855384535 0.0001463448789 3.4717796058e-07 0.00014820722903 
0.00017986272034 9.6337708657e-07 0.00018166000402 0.00015871367214 2.7486471429e-06 0.00015921307643 1.6906363129e-06 1.1474111928e-07 1.7442681548e-06 
5.2864631917e-06 1.0200144352e-07 5.3005678859e-06 2.5574525622e-07 3.4115763511e-08 3.7281523063e-07 2.8423168893e-07 3.4961187938e-08 3.4380453187e-07 
2.5382520226e-07 1.9323332379e-09 3.5160223314e-07 2.105398481e-07 1.9108315714e-08 3.1824343153e-07 3.6699778171e-07 1.7594178388e-08 4.0515749939e-07 
2.7089567697e-07 3.9487906644e-08 3.0664736607e-07 2.194838524e-07 1.1651622106e-08 1.4914904919e-07 1.8574899858e-07 1.9371500718e-08 1.2014736367e-07 
1.7394753291e-07 1.3983312201e-08 1.1154403359e-07 1.7744314582e-05 7.9179853009e-09 1.6980893868e-05 1.9568019763e-06 3.1395847919e-07 1.5874866456e-06 
6.7356009917e-08 9.0630062362e-09 1.348998609e-07 7.8582555874e-08 4.8335819036e-09 1.1582724458e-07 2.2115453504e-06 -4.5094319687e-08 2.0831926035e-06 
6.2223793799e-07 2.4333939562e-08 7.0100771654e-07 3.0777458834e-07 -4.6401094763e-10 3.5896258708e-07 3.023928192e-07 3.9091098245e-08 2.6685832481e-07 
1.5063565621e-07 7.5825664922e-08 1.9848774451e-07 2.2425468096e-07 -5.8398518641e-09 2.0476603935e-07 8.5308863553e-08 -1.8712657259e-08 1.5655978783e-07 
2.6166288e-07 -2.4605581243e-08 2.4148997061e-07 -3.0383707841e-09 -2.7701117004e-08 1.4408392833e-07 0.00018915280682 3.3330683854e-08 0.00019292505807 
0.00018891998078 2.1388919501e-08 0.00019270575807 0.00018907609953 1.5275653084e-08 0.00019289056599 0.00018899847014 -1.9097489623e-08 0.00019275357736 
0.00018858112599 5.2730225312e-08 0.00019257922217 0.00018493527943 1.8526487829e-07 0.00018874119007 0.00018911013638 6.07268179e-09 0.00019289996332 
0.0001891122836 5.0972670802e-09 0.00019292568689 0.00018912518357 9.9128941487e-09 0.00019293720817 0.00018914883467 9.2811709488e-09 0.00019289884247 
0.00018913935907 5.7634780004e-09 0.00019292749051 5.7171035156e-05 -1.2972105991e-07 5.765564869e-05 3.8484505386e-05 9.8527274163e-08 3.8330075564e-05 
0.00016762240553 -6.253519063e-07 0.00017103908746 0.00015696871568 4.2510550639e-07 0.00015962053802 0.00016262337607 3.6945264634e-07 0.00016556035136 
0.00014385358813 7.6947698156e-07 0.00014632021931 0.0001298820668 4.2707631359e-07 0.0001307457273 0.00013667918937 8.4617652945e-07 0.00013856747597 
0.00015677202549 5.6833938599e-08 0.00015928557073 0.00018913220679 -1.1119822758e-09 0.00019289234277 0.00018914959182 3.5196826624e-09 0.00019290821181 
0.00018913800556 1.2494387568e-08 0.00019291683325 0.00018914401565 8.0163562347e-09 0.00019291883078 9.7333511968e-07 -1.53014227e-08 1.107181835e-06 
4.1754778151e-07 5.049458627e-08 4.438822937e-07 1.2514602964e-07 3.6466015213e-08 1.9989513217e-07 1.4369569328e-06 -1.7995431207e-08 1.5157424539e-06 
5.2450748562e-07 1.1176009186e-08 6.5087362997e-07 3.2300668945e-06 -6.2317218901e-08 3.2742191402e-06 7.9944187649e-05 2.6764159171e-07 7.9781763047e-05 
0.00016100252135 3.1390496399e-06 0.00010875686593 1.9469076121e-07 1.2047411344e-08 2.1848830942e-07 1.8966690678e-07 9.9218687107e-09 1.5758343264e-07 
1.9057813228e-06 9.7253249453e-08 1.8876130254e-06 7.6253862579e-07 1.4461232255e-07 8.8734209017e-07 5.9416633946e-06 -1.4856341984e-07 5.2731381334e-06 
8.4014581014e-06 2.0161607352e-07 8.387267848e-06 3.334301812e-06 4.142065977e-09 3.1776830277e-06 2.5962186697e-07 -7.3811566548e-09 2.3830643937e-07 
2.6694316347e-07 -1.2934340661e-08 2.1622694983e-07 2.3739728309e-07 8.7063806332e-09 2.1923117407e-07 0.00014128489554 8.9589619366e-07 7.6326588498e-05 
0.00016852399256 7.5591017e-08 0.0001732046284 0.00013807600616 -8.1582015754e-07 0.00013817448274 0.00015377014571 1.0489215409e-07 0.00015750419388 
0.00010935079551 -2.5176452786e-07 0.0001106844193 0.00014717677143 -1.5779228442e-07 0.00014814688469 1.9176670197e-07 1.5181955547e-08 2.6439006511e-07 
2.690991181e-07 -3.952960212e-08 2.9841005038e-07 2.3652721588e-07 8.5519499206e-10 1.8449336697e-07 2.7208845619e-07 1.0690376561e-08 1.8348568425e-07 
2.6170744928e-07 2.5781263309e-08 2.1365712049e-07 2.9189462695e-07 2.3364192023e-08 2.071406161e-07 1.8649381129e-07 -7.0031682836e-09 1.9237296219e-07 
2.4033148132e-07 -1.9087989686e-08 2.7930469677e-07 4.0349713294e-08 1.4355795785e-09 6.9487240726e-08 6.3117641641e-08 1.0032312419e-08 1.1358194834e-07 
1.0612372366e-07 3.4652653584e-09 1.3656250856e-07 3.8321362806e-08 -2.5762384959e-09 7.3002212006e-08 8.1993604374e-08 -5.4264978301e-10 1.2814906419e-07 
2.3553346241e-08 2.6230052811e-09 6.10269343e-08 1.0717731212e-07 4.7340797046e-09 1.9411244204e-07 8.398149508e-08 5.3825741671e-09 1.5704572738e-07 
5.5287127931e-08 -1.1105746161e-09 1.1487877793e-07 7.2587380662e-08 -1.6414231363e-09 1.5107781144e-07 1.3334626571e-07 1.7802810982e-08 1.7359089373e-07 
1.3536132042e-07 1.5430417005e-08 1.9899918099e-07 1.4208446443e-07 3.5414251386e-08 2.2659892032e-07 1.7469833314e-07 2.3660852256e-08 2.1514270035e-07 
1.3874156875e-07 3.6746907446e-08 1.8173720824e-07 0.0001070104796 3.3108806587e-07 0.00010538570241 9.1030613884e-05 2.9825772473e-07 8.7643743794e-05 
6.1633280733e-05 -8.6488189202e-08 5.9711136494e-05 2.0784474846e-07 4.4934020221e-08 1.95258116e-07 3.0467797815e-06 3.2581939703e-07 2.5337906656e-06 
6.1744085873e-07 1.9830873033e-07 8.7511892151e-07 0.00018662690814 -9.8336369876e-08 0.00019026950251 0.00018899638037 6.3714556015e-08 0.00019274842507 
0.0001561399271 2.2708779765e-06 0.00014790219936 0.00015931290889 7.3506847884e-07 0.00014875910186 3.8650325564e-06 8.1410265704e-08 3.4446149273e-06 
6.432703729e-07 7.0902646845e-10 3.8488510529e-07 0.00018909900083 1.3772854275e-08 0.00019290643676 0.00018912643075 1.114711662e-08 0.00019290877184 
1.564797817e-07 4.2356179772e-08 2.2575553925e-07 2.0335345579e-07 4.4463292785e-08 2.736737092e-07 1.7228039777e-08 -1.0835828695e-09 -1.8002329519e-08 
0.00016026448566 -5.2072870371e-07 0.00014962097462 0.00015822826618 -3.2960994132e-07 0.00014846594295 6.9098083725e-07 -1.7916528302e-08 5.4603616724e-07 
1.0449190311e-07 -3.4021051218e-09 8.1308556043e-08 8.544561703e-08 -5.6429502188e-10 7.2294119319e-08 1.2070116041e-07 7.4619419105e-10 1.1954598828e-07 
1.1205033098e-07 -4.6516158375e-10 8.8236575197e-08 1.4494649521e-07 8.7823013097e-09 8.5351732318e-08 1.9891076424e-08 -8.1429187989e-10 -3.5033383667e-09 
1.5685698769e-08 -1.2335055211e-09 -2.3301540788e-09 1.0694711889e-08 -2.5028872631e-10 -8.2566202816e-09 0.00012753937381 -3.77964267e-07 0.00012873677333 
0.00014881992849 -2.9804510782e-08 0.00015173748768 0.00012556080867 -8.5229030108e-09 0.00012585112176 0.0001891569321 4.6894562866e-09 0.00019290157881 
0.00018916191518 1.6465497272e-08 0.0001929009222 4.2092492e-05 -4.4746066926e-07 4.1368875361e-05 3.9749710779e-07 5.1586542642e-08 4.7003873029e-07 
1.4947511977e-06 2.8108477764e-07 1.5445348535e-06 1.388836937e-06 2.3180265392e-08 1.2874860187e-06 7.1052041009e-07 1.4647491695e-07 9.3124586044e-07 
2.2872803634e-06 5.2636236566e-07 2.6628354423e-06 5.4419987401e-07 7.7067672823e-08 7.3277691379e-07 2.5322036242e-07 9.9419874865e-09 1.8705363667e-07 
2.0458360929e-07 4.5549231492e-09 1.5567702862e-07 0.00018603534536 5.8953565243e-07 0.00018972879544 0.00017897380615 5.8731339429e-07 0.00018216602322 
0.0001805479593 1.0161423611e-06 0.00018328809404 0.00018646485835 -1.3111527268e-07 0.00019044394658 0.00018521371887 -1.2740465229e-07 0.00018895689986 
0.00018814569749 -3.7827893759e-09 0.000192194583 0.00015458640966 -1.3226288655e-07 0.00015727879403 0.00017689928614 -1.0161135892e-07 0.00017877295163 
0.00017085738839 -8.0384493817e-07 0.00017397261065 9.1226402304e-08 8.2780215181e-09 5.5917840651e-08 0.00018668708502 -4.0637622532e-08 0.00019053656079 
0.00013513937237 2.0331863134e-07 0.00013460658651 8.7233694889e-05 7.4737535032e-07 8.672104852e-05 0.00016941509106 -1.751813178e-08 0.00017237591045 
0.0001446787225 -2.133295732e-07 0.00014766403309 0.00014373366433 7.5783444542e-07 0.00014572909265 0.00018089938923 2.5395259715e-07 0.00018188505668 
0.00017247494853 1.0310907243e-06 0.00017625613072 0.00014644754737 8.2580816435e-06 8.4615591217e-05 0.00014975215303 2.581541024e-06 0.00012520804001 
0.00015034813742 3.7830258057e-06 0.00012556794082 0.00018423123164 8.0093430102e-08 0.00018887192119 0.00017139288306 -5.008815471e-07 0.00017605884118 
0.00018451690185 -6.1964607609e-08 0.00018873464059 0.00018886346926 3.4885242278e-08 0.00019294066403 0.00018515986281 7.4424435883e-08 0.00018903669074 
0.00018498873519 -7.2973144528e-08 0.00018882831119 2.5735279755e-08 -8.3865727789e-10 3.0810033137e-09 3.0619688634e-08 -1.0636513747e-09 1.2612544035e-08 
5.0666363687e-08 -9.7224547225e-10 3.2340517093e-08 3.870467946e-05 4.5450000688e-08 3.7775866429e-05 1.2336708186e-05 -2.9869516264e-07 1.2046817558e-05 
2.8372873337e-05 -1.3367900165e-07 2.7367155728e-05 0.0001767025713 -5.9092688383e-08 0.00017962472173 0.00018684817234 -2.8051872166e-07 0.00019096459338 
2.8924872033e-08 5.8081858689e-09 8.0742982995e-08 4.1429785826e-08 5.9812176129e-09 6.809813617e-08 2.7313466019e-08 3.5077340757e-09 5.6883068809e-08 
0.00015490498206 1.7156593585e-07 0.00015657999118 3.040058616e-07 3.0818264955e-08 2.4794915669e-07 0.00018854215565 3.2106398785e-08 0.00019240518306 
0.00018599679471 6.6785700394e-08 0.00019001017811 0.00015399796076 -9.4815849472e-07 0.00013615276578 0.00014121711203 -1.7381768684e-06 0.00013678622898 
0.00017284330012 -8.3935872718e-07 0.00016862411011 0.00017277398216 -5.8388489865e-08 0.00016456779335 0.00016061680275 1.6434931986e-09 0.00016101158239 
0.0001292184847 1.6733802452e-06 0.00012702899917 1.959071753e-07 -1.875150322e-09 1.527898435e-07 1.6300871827e-07 -2.2105634436e-09 1.1809130807e-07 
1.5650787649e-07 -5.8730961624e-09 1.3009031213e-07 6.68224247e-08 -8.2388652176e-10 3.1666190931e-08 6.3111802923e-08 -2.4249772118e-09 3.3174641453e-08 
1.3108422241e-07 3.5145787107e-08 1.6706558508e-07 0.00017575831467 -5.4672173042e-07 0.00016660476098 2.6213571118e-07 -1.2681377372e-09 2.2301301688e-07 
7.8671994728e-07 -3.0872448171e-08 8.9376593713e-07 1.9116136989e-06 -4.4872673242e-08 1.8924269611e-06 1.3126050507e-06 -5.5652478297e-09 1.3951236601e-06 
3.170575747e-07 -2.6942679367e-08 2.1166079734e-07 0.00016004725716 6.6569568791e-08 0.00016338595653 0.00013863243771 1.7128409628e-07 0.0001397199754 
2.7221943481e-07 9.4379710754e-09 3.4653134976e-07 4.5432252777e-07 2.2169112677e-09 4.5499642951e-07 3.1696644348e-07 7.8691082525e-08 4.3339214664e-07 
2.4599079805e-07 4.5957636569e-08 4.1905050092e-07 4.7332923868e-07 1.2306781619e-07 3.6865253791e-07 2.1749954669e-07 8.0378565824e-08 1.2134320112e-07 
3.9001234836e-06 6.8627467128e-08 3.4829969435e-06 2.6772758393e-06 -3.0682942433e-08 2.7924786792e-06 1.069473563e-05 2.4270043071e-07 1.0820951619e-05 
2.7126095337e-05 2.7159002079e-07 2.4994683413e-05 0.00018911776846 1.5481754436e-08 0.00019288725935 0.00018913562361 1.8658490684e-08 0.00019294624335 
2.1885026328e-07 2.7718914917e-09 1.5243884568e-07 2.1790094686e-07 4.747244029e-09 1.5539870261e-07 7.4686180331e-05 1.6662630225e-07 7.5216949891e-05 
2.9077176154e-05 8.4055091783e-08 2.8786464598e-05 3.3687958519e-08 -1.1964156027e-09 7.4934357763e-09 5.9665134603e-08 -1.080635009e-09 3.2958527252e-08 
5.8501150812e-08 -8.554884648e-10 3.4983963986e-08 3.4239586926e-08 -1.5531393567e-09 2.4056327408e-08 6.1237013165e-08 -2.0168074113e-09 5.5942018055e-08 
0.0001828580787 5.3957512842e-07 0.00018301763026 0.00017399437056 4.8905162375e-07 0.00017693648513 7.1471185839e-08 2.3952366484e-09 2.5487852248e-08 
5.5919997417e-08 1.5139704413e-10 1.0322672257e-08 0.00010578899678 2.1486884135e-07 0.00010637417954 1.5161401575e-06 -7.2018724688e-08 1.2660560348e-06 
4.8628188276e-07 -6.1653663604e-08 5.110907853e-07 0.00016089229231 -4.2141442104e-07 0.00016428159841 1.5658541783e-07 -2.3031834617e-09 1.2428761814e-07 
2.1729591314e-07 4.2547809994e-09 1.6668636253e-07 1.5481548854e-07 -3.9130386425e-09 1.1375585161e-07 1.8849338438e-07 -3.0555750072e-09 1.3464966429e-07 
0.00015255594845 1.3568915136e-06 0.00013489314537 0.00017311116973 3.7059758789e-07 0.00016587513841 8.3688445027e-08 -1.1492096098e-09 1.5355514955e-07 
9.8995780758e-08 2.4547532037e-09 1.9205687432e-07 5.2777625112e-06 1.4988963096e-08 5.1425944526e-06 7.3071167138e-06 1.9681398389e-07 6.3745724618e-06 
3.0171834895e-06 3.289808934e-07 3.1599423367e-06 9.2981576516e-07 1.6341269938e-07 9.7996562556e-07 1.8237026788e-06 2.1677547884e-07 2.1732829705e-06 
0.00018919470104 4.8076271873e-08 0.00019300551687 0.00018842785093 1.7449569953e-08 0.00019236631325 0.00018919378414 7.6778599113e-08 0.00019298641504 
0.00018859500812 3.5027442104e-08 0.00019240875466 0.00018862470912 1.3282835506e-07 0.00019207201429 2.248447637e-07 3.0730349218e-09 1.7779340668e-07 
1.9829257297e-07 -9.5857999344e-10 1.59129905e-07 2.1404554218e-07 -1.050333885e-08 1.9109453242e-07 0.00016990576217 1.2513790248e-06 0.00015686480628 
0.00014435035063 5.2513911959e-07 0.00014640239471 1.6693307187e-07 2.2083961638e-09 2.4618740827e-07 1.4815896054e-07 -4.6735697831e-09 3.1743894943e-07 
2.2631466413e-07 3.2980750194e-08 2.142473607e-07 5.1959509776e-08 -2.009032757e-09 2.0086526842e-07 5.2040770006e-08 -5.7987419638e-08 1.8448738971e-07 
1.7278717811e-07 4.1330410265e-08 2.2097637178e-07 2.4975274551e-08 -1.5984492355e-09 3.6189334641e-09 4.5992576855e-08 -2.3096074038e-09 1.8975556409e-08 
2.8922620457e-05 1.7068305081e-06 2.7464730225e-05 8.8130550617e-06 -2.3216441806e-08 8.312520058e-06 8.5469016983e-08 1.3971592176e-09 1.4248615081e-07 
1.8858682016e-07 -9.5373189943e-09 1.7861660267e-07 1.405947897e-07 6.1006006942e-10 1.5834108492e-07 1.4416867129e-07 -7.2985531324e-09 1.6703723962e-07 
2.5236978973e-07 1.7867103921e-11 2.3654786088e-07 1.7532177746e-07 -2.7353456642e-10 2.0766303189e-07 2.2761262062e-07 4.4604883616e-09 2.0837326013e-07 
1.1955154214e-07 2.1323414362e-09 1.6741137408e-07 6.797350955e-06 1.6029073688e-07 6.0862071246e-06 5.3932407145e-08 1.1897826711e-09 1.5366128417e-08 
5.8943995819e-05 1.090067418e-08 5.7870685388e-05 6.5375695882e-05 2.4588961895e-07 6.4036162825e-05 0.00017869189153 -1.9501959653e-07 0.00018171918915 
7.710972619e-05 4.8396948896e-07 7.6263301756e-05 1.0662659746e-08 -8.7281493668e-10 -7.8923557916e-09 4.9092837187e-09 -1.1220418332e-09 -6.8700913126e-09 
5.5065084808e-09 -8.0688787349e-10 -4.8509396475e-09 0.00015350850687 5.4405694255e-08 0.00015585488382 1.156216977e-08 -6.290868375e-11 3.5453821874e-08 
2.8598281382e-08 -1.1950487241e-09 8.376888696e-08 1.4514390335e-08 -2.3100392295e-10 4.6480882364e-08 1.5149763475e-08 4.1920164097e-10 4.7972880104e-08 
3.73106214e-08 -8.3948688433e-13 9.0650316411e-08 3.1505285852e-08 -1.1795356981e-09 8.8796685673e-08 9.9717290057e-09 -1.4618931796e-09 2.6550916386e-08 
4.0703789402e-08 -3.1194291656e-09 8.6484848939e-08 3.180798726e-08 -1.9690033219e-09 7.7772119163e-08 7.2439247616e-05 1.5361638323e-06 7.1555709373e-05 
3.6517233251e-05 2.9701267939e-06 3.6054168442e-05 0.00018567308902 -5.5151983483e-08 0.00018897886252 3.2550890696e-06 1.3246842689e-07 3.7636719231e-06 
2.2760460762e-06 1.2734791676e-07 2.0423657351e-06 2.6310287117e-07 1.3595412093e-07 5.0470104892e-07 0.00011397322384 -1.319369385e-06 0.0001125616172 
1.1115380034e-07 1.6972553436e-08 2.8554076604e-07 3.8598309223e-07 9.6850899447e-09 2.9083868639e-07 3.9684414683e-08 -1.2083423968e-09 1.6421336355e-08 
5.2215045077e-08 -6.7973154911e-10 8.0498570661e-08 0.0001095864863 7.845326756e-07 0.00010964711725 0.00010841800604 6.1891645015e-08 0.00010806751326 
2.0282450897e-07 1.1888905698e-08 1.5282430865e-07 5.3284153514e-05 -7.0805371233e-08 5.3128451136e-05 2.3319578851e-07 -3.8631768759e-09 1.7412530905e-07 
1.6415473912e-07 -6.7501413052e-10 1.2418257306e-07 0.00017977698974 -8.2777126052e-07 0.00017816082155 0.00017402357276 8.2068781625e-07 0.00016838438359 
0.00013829060837 -1.2186311478e-06 0.00013457305905 5.7173793699e-07 1.6746478186e-07 7.2234430843e-07 4.8055938536e-07 1.6599023721e-07 5.3417071808e-07 
1.7439487187e-06 2.8709323612e-07 1.4075266683e-06 1.3601701334e-05 -1.1203093589e-07 1.3446342555e-05 1.31651488e-05 2.2232908524e-07 1.293754852e-05 
1.2499663347e-05 5.9825203085e-08 1.2065583646e-05 3.0539715259e-05 -2.9599555621e-07 3.0275136072e-05 2.9839313242e-05 -1.9018377532e-07 2.9400048219e-05 
3.2390491208e-05 -3.7927182558e-07 3.1675314954e-05 1.2423867007e-07 -3.6737671543e-08 2.7987978932e-07 6.7891414099e-07 8.6073897374e-08 8.9064881611e-07 
4.0709325129e-07 1.5302953929e-07 5.714375388e-07 0.00016982897418 1.097810939e-06 0.00016513426591 0.00018492303871 4.3971303275e-07 0.00018491156103 
0.0001853841902 6.0579481609e-07 0.00018686759325 7.8987981178e-08 2.7157839492e-10 4.2321902975e-08 9.0641859242e-08 2.2521225665e-08 1.9203313705e-07 
4.2278924886e-08 -4.0407973744e-09 1.6993195472e-07 4.6027365716e-08 4.9422860734e-09 1.5150846321e-07 8.9396250695e-08 2.5481485976e-09 1.8629263925e-07 
9.2032553223e-08 9.0792808099e-09 1.8557561443e-07 0.00015792493904 -3.4692325344e-06 6.3281279837e-05 0.00018913140164 -3.341555649e-09 0.00019287939894 
0.00018906195126 -2.1359552141e-08 0.0001930810958 0.00018898954368 -1.6322704864e-08 0.00019304464688 0.00018860076077 2.3680131531e-08 0.00019266393279 
0.0001884597894 2.1161027807e-10 0.00019257156712 0.00018908248805 -2.0794240838e-09 0.0001930830242 9.6250594677e-08 -2.4062151122e-09 1.21309683e-07 
1.1762580536e-07 -3.1465680065e-09 1.2723920638e-07 6.9406458141e-08 1.0581664201e-10 9.7222276729e-08 6.3486202975e-08 -3.4189228565e-09 7.170947512e-08 
8.1506332341e-08 -1.019117966e-09 8.2825987131e-08 1.0429872309e-07 -2.3848850751e-09 1.0004687001e-07 0.00017662480155 -2.946682921e-08 0.00017910872395 
0.00017154437718 1.0408442811e-07 0.00017527011952 0.00018171707936 1.6287531072e-07 0.0001854691577 0.00016793955762 -4.0540954632e-07 0.00016954856989 
0.00016057688045 6.9813585751e-07 0.00016436457974 0.00014914261404 2.8596160632e-07 0.00015111554445 9.0249686964e-08 -1.5446422317e-09 1.8020019814e-07 
1.2316940459e-07 1.8693316102e-09 2.6178101391e-07 1.1401719856e-07 9.3492154878e-09 1.8511926668e-07 1.3816927526e-07 9.4696139691e-09 2.7770970754e-07 
0.00015324105516 4.040914001e-06 6.2737973356e-05 0.00014095713674 8.6647897136e-06 6.8286095728e-05 0.00014124935826 -1.2599973385e-07 0.00011722969328 
6.1193871247e-08 -1.2628463705e-09 3.8070616605e-08 3.8871423224e-06 2.5205387778e-07 4.2272462958e-06 9.3491428823e-06 6.843300923e-08 8.8946402107e-06 
7.1133641844e-07 2.2201520247e-09 8.6469743207e-07 1.7345339251e-06 -2.487674785e-08 1.6065925136e-06 1.9975888702e-06 6.7146431745e-08 1.9432635389e-06 
3.1272873912e-08 -8.677141721e-10 -6.8502670507e-09 4.1735779537e-08 -4.9307464401e-10 -2.8152369554e-09 2.2960704366e-08 -1.082420641e-09 1.2489806983e-09 
3.71834657e-08 -9.7050790196e-10 3.8428893356e-09 2.2876463749e-08 -1.2056943202e-09 -1.2649744715e-08 2.8497893231e-08 -1.0581953664e-09 1.1347633491e-08 
0.00015885799606 -4.6764137373e-06 0.00010852366385 0.00018509775004 -1.0902689277e-07 0.00018933563244 0.00018836788435 -9.2964500418e-08 0.0001921383851 
5.0810951316e-05 -3.2156777158e-06 3.4784293972e-05 8.887118512e-05 -9.7674967768e-07 7.7221788974e-05 7.6562117041e-05 8.4761696491e-07 7.5975863561e-05 
1.7310167166e-07 1.6736524571e-09 1.7471408306e-07 6.1545274909e-06 1.5050822153e-06 4.1677681086e-06 0.00018933257784 5.0028468508e-08 0.00019277192769 
1.043541982e-08 -1.1476746031e-09 1.1001123779e-08 6.5225281333e-09 -2.8384497378e-10 2.659655048e-10 1.4920962859e-07 -1.0727994903e-09 1.7078258584e-07 
1.8733027355e-07 -5.1950567739e-09 2.5582714766e-07 2.0282174765e-07 1.5062388325e-08 2.0291333112e-07 1.5817032178e-07 7.217714558e-08 2.6393601676e-07 
1.5143394888e-07 4.8607635571e-09 3.9668927149e-07 8.9655098968e-05 6.8845787135e-07 8.8813479759e-05 3.8475351411e-05 3.3767661766e-07 3.6584251572e-05 
4.9864458614e-05 9.1645217592e-08 4.859280997e-05 0.0001381658079 1.7464424645e-07 0.00013761890315 8.8283421231e-05 -1.0265725017e-06 8.8876100709e-05 
0.00010731201359 -4.8143196632e-07 0.00010962883974 1.4798403553e-08 4.8266180811e-11 3.6639560292e-08 4.1117439373e-08 -3.9569195011e-09 8.3193050604e-08 
1.8344993207e-08 -1.6541026029e-09 3.7163647741e-08 1.309693137e-08 -1.8334579861e-09 2.3382430493e-08 4.2682263181e-08 -3.0474169432e-09 5.7599194891e-08 
3.1086978708e-07 -7.6657481566e-09 2.7084438426e-07 0.00011717692533 1.1004694088e-07 0.00011758659653 0.00011312432204 4.6872133509e-07 0.00011386409862 
0.00010773258806 4.3713753361e-08 0.00010829719099 6.7019401971e-05 -1.3304263273e-07 6.5468534087e-05 0.00018923489926 9.3657441805e-09 0.00019288452332 
0.00018914772515 4.6481968057e-08 0.00019276810783 0.0001886557596 -3.538791207e-08 0.00019238198723 0.00018903277003 1.0778971634e-07 0.00019260613538 
0.00018805473281 -2.9627307765e-08 0.00019168687405 0.00018915507052 1.0350966082e-08 0.00019300433704 1.0422689871e-05 7.56730141e-07 7.9836950847e-06 
0.00014036092842 1.4935898852e-05 5.7667110834e-05 0.00013729054295 1.2973008872e-05 7.1307265556e-05 0.00014434355561 2.9449938012e-06 0.00011543133531 
0.00010327760285 3.7251767271e-06 7.9074418004e-05 1.4182698455e-06 -5.366261271e-08 1.0921748863e-06 3.3940206724e-07 2.0791389869e-08 4.0383304731e-07 
1.7921986291e-07 -1.1605232573e-08 2.5686083063e-07 7.8079085461e-07 2.1416603848e-08 8.1207775951e-07 9.3217982029e-09 -1.0336394658e-09 2.5163141452e-08 
2.6583537054e-08 -2.658661096e-09 5.2421896992e-08 1.8039489202e-05 1.2934542665e-06 1.8357755431e-05 1.8860612458e-07 7.9874679769e-09 2.4224174719e-07 
2.3765341429e-05 -3.7528825406e-06 1.8183204324e-05 1.479208899e-06 -2.8920347808e-08 1.4928781417e-06 3.6194331002e-07 3.4045927781e-08 4.3345692909e-07 
1.1719764242e-06 -5.749812851e-09 1.4556589876e-06 1.9737180591e-06 -2.0765049076e-07 1.8303824062e-06 6.4121862525e-07 4.3713089137e-08 7.0299820445e-07 
0.00018361488972 -7.5660300197e-08 0.00018722399871 0.00018700908912 1.1084067014e-07 0.00019090577211 0.00018507588011 2.1015249786e-07 0.00018916866958 
0.00016904765321 3.8747266574e-07 0.00017107315236 0.00018113808188 3.4965078341e-07 0.00018445409388 1.0260030108e-07 -2.9517640799e-09 2.1249010967e-07 
6.0219236844e-08 3.4144686284e-10 1.3302990881e-07 2.6554036711e-08 4.400981387e-09 5.2969439744e-08 0.00013997715049 1.650491345e-08 0.00013873177124 
0.00012521612112 6.9507379456e-07 0.00012498786886 0.00012330919794 7.910153582e-07 0.00012331060615 9.0710671713e-05 -5.10695044e-07 8.8866218083e-05 
1.3174516409e-08 -1.2011596957e-09 -2.7392504672e-09 8.6308030908e-09 -7.1330867382e-10 -7.102584816e-09 1.6099809566e-07 -1.217766793e-09 1.1056874768e-07 
2.2091415431e-06 1.3311865268e-07 1.6961270132e-06 7.9914306072e-06 1.9558120167e-07 7.1080208878e-06 2.9147344655e-06 -1.7052519694e-07 3.0609893237e-06 
5.2919656472e-06 2.0611462611e-07 4.9848520105e-06 1.8281386419e-06 -2.0486577157e-07 1.9266810178e-06 8.597781174e-06 4.684809848e-07 8.8821215818e-06 
1.888489206e-07 1.8855601438e-09 2.7086174966e-07 3.6259560362e-07 2.723883795e-08 3.9005454853e-07 3.531048596e-07 1.3848249649e-07 5.3937901773e-07 
4.1071175163e-07 8.4272585067e-08 4.505069209e-07 3.5785337737e-07 5.391760823e-08 3.8093380725e-07 3.1607908352e-06 1.9064827144e-08 3.1105437553e-06 
3.8953952385e-08 -9.9782326763e-10 7.0268937473e-09 5.8849643029e-08 -1.6331090001e-10 2.2647752304e-08 5.6584388619e-08 -1.4815293466e-09 2.4266187193e-08 
6.1635783668e-08 -1.1181329133e-09 3.4177093635e-08 1.8538797266e-07 4.3684405298e-09 2.0053075752e-07 5.8079580029e-05 1.3422329775e-07 5.7153560293e-05 
3.1775246319e-05 2.524162818e-07 3.0876521708e-05 3.1047805035e-05 3.1080764032e-07 3.0934633417e-05 6.5797205458e-06 3.8002521002e-07 7.2666445243e-06 
1.8333100503e-05 3.8178534667e-07 1.8033975685e-05 7.048206886e-08 -6.7084936844e-09 1.4458240037e-07 8.0949206391e-08 -1.8299131869e-09 1.8056970692e-07 
1.3739413366e-07 -1.5710016649e-09 2.0199817938e-07 7.4346211744e-08 -9.5804294976e-09 1.3475412551e-07 4.968230514e-07 1.0669899941e-07 5.1558180399e-07 
4.7292140356e-07 1.5596179156e-09 4.7363785574e-07 5.7001769322e-08 -1.777334108e-09 1.1631858189e-07 6.9489049084e-05 1.229227942e-07 6.8930018787e-05 
6.1769987666e-05 -2.2019421427e-07 6.1611490463e-05 2.6047665504e-05 -1.801101524e-07 2.5526824384e-05 5.8409776814e-05 2.1879975904e-07 5.7291900227e-05 
5.1956518476e-05 2.2281252426e-07 5.1097717603e-05 0.00010508863629 4.4595716737e-07 0.0001063849971 0.00018887893135 -1.3942774311e-08 0.0001928229184 
0.00011675307194 8.1374444246e-07 7.1363637923e-05 0.00010598354997 -1.556079381e-06 8.137218775e-05 4.2490303087e-06 6.6803102455e-09 3.8057374671e-06 
4.5725014508e-09 -3.6072154767e-10 -3.8701901461e-09 2.2248637107e-08 -9.502577294e-10 7.6593021591e-10 0.00018909929476 1.7921469939e-08 0.00019288698694 
2.4180025727e-07 5.7826741343e-08 2.9956163019e-07 1.0217537811e-07 -3.8985648412e-09 1.4980835466e-07 1.5708354752e-07 4.2297218642e-11 1.8388451164e-07 
0.00018284301183 -2.0427870046e-07 0.00018671740078 0.00018886322688 1.8386069262e-08 0.00019277882846 2.2979814871e-05 2.6542057153e-07 2.1819792268e-05 
1.9704568941e-05 -3.7147676575e-07 1.8694477799e-05 7.0742728218e-06 -2.8915175489e-07 6.739547373e-06 7.7194924675e-05 -2.2131988167e-07 5.7334182886e-05 
4.684432814e-05 2.1151233391e-06 3.3296997608e-05 4.4019614075e-07 6.9585971417e-08 5.1939891861e-07 2.9922983517e-07 4.3816313984e-08 4.2334562665e-07 
4.8400902166e-07 6.7548055968e-08 6.7720471973e-07 2.0184595218e-07 1.2260233351e-07 4.289473456e-07 2.8548574555e-07 1.669799958e-07 5.2474467049e-07 
0.00017697046352 1.3101457657e-07 0.00018088989622 0.00014323849878 4.155830404e-09 0.00014492856976 2.9885657345e-08 -1.1811524099e-09 4.4066172283e-09 
7.9384662184e-05 2.7672472593e-06 5.4956868727e-05 9.5558223023e-08 4.5050661654e-10 1.5285570858e-07 9.1529813022e-07 1.2297625466e-07 1.0611301251e-06 
1.9976772181e-07 3.2119192178e-08 3.1634655401e-07 0.00011627950029 -4.8920698767e-07 0.00011703563582 0.00018914597994 1.0483157843e-09 0.00019285427575 
0.00018887791726 -5.8579420056e-08 0.00019295482482 0.0001885954882 -5.1353315391e-08 0.00019244625529 0.00018894624801 -2.1465099855e-08 0.00019289927366 
0.00018846085396 2.6196077657e-08 0.00019233859172 0.00018907697069 1.9219220791e-08 0.00019296381716 8.405863195e-05 2.1449416098e-07 8.4149621103e-05 
3.1800963616e-05 2.5815913752e-07 3.2368454333e-05 8.0245537588e-05 1.4644853986e-07 8.0669459313e-05 4.1944246989e-06 -2.2811021615e-07 3.7288573684e-06 
2.0557957331e-06 2.2519157811e-07 2.0659206694e-06 7.3466043451e-06 3.4908013136e-07 6.8315947217e-06 5.1557885389e-06 2.7511753334e-07 5.2696964659e-06 
1.234170489e-05 3.0939570044e-07 1.1337899033e-05 1.1825445416e-07 7.5122506272e-09 9.325031371e-08 1.2897368575e-07 7.3168642521e-09 8.3398291134e-08 
9.2791378038e-08 4.6186955767e-09 5.416577118e-08 1.0527762707e-05 1.7467083643e-07 8.3351565544e-06 7.3284916433e-06 1.4342111814e-07 5.9970875838e-06 
3.8651289629e-05 7.1272209797e-07 3.3029926584e-05 2.986085828e-05 2.9637329424e-07 2.7526433766e-05 2.6984699504e-05 7.8336590077e-07 2.4484602143e-05 
3.5439065182e-06 2.7480963125e-07 3.0616652463e-06 8.8039501576e-07 1.769261613e-07 8.5937976798e-07 8.8589549688e-06 1.4461499903e-07 8.285393039e-06 
1.9093566243e-06 2.9581105093e-07 1.8608690919e-06 4.5000317377e-07 2.6730640161e-08 3.0605524014e-07 1.2142874138e-06 1.6194184918e-08 1.1165506674e-06 
8.6020600599e-06 -3.0280482651e-07 7.2178416237e-06 2.1955719176e-06 -1.7635486513e-08 2.2057455995e-06 3.5575366804e-06 1.2011779576e-07 2.9697528103e-06 
6.9788435737e-05 -2.0607484684e-07 7.1017910351e-05 8.4255390726e-05 3.6643921088e-07 8.5500772842e-05 8.9292253858e-05 4.6602869116e-07 9.0169218212e-05 
4.7262674292e-05 2.3778922687e-07 4.7272562342e-05 7.5502034837e-05 1.7415328002e-07 7.623738846e-05 6.1604056448e-05 5.6446541452e-07 6.0357657124e-05 
6.2321896605e-05 6.0663229345e-07 6.0951108803e-05 9.82800635e-05 -2.9276693149e-07 9.9125570553e-05 2.4087785869e-07 4.2280224171e-08 3.5768233698e-07 
2.3636485998e-07 3.3852366641e-08 3.2070346216e-07 2.3825427581e-07 4.7339538973e-08 3.3879301651e-07 2.2178984891e-07 4.41305083e-08 3.091886791e-07 
3.1035548772e-07 5.2732370411e-08 3.4180494785e-07 1.5790170694e-07 6.5162755486e-09 1.0104552309e-07 1.1193190987e-07 1.6844699352e-09 8.1570812157e-08 
1.1735729627e-07 3.966410774e-09 6.9039267522e-08 5.4862106096e-07 3.7424739039e-08 4.8931628792e-07 7.4134191516e-07 2.3077260634e-07 6.341400771e-07 
6.6003769616e-06 1.0798394159e-07 6.6707954794e-06 1.1411567139e-06 1.5977817336e-07 1.5991914536e-06 0.00012211207681 4.7632824493e-07 0.00012331476241 
9.178734504e-05 -4.7717595964e-08 9.1338848932e-05 0.00013239740464 7.8225944597e-08 0.00013323035165 2.6468289892e-07 5.0122290966e-08 2.5541844455e-07 
1.9798239732e-07 2.6645312653e-08 1.9627787673e-07 2.1487530939e-07 2.4939548493e-08 2.1808639649e-07 2.1756612194e-07 3.8926746199e-08 2.4764562378e-07 
2.3739054886e-07 5.01272059e-08 2.7645394564e-07 3.0021724837e-07 8.1248027226e-08 2.9392702784e-07 1.3322526058e-07 5.6256965362e-09 8.0103580344e-08 
9.187505554e-09 -6.9651918794e-10 -1.3535977469e-09 2.6108357829e-09 -5.2732272953e-10 -4.5132222498e-09 5.16705255e-09 -2.1627356748e-10 -4.1110514853e-09 
2.1940227716e-07 -4.3633811769e-10 1.9752704889e-07 2.5134604343e-07 8.0894537215e-09 1.8993722333e-07 1.4453649416e-07 6.4158478447e-09 9.0803024232e-08 
8.1489915222e-08 -2.8246030566e-09 1.3429697837e-07 1.023039159e-06 1.8022737686e-07 1.2564218583e-06 5.3527464598e-08 7.5091574536e-11 8.4371509084e-09 
8.7976840947e-08 2.1764787892e-09 4.0793581451e-08 7.4248432252e-08 2.3570481501e-09 2.7965321592e-08 6.2407806401e-08 1.6087916381e-09 2.0914511126e-08 
0.00015216460188 -2.9265214178e-06 7.4686721901e-05 2.8693816564e-05 6.4806358051e-07 2.4933862281e-05 1.7652723107e-05 4.9601676471e-07 1.7342638742e-05 
8.1451468493e-06 3.5280717153e-07 8.3379513224e-06 8.8107236799e-06 4.6041484973e-07 9.0897187238e-06 4.548902312e-06 1.4467124952e-07 4.9873638208e-06 
5.4848429851e-08 1.1872510781e-09 1.7092776036e-07 1.1498620766e-07 2.6046883804e-09 1.8759213091e-07 0.00013141043102 6.005959113e-06 0.00011133301457 
0.0001140433226 -4.7022628806e-07 0.00010366558249 9.5111278816e-05 1.3580548889e-05 7.9182574066e-05 2.9219736831e-06 -7.3108494653e-09 2.4856414533e-06 
0.00018899248433 1.1483852768e-08 0.00019318150162 4.7963458265e-06 5.5973425288e-08 4.4762086422e-06 2.7665358645e-07 4.1893811071e-08 3.7927505944e-07 
4.1544522663e-06 1.7037805224e-09 3.8977594819e-06 0.00018789605451 4.8920583062e-07 0.00019090750472 1.7208112314e-06 1.3254692744e-08 1.8942896587e-06 
0.00014630012654 -3.0386272569e-07 0.00015111023736 1.740470431e-07 4.8065969996e-09 3.1987281663e-07 6.6522959995e-05 2.5772359224e-07 6.7888988458e-05 
4.0237100168e-05 1.0385568731e-07 3.9559312751e-05 0.0001890797163 7.959761693e-09 0.00019289046613 0.00018915339696 6.0568403817e-09 0.00019291486923 
5.5603680514e-05 5.335852318e-07 5.5412678021e-05 8.6509073123e-05 -4.5068948327e-07 8.8117029995e-05 9.9892097143e-05 -5.7142440035e-07 9.9440321118e-05 
7.9171668501e-05 3.7882096455e-08 7.9184737164e-05 3.8010861671e-05 -2.4152309851e-07 3.7520040573e-05 8.032762728e-05 2.7126919879e-09 7.8942274374e-05 
2.5063552362e-07 5.0500152531e-09 2.2782276651e-07 2.3371014009e-07 2.4563445622e-09 2.5437426383e-07 5.7941999637e-06 -2.0384580946e-08 5.1540354237e-06 
2.5890373054e-05 -4.3564938068e-07 2.4208022966e-05 3.367039786e-05 1.5086482984e-07 3.1173614452e-05 1.5904384558e-05 6.0131430444e-07 1.4589935044e-05 
4.5571844225e-09 -6.3425015403e-10 -5.7501168258e-09 5.7057322705e-09 -6.6969636066e-10 -4.569173566e-09 1.7452993795e-08 -1.3490789257e-09 -2.7206704991e-10 
1.0187890623e-08 -7.1295907548e-10 1.5837610964e-09 8.9982743923e-09 -6.6654836487e-10 -9.80169385e-10 5.1137169193e-05 -5.6662309733e-07 5.1511352938e-05 
0.00010880060656 -8.3040586945e-07 0.0001075717126 8.56517958e-05 -5.4465808648e-07 8.4105997284e-05 9.5177065947e-05 -5.4446930163e-07 9.4177791337e-05 
2.4380220057e-07 4.1294827347e-09 2.9887905896e-07 3.593323859e-07 6.7990673373e-09 1.8517623596e-07 2.8825018151e-07 6.3081034842e-09 2.2028739536e-07 
3.4677240334e-07 4.7692777359e-08 3.0579032988e-07 4.8814589839e-05 1.1808736147e-07 4.8242726758e-05 0.0001861255636 7.1540255955e-08 0.00019067838311 
0.00018088801366 -1.4052389071e-08 0.00018492307021 0.00018415756257 1.5682788974e-07 0.00018861401729 0.00018248107165 -1.9966670258e-07 0.00018585154597 
0.00018824020996 -3.4554520566e-08 0.00019192941693 0.0001868164828 1.7710173618e-07 0.00019003835463 0.00018694783375 -1.8412576469e-09 0.00019032303361 
9.2163566035e-08 5.360967994e-09 1.0423195927e-07 1.2440749433e-07 2.4381006232e-08 1.2156307452e-07 1.4199883098e-07 2.0708485321e-08 1.3615927272e-07 
1.4806122727e-07 1.859622949e-08 1.724578293e-07 1.2259118658e-07 2.5862613407e-08 1.5144106472e-07 9.6689186841e-09 1.8432335983e-09 3.1961488693e-08 
4.2259642241e-08 4.2511457219e-09 9.9438018096e-08 3.1405693526e-08 1.9583419115e-10 7.2306118355e-08 2.9352950363e-07 8.4616256519e-08 4.8968051764e-07 
2.5286466096e-07 8.0762671468e-08 4.2120078266e-07 2.5636914292e-07 9.0554373379e-08 4.6102475312e-07 2.3850364731e-07 6.6558654995e-08 3.7992421418e-07 
3.0331927178e-07 8.4081217868e-08 4.8730718412e-07 5.0308157631e-05 -1.2392928609e-07 5.0250915204e-05 8.3563890714e-05 2.7683641131e-07 8.2798977654e-05 
5.541657669e-05 3.7206076169e-07 5.4049659039e-05 8.0874967319e-08 -2.3005570552e-09 6.5265666544e-08 1.3097352183e-08 -1.5655491206e-09 1.6446731638e-08 
9.4832058605e-09 -9.75207519e-10 1.2322723713e-08 5.3222692601e-08 -5.3482999668e-09 1.6138772915e-07 7.642551655e-08 -3.3546778303e-09 1.9784576361e-07 
8.7565827387e-05 4.1134759473e-07 8.6794651027e-05 8.187687972e-05 -2.2595622093e-07 8.2975374501e-05 0.00010040049738 2.6256728541e-07 9.9420516364e-05 
3.3769029323e-09 8.8115254119e-11 -6.6324917263e-09 1.5906604247e-08 -9.0278463671e-10 -1.2196723467e-08 1.5888277478e-05 -3.6221516522e-07 1.5065162303e-05 
4.2015830209e-05 2.8069821958e-08 4.2120477368e-05 6.3316541409e-06 -2.8159311634e-07 5.9112855774e-06 6.1339219904e-06 -2.6462040986e-08 5.8821571291e-06 
3.0247899658e-06 8.926057377e-08 2.3743858087e-06 9.1894252463e-06 -5.8441887272e-08 9.2672397976e-06 1.5265319287e-06 8.8889109917e-08 1.7844580805e-06 
6.8670654627e-06 1.1711820299e-07 6.4932840165e-06 6.4678797793e-09 -2.0474067825e-10 -2.6475583609e-09 7.2344030856e-09 -4.0489789832e-10 -5.247504138e-10 
2.2455442294e-08 -8.3857777746e-10 8.8296558682e-09 0.00018394508225 1.3534239155e-07 0.00018876621261 0.00018725194319 5.5351630357e-08 0.00019128645631 
0.00018626664732 3.9480888189e-08 0.00019058204272 0.00017694279181 4.9333895141e-08 0.0001809448081 0.00016997612524 -2.4877180469e-07 0.00017295724326 
1.874582127e-05 -2.6803774578e-07 1.9611775202e-05 2.7574568344e-08 5.3489617966e-09 7.2776054089e-08 2.200241351e-08 -7.6105598891e-11 5.1201282689e-08 
1.258299723e-06 3.7531149755e-08 1.0507807941e-06 1.3835148573e-07 -3.2202454251e-10 2.7710596836e-07 1.36215464e-07 -3.6845135393e-09 2.4262187658e-07 
0.00018616669554 1.796473187e-07 0.00018969925553 0.00018806320154 2.0185970565e-08 0.00019230685283 1.4887772094e-05 1.083154792e-07 1.3159232888e-05 
1.2623685983e-05 -8.5940616263e-08 1.224355397e-05 3.8283870388e-05 3.6901601722e-07 3.6007634389e-05 8.3703992415e-07 2.2410845074e-08 7.7689620841e-07 
8.0722090455e-08 -6.4998899159e-10 6.6501560766e-08 4.9522667367e-08 -8.8449674005e-10 3.2255478021e-08 8.3130258194e-08 3.724978161e-10 5.8774775919e-08 
2.6709533361e-07 1.2680493293e-08 1.9427714117e-07 8.7297894913e-05 -4.1786799445e-08 8.8297834622e-05 1.9860435063e-07 1.9286690469e-08 2.4572118853e-07 
1.7298340957e-07 2.1209159426e-08 1.9828806335e-07 2.5400357436e-07 5.5641524391e-08 3.2535397507e-07 4.6015262475e-07 1.3105814554e-07 2.9177388645e-07 
9.7617883673e-09 -6.2211734108e-10 -5.2344054179e-11 5.5917655788e-09 2.4413818124e-10 -4.1874216752e-09 0.00010313011258 9.2202693138e-07 0.0001021287168 
5.8727396e-05 9.3543381707e-07 5.728378349e-05 9.2862679409e-08 5.6844737303e-09 1.7430749674e-07 9.3950746796e-08 1.1669749654e-08 2.0480109174e-07 
3.8741621001e-06 8.8530172099e-08 3.4599779194e-06 1.984421857e-05 3.2056485407e-07 1.9328992256e-05 0.00018905028687 2.034678182e-08 0.00019293641817 
0.00018914595751 1.5994929423e-09 0.00019293969886 0.0001848380811 -6.4104072497e-08 0.00018915991057 0.00018095779517 2.6387758383e-07 0.00018486258547 
0.00018758000173 -7.3395758599e-08 0.00019193477087 0.0001877144259 -6.1443465064e-08 0.00019190858936 0.00018657846699 -4.0001015209e-08 0.00019045312432 
5.5678052875e-07 -1.2596811411e-07 5.9149114883e-07 1.7732173869e-06 1.3567201401e-07 1.5391592223e-06 0.00010606644632 -3.175537825e-07 0.00010548545475 
4.124299675e-08 -3.0420259746e-09 6.1245818926e-08 1.0887335545e-08 -1.3195245551e-09 1.883246058e-08 3.1028875206e-08 -2.037835179e-09 3.5596861672e-08 
7.3780653498e-08 1.033093593e-09 3.3712843763e-08 9.020580311e-08 1.0248525616e-09 5.380916686e-08 1.222972591e-05 1.9757371386e-07 1.1530500814e-05 
2.1832259393e-05 -3.055897177e-07 2.0883626368e-05 9.8843119052e-06 4.6532872975e-08 9.390634257e-06 1.9051197274e-05 6.7689332844e-07 1.7783188556e-05 
2.7346851609e-09 -7.6898168415e-10 -6.1558542819e-09 0.0001798097154 2.4946660422e-07 0.00018439772236 0.00018214476329 7.6961143495e-07 0.00018621260303 
0.00017166303891 -9.6936132799e-08 0.00017541405493 0.00015488387491 8.9511571742e-08 0.00015693238403 0.00018287487766 -1.2960087832e-07 0.0001864096791 
0.00015528105191 1.5671345803e-07 0.00015695373352 0.00016245526312 -3.9774001656e-07 0.0001646813315 0.00016896400205 -2.0777006048e-07 0.00017274582278 
0.00015676854823 3.6321458636e-07 0.00016029259921 1.3098118087e-05 3.6682679434e-07 1.2423919021e-05 2.888477848e-05 -2.8245884467e-07 2.7284318977e-05 
3.3854504041e-05 -3.9447380749e-08 3.3237393737e-05 0.00016181355483 5.9553352728e-07 0.00016448964398 0.00014644092043 7.3185462645e-07 0.0001460445831 
2.0381966542e-08 3.3014100242e-09 4.0228944877e-08 9.9816137232e-08 3.6257676025e-09 1.3802381888e-07 3.3838098034e-08 8.478405363e-10 7.6832877183e-08 
8.5779011774e-08 3.8312481806e-09 1.2355869375e-07 1.7375259348e-07 1.3305737151e-08 1.567858826e-07 2.768964811e-07 2.28806075e-08 2.5087006194e-07 
2.0742340545e-07 2.814335159e-08 2.3340488031e-07 1.5073166905e-07 1.2085491072e-08 1.5612427351e-07 2.4385639229e-07 1.7948553579e-09 2.2024045674e-07 
2.0570303095e-07 3.2124700472e-09 1.7494178795e-07 1.0949530417e-07 1.4660713939e-09 1.317596274e-07 7.9523566917e-08 1.0464965719e-10 8.0783785018e-08 
9.2864774369e-08 -3.8452047754e-09 2.0823648492e-07 1.8530985141e-07 2.5951684117e-08 1.973608112e-07 2.8281313578e-07 2.6323927168e-08 2.3153865359e-07 
1.6309872992e-07 1.0945566922e-08 1.4405364024e-07 1.3238500938e-07 1.2152005783e-08 1.2025999818e-07 2.5620461541e-05 -3.9353697704e-07 2.5853595813e-05 
6.2728631596e-05 -3.7718085078e-07 6.3109961279e-05 4.0812737367e-07 3.5654068815e-08 4.1494178287e-07 4.4695439995e-07 3.4200350562e-08 3.6007623635e-07 
2.9437037523e-07 -9.7565215421e-09 2.4503084876e-07 2.4422007241e-07 1.3831481586e-08 3.2959343638e-07 9.7287674053e-08 8.1912142199e-09 1.7000290132e-07 
1.0820268479e-07 -4.5265114786e-10 1.6555631241e-07 1.5365627166e-07 9.7990046337e-09 2.2665579688e-07 1.485309674e-07 2.5002588945e-09 1.5066408412e-07 
1.4157037071e-07 -4.3484735064e-10 1.1278782075e-07 0.00014001061568 -1.2886144593e-07 0.00014159702831 5.3235212832e-07 3.0975821913e-08 4.7951811355e-07 
1.6965500231e-06 -1.5942014136e-07 1.5449188142e-06 1.8967066696e-07 8.6666809891e-08 3.9539816769e-07 2.0162203667e-07 6.5429860086e-08 3.9656691334e-07 
8.4366242436e-05 2.2297435365e-07 8.3824273282e-05 8.202315294e-05 1.9633091542e-07 8.0918107447e-05 3.208207516e-09 8.6414119183e-11 -1.0415436747e-08 
1.2217441178e-08 -8.3446225697e-10 -1.6676092523e-08 8.167766751e-09 -9.4160368602e-10 -1.5690360606e-08 3.0490479867e-09 -6.2375456698e-10 -7.9610531766e-09 
0.00018794363617 -9.2674232241e-08 0.00019196789426 3.0714873146e-08 3.8405797805e-09 6.7724446717e-08 6.3029250534e-08 -7.8671601023e-10 1.0750011959e-07 
1.5323720124e-08 6.4641589585e-10 4.0089968825e-08 8.5529153563e-08 3.5044405413e-09 1.3195894435e-07 1.9928677303e-07 3.0032926739e-08 2.3561186361e-07 
2.1138836005e-07 1.1449860412e-08 3.1637072203e-07 1.278021497e-07 -1.9874108303e-08 3.1638038711e-07 3.4038159101e-08 -2.3148334392e-08 1.6088926325e-07 
4.6866591357e-08 -2.6943989289e-09 9.1911672542e-08 1.3351810281e-06 3.8111579865e-08 1.4961349054e-06 9.4754307545e-08 -1.6403817986e-08 1.927046384e-07 
1.3089749373e-07 -9.2059252205e-09 1.998620854e-07 8.9139602089e-08 6.1945050111e-09 2.6380374252e-07 1.2755376717e-07 -1.040302815e-08 1.9322991713e-07 
1.3563342291e-07 -3.7400530065e-09 2.4699299857e-07 8.5589720063e-08 -9.0324217876e-09 1.6927514988e-07 3.8071545036e-07 1.8440917378e-08 3.6764711914e-07 
2.9369758449e-07 -8.6694251649e-09 3.7255323934e-07 1.5497853334e-07 9.4270949978e-09 1.0365810207e-07 0.00017340441829 -5.1649453916e-08 0.00017489924705 
1.8270525735e-08 -4.3394132381e-10 1.0482685939e-08 0.00015291031484 -9.1395662579e-08 0.00015612477443 0.00017943192682 6.172334208e-07 0.0001778314903 
0.00013249080871 3.6280429931e-06 0.00013534170165 0.00017294315118 1.031168368e-06 0.00017655000298 0.00016236110284 1.0825548918e-07 0.00016471681847 
0.00011475635139 9.5504260446e-07 0.00011513673967 1.7479475521e-06 9.5193654044e-08 1.4804581902e-06 2.555276224e-07 4.1344487499e-08 3.6433797063e-07 
9.3072604242e-08 -1.1654308946e-08 1.9074765426e-07 5.1796447256e-08 -3.8720324572e-09 1.1695610763e-07 7.5331364838e-08 -1.2610756756e-09 1.531050165e-07 
8.3211607705e-08 5.8768874525e-09 4.9853599194e-08 9.7521257246e-08 3.816547749e-09 5.7897530658e-08 5.732981888e-05 3.4609284328e-07 5.8094718426e-05 
0.00018537467572 4.14550664e-08 0.00018912236232 0.00017922257916 4.1885709347e-07 0.00018221037079 9.5186266556e-08 -2.443133918e-10 9.4394087854e-08 
3.6952785218e-06 1.3472350193e-07 3.5318762187e-06 7.0016902799e-06 -2.1196443243e-08 6.8258141181e-06 5.0384222624e-07 5.994914129e-08 4.7419660319e-07 
5.4592278461e-05 7.0996489809e-07 5.2572718116e-05 2.9154505914e-06 -4.3485370492e-08 2.6637024578e-06 4.8790414484e-09 -1.8823248077e-10 -2.1445982793e-09 
1.2674313952e-08 -9.2110120539e-10 -1.9819524041e-09 3.3193434878e-07 2.1660084833e-08 3.0095774148e-07 3.1907906385e-06 2.964060374e-08 2.9298603338e-06 
1.9075384962e-07 -1.0784126642e-08 3.0004827681e-07 2.3823645025e-06 -6.7540326838e-08 2.1547458068e-06 2.2270938458e-05 7.3929092394e-07 1.9437512036e-05 
9.5405679774e-06 2.4904420134e-07 7.8837356253e-06 1.2151538642e-05 2.5830791225e-07 1.0488868542e-05 4.9086454689e-08 -7.28172477e-10 1.1771287636e-08 
8.1103491077e-06 3.9043297436e-07 5.4355249895e-06 1.4788318988e-05 2.3130164945e-07 1.326418995e-05 1.9481036025e-06 3.409442185e-07 1.3971296453e-06 
8.4945413282e-06 -3.1594532177e-08 6.3828470576e-06 1.5965894478e-05 2.8431331931e-08 1.5060271408e-05 3.157351749e-05 1.2229633951e-08 3.0604199383e-05 
1.586892547e-07 -1.5594051163e-09 1.3882849067e-07 2.1828758387e-07 7.6934044976e-09 1.8387131667e-07 0.00014471092048 2.684706171e-07 0.00014657500626 
7.9639585111e-05 -1.072369139e-06 7.7682379106e-05 2.9039908331e-05 9.6296608391e-07 2.6177900492e-05 5.1078403929e-05 4.6984543348e-07 4.7865656648e-05 
6.5715563404e-05 8.505731771e-07 6.4353711542e-05 1.9702235263e-05 4.3318909986e-07 1.8665849901e-05 4.2830735609e-05 -1.4494385902e-06 3.9500793985e-05 
8.761891238e-09 -5.2136602474e-10 4.6351679725e-09 2.619614366e-07 2.422036064e-09 3.692889079e-07 2.0404365125e-07 8.8942155225e-09 2.7511155239e-07 
7.6556367263e-08 -5.9351165752e-10 1.0322404843e-07 1.1014568668e-07 7.7316817005e-11 1.4848057412e-07 1.0555940529e-07 2.3150186743e-09 1.3233800325e-07 
2.0721361092e-07 1.7027877454e-08 1.413236872e-07 7.4202458831e-07 1.727466464e-08 8.1873900598e-07 3.2701256061e-07 -2.1735621534e-09 2.4914849224e-07 
1.374396929e-07 -5.4751880214e-09 2.4500791864e-07 1.3733200842e-07 1.1062769287e-08 2.8587329156e-07 2.6068246209e-07 7.1572743748e-08 2.5463151696e-07 
9.9636177304e-08 9.5800776243e-09 2.7050093279e-07 0.0001484588383 -4.0093274171e-07 0.00015003927362 0.00011874646193 2.9327010487e-07 0.00011927287839 
1.3933754025e-07 -1.8746184727e-08 2.0305452063e-07 1.2391055676e-07 -1.0916370271e-08 2.1094278313e-07 1.3022322517e-07 9.7690005189e-09 1.9593426121e-07 
1.2469771102e-06 4.7842790977e-08 1.3319458607e-06 2.4621623164e-08 1.9956235835e-10 -5.4716170074e-09 2.573449677e-08 -1.3231437262e-09 -1.5869556882e-09 
5.1559419781e-06 1.9265781509e-07 5.233274243e-06 2.4502545442e-06 -1.3755767637e-07 2.4600553838e-06 2.8947228821e-07 1.0014815777e-07 5.0336967905e-07 
3.597033836e-07 1.1832005952e-07 5.1654887469e-07 3.3772854076e-07 1.3519876795e-07 4.9889406328e-07 1.980527965e-08 -8.9405169605e-10 3.2738618435e-08 
1.9721760065e-08 -1.4110169243e-09 4.0214904953e-08 1.6932401299e-07 -6.3817985044e-09 1.5390267928e-07 9.8589518618e-09 -8.3698490533e-10 5.7985415751e-09 
3.1273784315e-08 -1.4675503424e-09 2.2438243153e-08 1.1916700998e-08 -3.9883203489e-10 -1.0785869094e-09 5.9320383621e-09 4.3708746651e-11 -3.7595437983e-09 
2.2450393152e-08 -3.9813986048e-10 4.1570857484e-10 0.00018396614411 1.1797829616e-09 0.00018724189696 9.2512651454e-09 1.0477637496e-09 2.7525894074e-08 
9.0677303261e-09 2.6999867739e-10 2.4970194671e-08 9.4836315e-09 -1.300027927e-09 3.0122504005e-08 1.4162773665e-08 -9.9501933941e-10 3.8203977967e-08 
8.6062582777e-09 -7.9589712019e-10 2.9045245566e-08 0.00014386573275 -6.1656604568e-06 7.8026121043e-05 0.00010482740042 5.4354012235e-07 7.7323249716e-05 
0.0001891188568 -4.3453937812e-09 0.0001928655926 0.0001891026773 8.7358917893e-09 0.00019287123915 1.577977892e-05 1.3278935714e-07 1.453170351e-05 
6.036075061e-06 1.036376719e-07 5.4150733588e-06 0.00018355428418 -2.8788883667e-07 0.0001877222428 3.8568568467e-07 -2.4819183914e-09 2.34132508e-07 
5.5719421696e-07 -5.0065977418e-09 4.0813736194e-07 1.0426859816e-06 1.9094644168e-08 9.7852914364e-07 2.4585405298e-06 2.2884574908e-07 2.1434645805e-06 
2.6298371499e-06 2.5573649584e-07 2.4180897437e-06 5.402894258e-06 3.8885956114e-07 4.6264417863e-06 3.4297890832e-09 -8.3489681545e-10 -9.9319455235e-09 
3.0243351372e-09 -8.1547549964e-10 -9.5946450904e-09 5.7099376728e-09 -1.244934462e-10 -7.3314121588e-09 5.2699751676e-09 2.6592429636e-10 -7.407217938e-09 
1.0087544558e-08 -3.5469998497e-10 -1.3395517955e-08 6.7712610859e-05 2.81592991e-07 6.4355933966e-05 4.1202487533e-05 6.4744151406e-07 3.8263366759e-05 
9.2515889191e-05 2.7753870416e-07 9.1502553032e-05 2.5043123043e-07 4.0389010106e-09 1.8987301249e-07 2.1567408225e-07 -1.3813935322e-09 1.654592458e-07 
1.6799682429e-07 2.8321267609e-09 1.3074959957e-07 5.8780526542e-08 -6.7034347615e-10 1.1127720814e-07 8.9951172325e-08 -3.7036195169e-09 1.914536447e-07 
5.1079450616e-08 -4.1237625313e-09 1.0539549401e-07 4.3529876129e-05 6.6822979891e-08 4.2136331428e-05 3.6523794108e-05 3.9363991529e-07 3.5275354298e-05 
3.7270594321e-06 1.5109349203e-07 3.4416361329e-06 1.2703678268e-05 -4.411320959e-08 1.238042056e-05 1.1426367357e-05 4.4536127302e-08 1.0547270986e-05 
0.00016203326374 5.728278932e-07 0.00016232050982 0.00014074887482 1.3191613333e-06 0.00014302574382 0.00016710413135 5.4525022117e-07 0.00017008984998 
0.00016478908933 1.7006100317e-06 0.00016523327449 0.00015401212117 -7.1174536566e-07 0.00015815321726 0.00016814158485 -6.6814049657e-07 0.00017322025693 
9.392836042e-07 3.4774037786e-07 6.2345310778e-07 9.7410777934e-06 4.1127762363e-07 8.8751069356e-06 1.7358574009e-07 5.2495863847e-08 2.8015544224e-07 
2.2704405069e-07 6.9726519643e-08 3.5690272669e-07 1.8899655749e-07 -1.7131052774e-08 2.5190196084e-07 1.5705531966e-07 7.2321469986e-09 2.1709316115e-07 
6.9193649874e-05 1.359852633e-06 6.5508540326e-05 5.7891633915e-05 1.6533899929e-06 5.5411526924e-05 5.8269770546e-05 7.4026097303e-07 5.573931607e-05 
1.7055415379e-07 1.3323784262e-08 2.9696475137e-07 1.8997232403e-07 6.7489006212e-09 2.4694067849e-07 1.1362554038e-05 1.1030140586e-07 1.0539144342e-05 
2.3737995608e-05 4.5237430087e-07 2.3003749673e-05 1.4114088984e-05 3.8919244943e-07 1.3935920181e-05 2.6746354737e-05 -1.7899634771e-07 2.6417530442e-05 
0.00016668226904 1.3579410033e-07 0.00016942067428 1.8497184544e-08 -1.8853752589e-09 2.8248897554e-08 3.9063640868e-08 -8.1236640695e-10 5.0473025973e-08 
4.7252086966e-08 -2.7232728775e-10 1.1349013918e-07 1.5816980066e-08 -7.3378092954e-10 4.0670074945e-08 2.2151893068e-08 -2.2610834699e-09 5.4879726367e-08 
1.0535867173e-08 -2.3763981838e-09 3.1809140079e-08 0.00018913729538 3.2667160184e-08 0.00019293949899 0.00018913618499 2.8558637625e-08 0.00019301498767 
4.128690934e-08 -5.2384090267e-10 -3.9490280573e-09 3.1560330027e-08 -7.8985821394e-10 -9.0535279556e-09 4.4439100972e-08 -6.8061214163e-10 2.0200003373e-10 
5.2080671286e-08 -1.0146009216e-09 1.6672322957e-08 6.7210769889e-08 6.6692810279e-11 2.4398512981e-08 6.7184193611e-06 -6.5310089081e-08 6.8877893834e-06 
0.00017714671506 -3.8263848315e-07 0.00018281705275 0.00018114171327 -3.8864649973e-07 0.00018552840407 2.240404915e-07 -1.7482448525e-08 3.2323429016e-07 
1.9863164545e-07 -1.1374520082e-08 1.6242431019e-07 2.0617448257e-07 -5.2008078217e-09 1.5168379092e-07 1.202594301e-08 -7.5814423366e-10 -3.6401806104e-10 
1.3325386844e-08 -1.1907358458e-09 5.7389821838e-09 5.8033864814e-09 -6.7743787762e-10 -2.6760645915e-09 6.5609836666e-09 -7.7060147248e-10 1.0067404047e-09 
0.00018886443024 2.6398888592e-08 0.00019275666207 0.00014693667825 1.6973656975e-06 0.00014672911718 1.4652312571e-07 5.971659617e-08 3.4135169194e-07 
5.6835135998e-05 1.1179645996e-08 5.6130271926e-05 5.257994192e-08 -2.1470662014e-09 7.5685410677e-08 7.00438043e-08 -4.0380447893e-09 1.1985807146e-07 
0.00018897648042 2.6067041442e-08 0.00019282880762 0.00018914696254 2.733473649e-08 0.00019289901361 4.2493585345e-08 -8.979004479e-10 1.3375813358e-08 
0.0001181609493 -6.9576402135e-07 0.00011906185512 0.00015438190869 -5.1490356228e-07 0.00015601340404 0.00013082522914 -3.5114555612e-07 0.00013232679293 
3.4960355771e-07 1.3524256188e-08 3.2303840465e-07 4.9362247012e-06 1.4968933182e-07 5.2868476046e-06 7.2864468851e-05 -1.3638025472e-06 6.0251977152e-05 
3.3036968598e-05 1.5967429355e-06 2.0559783861e-05 2.6928064021e-05 1.9079048685e-06 1.8561079138e-05 7.0040617062e-05 8.7446575853e-07 6.525236693e-05 
1.2268713196e-07 -2.5550496495e-09 2.0346719941e-07 3.4590856336e-07 -4.8493586879e-08 3.4401946116e-07 9.2074297529e-05 4.6355946156e-07 9.2993804054e-05 
5.6286382379e-05 1.1335477375e-07 5.5265172607e-05 9.9448647267e-05 5.3718058404e-07 0.00010102839057 4.0991819482e-08 6.4806774932e-09 1.0677175962e-07 
1.8858479502e-07 5.2302680558e-09 1.2938379083e-07 1.4479809844e-07 7.5676445676e-09 1.1805468307e-07 4.6940670427e-08 -2.5747631964e-09 1.198183367e-07 
6.1234997905e-08 -1.5266073601e-09 1.4400186229e-07 1.9987524909e-08 3.6942961937e-09 6.6621569266e-08 1.0436864502e-08 2.7799754688e-09 3.6381837621e-08 
8.7589073473e-09 2.5648279579e-09 3.3296785137e-08 8.2297719971e-06 6.1701595019e-08 7.5223304488e-06 1.4079541782e-05 -4.4174147073e-07 1.3647361191e-05 
2.1083361619e-05 1.5050482569e-07 1.8075512312e-05 0.00016125550194 -2.9765918563e-07 0.00016544241537 0.00014939188718 -1.0916830194e-07 0.00015117473633 
0.00017884620949 -1.6622613658e-09 0.00018246156001 0.00017843879953 -3.6213553995e-08 0.00018274829503 0.00014833560214 -4.9103178866e-07 0.00015132657017 
1.1872009766e-07 9.2264785044e-09 2.1651493134e-07 1.6150964021e-07 -2.1822399678e-08 2.1647834866e-07 1.0089192535e-07 -9.1282725298e-09 3.2709086886e-07 
1.7938208168e-07 9.5379499507e-09 1.9253059152e-07 0.00015752825331 8.4768870124e-07 0.00015063067229 0.00017566612409 -2.7625667729e-07 0.00017470394256 
5.1757180412e-08 1.1807301793e-10 6.1369708346e-09 4.1428749809e-07 3.6095974129e-09 4.8973859784e-07 2.6286236369e-07 1.7994968896e-08 2.8640694028e-07 
2.9264038011e-07 5.580047289e-08 4.897393026e-07 2.8230313341e-07 7.3986019715e-08 4.9179772714e-07 0.00018897561756 -9.7529523832e-10 0.00019280591817 
3.2913044788e-05 5.9247670929e-09 3.1109916739e-05 4.6262145735e-05 8.1096453832e-08 4.5382804064e-05 1.8572007375e-05 2.9945235304e-07 1.8293974298e-05 
1.8368093742e-05 8.7920940778e-08 1.7497974537e-05 3.7890881042e-06 1.1180024568e-07 3.2275849957e-06 2.4105227173e-06 -3.2016329765e-09 2.336019358e-06 
2.1040033166e-07 8.1841280656e-08 3.0853031643e-07 1.4003104127e-07 6.3675740285e-08 3.1639956641e-07 1.8928562144e-07 3.2921206773e-09 1.3113190078e-07 
1.5900444951e-07 1.2198035695e-09 1.1984165428e-07 0.00011135810417 3.5596458561e-07 0.00011245116724 8.1328685839e-05 2.26366801e-07 7.926532206e-05 
8.1686176139e-05 2.9762693376e-08 8.0928440449e-05 0.00018370728285 1.3336084237e-07 0.00018611564658 0.00018260117307 7.7149766186e-07 0.00018391459955 
1.9773631652e-07 5.559595091e-08 3.1576492912e-07 2.4344634565e-05 2.0650472093e-07 2.3138154638e-05 4.9494555972e-05 -5.4934110905e-07 4.8847518568e-05 
2.4660684221e-07 2.4028438244e-08 2.0425654802e-07 2.1135250274e-07 6.5282482048e-09 1.858971236e-07 1.9047328787e-07 1.0548907234e-08 1.9311912375e-07 
2.1531521332e-07 9.4698382115e-09 1.5056898173e-07 5.3672382691e-08 3.2215435681e-10 9.8917566424e-09 7.2193917961e-08 1.9259962307e-10 2.6795671884e-08 
2.4492657212e-07 5.8142755753e-10 2.832068026e-07 3.1800657096e-08 -9.2701414781e-10 -8.1669074729e-09 1.4208786043e-05 5.5546776712e-07 1.1779102111e-05 
0.00018887909791 -3.4607186993e-08 0.00019294049591 0.00018584144781 -7.2212985596e-08 0.00019035461236 0.00018525942855 -2.7481428113e-07 0.00018934370867 
1.4823588874e-05 1.684520164e-07 1.3763268554e-05 0.00010183627302 2.9890270617e-07 0.00010140725128 0.00012083133595 4.5189047458e-08 0.00012167452428 
8.6640733397e-05 -5.4502633305e-07 8.5104275661e-05 0.000150977491 3.9619970667e-07 0.00014998489268 0.00012175646128 3.2203960638e-06 0.00012161134976 
0.00012797858751 8.4199246674e-07 0.00012699163383 7.6694867709e-05 1.6793534785e-06 7.1989539626e-05 2.2341101825e-05 2.3222355484e-06 2.4352268741e-05 
0.00015343575499 -4.4710131924e-07 0.00015837213544 0.00017566807469 2.9228091395e-07 0.00017849612029 7.4070017745e-05 9.4608448673e-07 6.0097404355e-05 
4.541420294e-05 7.9245903282e-07 2.9220008661e-05 2.4077776709e-07 -2.3687497043e-08 2.4297038771e-07 9.113476354e-05 2.3601170181e-06 9.2049417635e-05 
3.557813759e-07 7.8654152189e-08 4.6248769492e-07 5.1115009588e-06 3.2961593676e-07 4.7252134032e-06 4.1289715321e-06 1.2077472292e-07 4.0407349609e-06 
3.7605573895e-06 2.7719206941e-07 3.1297697246e-06 1.6850947114e-05 3.5367135143e-07 1.6528423595e-05 9.5975254757e-06 2.6602164619e-07 8.7619554201e-06 
0.00014728560427 -2.8842894633e-07 0.00014767195736 0.00018880057618 1.1385432054e-07 0.0001924390129 0.00018857604188 5.0111478518e-08 0.00019244577503 
0.00018882157343 3.6034322117e-08 0.00019260624513 0.00018799492097 -2.7524000613e-08 0.00019196705799 0.00018733336487 7.8782383058e-08 0.00019119665544 
0.00018691398268 -1.3093508505e-07 0.00019055637881 1.1078752117e-05 3.2627874858e-07 1.1352801357e-05 6.5542596827e-05 -4.5010635682e-07 6.1574283727e-05 
0.00011319935105 -9.0828486944e-07 0.00011579690359 0.00011765131116 -1.8332362111e-07 0.00011672727432 0.00018905039072 3.5591734743e-08 0.00019290382473 
0.00018901932552 1.668081882e-08 0.00019294563846 0.00018900666987 2.0985319122e-08 0.00019303312601 1.3181378805e-07 1.083992982e-08 1.7106585481e-07 
1.2524956093e-07 2.6890710564e-09 1.1279867244e-07 1.2696521281e-07 -5.7463425054e-10 1.576124551e-07 1.4912360815e-07 1.1587426175e-08 1.8021458593e-07 
1.6468749171e-07 -9.6305366205e-09 1.6191925124e-07 2.2882240169e-07 -1.9820439697e-08 2.82238528e-07 1.5891022933e-07 -1.0403496826e-08 1.6670794638e-07 
0.00010875386855 3.370392203e-06 0.00010254085269 0.00014505554833 -3.4093579636e-06 0.00010537091331 0.00016319210988 -1.236743464e-06 0.00013932072149 
2.7712468487e-05 -2.4334543506e-08 2.7713615147e-05 2.3637285911e-05 1.5809653557e-07 2.3020117552e-05 6.6693723788e-08 -2.9018796565e-09 1.6581029355e-07 
1.2271194428e-07 -1.1585767205e-08 1.6776455505e-07 5.5739743772e-08 -1.9820411021e-08 2.2955180512e-07 0.00018906153831 1.2068790561e-08 0.00019293136364 
2.7483258332e-07 3.5809569803e-08 2.4851268439e-07 2.7387933575e-08 -3.5527666341e-09 6.5003818948e-08 1.2395572246e-08 -2.4328929451e-09 3.5632116482e-08 
1.1259609472e-07 -1.260538335e-09 9.1709290925e-08 1.0906046137e-07 -5.5713351635e-09 1.0088747035e-07 0.00016946127174 -5.6114191268e-07 0.00017133797997 
0.00015491539468 7.6408863871e-07 0.00015734818541 0.00018193430237 3.7330302415e-07 0.00018571443409 9.6126156427e-08 -2.6867586507e-09 1.1609386041e-07 
1.2811199496e-07 -8.6695191077e-09 1.4259076435e-07 0.00014340088899 3.8997625828e-07 0.00014395316723 0.00013999518717 -1.7767830975e-08 0.00014131043815 
1.0731120735e-07 7.5202867758e-09 1.8233267962e-07 1.1290490471e-07 9.025418416e-09 1.9788708501e-07 8.5718867932e-08 1.8071757207e-09 1.6256875911e-07 
1.0130751181e-07 2.0656202086e-09 1.4067418295e-07 7.916258699e-08 4.5135004189e-09 1.498319204e-07 2.0830747559e-05 6.3562122652e-07 2.0093663239e-05 
1.0760707332e-05 2.5595341126e-08 1.0151191302e-05 1.5696018781e-07 2.5640415047e-09 1.7903118955e-07 1.9220785222e-07 7.88752613e-09 2.6711242555e-07 
2.6556418861e-05 1.2099339701e-06 2.4214037802e-05 0.00016022459787 -1.460792961e-08 0.00016256149131 0.000119963463 -1.0212572805e-07 0.00012481293431 
0.00015415304068 1.5990656438e-07 0.00015674006214 7.7457503769e-08 2.4403588516e-09 1.2611572461e-07 2.0138822025e-08 -6.8761883872e-10 -1.1880156503e-08 
1.3032062944e-08 -1.883744138e-09 -1.4547752616e-08 3.0006416544e-07 1.2124863961e-07 5.0669513422e-07 2.4478946872e-07 8.7839685241e-08 4.4674846514e-07 
2.8388147361e-07 4.6318583276e-08 4.0416274761e-07 4.9700767828e-05 -1.5388484181e-06 3.0392903866e-05 3.1711628454e-05 -3.9431442659e-07 2.5974153375e-05 
7.7053938916e-05 -6.5151137627e-06 5.7672268477e-05 2.418619588e-07 5.2052392376e-08 2.865453521e-07 3.2694449437e-07 2.5112676355e-08 4.0796094042e-07 
2.2473455971e-07 3.5067636263e-08 4.8511953717e-07 5.476119626e-07 3.4873859843e-08 5.401506856e-07 3.3802159246e-07 8.0482204569e-08 5.8544535481e-07 
1.8007379071e-06 3.2367646468e-08 1.5925905774e-06 1.2747143381e-06 2.6996229093e-08 1.1457455472e-06 3.0158611066e-07 8.3492766944e-09 2.9398038784e-07 
7.8696531867e-05 -7.4230264451e-07 7.5145246243e-05 2.6581611445e-06 3.4796330899e-08 2.8279925304e-06 6.0260226662e-06 -5.8281280192e-08 5.8084707693e-06 
4.149024841e-09 -2.6525354389e-10 6.5157564515e-10 1.8533354349e-08 -5.8397404067e-10 1.0204007983e-08 2.135749103e-07 1.1574692869e-08 1.7133145265e-07 
1.8372628858e-07 4.737206523e-09 1.2589599572e-07 0.00015797397627 1.3148782765e-06 0.00014073110514 0.00014089978174 1.0059302728e-06 0.00014440908405 
0.00017287599416 -1.3852096238e-07 0.00017659560064 1.3503622958e-07 -2.3111765097e-09 1.1321528901e-07 1.1590236903e-05 -1.6565020578e-08 1.1707341316e-05 
9.2570224025e-06 -5.4755828643e-08 9.3162072473e-06 4.8209092626e-06 -9.4953024053e-08 4.4560004476e-06 2.8262874479e-07 3.749238792e-08 2.1137992021e-07 
3.2291273143e-07 5.9786127006e-08 2.1528929349e-07 2.9208806482e-07 3.2075859246e-08 1.9959591924e-07 9.950733087e-09 -4.6297900616e-10 1.5042303301e-08 
3.2272141795e-07 2.3337640825e-08 2.3261519736e-07 2.9316736871e-07 3.614898204e-08 1.8281056363e-07 2.4465808148e-07 3.2969363666e-08 1.936338417e-07 
1.9746683359e-07 -5.084385206e-10 1.8322201799e-07 6.3526234968e-05 -5.0851795589e-07 6.2883675032e-05 5.0141595878e-05 8.3629737016e-07 4.7704077158e-05 
3.9316023667e-05 8.5192333194e-07 3.785299469e-05 3.2689788437e-08 3.5521889222e-09 8.1374721181e-08 1.2672873876e-08 2.7634031134e-09 4.0499000805e-08 
1.4017708895e-08 3.1161450492e-09 4.6042619117e-08 0.00018875489522 3.9937685645e-08 0.00019284587541 8.9394717603e-07 5.5373697399e-08 1.0392390949e-06 
2.1408554444e-07 6.0263667813e-08 2.557697131e-07 0.00010775385743 3.0460652739e-06 0.00010665241684 6.515747029e-05 1.1390634822e-06 5.1162551489e-05 
6.1331598776e-05 8.0166452001e-09 4.5989751454e-05 4.7304570209e-05 3.7981888601e-06 3.8663557523e-05 1.1908928621e-06 2.3252058052e-08 1.0301306924e-06 
5.8420464678e-07 9.0334171293e-08 6.0873319189e-07 4.2051504478e-06 -1.1551111065e-07 3.8732041335e-06 2.2991509169e-06 3.507229244e-08 1.9184394044e-06 
1.1565419796e-07 -2.7317386435e-09 1.049638639e-07 8.208884553e-08 -1.2037441335e-09 6.6232510944e-08 2.8096492506e-07 1.486267544e-08 2.6232271388e-07 
4.2009495996e-07 7.1922057816e-08 3.497668427e-07 4.440474195e-09 -1.443174991e-10 2.1663541049e-09 1.0706146696e-08 -6.5563651026e-10 4.5480492916e-09 
1.3267799842e-08 -8.4903148338e-11 4.0197746981e-08 8.3892388167e-07 9.5233959453e-08 7.9570341169e-07 2.2643289611e-06 7.5442262905e-08 2.0762223591e-06 
5.0822363049e-07 1.099551504e-07 5.194322403e-07 3.8037444354e-07 6.0086892097e-08 4.7259075516e-07 8.9759907047e-07 5.3633603866e-08 8.6043099228e-07 
9.7512964071e-07 7.8259467938e-08 1.2196722469e-06 9.2946250945e-08 2.6784331081e-08 2.4150786551e-07 0.00014282498217 1.0494297413e-07 0.00014473174576 
0.00016144534128 1.3214923828e-08 0.00016426766591 0.00014196885828 -6.2695231829e-07 0.00014344447363 9.5708071341e-05 6.9013209521e-07 9.404281554e-05 
0.00012026028748 3.1703554558e-07 0.00011964115815 0.00018910738109 2.9525117515e-08 0.00019287985273 0.00018915349613 2.3219822386e-08 0.00019292969677 
6.316745211e-08 -5.2831072107e-09 1.2240344753e-07 1.0142084039e-07 -1.9754053828e-09 1.4591495858e-07 3.5042792115e-08 -6.8564040365e-09 8.763126683e-08 
1.2800965506e-07 2.3988802656e-08 2.504069018e-07 1.6243255159e-07 2.5650339056e-08 2.3049160765e-07 1.1016391829e-06 3.4448079364e-07 1.1119932855e-06 
2.0091664732e-06 1.6311423537e-07 1.6398916342e-06 3.7763373303e-06 4.4350679325e-08 3.3572859834e-06 1.3130293744e-05 4.1412669344e-07 1.172069699e-05 
8.2662087416e-06 5.9966825447e-07 5.1915201035e-06 0.00015407907169 7.8636113885e-08 0.00015429444887 0.00011939121608 4.8785449692e-08 0.00011938695823 
4.504401951e-08 -1.5528276834e-09 1.4486863507e-08 1.6275705822e-07 9.3485852134e-09 1.5006999036e-07 1.4103711808e-07 6.2672304211e-09 1.4832333889e-07 
8.5125730379e-07 -3.9260207331e-08 7.8835672199e-07 3.7061169738e-07 1.6878385169e-08 3.4274523541e-07 0.0001147425617 -5.1530768266e-07 0.00011284014941 
4.4629530374e-05 1.1798225181e-07 4.261119662e-05 3.5429411317e-07 6.4436065691e-09 3.7259227657e-07 1.0572791706e-08 -1.3367617249e-09 1.1826157438e-08 
1.4543684337e-07 -3.2256407018e-09 1.7454072902e-07 2.1526774417e-07 4.2439356582e-08 2.865812462e-07 0.00018908693178 2.869663144e-08 0.00019289036911 
0.0001891327187 2.0347616491e-08 0.00019293031005 0.00018908520071 1.8564660984e-08 0.00019296061166 0.00018908681943 3.2105029538e-08 0.0001929619528 
1.2798168411e-07 1.9265937804e-09 1.759054144e-07 9.9505636035e-08 -1.8406917611e-09 1.5416098458e-07 8.8353801735e-08 -2.4404711562e-09 1.189870161e-07 
1.0363581056e-07 -3.5718866971e-09 1.2353711842e-07 7.2177238805e-08 -3.2369996269e-09 1.0800050695e-07 1.1649723307e-07 -1.489290801e-09 1.5734956016e-07 
0.00018626229361 -4.6915357023e-09 0.00019101600919 0.00018893195404 5.3986434209e-08 0.00019297812561 0.0001889612357 2.9694187427e-08 0.00019281162014 
8.5836662505e-05 2.2067411404e-07 8.5368676351e-05 0.00011713471378 -4.0123515595e-07 0.00011882748608 0.00011490002173 7.5927292029e-07 0.00011543344208 
3.6053714575e-07 2.4960389545e-08 3.3859056634e-07 0.00018904275747 6.1521235782e-09 0.00019290477715 0.00018904886167 2.4859804498e-08 0.00019299048117 
1.3630769141e-07 -8.488483688e-09 1.5222926113e-07 1.2642576946e-08 -1.592432988e-09 1.3233295083e-08 0.0001891232971 6.0022792505e-08 0.0001929198262 
0.00018909269089 2.8696060001e-08 0.00019295184638 5.5663079454e-05 -1.2079152279e-06 5.5259420918e-05 9.0110226035e-05 4.0609870911e-07 8.9965211593e-05 
6.2101716697e-05 -6.0622431523e-07 6.0570221457e-05 1.0163770328e-05 5.065890388e-07 7.862320325e-06 6.0491598049e-06 2.2558990283e-07 5.2043767696e-06 
1.1288151557e-07 -7.3343622847e-09 1.185786802e-07 1.0189430014e-07 -6.9776161943e-09 9.9713236745e-08 1.2919563499e-07 -3.5359732471e-09 1.4788849634e-07 
1.1685367167e-07 -4.9446416112e-09 1.2278999086e-07 0.00017445939323 -1.6491984512e-07 0.00017912687088 0.00016274674461 6.6432089423e-08 0.0001667817387 
0.00018822218546 -6.8596640993e-08 0.00019160286832 0.00018506576075 8.8500038123e-08 0.00018885999512 0.00018635062324 -8.4246015234e-08 0.00019001032036 
0.0001882286309 4.0560684002e-08 0.00019222887423 0.00018729144791 2.0894628553e-07 0.00019140079862 5.1413618445e-05 9.745452294e-08 5.0960313723e-05 
6.9199335544e-05 -2.0029357843e-07 6.8219201779e-05 3.691072347e-05 3.0568377598e-07 3.6524684695e-05 3.0214670997e-05 2.2109997131e-07 2.9830849822e-05 
5.5390609089e-05 1.1972498955e-07 5.4908803949e-05 2.5655536468e-07 1.0011664943e-08 2.9409953834e-07 0.0001886956989 8.8707753917e-08 0.00019180306032 
0.00018640410891 2.9595683208e-07 0.00018958015584 0.00018325520729 1.7303785842e-07 0.00018694466322 0.00018770434388 -5.860735035e-09 0.00019144871906 
0.00018384034042 -2.0730008211e-07 0.00018753189457 0.00018845906592 8.1758651741e-08 0.00019237049657 0.00016984253516 -1.3813446495e-06 0.00014047828442 
0.00015646887304 -4.1767828904e-06 6.9480087989e-05 4.8119910558e-05 -3.6673543845e-08 4.7783458227e-05 6.0141712349e-05 2.8777602106e-07 5.8200370917e-05 
1.7118681239e-05 -1.9705035358e-07 1.6526311103e-05 5.9126304837e-08 7.9245046345e-10 1.9963165052e-08 1.0652721655e-07 1.385559663e-09 1.7042394789e-07 
1.7578981061e-08 -2.2865179448e-09 5.1399598152e-08 5.9376735259e-08 1.6840236762e-10 8.3580660065e-08 1.2614859725e-08 8.908442647e-10 4.4763195164e-08 
2.3894735577e-08 1.8620545062e-09 6.4293406081e-08 2.2719282294e-08 1.5772459979e-10 6.360647984e-08 0.00018789194857 1.034559504e-07 0.00019188384395 
0.00018851886215 4.774213599e-08 0.0001920910101 0.00018696619112 4.9528049271e-08 0.00019129791362 0.00018578700491 9.5654157172e-08 0.00019013797685 
0.00017755557208 -1.8317185573e-07 0.00018093374794 0.00016667352302 2.9014919077e-07 0.00016944220736 0.00015806232742 -1.0351260959e-07 0.00015955238697 
0.00014144305444 -1.0575836941e-07 0.00014166548051 0.00015454599256 1.4332653735e-07 0.00015609070463 1.4554896071e-07 -5.5322714394e-09 1.8948324722e-07 
1.2291046797e-07 -3.5201748021e-09 1.3294854282e-07 2.1557463074e-07 1.8624416439e-08 2.831533566e-07 6.647905036e-08 -1.5574225531e-08 2.1556928425e-07 
1.4075706602e-08 -1.0512335538e-09 3.9508425986e-09 9.4697353771e-09 -4.3709260488e-10 9.1944855688e-09 1.1988133802e-08 -3.3498277539e-10 1.259119889e-08 
2.1234910794e-08 -1.9282011257e-10 2.1888337337e-08 7.1585630304e-08 2.2738852234e-09 3.1362116069e-08 0.00018898540238 -1.7734947784e-08 0.00019298137936 
0.00018906354769 -7.4851193435e-09 0.00019303347371 0.0001890637555 5.2940062443e-08 0.00019308569112 0.0001888746447 -1.0744928251e-08 0.00019300238628 
0.00018917027348 -8.028199547e-09 0.00019304595154 0.00018909638046 1.4640445484e-08 0.00019301162899 0.00018908048293 -8.1311067984e-09 0.000192948498 
0.00018908300124 6.3602970946e-10 0.00019296372236 6.0267182405e-07 8.7990997053e-08 7.6766712748e-07 4.7128363513e-06 -1.6540122622e-07 4.7989361019e-06 
1.7390747855e-06 9.9024304898e-08 1.5521194837e-06 4.5148954982e-07 7.0489464565e-08 5.3535085599e-07 3.4768207283e-06 7.5897441302e-08 3.2895921812e-06 
1.5912599931e-06 1.6563775099e-07 1.5870955758e-06 7.5403690485e-08 2.4646676088e-10 8.7589632738e-08 7.960430772e-08 5.0109398844e-10 1.085498205e-07 
0.00018562092705 -3.1696063144e-07 0.00018880550461 9.3827133331e-06 2.0762621062e-06 7.5985564083e-06 1.6562849543e-05 1.9031405691e-06 1.1989767929e-05 
2.7355843472e-05 1.6413752216e-06 2.1493330285e-05 4.0622056638e-05 3.1263008297e-06 3.7770759588e-05 1.11301e-07 -2.1957426307e-09 2.1036344256e-07 
5.136547674e-07 1.4617568041e-07 6.1033205467e-07 2.3415093724e-06 -3.1430638979e-07 2.0217915006e-06 3.4365121324e-07 2.0698865257e-08 4.7202839705e-07 
0.00018902063812 7.2454235271e-08 0.0001929029142 0.00016742129261 1.096522254e-06 0.00017366822555 0.00018864086352 9.0174533036e-09 0.00019267116195 
0.00018904333267 -1.9808918368e-08 0.00019306511277 0.00018833374494 -1.4847000732e-07 0.00019242247193 5.8969178006e-05 4.2003976625e-07 5.8686123066e-05 
4.1213489131e-05 1.111223198e-06 4.038190576e-05 1.2736213146e-07 1.2113186504e-09 1.8821538554e-07 0.00010742028731 1.113757721e-06 0.00010413678119 
6.6831978753e-05 -1.0396529338e-07 6.1824697133e-05 0.00018047208026 -9.6838700549e-08 0.00018497682811 6.6893466516e-08 -3.206137669e-09 9.6850019949e-08 
5.9238989227e-08 -4.5108343666e-09 1.072129771e-07 5.8014555942e-08 -3.4308438691e-09 7.123060001e-08 1.784093237e-05 -5.7209793496e-07 1.0987663358e-05 
2.9624775067e-05 -1.606371393e-07 2.7972878891e-05 2.3201240559e-07 -8.3042396362e-09 1.859482431e-07 0.00018837082588 -5.6514730608e-08 0.00019228509856 
0.00018905590731 -2.3068107394e-08 0.00019278652574 0.0001891598916 -3.676451886e-09 0.00019289033062 0.00018919830171 1.8305248111e-08 0.00019293563892 
9.1318752245e-08 -1.5692319203e-09 9.4146381696e-08 0.00016908120714 5.6109733024e-07 0.00017213433918 9.6165328308e-07 -4.5571423512e-08 9.3692904603e-07 
4.9655485777e-08 1.3520569445e-12 6.7067802279e-08 5.9540228127e-08 -1.030173234e-09 5.7655832323e-08 9.719936966e-09 -2.165801144e-09 -1.177034294e-08 
5.1644693177e-07 4.3455778594e-08 6.4989094327e-07 2.0815859296e-07 8.7738381251e-08 4.2194672064e-07 2.5267260057e-07 1.2090853919e-07 4.7981679266e-07 
2.5898368962e-07 1.2194539851e-07 4.8941966708e-07 1.7989239571e-05 3.4912473882e-07 1.7263335737e-05 1.7718609763e-05 3.5422566293e-07 1.6269029602e-05 
7.6923396605e-08 -1.9661574409e-09 8.7192929727e-08 1.0922553205e-07 2.1631070715e-09 6.6429828971e-08 0.00014540910626 -3.4916597571e-06 0.00011486209008 
0.00016504579443 -1.6254665924e-06 0.00014849124211 0.00010368891272 4.3453422735e-07 0.00010066720864 0.00011909799768 8.5419334318e-07 0.00011811760429 
0.00014958804906 6.6072391598e-07 0.00015054458731 0.00013044692808 1.162298553e-07 0.00012963946211 0.00014351020404 6.6921740594e-07 0.00014512384615 
9.5738302164e-05 5.8377166132e-07 9.3236558087e-05 9.7731817728e-05 6.2930237528e-06 6.305844699e-05 6.1189446846e-05 -1.2624865695e-08 6.2024903709e-05 
4.672277874e-05 -6.3439648494e-07 4.4409572923e-05 1.4066091842e-07 -1.0379913387e-08 1.4260154969e-07 1.6421175047e-07 -1.2173807189e-08 1.6578183154e-07 
0.00015104569413 4.559726131e-07 0.00015330163331 1.4062938867e-07 4.8583505541e-09 1.7133340637e-07 1.4912148624e-07 3.321035748e-09 2.1283657042e-07 
1.5766328631e-07 -3.7817159198e-11 2.130618488e-07 1.0915101883e-07 2.0779082854e-09 1.4735299045e-07 1.1586697429e-07 6.349542903e-09 1.8389453028e-07 
0.00018912132565 8.2778526976e-09 0.00019299958392 0.00018911626442 5.9929505951e-08 0.00019304059894 2.4062843765e-07 5.0723431417e-08 2.2814573978e-07 
2.7225758217e-05 2.9185371741e-07 2.5363613744e-05 0.00012267851341 -2.3556671917e-07 0.00012736447518 0.00011786918491 -1.1658603369e-06 0.00011740515452 
2.0699614889e-07 8.9132131872e-09 1.4348807323e-07 8.9457289431e-09 -9.5465057837e-11 2.3650146211e-08 6.8236037168e-08 -1.0223417541e-09 1.6202169432e-07 
7.8977324077e-08 -1.644778061e-09 1.8623589138e-07 2.3356569773e-06 6.3065560415e-08 2.1535241349e-06 5.0360672655e-06 -9.7197385144e-08 4.7118593005e-06 
2.9795919025e-06 8.877655396e-08 3.2011881088e-06 0.00017679601476 -1.554784598e-07 0.00018074467785 0.00016530429091 -4.9668770071e-08 0.0001674416466 
0.00014459801557 -2.3488556393e-07 0.00014792834293 0.00014249666112 3.3122003424e-07 0.00014444924217 5.3185701044e-05 -1.1084614212e-08 4.9457114718e-05 
6.7233772901e-05 7.6469481926e-08 6.3977332899e-05 2.0725233147e-05 -1.5542413098e-07 1.9134059256e-05 3.2414283256e-05 2.9210102714e-07 2.9248196083e-05 
6.4532953877e-07 7.0777832886e-08 5.9465698184e-07 6.4388700681e-07 5.5803234131e-08 5.4701211698e-07 4.1354160398e-07 1.2853483595e-07 4.1815715435e-07 
1.6860507587e-06 1.58383586e-07 1.69382697e-06 0.0001891043595 1.6530016837e-09 0.00019295964844 0.00014894137965 -6.669472748e-07 0.00014912269638 
0.0001878060994 2.0487541311e-08 0.00019200815494 0.00017986864099 -7.1825387987e-08 0.00018466382936 0.00018137859866 -3.751713068e-07 0.00018680765774 
1.5397185035e-07 2.7438861942e-08 1.8793034087e-07 2.9444392314e-07 9.0853987302e-08 4.6640183492e-07 1.1702320064e-08 -1.6541259904e-09 3.7085137145e-08 
1.2265724129e-08 -2.6818286225e-09 3.7902328171e-08 1.2307392565e-07 -1.8016847524e-09 1.261166411e-07 0.00018908290894 6.6770518917e-09 0.00019296835859 
0.00018906880321 2.0254026027e-08 0.00019283546785 0.00018909691792 1.1140039481e-08 0.0001929325627 0.00018913238664 1.0022772704e-08 0.00019292117055 
2.4698496064e-08 -1.1318064214e-09 -1.4275181181e-08 1.2431441701e-06 1.147763418e-07 9.4108125039e-07 6.6653023788e-06 6.8110987151e-08 5.8393795175e-06 
1.7490766698e-07 -1.0900245436e-08 1.9426323913e-07 1.4897542742e-07 -5.0342963608e-09 1.7499430296e-07 1.5868436952e-07 -1.246825653e-08 1.841111409e-07 
1.3563272531e-05 1.4568696966e-07 1.3009194292e-05 1.2178794946e-07 1.8448241495e-08 2.1533619651e-07 6.3305689296e-05 3.2767356512e-06 5.6565607958e-05 
8.5420368476e-08 -4.497801217e-08 2.9203213823e-07 1.6601646972e-07 1.5779745141e-08 1.668478183e-07 1.5100612729e-07 -3.0088344191e-09 2.2996167257e-07 
1.2723267911e-07 8.0879738791e-11 2.2871417984e-07 1.1157047576e-07 1.2001819169e-09 2.0183756658e-07 9.9180052897e-08 2.7787597284e-09 1.614867469e-07 
8.4933287731e-07 5.83973473e-08 7.2671461605e-07 1.4031439634e-08 -9.3535053452e-10 5.1406892381e-08 6.4675923819e-08 2.3705623694e-09 1.0514797302e-07 
0.00017197371116 -1.6532702684e-06 0.00013639694394 1.5450548284e-07 3.1778401313e-09 1.0230057039e-07 1.6072530599e-08 -4.028337435e-10 -9.6579464926e-09 
7.8740620699e-08 -2.7712073704e-09 8.610082946e-08 2.6725133246e-07 -1.8679088093e-08 2.1610515579e-07 5.2574794284e-07 -2.0550413816e-08 4.6852224122e-07 
2.7027620762e-05 6.6491727948e-07 1.4153677863e-05 7.0829986807e-05 8.0319406498e-07 5.6186604436e-05 5.3449922463e-08 -5.9425052394e-10 5.5102111047e-08 
5.9654638689e-08 -1.5741308753e-10 6.1629864889e-08 4.0501938072e-08 -1.1690624863e-10 5.2037103415e-08 5.2102648252e-08 -1.013850814e-10 7.6078015665e-08 
5.9382159276e-08 -1.2974700644e-10 8.415201439e-08 9.6038654889e-05 2.7786226369e-07 9.532081691e-05 9.3042187206e-08 -1.1107860194e-08 1.5716548367e-07 
1.3629226174e-07 -1.1469439283e-08 1.6856162509e-07 1.241830327e-07 -4.4255941677e-09 1.536715047e-07 0.00018843814109 2.6411392805e-08 0.00019236291149 
0.00018838620656 -1.4812117148e-08 0.00019206838795 0.00018708259645 2.461005072e-08 0.00019064275438 0.00018522081467 -3.7978307972e-07 0.00018838946516 
0.00017203981212 3.8758590566e-07 0.00017364171945 0.00018039783037 1.7357016905e-07 0.00018324113061 0.00017703811836 -4.4509683272e-08 0.00018022721631 
2.1111290771e-07 -2.8740016132e-08 3.5572365502e-07 6.6226565638e-07 1.2539547223e-07 7.3784295712e-07 4.9946273793e-06 -2.474179401e-08 4.5046055706e-06 
7.5354581957e-08 7.3459626669e-09 1.4291497973e-07 4.7743029307e-08 4.0572776457e-09 9.9504584579e-08 9.5025657017e-05 1.9486992912e-07 9.3093674376e-05 
8.9440680152e-06 7.8462631531e-08 9.0479344173e-06 0.00018907998179 2.6245618277e-08 0.00019296475572 0.00018905187195 1.0059337892e-08 0.00019293722885 
0.00018896333839 -3.0853615553e-08 0.00019268548254 2.7455156417e-08 7.8976560042e-10 4.5419735769e-08 2.5621436198e-08 -1.0252924844e-09 4.5950562563e-08 
6.9543872737e-08 2.5872236394e-08 2.558049695e-07 1.2677177999e-07 1.7480104387e-08 2.2090232334e-07 1.410507045e-07 4.0437211134e-08 2.4307940482e-07 
3.9826026036e-07 -6.5899879502e-08 4.6821946464e-07 1.262502335e-07 1.6659063218e-08 2.5112145531e-07 1.2661836067e-08 -2.9816576856e-10 1.8058100975e-08 
6.2624659216e-06 -4.8917043302e-08 5.7602178042e-06 3.5482679449e-06 -2.1102084973e-08 3.5899326741e-06 0.00012891790705 1.981122904e-08 0.0001298794098 
9.6827470534e-05 7.9332773465e-08 9.7655245397e-05 3.7446843915e-05 2.081130934e-07 3.6990036154e-05 1.3582751858e-05 4.7760456164e-07 1.2585729466e-05 
3.516857312e-05 2.9250654448e-07 3.4255637703e-05 1.2621251712e-07 -7.56304468e-09 1.6853435315e-07 0.00018898886514 1.1141963065e-08 0.00019274736384 
0.00018898008213 -1.5935581785e-08 0.00019291010253 7.9805734806e-06 8.4907834686e-07 6.5335226662e-06 2.761187633e-05 5.224458554e-07 2.5759037066e-05 
7.0242641675e-08 -2.4248255756e-10 9.1190419787e-08 0.0001890219901 -1.57074038e-08 0.00019290006409 3.5344784297e-08 1.6201072651e-10 4.2275015027e-08 
1.2108911214e-07 2.130901011e-08 1.0599059114e-07 1.0014796305e-07 1.3975284007e-08 8.0964701883e-08 1.4485307311e-08 -1.8695673113e-11 4.1203791662e-08 
2.6075808796e-08 -5.2486900422e-10 5.8026937968e-08 6.7989766692e-09 2.9539608397e-11 2.0558951497e-08 1.4388361019e-08 4.0207484083e-10 4.2825960789e-08 
2.5343138134e-08 8.0186426999e-11 6.3346970609e-08 3.1354725896e-07 1.1924644239e-08 1.8934475919e-07 2.6216057346e-07 -9.3907882828e-09 1.9979123525e-07 
7.0400181414e-05 9.5742084573e-07 5.5470737412e-05 0.00011686011591 -5.5820673828e-07 0.00011950080946 0.00014963888606 5.3842163849e-07 0.00015317098407 
9.1847411228e-05 -4.4345165628e-08 9.3158746172e-05 0.0001418253634 5.2203763267e-07 0.00014186017817 0.00018914728729 2.8873962228e-08 0.00019269746436 
0.00018887930965 -5.5981934772e-08 0.00019252396482 0.00017303266049 -3.0509638882e-07 0.00017762413167 0.00018012048497 5.8548382202e-07 0.00018372408339 
1.1784597081e-07 4.3576388934e-09 6.7012647809e-08 1.2412385633e-07 4.0728392575e-09 7.7113305937e-08 1.1164990574e-07 -1.386956222e-08 2.2996494633e-07 
7.5449078695e-05 3.2144346829e-07 7.454408054e-05 0.00010282134511 1.1478703182e-07 0.00010179802934 2.1869837572e-07 -1.2136979837e-08 3.1413978679e-07 
1.0755710962e-07 -2.7766989454e-08 2.086762422e-07 1.0459497799e-07 -8.4005278191e-08 2.7439654848e-07 0.00011652826166 -9.3810648822e-08 0.00012034048414 
2.8403145481e-07 6.312050369e-08 4.0990722616e-07 2.0730233638e-07 -2.5955310077e-08 3.63394848e-07 1.304533499e-07 2.66324493e-10 1.5640708112e-07 
1.4183549891e-05 9.4162894731e-07 1.3101685641e-05 5.7526910194e-06 9.2674927084e-07 4.8670315722e-06 0.00018917762691 1.3682521246e-08 0.0001929158613 
0.00018910469241 4.7139660244e-08 0.00019282435959 0.00018862546524 -1.7681351372e-09 0.00019264892504 0.00018884125103 4.4799001335e-08 0.00019280218818 
0.00018886412284 7.651191137e-08 0.00019266747775 0.00018918374688 -7.6076389417e-09 0.00019302482605 0.00018922569046 1.6024457064e-08 0.00019302499532 
3.0057284946e-07 3.6663912241e-09 3.1335381201e-07 2.3319516106e-07 8.0932762766e-08 4.2322751994e-07 0.00015144082241 3.4542081548e-07 0.00015402138822 
0.00016572898179 4.3283203213e-07 0.0001673902881 0.00018864249239 2.4323624934e-08 0.0001928216835 0.00017024816494 -2.3401753439e-07 0.00017455877398 
0.00014571610724 -2.7551484986e-07 0.00015038114024 0.00016598471356 9.4903141521e-07 0.00016959901386 6.9324945898e-07 1.4070932125e-08 7.9828902198e-07 
1.1971404896e-07 9.7140027749e-09 1.0504512963e-07 1.0081520792e-07 1.439228016e-08 9.3014757156e-08 0.00018903012793 2.2289961766e-08 0.00019291465054 
0.00018912560309 1.3075278708e-08 0.00019300446016 0.00018763160965 2.6767872771e-07 0.00019165473176 0.00018674281663 5.1313854301e-08 0.00019009625865 
0.00018352760601 -2.5375502616e-07 0.00018735958587 0.00017726177523 -8.985460457e-09 0.00018166469127 0.00016429608192 8.4692906011e-07 0.00016611450428 
3.2719796062e-06 -4.8162269376e-08 3.3838743599e-06 1.9827877385e-06 2.9890747247e-08 1.6658018578e-06 1.3399984387e-06 -7.4822935565e-09 1.1920382404e-06 
2.3877606443e-05 1.3872506306e-06 2.1974050481e-05 5.1225812822e-05 2.2471828264e-07 4.4543145559e-05 1.7999206618e-06 -3.4873163574e-08 1.6707318907e-06 
1.319860873e-07 -2.6945857091e-09 9.9766794315e-08 1.2692743951e-07 -1.4581460541e-09 9.3286812421e-08 4.5377057834e-08 -2.0892781438e-09 7.3721996621e-08 
1.1960434647e-05 -4.9163596416e-10 9.8154351249e-06 1.4755764977e-05 1.3856566647e-06 1.0296415613e-05 2.4374771382e-05 1.5488414418e-07 2.3267920206e-05 
2.3487984692e-05 4.5607045355e-07 2.2820572809e-05 3.9263580583e-05 4.2927436918e-07 3.8163854388e-05 1.1450159921e-07 -8.0122236977e-10 1.0744228636e-07 
1.3796850145e-07 -3.7801909159e-09 1.214444634e-07 1.1063361696e-07 -7.5084472645e-10 8.0935749318e-08 1.5093885177e-07 3.3031739839e-09 1.0520873699e-07 
1.5911397905e-07 1.2617366861e-09 1.3423569979e-07 6.2284992748e-08 -2.3874248906e-09 8.5776440991e-08 6.474654344e-08 -2.6656427791e-09 8.1640256106e-08 
6.8529754354e-08 -1.2165668843e-09 6.4694302589e-08 4.6976410699e-08 -2.0361979534e-09 4.7502861097e-08 2.16073061e-07 -1.1322924376e-08 3.3659340732e-07 
9.1022272884e-06 -2.735089196e-07 8.9598457992e-06 7.1129493521e-06 -6.1806429703e-08 7.1699524941e-06 9.9375321416e-09 -3.8015550474e-10 2.111439583e-08 
1.0587422795e-08 6.076154605e-12 3.1098340304e-08 9.0354402048e-09 1.5148987096e-09 2.9233316522e-08 5.6634667836e-07 2.1781906544e-07 6.4406808384e-07 
1.5846723158e-08 3.4599598436e-10 4.8089502406e-08 0.00016939248167 2.9221300564e-07 0.00017286806458 0.00013936162023 5.345570428e-07 0.00013994722549 
0.00014926719779 -9.054071739e-08 0.00015169082415 0.00017756642925 -7.6787407264e-07 0.000178634697 0.00017922078896 7.1619627571e-08 0.00017643972532 
2.203381304e-06 6.5026156374e-08 1.7779819195e-06 0.00018566834161 -1.77618076e-07 0.00018989823554 5.364084574e-05 -6.8863986821e-08 5.1273133502e-05 
3.9556864841e-05 2.2368704941e-06 3.8173328791e-05 5.386718475e-05 8.414433938e-07 5.2695449399e-05 0.00011764752051 4.2460241318e-07 0.00011734071299 
0.00012409608551 4.982915621e-07 0.00012363186709 7.839881742e-08 -2.5326794487e-09 9.581180731e-08 0.00014547871717 3.2383115112e-07 0.00014630188478 
0.0001851694003 -3.0070931371e-07 0.00018959298367 0.00015844855808 1.6368972521e-06 0.00014988036291 5.5857252763e-09 -1.856331061e-09 -1.376396219e-08 
1.3529431951e-08 -1.0499614665e-09 -1.5650188278e-08 6.4370672336e-05 -4.4416465504e-07 6.3503674095e-05 4.8826142167e-05 -3.3065187567e-08 4.6717279827e-05 
0.00017132372864 -1.9011528348e-07 0.00017243269773 0.00017646234681 1.2634957358e-06 0.00017891382002 0.00018553217689 1.3467291373e-08 0.00018859625215 
0.00018555188324 6.3651033919e-07 0.00018886702945 0.00018198192461 -5.3270017122e-08 0.00018491924003 2.3019696083e-05 8.6256181649e-07 2.1663492454e-05 
1.2283040415e-05 4.8054445558e-07 9.712286712e-06 0.00018776352922 -1.9854858918e-07 0.00019135239354 0.00018864002382 3.7978642148e-08 0.00019258159409 
0.0001891290984 1.4448386605e-08 0.00019297274941 1.5119897193e-07 2.5403231624e-09 1.7811861136e-07 2.4001340391e-05 -1.6353626726e-07 2.3150685436e-05 
4.6850050935e-05 -4.4298044985e-07 4.5629701325e-05 3.0286786014e-05 -3.4884943417e-07 2.8837712565e-05 0.00013314091623 2.8532301386e-06 0.00013214514556 
2.8711736925e-08 -1.257953591e-09 2.739579052e-10 7.0779114095e-05 -2.1181873941e-07 6.9180430473e-05 7.4741108088e-05 -5.9194006863e-07 7.5314860297e-05 
4.6017069743e-05 1.5704639319e-07 4.4587080395e-05 0.00016717132284 -5.0912279986e-07 0.000170421717 0.00016814453399 2.6435176043e-08 0.00017131127861 
2.0000869656e-07 -1.4883064551e-09 2.2748270982e-07 2.0120357071e-07 -6.8998107098e-09 1.7415848164e-07 0.0001151364786 2.0919736303e-06 0.00011271774591 
0.00017745627121 4.9410047457e-08 0.00018120863495 0.00018155987957 -1.8812066083e-08 0.00018507241323 1.5065979725e-07 -3.5425666885e-10 1.4680454739e-07 
1.1475474666e-07 -9.6108740592e-09 1.5697548013e-07 2.7277220288e-07 -2.3484434181e-08 3.6852389412e-07 1.4588108758e-08 -4.5649034655e-10 -5.3680684047e-09 
1.5961369558e-07 1.576162512e-08 1.2622635754e-07 1.6534621473e-07 7.3238752163e-09 1.1670276565e-07 1.5484769039e-07 1.2301434992e-08 1.0420498155e-07 
1.3877660985e-07 6.5014631354e-09 9.7610417962e-08 1.8266339953e-07 6.0750624147e-08 5.1483918777e-07 0.00018884931398 7.4465644821e-09 0.0001925827162 
0.00018808053462 8.3106111793e-09 0.00019187108875 1.4351190732e-07 1.0227281713e-08 1.2214351716e-07 1.2689575085e-07 7.9584820821e-09 9.7011599559e-08 
1.2637011546e-07 -4.3278297765e-09 1.213293216e-07 1.0476436784e-07 -7.3801189335e-09 1.1329440079e-07 1.0420568614e-06 2.0592606999e-07 9.6010941477e-07 
1.6110319533e-06 1.8041855047e-07 1.1783154246e-06 4.6902304097e-05 -6.7529336258e-09 4.6388533993e-05 5.5595660414e-09 -1.0355496686e-09 -6.0208778335e-09 
2.8482049608e-07 1.8934903599e-08 4.1219408036e-07 3.6949842478e-07 1.9557794778e-08 4.7878862575e-07 4.5331604097e-05 1.2661907635e-06 4.2894229989e-05 
0.0001866134039 -6.5698591073e-08 0.00019105843872 0.00018891686089 6.1538473523e-08 0.00019273689797 1.9301166176e-07 -3.9476455526e-09 2.2606390701e-07 
2.2431560223e-07 8.30215644e-09 2.8439062305e-07 1.9402252314e-07 -1.3894830659e-09 1.7870298742e-07 3.725959453e-05 -3.3466519935e-07 2.1982814377e-05 
1.8641043277e-07 -6.3658804123e-10 1.5546831239e-07 2.4065609677e-07 1.2412142103e-08 2.3332214959e-07 6.493506634e-05 5.655016954e-08 4.7064719382e-05 
0.00018911474849 1.977726606e-08 0.00019298404611 0.00018867822818 1.5575302054e-08 0.00019239996338 0.00018842797305 4.7475279972e-08 0.00019198711265 
0.00012351763138 -2.3110136242e-08 0.00012396360409 0.00018902479782 1.9837972643e-08 0.00019299702731 2.1676975683e-07 7.4682051618e-09 2.3411092005e-07 
2.5485103053e-08 2.1025358642e-09 9.2576528801e-08 6.6559648472e-09 -9.5437484156e-10 2.8052708071e-08 1.5584273675e-08 6.6594579695e-10 5.921999487e-08 
1.3452751369e-05 6.3082963627e-07 1.0891312785e-05 3.2716186323e-05 2.7097189284e-06 3.0833012018e-05 0.00018903527219 1.5558710847e-08 0.00019299809699 
0.0001890947377 1.9063156466e-08 0.00019308375063 0.00018792078023 -2.3628598138e-08 0.00019192871813 2.4133540034e-06 1.0474795672e-07 2.4099827353e-06 
0.00018908540988 4.3673841381e-08 0.00019296051345 1.6625495702e-07 2.11223748e-08 1.5864463507e-07 2.3851551452e-06 1.5487992434e-07 2.2332995689e-06 
3.2259100636e-06 2.4322292101e-07 2.6864587975e-06 4.1627928264e-05 5.3444826695e-06 3.5730586834e-05 7.4955941781e-05 9.840010168e-07 7.1707895898e-05 
7.5268576161e-05 5.8390442245e-07 6.87677305e-05 9.4108647841e-08 1.9049235693e-09 1.5501168848e-07 0.00018912607354 7.1664514381e-08 0.00019295583599 
0.00017524768443 1.8326839963e-07 0.00017875716322 0.00018256591361 1.0315208736e-07 0.00018722250426 0.00018741625202 -3.2640678963e-08 0.00019145382729 
5.2553240279e-05 -3.1672721215e-07 5.1730733125e-05 1.103179184e-07 -1.2960113277e-09 8.0945859598e-08 9.9140426882e-08 -2.2391188383e-09 7.4973574606e-08 
3.0442289561e-08 -1.0151764968e-09 -1.1507080319e-08 3.6528053426e-08 -9.4731253496e-10 -3.2423079778e-10 2.5622839505e-07 6.7259597867e-08 3.7390088557e-07 
0.00018709829041 1.5036033637e-07 0.00018990962802 0.00018904203605 1.187780231e-08 0.00019305474616 2.0805839382e-08 -2.7937500589e-09 4.2155330077e-08 
4.2903121054e-05 2.139978138e-06 3.3353749146e-05 7.5822267315e-05 2.4690773346e-06 6.885193771e-05 3.6655898699e-08 -7.205218975e-10 2.6016071576e-08 
4.1898786552e-08 -3.0945083757e-10 4.3632687751e-08 1.6200032454e-07 -5.7175768566e-09 1.9462220732e-07 1.319744538e-07 -2.8498203913e-09 1.5589568149e-07 
7.3444456561e-08 -1.4819737704e-09 4.3502531227e-08 8.293113532e-08 -2.9676939504e-10 4.809139648e-08 2.3578704499e-05 1.5392018628e-07 2.1886504917e-05 
3.7223579523e-07 3.5924498605e-08 4.5068322967e-07 1.251424969e-07 3.346158256e-09 7.6249177147e-08 9.7705518275e-08 -1.5678452683e-10 5.7382595186e-08 
1.7997438299e-05 6.9512934633e-07 1.6465583887e-05 1.5029069536e-05 1.4763455123e-07 1.4697525358e-05 5.322451511e-06 1.8805662032e-07 4.9233478129e-06 
5.1998685121e-08 -3.9850967362e-10 9.6870088629e-09 0.00018905354372 -7.9771718724e-09 0.00019304273763 2.8205823891e-05 3.505284838e-06 2.1407102696e-05 
3.5617565407e-05 1.0969433241e-06 2.6059408118e-05 0.00018647982048 3.6148836838e-07 0.00018935546427 0.00018828301746 1.1971332396e-07 0.00019221880258 
1.6055524969e-06 -1.546952423e-08 1.2714040216e-06 3.7015046099e-07 1.7327203962e-07 3.7534659996e-07 2.043344498e-07 -4.8353416918e-10 2.1426503317e-07 
1.8760805658e-07 -4.0089890175e-09 1.6725967338e-07 1.8436325265e-07 -4.0206964645e-09 2.1577864236e-07 1.3564973722e-07 2.9327119276e-08 1.3012802034e-07 
1.310783119e-07 2.4219086684e-08 1.2421215732e-07 5.2377713597e-08 -4.1911256561e-10 1.0082805441e-07 1.5563041983e-05 3.7378321987e-07 1.3086780555e-05 
1.7600475159e-05 6.8956947899e-07 1.6977997395e-05 0.00018864027284 4.1874429698e-08 0.00019253792201 0.0001891272759 2.3253429745e-08 0.000193162457 
0.00018919331482 -3.3385809594e-08 0.00019310664954 7.8695324721e-07 2.0275109284e-08 6.480869651e-07 2.0415689169e-07 2.2795188233e-08 2.8260213696e-07 
2.957128196e-07 2.5308637635e-08 3.8487222802e-07 0.00017350643303 1.4897384811e-06 0.00016815260738 2.1360111415e-07 4.4030785002e-09 1.8390346867e-07 
1.8192439294e-07 6.7228395979e-09 1.8382564338e-07 6.9212740453e-05 8.1623007505e-08 6.9181753803e-05 6.0660176354e-05 1.9967780005e-07 6.0281569439e-05 
0.00018330692729 3.1852760945e-07 0.00018663911375 0.00018793750876 1.1078007558e-07 0.00019198516932 0.00010809425262 -1.4462354498e-06 0.00010892921743 
5.0825414788e-08 -2.0463714282e-09 5.1254562381e-08 9.241561285e-08 -3.987194458e-10 1.8942431614e-07 6.2622658521e-07 -3.5171157179e-08 7.018200769e-07 
0.00018904425643 4.5116747181e-09 0.00019294398719 0.00018905052729 2.1040878153e-08 0.00019293962637 1.7871725919e-07 2.1612352732e-09 1.3696611097e-07 
0.00014963294752 1.4847003709e-05 8.1371078461e-05 1.0864421425e-07 -3.7406646397e-09 9.2703696559e-08 4.0213526335e-06 2.3427019447e-07 3.5074993531e-06 
9.2759732888e-06 -4.6182767043e-08 9.2132427407e-06 8.9370779622e-05 -1.8843201868e-08 8.8506633519e-05 7.1987252007e-05 3.6598716233e-07 6.9279807987e-05 
0.00018890560037 -8.4597310841e-09 0.0001928656852 6.7999988339e-06 2.8517006292e-07 6.4141735409e-06 0.00018919015088 -1.591987469e-08 0.00019301215528 
0.00018010132625 2.2677310527e-09 0.00018488776298 0.00010309584152 2.602370524e-06 9.9194900344e-05 0.0001103110995 2.8164132479e-06 0.0001105463829 
5.573644547e-09 -5.3035434854e-10 -3.2115195202e-09 3.3370769367e-05 -2.5262034481e-07 3.099735118e-05 0.00018468424415 9.069239143e-07 0.00018808654412 
0.00018560641372 4.8323124832e-08 0.00018923707105 0.0001808548302 -1.8155893087e-07 0.00018208686211 0.000189082695 2.7039244276e-08 0.00019296589305 
0.0001890422102 4.7415351669e-08 0.00019294723043 4.2349208164e-08 -6.8707267377e-10 5.331758349e-09 6.1696394932e-08 -6.4213932115e-10 2.5282725841e-08 
1.493025895e-07 7.7287918852e-09 9.256856077e-08 0.0001528680987 -3.1178947507e-07 0.00015316681246 4.8427723268e-07 1.6251822248e-07 3.2733771796e-07 
4.1533884046e-07 1.4613736731e-07 5.6656114044e-07 2.3650822352e-07 4.7022186325e-08 2.971864627e-07 3.1077001273e-05 -1.4544565434e-06 2.8194393672e-05 
1.1891356298e-05 -1.3954625735e-06 8.9539099691e-06 3.9865387563e-06 -2.482894942e-07 4.1857944587e-06 1.3655144495e-05 2.7691694762e-07 1.3836621949e-05 
0.00018898727275 5.0266757352e-08 0.00019273715001 0.00018909250474 8.7587912172e-09 0.00019297344244 0.00018908170324 7.0622523686e-09 0.00019293773252 
4.6212595568e-07 3.7514120923e-09 4.6591408435e-07 9.1271194612e-06 -3.0553430045e-07 9.062034312e-06 1.0286266163e-07 -5.1626916747e-09 2.1555388506e-07 
3.4651616614e-05 4.810400632e-08 3.3673207423e-05 0.00014194316712 7.3123537452e-07 0.0001419858618 5.4986275736e-08 -5.2724254224e-10 3.5930424712e-08 
1.000438863e-07 2.1383424597e-09 1.5053487374e-07 0.00012083205778 -4.846536132e-08 0.00011789234927 8.0581573492e-05 1.3418873266e-06 7.6892005064e-05 
0.00018908846283 2.9848639324e-08 0.00019294938374 7.3317792646e-08 4.0457502501e-09 3.284292751e-08 0.00018892916583 1.115095193e-08 0.00019309322338 
0.00014396962593 4.7484062143e-07 0.00014625578462 0.00012531460036 7.8396038792e-08 0.00012464587371 6.0207880838e-07 -2.7521150579e-08 7.6009245285e-07 
0.00012464557332 5.494477798e-07 0.00012436537102 0.00011056995013 -1.1059421392e-07 0.00011023830554 0.0001010247255 3.0958886656e-07 0.00010058776021 
0.00012003860996 3.6669024801e-07 0.00011923834307 7.2587677668e-08 -3.3993943154e-09 1.3013891445e-07 1.1729086826e-07 6.2864820039e-09 1.9146978942e-07 
8.3113385345e-08 -1.7073943997e-10 1.4342186935e-07 3.8907122394e-08 -2.4411757656e-10 9.5113690853e-08 7.4240366098e-09 2.9428833033e-10 2.421680038e-08 
2.5616766836e-08 3.4682189554e-11 7.6150500911e-08 1.0187962915e-06 2.1849038131e-07 9.861311031e-07 2.0563405976e-07 5.718730102e-08 3.0568838111e-07 
7.9828100477e-05 1.3112364615e-06 7.8988153826e-05 4.827153197e-09 -1.3398929717e-10 4.7896619751e-09 0.00018903649874 3.4543503156e-08 0.00019294676759 
1.6137293196e-06 -9.759336753e-08 1.6278319701e-06 5.4584921162e-06 2.6939626113e-07 4.8964880049e-06 6.7919287958e-07 2.7693970788e-07 1.0289650157e-06 
1.4833647635e-06 -5.5171200518e-09 1.3359084875e-06 4.7899780423e-07 -2.8834482132e-08 6.5702734497e-07 7.5240357705e-05 1.1392789036e-06 7.4970713146e-05 
4.6321329293e-05 -5.7517970216e-10 4.6405833701e-05 9.6684984963e-09 -3.23157162e-10 1.515979701e-08 0.00013966196046 -3.137273876e-07 0.00013994369623 
1.0646233165e-08 -2.0994654095e-09 3.1745583616e-08 5.0089305959e-05 -1.2637968172e-06 4.7624163877e-05 7.2744906251e-09 -9.3710871117e-11 1.0639107789e-08 
2.623659482e-08 -6.6216353741e-11 3.4754438635e-08 1.4565514361e-07 -5.8924862472e-09 1.3158333881e-07 9.021490727e-07 7.4859829269e-08 8.7659211998e-07 
1.9065500313e-05 6.9926391818e-07 1.6637917675e-05 0.00010828796736 6.6082726976e-07 0.00010940517245 7.2415596708e-05 1.5283430864e-07 7.059607996e-05 
0.00010601932894 3.6220847225e-07 0.00010617292744 4.3436306634e-05 9.0807710533e-07 4.1461540628e-05 1.6139426226e-07 -4.0732460521e-09 1.3713531543e-07 
1.4080541766e-07 2.098237861e-09 2.0165752446e-07 9.3447512699e-07 -2.2045380683e-08 8.7938324319e-07 0.00016945650752 -2.2500227851e-07 0.00017201599049 
0.0001821279963 -2.8325053768e-07 0.0001856973106 6.5194276414e-07 3.3218560846e-07 8.3097584455e-07 0.00014996112523 -7.844660923e-07 0.00015007302796 
2.1911863784e-05 3.2815302428e-07 1.5081880132e-05 4.1600442226e-05 -1.4360655232e-06 4.3690557982e-05 4.7494231254e-05 6.3377160362e-08 4.2557317361e-05 
1.103625726e-07 1.0800834639e-08 1.5690788094e-07 0.00018876744856 9.0122667506e-08 0.00019236437615 0.00018735662288 -7.5270876444e-08 0.00019104451463 
1.9047352881e-05 -8.4937144335e-08 1.8837541011e-05 1.1136200879e-07 -1.1290326488e-09 1.3494827166e-07 0.00018572379271 4.6225128244e-07 0.0001889266547 
1.6962272809e-08 -1.0039504621e-09 -7.4637371335e-09 8.9618972219e-05 9.7455633283e-08 8.8793176669e-05 9.3578855678e-08 -5.6420844658e-09 8.8091860125e-08 
4.0320902185e-06 2.1433480249e-07 3.5962104766e-06 2.6381465734e-07 1.4340670521e-08 2.0458076591e-07 2.7496566855e-07 4.3098882575e-08 4.6038889996e-07 
1.7559457739e-07 -9.0541497283e-09 1.5527779103e-07 8.8695016166e-05 1.2003127107e-06 8.8159655465e-05 1.2791320254e-07 1.5468637784e-10 7.8329681481e-08 
9.7003639168e-08 1.1944841086e-09 4.8542125782e-08 1.093700729e-07 -2.3968855943e-09 1.4674995113e-07 3.9667299235e-07 1.603737026e-07 6.1767263791e-07 
2.8256305811e-07 7.5617620432e-08 4.6735317715e-07 0.0001023166113 -1.457538272e-06 9.9646944066e-05 2.6149817585e-07 1.8373073098e-07 4.616045225e-07 
7.3512323444e-05 2.1509356728e-07 7.3299451963e-05 5.9238195912e-05 2.38627201e-07 5.8431033312e-05 4.434819361e-05 1.158632759e-07 4.4492336135e-05 
6.9130127109e-05 -4.4648380987e-07 6.9830913768e-05 6.9448851289e-05 1.5736161436e-07 6.9538965024e-05 0.00016162008236 1.1379162826e-06 0.00015692488536 
0.0001795842504 1.2610175087e-06 0.00017885747554 1.3240255109e-05 1.8521013069e-07 1.3353489083e-05 1.9032893662e-05 -1.0750789866e-07 1.8441987162e-05 
4.6278418515e-05 -5.4577294962e-07 4.3988964109e-05 3.1839647391e-05 3.8193304794e-07 2.9807411816e-05 1.7038387004e-05 1.4152017601e-07 1.6009727813e-05 
0.00012306877988 -1.173293191e-07 0.00012228443079 8.2910156043e-08 -4.0553215206e-09 1.5193017807e-07 2.3068215116e-07 1.1139210056e-08 3.413629798e-07 
2.2980364314e-07 2.8716771575e-08 3.9965473805e-07 0.00018897450268 6.7246102178e-08 0.00019260418643 3.1253891449e-07 4.8907381152e-08 4.5623887881e-07 
1.4216965251e-07 -2.8329924449e-09 1.1064630153e-07 1.7152601296e-07 5.5775972096e-09 2.6567338169e-07 2.0024444278e-07 9.7832369713e-09 2.9687829e-07 
2.9116876822e-07 1.5625869718e-09 3.2838082927e-07 2.709977642e-07 3.6784537052e-09 3.2600214841e-07 2.2164872754e-07 7.6067688742e-09 3.141360123e-07 
0.00018019032719 1.2128717003e-06 0.00018324438886 0.00018908408454 3.1615153569e-08 0.00019289491606 0.00010838582684 1.8911006954e-06 0.00010667205423 
6.4294073895e-09 -9.7687908141e-11 1.3150312752e-08 2.4878259223e-08 -1.2235679788e-10 4.3221831111e-08 6.4868927156e-09 -1.8597351783e-10 1.3971623482e-08 
0.0001834983805 1.0468868298e-07 0.00018726064904 0.00018869408054 -1.3014682168e-10 0.00019255380442 0.0001879154361 3.830794828e-08 0.00019163391841 
0.00018847319394 -2.4000724511e-08 0.00019220148347 0.00018905118576 4.9363278542e-08 0.0001928452328 6.7511260482e-09 -1.3285063745e-10 1.8853382295e-08 
9.7564096119e-05 -5.5525431616e-07 9.9021869891e-05 7.2254568096e-05 2.107802128e-07 7.1616892001e-05 5.5727328208e-06 1.0014309684e-07 3.1587167584e-06 
3.0919893416e-05 2.0030047892e-06 2.3529717415e-05 0.00012623829648 5.7056770266e-07 0.00012645943562 1.3283239512e-08 -7.8016455533e-10 -3.4150158052e-09 
2.0255623353e-08 -7.9561964494e-10 3.7821949198e-11 0.00018706396051 1.3699601295e-07 0.0001905431098 0.00018283712218 -1.5381631128e-07 0.00018423771373 
5.0934902463e-06 6.3700375864e-07 2.7847752877e-06 9.5760469794e-06 -1.1654655004e-07 8.0318351333e-06 9.5842461033e-08 -1.2283918693e-09 1.8720008384e-07 
5.920208966e-08 -6.6143811521e-10 5.0221397628e-08 4.3910635387e-08 3.2943301407e-10 6.5541200779e-08 0.00018906441622 4.1846948662e-09 0.00019297726958 
0.00018906831213 -1.3433364991e-09 0.00019298114831 0.00018903028593 1.7046588653e-08 0.00019292927146 0.00018899890596 4.4967558984e-08 0.00019288833337 
0.0001874889729 1.0408271573e-07 0.0001911928056 0.00010576353628 9.3992957435e-08 0.00010506879745 7.8012453051e-05 1.1302153327e-07 7.8098541293e-05 
0.0001173401922 -3.5753917518e-08 0.00011648890329 7.819562019e-05 -1.9190371655e-07 7.7191521645e-05 9.9020710146e-05 -4.1894092895e-07 9.8205513023e-05 
8.7941256669e-05 -1.5216431992e-07 8.7273130293e-05 6.713163691e-05 -5.0238215389e-07 6.6630828923e-05 0.00013473351932 2.9640229149e-06 8.4390318271e-05 
8.4282203924e-05 5.1221335305e-06 5.6271381903e-05 0.00016270153621 -4.6308415914e-07 0.00016636608258 0.00014008367206 2.1938191494e-07 0.00014311385871 
0.00018647269548 3.6466939201e-07 0.00019013676314 9.0088438517e-05 -3.0250317886e-07 9.0924671112e-05 0.00010953164138 2.9802686984e-07 0.00010919289739 
0.0001040188125 7.0642365933e-07 0.00010315805776 8.6509467595e-05 -1.9927234472e-07 8.4517273466e-05 0.0001151024318 1.8559480277e-07 0.00011431772741 
0.00018691346577 1.7711852496e-07 0.00019015486737 1.5581450539e-07 4.2912158871e-09 1.0540586787e-07 0.00018909479299 2.4130998831e-08 0.00019292448044 
0.0001851807111 7.4108256573e-07 0.0001863556901 1.0299767199e-05 -5.0756835946e-08 9.4086942667e-06 8.2209063428e-08 -3.3209110476e-09 9.4515054852e-08 
7.0134153544e-08 -2.7498313732e-09 7.1611672168e-08 4.1240299862e-08 -8.9287111168e-10 1.0969759944e-07 0.0001859996701 3.2030822876e-07 0.00018988241386 
1.979016637e-06 -2.8113982699e-08 1.9875035355e-06 2.0089054679e-06 -7.4347781083e-08 1.7651169061e-06 5.5313916347e-07 4.6786959835e-09 4.3937919971e-07 
0.0001252083948 -7.5903574845e-07 0.00012261122722 0.00014146152809 -7.0628406685e-08 8.9815150826e-05 9.4190155276e-06 -3.9658000761e-08 9.1578618728e-06 
7.9111121445e-05 4.1370439084e-08 7.8878110431e-05 0.00011074687164 7.9438483379e-08 0.00011289950331 0.00010094260219 -5.3846886283e-07 0.0001005059159 
6.1241890243e-08 -1.2655458119e-09 1.3092303496e-07 2.112098736e-08 1.5645915869e-09 5.6205125527e-08 0.00014841872817 7.3269125512e-08 0.00015245821103 
0.00018877838061 -1.1606997977e-07 0.00019246363245 6.877096805e-05 4.4566920987e-07 6.4506084622e-05 5.2617206051e-05 1.1884240987e-06 4.7883804912e-05 
0.00018912921792 -1.1662044553e-08 0.00019286601659 0.00018781242707 2.3906382449e-07 0.00019148181318 1.5413932829e-07 2.463825373e-09 2.5515517079e-07 
1.5906932116e-07 9.0004409401e-10 2.7324433646e-07 1.1938873754e-07 5.2177678345e-10 2.2477422493e-07 1.398315525e-07 -1.0388812878e-09 9.6129069234e-08 
1.6599205574e-07 6.7863598071e-10 1.1280172523e-07 1.7621432772e-07 -9.4173651792e-09 1.4156847645e-07 5.1121432041e-08 -3.8549920467e-10 1.341711723e-07 
0.00018892671746 2.9653343829e-09 0.00019298488536 0.0001876347977 2.929281575e-08 0.00019194925094 5.3855790036e-08 2.3731701198e-10 1.0687905686e-08 
6.2964656563e-08 1.6570438445e-09 2.4246909546e-08 4.7213330208e-05 -6.8389652991e-08 4.6458352682e-05 6.6510027483e-05 -1.0599871799e-07 6.4603836693e-05 
9.0806530658e-05 1.2354655973e-07 8.9970374941e-05 8.7737761866e-08 -2.4251091376e-09 1.885990329e-07 1.5663663495e-05 1.048758561e-07 1.6004406102e-05 
0.0001889145115 -3.0145367645e-08 0.00019280916974 1.1376860512e-07 -8.6787450701e-10 7.2247502081e-08 8.5725974081e-08 -8.5978227475e-11 4.3519166877e-08 
3.3530084922e-07 2.802326663e-08 3.3751224429e-07 1.4857062807e-07 4.087280101e-09 9.5199761465e-08 0.00018856947435 -2.7675570394e-08 0.00019265507161 
8.7457388716e-08 -1.16392663e-09 5.7940479196e-08 6.6591641381e-09 -1.0783595698e-10 1.6961491267e-08 0.00018906624672 1.679463751e-08 0.00019294879316 
0.00014705497412 -2.2502429287e-07 0.00014797139807 0.00013947772031 1.6647765282e-07 0.00013967728295 7.6494558474e-09 -7.8220726466e-11 1.5141430097e-08 
5.0291963552e-09 -2.3863936834e-11 1.3094899699e-08 6.6589108782e-09 -5.4333582682e-13 1.6963567715e-08 1.4114849778e-08 1.6867074821e-11 3.2313416065e-08 
1.7891170873e-08 -2.8758698918e-11 3.1508933625e-08 2.454655608e-05 -3.8756188195e-07 2.3297005683e-05 3.1547009857e-05 2.7126071713e-07 2.2524788119e-05 
4.3548199695e-05 -9.4735321895e-08 4.360787103e-05 1.5214209183e-05 -2.6519455357e-07 1.5176818065e-05 0.00017632486419 2.6538320641e-07 0.00017718861813 
3.8806294176e-08 -5.775612397e-10 -4.4307360428e-09 8.1352498856e-06 1.9128372645e-07 7.7872585322e-06 1.3158651481e-05 2.2899292238e-07 1.075405885e-05 
6.1078718077e-09 2.0708610559e-10 1.539000525e-08 5.9661105317e-09 1.6799610229e-11 1.1437097305e-08 3.3957742064e-08 9.4944160746e-09 7.6556438096e-08 
4.228141506e-08 1.8783268055e-09 6.5408212523e-08 9.8939944663e-05 2.7316341859e-07 9.6162504281e-05 2.147396743e-07 4.8526580563e-08 3.1721260879e-07 
0.00018909070937 1.7950555164e-08 0.0001929549727 2.0118852797e-08 5.5318297014e-10 2.6635124896e-08 1.7177144991e-05 3.9286157526e-06 1.3448335575e-05 
2.3474515509e-05 -1.4665083326e-08 2.3168527241e-05 9.7672902882e-06 1.771607691e-07 9.4800216958e-06 0.00013665716716 2.2982454655e-07 0.00013771428051 
0.00018880548544 7.0077690404e-09 0.00019280376038 0.00018625401507 9.3215636753e-08 0.00019012694142 8.2304676784e-05 6.7830784897e-07 8.1391320139e-05 
1.6832118332e-06 -4.6042658527e-08 1.582085653e-06 6.0446429404e-07 -2.6055123449e-09 6.9562655259e-07 0.00013920273156 1.1759617151e-07 0.00013894821598 
0.00016548776858 1.8984480837e-07 0.00016823503896 0.00016704639862 5.0059008896e-07 0.00016959837216 0.00013736466982 3.1941738075e-07 0.00013891060862 
0.00014498472895 -1.4997881133e-07 0.00014684247388 2.4184969846e-09 -4.2843301897e-10 -4.4310233557e-09 2.1918031131e-09 -2.0508204536e-10 -4.0347600483e-09 
4.3141187063e-09 -1.4027963694e-10 -5.3668212863e-09 3.4756902201e-08 2.9369749781e-09 7.9165969719e-08 0.0001771680585 -1.5358832249e-07 0.00018189665356 
4.0615605073e-07 1.6575375077e-07 5.2569193951e-07 0.00018600057218 -7.0638127094e-08 0.00018978964902 2.5491852606e-09 -5.0978459965e-11 -3.1997721567e-09 
3.9030827702e-09 -1.5551595331e-10 -9.1863562302e-10 3.0359599626e-08 8.8935827912e-11 5.074045349e-08 5.6173053545e-06 -2.48226727e-08 5.4709967941e-06 
0.00018658571865 -6.7110565354e-08 0.00018988078368 2.4275153015e-06 -3.1336311672e-09 2.8687840772e-06 0.0001891346091 -1.0010586394e-08 0.00019313078564 
9.3639804044e-06 -1.7271324515e-07 9.1940226196e-06 9.108180424e-08 8.7079860537e-09 6.70565365e-08 7.9288668677e-08 5.8860747781e-09 7.9765577673e-08 
7.3403869204e-08 4.2623449183e-09 5.7485980169e-08 1.0772734534e-07 5.7695912055e-09 7.6120810734e-08 8.8526591948e-05 -3.2080106767e-08 8.7894388323e-05 
6.7198692931e-09 8.0130253408e-11 1.8777389348e-08 0.00015646819736 1.0527160481e-06 0.00015820228647 0.00018641896363 2.4063993196e-07 0.0001890833793 
0.00011999605578 -2.7100117531e-07 0.00012150414101 1.0964245972e-08 5.7570628778e-10 2.882633028e-08 1.5263845866e-05 2.2237144153e-08 1.5408296683e-05 
0.00017979331493 7.1043502479e-07 0.00018256524325 0.00016898384174 1.7210627688e-07 0.00017160377302 2.3448297345e-07 3.2832594075e-08 3.2326655736e-07 
2.8444512762e-09 7.9973365073e-10 -9.1280556892e-09 0.00010115485982 3.8742491076e-06 0.00010288674924 5.226851632e-08 6.3510308066e-10 1.101982871e-07 
2.6089707614e-07 1.9304793825e-08 3.2713214223e-07 1.2613222304e-05 1.6131178936e-06 6.8148193801e-06 0.00018220488104 4.2853739691e-07 0.00018504179032 
1.7952565203e-06 8.6192556042e-08 1.6526836846e-06 5.0350346368e-06 -1.0637672535e-07 4.7643706843e-06 0.0001168719037 -2.488496655e-07 0.00011900061768 
8.311711027e-08 2.0674650171e-09 1.6412670898e-07 7.4077970994e-08 3.7898730494e-10 1.2611526487e-07 2.6176205291e-08 2.3093261068e-11 5.3462835388e-08 
3.9669880699e-08 7.3496968398e-11 7.4152799212e-08 5.4708523445e-08 -4.5275051244e-11 9.1886464862e-08 3.6626880265e-08 4.1887634642e-10 8.448286881e-08 
2.7309492807e-05 -4.5482919262e-08 2.6618890632e-05 1.8529842664e-05 -5.2281632919e-08 1.7803742149e-05 1.1504432491e-05 1.1836508478e-07 1.1176914281e-05 
0.00018913761616 5.8800761276e-09 0.00019299174647 6.3877276366e-07 3.6521819843e-08 6.0255291584e-07 1.8975482249e-07 1.1268199568e-08 1.5506139917e-07 
9.1282790057e-06 2.5888322324e-07 8.1597541256e-06 1.3974888091e-07 2.897105249e-09 2.2173607679e-07 1.5966565825e-05 -1.1214309493e-06 9.3253852971e-06 
1.4548680373e-07 2.8122332233e-08 2.862200074e-07 0.00011292909135 -8.5150936658e-07 0.00011305230708 8.6108682459e-08 -4.4312683056e-09 1.3426746672e-07 
3.6867473645e-06 -2.1340043056e-07 3.3653502598e-06 8.9403092181e-06 1.3030306918e-07 8.2631320466e-06 6.3728941673e-06 1.3166874046e-07 6.3527809555e-06 
8.89132412e-05 2.2200864531e-07 8.8880193722e-05 6.6912199754e-08 2.7455391586e-09 4.1506824264e-08 0.00018909729438 2.0623527924e-08 0.00019296061441 
1.883367778e-08 1.2894726954e-10 4.9108542413e-08 1.639854622e-08 7.3996471829e-11 3.4569078987e-08 2.8442660731e-08 2.7564128658e-09 8.2350588773e-08 
1.8359916481e-07 2.3036857613e-07 3.3472248366e-07 0.0001890971939 1.9196097004e-08 0.00019295682437 0.00018913552936 -8.1338014393e-09 0.00019298577874 
0.00018912802461 -7.0124235341e-09 0.0001929647922 0.00018915480512 -5.4196135397e-09 0.00019297062413 0.00018909335962 -3.8305952177e-09 0.00019294159318 
5.388319583e-08 9.1772904333e-10 1.2103325718e-07 9.7505638259e-09 -9.8940675047e-10 3.1003667855e-08 9.7689349026e-09 -1.6112929103e-10 1.1798207805e-08 
6.6800616407e-09 -1.1514541843e-10 2.5047762488e-08 3.1820998754e-09 -1.6661035599e-09 -8.7016854951e-09 1.0060090182e-05 -1.5874457775e-08 1.0196340337e-05 
0.00018910028053 3.3812538239e-09 0.00019295620497 0.00018909235254 1.395628999e-08 0.00019294753044 0.00018907878018 9.6746126062e-10 0.00019290483147 
4.9495862624e-09 -2.4190112165e-10 -6.4153016141e-09 9.1203775667e-09 -4.7818060559e-10 -5.0059902746e-09 3.5271031983e-06 1.5284502402e-07 3.3523551692e-06 
1.4207173011e-06 -2.4010208392e-09 1.4259569827e-06 7.2045545411e-05 -8.31362974e-08 7.170725851e-05 6.400159223e-09 2.1956032875e-10 2.199605037e-08 
8.6821112975e-09 -2.2528631215e-11 2.848576033e-08 2.8784035059e-08 5.7365690412e-11 7.9337727096e-08 4.4859490851e-09 6.4713079872e-10 -8.7804438997e-09 
6.6696913835e-06 8.3293601897e-08 6.28160737e-06 8.8572442489e-05 -1.1203925005e-07 8.8216801471e-05 4.5447160162e-08 1.4810274235e-09 7.2838443576e-08 
8.4696472398e-09 -2.2029431382e-10 5.7305681106e-09 4.0874821887e-09 -1.3008038103e-10 -5.9580815788e-09 0.00018911281382 1.1119540915e-08 0.0001929694513 
0.00018910709934 1.3638103598e-10 0.00019296281003 3.743129361e-09 -6.4979604004e-10 -5.6146519114e-09 0.00018912749493 6.3138351093e-08 0.00019295320582 
5.1810854919e-08 4.1412818343e-09 8.4487121673e-08 7.8187112117e-09 -2.7495283491e-10 1.5234888969e-09 1.2815777463e-05 -1.1326459679e-07 1.2252871771e-05 
6.4320375595e-08 -3.3760287313e-09 5.834739716e-08 0.00014326424314 4.4061042674e-08 0.00014337006498 2.9855192451e-06 -1.8960970668e-07 3.3504767025e-06 
7.3401589204e-07 -8.9356453034e-09 5.7843964207e-07 3.731921607e-07 4.2453005e-08 2.5062137981e-07 9.2979550905e-06 -6.8042764458e-08 8.8292661703e-06 
2.8497551895e-07 5.6615910356e-08 3.5634498539e-07 1.016150561e-07 1.0044233591e-08 1.2743219759e-07 1.5512824477e-06 -5.3913044965e-08 1.313575897e-06 
8.1488863735e-05 6.1502653538e-07 7.923107577e-05 3.8319305689e-05 3.7815218878e-07 3.7625246946e-05 1.4327684854e-07 -1.4873413255e-09 1.7820998579e-07 
1.7440707113e-07 1.273831512e-08 1.434528256e-07 0.00018893657918 -2.1034118041e-08 0.00019282398676 0.00018853597891 -1.2413431846e-08 0.00019253050777 
0.00010742783528 -3.3308503482e-07 0.00010901797 2.8646622564e-05 1.2206743184e-07 2.8363988999e-05 7.4365969398e-05 4.1924989885e-07 5.2271362598e-05 
6.540873954e-09 -3.0042483128e-10 1.5130488505e-08 3.0751071417e-09 -3.9724577259e-10 -3.721377918e-09 3.3213397394e-08 -3.435485162e-09 7.3153905557e-08 
7.8648604377e-09 -2.994763684e-10 2.7738431436e-08 8.6272863332e-09 3.293634106e-10 2.6590300052e-08 
Displacement%20Magnitude 1 13895 double
0 0 0 0 0.0001891611201 0 0.00018927538451 0 0 
0 0 0 0.00027019300523 0.00027014065664 0 0 0 0 
0 0 0 0 0 0 0 0 0 
0 0 0 0 0 0 0 0 0 
0 0 0 0 0 0 0 0 0 
0 0 0 0 0 0 0 0 0 
0 0 0 0 0 0 0 0 0 
0 0 0 0 0 2.2653888606e-08 6.0372406516e-08 1.1165782715e-07 1.9871827238e-07 
1.5524005283e-07 1.0046136754e-05 9.8585952444e-09 3.9812553445e-08 8.3839508849e-08 1.4283610446e-07 1.6572276599e-07 2.0343566435e-06 4.6937542114e-05 
0.00019178564865 0.00019258863054 0.00019121856867 0.00019539456016 0.00018960218072 0.00019027458631 0.00019186197324 0.00019126564212 0.00019461826073 
0.00019628756445 0.00019046084024 0.00018959055772 0.00019023155292 1.3754894932e-08 2.2384743682e-08 3.2638911167e-08 7.2092821583e-08 3.6693692113e-07 
1.1788977508e-06 7.754427087e-09 1.8444780016e-08 2.7197413342e-08 4.2575318251e-08 1.428863132e-07 1.2899233545e-07 3.296678297e-05 0 
0 0 0 0 0 0 0 0 0 
0 0 0 0 0 0 0 0 0 
0 0 0 0 0 0 0 4.0629033384e-08 1.154372355e-07 
2.4212855937e-07 5.0839110877e-07 1.8334862437e-06 8.4175775083e-05 1.9407497278e-08 7.3506014502e-08 1.7434907918e-07 3.4676401015e-07 7.4666846908e-07 
1.4847345444e-05 0.00018880117211 0 0 0 0 0 0 0 
0 0 0 0 0 0 1.0678850651e-08 2.7717813575e-08 4.1997169496e-08 
5.2726151051e-08 3.1091324574e-07 7.8180991089e-05 3.6388522821e-09 1.9375922949e-08 3.5283972901e-08 5.2434799541e-08 1.4094380715e-07 1.2214855928e-05 
0.00018549383353 0 0 0 0 0 0 0 0 
0 0 0 0 0 0 0 0 0 
0 0 0 0 0 0 0 0 0 
0 0 0 0 0 0 0 0 0 
0 0 0 0 0 0 0 0 0 
0 0 0 0 0 0 0 0 0 
0 0 0 0 0 0 0 0 0 
0 0 0 0 0 0 0 0 0 
0 0 0 0 0 0 0 0 8.9981738203e-05 
2.7000003743e-05 5.1475816647e-06 5.0725882077e-07 4.2933259071e-07 3.0852341207e-07 2.2342434406e-07 1.4971443199e-07 1.0062772665e-07 6.0928847091e-08 
3.3483253224e-08 1.647973925e-08 1.0989450704e-08 0.00014375544129 5.2485760237e-05 1.2268809475e-05 1.5136170968e-06 3.0008140245e-07 3.6037393527e-07 
2.6392208265e-07 1.8286269851e-07 1.2447862391e-07 7.8814555448e-08 4.6423521612e-08 2.3694108081e-08 1.2415632088e-08 7.3662285027e-09 0 
0 0 0 0 0 0 0 0 0 
0 0 0 0 0 0 0 0 0 
0 0 0 0 0 0 0 0 6.1277742818e-05 
5.8169795006e-06 1.8686719749e-06 2.3794308325e-07 2.9602091339e-07 2.3137174615e-07 1.8388698147e-07 1.3306931474e-07 8.8812614883e-08 5.3825151789e-08 
3.2884601479e-08 2.1597770191e-08 1.6103893329e-08 0.0001360227167 2.60455518e-05 2.969093463e-06 5.6877213163e-07 1.0100021952e-07 2.5716486194e-07 
2.0763192436e-07 1.554255468e-07 1.0855347962e-07 6.84117832e-08 4.2501085971e-08 2.6188101101e-08 1.8565331769e-08 1.0394377557e-08 0.0002362602266 
0.0002617265054 0.00026845748722 0.00026986687993 0.00027023294441 0.00027018947842 0.00020931220521 0.00024650199772 0.00026650505173 0.00026917787654 
0.00027023437208 0.00027021160868 0.00027018463707 0.00027018430863 0.00027016947983 0.00027018245255 0.00027018224842 0.00027015730159 0.00027014030249 
0.00027019360319 0.00027016977874 0.00027018513463 0.00027017582727 0.000270183447 0.00027015038605 0.00027013783133 0.0002323494254 0.00025876379996 
0.00026723912924 0.00026984300121 0.00027015465255 0.00027011716556 0.00020746792575 0.00024568427864 0.00026437719589 0.00026950240141 0.00027012309255 
0.00027013710288 0.00027012323561 0 0 0 0 0 0 0 
0 0 0 0 0 0 0 0 0 
0 0 0 0 0 0 0 0 0 
0 0 0 0 0 0 0 0 0 
0 0 0 0 0 0.00027015771898 0.00027027628254 0.00027009230463 0.00026733469665 
0.00025177202592 0.00021239289297 0.00014394112955 7.7157280512e-05 3.0831582096e-05 7.9078441269e-06 6.9568588784e-07 3.2380941685e-07 2.3304468504e-07 
0.00027017630996 0.00027023974545 0.00027027104046 0.00026938601638 0.00026197290725 0.00023544372169 0.00017906064935 0.00010796692344 5.1211184342e-05 
1.6886812796e-05 3.4370050688e-06 4.5786354484e-07 2.6821066801e-07 2.1505945487e-07 0.00027009389981 0.00027006965005 0.00027006790745 0.00026850261068 
0.00025191974281 0.00020967820292 0.00014344295876 7.4858846295e-05 3.0153622528e-05 7.4954967196e-06 1.7964076987e-06 2.0894152212e-07 1.7235351284e-07 
0.00027012287527 0.00027012707859 0.00027016771601 0.00026951613625 0.00026292420516 0.00023409386661 0.00017499523762 0.00010908809699 4.9726214872e-05 
1.6765323885e-05 4.1260193958e-06 7.9240811498e-07 1.985987521e-07 1.6883610334e-07 0 0 0 0 
0 0 0 0 0 0 0 0 0 
0 0 0 0 0 0 0 0 0 
0 0 0 0 0 0 0 0 0 
0 0 0 0 0 0 0 0 0 
0 0 0 0 0 0 0 0 0 
0 0 0 0 0 0 0 0 0 
0 0 0 0 0 0 0 0 0 
0 0 0 0 0 0 0 0 0 
0 0 0 0 0 0 0 0 0 
0 0 0 0 0 0 0 0 0 
0 0 0 0 0 0 0 0 0 
0 0 0 0 0 0 0 0 0 
0 0 0 0 0 0 0 0 0 
0 0 0 0 0 0 0 0 0 
0 0 0 0 0 0 0 0 0 
0 0 0 0 0 0 0 0 0 
0 0 0 0 0 0 0 0 0 
0 0 0 0 0 0 0 0 0 
0 0 0 0 0 0 0 0 0 
0 0 0 0 0 0 0 0 0 
0 0 0 0 0 0 0 0 0 
0 0 0 0 0 0 0 0 0 
0 0 0 0 0 0 0 0 0 
0 0 0 0 0 0 0 0 0 
0 1.4355093509e-07 5.7875377299e-08 5.5029831219e-07 4.2435388412e-08 5.8006918168e-08 4.4249197384e-08 1.3533945955e-07 5.9287435298e-08 
5.6856381432e-07 3.3033654368e-08 2.9747423357e-06 2.3559949654e-08 1.7429212528e-07 8.7843838145e-08 2.6507549897e-08 3.498793698e-08 6.6334515889e-07 
2.7087147157e-08 2.3445529585e-07 8.5210601491e-07 7.8961556499e-08 9.1219489836e-08 2.0390058309e-07 8.71074593e-08 1.2525708487e-07 1.227451146e-07 
6.909820481e-08 3.2286782119e-07 8.9270300253e-08 1.870276272e-08 4.6436549814e-08 1.4346782117e-07 5.6932759401e-06 5.3119652209e-08 1.7015397546e-07 
5.4730733577e-08 2.3723465479e-07 2.4682702296e-08 1.6882347842e-08 5.0966054764e-08 1.8051486547e-05 1.7070896235e-08 7.0940497997e-07 1.5067200677e-07 
3.107900366e-07 1.6299412746e-08 1.2724406807e-08 1.5464468109e-05 2.263476225e-07 6.7677355383e-05 6.6937775379e-05 1.2513313867e-05 7.2222268327e-09 
7.108371683e-09 1.9401831067e-08 5.0132400277e-05 1.241685264e-06 5.1479074769e-05 6.2843314099e-09 7.1418617302e-09 1.2945063742e-08 7.8802235932e-09 
7.2447472295e-09 1.6338752931e-08 1.2611229373e-08 1.1558681372e-08 2.1511524511e-08 9.5358903368e-09 9.142844886e-09 2.2597636201e-08 1.385313051e-08 
1.4444893162e-08 2.3615921055e-08 8.1297999784e-09 9.3562394854e-09 2.1974397879e-08 1.4830214581e-08 2.2639798931e-08 1.826944556e-08 1.9171289676e-08 
3.2741502004e-08 2.6691619166e-08 2.9633314353e-08 5.0424418631e-08 3.8002616306e-08 3.8713061007e-08 1.2824281907e-07 8.0351749647e-08 6.1107263036e-08 
2.2113219083e-07 2.6980086924e-07 1.0693624077e-07 3.6653586584e-07 7.4879086149e-05 7.4254335356e-05 2.1861927191e-05 5.139721747e-05 5.6846817461e-05 
4.7188554751e-06 5.8218070836e-05 7.6046080542e-05 2.1375136934e-06 5.7625390005e-05 4.7080586778e-05 2.6275088325e-06 4.9439679605e-05 4.5874814379e-05 
2.1512918537e-07 2.3666333196e-07 3.5639095861e-08 5.5764140875e-08 3.1786957614e-08 7.3691744611e-08 1.0030460484e-07 6.7738019596e-08 1.2489458955e-07 
1.7492222911e-07 1.1111366913e-07 1.9658641774e-07 3.300504949e-07 1.4674376155e-07 2.8384506474e-07 7.919202273e-07 4.0700449801e-07 1.3335706517e-06 
1.4274608665e-07 1.0785282363e-07 1.1831836019e-07 8.0596792023e-08 1.0083962505e-07 1.6283706157e-07 1.7606869752e-07 1.9440125225e-07 2.331907733e-07 
7.9504630173e-08 1.1264969922e-07 9.3829350345e-08 1.218233248e-07 2.6758699383e-07 1.4759197327e-07 1.0201864163e-07 2.4322735407e-08 3.5354309225e-08 
4.4495225118e-08 5.4285755843e-08 4.1576244575e-08 8.7403303586e-08 1.0139310383e-07 7.2538002398e-08 3.8939624461e-08 5.6476960784e-08 4.1100447134e-08 
7.5718751128e-08 7.0992750571e-08 2.6247110618e-06 7.9233243361e-06 1.1414202179e-06 2.2248140266e-06 5.9138592732e-07 4.1313163344e-07 3.8100091637e-07 
9.5625019917e-07 1.7844988117e-07 2.1283333628e-07 2.9650596407e-07 2.632029104e-07 1.6953390219e-07 2.4354094049e-08 3.2585819308e-08 3.1852285325e-08 
2.940868312e-08 2.0957252429e-08 4.3770912873e-08 4.8898070033e-08 4.0063843125e-08 5.5105320412e-08 4.5393646381e-08 3.6341571061e-08 6.055314365e-08 
6.893915799e-08 8.3995716246e-08 1.7433344871e-07 7.4449712886e-08 1.042526492e-07 3.5446208852e-08 1.925327519e-07 1.0483194783e-07 1.7303082757e-07 
8.1638445535e-08 6.9979228285e-08 5.8031076531e-08 1.1438661228e-07 1.8512224141e-07 3.0730642787e-08 3.5438128102e-08 4.8786439607e-08 5.7366860405e-08 
3.5191674894e-08 6.496665686e-08 1.2649625776e-07 1.0782947637e-07 1.3924043777e-07 1.4627031809e-07 1.5143987986e-07 1.5185954791e-07 5.0917178141e-08 
4.674021678e-08 5.9127631708e-08 7.1874804691e-08 6.6836906538e-08 7.3986962143e-08 4.3045201212e-07 5.3804871387e-07 1.8795305447e-06 1.0705040955e-06 
2.5336963883e-07 2.5603235665e-07 2.4085801186e-08 5.997600534e-06 1.7799121589e-08 1.5488102828e-07 9.2429904801e-08 3.2032963442e-08 6.8692373043e-08 
7.342770142e-08 2.9171336792e-07 4.41940352e-08 4.8752433508e-08 8.9429387394e-08 1.6758195816e-07 1.4565477223e-08 3.8095697436e-08 6.1162385142e-08 
9.6750998932e-07 2.8009303879e-08 2.1830760683e-08 1.4181591679e-07 9.7435287668e-08 4.613102188e-08 3.4835198664e-08 2.3720973496e-07 2.8486361487e-07 
5.6009809353e-08 8.4656771786e-08 5.7050749186e-08 1.7837475234e-07 5.807430012e-08 5.8332909704e-08 1.2997649147e-07 9.4297185907e-08 2.5646764166e-08 
2.5086185988e-08 2.4908378693e-07 1.4249300862e-07 3.8519156544e-08 6.1001406802e-08 8.2095920089e-08 2.4173487402e-07 9.9086120934e-08 9.8035742219e-09 
1.4171641755e-08 5.5124937755e-08 3.9024639337e-08 2.2139341962e-08 4.1810643008e-07 2.3512753341e-07 5.072256059e-09 3.1251396474e-08 1.6639206511e-08 
6.4022698519e-06 1.4318315482e-08 9.7921901702e-09 3.6054243695e-08 1.777593793e-09 2.1311112262e-09 3.5269088072e-09 3.3079621367e-05 6.8228712157e-05 
8.040847774e-06 6.20797166e-09 6.961512529e-09 1.9026785153e-08 3.0086708227e-09 4.9398794055e-09 6.9507659004e-09 9.1123577753e-09 1.3274660466e-08 
1.5179929099e-08 1.2594675932e-08 1.5971080058e-08 2.4232542716e-08 2.6649401819e-08 2.9049264108e-08 3.6055054044e-08 2.1704950197e-08 1.828711345e-08 
4.4091963995e-08 3.5008702354e-08 8.4451477846e-09 5.7126168753e-09 9.4007811856e-09 1.7044158416e-08 1.4089573478e-08 2.0675357374e-08 1.3417501992e-08 
1.280165121e-08 2.7954813134e-08 1.6797380047e-08 1.8598014169e-08 3.0447440297e-08 8.6213390786e-09 1.1129124607e-08 2.8563292512e-08 1.8858673171e-08 
7.0200450005e-08 1.1080103778e-07 6.2002179608e-08 1.4703158476e-07 1.9351115536e-07 1.2452526343e-07 2.6225895594e-07 3.1815292179e-07 1.910849709e-07 
3.0406343566e-07 2.8466158264e-07 2.5126191028e-07 6.4358833452e-07 2.0160418812e-05 2.8841179649e-07 2.8822416896e-06 5.721866068e-08 3.6622812216e-08 
3.3945566343e-08 1.0389253209e-07 7.726275061e-08 7.5000866982e-08 1.6067283132e-07 1.2725825931e-07 1.1908199463e-07 1.7429831752e-07 1.6419112039e-07 
1.6936706987e-07 1.1199322634e-06 2.8248659319e-07 2.4305030771e-07 1.2009349582e-06 7.0737109279e-08 5.8127028326e-08 7.4738011501e-08 6.6761798728e-08 
5.7198523173e-08 9.4400042612e-08 7.0709090873e-08 1.0474707281e-07 1.1863319043e-07 7.7969826517e-08 6.0111758252e-08 1.0415953887e-07 6.5106128031e-08 
1.2798753323e-07 1.5766937387e-07 1.547433696e-07 2.268826262e-08 2.0441133308e-08 1.2199955436e-08 1.5209853601e-08 2.3608899718e-08 3.1866661679e-08 
4.3168908881e-08 4.4812823996e-08 2.7060448124e-08 3.5280467026e-08 3.038659131e-08 4.4744173634e-08 4.7399067767e-08 5.3235069e-08 4.6422052614e-08 
6.3079035701e-08 4.3603575603e-08 2.963240261e-08 8.4347333073e-08 1.1942770229e-07 9.7595295674e-08 5.048947925e-08 6.546472466e-08 4.8199827452e-08 
8.141308596e-08 7.348206122e-08 7.2777344324e-08 8.8755555559e-08 7.7524453768e-08 4.9250624184e-08 6.0708118178e-08 9.7064875918e-08 8.0414670899e-08 
1.1439208911e-07 6.0807528051e-08 5.5629522734e-08 6.2309912731e-08 6.5683947344e-08 6.0176158628e-08 6.1769421795e-07 4.7833077444e-07 1.318339618e-07 
2.7459911062e-07 8.9197157605e-07 2.8208125294e-07 2.6705630498e-07 2.4461438819e-07 1.4008076099e-07 2.072486758e-08 1.7475620242e-07 2.2667750383e-07 
2.1673700251e-07 3.2931483115e-08 3.6309571805e-08 4.0933309804e-08 4.6163330007e-08 5.2292248176e-08 4.907466016e-08 3.8337705041e-08 5.4998053802e-08 
3.7169884511e-08 4.3926085883e-08 5.4963793384e-08 6.5157136053e-08 1.3547484816e-07 1.6845742519e-07 8.6892951023e-08 1.5356338064e-07 3.4200292752e-08 
5.1005201317e-08 1.3156477585e-07 1.5152648022e-07 1.585502551e-07 1.9593741326e-07 2.0649926377e-07 1.9060632808e-07 9.0898023862e-09 2.6459974098e-08 
4.6848266192e-08 1.034471247e-06 5.2294003447e-08 2.0569133989e-08 2.4765053198e-08 5.1563589688e-08 9.6046851641e-08 2.5039586361e-08 3.3817166377e-08 
4.8216447421e-08 7.2247549802e-08 8.4553404706e-09 1.1039533088e-08 3.2915049372e-08 2.0281861457e-07 1.6306514449e-08 1.466337146e-08 2.5856288903e-08 
5.5775866004e-08 3.0587305128e-08 1.6836203194e-08 7.7053916829e-08 7.5631469201e-08 4.0681306892e-08 3.8476720829e-08 6.28198022e-08 5.8883612033e-08 
3.3490876772e-08 4.9996505644e-08 4.2842061516e-08 7.0053109836e-08 1.279511265e-08 1.8077429131e-08 6.7338050223e-08 4.6134989913e-08 2.8610998872e-08 
2.7610319298e-08 6.4296665609e-08 6.6221937743e-08 6.9259213143e-09 7.1278052187e-09 1.4779880886e-08 3.7619424896e-08 9.5530309924e-09 1.9066719861e-07 
2.2704840216e-08 1.6716922035e-07 2.3937275707e-09 5.6075523549e-09 1.5366723123e-08 3.2017769354e-07 1.3382772797e-08 4.218566723e-09 8.055636918e-09 
7.6799686233e-10 1.5024065195e-09 1.1682070495e-09 1.116984199e-06 5.4437018033e-05 2.3621738994e-05 2.4557223407e-09 3.9989220405e-09 8.7066334095e-09 
2.5906744072e-09 4.0056761921e-09 4.6506510692e-09 6.8495528569e-09 8.5212924066e-09 1.0704914238e-08 6.5664322203e-09 6.966061635e-09 1.4451201106e-08 
9.6320962532e-09 8.5906766446e-09 1.5319924562e-08 5.5772451631e-09 3.5318210746e-09 1.3202203437e-08 6.2674944046e-09 1.334101177e-08 1.8154098082e-08 
9.7529329867e-09 2.1395613637e-08 2.8165202079e-08 1.9433749773e-08 3.5813436904e-08 5.3775918055e-08 3.4173514913e-08 7.3043205385e-08 1.8281074822e-07 
6.0460091643e-08 1.2797605729e-07 9.6839423767e-08 1.1757172975e-07 3.5479774315e-07 3.3419487569e-08 2.3635217342e-08 2.6732609827e-08 5.1622484852e-08 
4.2622822291e-08 4.6891627032e-08 6.6949733169e-08 5.4976773342e-08 6.2326111352e-08 1.4542301794e-07 8.6467194128e-08 7.2460902898e-08 1.8349733134e-05 
2.7687634057e-07 1.0269407992e-07 1.5809578912e-07 3.8609812498e-09 2.1271082064e-09 4.2930954522e-09 9.8754380793e-09 7.1207170434e-09 1.116408766e-08 
1.0542948635e-08 8.6790412203e-09 1.7963807451e-08 1.7236175197e-08 1.6871049672e-08 2.449133353e-08 1.0696897661e-08 1.2329912202e-08 2.7235134657e-08 
1.9892760995e-08 4.2995888827e-08 3.727099035e-08 4.746942853e-08 4.6014774205e-08 5.297348373e-08 3.6790616626e-08 4.5598372448e-08 4.8827984286e-08 
4.1056660389e-08 5.7096515325e-08 5.8535154281e-08 6.7289752584e-08 6.1306030662e-08 5.0717097995e-08 5.5678474747e-08 6.4892957857e-08 7.9686996209e-09 
1.3882579908e-08 1.402982863e-08 1.3484498581e-08 8.1491760333e-09 2.2605970464e-08 2.4703600224e-08 1.9214965396e-08 2.75292432e-08 2.4092788258e-08 
1.8280634961e-08 3.0652677616e-08 3.5096588936e-08 1.8002199727e-08 1.2261536764e-08 1.7534085975e-08 1.0499590152e-08 1.6706335171e-08 3.3549517672e-08 
3.5064165204e-08 2.4710865142e-08 2.2367615927e-08 2.6711278586e-08 2.1383931101e-08 3.2619996839e-08 3.3088544767e-08 3.5825650686e-08 4.6350749366e-08 
4.2889933241e-08 3.7837689476e-08 2.8316887921e-08 6.1772084205e-08 5.8514043462e-08 5.4893924821e-08 5.2770939294e-08 4.2755274875e-08 4.2018808732e-08 
5.9865705848e-08 6.4685332197e-08 1.2426436863e-07 1.8751192942e-07 1.418359704e-07 2.3276739518e-07 1.3173019329e-07 7.1477600507e-08 8.1779005808e-08 
9.2210359611e-08 7.6797961267e-08 7.5803396619e-08 8.082718814e-08 7.0764710361e-08 6.0875591877e-08 2.938335308e-08 2.027553373e-08 1.9197770152e-08 
2.1714013286e-08 2.6782173782e-08 3.1918994557e-08 2.662318718e-08 2.4779718058e-08 3.1380609034e-08 4.2373362169e-08 3.3626579726e-08 3.8603623138e-08 
4.5163615714e-08 3.6347051216e-08 4.6639904244e-08 5.7978686596e-08 5.5511959785e-08 5.3930986195e-08 7.1519208344e-08 6.6422838018e-08 6.8629508995e-08 
7.2155480266e-08 7.4301355233e-08 6.9002079109e-08 4.8814908022e-09 7.4056584011e-09 2.4157500134e-08 2.2496771176e-07 0 0 
0 0 0 0 0 0 0 0 0 
0 0 0 0 0 0 0 0 0 
0 0 0 0 0 0 0 0 0 
0 0 0 0 0 0 0 0 0 
0 0 0 0 0 0 0 0 0 
0 0 0 0 0 0 0 0 0 
0 0 0 0 0 0 0 0 0 
0 0 0 0 0 0 0 0 0 
0 0 0 0 0 0 0 0 0 
0 0 0 0 0 0 0 0 0 
0 0 0 0 0 0 0 0 0 
0 0 0 0 0 0 0 0 0 
0 0 0 0 0 0 0 0 0 
0 0 0 0 0 0 0 0 0 
0 0 0 0 0 0 0 0 0 
0 0 0 0 0 0 0 0 0 
0 0 0 0 0 0 0 0 0 
0 0 0 0 0 0 0 0 0 
0 0 0 0 0 0 0 0 0 
0 0 0 0 0 0 0 0 0 
0 0 0 0 0 0 0 0 0 
0 0 0 0 0 0 0 0 0 
0 0 0 0 0 0 0 0 0 
0 0 0 0 0 0 0 0 0 
0 0 0 2.362134643e-07 1.0583579765e-07 4.6327872459e-08 1.3912158966e-06 2.8932614075e-07 3.7250022515e-07 
5.2677594867e-08 3.3273752009e-06 9.184875006e-08 5.8743897965e-08 2.271801255e-08 1.6028998867e-05 2.1585114804e-07 3.9449362489e-08 1.9537912421e-07 
6.567059245e-06 4.6354265991e-08 8.8808707033e-07 2.6862511518e-08 9.3524454609e-08 9.0841636655e-07 2.175175819e-07 1.0545262757e-07 6.0171427352e-07 
1.8785361769e-07 1.0924119022e-07 5.3497238113e-07 9.903956363e-08 4.6869123315e-07 3.945732618e-07 1.050625738e-05 2.2215846772e-08 6.0675461746e-08 
2.1464337991e-07 5.3960808665e-08 1.3436178176e-06 1.5521154275e-07 1.8723047133e-05 2.69108682e-08 9.9699114825e-08 2.744292597e-08 1.5443322714e-08 
3.2573670925e-06 4.2479678881e-07 1.7649824629e-07 3.0001445711e-08 2.608393938e-05 9.1879640238e-09 4.7638010602e-07 1.5326975655e-08 1.4592540739e-08 
3.4183095899e-08 2.6738235785e-09 9.5416487143e-09 4.7726036854e-09 0.00021313610844 0.00019165795596 0.00010045888996 0.00017961766846 0.00018014868829 
9.1711465245e-05 0.00021478411517 0.00018914746461 4.2333294682e-05 0.00020002930284 0.00022159445877 1.8393397349e-05 0.0002169985571 0.0001952722682 
8.7849433925e-06 0.00017314394227 0.000163021589 4.2096196426e-06 0.00017360809771 0.00017812447466 7.0335268912e-07 2.6341424939e-07 1.8063298421e-08 
2.6740952962e-08 1.829848469e-08 3.4511967997e-08 4.2572691072e-08 3.6463758713e-08 4.882522058e-08 5.1408705231e-08 5.3706121629e-08 7.849064682e-08 
1.2308565272e-07 7.6944310543e-08 9.1279229923e-07 5.2612626195e-05 1.2450853986e-07 5.8260600442e-07 1.3464509345e-08 1.3459398681e-08 2.7886476936e-08 
1.7796836387e-08 1.7970834879e-08 3.2840217284e-08 1.1848757176e-08 1.1293600309e-08 3.0230484715e-08 1.4220299499e-08 1.2638109709e-08 2.4567602805e-08 
8.4458466947e-09 6.6776425212e-09 2.0726062084e-08 1.2434935974e-08 1.0648313855e-07 6.655507465e-08 5.9087039872e-08 2.2064982465e-07 1.4982330932e-07 
1.4477908276e-07 4.3592333968e-07 3.0144712526e-07 2.8548361169e-07 1.3253384459e-06 6.8658189983e-07 5.9962116061e-07 5.6785445356e-05 2.3196795124e-06 
1.6426035543e-06 1.4440813241e-05 1.6251683473e-07 1.5502798927e-07 2.2785390482e-07 3.4833816865e-07 3.49900119e-07 1.0782045054e-07 1.6033828691e-07 
1.4684449086e-07 1.0095996914e-07 5.5812264137e-07 3.9271319693e-07 4.4542186397e-07 3.0190560511e-07 1.3427102295e-07 1.9510433856e-07 3.1192988516e-07 
6.0417767681e-08 4.094450264e-08 8.1537719536e-08 7.7794554125e-08 1.044821396e-07 1.0824806055e-07 7.0302749634e-08 6.7188944562e-08 2.0457613005e-07 
1.5455592327e-07 1.456390937e-07 1.5725090813e-07 2.1696986261e-07 3.6008814589e-08 2.5316802593e-08 3.3558842788e-08 1.9353285689e-08 2.9861754317e-08 
6.8926335278e-08 6.8686219066e-08 4.7854903406e-08 3.9349518366e-08 5.0127435832e-08 3.7364463658e-08 6.8419855001e-08 7.5467321424e-08 1.4824768436e-05 
8.5773378445e-06 5.7115612418e-06 2.5255737025e-06 9.1164118653e-06 2.9050280729e-06 1.3841680897e-06 3.1678850672e-06 8.7951513148e-07 7.0079663858e-07 
1.1287934913e-06 9.9076112585e-07 8.9765045685e-07 4.0666085391e-07 3.2770655215e-07 2.6432507514e-07 1.7527471798e-07 1.6353989518e-07 1.2150086358e-07 
2.1567345064e-07 1.7670591669e-07 4.1672250819e-07 7.9145635053e-07 4.8743202133e-07 2.5970527421e-07 1.7744755155e-07 3.9090509567e-07 2.7461103239e-07 
2.8556979074e-07 4.443884855e-07 5.9299911549e-07 2.916141321e-07 7.7765546053e-08 4.6744691809e-08 3.6052511539e-08 3.8485706883e-08 5.3693711751e-08 
7.6615342236e-08 6.6458060026e-06 5.7010793124e-06 2.6192378887e-06 1.1787464394e-06 1.9090939482e-06 1.0203858671e-06 9.6791201135e-08 6.5463027332e-08 
7.3407837868e-08 9.7513358064e-08 1.1825325468e-07 1.3267444024e-07 4.3072458197e-08 1.5709150106e-08 2.0944407348e-05 2.7521677974e-07 0 
0 0 0 0 0 0 0 0 0 
0 0 0 0 0 0 0 0 0 
0 0 0 0 0 0 0 0 0 
0 0 0 0 0 0 0 0 0 
0 0 0 0 0 0 0 0 0 
0 0 0 0 0 0 0 0 0 
0 0 0 0 0 0 0 0 0 
0 0 0 0 0 0 0 0 0 
0 0 0 0 0 0 0 0 0 
0 0 0 0 0 0 0 0 0 
0 0 0 0 0 0 0 0 0 
0 0 0 0 0 0 0 0 0 
0 0 0 0 0 0 0 0 0 
0 0 0 0 0 0 0 0 0 
0 0 0 0 0 0 0 0 0 
0 0 0 0 0 0 0 0 0 
0 0 0 0 0 0 0 0 0 
0 0 0 0 0 0 0 0 0 
0 0 0 0 0 0 0 0 0 
0 0 0 0 0 0 0 0 0 
0 0 0 0 0 0 0 0 0 
0 0 0 0 0 0 0 0 0 
0 0 0 0 0 0 0 0 0 
0 0 0 0 0 0 0 0 0 
0 0 0 0 9.8339495291e-08 1.389222627e-08 7.1517627965e-08 2.5884440499e-08 6.0785832461e-08 
1.902581551e-07 5.876847918e-08 6.6743163759e-09 6.9591121947e-09 5.4796205102e-08 5.3614439277e-07 3.115150837e-08 1.6068986344e-07 1.2945879836e-08 
1.8366090695e-08 1.001792674e-07 7.1738671418e-09 5.3373858379e-08 1.3559380051e-07 1.1043240194e-07 5.6454758463e-08 2.3615809402e-08 1.4420406339e-08 
1.1466999615e-07 1.4549965498e-08 5.163736668e-08 2.7132887599e-07 2.2668270783e-08 2.7515289096e-09 9.2529341496e-09 6.2074794776e-09 8.317518926e-09 
3.7894937139e-08 1.5792612577e-06 1.3374425713e-07 7.2965884227e-08 3.9767471465e-09 7.4927764089e-09 1.5545612331e-07 7.2186043004e-08 4.2732235537e-08 
9.4487960816e-08 6.7098427567e-08 1.4462810772e-07 3.4618946532e-08 2.7022063034e-07 9.5989241375e-09 4.1376135576e-08 6.3873874756e-07 7.0952929573e-09 
2.9376248773e-08 3.6785165723e-08 6.7218756815e-08 2.0414487369e-08 1.1088994447e-08 1.0689362834e-07 1.3278632967e-08 2.1934526083e-07 7.9919593736e-09 
2.1331611672e-08 7.0241921348e-09 4.0811607367e-08 6.4174210673e-08 4.0690121762e-09 7.2015758764e-09 1.5010617789e-08 1.2839266629e-07 8.1313248618e-09 
9.7657711245e-08 3.0294820924e-08 3.3884492864e-07 4.3766235092e-09 8.4914499373e-08 4.7109509152e-08 6.5951501471e-08 1.1492602079e-07 6.9217994579e-09 
5.5389185365e-08 1.8847213213e-07 3.6426062656e-08 4.8724147359e-08 8.562828243e-07 4.7113285038e-08 7.9435003529e-09 1.5988555429e-08 1.4404588518e-07 
1.9822944501e-07 3.8237217025e-08 7.6295189802e-09 1.9412343321e-09 2.870620672e-08 8.6185856821e-06 7.9271786215e-09 1.6241556807e-07 8.6380600379e-10 
8.3453059127e-09 1.7051406272e-08 7.7181605462e-08 7.7865349539e-08 2.1073582396e-08 1.9926673928e-05 4.2034659508e-08 9.5275165164e-08 5.9414195098e-08 
6.709947711e-08 3.8926736329e-09 1.1840887097e-07 2.4998258768e-08 1.2911550767e-05 7.9297573803e-05 5.5761488752e-05 8.8672244302e-09 2.1058515985e-08 
1.2040846493e-08 5.3197873426e-09 5.0655911611e-09 9.85291438e-09 4.1810242481e-10 3.3226408785e-10 6.8939412762e-10 3.6018802487e-08 5.3561685594e-08 
3.3984960178e-08 6.7621346926e-08 9.1604320682e-08 6.0146254654e-08 1.2445738704e-07 1.9461246623e-07 9.5611463389e-08 2.7865508987e-07 4.4969203486e-07 
1.4911187254e-07 1.0188969086e-06 3.2228505304e-06 3.6132539293e-07 2.5939410623e-06 9.6309980186e-10 6.4475095032e-10 1.3260051529e-09 2.3431801901e-09 
1.7078416761e-09 2.8726938183e-09 2.7933704767e-09 2.1638510118e-09 4.2069092506e-09 5.3077795955e-09 4.58156658e-09 5.9586214186e-09 5.0989507081e-09 
4.4616628128e-09 7.6853201521e-09 8.0781342391e-09 1.653844655e-08 1.4179526053e-08 2.4811889288e-08 2.4488138804e-08 2.3632242983e-08 3.5263608717e-08 
1.5837244268e-08 1.7163274222e-08 3.6645802307e-08 1.6974478608e-08 2.0330853816e-08 3.3447125889e-08 9.417179115e-09 1.2739777576e-08 2.8571353278e-08 
4.3769454684e-09 6.2608378525e-09 1.7433799786e-08 3.6540611692e-09 3.0451487917e-09 9.8345074426e-09 4.5145731167e-09 4.0616366164e-09 7.6914131822e-09 
4.2853674031e-09 4.4197828687e-09 8.1525479071e-09 3.5974763805e-09 4.0137070197e-09 7.5728027694e-09 2.3149312656e-09 3.0872889774e-09 5.2621063317e-09 
8.1240761663e-09 6.1168787727e-09 1.5521174834e-09 1.4260839563e-09 3.5230679546e-09 1.6561483989e-09 2.8924690233e-05 1.2828070527e-05 1.375045901e-05 
3.6644036901e-06 6.463930572e-07 2.7978376056e-06 6.1025595498e-07 3.2378043379e-07 2.9068245163e-07 2.6684320551e-07 3.2929534218e-07 2.3610709399e-07 
3.0652170797e-07 2.8679661364e-07 2.8075287656e-07 2.5659375521e-07 2.1840604679e-07 2.4879405501e-07 1.8791274331e-07 1.5335701235e-07 1.8964840041e-07 
1.2099343272e-07 9.6407734568e-08 1.2655657013e-07 6.9087324649e-08 5.2474115917e-08 6.7161026824e-08 3.6964811053e-08 2.6361404768e-08 3.2292205771e-08 
1.4599523583e-08 1.0124154777e-08 1.7116352629e-08 1.2861668816e-08 6.0864000276e-09 8.7742145529e-09 9.7697012044e-09 8.0195849946e-09 9.4686844235e-09 
1.2011374139e-07 1.068767473e-07 1.3002539176e-07 1.1865735516e-07 9.7542079465e-08 8.13710553e-08 7.2629035462e-08 8.7944405904e-08 8.002747441e-08 
9.5141545727e-08 1.8137653465e-08 1.8305385603e-08 1.4725894544e-08 1.4705222458e-08 2.0446630835e-08 1.1298018959e-08 8.8382545012e-09 9.6247126839e-09 
1.2000549795e-08 1.0795023965e-08 7.3350774465e-09 1.0879675442e-08 8.9073333756e-08 8.7891487672e-08 1.1807768795e-07 8.0424833302e-08 6.4702926598e-08 
7.6520365682e-08 8.6279289705e-08 6.8354130218e-08 6.8031401835e-08 5.9212515687e-08 5.8169053649e-08 6.6145456771e-08 1.4319135434e-08 6.4546817208e-08 
1.9219657709e-08 1.7913455729e-08 2.315120672e-08 2.1474626546e-08 1.5664179371e-08 3.3244940004e-08 3.1118678225e-08 4.0516019096e-08 3.3519873492e-08 
2.6209795285e-08 2.6935328761e-08 2.0336872842e-08 7.7775592865e-08 6.7925069943e-08 5.3745173364e-08 8.664686131e-08 1.0585724246e-07 4.3225791568e-08 
3.8446916387e-08 3.4977985627e-08 5.1357806137e-08 6.8493760823e-08 5.7557176098e-08 9.7717659122e-08 2.3402300143e-07 2.2454617564e-07 1.9997066944e-07 
2.3295140226e-07 1.6476410595e-07 1.9167088506e-07 1.5310482404e-07 1.4255832557e-07 1.6625619805e-07 1.6975207205e-07 1.4844175982e-07 1.7015780984e-07 
2.311424902e-07 4.0320008065e-08 4.6383914099e-08 3.0178365439e-08 4.8922545411e-08 6.739268446e-08 7.157065828e-08 7.8730035786e-08 6.4647407977e-08 
5.7098487364e-08 6.3013488084e-08 7.8017995367e-08 5.1916416326e-08 4.546787123e-08 4.674406541e-09 5.7201079203e-09 2.3845157125e-09 4.2198420926e-09 
7.8363641656e-09 8.9049931325e-09 1.0017770557e-08 5.3027344528e-09 5.5263284903e-09 6.8424390647e-09 8.4374630405e-09 1.0527464487e-08 8.2850515918e-09 
8.4939681643e-09 6.4518026006e-09 8.98300517e-09 8.9620056073e-09 3.2236439866e-09 3.8439303644e-09 2.6955574691e-09 8.6360833287e-09 7.2137310538e-09 
8.130467308e-09 4.9753386916e-09 4.923655439e-09 4.6968123066e-08 5.0960154207e-08 4.2117827722e-08 3.4024583222e-08 4.3758545834e-08 5.9804705655e-08 
5.9134287065e-08 6.9953824143e-08 4.9688855223e-08 5.5048332706e-08 5.9780518894e-08 6.0917588741e-08 6.6109211175e-08 1.6268783587e-06 7.8543301919e-07 
1.3463385829e-07 9.4716074177e-07 5.6814146169e-06 2.4408278269e-07 1.3325339171e-07 2.3729413601e-07 2.2638470392e-07 1.8331781865e-07 1.9100603773e-08 
1.583546265e-07 5.1874150701e-08 3.764027559e-08 5.3586378301e-08 4.7554498354e-08 2.7825864939e-08 4.7876151494e-08 6.6975801504e-08 3.4548755275e-08 
2.168988393e-08 2.4512726629e-08 1.7429498608e-08 1.5798915392e-08 1.2410809257e-07 1.366423459e-07 1.050969794e-07 1.3932461802e-07 1.5538831656e-07 
1.7892564709e-07 1.872379004e-07 2.1160230101e-07 1.6289226113e-07 1.3890893145e-07 1.3957492963e-08 1.6066227464e-08 1.1247771382e-08 1.1132151669e-08 
1.0634016367e-08 1.2341471255e-08 1.0314603575e-08 1.4418633114e-08 1.7747198343e-08 1.2936513444e-08 3.1671265718e-08 2.8571490538e-08 4.7972119721e-08 
4.6224691032e-08 2.8801374977e-08 9.8853052569e-09 1.6455429156e-08 1.0316620367e-08 2.3706739848e-08 2.1901399905e-08 1.7839260795e-08 1.0724990957e-08 
1.482565524e-07 1.2049386615e-07 9.2038953082e-08 8.4399189848e-08 7.93380201e-08 6.4346037933e-08 7.2696432875e-08 5.6989276199e-09 6.0176969499e-09 
6.9709298291e-09 7.3326657774e-09 7.9983659751e-09 8.0895559271e-09 6.2996162855e-08 6.0156476057e-08 5.4482736487e-08 4.5075586033e-08 4.3152906503e-08 
4.846095065e-08 1.2440361605e-07 5.1712471716e-08 1.6638774322e-07 1.7507260619e-07 1.8342969709e-07 2.7642846632e-07 8.8170130571e-08 9.7046338945e-08 
8.0536235735e-08 1.03867799e-07 1.2836399374e-07 1.26746231e-07 1.1089488622e-07 9.622421692e-08 1.2462793834e-07 5.0509326773e-08 4.5510812139e-08 
6.7028609362e-08 5.8896455206e-08 7.3740158296e-08 5.2307492317e-08 8.6867478302e-08 4.1853651915e-08 2.6296560445e-08 3.3337154765e-08 2.265717377e-08 
3.0165015676e-08 1.079889858e-08 1.1050205591e-08 1.2375630263e-08 1.592553317e-08 1.9115073061e-08 1.0527031705e-07 1.3687325376e-07 9.4686664825e-08 
8.5696976152e-08 1.170253196e-07 1.168176122e-08 7.0140087969e-08 6.3472002178e-08 2.9454987306e-08 5.7862871997e-06 5.0505541e-08 8.8146771796e-10 
6.0978810366e-08 9.4936605138e-09 3.6463369443e-08 1.0703339724e-07 3.9870936016e-08 3.6970319496e-09 7.4721845324e-09 4.3862200648e-08 1.0570423179e-07 
1.9545056344e-08 8.789481702e-08 1.4290881683e-08 3.808276407e-09 5.3098479106e-08 5.7151459479e-09 3.8331017619e-08 1.0711606925e-07 6.2051670793e-08 
2.7776002301e-08 1.2612319227e-08 6.2835870398e-09 8.1003024178e-08 2.9983500465e-09 3.78498284e-08 1.5684054715e-07 1.7189884616e-08 1.5656320718e-09 
8.3901497121e-09 1.1283342292e-08 3.6241561335e-09 3.0357433853e-08 5.0238466241e-07 8.3188699034e-08 5.2065781909e-08 3.2876343988e-09 6.2052637803e-09 
5.3642962667e-08 3.9951236146e-08 2.11539062e-08 5.0657913382e-08 3.9920247481e-08 7.3836300475e-08 2.3995046592e-08 1.8030055724e-07 4.4873509108e-09 
2.9490714014e-08 2.3885398492e-07 2.8036213114e-09 4.9813600352e-09 5.5841177266e-08 5.4951009858e-08 2.0575443804e-08 4.0953226393e-09 6.5633992477e-08 
1.0701768434e-08 1.2749988782e-07 5.5692216402e-09 3.1814722587e-09 2.1353511188e-08 6.6667759414e-08 5.062567874e-08 1.1112342424e-08 2.0975386577e-09 
4.0546970803e-08 1.9030974756e-09 8.040343242e-08 2.0078251549e-08 3.3799636421e-07 3.7921471741e-09 2.8160013917e-09 5.4424090675e-08 1.5122286391e-08 
7.1882488358e-09 3.5351320153e-08 5.8925827597e-08 4.7123929556e-09 3.9306361788e-08 1.2198825824e-07 2.4579369536e-08 3.1461302864e-08 2.9874447789e-07 
2.4827832101e-09 4.142450819e-08 7.9492535868e-08 1.0284102245e-07 2.6129574315e-08 1.5350436495e-09 6.0042000989e-09 2.1981682098e-08 2.0821896992e-06 
5.1058104595e-09 1.0931161964e-07 4.7033932456e-10 5.9538079851e-09 5.5214632416e-08 5.4447095171e-09 3.9503374069e-08 1.7771608197e-08 2.0553709693e-06 
4.4046825961e-09 4.3347731836e-09 5.1390769429e-08 5.560614057e-08 4.8975354247e-08 7.2772558034e-09 7.1451487068e-08 1.2748091506e-08 6.7708295143e-05 
3.9669812311e-06 3.7282182218e-05 1.6350292214e-08 7.9513544801e-09 1.0320691656e-08 3.6552934849e-09 4.1736719012e-09 1.0327407795e-08 1.6829188942e-10 
2.3312037913e-10 3.7369791523e-10 2.7051539563e-08 2.2408006091e-08 2.5401632171e-08 3.4225076226e-08 3.1558066772e-08 3.6299628194e-08 6.1506565083e-08 
3.6580931484e-08 3.902835294e-08 2.3572934276e-07 1.0184997002e-07 3.7820869874e-08 2.2719802888e-06 7.2457243905e-07 5.6371705811e-08 1.5068997339e-06 
5.1342687113e-10 9.1333616292e-10 8.9098773664e-10 1.5822457715e-09 2.1395390534e-09 2.3355048083e-09 1.9300722077e-09 2.3974303169e-09 3.6650941114e-09 
3.8302436691e-09 4.2330985404e-09 5.0195252162e-09 3.4164406447e-09 3.6725854345e-09 6.2458606129e-09 5.9953844154e-09 1.1327102828e-08 1.2121336288e-08 
2.0336738193e-08 1.662368844e-08 1.639059641e-08 2.6118342489e-08 1.0954535084e-08 1.0095298172e-08 2.5210907431e-08 1.3461139204e-08 1.1808882683e-08 
2.2603088662e-08 9.6170372482e-09 7.9171421837e-09 2.0656998872e-08 5.8965598666e-09 4.2923878009e-09 1.3837450249e-08 2.6513313548e-09 1.63480641e-09 
7.6695093026e-09 9.1124029451e-10 1.0649133243e-09 3.0392674677e-09 1.2786578101e-09 1.4967832214e-09 2.0162995988e-09 1.9444290411e-09 1.8939912649e-09 
2.8720977257e-09 1.5182889357e-09 1.1702845229e-09 3.5225903578e-09 2.4235764825e-09 2.9479446643e-09 8.1585082679e-10 1.8965485488e-09 7.6645249371e-10 
9.3407335274e-10 3.6776884999e-06 1.5371514944e-05 3.0405675e-06 5.5761006607e-07 1.5528129718e-06 8.0704761208e-07 3.0893594095e-07 5.8845078747e-07 
2.2230061699e-07 2.0850726275e-07 2.2926651928e-07 2.3477964055e-07 1.8728306008e-07 1.8746692147e-07 1.6891750128e-07 1.5214879306e-07 1.7051616574e-07 
1.3974185895e-07 1.1846953177e-07 1.3594810715e-07 1.1770419552e-07 8.2367166779e-08 1.0365595903e-07 9.823563249e-08 4.5603321474e-08 5.8065490397e-08 
5.6735350283e-08 2.5662606734e-08 3.4736256923e-08 3.0206936298e-08 1.4783021522e-08 1.7742028834e-08 1.5184800866e-08 1.9375867697e-08 1.1148988012e-08 
1.3116490893e-08 9.5344270986e-09 1.1570385005e-08 7.6000473276e-09 6.6470146831e-08 5.4503583886e-08 6.1375497784e-08 5.1066968701e-08 6.1383323817e-08 
4.495419926e-08 3.7425343868e-08 4.2567008357e-08 4.3168409197e-08 4.8631236381e-08 3.2247037397e-09 4.8977497174e-09 3.1942906135e-09 3.3991606028e-09 
1.9659380366e-09 4.1065808666e-09 9.3796300117e-10 2.7949415313e-09 3.4038944113e-09 2.7731425735e-09 2.1662865101e-09 5.514401066e-09 7.4094563817e-08 
6.3925244336e-08 6.8473354994e-08 6.3910374232e-08 7.5368712814e-08 5.8532789434e-08 5.8040642533e-08 5.1671484089e-08 5.6071449657e-08 5.75037666e-08 
5.6951527002e-08 5.9602009689e-08 5.836348005e-08 5.3487366668e-08 1.8290400941e-08 1.2156153168e-08 1.4746126175e-08 1.1233446434e-08 1.6764520492e-08 
9.0913821456e-09 7.1395924285e-09 4.7727064372e-09 6.4069515995e-09 4.9275620802e-09 7.3758494819e-09 8.6245774918e-09 2.835454712e-08 2.8045257563e-08 
3.7469521164e-08 4.4985186738e-08 4.5882853033e-08 3.0096432098e-08 3.7074357689e-08 4.4140363182e-08 6.0292934072e-08 5.3048670834e-08 2.2919682926e-08 
6.414992286e-08 1.3604029695e-07 1.3140606426e-07 1.2589222419e-07 1.0613126586e-07 1.0216001064e-07 1.139108218e-07 9.8831433139e-08 9.2092836924e-08 
8.3704019882e-08 7.7979842989e-08 8.8798056343e-08 8.6722205823e-08 1.4894832198e-07 3.2732192555e-08 2.8579552493e-08 3.3015284352e-08 2.1999140122e-08 
5.3339916559e-08 4.738570171e-08 4.6761074329e-08 3.9824858601e-08 4.6184184345e-08 4.7891057666e-08 4.019481061e-08 3.2865758881e-08 3.2019756373e-08 
2.9731012544e-09 2.6716678215e-09 2.7735452056e-09 1.5935332477e-09 4.0476500565e-09 4.1481327131e-09 3.6881601549e-09 4.1902473505e-09 4.1606037345e-09 
3.6070473087e-09 4.1816562356e-09 4.4324354107e-09 4.8099172009e-09 8.8985056001e-09 8.4667896674e-09 7.3437746623e-09 7.8208976806e-09 8.0125485216e-09 
6.4874443721e-09 9.128250278e-09 6.7280392571e-09 6.3751287051e-09 7.4426171425e-09 5.3647667613e-09 4.5926928815e-09 3.1610066065e-08 3.8682000583e-08 
3.7622175165e-08 3.4740046898e-08 2.7125768448e-08 4.3148762494e-08 4.4914683061e-08 4.7305131611e-08 4.8091683406e-08 4.1718049977e-08 3.8485107574e-08 
5.0505759312e-08 5.2337409246e-08 1.0774273554e-07 8.6601964074e-07 9.5598425155e-08 1.6890586446e-06 3.8443823093e-07 5.4886771258e-08 7.8746255731e-08 
5.3412569609e-08 1.1683126799e-07 7.2809784831e-08 1.414830089e-07 6.6547875201e-08 5.5528642487e-08 2.7125633929e-08 2.7904211933e-08 2.0558083626e-08 
1.6057198919e-08 3.7806003509e-08 2.9294081335e-08 2.289263317e-08 1.7928815383e-08 1.5247472857e-08 1.1421286497e-08 8.8656757985e-09 5.5082459478e-08 
7.2699028721e-08 6.8167419405e-08 7.9778400318e-08 8.0561365017e-08 9.4732509555e-08 1.1346682041e-07 1.0494322861e-07 9.7757079529e-08 9.0882113736e-08 
1.7370936249e-08 2.4802976784e-08 3.9240606196e-08 2.6010372282e-08 1.0268152531e-08 6.5031295075e-09 9.8195146493e-09 1.3088646131e-08 1.7245892906e-08 
1.279477407e-08 3.4041701897e-09 2.8117491395e-09 3.4317422615e-09 3.6303408618e-09 3.6169010341e-09 3.9554107489e-09 3.9613123351e-09 3.7333507829e-09 
3.4181981729e-09 3.5049410771e-09 3.6015321715e-09 3.5870864423e-09 4.4296872718e-08 4.4412326868e-08 5.0824399616e-08 4.5524378393e-08 5.0655357997e-08 
5.5055451394e-08 5.4761818079e-08 5.0726892858e-09 4.628746778e-09 5.201249422e-09 6.0523428805e-09 6.112160429e-09 5.3109645369e-09 4.5132114615e-08 
4.5745865707e-08 3.9008220579e-08 2.9903640479e-08 3.1618135654e-08 3.4551462409e-08 7.9825083103e-08 9.6674496253e-08 1.1826545195e-07 1.6190230238e-07 
1.498218607e-07 1.6045993867e-07 5.8207461027e-08 5.0653608702e-08 5.6960210356e-08 4.5391278116e-08 6.9855484207e-08 6.7546699142e-08 6.0455664565e-08 
6.4903668846e-08 7.1897403428e-08 2.0929454941e-08 2.4452362985e-08 2.9619865382e-08 3.3565018945e-08 2.6414626351e-08 3.8120017866e-08 4.4707106418e-08 
1.9519310726e-08 1.4003922136e-08 7.9927785627e-09 7.9515880613e-09 4.7826795111e-09 1.0037681567e-08 1.6273625771e-08 1.8241637295e-08 5.8181531247e-09 
3.4568168645e-09 5.8936955875e-09 3.4017547174e-09 9.2451835945e-09 9.6331148528e-08 8.0619255259e-08 6.6493697374e-08 6.7761745949e-08 7.6561477288e-08 
2.5187905573e-09 3.6754433788e-09 5.4888850021e-08 2.410711639e-08 1.5254411669e-06 0 0 0 0 
0 0 0 0 0 0 0 0 0 
0 0 0 0 0 0 0 0 0 
0 0 0 0 0 0 0 0 0 
0 0 0 0 0 0 0 0 0 
0 0 0 0 0 0 0 0 0 
0 0 0 0 0 0 0 0 0 
0 0 0 0 0 0 0 0 0 
0 0 0 0 0 0 0 0 0 
0 0 0 0 0 0 0 0 0 
0 0 0 0 0 0 0 0 0 
0 0 0 0 0 0 0 0 0 
0 0 0 0 0 0 0 0 0 
0 0 0 0 0 0 0 0 0 
0 0 0 0 0 0 0 0 0 
0 0 0 0 0 0 0 0 0 
0 0 0 0 0 0 0 0 0 
0 0 0 0 0 0 0 0 0 
0 0 0 0 0 0 0 0 0 
0 0 0 0 0 0 0 0 0 
0 0 0 0 0 0 0 0 0 
0 0 0 0 0 0 0 0 0 
0 0 0 0 0 0 0 0 0 
0 0 0 0 0 0 0 0 0 
0 0 0 0 0 0 0 0 0 
0 0 0 0 0 0 0 0 0 
0 0 0 0 0 0 0 0 0 
0 0 0 0 0 0 0 0 0 
0 0 0 0 0 0 0 0 0 
0 0 0 0 0 0 0 0 0 
0 0 0 0 0 0 0 0 0 
0 0 0 0 0 0 0 0 0 
0 0 0 0 0 0 0 0 0 
0 0 0 0 0 0 0 0 0 
0 0 0 0 0 0 0 0 0 
0 0 0 0 0 0 0 0 0 
0 0 0 0 0 0 0 0 0 
0 0 0 0 0 0 0 0 0 
0 0 0 0 0 0 0 0 0 
0 0 0 0 0 0 0 0 0 
0 0 0 0 0 0 0 0 0 
0 0 0 0 0 0 0 0 0 
0 0 0 0 0 0 0 0 0 
0 0 0 0 0 0 0 0 0 
0 0 0 0 0 0 0 0 0 
0 0 0 0 0 0 0 0 0 
0 0 0 0 0 0 0 0 0 
0 0 0 0 0 0 0 0 0 
0 0 0 0 0 0 0 0 0 
0 0 0 0 0 0 0 0 0 
0 0 0 0 0 0 0 0 0 
0 0 0 0 0 0 0 0 0 
0 0 0 0 0 0 0 0 9.5243496865e-08 
3.3114450116e-08 8.9178741583e-07 6.5446497136e-08 7.4892789236e-08 1.1245363837e-07 4.3527743344e-07 1.6848827172e-08 1.5396119315e-08 2.3742029015e-05 
4.7202025193e-07 9.4657702886e-08 2.6877868454e-07 3.8950648543e-08 3.9670343901e-08 1.8231658291e-05 1.6834584675e-08 8.6130005841e-07 1.4300324342e-07 
4.1774374307e-07 1.5007130277e-07 4.8760207301e-08 1.3945528974e-07 1.7598114791e-07 6.2916279811e-08 6.663669369e-08 1.443141204e-07 3.509014485e-07 
1.2005856187e-08 7.3658144705e-09 2.4207275143e-08 2.3562952687e-08 2.5687126293e-06 5.8025139527e-05 1.453970637e-07 6.8913172491e-07 1.225309954e-08 
5.8728472868e-09 2.7493771772e-05 6.4415297943e-05 8.3303851165e-08 1.0264918739e-07 1.0115668232e-07 1.363611653e-07 4.2942748334e-07 4.7188137231e-07 
1.9297769901e-08 4.6862382257e-06 2.2872999242e-06 3.5339261067e-08 7.2758069605e-08 5.2733504745e-06 7.0230652837e-06 5.1785630656e-08 2.4973592153e-08 
2.9749072044e-07 2.7465685287e-07 1.221764028e-07 1.955750457e-08 3.8992384841e-08 3.517706077e-08 3.7481637045e-07 5.186406818e-06 1.3647889412e-08 
1.4478971684e-08 3.3129859825e-08 9.0792329329e-05 1.0830076966e-07 1.3044323392e-07 8.5753457017e-07 4.7360890677e-07 3.5036167073e-09 2.3991662621e-07 
7.6648189023e-08 8.7556489368e-08 1.1798461856e-07 1.2562283847e-08 5.4360639464e-07 2.2894472113e-07 7.3027180227e-08 9.3531023249e-05 3.129114408e-06 
5.2962622955e-08 6.2363302601e-08 5.2424393052e-08 1.0870326534e-07 1.044458759e-07 2.2487246345e-07 9.7207367662e-09 1.2353028374e-08 3.3359690946e-05 
7.9986612488e-06 1.1404360166e-07 2.0018871862e-07 8.4975351622e-09 3.0153096799e-09 9.7343804584e-08 7.7806031266e-08 9.1679308444e-08 2.2791050667e-05 
8.8137661795e-05 5.3065146472e-08 1.4357608812e-07 6.1669869641e-06 3.5885048242e-05 2.8471111557e-08 8.7791409024e-08 1.3591133074e-07 0.00010012150782 
0.00013918381841 0.00013748919206 0.00013208514296 5.1279333213e-05 0.00016055842403 5.0383212743e-09 5.2489654098e-09 9.8482209154e-09 2.2179832742e-09 
1.6598125392e-09 6.9169722331e-09 5.7213967985e-09 5.5761215343e-09 8.7618424016e-09 7.7207756759e-09 7.3048360374e-09 1.0928142192e-08 1.7046404392e-09 
1.302171422e-09 7.2569528508e-09 2.372407328e-09 2.5556041136e-09 4.9114683765e-09 7.6319133575e-09 7.028402153e-09 5.0605405556e-09 3.2587713531e-09 
3.1165871644e-05 5.7101594897e-05 6.030561878e-05 5.6658659971e-06 1.7938747593e-05 1.8836727592e-05 6.6055128958e-07 2.5180070383e-06 2.0269901294e-06 
4.337963271e-07 4.3250250597e-07 4.9505958469e-07 3.275070075e-07 3.8132217435e-07 4.0694388142e-07 2.4459413933e-07 2.8705967487e-07 3.1465220896e-07 
1.7162871581e-07 2.099045809e-07 2.3446876708e-07 1.1641537233e-07 1.3893643879e-07 1.608301757e-07 5.7582582188e-08 7.6562067555e-08 8.9382916131e-08 
3.5014560503e-08 4.710735739e-08 4.9882596148e-08 1.4374153036e-08 2.0964117613e-08 3.0325566702e-08 2.6992265744e-08 1.8478149854e-08 1.0714796622e-08 
1.1106624431e-08 1.0930655327e-08 1.0465620041e-08 2.8012351102e-05 7.6734643935e-06 1.4018270926e-05 5.4130140456e-06 1.9529452909e-06 4.9008517535e-06 
1.0043547641e-06 3.0041017103e-07 1.1476772075e-06 2.3754318599e-07 3.055627929e-07 3.8919509627e-07 2.0221290814e-07 1.6008270332e-07 2.4896127815e-07 
1.5101341117e-07 1.3352363721e-07 1.3327173848e-07 1.2919851141e-07 1.1172694397e-07 1.143592051e-07 1.2048394206e-07 9.8170063933e-08 1.0938613568e-07 
6.6636912323e-08 5.1637638424e-08 7.2606405963e-08 4.1664816816e-08 3.2622586556e-08 4.3455787594e-08 2.1906059587e-08 1.5799320966e-08 2.8828204078e-08 
2.6161251052e-08 1.8706237799e-08 1.1148693361e-08 1.0769125847e-08 7.1338492506e-09 4.6823198881e-09 0.00014612149892 0.00013533282384 0.00010529974998 
0.00012667863397 0.00013448035119 7.6990190026e-05 0.00014350972548 0.00014307398355 9.1317887536e-05 0.00017260723376 0.00016626495086 6.9095890613e-05 
0.00016342409328 0.00016792337387 7.9434730375e-06 1.1862701122e-05 9.2094636546e-08 9.2037449921e-08 1.0475143941e-07 1.3267384953e-07 1.0840670219e-07 
9.2487116239e-08 8.9101670634e-08 1.0059644192e-07 1.0446915555e-07 1.2919486925e-07 3.9604515938e-08 3.2482577436e-08 4.0466351611e-08 3.9254670346e-08 
4.7929470629e-08 1.9364494522e-08 2.6029609353e-08 2.5474072188e-08 2.5428071903e-08 2.6576406231e-08 3.3889694604e-08 4.3469650718e-08 4.855220695e-07 
1.5792813049e-07 2.9339117946e-07 2.8104467567e-07 8.7023358943e-07 4.886160605e-07 1.0926631812e-06 3.0385068042e-06 2.4733725862e-06 6.3427493881e-06 
3.3809387745e-06 2.9556993457e-06 2.0738992977e-06 5.9681073883e-06 8.0631617892e-08 6.7609133162e-08 7.2599726961e-08 7.4409123707e-08 8.2129918918e-08 
6.9314846007e-08 6.1709736868e-08 5.9940422183e-08 5.9372273882e-08 6.2376129451e-08 6.7400061173e-08 8.8391044918e-08 5.8321008495e-08 6.2385011225e-08 
7.1739046857e-08 8.3885888117e-08 8.096892328e-08 7.2268643159e-08 8.7352407458e-08 8.9777189566e-08 1.1527422513e-07 1.0032423762e-07 6.0241733681e-08 
1.1781767668e-07 1.6145597439e-07 1.1962114933e-07 1.0927931709e-07 1.2002971217e-07 1.4891930679e-07 1.4334951339e-07 1.0619658992e-07 1.1015136511e-07 
8.8906731266e-08 1.0999276948e-07 1.0866555985e-07 9.7056288017e-08 3.0967045332e-07 4.3871377397e-07 3.8106637634e-07 2.894062491e-07 2.9544729424e-07 
2.3735446638e-07 4.2322950489e-07 5.2853335633e-07 5.9717740178e-07 3.7630269947e-07 1.7767829586e-07 2.3629547651e-07 1.7386121782e-07 4.1128298519e-07 
1.4170013044e-08 1.3625010245e-08 1.1084823391e-08 1.2709506571e-08 1.9750792649e-08 2.4433089247e-08 1.8778367127e-08 1.1054296644e-08 1.4149124751e-08 
1.3937699254e-08 2.1617163065e-08 1.6651245046e-08 1.5508947313e-08 1.4627969138e-08 1.0805691836e-08 9.2694437852e-09 6.3083541015e-09 1.9324801307e-08 
2.5703449971e-08 2.1367260328e-08 1.7108998367e-08 1.1586210202e-08 1.0099517189e-08 2.3172264097e-08 3.0848311915e-08 6.2335042212e-05 7.8918569445e-05 
4.5299265271e-05 4.5953066793e-05 3.3623029073e-05 5.0009939951e-05 3.3269861442e-05 4.9925734632e-05 6.7986128399e-06 1.4234770248e-05 1.3255822942e-05 
1.8487051466e-05 2.1867843061e-05 2.8955289174e-06 1.7916106218e-06 1.3618710143e-06 2.2551692332e-06 4.9431116085e-06 6.1642561355e-06 1.3699802918e-05 
1.8809931965e-06 4.7581184887e-07 4.0389527641e-07 8.9422358791e-07 1.8933007057e-06 4.4831999784e-06 8.7668913932e-08 8.5258900004e-08 8.5493969198e-08 
9.0069322057e-08 9.3293180086e-08 9.922170819e-08 1.1373130569e-07 1.0644638093e-07 1.0289427589e-07 1.0584479504e-07 2.7447067746e-07 3.0454369421e-07 
2.4087267073e-07 1.1190787902e-07 1.5082893154e-07 1.4324658072e-07 1.834810322e-07 1.2934687122e-07 1.797534124e-07 2.267122622e-07 1.7076799732e-07 
4.5226681455e-08 5.1390998578e-08 6.5041063768e-08 4.9138490738e-08 3.103507693e-08 3.1035762066e-08 3.8968077235e-08 3.5542294404e-08 4.1779217948e-08 
2.8469798192e-08 4.4403848768e-08 3.6506742744e-08 3.3862797636e-08 6.1581247636e-08 5.0437485526e-08 4.5930758511e-08 4.4263058731e-08 3.6617201578e-08 
3.0863340888e-08 5.1576268047e-08 5.0922451231e-05 4.2213664052e-05 1.9043339621e-05 4.475060943e-05 2.8759606698e-05 1.3224627321e-05 1.0582316669e-05 
8.7298295282e-09 1.5200050886e-08 1.2897859984e-08 1.5590484514e-08 9.3281604309e-09 1.5520476433e-08 2.2874889814e-06 9.9207630336e-07 6.496127062e-07 
9.0225332243e-07 5.908919473e-07 2.289712453e-06 1.574322408e-07 1.4422658193e-07 7.4250428783e-08 2.5822973909e-07 1.3977776725e-07 7.7414871865e-07 
1.8183157363e-07 1.9338224176e-07 2.598845298e-07 2.5421661352e-07 2.0624398128e-07 1.3244106347e-07 3.1629120429e-07 2.6247124736e-07 1.3995070034e-07 
1.0378699292e-07 1.0670907108e-07 8.9133175242e-08 1.0097625542e-07 9.6831637852e-08 9.5980769291e-08 9.8237316e-08 7.6665105209e-08 6.2140942068e-08 
5.7196390922e-08 4.8740652423e-08 5.9727582302e-08 1.1955016894e-07 1.2259781873e-07 1.030876808e-07 8.9139918602e-08 1.0743301251e-07 1.8482037819e-07 
1.5038573984e-07 1.1262332794e-07 1.253767184e-07 1.4787221932e-07 5.6876843471e-08 8.2521691664e-08 6.9433837765e-08 5.6661407375e-08 9.1535420077e-08 
1.531004806e-05 7.3826766298e-05 0.00026995315492 0.0002581575987 0.00026997510938 0.00025517756075 0.00027010692236 0.00026973365165 0.0002447107756 
0.00027002730227 0.00026940043115 0.00024892987431 0.00023636412047 0.00027010628558 0.00027011330527 0.00027015309616 0.0002665963973 0.000230272326 
0.00026622986326 0.00027021858537 0.00027011859441 0.00022657316028 0.00027011402829 0.0002699021644 0.00026420004119 0.00026785501048 0.00027009690291 
0.00026234485138 0.00026871044816 0.0002701541777 0.00027025011429 0.00027010937856 0.00026957770406 0.00026922679336 0.00021384744139 0.00025303821723 
0.00026793925236 0.00026981550201 0.00027005822674 0.00022221042373 0.00027009291306 0.0002631043331 0.00025460241941 0.00021241417 0.00027006976068 
0.00027009151146 0.00027014684832 0.00022475394201 0.00027016104985 0.00021842466491 0.00027009872469 0.00027018075871 0.00027018304255 0.00027017114865 
0.00022834002255 0.00020380332949 0.00020583945224 0.0002701159415 0.00027011133976 0.00027011156068 0.00020310045917 0.00022719448486 0.00020162190245 
0.00026111198502 0.00024807073135 0.00024707933861 0.00026742995771 0.00026582213556 0.00026616452215 0.00026972623878 0.0002689427755 0.00026819056738 
0.00027026193495 0.00027016728116 0.0002701812019 0.00027016739928 0.00027017644786 0.00027019039795 0.00027013134455 0.00027013464909 0.00027014352745 
0.00027013436983 0.00027016195905 0.00027015837457 0.00027012566412 0.00027014585122 0.00027015026887 0.00027013163183 0.00027013556933 0.00027014955725 
0.0002701198953 0.000270117487 0.00027011253927 0.00027009856622 0.00027010352463 0.0002437436654 0.00025635814533 0.00023869864075 0.00026338449899 
0.00026718484331 0.00026227834 0.00026892626517 0.00026961798319 0.00026872848989 0.000269969743 0.00027020242309 0.00026972066468 0.00027016181686 
0.00027012660759 0.00027023574062 0.00027011799351 0.00020553382886 0.00020632166453 0.00022425214785 0.00021199141307 0.00020668055112 0.00022659324922 
0.00019800649335 0.00020667292157 0.0002244144417 0.00020859780554 0.00020451687515 0.00022593307841 0.00019820245226 0.00019892152874 0.00022030248376 
0.00021425027034 0.00027007450655 0.00026947846996 0.00027026221415 0.00027005614399 0.00027008940868 0.00026830668346 0.00026822903793 0.00026297076832 
0.00026668999993 0.0002686822868 0.00026643423317 0.00026977236605 0.00026932562267 0.00027017974649 0.00027018371971 0.00027024228725 0.00025433250815 
0.00024209114794 0.00023692888407 0.00025713578554 0.00026023804177 0.00026334377872 0.00026741597843 0.00026574020364 0.00024410874058 0.00025439977589 
0.00024277399238 0.00026180611834 0.00025997083022 0.00027006098637 0.00027010142603 0.0002700500956 0.00027010183868 0.00027010488478 0.00027008765274 
0.00027015410885 0.00027009931624 0.00027015434441 0.000269931824 0.00027021304396 0.00027001216735 0.00026985873984 0.00024722547872 0.00025512674669 
0.0002466594356 0.00022418498224 0.00023650652324 0.00026214894893 0.00026360431801 0.00026723010038 0.00024156594024 0.00024899559204 0.00025956437104 
0.0002660757081 0.00026826749427 0.00027010301437 0.00027007127273 0.00027008666414 0.00027013192969 0.00027015676975 0.00027024772759 0.00027013620831 
0.00027031591923 0.00027009740298 0.00027010010534 0.00027007832409 0.00027022343753 0.00027013773671 0.00026845279945 0.00026940093318 0.00026949887711 
0.00027025234973 0.00026998976698 0.00027008448423 0.0002394738457 0.00023179632645 0.00025014363829 0.00023994845563 0.00025483088732 0.00025595670281 
0.00027012403894 0.0002701137797 0.00027007463861 0.00027008162173 0.00027002817854 0.0002701368807 0.00026891913321 0.00026922648168 0.00026900810468 
0.00026980556028 0.00026985131931 0.00026907887568 0.00023681991302 0.00022718092514 0.00027013749876 0.00027010753643 0 0 
0 0 0 0 0 0 0 0 0 
0 0 0 0 0 0 0 0 0 
0 0 0 0 0 0 0 0 0 
0 0 0 0 0 0 0 0 0 
0 0 0 0 0 0 0 0 0 
0 0 0 0 0 0 0 0 0 
0 0 0 0 0 0 0 0 0 
0 0 0 0 0 0 0 0 0 
0 0 0 0 0 0 0 0 0 
0 0 0 0 0 0 0 0 0 
0 0 0 0 0 0 0 0 0 
0 0 0 0 0 0 0 0 0 
0 0 0 0 0 0 0 0 0 
0 0 0 0 0 0 0 0 0 
0 0 0 0 0 0 0 0 0 
0 0 0 0 0 0 0 0 0 
0 0 0 0 0 0 0 0 0 
0 0 0 0 0 0 0 0 0 
0 0 0 0 0 0 0 0 0 
0 0 0 0 0 0 0 0 0 
0 0 0 0 0 0 0 0 0 
0 0 0 0 0 0 0 0 0 
0 0 0 0 0 0 0 0 0 
0 0 0 0 0 0 0 0 0 
0 0 0 1.070003492e-05 2.3291588377e-07 0.00016850360802 1.594482309e-06 3.1283121006e-07 0.0001528588466 
6.5738016837e-06 1.8953069963e-07 6.2161096729e-08 0.00026855538893 0.00016078602005 6.1275380838e-05 5.3125399867e-07 3.7964880378e-07 1.5987329166e-07 
0.00025677218598 8.0509473041e-08 2.9441460695e-05 0.00025249880396 4.7487677623e-05 6.3138246173e-07 4.5429543129e-07 3.001545888e-05 2.7834881831e-07 
2.8134954121e-06 1.8240662367e-07 0.00017103324462 5.6623419744e-07 1.8872422986e-08 1.4756779428e-07 8.1525718185e-08 3.0245842497e-07 0.00015798480667 
0.00027035456873 0.00019129197971 6.1316796442e-05 6.626770411e-08 3.131831436e-08 0.00026926397871 0.00024920847373 6.9340328731e-06 5.1483280678e-07 
5.5431341907e-05 3.4611513952e-06 2.1927905928e-06 0.0002385112059 1.3340233572e-07 5.5471558834e-05 0.00026907909033 2.5315696609e-07 2.6283199269e-07 
0.00024747998523 0.00019117498243 4.2451530473e-07 1.2986278282e-07 0.0001044707582 3.8670551555e-07 0.00012978945292 1.5745100758e-07 3.7092695717e-07 
9.7311034504e-08 0.00024862103825 0.00010450617427 3.4087888236e-08 2.4350562192e-07 0.00026732938774 2.6422001564e-05 1.7793090903e-07 5.0042346527e-06 
0.0002664480635 3.0475135115e-08 2.1027880946e-07 4.3613340504e-05 3.7444520169e-07 3.188792837e-07 1.9809573769e-05 1.6155727525e-06 7.5316131296e-08 
0.00021824829399 1.4684334216e-05 5.3340658989e-07 0.00022257688698 0.00027028872899 1.1523190583e-07 4.8357919807e-06 0.00010500231388 0.00010632444768 
7.9679396705e-07 5.6386962909e-08 1.2597859802e-08 8.171925961e-05 0.00027036028684 2.641378249e-07 7.4896183208e-05 7.5371949834e-09 9.808228861e-08 
8.4844956525e-06 2.5718861657e-07 2.1460807124e-06 0.00016124925727 0.00027021125913 2.3274027697e-07 2.863443445e-07 1.4746856756e-05 0.00026444618554 
0.00022180274081 3.0014884137e-07 2.4693581643e-05 3.6646054237e-07 0.00027019886477 0.00027018395998 0.00027019082621 0.00015949793451 0.00019701802775 
0.00013321097686 7.8202195038e-08 4.0633201816e-08 1.932530363e-07 3.9797229813e-09 4.7782241993e-09 9.5999409654e-09 0.00022711921691 0.00024334291083 
0.00019356185185 0.00025628386325 0.00026392295003 0.00023640109112 0.00026805427966 0.00026905211833 0.00026143271187 0.00026966559364 0.00027014941443 
0.00026845491103 0.00027028214425 0.00027020969334 0.00026994598536 0.00027024332058 5.3270239342e-09 4.0650750531e-09 8.5644113398e-09 1.4735347608e-08 
1.0605104542e-08 2.0736176387e-08 1.5505462324e-08 1.2592314671e-08 3.1792357084e-08 3.2034251775e-08 2.8089033e-08 4.6698793601e-08 2.9435865045e-08 
2.4688189498e-08 6.1785426888e-08 6.7860298519e-08 0.00027024759309 0.00027036104987 0.00027024229329 0.0002701621372 0.00026968890179 0.00026994049026 
0.00026899782012 0.00026696770719 0.00026812917488 0.0002577656294 0.00024558314262 0.00025620166745 0.00022096051333 0.00019262449068 0.00021018429268 
0.00017332760972 0.00013739774893 0.0001494198126 0.00010749815165 7.5937790195e-05 0.00010090654447 4.8144348675e-05 2.8729440972e-05 4.7252218311e-05 
1.3997905107e-05 6.3834443559e-06 1.2302052281e-05 2.4493070207e-06 5.1733655017e-07 1.8185042362e-06 3.2118013525e-07 2.5668051021e-07 3.9553317043e-07 
3.5041629716e-07 2.6859272992e-07 2.3290460335e-07 1.9717438814e-07 2.0027491898e-07 1.2425839365e-07 5.0169022848e-05 8.3193686776e-05 0.00013376205408 
1.9108454101e-05 3.7201601165e-05 6.945071327e-05 1.9788006802e-06 4.8207341223e-06 2.430800476e-05 5.9649027705e-07 1.280008536e-06 3.251022505e-06 
3.8790551544e-07 4.7783947493e-07 8.7296095247e-07 2.8687858932e-07 3.3601088472e-07 4.4786977357e-07 1.9896555291e-07 2.4072786066e-07 3.2234137253e-07 
1.3436617378e-07 1.6126068022e-07 2.1606293697e-07 8.8084654813e-08 1.0815369461e-07 1.4426410538e-07 6.3032508478e-08 8.0328778112e-08 1.0652829992e-07 
2.5331307493e-08 3.7000111052e-08 5.7789360492e-08 9.0316313958e-08 5.5188918168e-08 1.6627535699e-08 1.235559427e-08 2.6386573844e-08 1.1462498721e-08 
2.8452536744e-05 1.5174650827e-05 3.4961089296e-05 3.221384996e-05 1.2673665386e-05 4.7448727687e-06 7.5178613367e-06 3.7636073589e-06 1.9022563943e-06 
4.7749052178e-06 1.8148259809e-07 1.464801592e-07 1.9629132424e-07 2.2326437717e-07 1.7154430756e-07 2.4155256697e-07 2.0451265848e-07 2.7693852716e-07 
2.7450286999e-07 2.5981428923e-07 2.4431276049e-07 3.0812639261e-07 0.00018014503198 0.00013595876767 0.00014664328481 0.00022491058003 0.00021834320724 
0.00011129543786 8.2417345734e-05 0.0001345446584 8.1779230683e-05 0.00021610949009 0.00022505051617 0.00017987542437 0.00024784730923 0.00014590582699 
2.1107299324e-06 4.797746351e-07 6.2241076189e-07 4.5122360923e-06 3.4874072599e-06 3.4858363804e-06 1.3754766254e-06 4.9440718929e-07 7.8337569299e-06 
1.4379065087e-05 4.167335391e-07 1.5620272603e-05 3.8025238218e-07 3.4118327024e-07 4.2193444792e-07 4.3289923229e-07 3.334645412e-07 2.8586840742e-07 
3.1973624111e-07 2.7167039286e-07 2.4830458589e-07 2.8287524477e-07 2.4353274973e-07 3.04463812e-07 0.00016145087234 0.00020326509944 0.00012880969035 
0.00013668354173 0.00017173414982 0.00018865384839 0.00020545169219 0.00014699539161 0.00012824334964 9.8809665825e-05 7.8473777358e-05 7.950218877e-05 
0.00022895860073 1.7811596962e-06 4.0784201228e-06 6.0889922948e-07 2.5796153886e-06 2.7677675954e-05 2.1704671843e-05 5.2325660009e-05 3.53532472e-05 
1.0533865158e-05 4.9017759467e-06 1.6269691213e-05 1.7320192269e-06 5.4325757435e-06 1.6704845748e-07 2.1569184482e-07 1.2125235152e-07 9.4764440711e-08 
2.46883989e-07 3.0159088955e-07 2.4861832782e-07 1.2109568918e-07 1.7256858505e-07 1.120543177e-07 2.2527516165e-07 2.7099291303e-07 3.6167104081e-08 
4.7438704056e-08 1.5990496195e-08 3.3352038992e-08 7.3758304794e-08 9.3638062377e-08 1.0477833085e-07 4.6918813462e-08 5.1342537917e-08 6.9070422915e-08 
9.446043962e-08 1.3308666086e-07 1.0286647392e-07 0.00026985909885 0.00027033553762 0.00026987318716 0.00026984214422 0.0002703328476 0.00026901340278 
0.00026793511845 0.00026731788309 0.00026892033612 0.00026332240875 0.00026438055995 0.00026310242698 0.00025784517427 0.00016005864847 0.00019644123471 
0.00019233277058 0.0001243560688 0.00012317362065 0.00021147283267 0.00019268048012 0.00023646884113 0.00010681702892 8.0001496663e-05 0.00013137600249 
0.00017391452834 0.00020694975648 0.00010901455394 9.2633296878e-05 8.2194561433e-05 2.6179318638e-05 3.7566497787e-05 1.20165776e-05 4.0931834797e-05 
5.8253300687e-05 6.8202315021e-05 4.6283535887e-05 4.9456796139e-07 5.5851383343e-07 5.6154009922e-07 4.465979589e-07 9.3425194944e-07 2.3759143941e-06 
5.3655315713e-07 4.325582668e-07 4.804540775e-07 3.6402794325e-07 3.0060457928e-07 5.3935545942e-07 3.904135221e-07 8.9408272852e-07 3.801878169e-06 
2.8505530675e-07 3.2509670149e-07 3.1572584599e-07 3.5643832505e-07 2.584509651e-07 3.282916707e-07 1.7069299538e-07 1.4623207898e-07 1.3725846786e-07 
1.9504485335e-07 2.0778724904e-07 1.1857216874e-07 1.4692701906e-07 1.2648501032e-07 2.0929537505e-07 1.8545030501e-07 2.364171359e-07 1.6784068857e-07 
0.00026574590367 0.00026331865193 0.00026079241187 0.0002528805177 0.00024305590045 0.00025215416984 0.00023211513294 7.4850161397e-08 1.1640295431e-07 
5.3856287245e-08 5.2874690425e-08 7.8289368713e-08 1.0729436101e-07 4.5972151936e-05 6.6044762799e-05 2.1612590707e-05 8.9596838079e-06 1.5870487937e-05 
4.1835049535e-05 0.00022852665052 0.0002502587185 0.00023791918587 0.00024585059724 0.00026083328358 0.00026519989188 5.1706454723e-05 7.4216477677e-05 
2.850022591e-05 1.7739750385e-05 4.5574692132e-05 7.9478351486e-06 7.3903489979e-05 7.2082422344e-05 0.00010508017234 1.7925910718e-06 5.3482981312e-07 
4.0115709948e-06 9.4358420193e-07 5.4065156571e-07 4.4139897997e-07 6.2207144289e-07 4.4357547648e-07 3.3262419722e-07 4.1833794575e-07 2.7440052439e-07 
3.4648665892e-07 3.8359538961e-07 3.7212885876e-07 3.6971697177e-07 2.8294676871e-05 4.9706174528e-05 1.7551921578e-05 1.6070700943e-05 2.7394779012e-05 
2.217391182e-07 2.6939348667e-07 2.1557937353e-07 2.6755274634e-07 3.120273687e-07 9.6684503688e-06 1.808443264e-07 2.161007062e-07 0.00016170655934 
0.00027024968529 1.0671970643e-05 2.1086984942e-07 0.00016939823368 2.9315327557e-07 1.7680132581e-06 0.00015172143099 7.1805212953e-06 5.6025596982e-08 
1.8324613158e-07 0.00026905663486 0.00016318310104 5.8536259267e-05 4.3936384942e-07 1.4091169801e-07 2.8708566159e-07 0.00025587394478 7.6143093688e-08 
2.223663116e-05 0.00025305173715 4.3550700695e-05 5.8900094529e-07 3.4633932639e-07 2.9100779495e-05 2.6137483114e-07 3.0618741065e-06 1.7038272508e-07 
0.0001670860918 4.1653775808e-07 2.2638522423e-08 1.2122654167e-07 7.6015649964e-08 2.4277637482e-07 0.00016260275692 0.00027010152831 0.00018717501627 
5.2337483597e-05 2.6858148976e-08 7.7176016338e-08 0.00026935553149 0.00024587477651 7.2326678159e-06 4.5267607898e-07 5.2381487324e-05 3.8467904366e-06 
1.5679843235e-06 0.000236608944 1.2112335541e-07 3.044849432e-05 0.00026936399871 2.1267417552e-07 2.3768657942e-07 0.00024684999575 0.00019264424989 
3.6818990441e-07 1.1726883929e-07 0.00010410423027 3.5629040079e-07 0.00013046137104 1.4246927338e-07 9.3372905277e-07 8.1612142848e-08 0.00024904395318 
9.8094692489e-05 3.6628513221e-08 2.4086140784e-07 0.00026777961888 2.5738498997e-05 1.7148875665e-07 3.5555490929e-06 0.00026764499289 2.9308879004e-08 
1.8850618823e-07 3.8012095674e-05 3.413673342e-07 2.7276976727e-07 1.8049209254e-05 1.8913503522e-06 6.7580355828e-08 0.00021512552793 1.2058425032e-05 
5.8738708324e-07 0.00022682883294 0.00027011798739 5.0417501646e-06 1.1293246182e-07 0.00010433579783 0.000107642945 4.7581869591e-07 1.2191219394e-08 
6.2431095961e-08 5.8634753947e-05 0.00027010597108 7.3781631562e-05 2.661995305e-07 1.4182738527e-08 8.6022428411e-08 8.8011232503e-06 2.4003464417e-07 
2.311328006e-06 0.00016317110211 0.00027009231056 1.9040396631e-07 2.5033410588e-07 1.3885469243e-05 0.00026547470208 0.00022151462995 2.7605086537e-07 
2.3567396958e-05 3.6661270728e-07 0.00027011040982 0.00027011077307 0.00027009444532 0.00020488118499 0.00015975462353 0.00012326415717 3.8603583978e-08 
6.8593161637e-08 1.5474649241e-07 1.6816220638e-08 8.6542196577e-09 7.2806865634e-09 0.00024509071423 0.00022781681107 0.00019869828078 0.0002620088276 
0.00025343398313 0.00023693193972 0.00026957530199 0.00026778648389 0.0002600439518 0.00027003473816 0.00026963819463 0.00026897239111 0.00027012523169 
0.00027014917643 0.00026989519625 0.00027011445489 5.3483047046e-05 2.3141157473e-05 0.00012601716819 1.5258062013e-05 7.9802684532e-06 4.6756495878e-05 
2.3597909291e-06 1.2298407086e-06 1.32678946e-05 6.8218645086e-07 2.0629266414e-07 2.3004491894e-06 2.9574473812e-07 2.9736458615e-07 3.917105039e-07 
2.8767623285e-07 2.6994487996e-07 3.5319969321e-07 2.2889100719e-07 1.9662110327e-07 3.0791453388e-07 1.5306003852e-07 1.2308305866e-07 2.1784582951e-07 
1.0010353713e-07 8.2496961613e-08 1.3629070243e-07 6.8934152629e-08 5.5339693852e-08 9.6754171313e-08 3.8263258468e-08 3.0232603975e-08 7.9919870816e-08 
5.5534777e-08 5.3273245995e-08 2.4267684376e-08 2.9950676216e-08 1.9757659776e-08 1.7773211051e-08 6.5206155249e-09 5.2506675151e-09 1.2371319012e-08 
8.4307819151e-09 1.2066715794e-08 1.761611545e-08 1.1240820109e-08 1.5113548312e-08 2.8162963777e-08 3.0229569131e-08 3.6966308679e-08 4.9749958387e-08 
2.834429586e-08 3.1540269728e-08 7.0703996496e-08 6.6582322242e-08 0.0002701270932 0.00027011758625 0.00027011017502 0.00026980409506 0.00027007856433 
0.00026995936125 0.00026810641007 0.00026931454488 0.00026912625202 0.0002448527979 0.00025851899698 0.00025678083772 0.00018923545868 0.00021819485793 
0.00020677958837 0.00013769028035 0.00017050312385 0.00014862573634 7.4170923563e-05 0.00010908880406 0.0001023867669 2.800406693e-05 4.6383997709e-05 
4.5814164298e-05 6.2632569878e-06 1.4020991304e-05 1.2601923949e-05 1.2803385871e-06 3.1712806571e-06 2.4776025066e-06 8.0789055617e-08 2.5614157195e-07 
3.1034883772e-07 3.8388853852e-07 2.4078511973e-07 1.902966421e-07 1.7756329888e-07 1.5930046617e-07 1.0543422114e-07 3.2229125373e-05 1.4057956789e-05 
2.6118646678e-05 1.2257398856e-05 2.9785796459e-05 7.2409600819e-06 5.2214690466e-06 2.0986549361e-06 4.1696227687e-06 5.1095691286e-06 1.754915182e-07 
1.3122386409e-07 1.6602680378e-07 1.555306091e-07 2.0033158642e-07 1.8118185181e-07 2.1428896179e-07 2.4141081092e-07 2.3500531163e-07 2.1943229169e-07 
2.2860949482e-07 2.6533683269e-07 0.00014592404819 0.00013603374559 0.00017811834827 0.00021659496275 0.00022309156937 7.839709212e-05 0.00011006010396 
7.4789535327e-05 0.00013517813722 0.00018152635995 0.00022341907744 0.00021481876579 0.00024802277526 0.00014766499139 3.9007986537e-07 3.1836526196e-07 
3.6266666549e-07 3.2525349411e-07 4.1119662459e-07 2.8596001238e-07 2.5940261687e-07 2.126624899e-07 2.3630212799e-07 2.1189259976e-07 2.6700999136e-07 
2.9074828603e-07 1.008549614e-06 6.8155323223e-07 2.3440515722e-06 4.1917996566e-06 5.0711337193e-06 6.3509810587e-07 1.7580156184e-06 3.9185061403e-06 
1.4041383542e-05 8.299787272e-06 4.6770630071e-07 1.5564702376e-05 0.00019985200315 0.00015932422372 0.0001367631441 0.00012868850257 0.00020176806621 
0.00018574580872 0.00016915224987 0.00012774568369 0.00014559049735 7.6254225688e-05 9.8255037859e-05 7.93628545e-05 0.0002260666729 3.8400553972e-06 
1.2627052917e-06 2.1670994516e-06 3.2462163129e-07 4.5050804121e-05 1.8602142852e-05 2.2913883923e-05 9.4744031652e-06 2.8828745402e-05 1.4257457948e-05 
5.46938005e-06 1.5856817776e-06 4.4910835391e-06 4.5333019066e-08 3.4476803128e-08 3.0154526034e-08 1.7389531611e-08 9.5515690955e-08 8.4727321999e-08 
6.7941303293e-08 6.1510218964e-08 4.5369272794e-08 4.143500672e-08 1.1995455749e-07 8.5079179811e-08 9.2842826914e-08 1.9390912881e-07 1.5045647846e-07 
8.8275905892e-08 1.1832042734e-07 1.8117932166e-07 1.9715765121e-07 2.6381159037e-07 1.0473670422e-07 1.566693043e-07 1.1664653616e-07 1.9129841807e-07 
2.2821493826e-07 0.00026988804986 0.00027011221642 0.00026992110002 0.00027009940354 0.0002699040153 0.00026923127431 0.00026811635641 0.00026877096214 
0.00026524892182 0.00026443613704 0.00026929568364 0.00026378730711 0.00025830233673 0.00019838659628 0.00019920688812 0.00016312185895 0.000114204929 
0.00011926357497 0.00021169546865 0.0002347216241 0.00019427293795 0.0001304709088 6.4832949388e-05 9.553798893e-05 0.00017722163903 0.00020763688926 
9.3203774039e-05 0.00011028686117 8.2641801728e-05 1.136246655e-05 3.553308467e-05 2.4876963125e-05 3.8748766045e-05 5.6286620699e-05 6.6797184246e-05 
4.4962481902e-05 3.653217295e-07 6.0487723393e-07 4.0680452892e-07 3.9623155808e-07 2.6001195574e-06 7.5924030051e-07 2.7981909368e-07 3.6134041957e-07 
3.7239579579e-07 3.2644910682e-07 3.0058416396e-07 1.3020019934e-07 1.0591732736e-07 1.098305037e-07 2.1457619849e-07 1.6441655254e-07 1.8711709062e-07 
1.6497214926e-07 1.5099944624e-07 1.2823102549e-07 1.4960069393e-07 3.0118559228e-07 9.1675326859e-07 3.9589291124e-06 1.3906584611e-06 2.7988217388e-07 
2.2377949083e-07 2.3377505068e-07 3.1279581867e-07 4.5939650234e-07 2.029000783e-07 0.00026350561102 0.00026648491554 0.00026110279345 0.00025069413144 
0.00024128181047 0.00023065293473 0.00025136765113 5.1735158474e-08 4.7714948991e-08 7.155110839e-08 1.0570106268e-07 7.7200480069e-08 9.7242491383e-08 
5.5635447719e-05 3.7164882958e-05 1.6947038222e-05 1.0633337937e-05 6.7353439662e-06 2.7863884822e-05 0.00025104488149 0.00022716373311 0.00023712134603 
0.00026144039894 0.00024511750071 0.00026626744461 7.1453761949e-05 4.8147890441e-05 2.6251813341e-05 4.0975273026e-05 1.6243199269e-05 7.8119302878e-06 
6.8626505893e-05 7.1210856546e-05 0.00010412646445 5.4578619678e-07 1.9380611892e-06 1.0075298027e-06 4.127588712e-06 4.2474895221e-07 4.720607603e-07 
6.8443927374e-07 4.1205716516e-07 3.2950162096e-07 2.8792446817e-07 2.9334627425e-07 2.4675373265e-07 3.0846112078e-07 3.6185426514e-07 4.1338760379e-07 
4.8422924571e-05 2.7452346367e-05 1.5871313471e-05 1.7416450728e-05 2.6550417044e-05 2.6443497974e-07 2.1789235825e-07 2.4960227934e-07 2.058557031e-07 
3.0609082675e-07 9.9430734096e-06 1.3879622377e-07 1.7124280197e-07 2.022955264e-07 1.8059929454e-07 0.0001619884515 0.00027010686731 4.1655323714e-07 
5.5983712797e-08 1.9543404127e-07 1.6343899738e-07 5.7410346902e-07 3.2300423763e-08 3.7531120686e-05 3.6079980338e-07 7.6992134531e-08 6.5254692811e-08 
1.098075601e-07 1.0834878865e-07 1.1745274751e-07 3.9554016158e-07 3.1460310691e-08 3.9156284091e-08 4.0100723506e-08 6.3916187323e-05 1.9310389935e-06 
2.8385427996e-08 9.391364311e-05 2.7369777898e-07 2.7098827115e-07 5.1972710997e-07 5.2558802476e-07 3.3822352309e-08 6.8004079373e-06 7.9619359532e-08 
4.5232257123e-08 7.3420110913e-07 3.1806574284e-07 2.9752345166e-08 5.4547527815e-08 6.3452623179e-08 4.3522988063e-06 1.2759079522e-07 2.0495929581e-08 
3.2040514388e-08 1.5262325746e-06 2.1304509959e-08 1.1133730088e-06 1.5341736035e-07 4.1346915646e-07 4.2791125509e-07 2.1770119024e-08 1.6813968237e-07 
0.00011366483611 9.1827378538e-08 7.9911414099e-08 1.0700150235e-06 4.8038818742e-07 4.6548612521e-07 2.3398515146e-07 2.3635790204e-08 1.5331386355e-07 
1.6112363163e-07 3.1259653627e-07 0.00011041008587 1.1391086596e-07 5.5272932877e-07 3.0255701968e-05 4.1219499966e-08 2.395440568e-07 2.5346157767e-07 
0.0001273053794 0.00015264234395 8.1805291539e-05 1.4603719947e-08 2.4133512095e-08 1.5986689876e-08 0.00013847537953 0.00014192670109 0.00010179868121 
0.0001462925957 0.00014719176817 0.00010170141362 0.00011467306418 4.0718698898e-05 1.1725520236e-06 6.8387293409e-06 3.6957773568e-06 4.8067808382e-07 
1.4971339517e-06 1.2350322765e-06 3.3281639253e-07 3.3525063671e-07 3.4895004713e-07 4.14418702e-07 2.6479583095e-07 2.8889260304e-07 3.5718150872e-07 
1.8766098195e-07 2.3255064103e-07 2.7661054581e-07 1.6529433509e-07 6.8835823216e-08 8.7852908156e-08 1.0194779251e-07 4.3698571461e-08 5.6650458065e-08 
6.6323722876e-08 2.9723874889e-08 3.1689324435e-08 3.7406107622e-08 4.5806461867e-08 3.4128436647e-08 2.8065471851e-08 2.807939757e-08 3.1832851198e-08 
2.8304791307e-08 9.7466158467e-08 7.8404122192e-08 1.1361801695e-07 6.5250364258e-08 4.8670529886e-08 7.7133192886e-08 2.6648556018e-08 1.9098359681e-08 
3.8517531666e-08 5.1059111207e-08 2.8406683507e-08 1.5628691531e-08 1.6491448471e-08 1.3781175304e-08 1.4109268387e-08 1.8135352756e-08 1.947511112e-08 
1.885467531e-08 2.5593732712e-08 2.3946575905e-08 2.0915441539e-08 4.6584552032e-07 4.1417616028e-07 4.464805403e-07 5.4129409792e-07 4.7476669439e-07 
4.169431768e-07 3.6610159883e-07 3.7110973296e-07 4.712314245e-07 3.6124344287e-07 7.9904328208e-08 6.7621869096e-08 9.4692314182e-08 8.3221688921e-08 
5.8855044104e-08 4.3839717188e-08 3.9061389001e-08 5.1288021669e-08 3.8971458726e-08 3.1330010482e-08 4.6983906373e-08 3.2767696677e-08 6.1205744792e-08 
1.7714982843e-06 6.3921367682e-07 1.3834674832e-06 2.9086201184e-06 1.5653706264e-06 9.5953215086e-07 4.5856890052e-06 2.2298586965e-07 2.086099912e-07 
1.8135673522e-07 2.1590161412e-07 2.5680732701e-07 1.5781008487e-07 1.485040234e-07 1.4570394817e-07 1.7761970535e-07 1.9150645197e-07 2.0778570027e-07 
1.6270075896e-07 2.0635901814e-07 2.6352181684e-07 2.0341250317e-07 1.2193612926e-07 1.1843205363e-07 1.3620874494e-07 9.9804853797e-08 1.6056443308e-07 
1.3404224203e-07 1.9392569398e-07 4.4031038675e-07 5.1404252867e-07 4.313312252e-07 5.1671326507e-07 5.9223979001e-07 6.2416058499e-07 3.317279878e-07 
7.0890390719e-07 7.8520377833e-07 5.419052852e-07 6.2484148858e-07 5.0973869442e-07 4.5083673197e-07 3.9514596281e-07 7.5115810329e-07 6.300145275e-07 
5.0098596068e-07 6.9712091616e-07 4.9993927743e-07 1.9555036815e-08 2.774384924e-08 4.2182596803e-08 2.9159882873e-08 2.0082420856e-08 1.7742558113e-08 
2.6328937608e-08 2.6632160032e-08 3.111112085e-08 3.250709291e-08 2.4050970832e-08 2.815139971e-08 3.4611365473e-08 3.4583942645e-08 4.0265406957e-08 
3.0223491003e-08 2.8387715228e-08 3.1162535959e-08 3.2109186642e-08 3.8852137551e-08 4.7845518519e-05 7.0954938219e-05 8.9713611281e-05 3.4621903213e-05 
2.3240501741e-05 5.9475349866e-05 3.4089564872e-05 6.0195627737e-05 1.4516913521e-05 4.7225803521e-06 1.4515726754e-05 1.9329841909e-05 1.3786096805e-05 
3.9186021117e-07 3.4060760099e-07 4.12871791e-07 3.209564386e-07 3.3668554783e-07 3.8341909926e-07 3.075889359e-07 4.3129912454e-07 4.5935489861e-07 
2.9396304032e-07 2.3723524235e-07 3.8057149834e-07 3.0027562493e-07 3.673090523e-07 3.3566905983e-07 2.5752935067e-07 4.0426151546e-07 2.0139481271e-07 
9.5774468591e-08 1.2311732629e-07 9.9981633537e-08 8.453426009e-08 1.0389229222e-07 5.6308795163e-08 5.97615227e-08 7.0116655003e-08 7.8565152723e-08 
1.0097539147e-07 8.5798051775e-08 9.3578070485e-08 7.4159714452e-08 8.5793650405e-08 1.1182707264e-07 4.9587202015e-08 6.0339129748e-08 5.1522742165e-08 
5.0455851413e-08 6.0263229269e-08 7.0005483362e-08 5.8399484778e-05 3.4259286585e-05 2.1388931001e-08 1.9406490284e-08 2.5947778221e-08 2.4252050952e-08 
2.4932235191e-08 8.7592692384e-07 1.5611094004e-06 1.1969074284e-06 7.4243496222e-07 5.8026527703e-07 7.5822505125e-07 5.3897321593e-07 3.8873122838e-07 
8.9296721216e-07 7.041245504e-07 7.1631234627e-07 6.4313567207e-07 2.3805675724e-07 1.6319625854e-07 2.3309609697e-07 2.9643962751e-07 2.2813394471e-07 
1.6541461136e-07 2.9143229478e-07 1.5519567328e-07 9.8209808783e-08 1.2874102275e-07 1.2001305977e-07 1.3679225348e-07 1.9777608604e-07 1.2986865209e-07 
1.6062536963e-07 2.0807309107e-07 1.7031712068e-07 1.486960745e-07 2.0480808683e-07 1.1415672418e-07 1.2867706154e-07 1.3805951337e-07 1.30346862e-07 
8.6798404478e-05 5.5053728352e-07 0.00017822739049 3.4059061638e-06 0.00026965225013 5.035238154e-05 5.2685274579e-05 0.00025615914491 0.00025488903888 
2.8495055373e-07 2.8384472581e-07 0.00027013027171 0.00027006118923 0.00016952533587 0.00017611525586 5.76944434e-06 5.9443377646e-06 0.00027006349419 
2.7158160134e-07 0.00026979310667 0.00026935844701 0.00024992422407 8.3580724682e-05 1.6327781822e-05 8.8342094212e-05 8.953539661e-05 2.6476232906e-05 
2.7467519797e-05 0.00023326361684 0.00023357754038 2.85509065e-07 2.3042183052e-07 5.4399959e-07 1.2280764729e-06 0.00027009698679 0.00027008539456 
0.00026810235894 0.00026805254493 2.3105603998e-07 2.4499724079e-07 0.00027014700369 0.00027016021102 0.0001102573951 0.00011161411129 0.00021944462305 
0.00022470854311 0.00026234215507 0.00026436783749 5.0125449891e-07 0.00027010309598 0.00027004339809 1.534012427e-06 1.7768529579e-05 0.00027007621149 
0.00027016003854 2.1208682364e-05 1.0372514695e-06 0.00026638587149 0.00018364919803 0.00017857417284 3.0387694297e-07 4.3234629608e-06 3.7109343261e-06 
0.00026965879947 0.00026964253286 3.4967285367e-07 2.2693139416e-07 5.9019978318e-06 0.00027013823594 5.3533279027e-05 5.4676513286e-05 0.0002691368955 
0.00026938651625 2.1815646412e-07 0.00026098224493 4.7486993971e-05 0.00016861964753 0.00016794445901 2.908292378e-07 0.00026583699118 0.0002663108274 
4.8601148646e-05 0.00027015337923 0.00027009895847 1.2956486576e-05 1.5150867144e-05 4.5272592494e-06 0.00025454578511 0.00022678737796 0.00023003710587 
1.9185333008e-07 2.0766124975e-07 0.00026997162681 0.00026996096901 0.000124147994 0.00012478884678 2.0206785352e-07 1.7249822402e-07 5.3867914192e-05 
5.6842716407e-05 0.00013086232984 0.00027014116416 0.00027008953309 2.6744511505e-05 0.00021905746299 0.00027014791251 0.00027020572537 1.3899784799e-06 
0.00011598366506 0.00011524565544 0.00027017864391 0.00027016786868 0.00027015985096 0.00027011736827 0.00027011951588 0.00027010310975 1.5136259139e-07 
1.4188125629e-07 2.3732835757e-07 1.2070683998e-07 1.3752843922e-07 1.7902969856e-07 0.00027015789541 0.00027015753412 0.00027014246677 0.00027016770147 
0.00027016694293 0.00027017461276 0.00027015988347 0.00027015786228 0.00027016958538 0.00027015983058 0.00027015197695 0.00027015573657 0.00027013198517 
0.00027011906965 0.00027014671992 0.00027011763553 1.5114258511e-07 1.5350229448e-07 1.9813473034e-07 1.7841483593e-07 1.7743015731e-07 2.2423751059e-07 
1.23242854e-07 1.5400463579e-07 2.3070414911e-07 1.6346940504e-07 1.5263885986e-07 2.3674068825e-07 1.4627138491e-07 1.3453766793e-07 2.1866452945e-07 
1.7476113962e-07 0.00027018607058 0.00027014953305 0.00027010585534 0.00027018678329 0.00027027321501 0.00027011180297 0.00026862288142 0.00026989499008 
0.00027010951179 0.00025770612193 0.00026583075352 0.000268409037 0.00022375723577 0.0002436462602 0.0002524853906 0.00016328178182 0.00019839185976 
0.00021187287396 9.9281238488e-05 0.00013288403193 0.00015224176245 4.2065984541e-05 6.5598733607e-05 8.5671966102e-05 1.0355889602e-05 2.1079896265e-05 
3.0666936522e-05 2.0971534943e-06 5.7428815963e-06 7.6666909976e-06 3.2613092368e-07 4.4396315965e-07 1.7812161362e-06 5.9106899788e-07 4.326966213e-07 
2.8346993982e-07 3.1330683637e-07 2.5754419686e-07 2.4390904922e-07 0.00027011068332 0.0002700457108 0.00027007572185 0.00027017848348 0.00027010785543 
0.00027011189417 0.00026986590016 0.00026902248153 0.00027006612121 0.00026658486375 0.00025870565289 0.00026878903226 0.00024308486847 0.00022120581746 
0.00025254163623 0.00019368835729 0.00016041248805 0.00020507938942 0.00013333706116 9.9396176892e-05 0.00015150448855 6.3426989114e-05 4.0923480313e-05 
8.4764012168e-05 2.2014101989e-05 1.1142004467e-05 3.1043230998e-05 5.9106465583e-06 3.0125007187e-06 9.1868297135e-06 6.2893358965e-07 2.0416651823e-07 
2.4198746186e-06 1.5360634224e-06 4.8468662003e-07 1.9550520404e-07 2.309011324e-07 1.9780689097e-07 2.0077802736e-07 0.00019704652473 0.00017263780766 
0.00020150310559 0.00019924990484 0.00022129552429 0.00015341053257 0.0001487284431 0.00017432938008 0.00019481756835 0.00014948039222 4.9157878446e-06 
1.0759752876e-05 8.8740477786e-06 1.0341515652e-05 4.0076540282e-06 1.2650694437e-06 3.8663981856e-07 1.2192397833e-06 1.6709955983e-06 7.2205557969e-07 
2.4300785097e-06 2.7981376865e-06 0.00027001755289 0.00026725128483 0.00026995667196 0.0002703879119 0.00026961465199 0.00026754271305 0.00026970787464 
0.00026998359952 0.00027043829635 0.00027011087362 0.00027008093929 0.00026989891673 0.00027008277062 0.00026996505743 3.4315853397e-05 2.4641564243e-05 
3.84458483e-05 3.9669719673e-05 5.232998246e-05 7.7809435995e-05 4.960883134e-05 7.8091783849e-05 7.9030602365e-05 0.00011297423831 3.3175390057e-05 
8.2097026249e-05 4.9902522038e-05 7.624655753e-05 7.9358861408e-05 0.00011351692019 8.0604778198e-05 3.1219064684e-05 3.2592473088e-05 3.8424709543e-05 
2.1809402063e-05 4.0243128168e-05 5.4765075971e-05 8.3242176844e-05 0.00026041843474 0.0002462702457 0.00024511435991 0.00023039693369 0.00026305924972 
0.00026716145077 0.00026452821294 0.00026434761445 0.00025483426493 0.00023928483427 0.00024094715504 0.0002227334391 0.00026535158574 0.00025924431924 
0.00024537480293 0.00023178264776 0.00024433355883 0.00025772800422 0.00026542246066 0.0002629019326 0.0002670532321 0.00026118379315 0.00024689715084 
0.00024267250792 0.00022770860951 0.00026422879322 2.2434896168e-07 2.4341890657e-07 2.4110846615e-07 2.113986195e-07 1.3189460111e-06 5.2991378738e-07 
4.6382531791e-07 2.9066521513e-07 2.6920205546e-07 2.4649020127e-07 6.515639809e-07 3.9991951687e-07 3.8678004538e-07 3.4352214157e-07 2.8681120743e-07 
2.4354723009e-07 2.5325440404e-07 3.9196111691e-07 6.0500235424e-07 8.917009961e-07 2.6371601904e-07 3.1444062681e-07 2.4807402094e-07 6.6827796522e-07 
1.4581466962e-06 0.00027016030011 0.00027012879713 0.00027013102299 0.00027004406867 0.00027011718534 0.00027016255294 0.00027013909812 0.00027017849239 
0.00027006381151 0.00027008804686 0.00027016129296 0.00027013546013 0.00027019806094 0.00027010794044 0.00027011519013 0.00027014544103 0.00027014065153 
0.00027004373248 0.00027016544236 0.00027015513598 0.00027014674869 0.00027020783666 0.00027009736408 0.0002701440006 0.00027022390772 0.00027019626495 
0.00017471850053 0.00020226747804 0.00019685626548 0.00016852385231 0.00013725196099 0.00014112471854 0.00014321801907 0.00019270792135 0.00019343281949 
0.00014800783024 0.00012111681565 0.0001798781681 0.0002084053105 0.00020573936034 0.00013838924889 0.00017243883916 0.00014232230906 0.00014437184592 
0.00020234752117 0.00014877550743 0.00011995693505 1.2895681024e-05 1.5367777327e-05 1.1468583032e-05 2.0727090744e-05 3.2059251887e-06 3.1002188015e-06 
6.0920275809e-06 1.2685375166e-05 6.5918744724e-06 2.9096021231e-06 1.9941689203e-05 9.4584006486e-06 1.4582189958e-05 1.4298652415e-05 2.7015053779e-05 
5.7830474279e-06 3.0461345343e-06 3.3340480894e-06 1.0801200295e-05 1.0926924294e-05 4.8391236399e-06 2.498299285e-06 0.00027012222188 0.00027015047839 
0.00027012638228 0.000270163249 0.00027015363606 0.00027017729983 0.00027020162319 2.9703118952e-07 2.4587732024e-07 2.4510217741e-07 2.6174555531e-07 
2.7948096053e-07 3.6508837304e-07 0.00027011426881 0.00026963714288 0.00026867943543 0.00026949983352 0.00026813507139 0.00026991024229 0.00026961749674 
0.00026935155556 0.00026874038761 0.00026939629177 0.00026867683175 0.00027005881636 0.00025615952153 0.00023819040498 0.00023506198727 0.00026405068447 
0.0002609827178 0.00025209603435 0.00026260585028 0.00023984953325 6.5795941791e-05 9.5705835496e-05 0.00011896435779 0.00010646831454 6.4557148384e-05 
9.7350300421e-05 0.00012179653403 4.8689476503e-05 2.9960290592e-05 1.7260746914e-05 1.925118576e-05 3.0338100043e-05 0.00010582676848 6.9643119147e-05 
7.0658860889e-05 5.3681016663e-05 0.00010122534983 0.00010635209218 7.0963303647e-05 5.5815792612e-05 7.2020160422e-05 0.00010187067882 3.8840599603e-05 
3.9731682472e-05 4.0672818404e-05 0.00027010001403 0.00027012256605 0.00021872621898 6.6190858589e-08 1.4568058131e-07 6.3371519732e-08 6.1189285538e-08 
3.8491589982e-08 7.3930695261e-08 3.625861303e-08 5.6411789926e-08 8.2587291349e-08 3.9288820514e-08 1.5218922959e-08 5.9584275033e-08 4.5746773123e-08 
7.4042670314e-08 6.8671551929e-08 4.2151149685e-08 2.7840508487e-08 6.9303419885e-08 4.9674441812e-08 3.5461683909e-08 1.2443320475e-07 4.4158416054e-08 
5.6419058098e-08 1.780932366e-08 4.4345778009e-08 8.0269595201e-08 1.4865299118e-07 4.4742350068e-08 7.7225159043e-08 1.7593796831e-08 4.7054451508e-08 
1.4542916264e-07 4.6858095539e-08 5.5692763289e-08 5.9652629166e-08 4.245122728e-08 3.8829960286e-08 6.7006782037e-08 6.0443986462e-08 2.3508966078e-08 
6.1193254893e-08 3.9745044663e-08 1.3240713782e-08 6.3561339976e-08 4.3404008537e-08 3.918596918e-08 5.0721951938e-08 1.6500442441e-07 3.139715645e-08 
2.4940452887e-07 4.2076490196e-08 1.1460712579e-07 1.1897906139e-07 4.379607156e-08 2.2654785885e-08 9.1104584677e-08 1.0647852918e-07 5.3548177268e-08 
9.2531074835e-08 8.6217065766e-08 3.2563289766e-08 6.9598317011e-08 5.726729192e-08 1.7926315863e-08 5.5659503025e-08 4.1857727214e-08 3.4542416754e-08 
1.4716206964e-07 1.0547778176e-07 6.3345039361e-08 5.8051100884e-08 7.639916213e-08 3.0654650706e-08 2.2457830103e-08 2.5353232594e-07 3.4950874702e-08 
7.2963724575e-08 3.6644944392e-08 7.7834915791e-08 5.084143643e-08 6.8627615114e-08 1.1239103706e-07 5.1374009388e-08 1.9734385987e-08 1.9339757459e-07 
2.5964227465e-08 2.953007372e-08 3.0037718017e-08 5.0447041263e-08 5.7818091629e-08 1.3214363914e-07 5.0501339543e-09 1.6649506324e-08 6.5588385494e-08 
4.2934081598e-08 2.7633088924e-08 4.3998644034e-08 4.1954845913e-08 5.6125247431e-08 8.3925270355e-08 2.4499158994e-08 9.28846865e-08 3.7647982318e-08 
1.9967489955e-08 1.1574624515e-08 1.041522448e-08 1.9276478691e-08 9.7787236643e-09 2.1753979512e-08 1.0372905144e-07 9.0941398254e-08 5.6239518828e-08 
9.1635208069e-08 8.0342494125e-08 1.2502469605e-07 7.6864334806e-08 7.9842427844e-08 8.2268583601e-08 1.0222282356e-07 1.1257755542e-07 8.293617433e-08 
9.4611253477e-08 8.1352305464e-08 1.3062873909e-07 5.5756081292e-08 6.5811171296e-08 5.8921222878e-08 4.890372193e-08 5.5226066782e-08 5.8564901752e-08 
6.0801682861e-08 5.3594150638e-08 6.6002392326e-08 5.8387470725e-08 7.4085422572e-08 3.0093558931e-08 5.4502809275e-08 5.0354549207e-08 6.4889594619e-08 
7.6586148059e-08 6.9404828715e-08 5.526903811e-08 7.543281769e-08 8.1058644227e-08 6.1458488199e-08 6.9662275144e-08 7.1337496724e-08 7.3742561773e-08 
8.3771644042e-08 4.7006785227e-08 1.0224328634e-07 8.7107927812e-08 5.5706141969e-08 2.1625594429e-07 1.9822928683e-07 1.1422663578e-07 8.2066902806e-08 
1.0168233987e-07 3.0718726592e-07 1.1916381433e-07 5.6877486318e-09 1.0617851299e-08 2.2779226019e-08 1.3435769767e-08 1.6295269444e-08 1.2161533419e-08 
1.3268549906e-08 1.7256597121e-08 1.2776230362e-08 5.1738772228e-09 7.0850715427e-09 1.1185396138e-08 6.1821672346e-08 4.6556988405e-08 7.9211873924e-08 
2.4359659864e-08 2.2472742316e-08 3.3744580315e-08 6.7114142945e-08 3.4654523581e-08 2.195815728e-07 1.9275068426e-07 2.9363691671e-07 1.6174617909e-07 
1.0817804034e-07 1.2315694708e-07 8.7832453557e-08 1.1294482836e-07 1.529805226e-07 4.4024421676e-08 6.1587931249e-08 6.58417269e-08 5.2678399466e-08 
5.4355027469e-08 6.523045104e-08 6.9103977564e-08 7.9309670102e-08 9.153072843e-08 7.1849210871e-08 2.9811715545e-08 1.5716353634e-08 1.1546066699e-07 
1.1430386884e-07 8.8064154252e-08 1.9660541566e-07 1.7846818551e-07 1.3904177822e-07 8.9297355651e-08 6.5644366719e-08 5.8337798904e-08 5.7136653909e-08 
7.6198933994e-08 5.7608953811e-08 1.3604862798e-07 6.0288183617e-08 4.8891938446e-08 6.6740796391e-08 7.2953570572e-08 6.5909804604e-08 6.3391934377e-08 
4.9925524098e-08 3.2034070961e-08 3.1736808051e-08 3.8401878162e-08 2.1672037102e-08 4.3160090513e-08 1.0515953374e-07 6.2111612457e-08 9.0550892587e-08 
5.6331913918e-08 4.761939323e-08 4.3799514819e-08 2.9574389369e-08 2.9055296993e-08 2.2259396541e-08 4.5179829674e-08 4.8982139132e-08 4.4496238389e-08 
5.3986100858e-08 3.7349953911e-08 6.5391567774e-08 5.0500301722e-08 5.3041890727e-08 5.1712160894e-08 4.0148908876e-08 4.7457637045e-08 5.497393447e-08 
3.7454679653e-08 3.8783814602e-08 3.4650573843e-08 1.2873075779e-08 1.6659733599e-08 3.4636912673e-08 1.1527210193e-08 3.0601756635e-08 9.6112431291e-08 
1.9576309556e-07 2.694262871e-07 2.6892386984e-08 2.503390832e-08 4.499647354e-08 4.4687945173e-08 4.131692365e-08 2.2445455348e-08 5.8534548479e-08 
5.5385956143e-08 4.7436859429e-08 2.6636063139e-08 2.1984412733e-08 2.6169651705e-08 1.5040002093e-07 9.2582853711e-08 1.8263135092e-07 2.4145389186e-07 
2.0919864458e-07 7.4144307189e-08 6.316902531e-08 6.0306333958e-08 6.8664315202e-08 6.037735828e-08 2.7383270953e-08 8.9080062598e-09 2.3494090943e-08 
4.4558553823e-08 9.3071525859e-08 7.7300811201e-08 5.535420151e-08 4.1909044513e-08 5.188143519e-08 2.5566222463e-08 4.4026563036e-08 3.9545110765e-08 
2.5545075015e-08 3.1333357154e-08 2.9343961534e-08 3.4022423538e-08 4.0839592882e-08 1.7933981485e-08 3.2932350896e-08 1.6719361512e-08 1.609136309e-08 
2.6312744039e-08 3.1183427763e-08 8.0201573998e-08 4.9007732687e-08 6.8518232698e-08 1.6596214463e-07 1.8518588144e-07 1.1385526378e-08 2.7558997332e-08 
2.0371919408e-08 1.6262508165e-08 3.1348221775e-08 2.414489206e-08 5.3494155664e-08 4.8180644878e-08 5.0434000909e-08 1.5409132095e-08 8.0573948048e-09 
1.6944241871e-08 3.7289959737e-08 2.6499652585e-08 4.107186778e-08 2.160137137e-08 1.635615027e-08 2.6901209106e-08 8.2169831699e-09 4.0529342293e-09 
1.0460879519e-08 9.4354648693e-09 1.6228055637e-08 7.3286232185e-08 4.0660487361e-08 2.5345286394e-07 5.271169729e-08 5.5684261418e-08 5.8488443614e-08 
2.3565278677e-08 3.3256753911e-08 3.6854697e-08 4.1201987677e-08 2.9519193762e-08 1.4580825377e-07 1.2778700341e-07 1.404347545e-07 1.7861885555e-07 
1.9842786547e-07 1.4601195605e-07 2.7419860621e-08 3.7689968696e-08 1.3229514837e-08 2.1978364376e-08 3.3755863232e-08 4.6745175707e-08 4.4075057978e-08 
5.4488950464e-08 7.174257285e-08 4.2170655609e-06 1.1938238518e-05 3.2619547293e-07 1.1863001786e-06 2.730474153e-06 1.0402490001e-08 9.4507914227e-09 
1.0993612864e-08 6.304000431e-08 1.4184869339e-07 1.4884983585e-07 3.6872857301e-08 4.84388069e-08 4.4433227662e-08 7.7289237557e-08 6.3599019139e-08 
7.8695586986e-08 1.3013308793e-07 1.1183968672e-07 1.182008959e-07 1.7145236125e-07 1.7595129257e-07 1.5133456511e-07 5.6871805866e-09 4.795772231e-09 
6.1579859868e-09 7.156970694e-09 1.3288441912e-08 1.2627928064e-08 1.7256181993e-08 1.8557119332e-08 5.7476628565e-08 2.9358284961e-07 2.9751898653e-07 
5.1971309822e-07 3.0746106376e-09 5.3350279912e-09 8.2688164925e-09 3.2503717908e-08 3.3972323045e-08 3.7243847635e-08 1.0941238992e-07 9.8739749949e-08 
7.1564999255e-08 4.7032142672e-08 4.2597642903e-08 1.5583189612e-05 5.6976874821e-06 1.7401467093e-06 1.6167712308e-06 5.0455357288e-08 4.4328722882e-08 
4.9055062807e-08 3.8357636138e-08 3.4794066215e-09 2.2036100138e-09 5.9810688295e-08 8.263556878e-08 1.57309605e-08 7.7250691192e-09 1.0498382989e-07 
1.0518762272e-07 1.3873796988e-07 1.4999314588e-07 1.7344133018e-07 7.5758896119e-07 4.0094050173e-06 1.3396310963e-08 6.8553178189e-08 1.1905858146e-07 
4.4938167532e-08 2.2141493717e-08 4.3416449883e-08 6.7903728581e-08 5.5604992319e-08 6.898269585e-08 3.9858282504e-08 3.0230782445e-08 1.5334223459e-08 
3.1251617704e-08 3.3639079192e-08 2.2986449464e-07 3.0994514339e-07 6.1529418549e-07 3.6386909642e-07 1.4347108786e-07 5.6568270321e-08 4.5751877604e-08 
5.3796368378e-08 4.2878558161e-08 5.3433270777e-08 3.933756943e-08 4.4846826799e-07 4.8033516647e-07 2.7840018257e-07 2.9722208008e-07 1.5346370545e-07 
7.9367411815e-08 1.5743271484e-07 1.1553478356e-07 3.9058575025e-08 5.975814706e-08 1.2271381309e-09 6.8011440591e-09 6.0993275583e-09 4.6245864441e-09 
1.5473368809e-08 5.4749793583e-09 6.6616530283e-08 3.1994061725e-08 9.8963397344e-08 2.7006143959e-07 9.0546458324e-08 1.4247780775e-07 7.1917007459e-08 
1.7544521848e-07 2.9487856843e-07 2.4378598463e-07 1.7725729291e-08 1.9241103758e-08 7.019713679e-09 2.1069908648e-08 7.3443944239e-09 1.2883109938e-08 
1.6285600593e-08 1.9091201225e-08 9.2933080335e-08 6.7314333832e-08 9.8788104359e-08 8.2234644361e-08 7.5790597135e-08 7.1030299353e-08 6.2031400211e-07 
3.1722460715e-07 6.0586962562e-08 1.6148323361e-07 6.7205041091e-08 5.8438870172e-08 5.7114171741e-08 7.1789130085e-08 6.2401610199e-08 2.2323077989e-08 
1.8884383481e-08 5.3545589471e-08 4.7805801952e-09 3.7183570183e-09 7.9161301032e-09 1.0858065465e-08 1.3306178288e-06 2.6052387392e-07 2.0589837162e-07 
1.8376272666e-07 4.8471857431e-08 9.0501121136e-08 9.2635972488e-08 6.4026489868e-08 1.0455925455e-07 5.6308000289e-08 4.4272323495e-08 4.1913919795e-08 
2.3281309409e-08 2.3109850526e-08 2.9100450832e-08 3.1205052185e-08 3.908603627e-08 5.4512098392e-08 5.5383681215e-08 4.7988749651e-08 5.0577779909e-08 
3.4259053067e-08 1.2596121485e-08 2.8518506369e-08 2.0938404017e-08 1.3117061713e-08 3.1072164171e-08 1.1973090519e-07 1.3938012378e-07 1.3418479998e-07 
1.763982674e-07 1.5723012288e-07 6.5608526072e-08 4.7739148945e-08 6.0654082625e-08 5.3669431934e-08 6.5062013525e-08 2.8130786611e-08 9.3818267136e-09 
1.7783374103e-08 5.8688645431e-08 5.6360564284e-08 1.1250050529e-07 7.3417406739e-08 3.3339119872e-07 2.3735222933e-07 2.2579881824e-08 4.4769445623e-08 
2.293274954e-08 1.759560606e-08 3.8110063875e-08 3.8096810428e-08 5.3493145985e-08 3.9867283224e-08 3.8482217822e-08 4.63064817e-08 1.4034075992e-07 
1.1113056839e-07 5.1792281598e-08 5.1863554955e-08 5.0176284985e-08 6.5702361042e-08 6.3507164056e-08 5.8657671568e-08 2.3775251047e-08 4.4241919896e-08 
3.3604841829e-08 3.5627646127e-08 7.3595411837e-08 6.703950674e-08 7.3447200789e-08 3.1730926591e-07 8.5601336086e-08 2.1912003085e-07 7.3883034103e-08 
7.8102769343e-08 6.7042731356e-08 6.1712542652e-08 7.9103741956e-08 2.4031772749e-08 1.5513024038e-08 2.7169591733e-08 3.3453371578e-08 2.092640235e-08 
9.6001614772e-08 3.6169036968e-08 5.2558495245e-08 7.0280306696e-09 1.9042952033e-08 3.2330385462e-08 1.1313052077e-08 2.0095885504e-08 4.4783346905e-08 
1.2466481609e-08 2.4960208706e-08 9.9354395049e-08 7.2289879174e-08 6.9244668091e-08 8.8621902425e-08 3.6452633149e-08 3.6146253096e-08 2.6883062332e-08 
2.4182435861e-08 2.7695960261e-08 6.8437357567e-08 8.3453523309e-08 2.0786513707e-09 6.1717672602e-09 3.8759258704e-08 9.0621135166e-08 6.4059447407e-08 
4.7941208012e-08 2.8580940449e-08 1.687088468e-08 2.7550880526e-08 1.7209564213e-08 2.0255060433e-08 3.1965699268e-08 4.1920553849e-08 4.1177759012e-08 
4.2161495344e-08 6.5303331525e-08 8.8307484027e-08 2.4348544828e-08 8.6989425447e-09 1.9183607761e-08 2.3921213664e-07 6.610984093e-09 1.1871555494e-08 
1.4559773272e-06 4.9973706236e-07 7.4389568444e-08 6.9948136817e-08 1.7716021406e-08 3.3421027706e-06 3.1378482373e-07 1.77129092e-06 2.1117277955e-07 
1.320664313e-07 1.8034646471e-07 4.2553818414e-08 3.8580010201e-08 5.8136622461e-08 6.4938197918e-08 6.1076917394e-08 6.941378578e-08 1.2018311225e-07 
4.0348080559e-08 6.6000467873e-09 6.0808961678e-09 5.9709711712e-09 1.1416222078e-08 1.9761806779e-08 1.0966195951e-08 2.045451831e-08 3.0511985772e-08 
1.5319299112e-07 1.2262913464e-07 1.9827382071e-07 7.3447770916e-08 6.4520822342e-08 6.4941879353e-08 6.984272705e-08 6.310227493e-09 1.6955079065e-08 
3.1571475303e-08 5.3132029378e-08 4.0498442859e-08 4.9876377966e-08 3.6634249073e-08 1.4258251926e-08 4.3416767945e-08 4.7279548604e-08 7.5449341022e-08 
8.192728406e-08 7.946612865e-08 7.9869428045e-08 8.779002794e-08 2.5898268133e-08 4.1783625632e-08 1.9153625418e-08 4.9107967316e-08 5.6887969245e-08 
5.5292402638e-08 6.0064349926e-08 6.8180708598e-08 4.5259948475e-06 6.5216750712e-07 1.3738770466e-08 1.9113025309e-08 1.0797111191e-08 1.7529513206e-08 
2.6953906394e-08 5.7922633336e-08 2.7537041285e-08 2.1924073202e-08 3.0012212459e-09 7.3807867431e-09 1.5265649499e-07 2.0398109908e-07 1.5627029716e-08 
2.7484028357e-08 3.9828823897e-08 1.5048870294e-08 3.9727295846e-08 3.5388321692e-08 4.6721947304e-08 1.5650680823e-05 4.9579406258e-06 3.5321858613e-08 
4.9247359935e-08 3.9449252412e-08 3.6536458182e-07 2.7198867952e-07 2.0962227699e-08 1.6347875498e-08 4.3443849167e-08 4.665354806e-08 3.6667345042e-08 
3.2324214768e-08 3.6270535655e-08 4.0968998829e-08 1.3623653596e-07 1.9176030533e-07 1.5619634476e-07 6.849613136e-09 8.1385697494e-09 1.3162480281e-08 
1.7452593259e-08 1.0197541057e-07 5.980840077e-08 6.9481653047e-08 1.3782522249e-07 1.1809923036e-07 3.2142825611e-07 2.6454388308e-08 1.9837248891e-08 
6.2946215219e-08 1.1406692217e-07 9.0449545364e-08 1.2858912705e-05 4.9060029047e-06 2.3816576233e-08 2.6391734173e-08 3.5589948676e-08 1.5399316384e-08 
3.6316100515e-08 1.2478107351e-07 3.2257628625e-08 8.5706536245e-09 2.7544815561e-08 2.0842050702e-08 1.8478216921e-08 5.3345801885e-08 6.8262755465e-08 
8.757657111e-06 9.5763086598e-06 1.7679671578e-06 5.718295709e-07 1.231045179e-08 8.749337982e-09 1.9718359535e-08 2.9362321177e-08 2.1382149892e-09 
6.4998997469e-09 9.5648298048e-09 5.9190940479e-09 1.2549067888e-08 5.231854945e-08 2.0975882051e-05 1.4651292904e-09 6.7066077485e-09 1.1340137654e-05 
6.7037972685e-08 7.1697839211e-08 5.8824823375e-08 6.9617788078e-09 1.9324872377e-09 7.6077209711e-09 3.1364977374e-08 2.8096396057e-08 7.0493642432e-08 
7.6596772228e-08 7.0200707336e-08 6.1074743335e-08 5.9868938526e-08 1.5593436725e-08 1.8372847939e-08 1.7534628606e-08 5.5724819967e-08 6.15677215e-08 
8.5858812231e-08 4.7709673133e-08 4.6357282995e-08 5.3935575905e-08 3.4123136235e-08 3.6230002923e-08 3.5518474413e-08 3.8050244626e-08 2.936893016e-08 
6.0115468899e-08 5.8315758781e-08 6.2600227403e-08 5.7467848776e-08 5.6914549291e-08 5.4509564196e-08 2.0253934972e-06 1.2240251921e-06 5.9039014215e-08 
6.1976829046e-08 1.5407663792e-08 2.4601338033e-08 5.2357768122e-08 5.2706351035e-08 5.6088107167e-08 4.9663480182e-08 4.6820958519e-08 6.45683978e-08 
1.0115375434e-07 4.0058802341e-08 5.6477644241e-08 5.8666198443e-08 5.3985817509e-08 5.8219547776e-08 8.5035622077e-09 4.5138619238e-09 1.3824803606e-08 
1.0576183559e-08 7.1318922112e-09 2.7174396127e-08 5.6330386836e-08 5.2965658795e-08 4.9416061065e-08 9.6234890494e-08 6.7661254379e-08 5.5542891193e-08 
1.4737611124e-09 4.5838734381e-08 6.8326203822e-08 8.2040241478e-08 3.1941129281e-08 1.7448489335e-07 1.2058932732e-07 8.0827098996e-08 1.8343197021e-07 
9.9642841301e-08 1.7812563924e-05 1.9445119453e-05 3.9581331662e-06 1.5159366656e-07 2.2559068289e-07 1.5225704107e-07 2.9714517714e-07 2.0201969325e-07 
1.6722331222e-07 5.0619533833e-08 4.4234880735e-08 5.4877375319e-08 5.9619785901e-08 8.0148572797e-08 1.3996477915e-07 1.3107119203e-07 8.818459686e-08 
1.9254276417e-08 2.3345269703e-08 5.688142055e-08 6.6004202266e-08 6.0588917134e-08 5.9488519648e-08 7.7438846519e-08 6.2413760637e-08 4.8366687937e-08 
4.6934352559e-08 4.2215345394e-08 4.7095761231e-08 4.0815759373e-08 1.1747463753e-07 1.2854227222e-07 2.0739022563e-08 2.1855022689e-08 1.4503496625e-08 
3.0640089893e-08 3.1104543618e-08 2.0041443424e-08 2.8150860261e-08 3.8130599668e-08 3.0190462569e-08 5.3273119552e-08 8.2645280298e-08 1.0440025888e-07 
9.8049725987e-09 8.2955728995e-09 1.1249399421e-07 6.0606650572e-08 6.6407755973e-08 8.814522596e-08 3.6715783492e-08 3.5093243936e-08 3.0890346817e-08 
2.2072142586e-08 5.0528675196e-08 1.1149050534e-07 4.9119420349e-08 4.4683034492e-08 6.6298182709e-08 5.9486040798e-08 8.6004867246e-08 6.8216381594e-08 
4.8571850642e-08 6.1932749289e-08 7.9816469703e-08 4.6678344953e-07 4.9094757594e-07 5.1836924519e-08 1.5195601712e-07 3.6808079343e-08 4.4360952386e-08 
6.4667668589e-08 9.55511908e-08 5.8664162058e-08 5.0456872264e-08 1.0875808941e-07 8.7380688981e-08 9.967040982e-08 1.1176415375e-07 1.0306164763e-07 
5.5134173306e-08 9.8875867124e-08 6.1230901708e-08 1.0679455988e-07 3.0274148221e-08 3.3700129983e-08 3.9349301289e-08 5.9341040309e-08 5.9565205254e-08 
6.1013263949e-08 7.8907471476e-09 5.9606388954e-09 2.3126237085e-08 5.0010949625e-08 4.8020631293e-08 4.3493522324e-08 1.1337798773e-08 1.4866007964e-08 
1.4640427699e-07 4.1988851542e-08 2.3064851489e-08 8.8796220137e-08 6.8351499501e-08 4.9463992338e-08 4.9879793917e-08 5.1519474408e-08 3.3579745418e-08 
6.1685198238e-08 4.7046590127e-08 4.1665705255e-08 2.6376204121e-08 3.8244129704e-08 3.1779473421e-08 6.9358504509e-09 3.4750740994e-09 4.1397350437e-09 
9.9818944798e-10 1.3087308965e-09 5.1587257778e-09 5.5291527778e-09 1.3015169887e-08 1.4264856733e-08 2.0733987108e-08 4.6354594759e-08 5.6846338038e-08 
9.1067223748e-08 7.8532377294e-08 7.228202795e-08 1.8948209425e-08 3.8345141207e-08 1.4808683045e-07 1.6601021367e-07 1.1315662004e-07 1.5505208459e-07 
9.0192680842e-08 9.8353104676e-08 6.8797474078e-08 2.5541351274e-08 3.3694269257e-08 3.8542913638e-08 4.5386019723e-08 3.4621374382e-08 3.4846225262e-07 
5.2076166022e-07 3.4781384745e-07 1.3356576259e-07 2.8196342517e-07 4.3368467974e-07 9.7583830982e-08 1.795290263e-08 2.3063357525e-08 5.3091966138e-09 
1.5621962441e-08 7.9881865761e-09 1.4493815128e-08 1.3424248098e-08 1.9997277879e-08 1.1613489451e-08 2.0173677995e-08 1.0831897133e-07 5.3734439982e-08 
6.0027932535e-08 6.9905327172e-08 5.9377514556e-08 1.1976089119e-07 5.983193461e-08 4.9370578986e-08 6.9900175455e-08 5.8378781834e-08 7.4414642102e-08 
2.7037268398e-08 3.2500422663e-08 4.0691340641e-08 3.781902462e-08 8.6905085561e-08 8.184616164e-08 9.3070830787e-08 2.0488196605e-08 3.6545581601e-08 
1.0941837107e-07 7.7549169336e-08 8.5036871154e-08 7.6463298439e-09 1.573427537e-08 1.8770042909e-08 6.4635003464e-08 5.9501427883e-08 5.0633658623e-09 
1.0684057958e-08 1.0184722438e-08 3.3443784553e-08 2.8716653833e-08 2.1403346489e-08 9.8232928719e-09 2.0942034711e-08 1.4087261258e-08 2.3950257365e-08 
1.0401379817e-07 5.9862417869e-08 1.1879769933e-09 2.9502658558e-08 6.0973768151e-08 8.0375274233e-06 3.4732042544e-09 8.7365351848e-09 3.1983319797e-09 
1.4123414654e-07 1.5944144274e-07 1.1193811196e-07 1.1447968114e-06 6.9889164775e-08 2.372034399e-08 1.0026282384e-07 8.1580518751e-08 8.8029800673e-08 
7.8758887641e-08 8.7560064984e-08 1.1741318434e-07 7.4130167771e-08 6.7061982586e-08 1.9695942815e-07 2.5799256201e-08 1.9324934566e-08 1.3222645788e-08 
2.2839237379e-08 1.9902338422e-08 4.9822522417e-08 2.3583629352e-08 2.2620203778e-08 5.6891062405e-08 6.3643693254e-08 5.9421166031e-08 1.5456758062e-08 
6.4442352748e-09 1.6058750793e-07 2.6397755683e-09 9.9917666158e-08 2.6486928915e-08 1.2916435079e-09 7.1218864108e-09 4.4422587511e-08 1.9490053319e-07 
1.7107646591e-07 5.6719335703e-08 5.5692076983e-08 8.2171164438e-08 8.5420594561e-08 9.9745792198e-08 1.2108279471e-07 1.3436702394e-07 1.0484243865e-08 
3.2687610235e-08 9.244426249e-09 8.3725948838e-09 1.7422639935e-08 6.1252817786e-08 4.4864047423e-08 6.8355115443e-07 9.4929649265e-07 2.579431616e-08 
2.9010304925e-08 4.173179877e-08 1.3289660661e-07 1.1822780759e-07 8.8159116901e-08 7.1539384128e-08 2.1093592024e-08 1.6797032196e-08 3.8221409667e-07 
1.5538982671e-08 3.8121864337e-08 7.9549653521e-08 8.0849925486e-08 5.0171916703e-08 5.6670998374e-08 4.9188873202e-08 8.5856150125e-08 1.9302788976e-07 
6.4802430698e-08 6.701066566e-08 3.3183564376e-08 5.7678888373e-08 4.9911058807e-08 1.0453970594e-07 1.0415464662e-07 5.165958318e-08 8.2752105742e-08 
4.3137589326e-08 3.6814696281e-08 6.8355651976e-09 2.8642809093e-09 3.1033182046e-08 2.4207078973e-08 1.9188502202e-08 4.0424700526e-08 5.3189704621e-08 
8.0984873035e-08 3.6902951152e-07 1.705926032e-08 3.6298889733e-09 2.0256036248e-05 1.3300567029e-08 1.2875877586e-06 6.6569151226e-09 8.5909634341e-09 
9.3186408909e-09 1.2756926707e-08 2.0684320982e-08 2.1924078779e-08 1.742164986e-08 2.4692567647e-08 1.1809722929e-08 2.2853105163e-08 2.3403561915e-08 
8.8179942389e-08 3.5391944366e-08 2.0769639349e-08 5.7741284501e-08 5.2589511024e-08 5.2786120518e-08 4.9661403482e-08 6.116169399e-08 1.4634761816e-08 
2.2796650744e-08 1.7996157352e-08 2.9526237933e-08 2.7337867648e-07 9.7093806358e-08 9.3137468328e-08 8.382856528e-08 1.3412956391e-07 1.2005422098e-07 
4.6307974444e-08 3.4939668347e-08 5.2630871613e-08 7.1140824584e-08 4.9759822245e-08 2.4653899919e-08 3.5697773912e-08 2.0758281187e-09 6.048752805e-08 
1.9905602664e-08 2.9177067479e-08 2.2913794643e-07 1.9959749039e-07 1.7625063911e-08 1.2702636082e-08 1.9057058543e-07 9.6140891895e-08 2.0182971094e-08 
7.1716457174e-08 1.6483917832e-07 2.0662188235e-07 7.7623087787e-08 2.2393939551e-08 1.3687699288e-08 8.2509393624e-09 8.0563781977e-09 1.2045246025e-08 
4.1685880575e-08 3.5711060266e-08 3.8619916049e-08 2.3832549037e-07 2.2769268217e-07 8.0051315654e-08 2.1856802926e-08 5.6228463667e-07 1.4450768614e-06 
1.1466816292e-06 4.9623289765e-08 3.2558591834e-08 1.1109654927e-08 4.2253463738e-08 2.7539296447e-08 8.7171575456e-08 3.0427004046e-08 2.873438475e-08 
2.6707549963e-08 1.0998404159e-07 4.2524582432e-08 7.274567328e-08 6.3060156282e-08 3.0660961877e-07 5.9427246383e-08 7.6796019089e-09 1.2031694009e-08 
3.2740073507e-08 4.5374165082e-08 1.6818482752e-07 1.5156121571e-07 5.0305267558e-08 3.768271341e-08 4.7115326393e-08 2.1647889348e-07 2.0381682212e-07 
2.6004016184e-08 3.1740029239e-08 1.4098289226e-08 1.7106199778e-08 2.8297851369e-08 2.2227809024e-08 1.8493623345e-08 2.5841634526e-08 1.8871527714e-08 
9.4294862388e-08 1.4820706234e-08 2.8468155589e-08 1.0408766296e-07 1.5705054043e-09 6.5684587619e-09 5.8108276456e-08 6.9253987873e-09 9.9467103284e-09 
1.5979425318e-08 1.8892189202e-08 1.0493904883e-08 1.1030415811e-07 1.8050675239e-08 2.3981960758e-08 1.8130304238e-08 1.0365861436e-08 3.7383402739e-08 
1.6493556229e-08 2.3771870331e-08 3.300154332e-08 1.0941406854e-07 3.1543066171e-08 1.4143502502e-07 1.0325550465e-07 1.1764290111e-07 1.627504686e-08 
4.7804239621e-09 5.9127466984e-09 9.0728392706e-08 2.5505454733e-08 1.754455411e-07 9.3126908518e-08 8.4915813004e-08 4.1017560581e-08 3.3223815263e-08 
3.0787412118e-08 6.480034177e-08 9.9070949175e-08 2.3717136251e-08 3.1831156756e-08 3.5446321374e-07 1.9139556418e-08 1.9747868603e-08 5.3616036074e-08 
5.2757616157e-08 3.1910201377e-08 3.2759514278e-08 2.7639334985e-08 1.6346619182e-07 2.4039833575e-07 1.9698658319e-08 2.5632248054e-08 2.7225222105e-08 
2.6630986249e-07 1.1177347072e-08 9.4592536118e-09 4.6683631258e-08 6.9046140329e-08 1.8242339183e-08 1.6551541362e-08 3.3932686598e-08 2.4439464499e-08 
2.7664115252e-08 2.8051090261e-08 2.4080247314e-08 2.3465413611e-08 5.9050943085e-08 5.0837818738e-08 6.5005785001e-08 3.1214628947e-08 3.6036613898e-07 
3.8880754762e-08 2.3221742902e-08 5.669071279e-08 1.204034847e-08 1.0138947411e-08 1.273256535e-08 1.3952925231e-08 1.5961986187e-08 1.6851925758e-08 
2.2014357486e-08 7.6517322148e-08 6.4780898404e-08 4.8699601318e-08 4.758423438e-08 8.6936451929e-08 2.1399208161e-08 3.8203693122e-08 6.6076157537e-09 
8.6786752868e-09 4.2113381766e-08 5.8912807025e-08 2.4377804529e-09 3.8046276185e-09 1.0058249608e-07 3.5468776782e-06 2.3420888431e-07 8.8669373917e-09 
1.4880575023e-08 4.1209365383e-08 1.3633223898e-08 3.9946606917e-08 6.5911077004e-09 1.2776500842e-08 2.1461106709e-09 5.0624756338e-09 2.2220188762e-07 
1.3012446913e-07 2.2104585873e-07 1.9430654254e-08 2.8496454782e-08 3.885969978e-08 2.3647549399e-08 1.4046915379e-08 1.5323618764e-08 1.3439340966e-08 
3.8506362562e-08 5.1269398059e-08 2.8599499347e-08 2.3986412205e-08 4.6783647234e-08 4.8426948893e-08 1.2966317675e-07 2.5508515232e-08 4.5040955353e-08 
3.8711017391e-08 3.7911677097e-08 2.3535690592e-08 4.7835906605e-08 3.3035726997e-08 3.0413230323e-08 5.4031211957e-08 6.7678411828e-08 1.0851060364e-08 
2.1452508247e-08 3.1892104493e-08 3.849874488e-08 2.5785721406e-08 4.7682721129e-08 4.253106819e-08 4.5889727226e-08 2.3293517073e-08 8.8182290194e-08 
1.7571091873e-08 6.3555855752e-08 3.4833794256e-08 6.7295754432e-08 4.8564306147e-08 7.4805169361e-08 6.6017039448e-08 1.2135321153e-07 1.4791534736e-07 
1.4334908904e-07 1.1266337776e-08 1.0585526126e-08 1.5551354808e-08 1.4369273553e-07 1.3719916731e-08 4.5055574329e-08 1.109858494e-07 8.2055118728e-08 
4.5286158156e-08 5.1923155052e-08 6.6300376947e-08 7.8754433861e-08 1.0667382631e-08 1.3548578371e-07 1.6782404584e-07 5.8417072657e-08 1.7527839405e-08 
1.2090455318e-08 1.3195751291e-08 2.121729714e-07 1.4770195528e-08 9.9979758892e-09 9.3220083608e-09 6.1280591239e-08 1.6979373311e-08 2.3092939428e-08 
2.3588224227e-07 1.7294668835e-08 1.6073942929e-09 2.7588893547e-08 2.3895153602e-08 1.3787487825e-07 1.4271995501e-07 1.8991683359e-07 1.6661012394e-07 
2.4960008995e-08 9.5000414756e-09 3.5296444203e-08 4.7090631935e-08 6.6076942846e-08 6.37954239e-08 5.7987098494e-08 3.4388379158e-07 8.7486194254e-09 
1.7186722094e-08 3.6328979628e-08 4.4668375645e-08 4.8038926188e-08 2.0480803173e-08 1.1088986433e-08 4.2050414889e-08 4.8643992347e-08 1.1814999678e-08 
1.0611158189e-08 8.7189021512e-08 5.676236142e-08 4.1955147032e-08 1.3085804497e-08 2.8111534409e-08 6.3609290664e-07 1.7487294605e-08 1.5735002733e-08 
4.8543759185e-08 1.6845826634e-08 1.7678408046e-08 9.6624409535e-09 8.4778984226e-09 7.4486629704e-09 5.7386375883e-09 1.6562543561e-08 1.09714841e-08 
2.1299119379e-08 2.1981230288e-08 1.1362865922e-08 1.9606541206e-08 8.095763725e-10 8.3585055069e-10 2.3554429486e-09 1.7690243773e-09 2.3682673547e-09 
1.2996356834e-09 3.5719804685e-09 1.634993518e-08 1.8997409879e-09 1.031364021e-09 1.2673845807e-08 1.1984585762e-08 7.4892591478e-09 1.1272959549e-08 
5.2836506148e-08 5.2483428949e-08 4.8286652395e-08 3.0147214221e-07 7.8612950792e-08 1.164205974e-08 5.4861470895e-08 5.9100960835e-08 1.2645632485e-08 
9.2061677734e-08 6.1546169882e-08 1.3534365465e-07 8.648974529e-09 5.7150798884e-09 4.9860116478e-08 2.4710283443e-07 6.8065725239e-08 2.6441786159e-08 
5.5465975466e-08 9.8987929256e-08 1.7929529649e-08 5.0673491074e-09 3.9468369562e-08 5.7225346201e-08 4.4849404941e-09 2.6261745126e-07 7.2086053059e-09 
2.6500618183e-08 9.8334938007e-08 5.5298069626e-08 5.8114653898e-08 2.1969343472e-08 8.8360972036e-08 1.7226356678e-08 8.369402152e-09 3.5553942028e-08 
1.8905647339e-08 6.9277987509e-08 1.1703613818e-08 7.54931969e-09 7.1351604265e-09 7.9392292076e-09 3.8709873244e-09 7.8650708815e-08 7.7146636886e-08 
6.4116362998e-08 6.9131566445e-09 9.7135698909e-07 4.4604860981e-08 1.4952479144e-08 3.7391665292e-09 3.1098770115e-08 8.3400004782e-08 1.8664401156e-07 
3.5834975469e-08 9.1039316296e-09 7.2864157818e-09 3.8247157698e-08 2.6363262138e-08 1.1337639543e-07 6.8991363857e-08 6.5112294313e-08 1.1857871006e-07 
6.4586529573e-09 2.379379804e-07 3.3708663352e-08 4.5836056578e-08 1.0233999148e-07 6.4434108108e-08 1.0160558392e-07 6.7816484269e-08 7.3052643039e-09 
4.267323734e-08 1.1290299941e-08 1.0697402818e-08 9.966027657e-08 3.7318240407e-08 1.4237231551e-08 5.5318575017e-08 4.331989739e-08 3.1351425652e-08 
2.6602129867e-09 9.2571920511e-09 2.4333675831e-08 3.984396324e-09 1.3463370668e-08 9.2116045934e-08 7.7466745637e-09 2.5282707792e-08 8.2771585896e-09 
4.7905506682e-09 5.2858122306e-07 4.3841988593e-09 8.8875377953e-08 5.5572925757e-08 5.7986114755e-09 8.1722192893e-09 1.1231713242e-07 7.9240015063e-09 
5.043471566e-08 4.329604001e-08 3.6232768333e-08 8.2149465187e-09 1.0157062434e-08 6.8860829344e-08 6.3787849665e-08 4.912971575e-08 7.6769448431e-09 
1.1619277614e-08 5.1416151423e-08 3.8334900101e-09 1.3787394153e-07 1.6331549261e-07 1.0079632337e-08 1.4418140079e-08 4.8033361502e-08 2.2185445535e-08 
3.9155324587e-08 4.5825435845e-09 7.3129031151e-08 4.3894871393e-08 5.9549513381e-07 5.5136864824e-09 9.2062065811e-08 1.3643404469e-08 6.9066197864e-08 
6.1433355972e-09 5.5149348542e-08 2.8047383014e-07 3.7639107939e-08 8.9741170104e-08 2.7874372829e-08 2.8021218879e-08 3.8674718822e-08 4.7931598765e-08 
5.5609370843e-08 1.5438655968e-08 1.0320408228e-08 9.8874180021e-08 1.9396798079e-08 3.0439475573e-08 1.6259289249e-07 7.4180467278e-08 1.2997903507e-07 
1.2012190932e-07 1.2929963288e-08 2.6211405698e-08 5.0992758472e-09 1.9684343298e-08 1.0867420477e-08 4.5205117872e-09 1.1772228082e-08 2.5638699362e-07 
4.7646000092e-09 6.8702487391e-08 9.9877513436e-08 7.2371734966e-07 1.6327740723e-08 5.0168040873e-08 4.7741136131e-08 7.1024246718e-09 9.7605447918e-08 
1.255426371e-08 2.5652768089e-07 6.6132109784e-09 6.7425188327e-09 7.9598991618e-09 4.6389279821e-08 7.679861629e-08 2.8942952923e-08 1.2263315051e-08 
5.6209240813e-09 8.3709926377e-08 6.2628756806e-09 7.7473808893e-08 3.4275079754e-08 7.5005248576e-08 6.2001145097e-08 6.6398505175e-09 6.1681604176e-08 
1.7111963501e-08 5.5465153679e-08 5.3767182525e-08 8.2897253525e-09 5.1355568286e-09 9.1390663996e-08 7.288643919e-08 3.6721048176e-08 3.8843684951e-08 
6.8004608359e-07 9.016293086e-09 1.5973786532e-08 2.5295774484e-08 1.6127144676e-07 1.5769242305e-07 4.3704556522e-08 2.4727536599e-08 1.0352071082e-07 
1.9570141134e-08 1.6371372683e-09 2.4147752338e-07 5.0367228508e-08 2.3232546592e-08 9.031088847e-08 6.6161846023e-08 5.519387185e-08 4.7781459316e-09 
1.8501855455e-07 7.6773908255e-09 5.9909827339e-09 1.2105822693e-07 7.7032641686e-08 6.1095553282e-09 7.8355388599e-09 5.780314526e-07 4.6990687215e-08 
1.8871675578e-07 6.7920315727e-08 3.4566404113e-08 6.2890112058e-08 7.9319645489e-08 4.7333196338e-09 2.6228628183e-08 1.1435446395e-08 3.5314053407e-07 
8.3998571834e-09 6.9103449695e-08 2.4180127977e-09 8.5196315419e-09 1.2226874278e-07 3.7008672385e-08 7.0007775108e-08 9.2582442653e-09 4.504657137e-08 
2.3321599804e-07 8.2104382952e-08 8.0626587803e-08 2.5173404645e-09 8.4236947986e-08 7.6856747482e-08 4.9315618063e-09 3.1937730858e-07 7.8566378025e-08 
3.4586805739e-08 5.9025612779e-08 4.7566193276e-08 5.7149013663e-08 6.7029581245e-08 6.0031893247e-08 6.2131488643e-08 4.1356026332e-08 4.140167644e-08 
6.2728899257e-08 4.675034552e-08 4.7692534625e-08 2.6338296753e-08 1.2251084446e-07 1.2619538729e-07 8.049985939e-08 1.0323609654e-07 1.6477635842e-07 
2.4331873093e-07 5.034570611e-08 2.8352808378e-08 3.3126299994e-08 1.7340597896e-08 8.5003730455e-09 1.1005122245e-08 1.8784609733e-08 8.2702817788e-09 
1.2073413913e-08 1.2546427923e-07 1.3673792349e-07 1.7106211921e-07 1.2638649564e-07 1.3915694821e-07 1.0011804856e-07 5.4505250431e-09 5.9481670399e-09 
6.4566756544e-09 6.4227593795e-09 7.6819873869e-09 5.8869037568e-09 9.737624237e-08 1.8962885802e-07 7.0275539357e-08 1.2441382028e-07 1.1793065814e-07 
1.0191349873e-07 9.3608235159e-08 8.8776200397e-08 1.1026156422e-07 6.5009647071e-09 7.7194812223e-09 5.3314939917e-09 5.8622637895e-09 5.9433036066e-09 
7.859559852e-09 6.7253305726e-09 8.1293173394e-09 6.7192745935e-08 6.9173604342e-08 6.7256404729e-08 7.0571071059e-08 7.4888514817e-08 7.5037293717e-08 
1.4929866082e-07 1.3009586176e-07 9.7883236598e-08 1.1829823381e-07 9.333140735e-08 1.251389836e-07 2.6944398605e-08 1.4309383652e-08 1.8346191971e-08 
2.7556951294e-08 1.7444749704e-08 2.4055872754e-08 4.0740887738e-08 5.5146036432e-08 4.3993482464e-08 3.4280694678e-08 3.769424029e-08 2.5816603747e-08 
2.5362481678e-08 2.2145127245e-08 7.624367263e-08 7.0045764623e-08 5.7723375687e-08 5.4181388856e-08 5.152162116e-08 6.799136995e-08 4.5640966414e-08 
6.6690249311e-08 5.2681237214e-08 3.8138132245e-08 5.4517319988e-08 4.9159922603e-08 3.6949964782e-08 3.2801294585e-08 3.1911197372e-08 6.2844299423e-08 
6.6603922662e-08 7.136682723e-08 1.6403155051e-08 7.9161227204e-09 1.1500361913e-08 5.1071070266e-09 1.4413467678e-07 4.7404193667e-07 8.413271375e-08 
1.1281216686e-07 2.6266492173e-07 2.6937941594e-08 2.0699105864e-08 3.1909115697e-08 4.3339042795e-08 3.5415381877e-08 3.0455098901e-08 2.3828158704e-08 
2.8171275457e-08 3.858762893e-08 4.8929578303e-08 4.9342862217e-08 2.9681755957e-08 1.1525573701e-07 9.8853231139e-08 4.0736346859e-07 2.8203387127e-07 
2.0223828085e-07 3.1830703366e-07 8.9205595428e-09 1.2238762627e-08 8.0014933917e-09 7.9626485926e-09 8.4463649817e-09 9.6034779292e-09 8.3383643556e-08 
8.1208455198e-08 8.1584858269e-08 7.7331380814e-09 9.994287258e-09 8.2495812516e-09 5.9179868469e-08 4.8293508134e-08 5.5861585512e-08 6.0536990966e-08 
5.0928789527e-08 5.2797188874e-08 7.7193294456e-08 8.8176891012e-08 7.8945053056e-08 4.5049379348e-09 5.468753192e-09 2.1628136637e-09 3.5621949093e-09 
4.5265979656e-09 5.603795351e-09 7.5931527992e-09 2.0964322393e-09 3.7058233675e-09 6.240197004e-09 3.4846611988e-09 5.3672885696e-09 3.9247375673e-09 
3.9401176441e-08 4.2131090006e-08 4.5691934887e-08 1.5204346108e-07 1.5130259378e-07 1.8169947428e-07 3.696324813e-08 5.2650912535e-08 3.7352405576e-08 
5.8450027368e-08 5.6365252401e-08 6.1217298612e-08 1.0355131048e-08 9.7964055572e-09 8.7979859524e-09 6.3810730523e-09 2.8515233194e-08 4.8014205243e-08 
3.2655144882e-08 4.7450667957e-08 5.6265424705e-08 4.3870569722e-08 6.2192605302e-08 4.7030437142e-08 5.9497606573e-08 7.420270915e-09 7.9380728018e-09 
9.3334470694e-09 1.9842661599e-08 1.5113096778e-08 1.9682593872e-08 1.8214275008e-08 1.4257850558e-08 1.2922834316e-08 3.6311588046e-08 1.6496158612e-08 
2.3518635498e-08 1.7187193848e-08 8.451826865e-09 3.4883555265e-08 4.426862612e-08 4.7853286485e-08 5.5298658187e-09 4.9400420706e-09 5.7998174555e-09 
1.5094656392e-08 1.2576196484e-08 1.2309395125e-08 8.6202584189e-08 1.1240579679e-07 1.4270856384e-07 4.6097836099e-08 7.0807503848e-09 6.6851967039e-09 
6.1847806522e-09 4.5566289137e-08 5.2718696526e-08 5.8862697721e-08 5.968115933e-08 6.0345343155e-08 1.9486096317e-08 3.8082535953e-08 6.8022742966e-09 
1.3059814863e-08 7.5427842568e-09 5.3396793989e-09 1.1795637836e-08 1.0638654858e-08 9.5058010176e-08 9.0725514223e-08 8.2508554095e-08 2.0747167531e-08 
6.1185072595e-08 5.9481419209e-08 1.2158243792e-07 9.3207796925e-08 9.6635419995e-08 1.2573047404e-08 1.658670681e-07 7.423893206e-08 1.8049592513e-07 
1.9962654625e-07 2.7547574308e-08 1.775550967e-08 1.6751473965e-08 1.5969927185e-08 2.4244584927e-08 6.1507928916e-08 6.5084377819e-08 6.1707884816e-08 
5.1474118456e-08 5.3761447306e-08 5.7070132126e-08 2.6328967545e-08 2.0048886413e-08 1.9109565412e-08 7.4036139733e-09 7.0056635513e-09 6.9280922964e-09 
6.2212852368e-09 5.1550842771e-09 6.5647416941e-09 7.4689753646e-09 5.5327614317e-09 7.2140773347e-08 6.8974382314e-08 4.941792809e-08 6.1874903101e-08 
2.7380428346e-07 2.4486841248e-07 2.9246052543e-07 2.9174920216e-07 2.601343659e-07 2.2306497143e-07 1.1626248359e-08 9.3001771284e-09 9.5199771752e-09 
1.0696067631e-08 9.6946384624e-09 2.1197065451e-08 1.317851947e-08 1.1414947925e-08 1.4928325685e-08 9.1669503864e-09 1.1831172847e-08 1.2497441383e-07 
1.0473605315e-07 1.0585094176e-07 8.7223371459e-08 8.862919863e-08 3.2009063482e-08 1.7065645108e-08 1.4881592865e-08 2.4897909421e-08 1.1267807459e-08 
3.0476491939e-08 3.5893350374e-08 1.7442898929e-08 2.0023821921e-08 2.1915480793e-08 2.296198845e-08 2.4965528704e-08 4.0803010695e-08 3.5248525485e-09 
4.9852600192e-09 3.6333994589e-09 7.5778337179e-09 5.9356686606e-09 2.226852622e-08 1.5365708449e-08 1.8510965582e-08 4.4686805786e-09 3.5414342572e-09 
3.7424476119e-09 7.5044993888e-09 5.3897734247e-08 3.5002144382e-08 3.6216205372e-08 5.0455757036e-08 4.7803253912e-08 8.0077716117e-07 9.3870870697e-08 
9.7459490109e-08 4.8406746858e-08 4.8053843097e-08 4.0417618872e-08 4.6705473641e-08 4.4825875291e-08 5.4528922466e-08 1.5738089413e-07 1.2658644379e-07 
1.3211473662e-07 4.2639511762e-08 2.6350502894e-08 3.6256203197e-08 5.3847491998e-08 3.3751739959e-08 4.3313115143e-08 9.6068400928e-08 9.4570734329e-08 
1.2640310297e-07 1.1413956688e-07 1.2449207466e-07 1.0757937352e-07 1.1062094686e-07 1.5312167238e-07 5.5545531079e-08 4.8380046359e-08 5.2601194881e-08 
9.5423190739e-09 1.0598335173e-08 7.6690552788e-09 8.039690691e-09 7.6699003021e-09 2.0093066745e-07 9.0156727792e-08 2.326227593e-07 8.8501186724e-08 
8.1894936423e-08 1.1624296386e-07 4.3378892928e-08 5.3128952526e-08 5.2923620127e-08 1.2888100222e-07 3.0519744971e-08 1.1823403347e-08 1.5189354845e-06 
5.017514537e-07 3.4556794915e-07 3.3576045785e-08 2.6624422175e-08 3.0033271168e-08 3.7752306311e-08 6.3706791062e-09 1.0150167614e-08 1.1933648331e-08 
6.2987768478e-09 1.3638861696e-07 9.7063239246e-08 1.2308455977e-07 1.2192804945e-07 8.3513039225e-08 9.1585699267e-08 9.6326817411e-08 9.2246700596e-08 
9.9694695989e-08 8.7395660248e-08 7.4650001419e-08 1.3807503968e-08 2.6290133881e-08 9.5223401596e-09 1.9828977447e-08 1.9983808413e-08 5.3336748511e-09 
1.7651074066e-08 1.1592473672e-08 7.7046203915e-09 1.234663964e-08 4.5945541784e-09 5.8066542886e-09 3.3057160761e-09 3.0083103302e-09 3.9481156334e-09 
5.4929553569e-09 1.6701964452e-08 2.5742567858e-08 1.2860459798e-08 1.761346904e-08 2.8589055442e-08 3.0903489242e-08 1.989741323e-07 1.623856602e-07 
1.5698332637e-07 1.4586944743e-07 1.0506684281e-08 1.747437242e-08 2.3043211272e-08 5.7778457934e-09 2.9724935397e-09 4.7805597842e-09 5.8800952036e-09 
3.2075073575e-09 4.8479725752e-09 7.2000733607e-08 7.4715028656e-08 7.8392987478e-08 8.354708244e-08 6.7269390255e-08 2.5076433385e-09 4.6267314339e-09 
1.9936946695e-09 2.1842005483e-09 4.4545071822e-09 5.2410590935e-09 1.145992926e-07 1.8503841018e-08 4.0274277225e-08 2.52691526e-08 7.1729718826e-08 
8.3835497805e-08 6.1342672878e-08 8.4000399462e-08 6.9093438962e-08 7.2993720917e-08 5.0739203712e-08 4.5338670953e-08 4.8891059048e-08 4.0543343238e-09 
8.9356083237e-08 6.6025381239e-08 2.681320647e-08 1.8591075573e-08 1.333045469e-08 3.1689998586e-05 4.3619568399e-05 3.7573869388e-06 6.0543718687e-06 
8.1385247628e-07 3.7304600923e-08 4.535425258e-08 5.2796051006e-08 6.3690744734e-08 5.1232478172e-08 4.2882932591e-09 2.9387510053e-09 4.5493556097e-09 
6.9974271059e-08 6.5143416816e-08 6.738440152e-08 3.0257805422e-06 4.7723802435e-06 1.3668372096e-08 1.787022582e-07 8.7015695656e-08 1.0936925663e-07 
1.0032723531e-07 8.216230874e-08 9.5768266108e-08 8.0776460587e-08 1.1180786277e-07 1.1003496496e-07 9.9939643922e-08 9.2729856114e-08 9.2294351692e-08 
6.292771627e-09 6.5889301174e-09 1.484874535e-08 6.9946066618e-09 1.7562037954e-07 1.8703256387e-07 1.3453675826e-07 3.1421996622e-09 5.4178700102e-09 
3.8932823444e-09 4.2314155145e-09 4.9681668437e-09 4.2251721393e-09 1.6171443831e-07 3.5112501572e-08 2.3353892804e-08 1.3069318608e-08 3.4189944176e-08 
2.1668110588e-08 4.386901494e-08 5.5928914075e-08 2.9781811472e-08 4.135097753e-08 4.6857039694e-08 2.359282229e-08 3.5757843386e-08 6.6950483233e-08 
6.2269902814e-08 6.0410202481e-08 3.0282932488e-08 6.4744595454e-09 7.0523280716e-09 7.2095662517e-09 7.0037209297e-09 6.4330934965e-09 9.0897008378e-09 
9.3988588301e-09 1.4859869113e-07 1.1312572753e-07 1.5213524804e-07 3.8352088774e-09 2.301547906e-09 6.5547624508e-09 8.9271385243e-09 8.2493461062e-09 
5.9440140378e-09 9.5303448585e-09 8.2903583109e-09 1.5147720524e-08 3.3368884318e-08 2.0436626468e-08 2.0735089788e-08 3.2594818149e-08 1.2207196326e-07 
3.095705522e-08 4.689993676e-08 9.2352064882e-09 9.51672265e-09 7.0744448634e-08 8.217355964e-08 7.6353100629e-08 9.1869456772e-08 8.839175546e-08 
1.029484801e-07 1.1895912951e-07 2.4646352589e-08 2.5575229878e-08 2.4183073325e-08 3.5534111815e-08 3.6466109178e-08 5.9784006194e-08 6.6174134492e-08 
1.7078385253e-07 1.8017541093e-05 2.3281351023e-05 1.2675686255e-05 2.545946446e-06 2.5873583265e-08 2.3168701642e-08 3.6583933889e-08 7.6187314511e-08 
2.1810131348e-07 1.8376485606e-07 4.8595710596e-09 5.312444832e-09 4.4811436805e-09 1.3262772747e-08 9.2120315449e-09 8.3733938151e-09 8.3457674921e-09 
9.0109786824e-09 1.0223387014e-08 9.1005570107e-09 8.3573268864e-08 1.0516551545e-07 3.7039811389e-09 2.8418761699e-09 5.8498322385e-09 5.6215698259e-09 
6.7280848947e-09 5.4297441143e-09 5.1051049106e-09 7.6173683338e-09 2.6721140374e-09 3.2329681763e-09 3.6809818621e-09 6.2482109323e-09 3.3185369115e-09 
1.2678236753e-07 1.3344478415e-07 1.1471967645e-07 9.9652754887e-08 9.0297815701e-08 5.5784186563e-08 6.7724818806e-08 7.6506079639e-09 7.8066969212e-09 
9.1351017145e-09 2.1127927184e-08 2.249853392e-08 1.3695389877e-08 9.7490401055e-08 1.3068491613e-07 7.9000727406e-08 1.5838610306e-08 1.641343226e-08 
1.400827916e-08 1.1904451305e-08 4.9487729127e-09 7.2781265509e-09 4.5618020688e-09 3.7164641675e-08 3.2942954701e-08 4.7832650791e-08 4.2083953535e-08 
5.5664367929e-08 7.0149804106e-08 8.6282279688e-08 6.7113157958e-08 8.5140632589e-08 5.7575050136e-08 3.5711509177e-09 4.927455472e-10 8.1543442414e-10 
2.1553397168e-09 1.5092590576e-09 1.309092584e-09 2.2812361033e-07 1.7041116642e-07 1.5795902198e-07 1.1490617216e-07 1.1585617449e-07 5.0685641545e-08 
5.9911888602e-08 5.9016590288e-08 7.018053344e-08 5.3169720544e-08 6.1724116504e-09 6.5308294057e-09 4.2933258698e-09 1.2799762628e-08 3.7764830717e-08 
5.6936966732e-08 4.3448550043e-08 2.9736654719e-08 3.4931446657e-08 4.1804199049e-08 1.0910043791e-08 1.840166007e-08 2.6942646415e-08 3.3354791674e-08 
2.207724133e-08 5.840050677e-09 4.1863832483e-08 3.5179203676e-08 5.0443764662e-08 7.0047382047e-08 6.6551796125e-08 8.029668903e-08 1.4307846417e-08 
8.8407650016e-09 5.4265314211e-08 6.6051387898e-09 7.21247591e-09 7.328380328e-09 7.1171193118e-09 6.7612504611e-09 7.6191066054e-08 4.0095246882e-08 
5.5521974385e-08 1.573145357e-08 1.8538424765e-08 1.4637781456e-08 1.535205238e-08 1.0461391337e-08 1.2530666046e-08 1.9552967525e-08 1.3256994398e-08 
1.5837888101e-08 2.5404158475e-08 7.9753320806e-08 7.3179665289e-08 9.1639509572e-08 8.5780848919e-08 2.8739259292e-08 2.4543018453e-06 9.4342233819e-06 
1.0831553669e-08 1.3314680604e-08 2.8860751985e-07 2.5084459798e-07 2.1091690929e-07 5.0724895339e-09 3.5819444018e-09 6.9272325567e-09 3.8032535288e-08 
6.1390318982e-09 6.6960387815e-09 2.117629683e-09 2.2305581544e-09 1.0291656245e-07 9.5473459105e-08 7.6876423149e-09 1.3066825762e-09 3.1536115003e-09 
1.3652483968e-09 3.8497831752e-08 3.0262086269e-08 3.154601745e-08 2.8017891243e-08 2.1772340068e-08 2.8646178421e-08 9.684350686e-10 1.1483148147e-09 
3.2692715247e-09 6.2627015991e-08 6.9774446857e-09 1.0032806602e-08 5.041778154e-09 5.9429967854e-09 1.0363983719e-08 1.0565512935e-08 1.9126591137e-08 
2.7125648455e-08 3.2315198164e-08 2.4619808037e-08 1.1299148919e-07 7.9733098488e-08 7.8566107362e-08 7.6356375822e-08 7.3465869593e-08 4.6684153081e-08 
3.565913206e-08 4.4198937957e-08 3.2863804061e-08 3.423887216e-08 2.4450526071e-08 6.4736587781e-08 8.3896363887e-08 8.5773182113e-08 9.6985861038e-08 
7.8665106957e-08 2.9191736603e-08 4.8436264623e-08 2.5904825094e-08 2.0236725818e-08 3.9926820022e-08 4.2602676145e-08 4.0864969045e-08 3.5920328241e-08 
6.1666727821e-09 7.082978701e-09 5.2024555436e-08 6.0014916356e-08 6.3253788626e-08 4.0734016043e-08 4.4731221543e-08 7.1527871766e-08 8.4225897398e-08 
5.8711150151e-08 8.3137292272e-08 9.7073123549e-08 1.6886684439e-08 1.0125616139e-08 3.1117269976e-08 2.545438931e-08 1.5160391129e-07 1.4527570767e-07 
1.6860485154e-08 1.5077725102e-08 1.7797136467e-08 6.9815507225e-08 5.8977160658e-08 1.1355085178e-07 8.582692194e-08 9.2094567233e-08 1.0177726757e-08 
3.0626437883e-08 7.0966364999e-09 1.7226342367e-08 1.5029855427e-07 2.3613365295e-07 6.4538829414e-08 8.1778359728e-08 6.9302268246e-09 1.8489344357e-08 
1.3046499293e-08 2.3920165535e-08 2.895563532e-08 2.2606099457e-08 2.6884994823e-08 3.299738642e-08 3.4293957233e-08 1.434825753e-08 2.7362692745e-08 
1.8777480426e-08 1.5500026092e-08 1.2412368244e-08 1.575261171e-08 1.138980534e-08 8.3545001657e-09 8.7725731439e-09 4.2609486224e-08 4.0532860256e-08 
3.8760981416e-09 3.5780602668e-09 1.0066740463e-07 9.0491176905e-08 2.2435178684e-08 2.9138477818e-08 1.6141075347e-08 9.3900737976e-07 9.6664003272e-07 
1.6461607105e-08 1.2653612986e-08 1.3553308705e-08 2.3896491183e-08 1.0809465819e-08 8.4050983468e-09 9.5966732854e-09 1.0104310101e-08 8.6196142658e-09 
5.0846656041e-07 6.1646211396e-09 5.8815028058e-09 5.0396845967e-09 2.1149626446e-08 2.5555513738e-08 3.4255161103e-08 5.1651111465e-08 3.0759361064e-09 
5.9212103662e-09 4.1615241208e-09 3.7804045753e-09 7.6068232205e-09 4.2610965707e-08 5.1747957619e-08 7.6626415595e-09 9.8775937235e-09 1.128401391e-08 
1.0041300044e-08 1.0449944969e-08 1.2295848545e-08 1.2124610919e-08 1.1039261366e-06 1.1765062327e-05 6.0011209192e-07 6.5431394711e-09 7.2331684909e-09 
3.5151510608e-09 6.9547732175e-08 5.9088386987e-08 6.6375146236e-08 3.2484592261e-08 3.6061670324e-08 1.3785944921e-08 1.351259011e-08 1.4726542303e-08 
5.7846078372e-09 3.901216172e-09 5.1845615327e-09 8.1793744408e-09 5.5418775319e-09 5.7567780826e-09 6.8050616429e-09 4.1214933255e-09 6.8943014256e-09 
7.9166149641e-07 1.046814637e-06 7.2747594601e-09 7.8556846265e-09 2.0507156459e-08 2.2826401802e-08 1.6507413711e-08 9.7066836642e-08 1.9589303689e-09 
3.1864042933e-09 3.9316443183e-09 3.5444449842e-09 2.8107292671e-09 2.7866851287e-08 3.0786321096e-08 7.3543567481e-08 8.1145676322e-08 1.6601555686e-08 
2.2483301944e-08 2.5188477424e-08 2.9513185228e-08 2.2741045394e-08 1.8574248411e-08 3.1273473211e-08 1.5891543836e-08 3.620987467e-08 9.9655057232e-08 
1.7975075744e-08 1.4541748202e-08 2.4093495979e-08 5.2229361343e-08 4.4022643942e-08 4.6557611568e-08 2.0235513661e-06 6.3564311266e-07 4.1464825899e-08 
2.8346031435e-08 1.9493979655e-07 1.5606232217e-07 1.1321087445e-08 3.2230784866e-08 5.0741470883e-09 5.5531031714e-09 3.6912375259e-09 6.7025288745e-09 
1.6121480463e-08 2.3974042078e-08 2.6923757827e-08 5.0669358548e-08 1.331122515e-08 2.5033316792e-08 1.3758204514e-08 2.2819246984e-08 6.5425580506e-09 
1.0897237553e-08 9.9585991945e-09 1.1476140185e-07 5.9676686361e-09 2.3225337722e-09 4.1574360929e-09 5.6014295309e-09 4.135443779e-09 5.5215300914e-09 
4.8948684508e-09 5.3308095591e-09 4.9404715863e-09 1.0173142211e-08 9.4009882789e-08 4.5619313691e-08 4.7766606042e-08 5.6459019064e-08 4.8098909001e-08 
6.9301313339e-08 1.9802378958e-08 2.3598062833e-08 6.2642092848e-08 5.2349531181e-08 3.0273888252e-07 2.3384383148e-07 3.4510864432e-07 3.2264505163e-07 
1.4272124341e-07 1.2534420267e-05 1.3208602857e-06 1.6374881238e-05 2.0392712573e-05 1.260734744e-06 4.254594292e-08 3.6737252686e-08 4.5080593834e-09 
5.0001454947e-09 9.113659558e-09 3.3751499401e-09 9.0823510245e-09 4.6521043171e-09 8.5299587782e-09 1.0439106863e-08 5.21396491e-08 7.5403224901e-08 
5.3533640629e-08 4.6187866488e-08 3.8071110719e-08 4.6348561191e-09 5.3147328085e-08 4.6986216074e-08 6.4589526553e-08 7.3374973462e-08 5.1632442882e-09 
3.3786283302e-09 3.0409729886e-09 5.9890160319e-09 4.9212062529e-09 7.357627989e-09 9.280665474e-08 6.8841298892e-08 8.888439622e-08 4.0438909362e-08 
4.8138135836e-08 4.149093025e-09 7.3427057203e-09 2.1170387441e-08 4.0911759742e-08 4.4654391077e-08 7.1835297671e-08 7.7372877003e-08 2.5664943081e-08 
2.2254405484e-08 6.8615632459e-08 8.5363824324e-09 1.4673702384e-08 5.9506310234e-08 7.7403034237e-08 7.7831883534e-08 5.7993587502e-09 1.0194370938e-08 
5.0546011198e-09 1.2055051089e-08 4.6947103548e-08 5.6512859896e-08 5.3147993791e-08 1.9566448686e-07 1.2642809584e-07 1.5103027343e-07 1.2340683292e-07 
6.0664595336e-09 5.0936817072e-09 4.4720119788e-08 5.1611619056e-08 3.7968113506e-08 1.0249517716e-07 3.593157587e-08 3.6365775012e-08 4.732039285e-08 
4.7449113523e-08 1.0167362768e-07 1.51026748e-07 1.5170179649e-07 1.254546148e-07 4.6550644947e-08 4.7580956737e-09 4.1249448272e-09 5.3466400905e-08 
6.4972944091e-08 5.9699381985e-08 8.1514323809e-08 3.0958234086e-08 1.6342361778e-08 9.7094864256e-09 5.2953701777e-09 1.0258568865e-08 9.498966183e-09 
5.9498770924e-09 1.8254029526e-08 9.1571188124e-08 8.4907366731e-09 9.8690959074e-09 7.3434750755e-09 4.9456356052e-08 3.2644429482e-08 8.9680557642e-09 
9.275739084e-09 6.0049818947e-09 6.8018698869e-09 4.2879751532e-07 1.9700571019e-07 3.8099705931e-07 6.960346658e-07 5.8191222275e-09 1.0470377305e-08 
2.1669112813e-08 4.7742818063e-08 3.0789205926e-08 4.1719547997e-08 4.7256583235e-08 3.7210501914e-08 8.1706014241e-08 5.7453835733e-08 9.5316695578e-08 
1.8581909105e-07 2.3850877361e-07 1.7261804174e-07 2.1700163355e-07 3.6076236797e-08 1.730235541e-09 4.377011758e-09 2.0829072055e-09 2.1139574636e-09 
5.0341586784e-09 4.3377772161e-09 4.7431037755e-08 2.3538188985e-08 7.0758658701e-09 8.7364249936e-09 7.6761263223e-09 1.4341319325e-08 2.2730412222e-08 
3.533396929e-08 5.0055498146e-08 5.7529604547e-08 7.6278711809e-09 6.3621534892e-09 7.6710377099e-08 8.4683313396e-08 6.6474770633e-08 3.9394021756e-08 
3.1047495752e-08 3.2286884264e-08 5.0501007697e-08 1.3033190297e-08 8.3898901495e-09 6.7371984126e-09 7.7564075449e-09 9.4299416158e-09 4.8153881271e-09 
7.5363000485e-09 7.0259806469e-09 2.5489453786e-09 4.5755134354e-05 8.0477531748e-08 7.4703275834e-08 8.3533047665e-08 6.3704781156e-08 6.4529792343e-08 
4.9882849272e-08 4.5504566379e-08 5.1684225326e-05 4.149249365e-06 2.5081007304e-08 1.0022593253e-08 1.313032311e-08 1.787786494e-08 1.1964505373e-07 
8.7040296588e-08 1.029865367e-07 6.802917868e-09 2.8508494914e-07 2.0408504391e-07 1.868818615e-07 2.4078942969e-07 2.353242967e-07 3.6859465181e-07 
3.9069432282e-08 2.8103744496e-08 3.966461584e-08 4.5738191388e-08 3.277520876e-08 3.1541456753e-08 2.0796372058e-08 2.2059559868e-08 8.0047792808e-08 
6.6647122357e-09 7.9829986067e-08 1.3449642399e-08 9.0696838895e-09 1.4904325918e-08 1.1312827608e-08 1.6218632799e-08 5.3211637239e-08 3.4416355478e-08 
4.2935320641e-08 9.747653557e-09 1.1662754625e-08 1.4258953997e-08 1.7529260032e-08 7.5400690209e-09 5.9963226452e-09 6.0982402437e-09 3.8747235458e-09 
4.5468103891e-09 6.5150468389e-09 1.0722832657e-08 6.2269640653e-09 3.8814670604e-08 5.8897469912e-08 3.8347911592e-08 3.3368317087e-08 3.8781184093e-08 
9.6860817632e-08 8.4968861507e-08 6.5827967821e-08 4.9983286949e-08 6.9814315522e-08 8.3573343639e-09 7.516439546e-09 1.4815660179e-08 2.5506294897e-08 
7.2544786379e-08 8.131759986e-08 7.7495298297e-09 8.5831804204e-08 1.0588323906e-07 7.4218122877e-08 6.5520882308e-08 5.4377025205e-08 6.1351353e-08 
7.7403822332e-08 1.7320658705e-08 1.6048440939e-08 2.8201635769e-08 1.4671724187e-08 1.1495623978e-08 1.3774258505e-08 9.764494998e-09 1.4777064543e-08 
1.1394539169e-08 7.0450715843e-09 8.4599623513e-08 9.1844126803e-08 1.3705081012e-05 6.9932881445e-06 2.7596222763e-08 3.3328352044e-08 5.7623812583e-09 
7.3134139215e-09 3.2622393891e-09 2.7990458067e-09 9.4244012601e-09 4.9167712097e-05 1.3478228128e-05 5.5748922177e-09 3.9321522063e-09 5.9568872965e-09 
4.2390982133e-09 5.0366416788e-09 9.5624147133e-09 3.9300563421e-09 6.0639420633e-09 3.1615064257e-09 1.6066398692e-09 1.2015442564e-07 1.7766222912e-07 
1.0907293158e-07 8.6307794014e-08 8.5984453855e-08 4.0358033089e-08 5.8943635899e-08 7.3935418121e-08 1.967090218e-07 1.5731587747e-07 3.8495283611e-08 
3.8236486472e-08 3.4443489855e-08 3.5059049943e-08 5.2512152227e-08 1.4508681173e-08 1.094174893e-08 9.1118280989e-09 1.1556515155e-08 1.3001118611e-08 
1.032206606e-08 9.9826483105e-09 1.2210240726e-07 2.1756037745e-08 2.6577457042e-08 1.3274582189e-08 1.5794738113e-08 1.6292590813e-08 5.2894360549e-08 
1.518313464e-07 1.2325357997e-08 1.0497594279e-08 4.6006166631e-09 3.0254981145e-09 6.1395149373e-05 4.9543342915e-05 1.8945286027e-05 6.0509365584e-08 
5.2650392367e-08 5.1434009179e-08 1.1484955618e-08 4.3443007596e-08 7.8349246826e-08 1.9107974972e-08 2.2255646394e-08 1.1195238433e-08 6.9433956956e-09 
4.9520023395e-08 9.8907763508e-09 2.0295203397e-08 5.888468744e-08 5.1476319179e-08 5.2324403091e-08 1.1388781154e-07 8.0491942156e-08 8.3330942409e-08 
6.8928530108e-08 9.1302705806e-08 3.2188078988e-09 6.7444388023e-09 5.3168625678e-09 3.440773618e-09 6.5602795126e-09 1.887738087e-05 9.7369611139e-09 
7.509934801e-09 2.3789829898e-08 1.821333434e-08 1.6180154538e-08 2.3358614946e-08 1.7337383446e-08 2.0560098898e-08 2.7335416872e-09 4.8855383151e-09 
3.1427190848e-09 3.9509264071e-09 7.2141259413e-09 1.0438739968e-07 1.6622095087e-07 1.6751020132e-07 3.1707570304e-08 3.8998738452e-09 4.3103787605e-09 
3.9420715935e-09 3.7752340429e-08 5.3407038061e-08 4.4009332232e-08 2.5442983229e-08 3.1471617899e-08 2.3158220115e-09 9.5418692299e-08 5.9029861993e-08 
2.6352465745e-08 2.1976777326e-08 6.7471520086e-08 6.2365632385e-08 7.645343781e-08 1.9365052963e-08 1.1215933955e-08 7.7053843325e-09 5.6439052241e-09 
4.0610345493e-09 3.8846235362e-09 3.1440748887e-09 4.2909351186e-09 4.1687004534e-09 1.2176007916e-07 2.3846087873e-09 3.976401156e-09 1.0729646751e-07 
1.3545586376e-07 8.643252244e-08 9.3045291798e-08 4.382455119e-08 6.7981386164e-09 3.8257549574e-09 7.1784798525e-09 4.4993841344e-09 2.6232463623e-08 
6.105523033e-08 7.9416366174e-08 1.0059478919e-07 7.8828450545e-08 7.1934002579e-08 7.6469148268e-08 5.802756276e-08 4.5891894842e-08 4.0118153338e-08 
3.7483255213e-08 2.3459061779e-08 1.1550800087e-07 1.2903031961e-07 1.1092551802e-08 1.492821312e-07 1.301330519e-07 1.0948299986e-07 7.472584098e-09 
6.001590034e-09 1.0937858168e-08 2.8300630864e-08 1.8576000431e-08 2.0916025757e-08 2.2484879567e-08 3.1204559901e-08 2.9775893431e-08 1.9278368705e-08 
2.7807579143e-08 7.93050517e-09 1.0360145685e-07 3.7618774297e-08 3.9865298409e-08 2.0101660746e-07 1.7791974184e-07 1.3497584473e-06 4.111339817e-06 
2.6605956989e-05 1.0753564793e-06 7.9847990579e-07 1.9871025958e-08 4.0386957155e-08 3.2778717069e-08 2.9071075013e-08 2.0289286702e-08 1.0766878649e-08 
2.7685693504e-08 1.4185851081e-06 7.3958417939e-09 8.3755987312e-08 3.8188521316e-06 3.5605695542e-08 1.8139673819e-08 3.9853062381e-08 3.9732817305e-08 
1.1742130891e-08 1.0794516328e-08 8.4533305817e-09 8.4012132249e-08 7.7726397168e-08 3.1003983515e-08 5.8821050006e-09 4.6845322939e-09 6.692887061e-09 
3.9141023931e-09 2.402212029e-08 6.7906521082e-08 7.6954224392e-08 7.0611983692e-08 8.4693910232e-08 2.3162709946e-08 7.4882756654e-08 3.6662898044e-09 
1.3621644983e-08 6.6738131074e-08 7.2155249679e-08 6.7727330672e-08 5.3618829066e-09 3.852313675e-09 5.7360080145e-09 5.1082784779e-09 9.1772891679e-09 
8.1859127478e-09 2.4380635013e-08 3.0346397284e-08 8.6936163424e-09 8.9131940333e-09 1.39662305e-08 7.6773785116e-07 1.7606956088e-08 1.1602154576e-08 
3.2695127633e-08 3.8359671087e-08 1.1744285683e-08 8.2582590193e-09 2.8115215636e-09 2.1736525725e-09 6.611800167e-08 7.0739347333e-08 7.7056785797e-08 
6.3654648974e-08 7.8813999253e-08 7.3378549279e-08 8.5134744831e-08 3.1119000976e-08 2.0559265686e-08 2.0529793473e-08 1.8657682901e-07 1.6449250285e-08 
1.3838119319e-08 9.0376408733e-10 2.6258996639e-09 1.7724879971e-09 1.2009196804e-09 3.1736470484e-09 2.068631647e-09 7.3857540178e-08 7.6669085487e-08 
8.2662596683e-08 6.4652666795e-08 4.9721592556e-08 8.182287196e-09 1.3804164948e-08 1.3039176236e-07 1.9186991429e-07 9.7050316239e-08 7.9567808013e-08 
4.0516377613e-08 8.6084206239e-09 7.487681732e-10 2.8977498538e-09 6.9078314729e-08 7.9056924162e-09 7.1894654417e-09 2.8914501965e-07 2.3659891578e-07 
1.4914085507e-08 3.0003805701e-09 2.4564755754e-09 4.3035437207e-09 2.6538569868e-09 5.2039813963e-09 2.9478484717e-08 7.4716495941e-09 2.469900354e-07 
9.379839129e-08 9.9164066989e-08 1.0507812785e-07 1.3269569954e-07 1.4387445992e-07 1.1507796215e-07 1.502547662e-08 9.2001194313e-09 3.6834241745e-08 
2.4757035632e-08 2.4771858126e-08 6.0652513337e-09 5.4970997082e-09 4.4917175735e-09 6.9020316958e-09 4.0867465439e-09 2.6140142637e-09 7.8895973872e-08 
1.0080826407e-07 1.3263523476e-07 5.2182236489e-08 7.818335318e-09 6.2413223582e-09 7.4966241112e-09 7.0497918624e-08 6.7207907772e-08 8.3969291832e-08 
6.4483767066e-08 1.4923332661e-07 1.1785990863e-07 1.2826247648e-07 2.0382283677e-07 1.7710223319e-07 1.8404733758e-07 9.7045458012e-09 8.4069696236e-09 
2.6033135704e-08 8.8074632159e-09 6.0653918131e-09 1.7140775295e-08 4.2093128891e-08 4.4041335084e-09 3.7488269368e-09 4.5465921243e-09 8.2753218794e-09 
7.6912066034e-09 6.8684049562e-08 5.8757624505e-09 4.6120593283e-09 4.0013012066e-09 6.8747652159e-09 7.6674554325e-09 6.5052070662e-09 3.3774767046e-09 
2.7108108797e-08 2.9107924844e-09 1.385197808e-08 1.4962718879e-08 1.6151466984e-08 1.8840301256e-08 2.0436365101e-08 1.6500468244e-08 5.3167290276e-09 
6.6772553083e-09 4.9572086305e-09 3.4017925183e-09 3.071806309e-09 8.9033107334e-10 8.2458837369e-08 8.3088361202e-08 1.0488995672e-08 3.9091790896e-08 
2.8009569005e-08 1.6675667618e-08 3.8961608707e-08 2.7275251454e-08 4.7331014686e-08 1.3309544658e-08 1.2997675393e-08 9.0032188282e-09 6.7163621315e-09 
6.7025792549e-09 6.3196022382e-09 6.8584798638e-09 2.1759107046e-07 5.6545932027e-08 6.4040541644e-08 5.9181333796e-08 4.4752366936e-09 4.842304687e-09 
1.1438568975e-09 2.1344383322e-09 3.4497366385e-09 2.6628583852e-09 2.8554805509e-09 1.3355753619e-07 1.6742594169e-07 2.0391506795e-07 1.8525827923e-07 
6.0656004209e-10 8.0624096741e-10 2.0227882332e-09 1.2270171807e-09 9.7114344319e-10 1.1300790575e-08 2.5762496484e-08 2.3214375968e-09 2.5860531263e-09 
4.3162199217e-09 4.40476687e-09 3.1004237593e-10 5.3383373506e-10 1.380620118e-09 7.9499265402e-09 6.6075701318e-09 1.6652410774e-08 2.2400856504e-08 
6.2323742806e-09 4.318326406e-09 8.4737428328e-08 8.336052734e-08 6.5669282083e-06 1.3868490371e-05 1.0801915037e-07 1.0751737593e-07 3.7299916957e-08 
5.3465523355e-08 2.9336003763e-09 4.4813984366e-08 4.0968173121e-08 2.9197851128e-08 4.1869550995e-08 5.7314101736e-08 3.8507563867e-08 1.2107535761e-08 
1.13307528e-08 1.3772350214e-08 1.3112906767e-08 4.0748022362e-09 5.9159787976e-09 8.3836345651e-09 5.1651003264e-06 6.1620415791e-08 1.3466128991e-09 
3.1444912476e-09 1.0680536708e-07 1.0278424517e-07 1.2007494993e-07 6.793744484e-09 1.4640045191e-08 2.1708317182e-08 1.7597778483e-08 1.4439522414e-09 
5.7036344828e-09 2.9255495902e-09 7.0245931949e-09 1.0582796711e-07 9.2528197947e-08 2.7827748177e-07 2.8561211505e-09 2.3944123178e-09 1.2974341811e-07 
6.6613867394e-08 5.9862231279e-08 6.1369394108e-08 9.5530770948e-08 1.2708245552e-07 1.1424376641e-07 2.4151394549e-08 1.712788752e-08 4.8647408675e-09 
6.1233239646e-09 8.848532427e-09 1.1030890519e-08 5.3638001429e-08 7.743419071e-08 6.8818328482e-08 4.035754308e-08 4.9078064228e-08 9.7470864953e-09 
5.3130778408e-09 8.5403565041e-09 5.1216520973e-09 5.3199698429e-09 7.95145495e-09 2.767134772e-09 5.7800686379e-09 7.9574689189e-09 5.9382215487e-09 
8.5376208396e-09 1.3284881443e-08 2.8176902072e-08 1.7092968438e-08 2.0470967919e-08 5.186108468e-09 8.4003292648e-09 9.2067405628e-09 5.3462354881e-08 
1.1001702274e-07 1.1093395469e-07 4.8917682506e-08 3.4627030916e-07 3.4076019843e-06 4.0047852883e-09 5.9044189643e-09 4.051686585e-09 2.9208878378e-08 
7.6062864473e-09 5.4405487853e-09 6.11890699e-08 5.0562980257e-08 5.9076914391e-08 4.9584749442e-09 6.6330313746e-09 1.4474693866e-08 9.0956376119e-09 
1.0710574547e-08 2.1683319313e-07 1.4576679959e-07 5.9853473059e-09 2.3682677777e-09 3.2715230623e-09 1.3565705265e-07 1.4696221737e-07 5.0007652201e-09 
3.9448029012e-10 7.7700830388e-10 2.9388716783e-10 5.3020235999e-10 8.2118121842e-08 8.1482929249e-08 7.5170996418e-08 2.5411361884e-08 2.5311149e-08 
2.1466129606e-08 2.8031334504e-07 6.789477635e-08 1.3780192311e-07 7.0551185389e-09 2.9784484754e-08 1.2036637253e-08 3.3296726786e-08 2.5489520368e-08 
4.1888266457e-08 4.1664296893e-08 6.7246819251e-08 5.1539683245e-08 2.6202589124e-07 1.3614121039e-07 1.5438944917e-06 4.7244434226e-08 5.0035722686e-08 
5.365983086e-07 7.4400363467e-07 6.707004387e-07 9.9770597062e-08 9.9580486961e-08 1.1160756477e-07 7.8690700207e-09 9.997506348e-09 5.6226588601e-08 
3.6140427908e-08 4.5224015785e-08 4.3216975382e-09 4.5215218475e-09 8.1109681336e-09 1.9625357852e-09 3.2222254368e-09 7.0804846193e-08 2.8668067124e-09 
3.1831127874e-09 5.1865369506e-09 8.8841702421e-08 1.0682816619e-07 9.0161823164e-08 7.8799294196e-08 8.2007296181e-08 6.7152533448e-09 1.5325710944e-07 
5.8038672066e-08 5.352381882e-08 6.5640134784e-09 2.8310214506e-09 9.7168360672e-08 1.1738290585e-07 7.8123696844e-08 7.5315390365e-08 7.8328016896e-08 
7.3684594976e-08 6.9726764958e-08 9.6399876958e-09 7.3728827528e-09 6.6007143434e-09 5.6514416458e-09 3.2823337833e-09 6.3363897273e-09 5.8567071455e-09 
8.1066021556e-09 1.3236587064e-08 3.6472902318e-08 2.8742500264e-08 2.2577036986e-08 1.6766994231e-08 6.0672024194e-08 2.9635410164e-07 1.9500576369e-07 
1.9195831029e-07 1.0544242715e-07 2.6363832957e-07 1.4505242382e-09 1.9821120465e-09 2.3257588904e-09 3.5801594839e-09 2.4687130416e-08 2.6969107591e-08 
6.7182214288e-08 8.4968520147e-08 7.5970081607e-08 6.5913221282e-08 5.7106847119e-08 1.3756880702e-08 1.1594721046e-08 1.4806173939e-08 6.2850250945e-08 
5.1529585531e-08 3.5608851639e-08 4.1190156176e-08 3.3506066672e-08 6.999017159e-09 6.0951119988e-08 5.2069943099e-08 5.6439507643e-08 5.6420091773e-08 
4.7121506973e-08 2.0647688109e-08 2.2726066602e-08 3.1850959716e-09 4.4771717187e-09 7.5707351789e-09 1.3395034553e-08 7.1564325967e-09 5.7443134161e-09 
1.6532122098e-07 3.7993960945e-08 2.216551219e-09 2.4584762609e-09 1.5270259122e-09 3.6114288496e-09 8.8637567958e-07 3.9098967801e-07 1.8632225002e-06 
9.5388591111e-07 8.30862683e-09 6.2084238674e-09 9.7363507432e-09 1.9860707643e-08 5.1072575769e-08 6.3279284961e-09 4.8250858171e-09 3.9119728069e-08 
6.5442679791e-09 8.1013334196e-08 7.4182554184e-08 1.9680031548e-08 1.0817746502e-08 8.4921238257e-09 5.3966536079e-09 5.7559458447e-09 6.1930541398e-07 
3.2087065906e-07 2.1430543654e-07 1.52055154e-06 2.0250203043e-07 1.82602527e-08 2.3649116456e-08 5.7787401196e-08 4.0732067373e-08 5.551034547e-09 
1.6011955928e-08 7.3671383087e-08 3.8396667411e-09 3.8627956187e-09 3.0559565562e-09 1.8254888404e-09 1.111818537e-07 9.5839118901e-08 2.2563702105e-07 
8.3930227853e-08 4.6105108444e-08 6.4645517713e-08 6.4543709858e-09 4.2206520608e-08 1.9017160824e-09 8.2278070429e-09 7.797256921e-09 8.2474415652e-09 
7.6150322354e-09 8.4872390669e-09 1.6812272543e-06 7.3794314089e-07 6.1935858277e-09 1.1969930574e-07 1.6434883205e-07 1.3856769706e-07 1.0815612224e-07 
7.3710817079e-09 6.9588918212e-09 1.5123161944e-08 1.2890520238e-08 1.3161008757e-08 5.2796321413e-09 5.3127100447e-08 5.3059204382e-08 4.3725215039e-09 
3.8930607038e-09 6.9782659676e-08 9.9753428028e-09 6.151418684e-08 4.4136400943e-08 6.0435884414e-07 7.9289675541e-07 1.7845261999e-09 1.1944122583e-09 
2.559509853e-09 7.8639867046e-08 6.6954820105e-08 8.0756864211e-08 8.7980515436e-08 7.1126984802e-08 4.8238838408e-08 6.8076395401e-08 8.7014561416e-09 
1.079049705e-08 9.9872335468e-09 8.9564034027e-09 1.5841742534e-09 7.8892003702e-10 1.0766876049e-09 2.0339965745e-09 9.2060633609e-08 8.1141304608e-08 
7.8585287878e-07 2.1475327297e-07 3.4817443885e-07 4.6130375299e-09 5.1469855616e-09 1.1923866461e-08 1.4460183444e-08 4.316208655e-09 1.4571233589e-07 
1.3920820167e-07 1.1891207238e-08 5.5216458156e-08 5.3608585629e-08 6.5676148257e-08 8.841393861e-08 8.2338169946e-08 9.3150013239e-08 1.1284360303e-07 
3.5551941652e-10 2.7380165495e-10 1.023792076e-09 8.1820678002e-10 6.4406280678e-10 1.1155116114e-09 1.219360365e-07 1.5379944981e-07 7.1143380179e-08 
6.480000858e-08 1.0519274347e-07 9.273335268e-08 8.975776799e-08 1.0981318321e-07 2.5670057112e-07 2.0768596961e-07 6.3296730514e-07 1.1446564855e-06 
1.3286696226e-08 1.1860021912e-06 2.3354005983e-06 7.7389276909e-09 8.2695169626e-09 7.5745961906e-09 7.1182989346e-09 6.6912933625e-09 5.7017772254e-08 
5.3955681075e-09 4.2940746187e-08 2.1892343899e-07 1.9350956948e-07 2.585556802e-07 4.6931442278e-08 1.3521142227e-08 9.7104666093e-08 8.4817765431e-08 
7.1427522377e-08 6.4399661576e-08 6.1617900464e-08 6.0155480429e-08 1.41232284e-07 1.4955670652e-07 1.0525427478e-07 2.6834639778e-09 7.3787258362e-08 
1.2557218778e-08 7.5136586558e-09 6.3662385808e-09 5.4621346667e-09 5.3689186061e-09 4.7433868674e-09 6.2489992478e-09 1.4996221364e-07 9.3946092341e-08 
1.8570515371e-07 1.0960882771e-07 5.7444705486e-09 1.4484232931e-08 4.2674451745e-08 5.9814594519e-08 1.5975835528e-08 3.6577966546e-08 1.6318662865e-09 
2.4806893297e-09 1.7529057482e-09 4.2487973541e-09 2.3390277487e-08 1.7968175858e-08 3.7743760784e-08 2.7622187959e-08 2.0218826019e-08 1.1223840454e-07 
6.6471456766e-10 2.0574235922e-09 4.6870607382e-07 4.8601475561e-07 5.7106829324e-07 9.6051480676e-09 5.2800835099e-09 4.2781534625e-09 7.7351292627e-08 
6.7004402656e-08 1.5287404482e-08 1.380566234e-08 6.1238336519e-08 5.0001465894e-08 6.7514936704e-09 7.3255431137e-09 6.7428543775e-09 1.4401809625e-08 
8.1460164252e-08 7.2405312449e-08 5.7706537079e-08 7.1824782106e-08 8.1205982478e-08 1.4634504717e-08 2.2966674607e-05 6.2774018855e-06 5.5732474107e-05 
1.8868515157e-05 5.2312665889e-06 5.9135289745e-08 3.7985395877e-09 6.9517067095e-09 1.7395162502e-07 1.7354202458e-07 6.064800246e-06 1.8662326483e-05 
2.4251544563e-06 4.5823493361e-08 5.4025699984e-08 4.5473895837e-08 1.3069789717e-07 1.3297385348e-07 1.7473675707e-07 3.7629081143e-08 6.1480976813e-08 
5.5788277191e-08 7.2799537258e-08 8.1731274182e-08 7.038768493e-08 2.5541934914e-09 2.6471393991e-09 4.559898942e-08 8.8375999611e-09 6.0291389102e-09 
1.1295091212e-07 8.7985681573e-08 8.1626632358e-10 6.6470909282e-08 6.9889337641e-08 3.4345194898e-09 3.2703195013e-09 7.1015141572e-09 5.9228589271e-09 
2.3381382884e-07 1.7379086392e-07 2.6917211164e-08 3.4879991248e-08 7.7126275707e-08 2.6370998055e-09 2.4384351201e-08 3.7734251214e-07 1.8446351785e-07 
1.6050460499e-07 5.0198612076e-08 6.0001131857e-08 1.082134214e-08 1.4309239648e-08 1.0100572978e-08 1.5850849665e-08 1.9629395887e-07 8.3224700101e-09 
2.1605502109e-07 4.7989025779e-07 7.4002699701e-08 6.8604686446e-08 6.1104839766e-09 5.990120222e-09 1.5235830346e-08 2.2115506462e-07 1.3840817076e-06 
2.4660068766e-07 3.0087240127e-09 2.1158622391e-08 5.8811256824e-09 8.7763653288e-09 9.2887156259e-08 8.0044041599e-08 8.35043534e-08 8.7368779077e-08 
7.0655681526e-08 7.611456521e-08 7.9525496907e-08 9.8673396717e-09 3.0480298378e-08 2.2415182146e-08 1.0369052596e-08 2.9496759307e-08 2.1491350136e-08 
4.1560190574e-08 8.6752417382e-09 9.1436341939e-09 3.9419422855e-08 1.1031309068e-08 1.469820156e-08 1.0995910236e-08 4.7199057197e-08 2.1641887507e-08 
5.6719467571e-08 1.9859998903e-07 1.3743523918e-07 1.2603619782e-07 1.7715090762e-08 2.3316819022e-08 4.0607224735e-09 6.8797035699e-09 1.472827529e-08 
7.2219635619e-09 6.6109875433e-09 1.324515087e-08 3.9367261137e-08 4.8778972735e-07 7.073851349e-08 7.4798719457e-08 9.8280669459e-08 7.4321550892e-08 
9.7076639309e-09 5.0186748617e-09 8.5498362335e-09 4.6692803308e-09 1.0360200631e-08 4.9641559636e-09 4.35275069e-09 4.2226134117e-09 5.1954147439e-08 
4.6289812528e-08 5.8477831365e-08 5.0850114527e-10 1.2565507361e-09 7.9912336989e-08 1.7157695959e-07 2.4082059804e-07 1.1282585195e-07 1.1025499926e-07 
2.0493360853e-07 1.1708071994e-07 1.1550613237e-07 5.8113430798e-08 5.31290352e-08 7.7860653275e-08 4.8674471228e-08 8.131427688e-08 3.0770950047e-08 
4.9565895161e-08 2.8722115072e-08 2.1745454871e-08 4.4193504162e-08 4.5945149124e-08 5.6569435467e-09 4.5852555977e-09 2.6981122123e-08 4.9429104731e-08 
5.069939632e-09 6.9806340162e-08 6.57052616e-08 7.2944929417e-08 6.9671897925e-08 7.898820566e-08 6.9727242554e-08 5.8392450677e-08 3.0109617118e-07 
1.1718522063e-08 6.2721592814e-09 6.9407702767e-09 6.8431745819e-09 7.5339032847e-08 9.8091276854e-09 5.1182598473e-08 5.4352676362e-08 6.6979456291e-08 
6.9843246411e-08 9.2193616276e-08 9.1773644385e-08 9.1851990564e-08 6.2300290795e-08 2.7898366632e-08 4.6164597311e-08 2.7106223472e-08 2.0173651202e-08 
4.1443348215e-08 6.4105128259e-09 5.8699556389e-09 6.656874735e-08 7.1747746186e-08 8.7274954149e-08 1.3950714113e-07 1.4098084569e-07 1.162503075e-07 
2.3036855797e-07 1.3717409068e-07 2.0104582895e-07 8.6848107977e-08 1.1185910516e-07 6.733869926e-08 7.904153721e-08 1.5208636364e-08 1.7982462399e-08 
9.0820395206e-09 2.3864392042e-07 3.4817700344e-07 6.6808540791e-08 6.5144588912e-08 2.4614666902e-08 9.3688757679e-08 4.0047397681e-09 4.2080222476e-09 
2.5097230753e-08 1.8813709651e-08 1.8645875895e-08 1.3060975541e-09 2.6439403954e-09 3.6232054784e-09 1.0104835741e-07 9.5129874589e-08 8.3930378211e-08 
7.8362979896e-08 7.3906204025e-08 8.084356582e-08 5.7903939347e-08 5.6477073092e-08 6.5757787997e-08 8.0708834141e-08 2.2136304105e-08 4.103616338e-05 
3.277756378e-08 6.8893640955e-09 4.3420116861e-09 5.7978521947e-08 7.5195608658e-08 9.0334022644e-08 6.9693615561e-08 7.0556924915e-08 5.1640879521e-08 
1.2951612475e-07 1.2230268618e-07 8.3802326288e-08 1.0420542851e-07 9.975990886e-08 1.1963443478e-07 7.7622494982e-08 7.9201001142e-08 1.1482838432e-07 
1.3030630599e-07 1.1024166321e-07 5.7641034283e-08 2.4508594753e-08 2.467860822e-08 2.0537435271e-08 2.0753000393e-08 4.0857049829e-08 7.0996870068e-08 
8.1616063462e-08 7.4983853038e-09 8.614239923e-09 7.8855605074e-09 7.5697204329e-09 1.0321512765e-08 2.1907469787e-08 2.4505378097e-08 9.0644994878e-08 
2.5541199678e-09 5.7124293866e-08 2.0748134415e-07 8.2029940316e-08 2.0637554757e-08 9.6542693354e-10 6.5282507817e-08 1.7892393199e-08 1.4521755364e-09 
2.6064626895e-09 7.6357043054e-08 7.4682508201e-09 6.7754519204e-09 2.1356320452e-08 2.1663264121e-09 8.007915418e-08 9.0782941496e-08 6.458780425e-09 
3.447386395e-07 3.743085125e-07 1.0328360391e-09 1.1502457274e-09 1.967693863e-10 8.360631743e-10 1.1336813341e-09 3.212225603e-08 6.7591828482e-09 
6.1172328689e-09 4.7822208213e-08 4.5613729097e-08 4.1728740423e-08 4.4412750553e-08 6.3454322701e-08 2.5458464536e-08 1.9130940897e-08 7.2112004978e-10 
6.2478549177e-10 5.3224326751e-09 3.2693573393e-09 6.189701847e-05 9.2278997388e-09 4.6632571465e-08 2.810325228e-08 2.3038571567e-08 4.4380607464e-08 
5.4353095789e-08 1.7811074477e-07 5.6329117049e-08 1.9112228883e-07 2.2819708686e-08 2.3919430322e-08 3.73489061e-08 1.9751269251e-08 7.6122761113e-09 
6.0010924064e-09 6.4797486936e-09 8.5496862113e-08 3.4489535477e-07 1.9010772278e-07 8.6091117935e-09 9.7684342953e-09 8.8718896757e-09 1.1179379633e-08 
7.9182389182e-09 5.3566169028e-08 5.6688291745e-08 9.5441042591e-09 1.1719681449e-07 1.8996596613e-08 2.5497879185e-08 1.9491867523e-08 8.825508888e-09 
7.4531147108e-09 7.5487291348e-09 6.2471589662e-09 5.7083582613e-08 4.279196872e-08 5.3924256416e-08 5.1787449981e-09 4.8358328806e-09 9.0033054677e-08 
2.4677810828e-08 6.2195578078e-08 7.0514605528e-09 6.8978203991e-09 3.1002776504e-08 3.4557823457e-08 4.1751951851e-08 5.0032972985e-08 4.9423312809e-08 
4.2401859804e-08 5.2059156134e-08 5.6012893349e-08 6.1895688181e-08 8.1857335954e-09 5.9998443777e-08 3.2609736629e-08 3.7898986788e-08 3.185092764e-08 
3.5200093178e-08 5.2583137253e-09 3.805299962e-07 1.6499087273e-07 6.0221168783e-08 2.9753868576e-08 1.2643899569e-06 1.1403994822e-06 5.9991092864e-08 
7.5417219085e-08 6.836668634e-08 3.6308174662e-08 2.7514926833e-08 6.4376536848e-08 1.6514951415e-09 1.4987379281e-09 1.1282092075e-09 4.4065295633e-08 
6.137555303e-08 1.2329097406e-07 4.1401766814e-09 8.1969908967e-09 2.3936420854e-09 2.9832768313e-09 1.0079367649e-07 1.2983741956e-07 1.0678998641e-07 
1.6764702368e-08 3.6309420181e-08 1.9407235038e-08 5.0068812243e-09 4.986098963e-08 6.0737158005e-08 5.6374393461e-08 2.2541713657e-09 6.2312939563e-08 
5.7107950167e-08 6.3087887981e-09 6.4265224277e-09 1.4504507502e-08 4.1113156052e-09 6.2531810793e-09 5.0865587961e-09 8.5050938294e-08 9.4957569098e-08 
1.6982708776e-08 1.7833418793e-08 6.5436625712e-08 7.9281739927e-08 9.2794212854e-08 1.8714064961e-07 2.3199213788e-07 1.2228463852e-07 1.5844967341e-07 
6.5774848567e-09 6.519195658e-09 3.3067132752e-07 1.6029869307e-07 6.176597142e-09 7.1564200977e-09 1.6672893766e-07 5.5963550357e-09 1.459393985e-09 
4.2412562427e-08 2.2928771482e-08 3.3776142443e-08 3.1554337162e-08 2.0496438081e-06 2.0720055166e-08 1.7519231501e-09 4.1942169537e-09 9.6917573964e-09 
1.1176886561e-08 2.1422309179e-08 6.1752703245e-09 6.2818953425e-09 2.3869216387e-08 1.8864323047e-08 1.2394564104e-08 9.7678474679e-08 7.9782530685e-09 
8.5851511706e-09 1.5168053905e-08 1.0727073828e-08 8.2027981043e-08 2.4384485259e-08 4.3468252214e-08 6.2860071584e-08 3.2600642022e-07 1.4079974036e-09 
1.6909372195e-09 3.9020177307e-08 2.3563165366e-07 1.0131954789e-07 9.1602501982e-08 7.5260546021e-08 3.2274977414e-08 4.5698037891e-08 6.3569909327e-07 
1.0033915628e-09 2.1624117197e-08 5.761220628e-08 5.3521060067e-08 2.823385026e-08 2.9465995472e-08 2.1509636122e-08 4.3149110149e-08 1.0173099043e-08 
8.4246844045e-09 2.2883241005e-07 3.3341695246e-07 1.4689996583e-07 7.1266035189e-09 5.6732097138e-09 7.3332966468e-10 9.4331142947e-10 9.9210231296e-09 
4.3175204645e-08 3.9295680963e-08 3.9096325143e-08 9.5588748488e-08 1.2382187516e-07 8.6253220317e-08 1.19214497e-07 7.8164732494e-08 2.299204114e-08 
1.8726830116e-08 1.1672503542e-08 4.7505667941e-07 4.5141926927e-09 2.5928768623e-08 3.7548629457e-08 2.0410048616e-08 2.8264076526e-08 5.9522395754e-08 
5.8366037048e-08 6.2301380459e-08 6.4668607332e-08 6.0047419022e-08 6.4945657004e-09 5.5164150363e-08 1.8649602221e-08 9.8388586967e-09 2.7150707332e-07 
9.2118874971e-09 4.7042130859e-09 7.7979649069e-09 8.0328502617e-08 6.4333314248e-09 5.6717782429e-07 2.9984489152e-07 2.6699646687e-08 6.1292176871e-08 
1.1367057278e-09 1.4424755511e-08 4.3132715901e-06 6.7607324439e-09 1.2217244016e-07 5.5296749339e-08 1.7089105741e-08 6.7038938253e-09 6.9771584306e-09 
4.6884677757e-08 4.1132907009e-08 6.1482911716e-09 5.222679401e-09 4.9208131962e-09 3.9091862768e-09 4.8017062508e-09 2.1214100372e-08 1.9651367194e-09 
1.3176032548e-05 1.3439746201e-06 2.262339568e-08 1.1890489153e-08 2.9991416843e-09 3.773370609e-09 2.8140622682e-09 5.8051629872e-09 1.9281247086e-08 
4.2275633812e-07 3.2027624304e-07 1.8014004424e-07 1.7510025133e-07 5.9671075268e-08 5.8469860812e-08 9.4839707255e-08 1.5862471801e-07 7.407946252e-08 
7.308562325e-09 2.237173966e-08 9.6051790541e-08 8.6891837631e-08 3.0761766712e-08 5.4403827567e-08 6.0313799616e-08 1.2591524106e-09 2.6655242877e-09 
4.0465440502e-08 3.2188470584e-08 6.5856163544e-09 7.0551424194e-08 1.4440943603e-07 7.3684920361e-08 3.3603099711e-09 2.9259799606e-09 3.8416035588e-09 
2.7260235736e-07 9.8541378836e-08 2.6519758512e-07 2.6084356786e-07 4.0550409691e-07 1.1131842298e-06 3.2899621964e-08 3.3083212817e-08 4.8687916602e-08 
4.4206193387e-09 1.9326124851e-09 5.2242178992e-08 6.2624108198e-08 5.522821077e-08 1.8011877214e-07 1.0833053455e-08 4.083913014e-09 5.0202712082e-09 
1.9992338653e-07 2.2277738107e-07 4.2705610887e-09 1.4908337907e-07 1.9510129954e-08 1.2989663578e-08 1.2061707824e-08 7.6325552931e-09 6.1456711998e-09 
6.2428264691e-09 1.9444446648e-08 1.0380796674e-08 2.3089906243e-09 6.3674074577e-09 1.0582310561e-07 1.069610924e-07 9.0421425379e-08 5.1768288061e-08 
6.4160534737e-08 6.9933416294e-08 1.8667555207e-07 1.5527245474e-07 5.7277877172e-07 3.0356481892e-07 3.2857436969e-07 9.3400555257e-08 1.2554484537e-09 
1.4048626844e-07 9.1665791692e-08 3.1976563178e-09 7.6692642416e-08 5.8264245246e-08 5.6204410567e-08 7.8801734532e-08 6.5287786572e-08 4.5819219203e-08 
9.4448913563e-08 7.413798794e-08 1.2105175296e-07 2.6003301891e-08 1.0422095029e-07 5.9209893091e-08 5.4564297163e-08 1.3219229608e-07 1.5764072549e-09 
4.9441950769e-08 2.9686580574e-08 2.4271641322e-08 5.7021793775e-08 8.5150567955e-08 1.6252367189e-07 4.7047372822e-09 3.1899702756e-08 2.1352781093e-09 
3.660671728e-09 3.6902545749e-09 5.4831064876e-08 8.5288365428e-09 5.7202937808e-08 6.0558191794e-08 7.6629411398e-08 7.80351625e-08 9.4791041997e-08 
9.1262417273e-08 2.9528397562e-09 2.0520971471e-08 1.8141925611e-08 1.0005142121e-07 1.1928276527e-07 9.941873531e-08 2.2912527612e-07 2.5395119631e-07 
8.6455843388e-08 1.9582833987e-06 1.5620175042e-07 6.9396003633e-07 1.9802102705e-07 2.8577496648e-07 2.7640142642e-07 3.5905992896e-09 7.8146379632e-09 
1.4905225737e-08 2.0555221585e-08 2.3259346909e-07 4.5668659493e-08 7.9376436142e-08 9.6169161911e-08 4.4438330459e-08 9.1558849844e-08 3.0916866595e-08 
2.6838819489e-08 5.0526204156e-08 6.7641613646e-08 9.0532784115e-10 1.2180307072e-09 5.4568968092e-09 7.6116363187e-09 5.2439030347e-09 4.1577560356e-07 
3.7697491342e-09 5.3695197203e-08 3.4668473139e-08 6.18774024e-09 4.3434413641e-09 3.9612704289e-08 3.3034347566e-08 4.1050092331e-08 4.970290986e-08 
2.3047591572e-07 4.9657577688e-08 4.8052545273e-08 4.4235918937e-08 1.3405715673e-07 1.4178683801e-07 1.0437636799e-07 1.0796918272e-07 3.6456081792e-07 
1.3765983993e-08 4.0029233924e-09 3.2399833202e-09 3.3138003857e-09 1.6220302331e-08 3.520293421e-09 2.1059953928e-08 5.6255328055e-08 2.097002522e-08 
7.6828560942e-08 8.8286969393e-08 2.3385180752e-08 1.3269006101e-08 8.3159203417e-08 2.5201883987e-07 2.2425643145e-08 6.328018596e-08 1.4131877728e-07 
1.1465738289e-07 4.6681633277e-08 6.20280161e-08 1.2422228504e-07 2.5519596378e-09 1.928544939e-09 1.7170779346e-09 6.4877986969e-08 4.4153035687e-09 
8.2813425024e-08 8.5010222048e-08 4.2838878653e-08 2.3725201502e-08 2.6861239127e-08 7.3975882907e-08 3.8366250803e-08 1.8638360197e-08 1.0083342498e-07 
8.5671246504e-08 1.9115669134e-08 4.6271279789e-09 1.5664048362e-07 2.3799168422e-07 2.7118503843e-07 2.0434060549e-07 2.2388032305e-07 2.1270555341e-07 
7.948070162e-08 7.6121851915e-08 8.7402417666e-07 1.1374152493e-08 5.6917457548e-08 1.6147651395e-08 1.6274445937e-09 1.3193107776e-09 1.1353292271e-08 
2.4372500228e-09 2.9769796016e-09 5.8806054026e-08 1.9178186694e-08 1.8564007377e-08 2.6645513291e-08 4.7220048634e-08 4.9340624369e-08 7.4030572159e-08 
6.7190003749e-08 1.0161398765e-07 1.2259579523e-07 1.3838662588e-07 2.5520812983e-08 6.1083633995e-10 2.8899284876e-10 4.7665695319e-10 2.1033839402e-10 
2.3059107179e-08 4.7129086781e-08 2.3830850495e-08 2.2977454068e-06 4.8231351142e-09 8.9527260269e-08 1.5328140185e-10 1.5651702668e-10 6.5916770776e-08 
5.1579462902e-09 3.6568265791e-09 2.8434351714e-05 2.4616808687e-07 4.3549935526e-08 4.9332466059e-08 6.4103492713e-08 9.1111024235e-08 5.032059461e-07 
3.6835007558e-09 9.7933591761e-10 4.6608503729e-09 9.1516031318e-10 1.2313561508e-07 3.7686434843e-08 6.6099157945e-09 3.0713831098e-08 9.4467146618e-09 
5.1896922729e-09 4.958111379e-09 3.1741209833e-07 4.327533798e-07 6.3716935871e-07 2.3416467017e-06 3.2115684171e-06 1.3717317366e-05 3.9779192258e-06 
3.7630035921e-10 2.8967871542e-10 2.8227827766e-09 3.719941273e-09 4.2648867915e-09 6.4389312927e-10 2.9746874201e-10 3.4737245463e-09 1.1786916751e-08 
2.0666840698e-07 4.6453923853e-10 3.3131052446e-09 5.3078307226e-09 3.05823991e-08 1.4950224601e-05 7.1427905564e-09 3.3437678276e-05 2.0901163601e-09 
3.056254318e-08 4.2500493447e-08 1.6210920746e-09 7.4730710802e-09 4.3962934076e-10 3.8935124032e-08 1.889270637e-08 6.9049757525e-08 5.3814327761e-08 
1.4647612937e-08 4.0745418655e-08 6.2742478633e-09 9.7289621422e-09 1.5851819568e-07 1.4962215036e-07 5.6153205158e-09 2.144354033e-09 1.3214818775e-09 
1.058521242e-07 2.5830869745e-08 1.14196099e-09 3.8273318152e-09 3.2851058665e-05 1.1366736797e-09 4.7749007137e-10 3.0486362537e-10 5.3567969057e-09 
4.9406921824e-09 5.0364984745e-09 3.0481149501e-09 3.153492661e-09 3.3722817993e-10 1.200014931e-05 3.2314739061e-07 0.00020517204166 1.8836145127e-05 
0.00017270263726 1.8017359331e-05 9.6041904363e-08 1.1653551076e-07 4.3167509373e-07 0.00014879898199 0.00018461031348 0.0001761414172 4.5697479867e-07 
5.1885470905e-06 2.3437809511e-07 0.00026399075221 4.5268613759e-06 2.6910070919e-07 0.00025599539877 2.3177750524e-07 3.6422099455e-05 3.1533043118e-07 
0.00026959175204 7.8977732352e-07 6.1020953705e-07 8.4082726636e-07 8.6845327913e-06 0.00012768014896 2.0615706801e-07 7.3756720014e-05 3.4790103977e-07 
0.0002699704777 1.5996405448e-07 1.1488916446e-07 4.8728948945e-07 2.3415976012e-07 9.6338061528e-08 0.00015219273618 7.5331203316e-05 0.00015655384341 
1.3984048532e-06 3.4153616518e-08 2.9471305546e-07 7.3846933179e-05 5.097658882e-07 1.6623257862e-05 0.00015884440011 3.4881093508e-08 1.5316883016e-07 
1.6279482156e-07 4.2585639107e-05 0.00024630840842 0.00025574437678 0.00027011884493 9.1967769314e-08 1.7677941081e-05 0.00014094900512 0.00015965765463 
1.0687597285e-07 4.6833827387e-05 4.9970089869e-07 3.3496425765e-06 6.920112295e-06 5.0652277529e-07 3.0719662127e-07 0.00025771277437 0.00025315613783 
3.049021817e-07 4.6830704391e-05 0.00015778485798 0.00025043428327 1.3347467869e-07 2.1608603096e-07 8.344896096e-07 3.0927777442e-08 2.1208905056e-07 
5.9488058586e-05 3.5607590528e-07 1.3185832577e-06 1.8156511929e-07 0.00019038524149 3.6902391377e-07 0.00026995448484 3.6796004583e-05 1.0679068361e-05 
4.3584911252e-08 1.0218928476e-07 7.9343444239e-07 9.1994519182e-08 0.00023482781693 5.2377785734e-07 5.7331233085e-08 3.8112753857e-06 2.3237281674e-07 
1.009722706e-07 9.0060539704e-05 6.3473849559e-05 2.9945961321e-07 4.9859936036e-07 1.6868279829e-07 5.3467366165e-06 5.1874002911e-08 6.8744440848e-06 
3.8438928823e-06 2.8242365527e-07 2.8056138603e-07 1.753841702e-07 5.1193536417e-07 0.00024599528696 3.6513763326e-06 7.4135874569e-05 1.1827537345e-05 
0.00026827821774 2.5712368005e-07 6.574105328e-08 0.0001629855663 1.1148644071e-05 2.2233484763e-05 1.008371293e-06 2.3231804436e-07 0.0001125980842 
0.00022886185539 0.0002321332504 6.7157929326e-05 4.6980140105e-07 0.00026860587356 0.00013757574262 4.3995116436e-07 5.1054242761e-07 1.5074116723e-06 
3.5916742204e-07 6.3256538062e-07 2.8963937286e-07 4.0797843681e-05 0.00018355188944 2.3761535711e-07 2.6037738447e-07 3.0871027703e-07 3.2681178021e-07 
0.00020656481279 0.00016752172462 0.00024171987894 2.1057124231e-07 3.3935229139e-07 5.5274062443e-05 1.4546704975e-07 2.8330379915e-07 4.3790994339e-08 
0.00025481886345 0.00014821018314 1.6715193517e-05 9.5020487713e-08 4.6022390111e-05 0.0002596560152 3.0056355015e-05 1.9865199673e-05 1.0068480685e-06 
7.462379899e-07 8.0772289561e-05 2.2846818905e-05 0.00018621249932 6.7930608334e-07 0.0001305500466 6.1173427158e-05 0.00024169301958 0.00027013375373 
0.00026916136539 9.4876292086e-05 0.00011222064311 1.1382570242e-07 0.00025772133043 0.00026907833656 3.7864091891e-08 0.00018911097259 8.8380285229e-05 
0.00027010477119 3.7898333094e-07 6.2789393499e-05 0.00024670926476 9.3441472106e-08 0.00026863159714 2.1919302459e-07 2.0744205924e-07 1.6745851062e-07 
1.2131775825e-05 0.00026552525333 5.310499107e-06 0.00023363630809 0.00014511087729 1.1188097787e-06 9.9571298517e-05 0.0001222874465 1.5858439168e-07 
6.3467968471e-06 8.2740359454e-05 5.2863635645e-07 1.5099532936e-08 7.5593338872e-08 0.00020780055533 8.1770004119e-05 0.00026739437745 2.9402718658e-07 
0.00017449102768 5.3685815415e-05 4.3263870404e-07 6.3316167671e-07 1.5573773159e-07 2.0028098716e-07 0.00025962860288 0.00026718194986 8.6835914183e-06 
1.0534487276e-07 2.8832688161e-07 5.7076132178e-07 8.287051294e-08 4.0713539179e-07 3.5634816207e-05 1.8845592444e-06 6.7069015298e-08 0.00017964834014 
0.00025051078135 5.2315111265e-06 1.3537294776e-07 7.73594736e-08 3.8964398185e-07 7.6240129596e-07 1.7058490933e-06 1.5182766866e-08 0.0002695116036 
0.00022412013285 4.036454215e-08 5.013247319e-07 1.0421503755e-07 2.1338779395e-07 9.2093003516e-06 0.00026979233224 0.00027009346988 0.00020774548364 
1.5369653929e-07 1.8742539349e-07 0.00027012942994 0.0001547930234 2.9086323272e-05 1.9272208184e-06 1.6916690249e-08 3.7248565836e-08 1.2147915523e-08 
1.4425782009e-08 3.7820263216e-08 4.4810232368e-08 1.7988360005e-05 1.3871935072e-06 1.0818051306e-05 3.9590773338e-05 6.4073281257e-06 1.2267182992e-05 
2.5726496694e-08 6.2079844937e-09 2.3735999284e-08 3.2154703677e-05 3.4464766896e-05 9.886217996e-06 1.5161167352e-05 1.6628444912e-05 4.4486471802e-05 
2.8508059019e-07 2.6622106642e-07 2.6550582669e-07 2.6536852458e-07 2.1092642898e-07 2.5082030331e-07 2.6053149378e-06 2.5875504654e-05 1.9000884458e-05 
2.3096578378e-07 2.0559192142e-07 1.9386431612e-07 7.6388820711e-08 4.3328281134e-08 5.8656406345e-08 6.7440353366e-08 5.0172232272e-08 3.9168922807e-08 
6.2767847e-08 6.7904111443e-08 6.6168880293e-08 9.9171674103e-08 5.8508995915e-08 1.8165861492e-08 2.3236162277e-08 1.8559045778e-08 1.5671462011e-07 
2.2300925903e-07 1.4879778958e-07 1.3649658627e-07 1.9209410117e-07 3.4295061871e-07 3.2680632573e-07 2.9413900379e-07 2.504516123e-07 1.460060197e-07 
3.6513373081e-07 3.218216533e-07 3.862722226e-07 3.6717196633e-07 3.3197574768e-07 3.0272666721e-07 1.0160480364e-07 1.5817538152e-07 1.472974912e-07 
0.00027014325044 0.00027014232462 0.00027014449853 0.00027016227446 0.00027021172954 0.00027014511877 0.00025952533413 0.00026472671372 0.0002688487503 
0.00026798927125 0.00026905847367 0.00026216298052 4.1928207057e-07 3.7478245391e-07 4.2578996405e-07 3.57359588e-07 3.82056061e-07 3.2244306567e-07 
4.7084391152e-07 6.5755629007e-07 4.5411162719e-07 2.0553701082e-08 0.00020837015576 0.00023748239946 0.00025064910022 0.00025295352122 0.00026466993061 
0.00023966947159 2.4918529179e-07 0.00011653398194 0.00013388952009 9.0956052792e-05 5.8686907599e-05 7.8389071547e-05 1.1236922749e-06 2.7246698051e-07 
5.4264575809e-07 5.3649173572e-06 1.1410309659e-06 2.6754681915e-06 4.3404822088e-05 0.00011644193009 7.9474218654e-05 2.8249787251e-05 9.6045676159e-05 
5.593776088e-05 0.00011098011259 5.1771928123e-05 9.27618665e-05 0.00014446863458 8.0506373787e-05 9.7793645697e-05 1.2286009472e-07 1.7809404281e-07 
1.6865203177e-07 1.5649865648e-07 2.2183559712e-07 1.6667666003e-07 1.8872305336e-07 1.3313810947e-07 1.4437414684e-07 3.3213637925e-07 2.9796896711e-07 
3.7902308674e-07 3.0685665244e-07 3.1736489929e-07 0.00018341712985 0.00013396395233 0.00016655592759 0.00018119210655 0.00020529010731 0.0002373215575 
5.1684471672e-06 1.0044843184e-05 4.334931357e-07 2.4527331226e-07 2.5265626902e-07 2.201493492e-07 2.5086543737e-07 3.9822060621e-07 2.5279774405e-07 
4.4836600428e-05 0.00011481510824 7.5292806412e-05 3.3403692528e-05 6.422645796e-05 3.0440107621e-05 3.9826694691e-05 7.3475115367e-05 7.8168151933e-05 
7.2343271698e-07 4.5356502037e-07 4.3996766169e-07 3.7774101521e-07 3.8696595712e-07 3.4297226414e-07 1.5479782287e-07 2.4896715896e-08 1.9913280289e-08 
0.00017184370818 0.00012919692422 0.00011001198092 3.6220469861e-05 6.8314817631e-05 7.1362906284e-05 5.9886006192e-07 4.6571772916e-07 3.3571221277e-07 
3.0924273421e-07 2.5568323992e-07 3.4073390304e-07 2.872173778e-07 2.788813818e-07 6.9474198122e-07 1.1390912807e-07 1.4026992098e-07 9.3514097715e-08 
1.5045038712e-07 1.2060603666e-07 6.6250610999e-08 0.00012942513612 0.00011513907944 0.00012998613867 0.00011403871023 0.00015610623686 0.00023708617503 
0.00021530360896 0.00017478381626 0.00018733825966 0.0001544994287 0.00022419439734 0.00022963312832 0.00016354131294 0.00017483105015 5.4424068805e-07 
6.613145921e-07 3.7010798242e-07 3.3083107506e-05 6.2390402768e-05 9.7811531774e-05 2.8476887669e-05 1.1277125926e-05 3.7646940017e-05 4.0551633098e-07 
4.5318918118e-07 3.9863653988e-07 3.9345237359e-07 4.9351193414e-07 4.8791949481e-07 8.4321646435e-05 5.1095738724e-07 2.8204751183e-07 4.580333218e-07 
2.4405601519e-07 2.6692690338e-07 3.7254943845e-07 4.2000192069e-08 1.4630460433e-08 1.282300557e-08 3.6292335833e-08 1.0413416805e-08 4.4477035361e-08 
0.00021541329041 0.00020079422446 0.00018177044539 0.00016091191767 0.00021470712105 0.00024999998539 0.00022753533128 0.0002013471964 0.00018454239221 
0.0001894245591 0.00020140075054 1.88354671e-07 1.8590759433e-07 1.2779371712e-07 2.2323601749e-07 3.0333230362e-07 3.0076367897e-07 4.4454583672e-07 
7.7788043623e-07 0.00027012886119 0.00027014802876 5.2810872859e-07 4.3706392424e-07 3.6662560742e-07 3.4565974107e-07 2.4619107305e-07 0.0001798736014 
0.00016669055445 0.00015566341645 0.00011259988774 9.9627725451e-05 0.00012230347689 0.00014073223376 0.00016356101491 0.00025966094603 0.00022731711156 
0.0002602357572 3.2623683263e-07 4.3285680254e-07 1.5374265833e-05 1.6925035306e-05 5.06592722e-05 0.00021163553166 0.00021990763177 3.0254238299e-07 
2.9819304835e-07 0.00019890746067 0.00017587764389 0.00022584611875 0.00014788654409 0.00016663806565 0.00018938128398 0.00016971052479 0.00018658493372 
0.00014720926077 1.7190115783e-08 1.4383115958e-08 1.3150287838e-08 2.5951160463e-08 1.3922282078e-08 9.1611548717e-08 1.0526118488e-07 9.4702025455e-08 
1.1947969746e-07 1.3803461179e-07 1.3415290252e-07 9.57780233e-08 1.4858074225e-07 1.2527595054e-07 3.8039912874e-07 2.7606739272e-07 2.2776728055e-07 
2.5557328642e-07 1.8295735109e-07 3.0617723391e-07 0.00022127291233 0.00018391401369 0.00020399099635 0.00020668298084 2.5615378476e-07 3.1569306297e-07 
3.4068492489e-07 8.3329840482e-07 3.5194059814e-07 7.4671560098e-06 3.7809229295e-06 6.8299438195e-06 2.3889077747e-05 3.1755424467e-07 4.0366921914e-07 
4.0074045459e-07 1.2626274145e-08 1.1406952635e-08 2.714536828e-08 1.238859456e-05 2.3279693086e-05 5.3403374905e-06 1.5431487768e-06 4.6754405321e-06 
1.145556099e-05 0.0002517154203 0.00022455657775 0.00023263559561 0.00024936360703 0.00024452674357 3.1615552535e-07 3.705745394e-07 4.3042392371e-07 
2.1032043055e-07 1.2259265945e-07 1.6246285396e-07 1.5546378896e-07 8.4074458943e-08 1.1121047623e-07 0.00016609631855 0.00010543546612 3.4528783436e-07 
7.1429077576e-06 9.4828496978e-06 1.1764768648e-05 2.5393387732e-05 3.1017924344e-05 2.2285705829e-05 4.2299461565e-05 1.4992690222e-05 2.6858193948e-05 
3.4573873875e-05 1.8542904033e-05 1.6752527687e-07 7.9056084794e-08 1.1922204509e-07 0.0001783167698 0.00019399568123 0.00016927878727 0.00013341885232 
0.00012102933655 1.0526778031e-07 9.0539814473e-08 6.6514152072e-08 8.2859447266e-08 6.985524701e-08 1.0423761529e-07 0.00014302874033 9.5754304777e-05 
8.7538204121e-05 3.9017875782e-05 6.4052021716e-05 1.6116930211e-07 1.6908523766e-07 2.2214430614e-07 2.0368439096e-07 2.1935666915e-07 1.5753095868e-07 
2.6010768238e-06 1.5673124285e-06 3.174796295e-06 7.6177336255e-06 4.8818664638e-06 1.1897877476e-07 4.7969887075e-08 6.7726007033e-08 1.2826910419e-07 
4.4305065798e-08 1.0158788194e-07 3.9167126278e-06 1.3578740431e-05 0.0001007463496 9.4866043205e-05 0.0001563071842 0.00017351158094 0.00017127135777 
0.00011539629842 0.00013402993426 6.5887010427e-05 0.00012438027743 2.8443762477e-07 3.9205517613e-07 8.7426862885e-07 1.5295117676e-07 1.1215329114e-07 
1.5019588367e-07 1.117381737e-07 1.9758110822e-07 1.1793113647e-07 0.00020656074594 0.00023819423067 5.0358087167e-05 2.9654380268e-07 3.6945145369e-07 
3.9416137926e-07 4.0549871692e-06 5.6489147321e-06 1.7036902987e-05 9.3262508194e-07 4.1528319778e-07 4.699681897e-07 5.7068589542e-07 4.6612825993e-07 
5.7540985236e-07 1.3243711487e-05 2.2547422154e-05 2.6082077047e-06 2.6655775989e-06 4.7327610857e-06 1.7374687447e-05 6.5195677535e-09 2.3444415178e-08 
2.7109389458e-08 5.5842550865e-05 5.2873731538e-05 2.1607706571e-05 4.5586156057e-05 2.3233278277e-05 5.8112924424e-07 4.4996620901e-07 3.2840305421e-07 
2.5042444756e-07 2.3065117073e-07 2.5956874194e-07 1.8550791704e-07 2.7541127005e-07 2.7766528895e-07 3.1190704627e-07 2.263315227e-07 2.6853472387e-07 
2.6887699914e-07 1.6922852573e-07 2.0944704956e-07 2.7845090334e-07 2.1732825659e-07 2.2089307186e-07 0.00025597355334 0.00023243330076 0.00015974857927 
0.00012859360955 0.00012614285696 0.0001240734474 8.6104629327e-05 0.00012357947913 7.4791353112e-06 2.825293508e-05 3.2088665236e-05 3.2506120428e-07 
3.2531780653e-06 8.5248768474e-07 3.7930600753e-07 2.3628154339e-06 7.7301061469e-07 1.2661549597e-07 9.5011449112e-08 7.8247749517e-08 1.916555111e-07 
8.4944677308e-08 9.0239331953e-08 1.0956200767e-07 7.934903713e-08 8.3405931632e-08 1.628633619e-07 2.0893212293e-05 2.3087179337e-05 5.9099328315e-05 
6.3105117238e-05 5.2874905508e-05 6.1542840395e-08 7.2061922026e-08 1.5030441464e-07 1.0227153793e-07 1.3855801257e-06 4.4554373424e-07 6.1070351732e-06 
4.269476423e-07 1.5866930282e-06 4.0432505585e-06 1.3358975451e-05 2.1809091841e-07 1.8439392215e-06 3.6849293666e-06 8.3487735869e-08 9.0203426783e-08 
1.1202946053e-07 1.0455535388e-07 6.4545475428e-08 5.8715518585e-08 1.2722921755e-07 3.8603037527e-05 5.0588066017e-05 7.7251679995e-05 3.5214975262e-07 
2.5696063737e-07 2.2008995211e-07 3.1291208008e-07 0.00019155020296 0.00020521117139 0.00020076588198 0.00016148716508 0.00018785336339 0.00011509321679 
7.4084297063e-05 4.470276134e-05 2.4924690625e-05 4.8319991023e-05 5.0432602716e-05 0.00011717448755 9.5193252778e-05 0.0001127773894 2.6173874774e-08 
4.8094127346e-08 1.2099215186e-07 1.1252131069e-07 1.6563632778e-07 5.7593944434e-05 0.0001149435936 0.00011640414872 0.00016220719723 0.00011599443134 
0.0002455334169 0.00024801417334 0.00025644202122 0.00022153747744 3.115398548e-07 1.3991691825e-07 3.8109459845e-06 1.3866196999e-06 8.0577264419e-06 
0.00011946868792 0.00012782688843 3.7691662607e-05 2.1940130698e-05 2.8549049271e-07 3.317665305e-07 2.8550897352e-07 2.2272164005e-07 2.6715027907e-07 
2.6784993025e-07 5.496359163e-07 3.5202615978e-07 3.7770472962e-07 0.00026853398035 0.00026777293726 0.00027012127338 0.00026621019435 0.00027023244893 
2.6882602483e-07 4.507475329e-05 5.4505786326e-05 0.00010008730683 0.00011481433372 7.3695788261e-08 3.4125118912e-08 6.5442326483e-08 7.2035259485e-08 
7.7766604915e-08 1.1515151801e-07 1.2506078422e-07 3.9237370375e-06 2.9461509007e-06 1.1790189376e-07 1.7442837166e-07 0.00027011127454 0.00027017081675 
4.005090556e-05 9.2298843841e-05 5.4198283419e-07 4.5485139282e-07 5.1474149185e-07 0.00012965159452 2.2843142553e-05 3.6348496508e-05 6.2177435235e-05 
4.9027177577e-05 6.9585320046e-05 2.6315115115e-05 3.1263670634e-07 2.6205283176e-07 0.00026825673076 0.00025608408609 0.00026796183986 0.00027010094267 
0.00026686102149 5.7187862909e-08 6.6215939863e-08 3.3936101617e-08 4.4034920902e-08 5.0205920704e-08 8.511315687e-08 2.4041954311e-07 2.7049054986e-07 
3.1557705818e-07 4.0148590437e-07 8.7526407882e-08 3.2599952153e-05 4.4396553844e-05 2.452039617e-05 7.0027764744e-05 0.00010845220619 3.0140075175e-05 
5.4403477966e-05 6.4509958475e-05 9.8922860583e-08 1.2177201761e-07 2.3815425229e-05 4.2702856044e-06 2.2474812874e-05 4.9815907141e-05 1.516799346e-05 
1.5205704428e-05 3.9289577202e-08 3.5645703228e-08 7.1754724102e-08 9.4789219613e-07 3.8295665144e-07 7.1356530046e-08 5.8463948535e-08 6.3553991791e-08 
0.00023524542863 0.00016529905167 0.00014855744497 9.9719892299e-06 5.2113980756e-06 3.6357814352e-06 0.00010680890852 0.00012523130663 6.4688755697e-05 
7.6246353034e-05 0.0002581812591 0.00025870698606 0.00026721484429 0.00022786088548 0.00024817151517 0.00025901294689 0.0002482499627 0.00025997611092 
0.00023117672664 0.00027027224547 0.00026998583836 0.00027003759886 6.3712145235e-07 7.8686814638e-08 5.4872540569e-08 5.2545196881e-08 3.1902551805e-08 
9.2116158772e-06 3.5533999911e-05 9.2635600829e-06 0.00012771844247 7.3300237511e-06 1.4408179225e-07 4.900422724e-07 4.1836184082e-07 4.7416786056e-07 
3.2076619472e-07 3.0205653103e-07 2.6834033543e-07 0.00026441547386 0.00026463684409 0.00025841119678 8.2477811024e-05 4.0875057515e-05 0.00026617581506 
1.4159823018e-06 1.1356933079e-06 2.0330792398e-06 6.2028605801e-07 4.9704062988e-07 2.0611429466e-07 1.4769207847e-07 0.00023690526635 0.00025670310328 
0.00025692666362 4.9740305977e-05 1.5572414977e-05 2.588358217e-05 0.00015219338235 0.00018728017278 0.00026174381895 0.00025999962868 0.00024923356246 
0.00022400834929 0.00021780596966 0.00024102775868 2.1137392328e-07 1.8536981389e-07 1.7348911548e-07 1.6348376612e-07 1.7239130502e-07 9.141497829e-08 
5.8527839444e-08 8.9230213197e-08 1.3124051559e-06 4.8329252922e-07 3.4188415922e-07 0.00012660141381 0.00016223853036 0.00023360990142 0.00019676704007 
0.00025375860725 0.00025934299558 0.00023991217435 0.000213624108 0.00024959396344 0.00026387978218 0.00026156317038 0.0002679753701 0.00025906201587 
3.2867000877e-07 0.00025636614555 0.00023483243828 0.00022886634428 0.00020975905664 7.9752493598e-06 5.3204852022e-06 1.1412197968e-07 1.5084697319e-07 
1.0738864983e-07 0.00026978627594 0.00026984140065 2.2650573079e-07 2.684436211e-07 2.1868139637e-07 3.1252690889e-07 3.5154767693e-07 4.2103080671e-07 
5.6243496298e-08 8.4832710999e-08 2.1376490119e-06 1.477675841e-06 5.4924622834e-07 4.8715456007e-07 4.4973366877e-07 6.997066386e-07 0.00018190180701 
0.00013156159085 1.0951631761e-07 3.5631891368e-08 4.5861608876e-08 8.085240794e-08 2.4710331322e-08 7.3892802151e-08 0.00025748578442 0.00025846776984 
0.0002360429085 0.00026450286642 4.2787558121e-07 3.1239105512e-07 8.2878211513e-07 1.7154516662e-06 1.320222618e-06 1.5074566153e-07 1.6233518397e-07 
2.2214678832e-07 2.1074431056e-07 1.1860305455e-05 2.8240793304e-06 1.2742141226e-05 8.2521877776e-08 7.5215174305e-05 0.00012216908718 1.9669237705e-06 
7.6490924624e-07 0.00022350508034 0.00020828424532 0.0002556401442 0.00022482523989 2.4318486924e-06 7.4868629802e-06 4.5338804306e-07 4.4744999026e-07 
4.3365319965e-07 3.820615619e-07 5.4694563368e-07 4.110673542e-07 2.6562070822e-07 2.2206605889e-07 2.0711192302e-07 2.4560364803e-05 2.5392435391e-06 
1.5105278092e-07 1.4005189106e-07 3.0385288805e-06 9.3764812736e-07 4.7284199418e-07 4.0519488716e-07 2.6045732299e-07 3.0373244258e-07 1.7927278909e-07 
3.5691778228e-07 1.4675408677e-07 0.00027018301847 0.00026986342618 0.00027010468729 0.00026995252113 0.00026953589867 0.00026424293506 0.0002701352246 
0.00027015509712 0.0002701723551 0.00027016151682 0.00027017533895 8.1195553538e-05 5.4316310214e-05 0.00023948284143 0.00022387066484 0.00023207052567 
0.00020519272281 0.00018429318728 0.00019463520293 0.00022349354409 0.00027014523418 0.00027016873668 0.00027016678155 0.00027017241531 1.4742682946e-06 
6.1149598833e-07 2.3864065636e-07 2.0886943886e-06 8.3598414329e-07 4.5997528799e-06 0.00011294367838 0.00019431860796 2.9289379299e-07 2.4678840582e-07 
2.6841280853e-06 1.178878223e-06 7.9455283499e-06 1.1873138137e-05 4.6060020793e-06 3.5248823289e-07 3.4377324434e-07 3.2325775902e-07 0.00016058633955 
0.00024166130241 0.00019534031002 0.0002201200577 0.00015559145394 0.00020882654618 3.2696646049e-07 4.0376414276e-07 2.9997276154e-07 3.2834952181e-07 
3.3882861107e-07 3.5868592605e-07 2.6802302625e-07 3.6896434232e-07 8.0365644869e-08 1.3032782883e-07 1.7298431007e-07 8.2489313307e-08 1.521362162e-07 
6.5466991576e-08 2.2178599572e-07 1.7817189483e-07 1.2749522936e-07 1.6761899418e-07 2.1961777032e-07 2.4116686934e-07 2.6979480151e-07 2.7814694865e-07 
2.3157713826e-07 0.00015019153983 0.00012636489801 8.5814268018e-05 2.8869402054e-07 3.9760684669e-06 1.0892165502e-06 0.00026651847234 0.00026994738602 
0.00021508113422 0.00021796883643 5.1778833794e-06 7.496224514e-07 0.00027013205224 0.00027015292185 2.7793080352e-07 3.4384140457e-07 2.4941198337e-08 
0.00021925193858 0.00021697564167 8.8086946557e-07 1.3244324603e-07 1.1192726025e-07 1.6988399054e-07 1.4262253066e-07 1.6843851549e-07 2.0213643221e-08 
1.5905731664e-08 1.3513374312e-08 0.00018121697364 0.00021253620203 0.0001777751996 0.00027016913979 0.00027017216032 5.9020013152e-05 6.1773904689e-07 
2.1676894863e-06 1.8939444582e-06 1.1804715189e-06 3.5495635497e-06 9.1599941837e-07 3.1497374185e-07 2.5711969539e-07 0.00026571886101 0.00025537507365 
0.00025728024326 0.00026652965572 0.00026459185152 0.00026895642999 0.00022053025778 0.00025150176142 0.00024384290556 1.0732002153e-07 0.00026675128934 
0.00019073967714 0.00012300738332 0.00024169180352 0.00020672843279 0.00020468734455 0.00025652841433 0.00024660676113 0.00016933658294 0.00019521635427 
0.00019592391756 0.00026384418838 0.00024570813337 0.00026394555398 0.00026999168704 0.00026461113125 0.00026434252132 2.5932615593e-08 3.3132656901e-08 
6.0116010483e-08 5.4083919628e-05 1.7245561775e-05 3.9420794311e-05 0.0002519699245 0.00026716997234 8.5964018915e-08 7.9934712531e-08 6.3198205208e-08 
0.00022025638819 3.9350745056e-07 0.0002693842979 0.00026589223359 0.00020555740452 0.00019661069764 0.00024147381106 0.00023860723151 0.00022742578348 
0.00018120867424 2.4845094848e-07 2.0130148003e-07 2.0359935652e-07 7.3950408247e-08 7.134099115e-08 2.1524221109e-07 0.00024217438028 3.4416790226e-07 
1.1910914885e-06 2.6902714164e-06 1.9155503173e-06 3.8216711891e-07 0.00022871401301 0.00019682645566 4.4076804825e-07 6.4298959929e-07 5.4266819101e-07 
4.8808493052e-07 6.1244669096e-07 2.6170773605e-07 5.2294302391e-06 3.8686799475e-06 1.5216085818e-05 3.6886759254e-05 0.00027013149651 0.00027018611602 
2.6672218279e-07 2.6767912832e-07 0.00010599831531 4.091637548e-05 3.4532036418e-08 6.8171552556e-08 6.8168865643e-08 4.187443663e-08 8.2967154209e-08 
0.00025871378215 0.00024815479026 7.5917706604e-08 5.6864985666e-08 0.00015002274522 1.9765539601e-06 7.0815608065e-07 0.00022994553897 1.9992926187e-07 
2.7389771902e-07 1.9215499248e-07 2.3166705546e-07 0.00020364508152 0.00023975440762 1.748835626e-07 2.1608339453e-07 7.3689401882e-06 9.6988589269e-06 
4.3814221673e-06 1.3607327786e-06 2.8453544487e-06 0.00027026980363 0.00026927653776 0.00027025552769 0.00026942384301 0.00026920430385 2.8666200789e-07 
2.5425025081e-07 2.8712877699e-07 0.00023124900306 0.00020559902888 2.9745548825e-07 3.5034326947e-07 3.1338153846e-07 2.0748658493e-07 2.0026577227e-07 
2.8353865454e-07 2.5286677486e-08 4.9806858495e-08 3.9921706512e-05 1.2114803681e-05 1.6616018805e-07 2.5992275764e-07 2.1175260621e-07 2.2076982149e-07 
3.4589796411e-07 2.7177515576e-07 3.0862082975e-07 2.0572721327e-07 9.1253268593e-06 5.609133646e-08 8.2603940519e-05 9.1513235234e-05 0.00025485818378 
0.00010845383946 1.3294487531e-08 8.5181100691e-09 7.3827040543e-09 0.00021875924998 3.7291570264e-08 8.8524099893e-08 4.8694900297e-08 5.030992237e-08 
9.8028375154e-08 9.4227521073e-08 2.8399360415e-08 9.5635549906e-08 8.4048364332e-08 0.00010183331448 5.1402655958e-05 0.00026492925378 4.9777885732e-06 
3.0606961674e-06 5.8517501023e-07 0.00016019286549 3.0688232919e-07 4.8338792906e-07 4.2964789628e-08 9.5952555181e-08 0.00015502355883 0.00015307859186 
2.542329578e-07 7.5245188213e-05 2.910581096e-07 2.058362103e-07 0.00025310418721 0.00024215321192 0.00019296550378 9.3632794558e-07 7.3744724406e-07 
2.2594050061e-06 1.9126498849e-05 1.8459434846e-05 1.737306742e-05 4.3004019413e-05 4.1890137501e-05 4.5305776069e-05 3.0841141373e-07 1.1232045407e-06 
7.1811128378e-07 0.00023688058477 0.00026151292319 0.00026322454743 8.9612043815e-08 2.1354127933e-07 1.7515908417e-07 1.5842272252e-07 2.0664735696e-07 
2.0734206728e-07 0.00017016710118 0.00027013542832 0.0002702308854 0.00027015418482 0.00026961016027 0.00026944554308 0.00027024663092 1.5487416194e-07 
1.7330766462e-07 1.1945475596e-07 9.5835462245e-08 1.1620871291e-07 1.4454510546e-07 0.00025154772189 0.00024524905499 0.00025965348431 0.00023864320003 
0.00022978497993 0.00021231935586 2.0154280768e-07 2.8931556452e-07 2.1761542292e-07 3.10327414e-07 0.00016563575482 0.00015686613353 0.00018355979427 
7.2080902518e-08 5.7483056492e-06 1.2904486824e-05 1.1196901707e-06 2.3643955452e-06 2.7876770113e-06 3.2026110118e-08 4.1833526928e-08 2.3020111473e-08 
3.7394114583e-08 2.6168728166e-08 3.0692319591e-08 0.00019244510223 0.0002647813639 0.00026907178879 6.1660688157e-05 0.00011773804091 0.00010786476748 
2.4595121602e-07 7.5837834963e-06 0.00027019963664 1.5206573191e-08 6.5341165332e-09 2.2678482266e-07 3.1712324021e-07 2.8729315482e-07 3.1605317904e-07 
4.246389596e-07 0.00012619962334 5.3093070685e-05 6.9625669207e-05 0.00019500970098 0.00012527560653 0.00015340985151 3.9515218027e-08 9.2883716018e-08 
4.1477844021e-08 2.6863157582e-08 7.1754648577e-08 4.1237782275e-07 0.00016600316751 0.00016050658831 0.00015275664966 9.3689630677e-05 0.00027021155882 
0.00027006741285 0.00026944725995 0.0002698713085 0.00026853014932 0.00027024121619 1.3150836166e-05 0.0001524787427 0.00015524728102 0.00018484622854 
0.00013012649144 1.790869904e-06 5.2792724427e-07 3.1341972975e-07 1.1267490036e-06 2.6854199299e-08 5.8837132878e-08 2.5770203319e-05 3.0711094731e-07 
3.0157992309e-05 2.1018041058e-06 5.6572696086e-07 1.8688244667e-06 2.6998113741e-06 9.5251175058e-07 0.00026223512187 0.00026724038902 0.00026464676668 
0.00024050630481 0.00025852357671 2.3598216331e-07 1.4602544199e-07 5.9415882133e-08 0.00019707893668 0.00017692237699 0.00017438832986 0.00012698776118 
1.3509780174e-08 1.1200280457e-08 1.9531338337e-07 2.7883460649e-06 1.0696970417e-05 4.230178659e-06 7.2729727909e-06 2.6638619752e-06 1.2370666892e-05 
3.3020229796e-07 5.3325423288e-07 6.5938620586e-07 6.1542058569e-07 5.2543002739e-07 4.4346865306e-06 3.9595243318e-08 6.3057337714e-08 6.1586003325e-08 
7.0486124727e-08 2.7313068007e-07 8.1484876428e-05 4.4306766813e-05 4.382937763e-05 9.8102632107e-06 2.5719109881e-05 1.6098694486e-07 1.9789275291e-07 
2.4430079918e-07 1.5420057773e-07 7.23907741e-07 6.6932047984e-07 1.2954679894e-07 9.7877936955e-05 8.7244229717e-05 3.6470975872e-05 8.1817551494e-05 
7.287322006e-05 0.0001495379148 0.00026991837426 0.00013683826513 0.00013362771863 5.7042037884e-06 6.001354957e-09 2.228208904e-08 0.00027011836911 
3.8929226388e-07 1.8137681722e-07 2.4184448787e-07 0.00026133311397 0.00026987588908 3.1689835503e-05 2.7164158965e-05 9.7749907155e-06 9.6157755304e-05 
5.7511345623e-05 6.8439030268e-07 5.2026904889e-07 8.351249639e-07 4.8966207316e-07 6.2027526077e-07 0.00025306069762 0.00020376839275 3.0231869134e-08 
9.6591095178e-05 1.8026770257e-07 1.4067305957e-06 3.7551821184e-07 0.00016498030659 0.00027012769833 0.0002700119173 0.00026945096397 0.0002700200268 
0.0002692798322 0.00027015761317 0.00011894140719 4.5377139277e-05 0.0001137845746 5.6169039603e-06 2.923189278e-06 1.0038184038e-05 7.3775026911e-06 
1.6761902033e-05 1.5078518112e-07 1.537628794e-07 1.0754302839e-07 1.3429040632e-05 9.4706081574e-06 5.0846889904e-05 4.0613584552e-05 3.6445622666e-05 
4.6913311355e-06 1.2429528696e-06 1.2130529026e-05 2.6825325112e-06 5.4487355739e-07 1.6496792318e-06 1.1233181461e-05 3.1122597426e-06 4.6357229502e-06 
9.956913086e-05 0.00012003952391 0.0001269007947 6.6846930187e-05 0.00010729737645 8.6246305228e-05 8.717467788e-05 0.00013958844985 4.3329714325e-07 
3.9983126492e-07 4.1687748791e-07 3.8306119371e-07 4.6468468236e-07 1.8757827336e-07 1.3851132546e-07 1.3621632745e-07 7.3608159144e-07 1.002485645e-06 
9.3848893917e-06 1.9710862527e-06 0.00017354571969 0.00012949017071 0.00018782812749 3.7122481443e-07 2.8005714993e-07 3.0717268107e-07 3.3193171581e-07 
3.6782304648e-07 4.2793076057e-07 1.5555449882e-07 9.3127667288e-09 5.240582775e-09 6.6065082022e-09 2.9521938395e-07 3.1514508026e-07 1.708132034e-07 
1.5711226262e-07 1.6302413669e-06 5.4188380862e-08 9.6998855099e-08 7.9375339871e-08 6.5838736971e-08 0.00016953093234 3.8019108139e-05 2.4751399642e-05 
1.166144598e-05 1.2667431471e-05 6.7518323361e-06 1.7951618057e-07 2.2004413179e-07 0.00017233633703 0.00015411895904 0.00012450087029 3.836195653e-06 
0.00027025405054 6.5608315114e-06 4.7131928564e-07 5.6966661755e-06 0.00026786347639 2.559238225e-06 0.00021032860764 3.6418964209e-07 9.5048857867e-05 
5.6426715669e-05 0.00027010714745 0.00027017615437 7.8502349553e-05 0.00012348535876 0.00014095082498 0.00011197489508 5.3410086903e-05 0.00011262508777 
3.387430904e-07 3.4544569661e-07 7.7548210746e-06 3.5447561033e-05 4.5885865909e-05 2.1591137803e-05 7.3643768663e-09 7.3403828942e-09 1.7507170726e-08 
1.0334879061e-08 9.0760101798e-09 7.258615995e-05 0.00015300305524 0.00012004309874 0.00013389707506 3.8572692091e-07 4.0429720409e-07 3.6284224653e-07 
4.6479396142e-07 6.8631179582e-05 0.00026646008393 0.00025868323405 0.00026360819404 0.00026046147223 0.00026883318047 0.00026648640837 0.00026678146426 
1.3923779736e-07 1.7563951491e-07 1.9781773659e-07 2.2805624231e-07 1.9654991702e-07 3.3442820725e-08 1.0812894638e-07 7.8832294705e-08 5.7715378343e-07 
4.9786870275e-07 5.3522804015e-07 4.534936084e-07 5.8012112832e-07 7.1106121829e-05 0.00011763788153 7.7411246234e-05 1.0395027721e-07 2.1082849898e-08 
1.5579850538e-08 1.7002134701e-07 2.1212038945e-07 0.00012329336876 0.00011657095377 0.00014129673701 7.4431971767e-09 2.0064773662e-08 2.1898120382e-05 
5.9493406272e-05 8.6667431034e-06 8.4985570372e-06 3.8464307814e-06 1.3051079851e-05 2.3499982221e-06 9.4516158439e-06 6.9917775178e-09 7.2647018734e-09 
2.4143589709e-08 0.0002635687664 0.00026768227745 0.00026648973802 0.00025308057529 0.00024249980007 2.7131151577e-05 7.8008475568e-08 5.5728658169e-08 
1.6397765267e-06 3.0972399811e-07 2.7826894054e-07 0.00026578916146 0.00026897898399 1.987015099e-05 1.7586058325e-05 5.2557974077e-05 1.1422371904e-06 
1.0458936828e-07 5.9107468056e-08 1.018098859e-07 3.3052128483e-07 0.00012416695132 3.1653525398e-07 2.6399099322e-07 4.1649610336e-07 5.6040046074e-07 
9.7817320559e-09 6.9901320464e-09 0.00014514456604 8.2043975576e-05 1.9758262547e-07 2.2562449569e-07 5.1950377065e-06 2.7703893483e-05 0.00027011936775 
0.00027018867601 0.00026447418041 0.00025868894211 0.00026837514547 0.00026845039791 0.00026661567566 8.2203059682e-07 2.3519604394e-06 0.000149590685 
7.3900534767e-08 2.1793044574e-08 4.7266060018e-08 8.1124644514e-08 1.0504077149e-07 1.680945211e-05 3.0213685402e-05 1.3633994239e-05 2.6070061322e-05 
6.7797033637e-09 0.00025755410305 0.00026048501036 0.00024543491803 0.00022049216738 0.00026113560871 0.0002207865578 0.00023132620184 0.00024164022108 
0.00022421022948 1.8056827605e-05 3.9734673433e-05 4.7443159068e-05 0.00023073973253 0.0002068199677 4.5218269253e-08 1.7037306718e-07 8.395848217e-08 
1.5046417555e-07 2.3441164511e-07 3.7434071569e-07 3.1351930646e-07 2.1734968122e-07 3.2859552698e-07 2.7005311714e-07 1.7132416763e-07 1.133579665e-07 
2.2803746527e-07 2.7196419017e-07 3.6645104314e-07 2.1788173949e-07 1.7926496902e-07 3.6400155733e-05 8.8982530307e-05 5.8310877967e-07 5.7497199549e-07 
3.8313081887e-07 4.104468138e-07 1.9604329616e-07 1.9777997489e-07 2.7400569441e-07 2.1158299983e-07 1.8100677187e-07 0.00019912987605 7.1714427508e-07 
2.3001023684e-06 4.4701880146e-07 4.4966412912e-07 0.00011892948067 0.00011521968702 1.0898687329e-08 2.0689472154e-08 1.7714018379e-08 8.5477559082e-09 
0.00026865310606 7.446310609e-08 1.2461773973e-07 4.2923651433e-08 1.5729170419e-07 3.1004861694e-07 3.8066595832e-07 3.4179660472e-07 1.660716613e-07 
1.032060692e-07 2.0056371869e-06 2.1536606442e-07 2.3908943118e-07 2.7852586077e-07 2.3176709729e-07 2.8180836529e-07 1.898980284e-07 5.2957409848e-07 
4.7447797231e-07 1.8668748764e-07 0.00024629015727 2.1068628817e-08 0.00021853264728 0.00025262667374 0.00018943165864 0.00024714429064 0.00023128503998 
0.0001625619916 2.2926270803e-06 4.4692940079e-07 2.1256293229e-07 1.2797107367e-07 1.7063865599e-07 9.7180712158e-08 1.1347724753e-07 8.1619998911e-05 
0.00026482265773 0.0002555807652 1.3405494714e-07 5.113451222e-06 9.778335975e-06 6.9448780188e-07 7.5793875794e-05 3.9493105616e-06 5.332895902e-09 
1.2861368392e-08 4.4858124496e-07 4.3319862696e-06 3.5571378515e-07 3.2129662013e-06 2.9569547258e-05 1.237892353e-05 1.6054375653e-05 5.048339808e-08 
9.7711377264e-06 1.9866721269e-05 2.4214297124e-06 1.0625392565e-05 2.1948174633e-05 4.3971629218e-05 2.1085080299e-07 2.8551237948e-07 0.0002059746466 
0.00011125720433 3.9109155625e-05 7.0002465592e-05 9.1981840259e-05 2.7143685816e-05 5.8282806302e-05 9.926094032e-09 4.5277362779e-07 3.4263579052e-07 
1.2851627834e-07 1.8487444161e-07 1.6929705981e-07 2.5139573132e-07 1.1050938709e-06 4.1111666271e-07 2.8097780529e-07 3.1734209338e-07 3.7136937558e-07 
2.884265944e-07 0.00021107337834 0.00016830575672 2.4697673557e-07 2.4488742509e-07 2.3546497927e-07 1.8251905714e-06 2.5223059788e-08 2.5817309343e-08 
7.349014493e-06 3.4748441601e-06 5.8924094642e-07 6.4047552693e-07 6.1744194907e-07 3.8273562253e-08 4.4812692055e-08 2.2890474747e-07 1.1468328559e-08 
3.8518541576e-08 1.1972058277e-08 7.0231872504e-09 2.2457771075e-08 0.00026249394308 2.9057848514e-08 2.6567033226e-08 3.1606875622e-08 4.0756817268e-08 
3.0303917631e-08 0.00016377863107 0.00013026113872 0.00027011678738 0.00027010949175 2.1452027007e-05 8.1097449029e-06 0.00026254884986 4.5119578742e-07 
6.907000562e-07 1.4300622178e-06 3.2697449934e-06 3.5817038681e-06 7.123653678e-06 1.0540590483e-08 1.0093008358e-08 9.2934649667e-09 9.0945165666e-09 
1.6772723946e-08 9.3417146181e-05 5.6232992053e-05 0.00013012295721 3.1429902127e-07 2.7183447173e-07 2.12900004e-07 1.2584997701e-07 2.1156424147e-07 
1.1719354014e-07 6.0583207305e-05 5.0778864789e-05 5.0752990577e-06 1.7738664007e-05 1.5550201919e-05 0.00022935355807 0.00020066975194 0.00023844212102 
0.00023336745925 0.0002207547965 0.00024140691038 1.1797757571e-06 1.3184281132e-05 3.3372877715e-07 4.2870776155e-07 3.1538511314e-07 2.680449925e-07 
9.5294172108e-05 8.0153679216e-05 8.0639850581e-05 3.4271607222e-07 3.1163236393e-07 1.5498172929e-05 3.3058577964e-05 1.9838569755e-05 3.7593688912e-05 
0.00023766859726 3.3818644103e-08 6.3829102516e-08 1.2293431407e-07 4.3643674099e-08 5.9225022001e-08 3.3592754546e-08 0.00027018247138 0.00027023560601 
4.1478646491e-08 3.2842726376e-08 4.4444771707e-08 5.4693620189e-08 7.1502303968e-08 9.6220094944e-06 0.00025456468696 0.00025929377171 3.9367522677e-07 
2.5683762735e-07 2.560135506e-07 1.2055314061e-08 1.4557462104e-08 6.4264716936e-09 6.6823543415e-09 0.00026986089839 0.00020766006428 3.7623938632e-07 
7.9880161714e-05 9.2182110927e-08 1.3888267574e-07 0.00026999085147 0.0002701603295 4.4558090216e-08 0.00016774450624 0.0002194862663 0.00018607993983 
4.7619257024e-07 7.2346028772e-06 9.4558931514e-05 3.8944776217e-05 3.2760866772e-05 9.5730476436e-05 2.3760800042e-07 4.9025886206e-07 0.00013086534585 
7.8882247647e-05 0.00014176409174 1.1455364288e-07 2.2876132965e-07 1.8697771726e-07 1.287108766e-07 1.5648831215e-07 6.9653301917e-08 3.7951212272e-08 
3.4524957652e-08 1.1149816572e-05 1.9613237871e-05 2.777147699e-05 0.00023102947498 0.00021253646458 0.00025549596384 0.000255416025 0.00021190427748 
2.4709978751e-07 2.7096947512e-07 3.4241924953e-07 2.6331906955e-07 0.00021795749265 0.00024775013828 5.2119881777e-08 6.4147568502e-07 3.8916497349e-07 
5.732335208e-07 5.7186886142e-07 0.00026997389895 4.5289021537e-05 6.4805799196e-05 2.6070646813e-05 2.5368754615e-05 4.9786537197e-06 3.3567270461e-06 
3.8230518037e-07 3.5181241884e-07 2.3029428986e-07 1.9911284486e-07 0.00015825934124 0.00011356671019 0.00011498715029 0.00026150988024 0.00025916860061 
3.7669357718e-07 3.3586873572e-05 6.9542022668e-05 3.2111218893e-07 2.8154970964e-07 2.7145229561e-07 2.6290937066e-07 5.4577241563e-08 7.7006538144e-08 
3.7442683775e-07 3.2845692635e-08 1.8464706654e-05 0.00027000249959 0.00026602993701 0.00026490030465 2.0228562096e-05 0.00014371550528 0.00017147858072 
0.00012144814314 0.0002128140686 0.00017211719032 0.00018029448931 0.00010520179075 3.3129301253e-05 0.00022050955556 0.0002504400584 9.5388472127e-05 
5.4008209803e-05 3.4288429527e-07 0.00012955389058 5.8877986637e-07 6.9687682142e-06 5.7784540727e-06 4.900416906e-06 2.3606530634e-05 1.2998273945e-05 
0.00020856687035 0.0002695893993 0.0002694370101 0.00026972347609 0.00026868837418 0.00026767509569 0.00026692431056 1.586604251e-05 8.9930122935e-05 
0.00016193776873 0.00016573207654 0.00027009616268 0.0002701042856 0.00027015793424 2.1623113902e-07 1.6857705692e-07 2.0239115957e-07 2.3419952164e-07 
2.3115484222e-07 3.6388339895e-07 2.3054768079e-07 0.0001495105011 0.00017932028662 0.00021457739326 3.9192167155e-05 3.2995031321e-05 1.7874430661e-07 
2.0817636082e-07 2.3705231272e-07 0.00027012363187 3.7225505832e-07 7.0627314363e-08 3.7804985179e-08 1.4522418375e-07 1.486724779e-07 0.00024098576904 
0.00022081171797 0.00025998092385 1.5074893382e-07 1.91885304e-07 0.00020319075127 0.0001989152902 2.1170133677e-07 2.2800937283e-07 1.8379225131e-07 
1.7336869523e-07 1.6951899963e-07 2.8949600352e-05 1.4793247184e-05 2.3810762629e-07 3.2917338806e-07 3.5958683925e-05 0.00022825021453 0.00017311704554 
0.00021984229029 1.4802295847e-07 2.3391944997e-08 1.9621933206e-08 6.0123181472e-07 5.1693508819e-07 4.9606615363e-07 5.8277465478e-05 4.0993164145e-05 
9.6466816891e-05 3.7856954114e-07 5.2340756378e-07 5.3579504177e-07 7.6997260395e-07 6.8079530381e-07 2.4041733344e-06 1.7141640234e-06 4.2124619998e-07 
0.00010881407618 3.8813107588e-06 8.3698672963e-06 4.20824398e-09 2.116478273e-08 2.7404868635e-07 2.2277251172e-07 0.00021157209182 0.00020176160176 
0.00024712777001 1.7623230834e-07 1.647409198e-05 1.3133437457e-05 6.5655252786e-06 3.5491711314e-07 3.9267861285e-07 3.5522222528e-07 1.8041683046e-08 
3.985016802e-07 3.4738099712e-07 3.137492955e-07 2.6937653341e-07 8.9387905811e-05 6.9213857052e-05 5.4583190611e-05 8.7767223732e-08 4.2525371195e-08 
4.8229962655e-08 0.00026984800115 1.3719423079e-06 3.3894317538e-07 0.00015164072778 8.2851675149e-05 7.6659130646e-05 6.1212901268e-05 1.5747811628e-06 
8.4853487302e-07 5.7182465289e-06 2.9946176305e-06 1.5620745381e-07 1.0548352035e-07 3.8467570037e-07 5.5135233929e-07 4.942846217e-09 1.1650587481e-08 
4.2330846714e-08 1.1601752909e-06 3.0730402639e-06 7.349770377e-07 6.0962051619e-07 1.2445489734e-06 1.5635225455e-06 2.601585191e-07 0.00020333780951 
0.0002303225227 0.00020182137351 0.00013418108047 0.00016963680019 0.00027011893685 0.00027018681228 1.3784281699e-07 1.7771118206e-07 9.4626880334e-08 
2.8225086521e-07 2.8314069808e-07 1.6027491923e-06 2.5985766763e-06 5.0531237655e-06 1.7605421115e-05 9.7796569449e-06 0.00021805307489 0.00016884167333 
4.7341780509e-08 2.2158126737e-07 2.0476952828e-07 1.1608990836e-06 5.0508633571e-07 0.00016093172567 6.1705129273e-05 5.141895013e-07 1.5919448989e-08 
2.2721519811e-07 3.6092951021e-07 0.00027011213058 0.00027017270445 0.00027016108366 0.00027016317577 2.1754479549e-07 1.8349487436e-07 1.4822368293e-07 
1.6129029491e-07 1.2993899133e-07 1.9578740354e-07 0.00026679722226 0.00027006636802 0.00026996790613 0.00012106110948 0.00016685524747 0.00016287256073 
4.9523088164e-07 0.0002700914979 0.00027015698869 2.0451305346e-07 1.8370919776e-08 0.00027015862831 0.00027016006661 7.8443872124e-05 0.00012733325194 
8.6751037181e-05 1.2859818841e-05 7.9830296698e-06 1.6388084948e-07 1.4273704884e-07 1.9640525084e-07 1.6957774595e-07 0.00025004508185 0.00023302930214 
0.00026858751824 0.00026441906397 0.00026613997017 0.00026903895484 0.00026779170232 7.2390076901e-05 9.7172257608e-05 5.1928292305e-05 4.2460038033e-05 
7.7994298897e-05 3.9040418419e-07 0.00026906223927 0.00026587067326 0.0002617838957 0.00026811477538 0.00026261288091 0.00026930138166 0.0002204144806 
0.00017125255144 6.7814349641e-05 8.3692243094e-05 2.3795105271e-05 6.2410542862e-08 2.0098330691e-07 5.4370648604e-08 1.0252488374e-07 4.6515287065e-08 
6.8615360531e-08 6.7542393669e-08 0.00026855689269 0.00026914367878 0.00026749065559 0.0002658369248 0.00025350155003 0.00023767795248 0.00022459001369 
0.00020018805459 0.00021965607761 2.3899583044e-07 1.8109304185e-07 3.5636373786e-07 2.2612416268e-07 1.4657413332e-08 1.3206267562e-08 1.7388670306e-08 
3.0496851106e-08 7.8187309356e-08 0.00027010608176 0.00027019797759 0.00027023543543 0.00027004361247 0.0002702815788 0.00027020534829 0.00027014912914 
0.00027016176544 9.7993293734e-07 6.7281477206e-06 2.3330798988e-06 7.0385518199e-07 4.7870094544e-06 2.2535342458e-06 1.1557560749e-07 1.3461114528e-07 
0.0002647692346 1.2250887042e-05 2.0535444091e-05 3.4828142808e-05 5.5556777464e-05 2.3800317614e-07 8.1099554041e-07 3.109516927e-06 5.8423916935e-07 
0.00027007469557 0.00024122965022 0.00026964337951 0.0002702064392 0.00026925086672 8.3196162343e-05 5.7710352764e-05 2.2726110793e-07 0.00014961560005 
9.1042942442e-05 0.0002584310509 1.1774948639e-07 1.2257335734e-07 9.1930722659e-08 2.0960794592e-05 4.0744754945e-05 2.9744825744e-07 0.00026917862167 
0.00027001626086 0.00027016318078 0.00027022242407 1.3116828194e-07 0.00024128613753 1.3433874455e-06 8.3449130446e-08 8.2887242826e-08 1.5417809252e-08 
8.3124248939e-07 4.7860950516e-07 5.5559560154e-07 5.6698751506e-07 2.4935063449e-05 2.4057346735e-05 1.1629136561e-07 1.2785858618e-07 0.00018533564042 
0.00022201893024 0.00014451804848 0.00016774036824 0.00021222792876 0.00018390977323 0.00020409938079 0.00013363838915 0.00011647951786 8.7127706527e-05 
6.4464181366e-05 2.0057028331e-07 2.3366068613e-07 0.00021521245411 2.2171009148e-07 2.5989931251e-07 2.6505294696e-07 1.8338802144e-07 2.1744578794e-07 
0.00027021420258 0.00027023996355 3.3544804379e-07 3.7210751017e-05 0.00017683829529 0.00016636848947 2.5202316993e-07 2.5285659882e-08 1.758073701e-07 
2.0229663925e-07 3.1775677775e-06 6.8973211395e-06 4.3741804364e-06 0.00025283491369 0.00023529176797 0.0002068609096 0.00020290636191 7.2627302818e-05 
9.2808863752e-05 2.8207652672e-05 4.3660371691e-05 8.8038437134e-07 8.4671526182e-07 6.0199108632e-07 2.3951831508e-06 0.00027017380463 0.00021076422364 
0.00026858567154 0.00025778569209 0.00026037557066 2.4449547003e-07 5.590012008e-07 3.8922844509e-08 3.9927768206e-08 1.7622668471e-07 0.00027016501238 
0.0002700602348 0.00027014925179 0.00027016594497 2.8549562017e-08 1.5633985276e-06 8.8616729829e-06 2.6162896131e-07 2.2987393977e-07 2.4337850923e-07 
1.8794220457e-05 2.4807724559e-07 8.495890358e-05 3.0757508139e-07 2.3589968853e-07 2.7512592465e-07 2.6172187e-07 2.3062483557e-07 1.8953198628e-07 
1.1193260114e-06 5.3295635498e-08 1.2346939264e-07 0.00021950356933 1.8533064938e-07 1.8755384436e-08 1.1670954448e-07 3.4419997297e-07 7.0451849473e-07 
3.0516569206e-05 9.041275723e-05 7.6769069207e-08 8.5772611843e-08 6.5941495179e-08 9.220933088e-08 1.029942678e-07 0.00013531281749 1.8297874854e-07 
2.1707176256e-07 1.9762576464e-07 0.00026928130911 0.00026903462359 0.00026710402149 0.00026419213653 0.00024443668692 0.00025713949381 0.00025263480922 
4.1464920966e-07 9.9936582563e-07 6.7259487184e-06 1.6173115848e-07 1.104401227e-07 0.00013302761245 1.2722720867e-05 0.00027016039154 0.00027012105558 
0.00026987930522 5.307882573e-08 5.2620940864e-08 2.6634921677e-07 2.5529291943e-07 2.8393320752e-07 6.182099127e-07 2.8156461277e-07 2.2056881154e-08 
8.5088766267e-06 5.0476001537e-06 0.00018299860174 0.00013752131579 5.2636225215e-05 1.852349428e-05 4.9095445917e-05 2.1069083348e-07 0.00026994135944 
0.00027005143835 1.0348787637e-05 3.7765283723e-05 1.1510768944e-07 0.00027007359685 5.5104055386e-08 1.6232884032e-07 1.2953843451e-07 4.3675816246e-08 
6.3618777274e-08 2.1654039877e-08 4.5180189403e-08 6.8228438101e-08 3.6647717333e-07 3.2974670713e-07 8.9633168564e-05 0.00016714377567 0.00021413415533 
0.00013082240215 0.00020059665097 0.00027001668447 0.00026970516083 0.00024797323813 0.00025729024606 1.3563685642e-07 1.4618406782e-07 2.5601160667e-07 
0.00010606359764 0.00014468960213 3.8296225854e-07 2.3640074364e-07 3.0543487358e-07 0.00016751321348 5.0267484458e-07 4.1917031424e-07 2.0366964047e-07 
1.9331681748e-05 7.5921218708e-06 0.00027019382719 0.00027007743439 0.0002696167177 0.00026987720146 0.00026979699727 0.00027027592126 0.00027030540321 
4.3422124747e-07 4.8995063922e-07 0.00021600238433 0.00023555422157 0.00026975209389 0.00024383448895 0.00020939853667 0.00023730918924 1.0573826962e-06 
1.5956282345e-07 1.3792240182e-07 0.0002700897113 0.00027022067936 0.00026821116456 0.00026647602096 0.00026227096862 0.00025381843332 0.00023364063935 
4.7073108917e-06 2.5898332962e-06 1.7934901637e-06 3.2479585101e-05 6.7883917196e-05 2.4560691311e-06 1.6547205589e-07 1.5752818942e-07 8.6593159353e-08 
1.5472387142e-05 1.8046296543e-05 3.3697916549e-05 3.2751671232e-05 5.4756669169e-05 1.5701943535e-07 1.8384328904e-07 1.3708010974e-07 1.8401719015e-07 
2.0817798492e-07 1.060316837e-07 1.0423220211e-07 9.4250517528e-08 6.6838993683e-08 4.0013859868e-07 1.2775139353e-05 1.00998063e-05 2.3339168249e-08 
3.2851184575e-08 3.0635288357e-08 8.8488270521e-07 5.0634361749e-08 0.00024202740751 0.00019750233636 0.00021281637781 0.00025187453504 0.00025149766002 
2.8320199995e-06 0.00026558257564 7.4204307779e-05 5.5017744198e-05 7.5360414059e-05 0.00016616245753 0.00017517113145 1.2382524564e-07 0.00020632111745 
0.00026501565367 0.00021811177908 1.4969734367e-08 2.0714157987e-08 9.0423986656e-05 6.7575864676e-05 0.00024307383937 0.00025129805264 0.00026455762164 
0.0002647652948 0.00025944662082 3.1622101858e-05 1.5666286031e-05 0.00026808752459 0.00026957880185 0.00027020047758 2.3365320898e-07 3.3347343535e-05 
6.540025342e-05 4.1821343462e-05 0.00018760859253 2.8740586936e-08 9.8973025717e-05 0.00010610801955 6.407498037e-05 0.00023872593493 0.00024004195298 
3.0290935446e-07 2.6619853677e-07 0.00016113992461 0.00025362827132 0.00025926007861 2.1035701827e-07 1.9468518727e-07 4.5909264191e-07 1.5551124042e-08 
2.0410304746e-07 2.0251554356e-07 1.8705028923e-07 1.6979107797e-07 5.4965074831e-07 0.00026972609445 0.00026867973923 1.8873077019e-07 1.5992848236e-07 
1.7523966581e-07 1.5448514549e-07 1.4318163768e-06 2.004096317e-06 6.5967584928e-05 8.2602728509e-09 5.0138329195e-07 6.0510341381e-07 6.2421731275e-05 
0.00026707282497 0.00026988348589 2.9727760685e-07 3.6230434952e-07 2.6378291806e-07 4.3262379885e-05 2.4273370357e-07 3.354230816e-07 8.0197592539e-05 
0.00027019850211 0.00026947582441 0.0002690058637 0.00017499594549 0.00027014482622 3.1914389302e-07 9.6043348648e-08 2.8847307145e-08 6.1239863342e-08 
1.7320368346e-05 4.5037385074e-05 0.00027015291932 0.0002702557214 0.00026860910826 3.4122230971e-06 0.0002701611628 2.307704177e-07 3.271174074e-06 
4.2050819253e-06 5.5119168554e-05 0.0001037370898 0.00010195440285 1.8135239149e-07 0.00027018629031 0.00025033159586 0.00026150064924 0.00026791681652 
7.3742878502e-05 1.3683550325e-07 1.2431763666e-07 3.2560351265e-08 3.6541773544e-08 4.5823434634e-07 0.0002665923099 0.00027019812463 4.7093097644e-08 
5.4385015259e-05 0.00010244853288 4.4955645268e-08 6.0493103035e-08 2.5328758244e-07 2.0427638493e-07 8.5374203767e-08 9.5866801829e-08 3.2171386274e-05 
5.8563250453e-07 1.4658027944e-07 1.1330999564e-07 2.4403000695e-05 2.1021702565e-05 7.2528069784e-06 5.2894803194e-08 0.00027019759624 3.5582573951e-05 
4.4146426827e-05 0.00026576370326 0.00026906983677 2.0480493922e-06 5.5490506719e-07 2.9607820862e-07 2.5137353327e-07 2.8384220515e-07 1.9024781947e-07 
1.8219974763e-07 1.1362172808e-07 2.0337448586e-05 2.4464354221e-05 0.00026954778 0.00027033472183 0.0002703410616 1.0196681851e-06 3.4937605076e-07 
4.8601772675e-07 0.00024162367639 2.8189591848e-07 2.5871518796e-07 9.7859721861e-05 8.551938073e-05 0.00026160215946 0.00026866117083 0.00015346671775 
7.2211083562e-08 2.1076616431e-07 9.412481961e-07 0.00027012055291 0.00027012182758 2.2517603164e-07 0.00017097281922 1.4286893721e-07 5.341227503e-06 
1.307400685e-05 0.00012577981071 9.9909910383e-05 0.00026996758778 9.3521616923e-06 0.00027027135536 0.00025810845128 0.00014309141527 0.00015619530604 
6.4545059377e-09 4.5546765477e-05 0.00026360129102 0.00026506680707 0.00025664007466 0.00027016310288 0.00027012144161 4.2689051853e-08 6.6678885087e-08 
1.7584065485e-07 0.00021639968866 6.0670140294e-07 7.1753328032e-07 3.827100984e-07 4.1985941534e-05 1.495072487e-05 5.7857596026e-06 1.9442010213e-05 
0.00026993295609 0.00027017535956 0.00027014229432 6.5623959497e-07 1.2865384827e-05 2.3889507719e-07 4.8317923653e-05 0.00020076947564 6.5686862644e-08 
1.807597851e-07 0.00016881645226 0.00011138927727 0.00027015534855 8.0439571736e-08 0.00027014666894 0.00020522727207 0.00017674939616 9.7004991732e-07 
0.00017607829608 0.0001561352302 0.00014256222681 0.00016919569971 1.490525541e-07 2.2462713081e-07 1.6576397855e-07 1.0276399152e-07 2.5330936537e-08 
8.0343753552e-08 1.4346213727e-06 3.7282856688e-07 0.00011230927572 6.8014868194e-09 0.00027011711196 2.2942283463e-06 7.3377997595e-06 1.2636326891e-06 
1.9962597394e-06 8.1360632731e-07 0.00010622154778 6.5568032984e-05 1.798342957e-08 0.00019771140518 3.3548951022e-08 6.9127394995e-05 1.2888662077e-08 
4.3545772438e-08 1.9637799598e-07 1.2601153472e-06 2.5314078628e-05 0.0001539357409 0.00010113282608 0.0001500430599 6.005494725e-05 2.1182727389e-07 
2.4596000776e-07 1.2833723739e-06 0.00024146440638 0.00026010416842 1.1072025562e-06 0.00021215764938 2.660264211e-05 6.0345040677e-05 6.3771712225e-05 
1.9213703069e-07 0.00026951291429 0.0002675827281 2.678921084e-05 1.749680192e-07 0.0002649279557 1.8558932819e-08 0.00012615782933 1.2864296004e-07 
5.4070713635e-06 3.3415134002e-07 5.3797915551e-07 2.3457754714e-07 0.00012506147087 1.4999116745e-07 1.0847797371e-07 1.8303853709e-07 7.5139115976e-07 
5.5134281397e-07 0.00014282971269 5.6144190498e-07 0.00010381193391 8.3207009631e-05 6.2819930559e-05 9.8262558178e-05 9.8279374055e-05 0.00022527264707 
0.000253460233 1.8805699371e-05 2.6502254424e-05 6.3851537584e-05 4.3616405377e-05 2.3380291792e-05 0.00017349184523 1.731280411e-07 4.1214927009e-07 
4.6190721689e-07 0.00026982909372 5.5518142939e-07 1.8017447095e-07 3.1628251367e-07 3.5823214214e-07 4.38880009e-07 4.239466004e-07 3.8453537623e-07 
0.00025699908778 0.00027011338483 0.00015208547227 1.4638222152e-08 4.9870526744e-08 1.5405214246e-08 0.00026217974232 0.00026959677971 0.00026839480486 
0.00026919055641 0.00027005487792 2.0026117352e-08 0.00013901220046 0.00010173370267 6.4064710482e-06 3.8906290477e-05 0.00017868525934 1.3737373898e-08 
2.0271278168e-08 0.00026701988836 0.00025956304064 5.8398964101e-06 1.2498985337e-05 2.1031204833e-07 7.7637063959e-08 7.8891706952e-08 0.00027015843513 
0.00027016393219 0.00027010026486 0.00027004906522 0.00026778128147 0.0001490818119 0.00011038721736 0.00016534323867 0.00010987776325 0.00013946182036 
0.00012389627537 9.4586343755e-05 0.00015900827802 0.00010147016592 0.00023270083318 0.00020026247742 0.00026631595491 0.00012799732059 0.0001546620772 
0.00014649913743 0.0001209425368 0.00016222560542 0.00026663748544 1.8816740315e-07 0.00027014199317 0.00026271826773 1.395031571e-05 1.2530943362e-07 
1.0027259175e-07 1.1719694055e-07 0.00026580314327 2.8049006309e-06 2.6752320392e-06 7.0642685785e-07 0.00017524620197 0.0001675653014 1.3137193778e-05 
0.00011171538638 0.00015814921352 0.00014244696563 1.4454415176e-07 6.0062968536e-08 0.00021277130998 0.00026959143213 9.429040047e-05 7.1153647112e-05 
0.00027012434463 0.00026821418622 2.9810931576e-07 3.1617451893e-07 2.5451403713e-07 1.6969013024e-07 2.0069392699e-07 2.2623397089e-07 1.4358082358e-07 
0.00027006752962 0.00026842379385 5.4906591296e-08 6.7492269135e-08 6.6238068815e-05 9.2721360575e-05 0.0001278300029 2.0802257383e-07 2.2394248541e-05 
0.00026993345384 1.3477295824e-07 9.6139835188e-08 4.7657788241e-07 1.765019319e-07 0.00026958194309 1.0491543593e-07 1.8222192009e-08 0.00027013937646 
0.0002086162762 0.00019739251645 1.6964173974e-08 1.402746533e-08 1.8223713233e-08 3.5261680711e-08 3.6234068505e-08 3.3844262341e-05 3.8764074774e-05 
6.1628735889e-05 2.1491353978e-05 0.00024997266761 3.9062686371e-08 1.1263226696e-05 1.699565616e-05 1.6559023047e-08 1.2899688053e-08 8.4286181528e-08 
7.7906870278e-08 0.00013797251356 3.8612406803e-07 0.00027016091164 3.3384189784e-08 2.2166327199e-05 3.2982324781e-05 1.3612573484e-05 0.00019401148732 
0.00026985329607 0.00026615563243 0.00011575433865 2.3104798236e-06 9.2156398158e-07 0.00019668253869 0.00023598573246 0.00023805116618 0.00019535944238 
0.00020635722972 5.0662264552e-09 4.5962319544e-09 6.8872395999e-09 8.6509645902e-08 0.00025391915469 6.8468172074e-07 0.0002657373303 4.0913917132e-09 
4.0127461582e-09 5.912957652e-08 7.8413354432e-06 0.00026621222158 3.7580264023e-06 0.00027031722258 1.3124176576e-05 1.1343854359e-07 1.1262276075e-07 
9.3332381917e-08 1.320335069e-07 0.00012474927659 1.9943756289e-08 0.00022251150181 0.00026552704615 0.00017076997138 3.0846449469e-08 2.1688731909e-05 
0.00025623467536 0.00024083899873 4.0070127424e-07 9.5943669745e-09 0.00014433640788 1.2196746957e-07 4.188739642e-07 1.4426963971e-05 0.00025969071312 
2.4416671541e-06 6.9326847483e-06 0.00016679403709 1.8398452389e-07 1.4626260441e-07 5.9527044479e-08 8.4097220332e-08 1.0693992244e-07 9.2081805682e-08 
3.8136279374e-05 2.5696907149e-05 1.6040242831e-05 0.00027022000682 8.7888253101e-07 2.4531184744e-07 1.2246390714e-05 2.621164449e-07 1.8524352689e-05 
3.2230291384e-07 0.00015979527176 1.5956846165e-07 4.9963214713e-06 1.2174787843e-05 8.9993856787e-06 0.00012571914168 7.8788304473e-08 0.00027016955024 
5.2596321012e-08 3.8261456005e-08 8.7167667358e-08 4.4588953257e-07 0.0002701667729 0.0002702142841 0.00027019404281 0.00027021695377 0.00027015321032 
1.3248883109e-07 3.251583985e-08 1.5318477705e-08 2.5923481395e-08 9.4138722716e-09 1.4323792191e-05 0.00027016849029 0.00027015674614 0.00027011675091 
8.106356464e-09 1.0414887531e-08 4.8684806412e-06 2.0129075317e-06 0.00010164889792 2.2909309826e-08 2.9779491361e-08 8.439786079e-08 9.8812303152e-09 
9.1624402932e-06 0.0001250091764 8.5866621405e-08 1.02285319e-08 7.2265598765e-09 0.0002701867236 0.00027017798036 6.7792011619e-09 0.00027018540479 
9.9194700621e-08 7.9704995134e-09 1.7731041918e-05 8.6907577586e-08 0.00020268108159 4.4916557234e-06 9.3458632295e-07 4.5153706654e-07 1.2822345331e-05 
4.5978055235e-07 1.6329565591e-07 2.0334368655e-06 0.00011365903632 5.3704482078e-05 2.2866846426e-07 2.2618312118e-07 0.00026995948079 0.00026946950091 
0.00015305478928 4.031327023e-05 9.0899771852e-05 1.6486508713e-08 4.8438354375e-09 8.0414092192e-08 2.8833423216e-08 2.7956798933e-08 
Stress%20xx%20component 1 13895 double
10834.702293 1315.7141256 10170.97364 1295.1849348 -9774.1589575 1801.2556654 -14537.846575 1824.3490569 -11966.996271 
-1530.5471846 -17527.174104 -1485.6052482 -21424.229713 -21673.706438 -36922.588333 -36990.61943 2808.339055 3344.8680335 
3932.2943684 4460.2555526 5142.5131528 5502.4815747 2371.3147855 3058.8571323 3679.9409477 4175.5261789 4890.4151119 
5509.5067004 6987.1611117 12588.880933 12296.728632 12439.169675 12317.911097 11951.08914 11964.206768 15999.07699 
13283.690229 12696.434924 13807.186355 11955.723501 14089.248148 14401.02298 2741.8847352 3260.6182744 3713.689971 
4250.469228 4672.6736465 4998.4133641 2350.3866355 2985.9388733 3480.315522 3946.8552093 4646.6722613 5142.993751 
6416.8044691 5.6920614055e-13 8.1315162936e-14 1.3552527156e-13 5.4210108624e-14 -3.7947076037e-13 -1.0842021725e-13 8.1315162936e-13 7.0473141212e-13 
5.4210108624e-14 5.4210108624e-14 3.2526065175e-13 1.6263032587e-13 -3.2526065175e-13 1736.5688998 1894.2732691 2414.6791313 3020.2287408 
2283.4429257 -1204.5769097 1769.814241 1826.4028475 2204.547724 3238.8406502 5931.9805128 39090.796372 132788.38711 
-25411.439945 -25402.463063 -17265.431102 -21523.618289 -5752.1117849 -6639.0087477 55047.233009 69654.311155 -591.97401826 
-51146.76482 -9478.071929 -17646.022895 -24570.067441 1656.8293337 1766.5621778 2196.1975538 2989.3721207 1574.6056452 
3729.1642161 1726.7974138 1709.7131975 1962.1551373 2777.8183939 3891.1949015 23033.647965 90928.941322 1810.8394892 
1805.9002399 1789.6298651 1797.0068487 1809.1621988 1811.0302254 1825.403666 1810.8629683 1795.0954297 1792.1016514 
1805.5475001 1810.7172321 1835.4850878 2298.394872 2411.5272041 2399.5537559 2327.3980773 2204.9511576 2043.7043039 
1993.8324173 2367.8131622 2459.2751516 2382.0840615 2292.0380487 2151.0506616 1971.237697 5113.7607458 5633.3585501 
6846.2131869 10185.390931 -376.3325736 16774.801291 6795.2414126 4924.9231335 6025.7675922 8139.8811693 10072.1285 
2758.3197016 -23798.791878 2232.0148212 2366.1527625 2386.5912867 2345.1089679 2246.9923202 2085.6943645 1953.7062292 
2326.5262451 2429.3470997 2397.7529162 2324.4678087 2188.5412131 2004.0445739 4278.8621441 4404.7236562 4943.9411968 
7820.78619 13339.891529 16325.271548 5921.9786457 4147.5784008 4551.3795418 5362.2252047 4645.1919071 -2141.4395845 
-22135.622832 -3214.6862382 -3601.7851774 -4033.3392491 -4809.4112521 -5776.576666 -7476.1590621 -2785.2370536 -3394.0744109 
-3750.303736 -4317.3625989 -5000.7224622 -6422.2460063 -10482.928257 -12532.480501 -12742.823708 -12763.973961 -14067.616844 
-12489.867665 -16847.292342 -12259.130666 -12506.600401 -13104.058882 -15979.119463 -17945.827696 -17978.184904 -20529.56449 
-3130.814866 -3498.3150607 -3957.3770904 -4594.9178499 -5496.113503 -6047.5347681 -2732.4932509 -3300.9928066 -3691.5337765 
-4239.8387984 -5030.8817707 -5905.7960848 -11365.050904 8.510987054e-12 1.753697014e-11 6.0444271116e-12 -1307.3599306 1.0896231833e-11 
8.2670415652e-12 9.2699285748e-12 2.0003530082e-11 1.2576745201e-11 4.8789097762e-13 6.9931040125e-12 1.5829351718e-11 2.5478751053e-12 1524.3076203 
1155.7332299 660.19364149 64.232677791 -606.96943142 -1263.7021851 -1874.1138258 -2349.1195766 -2730.1466651 -2979.8809881 
-3084.907827 -3037.1193217 -2764.7563565 1671.2507591 1353.770427 929.32867898 367.68543379 -307.36218623 -975.47561025 
-1621.8013041 -2143.4684374 -2571.3480868 -2908.4728264 -3076.1594706 -3084.6965977 -2903.0763031 -2312.995543 -26605.342681 
-15229.102011 -21905.637291 -5194.2650144 -7513.842182 -9008.970419 -10224.81047 -11752.768449 -16760.299517 -20628.738966 
-17386.279807 -20751.381891 -13561.79819 -134952.96175 -109265.54091 -32217.06759 -4432.2941001 -8038.0918432 -9020.8388047 
-9962.0857119 -11133.252505 -14629.734691 -20566.679398 -22360.712411 -22642.047832 -19420.808349 -13161.60529 1477.4111454 
1024.0279035 491.57822792 -94.855849204 -712.18311466 -1294.1385015 -1822.784288 -2277.146024 -2611.5030423 -2820.5045709 
-2935.8418697 -2884.4784132 -2608.3022259 1671.1542829 1265.386432 786.93299878 201.28290415 -420.90589618 -1034.3563425 
-1598.0215016 -2093.4274378 -2484.8095367 -2738.7547076 -2886.3250092 -2916.1161622 -2737.4777472 -2253.7632989 -27003.321097 
-2964.5731483 -13169.570372 2687.1283754 -969.40240298 -7342.1139205 -10805.478965 -12472.971153 -15999.080842 -19707.068059 
-18329.027393 -24132.598444 -16980.913277 -150526.70071 -43708.778653 -17222.745503 -5722.554438 2955.2559733 -5354.0524297 
-10628.181821 -11508.842919 -15721.331729 -21631.913132 -22699.619065 -25471.435987 -24040.535683 -22596.680382 -33835.620305 
-25920.058878 -22051.896922 -21759.17981 -22197.790675 -22535.095628 4633.8278301 20430.090866 -5905.1760496 -10300.169582 
-22446.95138 -22157.576186 -21701.95831 -21799.211076 -21725.064173 -21546.1975 -21868.483958 -22064.403775 -22007.891883 
-21669.813419 -22239.732619 -21521.639751 -21760.342626 -21905.357354 -22239.919797 -21808.139435 -34535.544244 -26707.05448 
-20281.885093 -24878.236053 -23271.836673 -22467.110874 46093.481217 36163.408039 -10314.722052 -21654.826703 -22895.774166 
-22820.577501 -22043.414845 -12798.552401 -13893.40881 -15594.017106 -17516.501402 -19550.462355 -23399.026998 -12830.004866 
-13296.601245 -14582.992272 -16729.580682 -18893.548164 -22416.52454 -34323.623052 -28234.640197 -29767.182588 -31291.26829 
-41628.671227 -30737.250514 -27567.915165 -46251.100167 -25782.402008 -34527.842903 -57016.767459 -49871.677548 -32946.323917 
-49169.075471 -11862.418001 -13814.846593 -15767.167083 -17508.704708 -19799.739307 -23726.145446 -15766.52209 -13056.854171 
-14864.5228 -16660.059745 -18853.38854 -22210.119304 -36019.115824 -21295.568128 -20593.074813 -20807.052367 -23678.773493 
-23144.923717 -22901.453811 -23246.01299 -23004.26641 -23667.453469 -22604.065777 -22786.48964 -19963.315866 -19239.905054 
-21987.317525 -21006.032388 -22962.416204 -21430.108717 -22330.300822 -22450.353663 -20930.437632 -22371.837804 -23230.807358 
-26179.946663 -23321.783714 -21812.798048 -19236.696987 -18448.396889 -21154.365932 -21170.64656 -20040.953204 -24411.460609 
-22903.147146 -23075.832319 -23473.941664 -23103.018906 -23554.574081 -23086.135654 -22995.422919 -21091.402254 -19053.541476 
-21776.042881 -21623.463109 -22525.441139 -23749.481604 -23408.608018 -20899.192372 -21120.274472 -23580.90824 -24028.374137 
-26609.543669 -24734.082936 -25298.456912 -18867.204852 -16659.437867 4050.8547156 3229.2528178 4925.6310523 3262.560786 
4855.4186501 3006.5578975 4145.3300915 5125.6430369 4013.3998996 3003.6238644 5477.033704 2902.9719845 4972.7043399 
3723.1927924 3010.6542648 3548.2090761 4779.2378524 2898.9425217 4847.541296 4428.9263926 4374.7097485 3576.1913594 
4436.9706806 3864.2331071 4535.4789047 3869.6463663 3460.4466007 4787.475517 4127.3644299 2558.8941291 4125.8822011 
3999.4227218 5732.439845 3075.8650448 4820.1082741 3720.2032144 4930.2488608 3144.0375519 3256.0228124 2616.469698 
6035.6238702 5243.9024212 2664.8806906 4766.7023659 5415.9223503 2590.5612598 2770.3858973 6203.5679873 4571.3088128 
7891.0777111 5833.4099439 8335.9281152 2671.4647977 2027.9241382 1519.7668189 7342.2803993 7192.7344282 5173.2186505 
1675.3087053 2054.4793559 2660.8421814 3248.9616273 3075.217278 2937.1448295 3801.3364767 3515.790359 3533.9853156 
4378.4560351 4018.9509201 3863.2039658 4882.1359204 4657.8325959 4725.0395757 5566.7127924 5193.5611093 5013.7773651 
5672.0251323 1516.560955 1605.8222625 2396.3433447 1734.8474314 1780.7242602 2885.2332493 1308.8264532 1284.0900779 
2761.528026 1791.6860151 1791.6860151 2704.8416741 1431.6874265 1474.2108048 2744.4848724 2746.7874333 9501.1939582 
9055.2618846 5857.3079644 7530.1599678 7367.5085613 5490.6086234 9312.2425258 8552.4252724 4999.4082981 7134.3153689 
7185.52674 5151.6978243 8910.506153 8935.5304054 4740.7334434 4742.8595954 2959.9742152 3191.1596008 2948.0975079 
3380.1975324 3671.9731558 3227.4694398 3919.8960333 4061.8055417 3914.8020956 4394.7374191 4507.6238467 4222.9340192 
4716.2102282 4999.648971 4292.1020382 5054.2937859 3948.3107247 3682.7716982 4008.5459163 3869.1460596 3470.9345826 
4250.6974883 4513.8165712 4654.769444 4304.0597081 3985.2528061 3774.4013918 4078.5898112 3871.026583 4039.9584245 
4799.5801883 4234.7072894 3165.214414 3095.4198267 3320.4014363 2892.3031049 2861.6416091 3494.9253578 3754.4524775 
3381.7205036 3056.4666676 3120.6289951 2948.3959623 3173.7096231 3205.8863613 5202.6822855 5309.1418576 6247.2001623 
5270.4314744 5683.0358665 5653.80164 5179.3515371 5005.1712312 4971.4329612 4865.1329148 4834.178233 4899.5008128 
4610.0994136 3215.7998277 3166.0512366 3114.8609556 2660.2434866 2912.2717726 3255.7921126 3422.2432283 3611.192055 
2937.5223798 3090.3896059 3344.4548278 3684.8840707 3808.2005709 4829.6589185 4850.5318385 4707.4864171 5802.8534746 
5827.122776 5011.8542484 4760.0721771 5309.8200111 4561.2157361 4391.3740718 5005.2867393 4991.5890272 4915.3733543 
2896.5815542 2652.1053071 3027.9581236 2785.2808564 3245.5018158 3138.1546666 3951.891089 4110.0788843 4193.3038575 
4566.7302133 4493.3159406 4498.4464341 5631.1901089 4959.6766601 6287.4159388 5415.5506249 5002.7772045 5230.5826177 
3934.0869547 3988.9510207 4030.0003682 4321.2178393 4010.2554929 3944.4070939 2820.2310406 6119.8682155 2736.2085368 
5176.4662873 2611.1667914 1857.3331208 874.90201969 1775.6251927 5013.857795 1726.03452 2699.7943784 2534.5451709 
6459.9012078 1756.9081031 -2214.9675112 1672.8903099 4927.8689142 2157.1143363 1668.3015491 1957.7842099 -616.36527479 
1658.6999228 4579.5460954 -156.94010624 3570.9543458 2055.8099336 3100.2053676 2250.4615892 3936.5562991 2320.4308688 
1902.0984678 4080.5173884 3034.8690484 1674.6626089 2501.9378485 2637.7370853 11073.478607 1787.7020989 3477.9502309 
2070.2875565 4079.3485675 1717.0463839 1683.1798973 1846.8166635 17750.092425 1643.6043297 8920.240465 3782.2071316 
8023.8763261 1717.0024697 1649.3980503 10750.365432 -950.57245542 14078.170672 14873.661971 -26669.045395 1751.4895604 
1754.3239888 1759.0553822 22237.099389 -19315.746365 -5268.4795215 1726.1938481 1695.3069885 1676.0244815 1743.3661987 
1744.892752 1667.3903501 1681.1431257 1699.7560628 1688.1974573 1719.0979707 1720.8545715 1656.4361541 1689.5165645 
1680.7092143 1669.5089153 1718.0840649 1707.5268246 1672.2928634 1626.1495367 1773.3628604 1671.8342271 1680.4204096 
2026.0954694 1853.8317235 1811.3866082 2678.0050354 2524.3894865 2332.1832801 5577.3525707 3683.2497016 3021.5283949 
33537.033896 3331.223976 3447.6032381 -1441.1168693 -51555.033947 -8364.4668405 45014.989699 -34181.741558 -18012.197745 
-6054.6960105 33133.434383 -41604.977367 -39589.954214 1176.6297424 1518.3924021 -15870.651807 -4381.0763273 24300.058658 
-18917.719904 -4043.0875689 1771.3898912 1851.8934829 1783.0490427 2065.4704094 2156.4377058 2035.4521961 2763.4698682 
2358.905146 2715.3459505 2969.8992361 6622.1513155 3393.3460345 -1595.3835316 -4162.6402162 11225.659899 18497.700631 
2411.1434008 2233.9958062 2344.602062 2007.8216078 2135.5738806 2227.2977155 2785.8970671 4268.9833611 3911.4961837 
2048.8856983 2482.5250939 2619.2270691 3014.5640821 2394.1736955 3077.1534263 3600.1590393 1686.0169952 1789.6460576 
1827.1810137 1879.0343743 1819.1978577 2076.6543392 2289.2882905 1977.8363875 1717.0470497 1829.5136007 1759.4745617 
1934.0556265 1931.3174398 -18891.212899 8367.9918116 8767.9124734 11118.24407 4462.9695394 2172.3153468 11569.049151 
-10330.763247 4151.1690857 647.37114984 6226.7569361 1314.7783779 3409.0154459 1684.8193311 1734.6665639 1729.2970456 
1715.5547377 1618.6712512 2023.8538906 1924.2313152 1892.1097287 1854.4914894 1728.853254 1717.9650991 2010.1164143 
2186.0376959 4445.3277438 4297.5644112 5075.8532539 11256.58825 7592.7274703 17713.807449 4311.7216163 8955.0584437 
3811.2953393 3120.6199278 4474.5000928 5487.595829 4500.3692037 1722.5668384 1728.5968682 1755.8860323 1792.1887439 
1713.0618559 1893.8175984 2691.4893813 2514.4032084 2581.7262601 3110.1342263 3218.83209 2996.4278104 2539.3945618 
2299.9024016 2324.9836886 2819.3355956 2731.4447274 2389.6994955 3802.8044859 -8034.9525429 8128.6853829 4913.1227133 
-1163.1327023 5392.4306013 1716.1315297 22385.779362 1648.4063155 -3425.964057 4112.678378 3278.5524161 2602.4645594 
6238.4053239 3930.1319641 4515.0612292 2814.454465 7148.0678214 3207.0030707 2868.1957003 2203.1654204 6682.656877 
7018.9832828 2709.7436626 3732.6746574 7006.6758356 2574.5232199 5334.8345554 2449.145519 3891.0085408 10915.159422 
4071.2727141 3244.9896084 5454.0889745 3937.3260152 3335.8250026 5003.0598372 3316.5107796 5160.7084484 4424.4448548 
2510.9691883 7336.938424 2852.8669003 3901.0703553 2779.733981 6405.4894691 3905.3088321 6689.3483547 3210.2936995 
2567.3247907 2150.9585691 5805.8275813 2242.600311 8704.2308478 -8716.0938975 2559.9119277 6663.7165781 1972.3197199 
20507.705414 5723.1963518 7508.3113863 6077.0794286 2170.5394621 2717.6650726 2404.471987 -52685.927655 -3721.1516806 
-77097.214461 1864.5624027 1992.9228298 1883.8288283 3005.7772346 3322.8829614 2901.5478871 3528.1147636 3864.8597533 
3459.3225501 4149.7641011 4497.4941777 4049.5450333 4708.7594338 5259.1640873 4896.9034423 5390.3189732 5639.8627967 
5629.1659698 6513.8909474 2414.0607263 2401.6577362 2590.3622576 2528.7129393 2569.9480343 2717.077812 2400.064118 
2428.1910067 2619.5419168 2316.9257302 2377.2875145 2525.2113406 2118.4606527 2196.5623028 2368.0930228 2146.8706191 
6398.2165116 6405.9714986 6215.5727852 6552.3858363 6891.2944285 6670.6704979 7172.6707158 8233.2182589 7693.464201 
3448.3891415 5370.5061052 9746.4824654 -50049.865849 19623.785413 39823.978652 49533.27503 1996.2435084 1920.3439753 
2048.7048337 2396.0698508 2319.1706334 2402.7914339 2613.3443548 3161.9074611 2985.9829833 8142.8163384 4628.8361622 
3478.619659 48128.237976 -10168.835283 -11.452962301 -46362.945541 4118.1595613 3644.5690154 3697.3687122 4601.8262843 
4565.9150253 3622.1814409 3335.6933681 3288.4179224 3675.3389459 4764.861147 5068.4938041 4518.0773413 5362.9820377 
4119.0717457 3574.3278794 4328.8544642 3119.8033866 3216.0131002 3001.0006326 2696.6394349 2892.2215269 2928.0432067 
2991.0657618 3369.6386722 3505.0225073 3599.0509759 3803.9543118 3643.5616574 3974.2447562 2390.597193 2206.9347651 
2383.0025172 2442.2047075 2228.6328885 2595.9203495 2878.6396573 2930.3415574 2520.7818763 2697.3786247 2592.7050743 
2914.8830453 2995.0920077 6302.5609638 6363.9068435 6490.2577991 6187.9947451 6092.6240454 6671.1774501 6241.2598884 
6786.9014294 5746.6582333 5214.5958977 5634.2594943 5891.0354272 5945.6132066 -9827.2919769 9022.8158454 5677.3999584 
8750.8285849 2635.8584512 3782.3440488 4493.1039912 4015.2569745 8026.2984027 6962.2393232 5207.1947261 4642.0164811 
4017.6689357 4111.3935109 4475.3214742 4197.4614637 4928.7547167 4716.8139429 4347.1299043 2799.1724992 3040.0371001 
2664.7371588 2606.6498573 2812.8311304 2991.7576177 7235.5158586 7322.6862548 6901.6263299 8626.778002 6224.0418135 
6119.5741344 2810.254178 3382.8355073 3122.8601751 3501.6973332 3614.3238421 3610.9587444 2716.2348486 2088.0332816 
6644.36327 18770.250488 4027.160029 3196.7023171 2489.2712515 5529.5462396 4616.9188339 2754.9422104 4294.881582 
3117.7029238 5867.7904513 2806.0964539 2098.290957 5718.4987231 5509.1337455 3615.2177813 2653.3766936 2412.7390223 
5823.4472852 4871.5777475 2408.0088426 3617.8411582 6546.641354 3916.6319884 3144.1604293 5045.9088864 3988.6690261 
3260.6091654 4723.3147203 3172.7315699 5033.671497 2479.5802305 4167.0059444 6223.2209672 2796.8150613 3759.0395086 
2703.4564487 5615.439436 3918.2737657 3141.3729117 2531.1775584 2013.4439957 5516.7599032 2206.4671183 10699.745619 
5199.6869394 4165.7078257 2526.1766251 1924.9437706 5871.5350937 9429.1115368 5131.6207591 6871.5964183 5106.0610515 
2108.3717838 2347.9186966 2667.9238564 -42742.244007 841.44246369 -63199.074671 1982.3489157 1834.0282715 1826.930195 
2346.708006 2421.8359987 2548.2026661 2477.7561294 2472.2311054 2646.6965886 2414.23067 2391.1983413 2592.63865 
2369.7600424 2319.8139911 2480.4005837 2168.8753906 2106.1911459 2344.2258291 2098.1601028 1814.7404069 1893.012213 
1945.184805 2103.9484019 2275.8692367 2202.4702085 2560.4859825 3003.1182012 2628.6512924 3561.6788818 3158.5711477 
3167.9896343 5038.258898 21842.985466 3741.5371274 -4699.039042 5226.6903821 5393.4654503 5483.4826576 5431.6318481 
5225.611855 5450.8703321 6800.8741564 5045.9120944 5947.2167902 -19073.220774 590.66058838 7842.2771893 17275.8193 
-3213.4572823 19329.880559 47174.373268 3265.6152762 2951.9054263 2807.0712378 3697.4555052 3408.7493815 3363.3480165 
4222.3670652 3873.4740129 3903.6696997 4818.64815 4553.7129832 4525.1127105 4972.8690427 4816.4218715 5087.8378336 
5733.7888624 3634.1298051 3560.0831236 3962.610728 4380.9775721 4406.6347865 3266.4038319 3579.63355 3642.369543 
3163.7809909 4806.0161763 4560.2680803 5000.2521202 4465.3852747 3627.6696524 4015.7242609 4476.9675746 2965.2980489 
3186.1397827 3029.009465 2841.5551046 2643.8558217 3671.8294589 3461.7795807 3372.5759225 3281.0509119 2914.62689 
2878.8017643 3545.7686656 3816.2199314 2290.9428635 2076.4295322 2284.1059171 2160.4776863 2366.6701062 2825.0050364 
2764.1119464 2456.7876549 2558.7227884 2614.0217083 2461.5555407 2811.455384 2876.5302362 5563.4665136 5574.40992 
5598.2864182 5462.4606509 5512.0898038 5877.3763611 5486.6965843 5676.1134281 5151.4701756 4825.7165481 5154.3839573 
5307.5670956 5444.6500312 6563.6813953 9349.9968208 2533.9929614 4587.8431394 5383.693061 3896.1374263 4203.0609975 
4258.4582404 4884.2339183 6110.0563235 5888.5266227 4452.127694 3950.8860982 2970.1444868 2748.9464402 2633.8214506 
2572.9984655 2737.0325314 2944.2580932 4249.5961744 3948.3098554 4033.7401798 4442.7469977 4603.3862017 4145.0527102 
3182.9345514 2750.1255541 2972.6677797 3448.1320135 3493.6846372 3539.4229721 6129.4994469 6023.6087082 5722.7203456 
5535.2929438 6125.350205 5572.6676513 2652.5964813 2021.7202276 5929.5918067 8476.2616865 2351.7546487 2415.7451641 
2206.8075321 2392.5727979 2250.3037105 2344.8799038 2357.6327764 2336.9289408 2128.8970079 2351.8833446 2091.7593833 
2280.735451 2156.5325215 2507.8480896 2413.0574534 2061.1563116 2382.1096297 2461.6712327 2272.7272225 2055.3355308 
2317.2721932 2391.4636822 2336.6362908 2382.6309198 2276.3388331 2378.8226458 2365.84297 2305.2953431 2247.4112441 
2373.0290755 2261.4937349 2360.6722093 1989.8770279 2362.8584944 2370.2702824 2304.7592702 2204.6568826 2294.5922264 
1991.925209 2396.7522006 2374.7768189 2267.3661584 2209.8341717 2182.7608508 2019.968141 2284.0410574 2261.5141761 
2004.3864643 2042.172978 1236.4477779 1729.8441276 2260.4941112 2196.7704752 1798.4048801 1438.3648375 1908.9054832 
1908.2259495 2050.8135006 1947.8912711 2116.7952043 1927.946861 2402.5770137 2326.777963 2340.9708195 2418.3339454 
2369.4570196 2474.0969376 2348.4870298 2411.3569562 2406.3794728 2310.6318338 2344.9197674 2373.3871118 2169.6073372 
2234.4819737 2349.2491734 2182.9316677 1239.2125289 1337.8449024 2521.4206555 1595.3307342 1611.2744444 2345.2982696 
1353.8545964 1353.8545964 2342.8296758 1524.2365288 1586.8336057 2373.9933658 1389.4167536 1389.4167536 2401.2382333 
2266.7222618 1896.4281758 1894.1274245 2028.9792343 1931.0363391 1920.4314581 2053.0194071 1906.8949487 1896.8762409 
2039.9430781 1927.6522716 1929.8342135 2016.9230045 1920.7633208 1928.3105952 2045.1720921 2036.7924885 2409.0559301 
2380.0444311 2379.3221421 2470.0672136 2409.9357489 2525.997445 2416.2683411 2346.8535044 2468.4357789 2326.9812686 
2236.766704 2355.1857455 2218.3171552 2117.4123453 2276.2721517 2099.4745354 2444.9151797 2386.4295631 2501.8530616 
2425.4032257 2408.579189 2339.7480755 2457.3668003 2396.4729327 2356.0243099 2395.6462382 2474.6118395 2372.6596059 
2376.666671 2383.2308441 2365.4728106 2267.4846013 2495.1611476 2425.5029745 2380.1137758 2426.4489505 2529.4959836 
2445.905704 2413.1810344 2381.4384624 2472.4299561 2458.1160872 2454.5322056 2463.6036871 2452.0780114 2188.2580753 
2184.5643065 2025.3294046 2189.6050613 2198.9264516 2161.0515232 2252.3245653 2201.020892 2279.0870129 2289.6874579 
2268.6227617 2313.2852007 2349.4217092 2411.2791754 2342.7102235 2464.4746532 2348.2907715 2220.1918233 2411.4358827 
2388.8780763 2417.8498625 2397.9824354 2421.7745055 2440.3998949 2442.1575668 2395.845843 2264.3721962 2233.1068218 
2234.4570994 2100.1934049 2236.3705046 2213.9761449 2200.201568 2215.5791371 2361.9805877 2390.9433274 2336.7985927 
2364.7628073 2252.1024375 2360.3318503 2299.5550514 2363.146979 2352.0925627 2447.1529598 2421.033424 2417.9960721 
2356.3661164 2376.3816368 2333.330198 2330.9807755 2364.9581541 2419.6153349 2394.8276482 2433.9650599 2319.7797461 
2270.1830209 2427.5164388 2158.8762976 2206.3716374 2127.5032571 2132.4407672 2197.6219947 2217.617727 2489.7721141 
2058.6343568 2271.2358211 2114.9120091 7236.6278363 5643.6381387 4315.242911 17522.988846 10332.880583 8485.7411481 
4988.738023 25618.860413 5726.5713337 5635.7898646 4456.3485935 27123.416984 16828.347471 5506.2389518 6059.6459135 
7453.1902658 4786.4509631 13064.2464 5520.8396714 6798.7632252 20283.685901 6744.0690976 5266.8309594 11595.470199 
7157.6182533 5348.6104003 10021.807172 5443.9132137 10675.414542 8202.6753705 39041.619858 5942.6913752 5595.7462842 
6403.1396682 4531.80253 18203.161396 7720.6390964 22810.218726 6188.2028023 5454.5460718 4305.0733699 5259.767775 
19179.178869 25477.374342 2927.2436459 5531.3726358 23188.194819 5600.1388123 18964.444527 8738.4225116 8580.4145647 
5099.6160935 7935.9553656 4667.96389 7912.4642211 -36860.886158 53580.203485 40787.053624 60203.459761 -17918.613767 
41293.327654 -1005.5941171 65998.437937 86081.955249 -37953.689315 -9154.5655407 27466.709363 61948.588232 -13731.03957 
7123.1728236 36126.785499 64407.436024 18982.899378 -46468.449689 32424.273404 21272.878617 52664.173123 4441.667915 
4403.7868408 3537.9638789 4443.8280477 4898.5205677 4097.1752333 5771.5309861 8223.115104 4697.7143157 11826.244132 
14601.711355 4029.3723779 48758.837258 71739.135883 -26927.539777 -61931.936601 8544.0365705 7514.6618196 6089.2488473 
8361.8483601 8305.6517694 5590.043751 9078.155276 7694.4038955 5924.5811732 8249.6617615 8290.7432119 5662.6169634 
6943.4548194 7277.6407969 5328.1981941 5531.8897418 5142.8393297 5646.2509605 4502.5806913 6385.750793 5918.0799607 
5165.2891883 11325.730987 7650.6528643 6982.0766023 30779.152804 14267.862492 10580.53851 66250.079558 23848.091927 
7068.1779622 -48642.813261 5966.3502083 5908.3215956 6971.6446249 8766.208166 8466.3193617 5278.9784806 5983.4866915 
6015.874252 5328.1179922 10403.85085 9267.7829559 10121.320472 8480.4975065 6353.2906071 7141.3928626 8704.8789019 
5311.6479913 5349.4866519 4880.2266371 5069.6912707 5613.3000518 5541.6052075 4412.7905796 4599.1084463 6227.0705135 
5801.8200244 5551.0876358 5969.2538862 6496.7134833 4403.1026893 4223.0399022 4255.7049523 4893.1294496 4759.5019939 
4849.4319249 5139.3843071 4466.2435414 4291.1831651 4232.9660238 4280.4449205 4581.9904236 4360.1762458 -51013.999939 
25862.462637 15725.955481 21132.199831 54383.93998 15492.498607 16911.601699 15801.805692 14366.160532 12539.825086 
17102.881858 14774.491928 16543.13376 18013.695128 20118.288894 15575.39122 32810.101841 18316.503972 7235.5217333 
9323.9515851 6203.7671535 10770.322737 15747.817859 12856.977577 8951.7989706 7584.1289548 8334.5190443 7104.8433164 
7215.5224794 9519.0434311 10248.702915 7654.5008225 5063.0218391 4439.574656 4928.7701607 4081.1451742 4772.3109251 
4719.0624753 37285.438346 33553.767874 25188.991246 15675.047926 8237.9112848 16459.039373 5645.6740159 4805.6829036 
5747.4710406 5161.9753909 6054.6743978 6268.6731235 5253.5479506 4061.4896213 31008.28153 11138.336204 -4130.9962094 
-3498.3565103 -5310.3946217 -3452.0728525 -5231.1458881 -3348.8860466 -4284.3378699 -5294.3981589 -4221.3735136 -3346.4763512 
-6532.42473 -3271.618189 -4112.7270806 -3866.6829304 -3328.2310953 -3772.1274914 -7372.9789061 -3290.5746625 -4982.4152617 
-5235.3435103 -4691.1202401 -3740.1327548 -4479.2383781 -3962.4057371 -4733.5461535 -3971.0679043 -3622.3537119 -4698.6290742 
-4535.816477 -3074.1711375 -4415.3548162 -4222.8361364 -7718.5657695 -3362.481747 -4910.7320878 -3904.4497937 -5547.8562672 
-3374.6329156 -3460.0709877 -3137.220792 -8403.6815781 -5911.5373431 -3038.4684983 -5018.4646245 -8293.499508 -3067.2102662 
-2994.2598583 -8265.8122992 -5740.6488078 -7817.5519457 -10223.654889 -10276.282545 -2524.7979322 -3160.4646502 -1906.7133357 
-6717.5391628 -8396.689176 -6137.9273229 -3052.1892357 -2407.7106083 -1868.7105769 -3316.2888198 -3553.0153299 -3263.3503144 
-3718.1861698 -3914.5126909 -3591.5088746 -4193.1436893 -4506.1379793 -4099.4761591 -4806.8514752 -5387.6032352 -4606.3138411 
-5750.6512267 -6421.6064574 -5251.6201341 -6770.4590743 -10035.336928 -10075.625369 -9178.3179403 -9199.6350677 -10298.999701 
-7995.3370875 -7514.13358 -7033.0751442 -8674.767358 -6327.449179 -6895.044974 -6249.6679714 -11963.461249 -15414.999735 
-4435.7953016 -2634.0193052 -3456.7954158 -3254.4681109 -3199.5125654 -3860.191724 -3628.4443973 -3536.9626356 -4322.8947998 
-4113.814193 -4031.1674861 -4962.5650454 -4723.3706309 -4490.6764049 -5440.7991967 -5314.122936 -4755.2645777 -7055.4678928 
-1723.7065683 -1723.7065683 -3403.554089 -2000.9963734 -1940.163909 -3239.1221508 -2380.4828642 -1638.4839101 -3198.3120453 
-2004.5055719 -2441.5640943 -2985.7932594 -1488.2673248 -1443.4099209 -3149.6513489 -3101.2900282 -3992.2559339 -3781.8702888 
-3939.0551961 -3647.1523283 -3795.3754708 -4058.2776521 -4343.9862918 -4438.8928244 -4526.6305994 -3791.7758213 -3994.4445317 
-4174.3680825 -4179.9010344 -4493.4301964 -4467.1493652 -4512.435916 -3461.796752 -3256.5208966 -3373.1616725 -3271.9400877 
-3247.6582852 -3650.2549704 -3929.1837978 -3622.3905076 -3197.4167955 -3444.1858319 -3331.6804875 -3560.4327695 -3538.0055865 
-6460.6149762 -7061.5246759 -6221.2869043 -6075.0140156 -5818.3194642 -4847.8109137 -6035.9827027 -5688.1204991 -4737.6728055 
-5263.4229479 -5299.0845086 -4329.9658073 -4702.0440107 -3259.096016 -3438.7412642 -3326.0698576 -3245.4707432 -3185.0541448 
-3891.3647017 -3612.6727318 -3588.0532502 -3546.675264 -3383.7823931 -3297.8854607 -3768.4344309 -3886.7388418 -5037.6680595 
-4748.6807188 -4386.988967 -3989.3809378 -2803.7481281 -6285.7409383 -5254.1121773 -6183.6046004 -4920.1121838 -4708.3777882 
-4778.5310811 -4922.8963546 -5067.5467514 -3145.391935 -3203.8817827 -3306.2822106 -3485.4239667 -3254.1307757 -3516.4715104 
-4121.6319397 -4043.2379817 -4267.2430288 -4584.9339271 -4481.1105705 -3964.0144879 -5250.8292224 -7014.1701536 -7610.4264614 
-6146.3254712 -4601.8150337 -4619.8170076 -4220.2251945 -3975.05801 -4008.6489564 -4263.947739 -4563.9170787 -4069.7368089 
-3261.151509 -6741.4957132 -3184.6782304 -5018.1877821 -2723.9742715 -4265.6455323 -500.3520196 -2754.9738878 -5000.094385 
-2809.2085121 -1078.5052857 -3281.1725177 -6215.5974306 763.22555024 8159.5188144 -1756.4610474 -5001.9412043 -2950.0648159 
-6642.3462966 1660.5025067 -4221.5186427 -194.14102867 -147.309143 -1835.2762337 -3296.2717185 -3978.5875165 -2124.820317 
-6898.4462402 -2663.7642158 -7182.6532865 -5173.1019857 -1050.373961 -3031.0769934 -6068.5425505 -7993.2570014 -2946.0107784 
1123.2289218 -8611.7772075 -1580.5767853 -724.7969527 -3667.7834362 -4840.0022097 3224.704699 1581.6169494 -2427.2286422 
-4123.335342 -1700.590089 -2919.6920151 -570.19402576 -3336.9054675 -3836.5213222 443.64196055 -38.512854318 -5494.3440832 
-5168.1296501 1596.059393 433.3068889 -3119.8154612 -3285.2801512 -1213.7555778 -1490.2571484 -6772.9975668 -4783.0755684 
-8493.7741147 -2862.615506 1390.0575614 -13.481018489 -2882.2039948 -8884.5295192 -3519.3323931 2492.7017783 -2390.7342408 
-9150.1139905 57.057412925 4174.6788813 -4240.8419476 -1247.2569149 -4043.3477604 -2233.5188828 -3503.6549346 -3719.4811842 
-633.54786418 -2346.7910991 -3196.0107909 1484.7020472 16608.586098 -10184.478802 -2708.091494 -5009.2327794 -2039.4032655 
-4223.6488686 -1415.8605987 -5782.8958119 -3374.3651027 988.0524231 -19294.963949 -1906.5198978 -8200.9138188 -2859.2983388 
-8321.4549229 -2451.0523607 -6377.3866962 -2944.1717828 1444.1079429 -3236.772586 -5887.1831942 -2146.6131363 1517.870217 
1078.4546199 -6921.428044 -5411.1232287 -2132.5631405 91050.615913 -53661.613828 15596.606681 1586.9985043 1593.9398372 
1485.8811281 -9892.6205237 -8217.872265 -11709.429446 -3079.161824 -2472.7245761 -2777.7312585 1587.8134104 1689.8056166 
1453.4044252 1718.9840659 2017.5689435 1563.9769904 2217.4571762 2436.6235784 2162.1506184 3093.7363 -8033.6743381 
4339.2761534 7080.4260492 -134458.21282 17092.353237 37185.250582 -3488.2813206 -3280.8761457 -3134.91188 -3916.2558475 
-3643.5129262 -3474.8973559 -4537.0505726 -4172.1271476 -3882.3120157 -5260.4698247 -5071.5544197 -4527.3656982 -6466.3280817 
-6000.2820733 -4882.8035833 -6834.7004049 1046.0062717 1233.5602437 1221.2934131 525.73959066 786.42333671 765.11111149 
29.718104289 320.03201694 282.47379901 -609.18806767 -268.60299379 -235.44142468 -1148.227304 -810.54655026 -814.03588711 
-1655.5700514 -1329.2664706 -1300.6789034 -2104.9814966 -1859.2725092 -1750.4481124 -2520.0807148 -2311.0541848 -2166.8494092 
-2805.7297998 -2692.8345949 -2604.7786365 -2927.8455974 -2876.2084594 -2857.5062353 -2921.9985148 -2959.1251503 -2943.9534985 
-2926.5005286 -2951.0847506 -2851.7149292 -2803.8287688 -2959.9257089 -2995.415096 66070.947289 62569.530423 -80470.776709 
-624.02354597 7930.5850621 -77209.22336 -5577.9880022 8050.453458 -3628.2295158 -5533.0437913 -3724.4879386 -9273.6161934 
-6613.6263779 -6440.798727 -5230.5368829 -7882.6749325 -8501.6943695 -6515.0558861 -9226.7574517 -9763.8511419 -7944.1269396 
-10201.839793 -14078.779455 -9222.2305518 -12041.675549 -15331.06233 -9382.3248542 -11894.850213 -11891.064071 -8137.0097833 
-12795.122688 -13744.244386 -11671.043315 -8024.3993573 -7115.0478714 -11287.701272 -8377.3430284 -7567.0877257 -7444.7169479 
-2788.8248105 -3092.6049912 -3294.9866741 -2449.8849883 -2436.1662873 -2427.0242128 -2558.1436283 -2872.0087155 -2203.2400232 
-3208.0084381 -4172.9702196 -3696.4403121 -3847.7725566 -4571.6427101 -4448.4305079 -3985.4422633 -4288.554301 -4569.1571415 
-3709.1179528 -4721.6221353 -4959.4939693 -5252.8568584 -1157.9758908 -990.7703323 -1371.4809258 -1619.47733 -55.535393384 
-757.92214373 -1081.7190931 -408.83477292 -363.1502248 -309.7088999 311.08786314 44.526126886 2249.6258051 217.30120106 
-2652.9784637 -2849.3988794 -2963.9010954 -2577.0512043 -2574.9194491 -2613.4555964 -2949.4963745 -2816.1730823 -2209.162447 
-2416.6022464 -3147.1152979 -2332.6743848 -4499.4532996 -4107.1266309 -4301.6461476 -5337.7055335 -4617.8087514 -4988.4515932 
-4605.7708376 -5412.7225361 -5529.5485339 -5305.0602556 -5985.7223206 -5898.2279801 -3832.8187697 -3329.9939049 -3587.1417295 
-4681.7985645 -2169.6456267 -3104.2581256 -1897.9531579 -1931.4660256 -2411.813579 -2910.4360566 -2571.0906425 -3449.844483 
-2297.612185 -1062.1345073 -799.13090352 -1206.9730608 -1250.7673645 -928.43547383 -1251.8712856 -981.8242223 -693.42643078 
-850.94951733 -1389.4259221 -1524.2798697 -1563.0830819 -602.59424074 -3170.8829444 -3051.8167367 -3189.0314183 -3274.4591843 
-3097.5871828 -3330.2232343 -3113.6635425 -3523.1622943 -3698.2491034 -3464.9406966 -3513.3658284 -3536.7060515 -3800.5358428 
-6106.4982106 -9263.4329326 -5838.8993255 -6553.6571602 -7288.2756118 -7266.5523776 -6793.4571906 -5878.8338863 -5190.2938158 
-4999.3071693 -5849.4886344 -6120.9435031 978.48130637 1216.2972166 1299.0476526 1030.4437407 806.79436733 1153.5784749 
903.50839137 1317.1857387 583.63316398 168.04391992 464.22432937 595.00066841 907.05311376 26153.303937 79076.630284 
-13491.453343 15451.681919 10300.695989 8299.290007 3325.6967273 4610.365953 17518.93606 -1148.3564955 2956.0378129 
2460.5927766 2017.6389998 -2060.4062226 -2356.7365656 -1956.3921423 -1981.9267237 -1739.0776695 -1979.0781026 -1607.7130147 
-1580.3250889 -1444.5336667 -1831.3091048 -1995.2571259 -4614.6350948 -4081.1537252 -3856.5477212 -5362.584928 -3753.6615195 
-4863.4426216 -5802.4029874 -5478.5336715 -6361.2734962 -6993.8421135 -2837.402596 -2985.72447 -2657.0055374 -2802.6347357 
-2969.1421255 -3106.1445236 -2890.0733258 -3213.1583214 -3337.0303382 -3367.3373734 -6314.8957974 -7783.8099596 -8078.623013 
-6266.6155072 -6288.5226027 -6057.0594526 -6066.2446433 -6810.3093663 -5893.4561271 -5061.8983029 -7226.748365 -7866.0277851 
2413.1125655 2109.1481219 1686.9560365 1682.1431441 1262.6501418 1735.1314564 933.27326097 -3911.695707 -4232.8945525 
-3944.383791 -4503.5092268 -4477.4940456 -4078.0309035 -465.48856243 -117.62215075 -402.19041144 -377.40930483 -78.991711059 
143.6899421 -519.05175995 1266.9004427 -2272.9054646 -2122.8955367 1623.3112806 -12284.618889 -1792.8709029 -1482.6552047 
-1878.6208167 -2108.903225 -2289.1566973 -1932.5456919 -1634.3705342 -1358.6074355 -1613.6065073 -2826.4584203 -3247.706104 
-3148.1128936 -2651.8697658 -3632.8656882 -3656.6102829 -3509.5648023 -3600.7883427 -4538.0211216 -4043.7964364 -3531.3605039 
-3578.4464806 -2270.2338454 -2035.8173425 -2382.4465123 -2270.1522794 -2115.7847171 -7685.7663935 -7697.4006538 -7054.7120569 
-7617.4261937 -5610.7977418 -2523.4092676 -7162.0903421 -6804.2754033 1325.0684873 -51451.829068 -2615.3863252 -3934.2322737 
-347.4476853 -2607.5347039 -4436.2649159 -2616.8720279 -1024.7822052 -3196.5437644 -5870.9303912 694.80950415 3447.0284592 
-1731.3456604 -4376.4514793 -5714.6341704 -2798.0058213 1398.6424623 -4166.3427875 -169.48949777 -969.45508401 -1705.3271242 
-3095.9250419 -3550.9051653 -2087.6951173 -7336.5174375 -2508.3496866 -5764.8981897 -2651.7456795 -1057.7959742 -2909.8560666 
-6941.3455134 -7308.0990374 -2817.2610195 1051.0632578 15781.151767 -1313.4440704 -610.29637285 -3642.2790792 -4919.0387531 
3197.331846 1375.5952835 -2361.1546626 -3806.1418898 -1629.4934125 -2697.3047525 -565.66307084 -6254.1715536 -3680.5967294 
422.87156216 -3232.7120339 -4825.5729003 -3030.9041588 637.13217671 372.03625332 -4412.8169853 -3134.7519642 -1123.574515 
-1480.3797646 -6375.4996501 -4552.7466011 -2724.8524914 -8005.1453795 20.597314039 5.7450150222 -7913.8250874 -2798.5681563 
2035.9320983 -2302.1638765 -6077.0168501 5.9309586476 -517.62419978 -4224.7817969 -3286.3764321 -1111.7625124 -3038.9901714 
-4228.6913619 -2159.9420071 -3238.9697041 -3647.209888 -582.76581388 -2366.9130826 -3628.82529 1354.2343699 1872.255224 
-2609.2829798 -8416.8417088 -1900.8877683 -3502.0967613 -1385.1324212 -3300.4343406 -5624.2363231 899.32276735 -4977.5885813 
-1878.0432929 -5708.747855 -2833.2072889 -7373.3937147 -5389.9657954 -2344.579792 -2827.3035297 1356.0110837 5095.1206279 
-2680.4866734 -3576.1415592 -2055.1663086 1521.5031892 908.31347951 -5833.3651266 -4908.2856322 -2093.263697 -13682.821779 
36512.922603 26821.987469 1518.2972785 1577.3342282 1409.4601982 -6600.4187713 -10219.238072 -13518.109317 -2392.4348998 
-3014.6958223 -2689.0225781 1577.1382522 1486.2585661 1367.0089481 1717.5349232 1548.7604544 1356.7996257 2097.2243065 
2028.8713794 1739.9150481 -1165.4219501 2563.6329066 3421.2867329 -87667.19005 -15411.640488 14959.415639 82713.963478 
-3201.1623695 -3419.3872252 -3074.6419974 -3561.6411473 -3836.5568741 -3448.996992 -4048.1635726 -4489.4612484 -3885.9725315 
-4752.809146 -5233.4115138 -4532.3430645 -5607.9945817 -6370.3152662 -5238.3929351 -6686.3136442 1174.8629357 929.39974367 
1173.2710056 709.46458193 434.41493687 695.96131566 238.52485344 -54.596404606 226.2082634 -318.27980851 -648.63876472 
-283.63342704 -857.08238312 -1166.2019641 -822.22527159 -1353.395894 -1635.7231143 -1299.8328478 -1816.8180821 -2056.7258161 
-1720.7811923 -2266.2050139 -2439.6561125 -2135.4922492 -2579.5087374 -2688.0502634 -2499.7603508 -2735.1517832 -2775.1187055 
-2737.9004537 -2809.3674924 -2796.5268485 -2824.7358378 -2863.6929916 -2885.0515551 -2739.1715568 -2901.5116663 -2698.2402126 
-2959.5967203 59300.844715 -25136.245856 -54458.172349 15805.250312 -38711.656114 -16066.20218 -251.16031384 -15711.90394 
-137.98470884 2670.834449 -2312.0674074 -3057.3329426 -6515.4406732 -4159.6350962 -3759.3124052 -7828.1309435 -6528.4941975 
-5361.3487885 -5856.0934625 -7519.899175 -4277.0783134 -9991.9117823 -12552.837058 -7022.3404294 -14469.828714 -13733.156945 
-6584.8140773 -11504.48542 -12705.551556 -8740.6411647 -14719.092921 -13500.397882 -7157.2147444 -11184.935401 -6492.8724368 
-12497.703591 -7094.5989716 -11577.564204 -6941.3008471 -3018.3685644 -2950.7604078 -2613.0079713 -2332.8936201 -2343.0962607 
-2783.417804 -2450.9290078 -2351.2581694 -2124.3574149 -2982.8428791 -4244.4090044 -4118.8044055 -3814.851705 -3493.941435 
-3560.4947133 -4595.8556962 -4425.2898211 -4109.1357224 -4510.9505324 -3439.8975097 -3787.595804 -3869.6628475 -1269.8124831 
-807.16140255 -818.72452484 -118.26898318 -818.61128008 -834.62238315 -457.88144907 -304.99105581 -202.80452735 58.650307607 
376.87768724 -100.18311921 354.44284356 161.94396314 -2714.0492127 -2805.043604 -2489.9766739 -2330.3457761 -2205.2563839 
-3056.3840738 -2819.8478 -2842.426458 -2658.1237541 -2526.8486085 -2447.368135 -2253.586306 -4972.3141217 -4449.9717178 
-5013.926897 -4652.1596582 -5621.4747706 -3938.7663161 -3734.1311041 -4233.1485059 -4318.7131745 -4469.6711832 -3949.38377 
-5073.934971 -4231.9961664 -2204.624173 -3891.5120925 -3064.8468235 -1545.1475246 -2544.9778372 -2027.8975808 -2109.8619728 
-1723.6020276 -2361.5347973 -2611.6227699 -2822.4547668 -3280.0605216 -786.82964464 -1042.3417627 -1213.6260845 -1197.5961581 
-859.35310281 -1106.6605011 -855.41050958 -802.53116891 -613.8133259 -1413.3655975 -1328.4501058 -1498.7175389 -579.708053 
-3011.3933826 -3067.6181287 -3240.2909733 -3097.0878294 -2960.8575917 -3192.1713837 -3000.0523007 -3404.7674944 -3653.6917796 
-3411.8113362 -3383.3701389 -3403.6630635 -3650.8693943 -7365.2491797 -6535.0408505 -6527.9018523 -5901.5122848 -6645.9569664 
-5619.803348 -6649.6941958 -4755.6384528 -5124.7910044 -5269.188264 -5356.5894677 -5237.1557819 1184.1369976 1078.2986452 
891.60098392 783.27912634 988.25884759 1024.8426264 1140.9215114 708.36168676 397.6878352 162.92456274 535.57242102 
492.27979617 684.7631541 -287.76081093 22091.491201 12237.020101 4891.6922884 305.7351004 3283.9451383 3839.6451776 
1463.0854938 1832.5708956 267.80610672 5119.7348565 1888.5086741 985.86151652 -1941.7581625 -2291.1430163 -2039.1465799 
-1937.5431938 -1907.2598773 -1680.873683 -1582.2537007 -1429.8588654 -1585.3714357 -1795.9503961 -1965.2197234 -3501.8940968 
-3766.8193032 -4093.0557319 -4683.8129343 -3534.5612551 -4087.1719571 -4859.3762671 -5070.0745919 -4656.5577048 -5022.1941685 
-5024.9086569 -5839.519923 -7782.4833205 -7349.2656585 -4900.6825836 -5465.9695794 -5809.8349915 -4382.8810858 -6554.6666528 
-7093.2939782 -2694.186018 -2551.653104 -2683.2939673 -2587.2457527 -2759.6226343 -2965.9727704 -2840.7140132 -2758.4392678 
-3176.924692 -2993.4315917 -2894.1480484 -3187.8479454 1705.5222778 2009.9113776 1482.1552787 1315.4085625 1070.6171101 
741.63396902 1022.0188471 -4208.6077123 -3886.2253466 -3884.7717481 -4304.8780743 -4533.4696598 -3954.924388 -84.745173849 
-397.53141311 -374.49438503 -88.281683419 -378.23259353 146.29090471 -475.96301102 -1248.6147322 -1979.3622711 -821.94612813 
-3255.7551421 -899.38797677 -1387.5215506 -1654.3271926 -1883.7996268 -1841.4432565 -1849.6332228 -2196.3126454 -1123.2761619 
-1483.306062 -1509.897966 -3074.9199903 -2699.3791015 -2576.0157623 -2983.9981491 -3362.5311532 -3405.4860095 -3221.536636 
-3286.753039 -3292.6995146 -3282.3912451 -3570.3619632 -3280.4002833 -3865.1143412 -3825.0547814 -3612.0078161 -2005.4385629 
-2189.7325966 -2216.2715261 -2326.5770743 -2087.6271889 -5627.5841552 -7703.8168413 -5926.4917864 -6524.7885496 -5630.8894239 
-2407.9567646 -2438.0421329 -6228.5273284 1210.1191164 14853.50824 -1535.996657 -2927.7989851 413.63516431 -2443.0240976 
-2496.330848 -639.47725164 -530.84957408 -3015.8026848 -2943.3336853 1196.7715399 1100.727194 -1597.9925151 -1608.6219745 
-2954.5766354 -2883.8138207 1283.1401842 -2782.977368 389.22738934 217.43395976 -741.34272465 -2221.4044353 -2767.5895029 
-2180.0203909 -2265.6605725 -2603.6086143 -2752.1210248 -984.18333082 -979.94768763 -2850.6201034 -2787.0866805 -3071.9440463 
-2955.0533223 1362.2708696 1417.6485338 -51.400055767 43.876492431 -2893.4848758 -2792.2670442 1492.881909 1516.1922726 
-2030.8338452 -2072.4255679 -1191.8917979 -1173.0762104 -224.04157682 -373.19737595 -3002.2162825 877.80663457 740.30922918 
-2952.4860908 -2756.077792 870.33846823 905.70765226 -2757.4930743 -3036.9984096 -172.15631793 -1562.2537757 -1506.524774 
-2964.3128861 -3020.9857637 -2933.619073 533.51933315 631.64853135 -3062.4626859 -2920.3627004 -2920.4867468 1597.6491331 
-2444.295193 -2551.8958029 391.50558519 217.06370385 -2614.1709919 -516.68277062 -2461.3159061 -1672.9091941 -1631.9295185 
-2890.0732669 -80.490587544 -204.68132784 -2486.6023742 1589.9551462 1571.5821416 -2749.6910195 -2861.1953302 -2858.5403886 
-555.3950715 -1211.88135 -999.80427965 -2601.1163322 -2491.5440579 1274.7322955 1148.4531145 -1977.5540948 -2019.2104308 
-2582.0102704 -2470.7116654 -2505.6366274 -2418.5594424 -1853.0411938 1583.6156073 1585.8508244 -2727.4886526 -1207.9485136 
1174.1609203 1226.7723972 -2973.9309506 -1999.0008308 -2077.8371509 1730.5900767 1724.5944552 1574.5486375 1717.8509276 
1716.0247683 1544.5787735 -2626.6711636 -1902.9889345 -1419.8538818 -1865.492451 -2487.2412079 -1375.2661444 1746.7625126 
1721.281101 1625.8824201 1690.6976228 1701.3025038 1552.8734012 1723.6842672 1744.864696 1552.5762977 1695.1557133 
1698.9998518 1536.7742117 1726.2064097 1718.6591354 1531.0838843 1612.0107535 1439.280164 1204.690951 1491.9582578 
1034.9371548 790.68568905 1081.7914214 542.46575903 251.38238535 676.15813068 -62.429301183 -401.27859245 117.01106186 
-802.31263242 -1116.3062251 -575.41192432 -1448.6181861 -1705.1840246 -1254.7126067 -1965.6333711 -2213.1610272 -1826.5749163 
-2471.9397278 -2645.2079732 -2329.4117287 -2819.4601522 -2942.4998909 -2744.2349226 -3041.0778196 -3082.9408739 -2982.5468096 
-3112.299805 -3064.7225291 -3109.171544 -3107.4824388 -3235.2081673 -2930.6795105 -2791.7074665 -3079.0114995 -3128.4093155 
1121.6308015 1321.1384468 1398.9261667 622.71767261 887.58757021 992.0623371 57.996928669 363.35149773 522.52542234 
-540.49925969 -227.73585739 -75.652029368 -1138.1076395 -858.10369321 -659.0622802 -1654.9920899 -1429.9004054 -1299.1492434 
-2125.9328651 -1909.4659985 -1784.9174067 -2516.3397424 -2373.5961494 -2231.0095853 -2775.9858692 -2712.9901657 -2629.2846929 
-2942.2024995 -2935.8371876 -2936.1324354 -2956.8548574 -2988.4926064 -2949.3346114 -3058.4742202 -3085.8444793 -2797.4327454 
-2682.9221981 -2965.283596 -2924.0730394 -1507.5010527 -1541.4610661 -2803.973934 -1910.3842001 -1841.9028071 -2778.7929292 
-1646.3690866 -1964.2897766 -2787.3696075 -2149.4933124 -1910.1826268 -2677.0301364 -1553.8397698 -1454.0458955 -2565.3244282 
-2689.8530115 -1375.531982 -1449.3801366 -1620.2748995 -1373.976628 -1199.0092046 -1820.973059 -1736.6948165 -1596.6815337 
-1806.8432073 -1436.0034377 -2943.8867359 -2949.8114576 -2864.9250515 -2894.4803679 -2858.4524983 -3082.2310318 -3069.5481042 
-2899.2611878 -3036.3748612 -3115.1075372 -3023.418686 -2947.1890865 189.33612979 -109.12119205 144.81124835 511.11451804 
250.70982452 243.80071179 -70.534397611 353.47103511 539.15705264 688.24764116 689.12952672 943.25992559 717.88218615 
773.25710006 -2281.6545445 -2479.5452517 -2316.8315005 -1996.2152703 -2291.1149993 -2700.3310198 -2678.3358003 -2693.9708048 
-2695.2183923 -2408.4911013 -2650.0607993 -2320.0057407 -2676.2395368 -2690.0750987 -2839.3326645 -2698.2176146 -2498.6580859 
-2338.8700914 -2350.9645286 -2530.808298 -2363.5036113 -2071.4281349 -2691.5359926 -2394.441424 -819.56240834 -515.34341883 
-1127.1735803 -949.46149797 -357.65380541 -131.43599622 -466.37114567 -597.06311314 -304.38462387 -960.85776682 -964.17422935 
-1202.0344275 -312.58277004 -772.39571111 -319.77107887 -762.30288116 -1009.8971096 -214.4776278 -223.34110048 -527.20644256 
-265.74614571 4.7273407368 -909.06963922 -852.73487571 -1133.0566444 -132.54310871 -3006.2388353 -3104.9215694 -2869.1569764 
-2837.0382851 -3143.2404799 -3092.8142187 -3139.0617451 -2961.6727223 -2961.1895011 -2871.9721523 -3132.48329 -3045.0457063 
-3130.6840943 -2962.8300332 -2944.0395156 -2747.1994486 -2781.5796795 -3006.8196172 -3037.7255603 -2988.8614646 -2835.6346541 
-2895.7390372 -3020.432355 -3046.7966278 -2945.5598766 1451.1276476 1497.1614848 1444.6168866 1241.151528 1448.744289 
1354.648941 1408.136636 1233.775411 1028.4095435 942.29563715 764.10753925 1071.1565603 1091.403429 1305.4251437 
1396.2917997 1477.0028066 1329.3276304 1186.6901772 1369.2686419 1126.0587285 1380.9168375 941.68884885 658.3221197 
843.25709734 1039.370288 1084.3563652 -1859.5787009 -1878.7670093 -1648.9980579 -1857.1365663 -1418.3236279 -1418.4293866 
-1584.6887682 -1369.0327501 -1830.7496639 -2089.893715 -1310.9595768 -1619.5134591 -1418.0372362 -1924.9783698 -1626.5136527 
-1921.7157786 -1944.4927777 -1448.600232 -1463.1490629 -1878.8380568 -2132.2903838 -2944.7718602 -2909.678669 -2924.8329218 
-2828.5700684 -3159.7568879 -3119.1448097 -3041.1575767 -2885.0426569 -2994.2154774 -3051.2409623 -3037.6277045 -2962.08121 
-3092.8718351 -2896.267559 -2895.9412148 -2898.726298 -2921.5547981 -2895.1705417 -3088.4878399 -2758.9409802 1437.8403848 
1516.8046633 1270.1389303 1481.1297148 1241.9288949 1114.1778919 1122.877443 -2851.244391 -2763.7670999 -2855.9729933 
-2776.8405029 -3043.3699888 -3124.0022593 243.57240981 533.24475155 162.39177476 87.289415454 409.4595313 653.2100624 
89.835400637 365.14938565 16.411782568 -73.069654463 218.02174317 524.4159158 -1013.4409933 -667.46891047 -964.23800392 
-939.90957131 -622.17145644 -1193.6982362 -440.44967962 -329.94478461 -366.34298238 -2147.2386789 -2423.9117351 -2109.1526273 
-1934.9101794 -2169.1751368 -2403.7993175 -1989.0154437 -2440.1210679 -2828.6667169 -2715.3875671 -2798.6822297 -2790.7916599 
-2366.5805029 -2118.6781898 -2514.2932788 -2404.4170062 -2061.7965037 -2474.3291321 -2168.6342207 -2459.3123535 -2647.3229454 
-2177.7649951 -2544.9195481 -2770.1519994 -2513.3666738 -2754.7120316 -2698.4375899 1494.4772646 1524.8876257 -6085.006528 
-4016.6192122 -11020.031056 -2295.0511802 -6309.378876 -13356.397988 -6986.1738477 -13014.45763 -3663.1420244 -21566.366993 
-10999.627952 -5354.226832 -8990.7725965 -5174.4004874 -3876.3086334 -18060.355642 -12310.150438 -11999.7601 633.19549196 
-5666.532481 -10155.937271 -4439.5565878 -11198.702058 -12265.639303 -11851.719241 -7935.9010919 -13631.031597 -8675.4313423 
-11896.318128 -3953.8573884 -3959.8044506 -4231.1525363 -15206.703126 -18916.994271 -8143.6863502 -7353.8006023 -14095.00855 
-3711.4142449 -15371.167836 -40829.427311 -4621.3218642 -6922.5472933 -6309.2709961 -9814.3397265 -7393.5085771 -2495.6824808 
-3030.286853 -18983.983116 -18197.219813 -15848.919323 -14247.456217 -15118.098988 -22110.055957 -5623.3160902 -3513.8179991 
-16259.894332 -10182.802965 -5894.9423073 -5591.0427452 -4736.4995373 -4642.3508466 -4594.8248185 -22407.131095 -2950.1757097 
-1834.2218079 -4169.8162308 -34396.624878 -10946.271485 -12720.706277 -9646.6273173 664.92776207 -4897.7385821 -16732.283648 
-7295.2683108 -5401.8613712 -8681.8169149 -2224.7215434 -8941.6198286 -1284.3224739 -8342.8403104 -18589.454234 -30829.495735 
-6490.0709513 -8714.9106141 -20993.121751 -6826.9944394 -7773.6479124 -12142.60809 -13177.394125 -13875.457813 -20998.673419 
-15398.33554 -2319.5822159 -11077.287687 -12368.438159 -2188.7573145 -10148.140671 -9536.9538762 -1118.0147985 -23006.250342 
-35878.620107 -5022.9493555 -15149.326081 -15795.794452 -19741.493404 -4558.4823555 -3141.1752488 -11992.213414 -59604.634648 
-90662.539091 -67311.706783 -115109.20114 -22028.153627 2797.2587261 -13037.395871 -12116.552492 -13103.16168 -7575.0234193 
-1226.7686683 -8916.310967 -13748.200151 -13238.86027 -13869.028352 -14183.335966 -13446.963958 -14454.018037 -4562.6912635 
-5780.2550903 -9546.6047223 -4271.634859 -3827.7145782 -4396.3079584 -16556.945733 -10524.282949 -5099.3462368 -3015.1881192 
-21398.888215 -19328.357883 19540.300993 -26221.769467 -25687.154468 -10252.831212 -9565.2086328 -25400.882485 -15045.710865 
-7100.3034351 -10988.915003 -12462.948987 -8694.7915404 -9153.0312307 -9039.9579807 -10100.255372 -9852.2868334 -9785.3510441 
-11185.28014 -10446.061311 -11323.689168 -17559.316544 -13563.183888 -11467.484855 -11166.73609 -12379.493432 -13954.191395 
-8700.4006573 -10920.886594 -4652.1748686 -6165.2029982 -9617.3310079 -3087.5115188 -7156.5109025 -3782.4803681 -4425.1863651 
-4104.915791 -11216.535029 -12212.966018 -52068.770075 5276.7526702 -60800.544298 -37397.363746 -14433.706234 -43028.988029 
-9075.5079974 5883.5806409 -15914.215104 2428.7326755 -2369.4013186 12707.202903 -15443.619916 -14725.310896 -23749.337159 
-7034.48371 -7134.497191 -9932.1032039 -3984.2640055 -1861.1095205 -1092.5349583 -12070.781454 -13971.439925 -2502.0847183 
-8024.2288805 -10385.057804 -10130.122309 -7723.9996235 -8732.5870078 -6162.8260745 -9866.3628925 -7416.2367308 -4576.01545 
-7345.0877131 -3491.9426833 -5594.5745313 -2694.367716 -6010.5608028 -2717.0884948 -76523.649604 -3273.0994593 -10377.117394 
-80818.512866 -170791.24574 -50593.901778 -41901.16242 -67809.05283 -63213.45957 -13830.370123 -30439.586868 -80852.273915 
-22100.266189 55260.706752 -40572.164215 -80654.668137 -5992.3133187 -5321.2394175 -8390.9271464 -10737.627945 -9593.9628592 
-2740.1068955 -3257.6646815 -8235.0125643 -8422.2014441 -12797.269316 -4943.3751685 -4553.865332 -6273.098253 -12165.039841 
-8546.2694953 -4114.3090374 -6199.2483472 -3821.5062495 -3671.2338887 -11855.093423 -8269.1055123 -21806.76941 -28585.762637 
-10774.416093 -8148.9785699 -6244.8493847 -13522.771239 -16106.319255 -12756.421288 -20960.743359 -28933.705599 -4304.4153784 
-19383.852771 -44770.533184 -33964.66188 -11074.475235 -6997.3363046 -2999.4581416 -5442.3647242 -5247.1622787 -4019.7125061 
-2300.488399 1485.3615011 -4193.8985345 -2541.987283 -6957.666259 -4237.406946 -4357.5821011 -5980.9186687 -5381.2184728 
-6686.8039094 -8290.1033805 -8749.5059198 -5642.615635 -3756.0116534 -7686.0208858 -8624.4600129 -9219.4622443 -8193.0458963 
-11605.064656 -25275.825828 -13661.061398 -13133.082776 -11065.606473 -33810.433222 -74.601172151 -8294.9953873 -8121.8887034 
-6439.3656962 -7864.3334548 -8309.1884471 -6916.4680511 7935.1694667 -7217.3546077 -8701.0248116 -12867.681431 -24153.115284 
-14627.471103 -24850.302792 -4398.6510146 -3755.3235109 -12319.570703 -13512.253156 -18526.565675 -13395.807333 -9164.3287384 
-4506.895946 -14916.104256 -12274.41677 -14966.065197 -3099.1080821 -3727.4762995 -3858.3451465 -5520.9631546 -4168.5355746 
-13682.590287 -2701.1834815 -3391.3361118 -1909.375779 -4149.2181772 -4225.8062949 -2942.0714446 -5655.1349143 -4614.5016946 
-2746.2876211 -2538.4103337 -2058.6803995 -4001.3203037 -4425.7094676 -7363.34216 -7946.3064069 -44174.305775 33361.356901 
-43645.246861 -60611.817268 -41437.276134 -73238.934357 -6289.8759371 -23060.081491 -23407.279142 -42675.422424 -18771.214633 
-22979.688317 -58285.771421 -43635.149256 -17450.380167 -18713.942964 -5150.0094008 23588.359115 -27272.46894 -3012.6818085 
-17308.598998 -19661.043337 1592.7574002 -7325.8260115 2283.7993373 -10855.864466 -6087.3070897 -4610.5169108 -4834.3536134 
-2776.3853472 -5982.0377265 -7373.8003198 -7542.0649184 -4914.4434684 -597.24113923 -2704.6602897 -9800.481585 -9329.505016 
358.16187729 -7313.1925451 -9310.5770968 -11790.028605 -23399.71771 -11224.906429 -7908.1790014 -11302.659932 -12908.445517 
-5369.7459351 -6075.9183432 -8490.368464 -6781.1252465 -3392.2078905 -3752.3453437 -4435.0819251 -4163.6065205 -4759.2109208 
-2546.2883727 -8327.775174 -7465.8728697 -4184.4282448 -20484.817919 -6923.6882809 -6678.3473398 -6243.0237671 -4662.2815467 
-4373.4179509 -5880.08146 -53928.993702 17772.52058 -24344.698492 -51492.584827 -19345.72186 2464.0125576 -19814.795892 
-10188.976387 -19079.424982 -4185.817986 -4447.9128541 -7710.9009319 -1968.0986246 -17324.038493 -10300.558325 -11763.860394 
-10814.948048 -10498.637311 -20686.535252 14142.384983 -7739.1617125 -1443.1491216 6933.4378387 -8311.8741541 -3613.1933935 
6707.7074974 -16059.085927 -36067.788573 4767.4242936 -20225.538557 -11234.464764 -20569.459338 -1011.032243 -12428.761026 
-20932.665783 2928.9917113 -2192.7606499 14240.153998 -21848.228836 -2539.7618325 -7538.4259757 -7667.7014399 -7489.2873321 
-8783.940139 -5460.2536934 -7443.0811402 9161.913349 -8678.4214412 -19025.828224 -12415.649637 6075.6890642 -11856.561054 
-12607.910779 -13435.483012 -17423.189574 -6444.9802677 -11792.822586 -18328.405101 -9582.4607157 -6147.3794705 -11588.284942 
-69228.937735 -19950.878373 -22992.928573 -22686.81252 -21849.414059 -22763.688225 -20391.984976 -19731.865989 -27500.34913 
-20953.004838 -21795.357202 -20174.388929 -25617.058688 -22170.330634 -21975.644764 -22502.343056 -23994.575695 -27218.8004 
-23965.481397 -23677.265009 -22595.360169 -24813.914918 -22172.937193 -20738.151972 -20755.404603 -23320.677288 -22955.447777 
-21887.424938 -18997.995062 -22314.287188 -22770.470841 -21833.744655 -20742.561712 -23468.20761 -15244.405901 -23868.358769 
-23674.737726 -20977.867439 -20011.071299 -50281.304953 -21988.74499 -32766.241685 -25686.006795 -22894.913786 -21918.414679 
-20949.253946 -21941.086638 -20383.929116 -22144.365282 -23480.854371 -21806.045383 -21641.930233 -22468.048333 -21738.255311 
-8197.2298832 -7975.7057752 -73184.15652 -21616.281603 -21794.773077 -22264.04028 1771.6729216 -26153.899311 -9793.4879264 
-36382.374022 -29773.248217 -68947.96258 -20483.778978 -7904.4463842 -28277.308691 -20828.92104 -12911.367931 -16161.607556 
-22083.052965 -23508.398801 -22231.782938 -20610.794768 -21521.223074 -14792.548854 -20923.456016 -21515.947872 -21514.425243 
-22084.297005 -21805.236546 -21858.167648 -22495.786906 -21762.894295 -21628.593378 -22272.314946 -21974.549715 -21876.6655 
-22198.245463 -21710.003735 -21827.434426 -22313.369931 -21666.294835 -49480.42031 -14737.846256 -30288.386304 -42483.308436 
-19632.035795 -17591.37438 -19848.769998 -22686.973379 -12239.115262 -22370.313059 -23253.842549 -18439.946704 -22622.806922 
-21633.744917 -21902.797774 -21485.295478 -19030.179071 -33911.225316 -46317.990554 -58244.626182 21257.394249 -33949.602286 
59903.320437 -32938.35296 -23193.694682 -14638.218781 -20497.629266 -3414.1563742 -17023.549313 -23398.494337 -20898.71759 
-28727.034196 -17755.481607 -14266.920069 -9860.9351735 -17721.433732 -15495.729675 -19750.803706 -12477.59364 -14918.527785 
-10731.383868 -14885.340459 -8728.1483028 -13536.208964 -11302.03249 -17605.422999 -23561.385611 -22004.741421 -14578.664588 
-38963.263436 -24726.449778 -11660.855723 -34929.581847 -26609.561748 -12175.160321 -2259.3659417 -38435.466791 -11716.079713 
-19693.517182 -16959.35743 -23445.942878 -20007.10821 -21804.314734 -20124.341883 -22199.553857 -21829.733485 -22435.559192 
-23822.19703 -22257.119802 -16501.464393 -11329.863972 -20448.692013 -18121.67035 -16435.622384 -24660.628707 -27480.864374 
-15942.923087 -28861.166372 -34587.374405 -25221.830128 -2185.0150169 -25671.99977 -12682.181616 -24847.385213 -27154.129039 
-34574.328199 -25026.09415 -20820.482373 -20587.286896 -22093.424637 -21366.416564 -20755.081589 -21310.954036 -22878.596856 
-20055.634194 -21017.091811 -20224.461884 -20235.848878 -16437.287118 -13668.888594 -19198.723607 -7000.7545891 -16042.704289 
-17654.08474 -15539.18809 -19449.034277 -18435.760648 -20610.299812 -32817.825186 -74014.792744 -15956.481493 -15539.490618 
-22902.921865 -21942.579063 -21218.182902 -21385.918328 -20511.095275 -14435.362968 -12512.504184 -19749.25768 -20597.659164 
-19847.696232 -17550.735108 -23131.497297 -40091.326908 -28445.305442 -21878.273745 -21712.389905 -16634.124886 -13576.61479 
-21004.863327 -13287.230813 -19128.687932 -12429.934895 -16544.312614 -21824.423006 -16488.097949 -13084.869424 -23643.94308 
-11152.887622 -23023.747234 -14960.787057 -12945.874294 -29903.177601 -15085.911078 -11506.824064 -18191.387457 -18594.743745 
-25042.489066 -15694.639377 -14768.283335 -17988.474058 -17614.008146 -15539.253639 -13982.360907 -17195.536189 -18529.082184 
-16710.482404 -26131.396768 -10364.091039 -16517.703476 -15416.885215 -13395.686894 -20585.24793 -18489.800085 -12611.943364 
-13081.895487 -34588.845471 -13344.67779 -12122.420751 -19379.06183 -20798.448244 -34011.121255 -12555.146424 -31442.186306 
-11744.095474 -32555.72926 -25259.172611 -36041.375812 -29981.732659 -12315.392659 -12510.412049 -12503.616028 -30811.369836 
-35662.625386 -28495.167027 -11437.874814 -14332.881495 -15243.380269 -13028.828155 -13641.365669 -12841.205502 -14487.815273 
-15246.303769 -13787.998036 -16248.962604 -17258.461088 -15789.693865 -18170.355826 -18762.877458 -17921.958678 -19716.565516 
-22847.288512 -20218.665044 -24192.690809 -34438.591717 -36248.651234 -42059.434105 -35954.170479 -34807.628405 -30476.262354 
-26290.693027 -39512.594127 -26107.676991 -35868.633904 -24951.450793 -26852.783246 -38262.290739 -37826.483329 -27369.650108 
-40954.515988 -13505.792044 -12612.044352 -12493.895083 -15442.703939 -14343.963254 -14080.217436 -17211.884546 -16133.76999 
-15793.285674 -18845.36136 -18111.525384 -18000.145798 -20153.970913 -20455.720767 -19571.434077 -24925.828031 -13169.86986 
-12553.665108 -12694.670603 -13745.759939 -13052.642137 -12411.423323 -14764.742152 -13033.480684 -13171.070713 -15006.731137 
-15972.602013 -9990.174544 -16483.290169 -13031.751683 -11115.111272 -12130.042306 -15274.587355 -15789.179174 -16075.998426 
-16799.612069 -16229.562374 -15127.062429 -16593.759891 -16261.165636 -14478.24159 -17290.856085 -17258.715037 -17760.928885 
-18898.222626 -17119.437804 -16989.756538 -18785.248242 -12843.851567 -13355.065644 -13609.63104 -13617.587456 -13121.481719 
-14088.109649 -15252.755969 -14014.792211 -13997.141291 -13548.778998 -13259.789184 -14511.272315 -15630.24943 -25288.736327 
-27830.61832 -24585.640539 -24321.089849 -20918.384104 -20863.694452 -23982.3602 -24260.806723 -17295.745804 -19547.889584 
-21292.053286 -18812.466808 -18534.020286 -12584.831461 -13493.733707 -12360.932023 -10698.959039 -10786.658429 -15429.783031 
-14338.024721 -14168.977278 -13145.692098 -13258.616388 -13501.282808 -13795.820438 -14240.846814 -20332.832776 -21742.320195 
-21306.238125 -24612.783868 -27022.861887 -19086.660336 -18791.109314 -19398.535682 -20109.123198 -18778.505615 -22613.049795 
-19421.601649 -17949.915776 -13393.119005 -13724.688034 -13021.669078 -12989.865227 -12387.865486 -13714.988819 -16675.981641 
-15467.664728 -15690.610687 -17089.492819 -17790.289651 -16026.269123 -23564.453006 -24324.530818 -21359.01108 -20337.679206 
-23562.80458 -20399.076878 -15822.650209 -16014.302429 -16702.092886 -17572.506592 -17454.829736 -17624.098699 -12764.726848 
-28142.910417 -11819.580167 -28476.048354 -22447.420632 -20339.080976 -22902.695518 -21257.011125 -16891.919483 -22620.539019 
-22146.117897 -23348.83651 -15849.545695 -22902.307658 -27165.546649 -22638.891672 -15216.090047 -22329.053437 -15698.203611 
-23183.626919 -18952.590041 -23076.250739 -22178.1198 -22926.904282 -21538.651538 -20266.635495 -22765.686355 -12667.572758 
-21525.726126 -14191.374995 -23448.462542 -12566.714285 -13452.653393 -25344.460706 -15070.997296 -22532.828787 -26643.79448 
-21839.404033 -22376.633625 -23417.45842 -20598.404386 -16167.322241 -22559.292133 -22215.935999 -20259.942982 -17804.29473 
-22703.126535 -20772.66354 -17669.975983 -22574.31634 -18670.975679 -21115.737651 -23290.624359 -21875.549224 -18077.274143 
-24328.404428 -21602.405667 -21774.115075 -16960.748209 -23104.293717 -12386.367983 -22422.522988 -21013.642475 -22270.915344 
-13373.036926 -22800.94383 -23500.660764 -13804.798616 -23067.673966 -23941.204361 -23163.346887 -12718.540828 -19412.387317 
-22354.319725 -17718.124805 -18426.905822 -23191.495311 -19328.672105 -21435.724895 -23805.671822 -22410.108586 -17455.767489 
-21806.264707 -22493.191611 -20911.57721 -24872.505286 -23117.584963 -13272.708526 -22050.345393 -22965.903104 -24214.251725 
-16530.683832 -22351.642467 -14248.749978 -27997.416952 -22989.438745 -12252.067909 -23129.632542 -12914.447278 -27117.401373 
-23567.773737 -14452.907007 -21479.089505 -19209.332184 -21498.536919 -16214.099622 -19846.535681 -21252.610655 -22810.208078 
-20977.268883 -22538.574085 -23555.781018 -15250.115679 -21982.237104 -21356.842393 -21344.029126 -24940.869966 -52852.775623 
15618.337703 -26888.943393 -22893.483781 -21599.103541 -12994.300355 -12479.485176 -13079.342226 -54396.283115 -43638.595368 
-4821.8978153 -31389.022259 -31650.10223 -6777.8639099 -27660.852124 -24985.835048 -12244.144553 -23783.509753 -22473.526517 
-18821.294622 -23391.94923 -22996.931851 -21181.040758 -21663.227329 -14163.885544 -13518.724623 -13562.757964 -16006.653644 
-14975.113357 -15164.476116 -17585.444523 -16467.909357 -17008.923809 -20368.63132 -18762.426308 -19333.238979 -23145.809642 
-20597.787909 -21688.41358 -27402.176775 -21085.15194 -20732.247557 -23266.097581 -21576.651732 -19973.621608 -25803.733526 
-18906.078553 -27863.473235 -29081.47399 -23777.080325 -23136.352401 -29103.298905 -22081.515873 -24389.708953 -23407.353474 
-21466.787037 -24235.398045 -22638.141507 -23790.413462 -22409.368874 -20776.845214 -23236.980742 -22981.376794 -20965.985517 
-22919.621957 -22362.008093 -25267.96925 -21774.023653 -22299.328835 -25965.681716 -22867.928496 -21740.632715 -21276.57788 
-23125.500236 -22603.366018 -22108.295996 -24324.963024 -23208.432915 -24794.999149 -22048.361748 30688.877833 -85301.249942 
-19845.346032 -10592.626598 -21381.054835 -10136.377933 -16034.609403 -22452.632574 -13164.337233 -10486.300754 -20165.518737 
-10538.683108 -7803.2777809 -16019.603721 -11398.781834 -10271.141123 -14035.290515 -11726.07392 -11022.739446 -12883.12757 
-12239.156826 -11070.74189 -12936.252302 -18339.0113 -14469.115403 -12763.307564 -16808.241892 -16394.344361 -13380.141535 
-17865.549945 -16014.701027 -15691.252249 -13878.678665 -14505.177992 -14920.948502 -13035.729366 -13659.495817 -13500.648465 
-21821.840122 -25378.756515 -24088.072433 -23033.281879 -23259.58647 -23634.734349 -22688.966035 -15726.067447 -19683.634531 
-24495.309197 -19377.425045 -20002.893488 -20344.491383 -19388.764603 -18459.595245 -21299.950179 -21577.177308 -21505.24178 
-21027.315064 -19941.228135 -19205.870847 -20543.872007 -21720.996094 -21009.220534 -25056.908572 -22308.125472 -27241.154141 
-23909.05847 -22575.1147 -28983.209481 -20996.495787 -22405.95563 -23736.170705 -20643.397894 -23727.969165 -23128.76087 
-20560.632139 -21620.982925 -22007.250121 -23685.526907 -20361.397817 -28269.367982 -26684.592676 -16831.274644 -23760.103777 
-17630.203332 -19229.078382 -24524.773034 -17525.614067 -17944.42338 -19664.543715 -16669.65956 -16017.415345 -17575.469232 
-18518.705722 -16681.591917 -17088.706939 -15557.396133 -15222.025178 -14769.446206 -20244.356433 -22413.576074 -23188.923064 
-22959.179256 -18549.796654 -20854.522916 -20951.221486 -19707.974766 -23824.870955 -23666.823937 -23591.749367 -23029.978822 
-21167.247196 -17248.675524 -18294.807919 -13050.748192 -21149.060611 -23839.429179 -21060.471593 -20920.222628 -24324.335093 
-24070.675235 -20071.701643 -23213.838969 -16520.44265 -17281.302809 -24040.730622 -22972.802991 -23864.954649 -23608.558811 
-23137.356647 -22462.367651 -22772.88419 -22206.46513 -22475.228401 -20848.812928 -22314.873179 -22098.357286 -14311.893948 
-15181.455038 -13991.866705 -14876.887368 -15834.355002 -16311.126751 -16712.025131 -16095.115788 -16851.363718 -16678.611863 
-17224.182888 -17843.43315 -17966.036945 -22012.583883 -22918.374099 -23020.641314 -21725.113908 -24008.38384 -26387.954494 
-23676.769452 -25513.192527 -20140.164447 -19398.781771 -16945.783673 -20688.073577 -25016.804111 -31711.893424 -26630.504378 
-38835.701927 -14848.547013 -51010.124886 -23159.332503 -35806.396888 -22365.520542 -26056.05465 -37717.916612 -19875.692467 
-19727.735594 -10232.129803 -20963.690295 -25305.696664 -25344.987165 -12920.157022 -24006.995466 -23700.121357 -20195.411687 
-23304.574333 -22795.375746 -25236.872716 -15682.005992 -20576.872613 -15921.234977 -16022.710945 -19884.218779 -27625.537903 
-17200.376945 -12186.342343 -13036.025877 -13757.51275 -13828.631012 -26215.380787 -21219.190135 -24572.619729 -20257.998408 
-22211.493562 -21355.015574 -23185.179629 -22046.089354 -17469.213615 -20279.527035 -14779.99914 -14208.240404 -14485.004044 
-15888.202547 -14981.899102 -15052.516687 -16212.82716 -14842.916263 -16671.064312 -17092.167833 -18262.827334 -17598.446343 
-21104.41077 -25470.293581 -22685.774898 -18728.137932 -21061.620851 -23725.135954 -27202.371246 -19673.310373 -19927.854585 
-18462.340881 -17617.41134 -18255.598569 -18788.089821 -24893.901883 -23808.854615 -21962.748906 -20958.815149 -22837.389151 
9139.0248202 -33227.831694 -17068.983061 -22351.572913 -21595.50455 -20695.672813 -24437.401811 -23731.285727 -23743.495906 
-23208.925943 -17447.851511 -23281.810643 -15897.396016 -17167.732207 -23063.12343 -22674.334414 -15740.672821 -21246.163875 
-16493.032602 -27834.82644 -17419.036865 -20346.685484 -21149.837106 -19131.431577 -19175.453303 -19912.589108 -18959.044333 
-20274.946644 -19985.13082 -20976.800636 -21586.336796 -24318.524471 -22672.796777 -24835.40494 -21694.050454 -22177.427785 
-12939.237792 -12935.340845 -13686.070968 -14010.054335 -14301.666277 -23276.603301 -12890.405712 -14166.757239 1261.3239093 
-20341.43708 -22622.873757 -20478.407503 -23235.193011 -17218.563709 -21195.103938 -22968.59915 -20589.599815 -16034.652102 
-23191.604379 -22649.114751 -25885.026116 -22886.730221 -16963.048371 -15798.249662 -22345.332688 -23196.271049 -19220.770889 
-20958.642186 -24170.502379 -22729.168713 -21501.517724 -20884.911832 -23150.685407 -12273.724114 -22461.495388 -14652.032851 
-23324.513724 -13867.186955 -14471.70248 -25236.562944 -13909.432436 -22417.873502 -22678.42423 -22796.571382 -23951.255712 
-21791.182965 -16526.457426 -20790.279635 -23106.321622 -21500.943575 -21487.033383 -17315.244751 -22507.464134 -21666.778076 
-19506.768011 -23242.691104 -18810.48385 -21333.209228 -23440.005002 -22075.140559 -18244.935393 -23731.70243 -23343.442832 
-22336.508533 -16870.410258 -22073.623966 -13521.960888 -22746.585387 -21205.092096 -23082.580535 -13299.729576 -23606.703475 
-23230.740189 -13683.412773 -23022.917584 -23245.007203 -23027.673417 -14157.425257 -15633.930792 -20843.089754 -17987.425802 
-18503.207952 -21919.413224 -19514.214212 -21564.225861 -22965.283474 -21200.569336 -17761.152479 -22547.406647 -21010.109654 
-22213.508247 -24235.487253 -23209.988238 -22723.976704 -13771.984515 -23148.336222 -23134.001652 -16365.366752 -14560.323752 
-22509.242742 -18943.853918 -21970.745523 -22267.021267 -13664.146235 -13061.600492 -27326.954546 -22983.762999 -14872.480258 
-21563.992241 -27053.004659 -22140.650361 -15992.761653 -20004.69971 -22319.194259 -22199.071675 -22818.66929 -23214.147131 
-23293.190787 -16402.574899 -22012.004755 -22777.558051 -21642.745462 -59918.020592 -12420.167404 -7274.9197937 -25127.219355 
-26607.07971 -23871.341332 -15576.004504 -15042.355018 -12462.468903 -31704.989168 -38567.539346 -3509.7894628 -27944.96451 
-29611.651438 -17293.304581 -24113.964157 -25726.679888 -18997.461772 -22624.169999 -24935.682861 -17601.064608 -22834.982871 
-24310.697134 -20849.629304 -22491.614589 40788.96239 -18733.433834 -56498.383823 4279.2189003 -25189.256764 -24042.235949 
-15777.745958 -8176.2558532 -38132.464686 -6628.1229203 -21377.346869 -24840.944252 -1822.9280472 -8918.3930448 -18566.677132 
-10572.236224 -12784.316647 -16348.772226 -13119.704072 -12323.31584 -14544.078496 -15474.062805 -15946.468338 -14335.428686 
-13362.709818 -16403.434832 -12173.007323 -18590.303925 -19508.561996 -12365.983721 -16112.295553 -19141.522573 -13045.011163 
-14844.096134 -14127.858267 -16800.170958 -13539.273356 -15617.417432 -13215.695187 -13546.66736 -14399.535593 -13636.179816 
-15005.925039 -16142.908892 -15722.019442 -16780.29037 -17848.849063 -17225.651616 -18796.212152 -20467.394952 -19390.241774 
-20955.508069 -22306.727222 -21824.131194 -25591.172875 -19840.229456 -21402.656938 -22416.021485 -18659.118382 -20847.403892 
-24165.776217 -23547.634941 -17939.315036 -29918.644414 -22599.535255 -21636.537156 -20596.109456 -24473.062118 -22691.018189 
-20578.00005 -22601.078226 -23670.002954 -23673.427493 -22777.90688 -23862.563299 -21733.465267 -22752.443629 -21681.444295 
-24610.103347 -21962.257314 -22785.128954 -27052.978526 -22413.347318 -23441.635921 -23570.591474 -20667.359441 -20499.968968 
-23019.581076 -21001.429002 -23652.503831 -21328.453057 -24492.622061 -23567.512148 -26050.364824 -22647.890773 -22245.936861 
-20288.182557 -25619.732392 -23075.68108 -23488.41629 -28098.034375 -20348.963542 -14776.627543 -20820.200416 -20656.456917 
-20041.099812 -19605.079516 -18562.171745 -19565.055342 -21859.373507 -21177.263996 -21034.934551 -21690.641665 -19272.569256 
-20191.002067 -20755.312147 -26030.802093 -18446.383967 -24019.809031 -23269.881527 -24865.210804 -29119.076298 -19941.950568 
-16239.882221 -29179.097269 -23953.645359 -22890.15341 -21769.643795 -23380.207025 -22393.689876 -18942.909706 -18225.738441 
-17803.239097 -17050.277488 -16366.238333 -19152.610228 -17718.4874 -17154.66955 -16642.968919 -15424.264906 -16125.863213 
-15780.126357 -21650.798977 -19968.060828 -23185.288616 -18071.208668 -23462.006798 -17630.036603 -26997.339167 -30627.101611 
-13469.68609 -13346.226411 -21520.463574 -30496.338804 -18820.122723 -26773.46577 -23458.035384 -21122.279962 -24109.600553 
-22849.15729 -25069.38053 -24293.103344 -22324.537944 -18511.034296 -22376.198061 -22125.691234 -27020.823819 -15147.456824 
-20183.859426 -17990.688976 -8186.3887806 -21490.421478 -28210.949136 -14000.66923 -24062.783051 -18268.776232 -20665.234148 
-31467.859294 -14080.060098 -11969.319314 -14869.846952 -15201.36103 -15479.242365 -14396.197273 -15256.622271 -16438.793387 
-14877.580069 -17131.739878 -17153.92599 -16094.844209 -17816.224033 -17496.217045 -18199.390893 -22710.833941 -23962.924778 
-24038.20147 -23630.106139 -22799.897576 -23011.140569 -21928.74865 -20929.243345 -22256.169753 -22016.302178 -22709.598774 
-22297.169507 -23536.583914 -22903.281334 -22140.91482 -23408.952665 -22684.080567 -27551.491509 -17556.272719 -27753.713113 
-23186.701122 -27937.934756 -23895.402587 -22650.851521 -22211.341926 -29064.800367 -19763.465022 -53232.538566 -21020.455507 
-40395.193449 -17913.759534 -22929.394216 -16097.511026 -12196.42319 -35726.990992 -23317.606885 -24221.087717 -23102.882527 
-22299.195976 -21617.628759 -23404.209422 -28274.361175 -20287.392314 -18520.134235 -26302.782246 -24176.986025 -24606.371638 
-17204.234602 -16114.331028 -21038.105555 -16044.897966 -17496.316974 -27024.170655 -16397.065966 -22053.185587 -12648.077272 
-15451.396393 -16122.574158 -15867.215006 -16353.060469 -15039.218646 -14816.011944 -18376.32792 -17435.309759 -17225.257345 
-16057.174702 -17676.176833 -14759.263725 -15134.335161 -22223.264464 -23447.56856 -20693.936291 -22635.445446 -21505.860402 
-22685.918155 -23649.729882 -21782.027116 -20335.02929 -24455.773117 -25916.946613 -20098.989947 -21951.024264 -20275.006765 
-23314.610639 -22543.894652 -27279.177671 -18698.471806 -17902.204085 -18521.449092 -20114.595621 -19929.662462 -19135.980789 
-22934.02126 -25112.461956 -19754.871496 -18395.216959 -24916.672917 -12989.75151 -23219.129626 -24189.8886 -24492.902701 
-12225.847686 -27155.623369 -23843.464123 -24316.831401 -23430.808696 -23202.159829 -26870.9595 -17999.065093 -20898.935997 
-15500.997993 -16574.436602 -21463.776917 -21752.489258 -17989.947984 -24306.258924 -15632.347843 -21499.777619 -17246.915097 
-19843.998407 -19491.567201 -20144.554624 -19553.123783 -20498.694567 -19181.056364 -21203.552265 -20429.307187 -22391.259799 
-22659.40991 -23099.507067 -20333.254622 -25097.224706 -25364.60474 -16664.865718 -14653.334786 -12507.574828 -14528.749998 
-15948.937143 -24592.256775 -14858.695484 -13548.667016 -14810.28201 -15114.725817 -15543.917412 -22423.315095 -12393.021309 
-8072.1823336 -9513.9678285 -12386.332445 -6914.3047561 -6357.5781724 -22263.750713 -13187.920896 -8864.7920569 -7382.5715752 
-8780.3736548 -7115.7387966 -7672.0267389 -6192.2028033 -7440.0244647 -6845.4590175 -8851.2547504 -24947.290797 -25843.984834 
-6754.88977 -24331.372464 -12335.532713 -10570.674119 -12453.020717 -11540.25762 -8484.2334403 -15098.576459 -9000.5396357 
-9179.1531452 -12877.804001 -11467.438263 -7880.3951421 -7207.0622068 -7345.114207 -24648.42425 -9322.9029102 -8034.7123671 
-5325.2397215 -19773.577944 -6900.9064479 -6545.6053598 -9504.1030482 -12337.423778 -10930.25182 -8527.7716137 -6000.6867808 
-18697.70767 -5422.0797744 -5857.3293966 -16231.250287 -9871.8139755 -7513.2759518 -18013.178226 -7258.5750503 -7834.5035638 
-7648.815666 -18976.927621 -23691.013259 -10654.810688 -5945.220627 -22661.748015 -6920.9819352 -5644.1363543 -14279.071525 
-50523.389007 -20737.879658 -19625.314027 -13766.365976 -10829.99105 -11208.112016 -19020.887927 -5368.4630794 -46983.828378 
-21003.820623 -23083.805407 -34135.871518 -23084.212966 -35315.723467 -21857.577815 12052.847829 -9071.2495321 -24900.66743 
905.68615224 -47196.800265 -48386.785437 -4114.0646448 1812.8003992 5518.9206003 -11649.633705 -8010.3929809 -10947.136945 
-15982.366538 -16377.444812 -15982.299439 -18420.30726 -11431.252189 -6490.0692894 -2959.7870421 -9936.3275721 -9825.4572335 
-6871.9670235 -7727.9535953 -7099.1355832 -10240.117621 -7270.8872245 -6442.8377359 -9876.4630602 -7564.1271766 -5390.9909176 
-5864.9906641 -8769.4022607 -10364.430181 -4839.020393 -12477.971366 -13158.284362 -5425.2464016 -9987.4325475 -9685.4166326 
-9808.0271385 -7526.0618961 -8372.6335513 -10947.014444 -12419.033026 -10949.232643 -13467.087189 -8305.2050451 -10457.318981 
-10165.860326 -6076.2587758 -10566.333347 -10245.589739 -8123.5997661 -10443.23186 -11460.889289 -13302.813162 -10905.045013 
-12349.565463 -14727.396209 -17923.459242 -7999.6512438 -13914.372476 -7175.1290832 -8653.8667721 -8950.2684663 -12916.55137 
-9351.4512606 -9023.9861086 -8873.2939937 -7737.3823409 -5354.8054282 -7745.0588215 -8380.4861489 -8766.1081743 -8189.6035555 
-10554.41189 -32598.577813 3235.3614101 -16042.611045 -28285.577686 1254.0877021 -24282.140933 -8954.7108165 -13064.620217 
-12513.443933 -8117.0876765 -9420.0396496 -9745.0600937 -7618.2603128 -8730.3763523 -9224.765232 -5421.0018975 -12010.708467 
-10897.291518 -13008.612222 -13863.410641 -12762.228705 -18892.377236 -15179.69511 -11473.801463 -18737.368004 -12363.77681 
-9162.4201887 -12445.926977 -4321.1710995 4726.4883845 -8859.3802293 -8822.7597916 -28661.942263 -32829.554848 10401.860561 
-13408.744656 -39433.557852 -10652.213841 -13110.70983 -11943.276509 4329.5394621 -6845.9823352 1332.5967016 -1731.5267935 
-5493.4137835 -10560.354154 -9102.2831806 -13199.768846 -11811.824154 -9595.1512814 -13263.88142 -10973.044462 -12906.046492 
-10172.333908 -8857.9894382 -7401.8519889 -7000.0247546 -12131.779176 -10681.181251 -5442.9321814 -4802.2026233 -6085.7226036 
-5785.2812932 -5018.6935996 -5062.0363997 -93.27776839 -12575.814141 -27380.209265 -12043.00383 -21251.021217 -38695.715692 
-22303.437666 -27966.886624 -11721.057349 -19655.770117 -20466.617537 -13325.059622 -26746.487463 -21239.685858 -16810.397672 
-8183.7701829 -12482.660989 -10480.688072 -12741.180229 -13867.660206 -13668.426533 -14265.742516 -12532.176999 -12793.185531 
-17356.485281 -13974.281948 -18976.839297 -7951.4693399 -9295.1579594 -12718.033741 2125.2189647 -12911.840215 -7549.4855853 
-8575.1241972 -8332.5489113 -8720.0068117 -8353.2875661 -7379.8159665 -8616.1694067 -8509.9899807 -8283.7290986 -8270.0110857 
-8575.5646339 -8386.6584689 -6227.7141092 -8101.867556 -9951.6382088 -9193.3684915 -7072.851902 -7559.6483559 -7311.3587337 
-11300.401511 -11968.674018 -12763.437858 -53327.471935 -19395.361063 -4320.6791913 -11602.57387 -5112.9497674 -13156.120018 
-10363.187085 4048.5471189 -31818.718914 -18774.597415 -14583.286132 -1767.8348771 -17424.62291 19161.446659 -34932.349075 
-8297.8946035 -18874.268018 -35894.807949 -12457.192744 -16306.980677 -1360.2707632 -29364.032987 -11902.681358 -15458.293117 
4505.7971342 -13601.034632 -8117.6715489 -14079.823688 -8228.6012218 -9129.1941048 -6262.2580006 -30798.61726 -7839.5619027 
5544.1735459 -27496.489933 -3773.5384089 -7262.3426142 -11579.469296 -3311.7795447 -8106.2020651 -7765.9376269 -4551.1509255 
-28419.757808 -12421.511376 -23152.342424 -22805.132087 -23123.38602 -24063.069121 -23333.53735 -21097.125359 -22004.972318 
-19947.641881 -20343.153994 -21338.716504 -20854.899115 -22865.103285 -23081.791629 -24152.757282 -24350.653037 -21105.225092 
-20423.077224 -22910.897994 -23521.51672 -22288.785312 -23702.819733 -23720.683149 -24445.013231 -23036.291057 -25075.91164 
-22976.845998 -22893.336589 -23546.668512 -18419.191848 -19166.737472 -21240.225092 -23034.521835 -21664.914992 -21858.019883 
-22666.940661 -21277.918388 -18623.652166 -19314.532819 -21382.90251 -21186.906492 -23029.037809 -23217.335829 -23497.65952 
-22550.691825 -23990.904214 -22259.327869 -20858.80182 -22865.911113 -22078.275083 -22499.936685 -23952.123234 -23429.402971 
-21262.25055 -22402.397414 -23341.930996 -22341.916292 -23120.204629 -22672.668553 -20694.057401 -23524.402879 -23991.294591 
-22686.453263 -23202.319918 -19696.561556 -20334.321014 -23137.048954 -21389.193209 -23916.083147 -22942.912062 -22241.599051 
-24265.998231 -19324.956838 -23606.955058 -24315.832879 -23551.147042 -22643.056916 -18834.484292 -23142.112698 -23659.000731 
-24678.969825 -21261.22449 -21708.770444 -23413.957325 -23374.507554 -23281.718355 -21679.799163 -24430.033326 -22690.439038 
-21119.622337 -19549.446327 -21779.08728 -21613.870602 -23053.544477 -23279.924087 -21108.107799 -18353.565708 -24146.0921 
-22899.720483 -21973.243411 -21548.318477 -21437.108332 -23048.406248 -22502.454338 -20874.493232 -21084.962473 -22967.067993 
-24746.150942 -22715.734753 -21452.065908 -21642.426707 -21685.476767 -21982.892796 -21764.591587 -21106.722321 -22781.456086 
-26954.495754 -21227.031039 -26515.626386 -15615.72639 -18634.984324 -21758.79747 -21808.422706 -21424.750263 -21399.121869 
-21346.727629 -21270.323093 -21687.95256 -21774.76117 -21236.679949 -21784.56704 -21850.621153 -21285.685254 -22211.829606 
-22217.351878 -21479.513631 -21818.588272 -21153.95579 -17896.898987 -12181.730674 -16870.23394 -17942.739142 -20440.487057 
-24427.599704 -21204.459593 -16529.761972 -19530.442969 -24913.536043 -26588.629801 -18916.072736 -16166.074142 -20640.681419 
-23104.308405 -19894.900144 -22791.161205 -23418.769492 -22244.25473 -21486.946201 -24319.765994 -19774.012397 -26068.696828 
-36125.772296 -23807.160414 -22455.155858 -32850.14915 -24123.971572 -23381.086897 -25023.004246 -23253.480766 -23193.831335 
-22631.279837 -23292.018353 -22652.660631 -21659.297076 -23068.911951 -23268.972049 -21099.167687 -22385.761804 -24366.29224 
-23881.641137 -24358.711687 -23517.628426 -25414.491996 -19828.245949 -21136.741323 -23691.631771 -21795.39333 -20113.974603 
-19672.217289 -16105.133469 -20484.866641 -16416.920761 -21835.63002 -20346.771372 -22476.396819 -21258.597909 -20394.965156 
-22719.189174 -27676.642869 -23248.787542 -31081.712308 -23294.568822 -23385.443457 -21373.981826 -24249.19544 -21414.9907 
-19246.11812 -21564.22636 -22683.723883 -21255.58697 -24374.938421 -23246.503295 -20254.065271 -23617.360012 -24654.253153 
-25883.559614 -23843.064556 -23445.663669 -27289.23009 -21690.912606 -26103.597088 -26810.676296 -20789.514583 -20773.863404 
-23789.119665 -22782.564097 -21815.332781 -18896.971098 -17341.879915 -22073.55189 -16515.043275 -19704.309737 -24776.522553 
-22854.230621 -20897.703062 -24826.381707 -21303.872069 -21060.506352 -29523.615498 -18711.466981 -22198.766359 -22525.98404 
-25536.236027 -32097.545385 -25116.36424 -23085.081814 -26297.13792 -20397.60726 -23910.198259 -22845.937474 -22813.440734 
-26221.243065 -21580.876251 -26456.357953 -22651.067506 -25733.923904 -30163.922259 -25145.714925 -25112.751401 -22810.063287 
-20937.256107 -26702.639203 -20407.480749 -28644.358287 -28456.880777 -22857.680238 -27460.13326 -20048.024717 -23862.704841 
-27103.945374 -32070.422727 -25725.552727 -23821.1892 -25375.192587 -24249.590307 -27722.851807 -22814.118642 -28457.722871 
-26474.741936 -25178.918338 -24703.717548 -22949.346129 -23056.153736 -21898.349989 -25529.712128 -25121.57789 -23706.200945 
-22983.260951 -22929.193742 -21801.907051 -21756.99558 -19493.776533 -26690.976761 -20465.200207 -22326.221165 -23478.68856 
-21976.953363 -22347.131902 -24601.547167 -22367.049294 -26039.281925 -15287.130362 -27135.01705 -22822.750287 -22718.652721 
-21815.668026 -23381.971166 -23162.702608 -22891.457002 -21600.497219 -15797.972639 -21871.37432 -17807.549794 -19086.503134 
-24352.614126 -22497.111695 -23673.059564 -20353.846751 -17922.545528 -19965.884971 -17331.865279 -22499.628261 -21876.336816 
-21190.427535 -18106.766221 -16200.587887 -17810.852972 -22863.597718 -19196.403468 -20165.718568 -19746.765752 -17942.382927 
-18661.098504 -20212.013127 -21219.788543 -22765.202694 -22168.994139 -19307.892115 -20113.173899 -19055.218218 -23354.963873 
-22274.327488 -21333.110401 -21735.289161 -21949.548627 -22443.048465 -19531.569803 -21354.201866 -21847.757712 -21101.15359 
-19383.786466 -23811.067377 -20981.70603 -20398.133116 -21203.677631 -21463.115124 -22564.273302 -21900.336506 -20786.631605 
-23474.036556 -21550.239164 -22058.949484 -20557.444514 -27259.798912 -24539.877849 -21147.607045 -23399.640892 -24192.114483 
-23374.940423 -20260.594722 -22851.751618 -25936.915911 -22534.488483 -21356.647889 -20622.622079 -22093.419745 -24745.535485 
-20962.881876 -26100.590917 -22987.549495 -24437.58566 -23253.144669 -21530.871819 -22189.155026 -23127.286753 -22365.369281 
-20956.804163 -21820.905791 -24580.45058 -28608.199998 -33512.737264 -27597.357963 -27570.946196 -29612.282706 -26358.090105 
-22222.743249 -25977.791502 -23460.471056 -24216.239116 -23893.884835 -23370.011637 -23081.33639 -24228.79441 -22090.506712 
-26236.588585 -23762.93664 -29122.150747 -30070.188859 -26224.055635 -24952.917005 -25161.815855 -21795.2066 -21733.44375 
-20542.658 -21463.427089 -20350.754953 -21510.148925 -22363.007296 -19951.097614 -18084.924794 -19064.863478 -18288.884015 
-20556.221876 -20810.482662 -24171.677137 -25229.991979 -23583.557454 -24260.664147 -25858.654546 -22894.714924 -24078.783855 
-28487.43589 -25427.662358 -23994.97681 -20279.94038 -23940.78381 -22591.778022 -16749.318575 -24993.406306 -21415.561798 
-14511.872651 -20028.726404 -30576.790656 -14405.691069 -25250.583643 -24390.794 -23720.478958 -23807.49113 -25963.80187 
-23474.426088 -21182.115151 -23243.91898 -26726.37481 -22721.056709 -24112.823153 -26553.211847 -25188.251411 -25390.079114 
-27635.113616 -21697.167933 -24071.393397 -23649.704656 -22834.326782 -23372.770149 -23317.436656 -20733.900752 -26100.324433 
-23401.628317 -24213.370884 -21526.886228 -22241.429777 -26241.591749 4049.4486925 3769.0364975 5833.3291796 5630.6584032 
3954.313941 2838.6417218 3338.9052368 2666.2739131 4522.5378594 2980.3534552 2942.5034245 4791.774959 5846.2669316 
3976.9357621 3359.9194982 4305.5686481 2236.2084374 6418.4328467 4835.2737576 2825.8823081 3353.8341025 4418.8927651 
5752.4832578 2929.5258158 2259.3008648 2927.8434285 2425.1802795 2239.8614803 6322.3477098 2934.6696587 2825.2899381 
3163.8561781 6713.2435123 5560.7161721 3508.1914342 2595.8754453 3768.1477827 5740.7524409 3277.0591447 2706.468655 
2440.9597927 4761.839602 2854.8791547 4454.557418 6139.8076514 4692.0784148 6144.9766856 4547.9447262 2123.1070536 
3954.4864854 2496.8412537 3537.341753 7013.6017845 3625.5484639 3839.4049158 2672.449395 4643.5997696 4624.0090644 
6421.9731677 6183.3106653 2723.9914135 4737.6263993 5101.4991659 3486.5880467 3859.2409089 2848.257819 2565.7520912 
3418.2501176 3326.8881735 6552.3959338 5127.2122122 3050.0353021 4013.9125102 3657.7009838 3289.9106787 2406.2959691 
4247.3756293 3575.4783141 2447.6574635 4311.330221 3411.2723877 4137.4044188 4520.5056184 2586.1188482 3589.0616656 
2484.7408856 3486.897491 4234.9712455 2573.7697368 6490.8381331 7029.50701 2700.8047155 2625.1003992 6086.4314302 
5365.7975375 2748.4446773 3440.1055391 5292.7985927 5324.2947211 3193.5162105 5819.0693914 4148.6493184 3085.6261499 
2891.3771595 2495.6968721 2612.2354355 2818.7683264 2446.0794711 2637.334901 2879.0027851 2623.9523984 2431.4883238 
2955.3269766 2748.5727021 3361.5923052 6115.9420243 6164.8530283 6230.7169293 6454.0827704 6629.140702 6268.1063357 
6384.3494511 6320.7209124 7105.4754071 4952.5092043 5752.8140715 5785.4436847 5138.9472816 6066.2814847 5424.705281 
4858.4768149 5217.4427897 5426.988644 5749.0731286 6081.5436334 5717.4376645 3526.0984596 3252.4910106 3743.3340693 
3529.0174999 3258.0798568 3072.4405595 6670.9857172 6590.9545583 5888.7001663 5823.4411136 6011.5941167 5723.0763275 
7700.0428442 10095.642835 7339.8142773 6765.446092 7598.0011035 13202.361752 5650.3089188 8447.4513671 2800.6292039 
17496.928766 20619.340873 7766.9854937 1890.4883016 1875.6931125 2008.3371575 2125.8360947 1946.79789 1793.9614979 
1936.9333876 2163.9944843 2087.619977 2060.4285345 2100.8027417 2071.0330582 4537.3468486 5508.1652545 4350.2399306 
6233.4789687 6373.50299 6066.8689057 6749.2849202 5817.7793151 2389.1095314 3780.2860318 8017.8409457 4040.0042728 
4262.9878751 3804.9625383 6376.3580177 6361.5941332 6692.1131941 6680.5836777 6237.9345097 6710.2945556 5976.0416656 
3101.2679122 3392.6934748 3662.0939768 3380.7511901 3705.2364948 3071.6077021 6238.344678 5905.8851996 6305.1324348 
4776.7993403 6205.0822841 4683.0358217 3723.8567856 4101.3242399 6364.6057909 5360.5315242 5333.346188 6145.8710094 
6016.5464772 5052.1107735 6639.1196558 3058.7946713 2871.5206881 2851.4432239 4285.4606263 5289.4497358 4687.397808 
4989.3300629 4830.5405027 4473.428675 4293.1245818 4260.5033964 4893.0367178 3004.9925483 2547.2718356 3040.1812808 
3526.9630434 3227.1870456 2980.4268985 4770.8703694 4347.0402346 4658.7773512 4755.6323165 5443.8857216 3079.9223367 
3673.4139532 3198.7764028 3657.7724089 3826.1659385 4254.7646918 3825.3689565 3977.0961731 3438.913667 3940.9747735 
3550.4149459 3356.9779054 3878.3467291 3605.1748169 3485.4306314 3967.6709607 3696.2579376 4158.6262786 5262.6969534 
4673.3378176 3631.7137208 4937.3475368 4810.0686946 5477.0666785 5621.7894883 4910.0555746 5058.6584394 4163.4268446 
3739.1151703 4349.0592517 3054.7526422 3209.3846519 2997.345198 3482.078959 6373.3507136 2922.3441689 1774.7705095 
3360.7619439 6266.112346 5684.1196342 5907.8296058 4261.3233791 5573.9457034 3381.7482392 3144.9944053 3454.1341108 
3890.5807418 6479.4265041 6040.1562729 3760.0917832 3130.3852419 3480.655108 4875.483417 5476.7124482 4706.4139418 
3266.9929944 3133.7991451 3228.1931737 3102.3493633 3540.8563925 2332.1399822 2451.9521641 2149.1121143 2317.2029544 
2426.2546901 2508.4847281 6116.1671448 3143.3622434 3208.803133 7002.2693187 7067.6481062 2442.3871824 2736.9967277 
2579.8368988 2410.9168747 2657.063444 2619.4277471 5529.9177144 4947.5945097 5355.5275329 2826.3472389 2487.8771114 
2660.9343527 3751.1593545 3497.2789354 3726.9665627 2883.0498118 2932.5343843 3297.2427398 2520.5887224 2437.8085141 
2713.242343 2484.2552856 2929.2272826 1800.9678544 6167.1022735 2183.4286969 5477.0050833 5591.7833344 5498.7870442 
1871.8504591 2021.7544873 2061.5095578 2228.4553003 2094.4052792 2573.7818141 2808.0834337 3127.8882358 3201.6264461 
3235.7518196 2924.9176856 2558.113093 2658.7672883 2429.6709872 2408.1515726 2540.8241412 2696.2641424 2444.2869009 
2554.7844875 2883.7314561 21296.908936 29875.843733 2733.1857243 31007.553632 17342.915711 2557.8433058 2576.5223858 
2482.5166485 5509.9563856 4366.9786786 4514.5722531 3468.1561745 3371.5656786 3877.7786054 6308.7834429 6478.918594 
6197.6512757 2834.3219727 2958.140892 3879.9073327 3581.7661554 3649.5228705 3060.6908434 2917.2207749 2702.9563405 
2885.4693331 2955.0168592 1907.7499082 1843.9204049 2095.7321131 2118.7992539 2691.2357849 -5674.157654 17536.381791 
47608.120459 1966.1902626 1810.442595 1799.3055302 3095.5290261 3177.3461491 3602.1134181 7111.3669178 6706.4471089 
7267.1662194 5731.217802 5662.4042966 66581.908616 -26377.644252 17927.849514 -16359.222803 5129.3516979 2618.6845074 
3037.9514794 2785.9185772 2480.6130909 2274.3150922 2870.3676379 3379.0737932 2127.0060001 2038.116842 6717.3852577 
7476.4162383 7299.7310415 8046.8302595 4389.985114 9015.7289607 -1935.9292905 6531.6149844 2445.0839364 2908.0278615 
5716.6248724 5156.4511358 5917.8642467 3590.1621666 3069.8770083 3068.7529314 3202.0742178 2838.438213 2123.0231793 
2180.5478503 2417.2987767 1815.6239605 -2634.1173052 -15404.928423 -1022.591533 7550.4020561 2698.6602805 2734.8814264 
2908.9808473 2637.4164401 2639.6147634 2527.4172373 8050.2213005 7368.3286059 9275.0465255 9386.3791808 6249.6016862 
2468.4330209 8211.6716808 6124.1412178 6018.8190695 7065.6632464 2486.1917956 2482.9112202 2823.1519974 2771.6911298 
2920.107105 2424.3315288 6801.9471353 6048.9488652 12215.115766 1429.8355241 4151.9224451 -701.58389961 4994.3320772 
3714.4119085 3685.9540418 2948.8840813 1844.807045 2152.929078 1911.321086 1932.6028929 2143.4283008 2152.2532362 
2122.7476007 2318.424458 3329.772305 3413.8462457 3424.2938106 3577.171593 3495.8512722 4492.4367612 12121.32414 
10564.670445 6557.8967032 6222.5656063 5605.5123609 5040.5141103 5121.0259148 5858.7071098 5514.9097271 3025.8071566 
5660.1273273 6029.5821428 2446.2653704 2419.978666 2541.9861431 2734.3637434 14384.270678 7353.5577895 8741.1760159 
8817.927842 6658.5609749 7088.8702825 2375.0365502 2195.0498984 2741.0234245 5798.5708607 2407.3940125 2452.9802033 
5304.0589691 5021.4124906 6383.1751086 6197.9905206 5709.6207128 6123.5939236 6057.5681899 2051.9119947 2090.4657817 
1996.0175404 2563.8635908 3067.3961119 2622.5728273 2476.9456826 2890.6996308 3394.1015266 3279.4909381 3336.9864172 
4007.7032652 4339.4491959 4066.5279291 3957.1500408 4540.1632463 4475.2898339 4468.680497 2868.7544287 2427.6600169 
2769.9827204 5283.2505137 5507.680582 3056.3511451 10169.527738 -1856.9985533 4397.2076299 2409.5142438 2494.0537935 
2228.2318489 2186.8699076 2181.520843 2407.3041246 5520.5696114 2782.9311633 2751.51831 2971.7063599 4617.826259 
5063.2641375 5765.828709 5809.6631963 5432.1306583 5752.4904337 5850.137984 5472.4841414 4862.9259838 2755.0808839 
2555.0108303 2753.0495393 2236.451129 2424.4053464 2170.0447047 3482.8823223 5145.5205246 3624.1965416 6001.7767629 
5647.9239809 5726.7412282 5492.6182825 5969.9389199 3075.5485809 2921.8419502 3113.8652997 3666.9254188 3384.3332858 
6140.9941717 2645.2555343 2811.1751469 3148.4916508 2108.0708842 1986.668773 1860.7628924 2110.914058 2269.9128549 
2458.9904277 2532.125021 3027.9949659 2966.3799719 3006.3192097 3277.8912095 3107.2379678 3009.6773273 2950.9782821 
2736.6689531 3091.9641971 2479.7486723 2852.1029379 2406.7180234 2853.5460411 3222.5168243 6555.740477 6014.0123924 
4968.2331313 3708.5847166 3187.3701239 3552.7412651 2163.5251539 2180.019973 5335.413873 5250.4026159 5629.9832834 
5477.2751053 5634.1056751 10329.042906 5260.0025927 5064.8112629 5417.3404544 3271.8657899 3070.7610335 3543.7276689 
-20994.637912 -8865.9269425 5971.3934097 5821.3362433 3210.1545916 -3314.4840435 -1785.0104509 21751.061798 13009.916728 
3796.6483936 2533.5335076 2818.4393063 2569.1729766 2805.4252741 5712.7790528 6144.8109346 5837.1445613 2469.9439799 
3863.1023627 2877.3029915 2886.4947576 3161.733041 3740.1655433 3332.8071557 3324.3671746 3720.5595275 3744.8435345 
2980.3681406 2596.4543387 2433.233302 5650.2662525 4922.2392522 5322.5505371 5408.3439176 2472.809928 2669.3862477 
4687.1879111 5252.021862 4533.3838706 2631.6779458 2848.3919564 3976.666626 2073.7827889 2089.3656969 7744.9384003 
5231.8954677 9297.6127069 7117.9252397 6478.3974779 4001.5712426 2938.9122965 4014.486334 2098.0210304 4681.6005099 
5035.9350794 5096.9360915 5667.4017182 -2815.6180975 12054.27928 3471.0496222 3347.0480582 3030.5210076 3303.3485878 
3701.0421339 6049.2943333 2569.7431848 2408.2445286 2360.7836491 2496.6192719 3102.6432214 3710.9426135 1833.5192639 
1993.5328891 2373.6035593 2185.1256509 2355.4461246 6341.3483705 5252.1170735 63752.8824 -11294.370736 2527.4341675 
2755.495703 2817.1751125 748.08824772 -11197.338543 2097.0689946 2088.6870882 4402.1571307 4667.0681528 4510.7754377 
3908.7690314 4120.5309448 3991.7082478 6516.0003543 7859.4421102 8064.1350498 3065.1790497 3057.4181623 1820.8063202 
2085.153577 4094.3763477 3687.1429348 4553.3446756 3347.8297751 3333.9532907 752.7889385 3139.0882722 2362.4784798 
28338.327788 -9294.1125641 11291.85728 52760.690074 51894.35126 4684.0560135 4945.5968783 5609.2903959 4952.503053 
5147.6433384 4307.8423789 1905.6505094 2105.1504671 2524.7301383 2499.7945744 2343.815357 5248.7672391 4945.4382996 
56499.305261 51627.141298 1766.8985111 -3071.6279097 1804.9710146 1812.1434669 2068.839317 1980.6466423 2610.3739405 
1837.9086767 2857.1099364 2923.3799114 3278.2812127 6222.2287725 -32649.790029 2461.2106271 2000.9246284 37743.633573 
6079.8809781 5222.4378334 5330.6143038 2533.28293 2825.9459512 2486.1325762 4354.2208557 4055.1010718 4038.9888606 
4283.104228 4404.4010987 4537.603571 4167.9569898 2521.3300192 2402.3021865 2356.4780394 2496.9733323 2997.0067608 
3044.7343048 5674.2642624 5138.0843326 5396.9901034 3749.7527357 3459.4385933 4749.5702364 5390.3863762 5185.3550299 
4475.9605787 4355.1046652 4835.8443925 4745.3954226 4669.239436 4257.1937772 15131.198277 39715.301312 5526.9568869 
5453.6422465 2039.0032753 1919.39365 4499.7745019 4021.3945832 4035.6835608 4056.8927309 4025.5475683 5150.177473 
4103.4668882 5339.0089085 4970.2464169 4565.9664496 4769.2578389 4190.3808577 3441.7937884 3244.7401711 3094.2934895 
1815.619062 1836.869197 1985.7839588 5108.7542047 4935.6555048 4459.1961152 2898.9549322 2879.7997778 2513.1160938 
2550.6024948 4080.6782925 4771.5722049 5519.0568218 5933.1647169 7618.5592698 6708.7831143 6348.5677048 7192.9208505 
7050.0288435 56811.329721 36136.882835 11007.882877 6946.473894 7797.8976722 7424.1601451 7524.0805431 7395.3951576 
7582.5444384 4362.9349536 4258.7156616 4961.0523405 5064.8802646 6184.3706317 6630.4260723 6610.9288916 6244.4346249 
3740.6041654 3529.0842989 4740.8087904 3913.9956742 4091.198551 3685.3439361 3783.3499427 3985.1694573 2833.3454874 
2675.1293877 4162.4863848 3167.8663184 3057.359311 3172.8202855 2473.2704711 4358.7519588 4306.8595408 3913.9659759 
4290.7596486 4238.1353166 3566.2495485 4133.7348865 4133.360539 3666.2985046 2463.2595491 4055.5653825 3739.9527501 
2538.056025 2509.3592045 3037.0016304 2319.6287592 2097.3835944 2547.1487074 5291.3421255 5321.1341354 5500.8938524 
4800.6096222 5355.6764835 6730.5582947 5112.0398399 5382.0256523 3995.9639683 3692.2618797 6124.724787 5953.2076092 
6038.3208367 5876.6534916 6197.6413618 14694.968166 5137.1060812 3180.1516862 4690.416296 5782.6113605 5194.7762457 
3035.9286499 3315.3438647 4908.5340656 5312.8794025 3024.268194 2387.8445494 2532.0213987 2479.9237137 2819.4172409 
5210.5555772 6588.8223141 5819.074795 4388.734741 4405.2924669 4899.7096541 4293.1451361 5402.8390001 5519.4008472 
2861.5664461 3051.2548266 3038.341126 5032.4484686 3578.8200667 4045.9318445 3561.0407092 2408.1069238 2347.6215103 
6745.7977113 4543.3049824 4428.9054379 4250.7724322 5593.4494194 3538.2873165 3233.3469754 3256.7087854 4069.4396584 
4431.1359476 4672.2951973 4172.7715216 2894.7384959 3454.2555883 3389.5032552 2527.2521207 2398.7760162 2432.2759717 
2581.0631153 2598.4358958 2810.5228291 2482.7706561 5779.9104603 4771.720063 5600.4404654 4139.7644767 4329.9366828 
5157.1989224 5521.4490848 4521.2674306 2408.7587239 2475.9718047 3501.4115673 4142.1615388 4506.9328092 3401.8715701 
3548.6034551 3694.2277177 4117.3543023 2302.7141721 2639.6847871 2370.6630356 2744.5147645 2488.2877055 8512.3156429 
7742.5726348 9514.8125847 9197.6062045 9637.4853929 24557.247873 11203.444137 1879.2040343 2017.5029937 2171.1480354 
2256.08836 1803.1995869 2056.8467742 3805.9485671 4221.7606493 3682.187696 3683.3816027 3954.8014376 4200.7020614 
4985.0263538 4102.7389284 4487.8721557 6674.2317521 2573.5583661 2664.2655801 2898.3239061 3009.9498031 2817.3575441 
2277.3102411 2110.7034623 4453.0570939 4381.5884297 3789.7645864 3458.5319384 3880.8594138 5462.0172863 5641.2824133 
3304.4961446 3250.3807103 3719.4401679 2439.2979158 2790.4239552 2378.9411691 5444.1400561 5160.9354844 2422.3357897 
5621.6975066 6829.411585 2650.025414 4425.7986163 4314.2927683 4070.8174393 4035.7293431 3907.2416193 6803.4907915 
4690.8492561 2524.945828 2335.1592303 6579.8576491 6201.403859 12778.66251 3177.2923322 3456.5159759 2981.5130292 
3427.7606839 2977.0538806 2894.1299998 49850.274372 3409.4551868 5011.0138587 5869.8526958 5735.6565515 4726.4684255 
3353.5823577 3967.1041871 2851.8480054 2352.8842215 2425.2537663 4857.4808866 2608.4756573 2497.3965946 3759.5639697 
2397.973093 2403.355302 4532.2954946 4276.4116456 4416.1933445 3905.2559203 4139.910062 3794.6412868 3823.8148757 
2612.7923079 2981.968556 2324.0703742 4156.6398141 3801.8850275 2519.0675057 2464.9193505 5293.0301714 3369.9192676 
3382.248201 5279.5844052 4763.7816055 6413.6455349 6595.2814318 6262.9769361 6971.1835656 6687.8711038 2190.629419 
2295.0112331 3393.4891745 3352.6692471 3244.9465707 5385.8032577 3273.8947857 -7499.9833012 -9079.7692877 3815.4706495 
3634.8676918 2336.2735921 3319.4508407 3775.2959487 2381.1686467 2440.2110068 2162.9684608 2279.4823969 7962.1783965 
2541.2127566 2767.9720443 3646.3008302 3090.273833 3716.9924019 3661.8773438 3390.6405556 2808.5294062 6943.717994 
3451.7944873 3877.7252611 3025.9288703 5977.8051553 6240.1987536 3782.3054633 3239.5554107 2651.4517572 3049.2151515 
2036.581995 1946.8349542 1877.8100403 2954.2943053 3890.4856085 5816.058384 6269.7176914 2997.870074 3049.4834072 
-409.30011372 -4733.5772362 5898.0571361 2105.0521991 62015.956076 1805.6553436 4054.9199321 1849.5160955 2455.7729374 
2508.4167602 2506.6222463 2908.1960996 2715.9810537 3077.0014807 3335.5157488 2984.356135 2187.6671612 2368.5057833 
4725.4466974 5599.9149061 2328.2570502 5590.5674182 5050.4030903 4646.9696553 6109.7172828 5557.7038393 2483.1675341 
2637.6962439 2426.9888101 2734.7044247 3474.1995398 3167.0930909 3726.6264093 4121.5731086 3686.245001 3821.3025127 
4220.5310102 3693.5968804 2001.4135155 2127.624172 2240.3154605 3128.4963045 3507.2174069 2656.8567655 4848.4090289 
3256.1133249 3527.1943611 7849.5024525 7722.8886536 2350.3435525 5437.0898466 4094.3847382 3186.2182066 4020.8122981 
4608.4033777 -1820.0663971 16947.124855 4112.1548289 1917.598641 2035.4268134 3213.6792024 3331.4305159 3758.7242034 
3399.3290682 2960.8530778 3023.9997476 3552.0814811 3553.824967 5887.7799145 4778.8177341 -717.75848287 8882.2736491 
15545.293326 6997.8645873 6094.7931676 6003.6337561 6724.0990147 5677.8822913 4264.5681893 2745.9551212 2777.9680066 
5725.8616195 7123.1615242 5755.8621623 5976.3612114 5989.6627846 3566.9639084 2057.9047275 2440.4243805 2529.0766989 
2048.5220147 2147.7617218 4185.780652 3851.8371796 2092.3080788 1955.2182355 2253.6299792 7712.6305931 7671.19409 
2620.2354972 2808.2757401 4271.0185025 4676.384762 4321.2293371 4571.6251757 4121.0162531 2544.1791973 2490.7265591 
3308.4877331 3847.3160301 5594.1022784 6038.9134123 2583.6729202 2411.3899397 5301.9532177 2400.5359777 2377.4783607 
2553.5055453 2521.7300099 2436.5766424 3433.7070218 4198.5492861 2413.0009528 2335.8112098 3611.9195416 2857.0935019 
2517.0704308 2660.8851012 2928.3606177 4560.180026 5516.5699596 6680.3050981 4415.0953322 4067.3636952 4415.9105356 
2745.6029459 2473.4654423 4106.0541159 2641.2935144 3943.051545 2330.6844958 2257.452619 4077.919401 5276.5410631 
5397.2534944 5794.4176062 4337.3302271 2378.2200259 2661.6210936 1128.1908676 2297.9574149 2301.1909175 3931.8941864 
4307.3934683 2364.8084451 5802.4081588 5932.9960675 6919.993728 2233.3272575 2650.1750819 2871.8381054 3084.2313998 
5119.2737141 3677.2502185 3516.5997255 3498.6486414 3700.7870352 2315.8011285 2373.9053582 2866.3571561 5105.4636245 
1974.6425242 1918.8150379 5029.7156562 5226.0670606 5179.1150068 4628.824107 5596.0420287 8736.8005161 306.62784579 
3866.7832934 4805.9012467 3228.1937189 2551.7946914 2563.6104282 2281.8413476 2473.9894259 2424.0046145 2480.1147343 
2695.3018167 2949.5239916 2616.5236449 5956.751012 5348.3440536 4336.9768229 4689.2460438 2448.1049785 3336.6766994 
3602.1897755 5607.2147002 5711.3124231 2797.286663 3062.0608462 5972.2283397 13588.949002 2733.5075597 1844.5545656 
2067.1257254 2338.7089283 2502.0817082 4374.3412168 2768.5595261 2451.1396324 2943.9068523 2809.1146113 7047.9670916 
7087.7786254 7873.6239242 2521.4445217 5690.5688123 5578.9635207 5445.8865298 5236.4585812 5320.9321408 5207.4425819 
2899.4664426 2278.9973069 5534.5510303 5084.7659712 4275.9768632 4689.1821504 3844.8412178 3057.4236736 4167.7518386 
4833.6261312 4942.1666835 5211.818074 4729.7532279 3049.5755735 2791.9113192 4978.3933093 5879.0240058 5515.8195708 
5446.7790185 6835.9690913 6500.2885931 5991.4392384 3826.0952412 3002.5825943 2845.1731222 2903.1620759 2895.34274 
2324.4233838 3824.6208681 4097.0857727 2196.5682031 2006.1719261 2221.6333618 4112.3752846 4124.7587276 3534.7505027 
3425.2957445 3872.968273 2444.3193856 2505.7845704 1627.2077151 2532.970441 2966.845986 6134.1179651 6295.9455494 
4747.6348795 2314.5458732 2605.0266114 2778.1391948 2441.2238341 6446.61909 6631.6984927 2262.2183693 2488.102661 
2232.2344606 2559.6032918 -4154.3478905 6150.0393829 3250.59468 3456.750842 5596.2571928 2515.8295985 1980.0204263 
7875.0070998 2291.9520566 2691.5497206 4988.7195801 5027.8998597 3585.3010515 4513.0174768 3668.3223519 3422.5993511 
2477.9148663 2333.8674891 3195.9372814 2613.2381358 2865.4739761 2905.8836957 2984.7746573 35333.211788 1829.3643152 
4763.3829901 2386.5482016 2676.1709969 2580.6653411 2432.6574473 5305.904693 3769.8233392 6464.3426052 3677.5031315 
3503.9569456 4569.8374253 5546.5513646 3833.4955621 1826.9744676 2199.3738012 3235.7971335 3905.8134968 4091.5565146 
3563.6712819 6447.972779 4873.6544546 2457.1200352 2303.8958802 5854.8746662 4959.224916 6520.6158986 5155.5880138 
5274.5466698 5042.9326301 6010.9187125 5968.3259585 2654.5620215 2566.8664593 2318.3796334 2686.1642334 2368.4361126 
2296.4394663 2646.4274077 4117.7853146 2742.5255939 2607.8665043 4722.1775594 4962.9338861 5193.9958999 5174.5740311 
5007.274757 3127.407746 5041.5387953 9500.7958785 6228.3475737 6249.8000478 2796.8397319 -2367.8851714 -3772.6865468 
-390.76450115 -877.09267943 -2140.6964271 -3384.2037835 -3407.9507257 -830.51480817 1511.8252557 542.11529362 -2510.2365584 
-4386.6111251 -2462.5867578 -2478.1143405 -5368.491599 -4287.6049828 510.75446044 -4914.8992913 1132.1313288 -2859.4986254 
-1603.6201987 -2941.4216076 -2853.120358 1098.8594709 -5876.3133778 -4145.1527224 -3363.3343079 -3701.3592558 -1608.4040095 
-5162.373216 2235.8414986 -2681.1993785 -5576.3974801 -4230.0290207 -4434.0777011 -3026.2529365 -5904.1359401 -1424.2383789 
-324.23783661 -2190.1247752 1958.7957387 1041.3250728 -2274.7165549 -3099.7045905 -3186.7555602 -660.49317112 -4485.9187246 
-4922.1799398 -5730.5316629 -6011.3363441 974.33159359 -1217.8524209 1458.6764563 -4946.4696376 -260.89670351 -1103.0225024 
-4391.397398 -122.46251773 -371.68311662 -394.20534259 -540.53294725 -1615.4978708 1149.0218312 -5065.2108312 -2904.5396333 
1082.9065613 -4753.2125223 -2933.7547994 -1673.3177475 -890.61678557 -2093.6571892 -3196.3312181 -4762.0249429 -2048.926573 
-3022.4753808 -5734.7675466 -3160.0865758 -3907.6993827 -5706.6827149 -2888.6127364 -3586.9873368 -4151.7217223 -2816.7980962 
-2840.8232292 3230.1655706 -2541.5386125 -3158.7352602 627.52184398 -6950.8316024 -5003.1450378 -5316.5143314 -3637.2042562 
-93.772723486 -84.388655364 -2021.331673 -2409.0435722 -4969.223545 -175.24365002 -1671.9010753 -1645.2946497 -7081.3886219 
-2618.9062409 -3581.871925 -2888.7542333 -3653.2643716 -1940.9611087 -4008.3645929 -1731.560624 387.88497005 -1364.6409268 
1027.2735893 -3597.5848905 -1999.1111346 238.74589055 7277.7749397 -3710.5621099 30.206173723 -2912.5905486 -1091.7718133 
-2909.0346114 -2881.4575033 2987.6465117 -2578.8735552 -4689.4187203 -5951.12268 -2947.9480925 -2251.3763317 -4576.4959439 
1248.8292844 -1904.1132243 -7140.2359786 -2449.4299876 -3596.4534657 -945.24643323 2800.2824621 -1112.8019303 -1385.4840673 
120.82001455 -4736.5090323 -4282.1455438 -4586.2027242 -3137.1491104 -3179.3654193 -3205.8925421 -6334.6513022 2093.4148398 
-3706.9344548 -2286.6427835 508.23688905 15914.05693 -1772.4434495 1611.8771886 -3754.472699 -2669.7020559 -4281.8192496 
-3709.5684153 3899.7445535 -3362.8474234 -4751.6835814 -4226.8268265 346.27987731 -5626.7064261 -588.39568415 -2324.0685929 
-4982.4542673 -872.32770383 -5362.2679615 1390.7443638 -554.41829032 2590.4238914 1298.2011661 -4364.8238236 -1225.4175178 
-2477.3444645 -798.30558642 -5552.9848309 -6732.4564299 -3942.8770552 -5074.0528943 399.74298061 -228.45271146 675.53698097 
5630.144391 -2762.1984897 -2956.8452533 -7627.5161363 -2446.4873695 1826.9560825 -1520.8795721 -4106.7150046 -2375.5643765 
-6147.0248758 -2903.005658 834.14007645 -5693.9714377 -4188.2893544 -1602.4427247 1127.3206726 -1352.7295862 -3347.7254213 
-6997.5795911 -3413.6318096 -4095.1444588 -2395.19704 1082.8273456 -5582.7780901 -5089.628656 5519.9061148 -2363.5179144 
-2432.3900506 586.54891278 550.05246258 325.58567385 -3803.562899 -3924.3919104 -2423.5758667 -1677.8504578 2858.1505485 
-3096.7678303 -3493.9668437 -2920.1922598 -2024.6408534 433.60315129 -3323.0175868 436.53570745 -2768.0922267 -6112.39558 
-2125.6620177 1832.547092 -4821.2677499 -3256.7306277 -2846.5995475 -703.17823552 -3584.4311039 702.18414044 -2338.4949004 
-1132.4619838 -4062.1539433 -4686.6217591 -5140.1266469 -5176.900391 -4918.369914 -4592.8800678 -1146.3745469 -1511.2082527 
-1278.8188249 -908.05516951 -1301.1649549 -1162.6043227 -1139.5469336 -3574.6292377 -1197.8778799 -420.04804997 -3813.7793077 
-2996.8477732 -1628.3430421 -1481.3449445 -1278.1405225 -6312.1411973 -6271.3633343 -6738.4359603 -5982.0661685 -6165.6078114 
-5878.9574703 -2978.8712911 -3621.2449555 -3623.9768338 -3613.9018074 -4499.207566 -3562.2021144 -3353.7356983 -3015.992286 
-3156.435044 -3439.1411584 -3130.3872332 -3289.3174946 -385.64096745 -2171.3526436 -995.43396238 -3183.7117826 -3271.8752373 
-6188.1257532 -5889.2850415 -3599.8062394 -4195.509748 -3145.0598421 -2920.196514 -3124.9031734 -2920.9655483 -2947.0810818 
-3181.953139 -3530.2479138 -3251.8307596 196.58634579 277.46957726 -270.30274386 -563.50732001 -440.8072949 59.023842318 
-1875.739307 -2040.9118011 -224.65999938 -1876.6939458 -1809.9926008 -2606.6451409 -5488.3343544 -5340.73432 -4947.683168 
-4652.7264414 -4465.3414432 -4982.9853266 -4779.8206055 -4431.4213107 -3992.224747 -1173.3203693 -1519.8896246 -1621.0329839 
-1694.7694068 -1390.5833818 -3343.2730654 -3113.041435 -3051.5729975 -3552.4702964 -3340.7334126 -3635.5570385 -2395.2214653 
-2430.792406 -2051.7192349 -2156.5987402 -2153.5443179 -2536.3342182 -5701.1447874 -4891.763671 -5740.7941033 -594.78141402 
-585.0487571 -822.00896705 -6243.4097475 -6096.1563528 -6286.8812902 -3008.6050639 -207.40287878 15281.666785 -363.57159359 
-4244.2558363 -1022.6170957 -2645.125379 -2803.1590447 -3059.4804012 -2646.7439305 -2860.9697875 -2430.179797 -2289.6486777 
-2646.20282 -2201.5438263 -1241.1472798 -882.29400619 -1139.5916259 -1486.2988546 -2936.9697634 8738.2051864 18353.485127 
7446.0112902 -8548.4314278 -4188.4553476 -4287.8021944 -4793.3805725 -4508.6012592 -4435.2581467 -3991.4973528 445.15547018 
74.623719559 -121.97373371 -4045.3518336 -3680.8284271 -3860.7722231 -595.39665998 -266.12481313 -33.799995674 -582.7298587 
-241.5753933 -827.52818081 -457.36168853 129.72855107 -764.03732422 -4293.5966483 -4281.1234276 -4225.6925599 -3948.4516283 
-3954.0169853 -3963.6448261 -3501.9500718 -3796.3235381 -3840.2162686 -3647.9475694 -3362.8850934 -3425.5651569 -3552.2081076 
-50.961123669 -609.1094988 -586.41436983 -151.45970677 503.07643049 -5255.5762227 -1819.9953037 -1794.2744729 -1931.5007935 
-234.68822625 -455.4398281 -159.67364027 -3668.1903622 -3138.4326428 -3234.3543431 -3192.5710322 -991.20006187 -698.8675302 
-757.94114112 -432.02108432 -183.52623518 100.49307983 -4263.4463079 -5514.3278946 -5131.6691329 -4982.1448654 -5056.0805082 
-4391.2601443 -2250.5382275 -2474.6935202 -2748.1038861 -2366.4228956 -2609.6791849 -2273.0492715 -750.20635324 -3033.9979677 
-2873.4175702 -2701.2952709 -4431.1743266 -3414.6420922 -3261.2877227 -3051.8412592 -3620.5925425 -3673.4636287 -3075.0741103 
-2860.0978604 -2744.1516713 -2621.9707863 -339.63047332 444.28589185 -441.3168754 -5101.8052651 -5384.9554131 -5877.7602518 
-5436.2883995 2334.1143761 2984.7595527 2009.0716229 1260.8409721 2355.798655 2568.0294806 -236.58011863 -2585.8789131 
-2514.511311 -2420.5423821 -2702.1207587 -2589.8074494 -2718.9503157 -4651.2575401 -5182.9211949 1821.3118684 2834.2404485 
2158.4660435 233.1971895 -2812.2319307 -3000.8029516 -2894.8669853 -2459.1261817 -394.18046263 -786.92572539 -4536.0495079 
-4132.5489349 -2730.6964229 -2712.4275351 -2590.553512 -2817.6898252 -3051.8404633 190.50325047 -273.09135041 118.28828384 
176.09493916 -215.69734352 -587.83015263 -2501.0982457 -2247.5403963 -2737.4477148 -5022.159452 -5065.1507364 -5379.4608403 
-5086.4312094 -4810.2994914 -4383.0889746 -2318.6479768 -2645.1384273 676.8135072 -1843.4274532 -1896.0539016 -2298.8844739 
-3860.1459097 -3981.2385493 -2128.5898581 2327.1557858 -779.64539327 -5130.7780303 -2936.4719294 -3011.677271 -2798.2199633 
-3018.1760988 -3275.3510613 -6189.8505359 -5570.2649322 -2374.214017 -2515.4279514 -2631.1276897 -2738.180161 -2278.8506482 
-2308.6676961 -2418.1011733 -2440.0509772 -1902.9619845 -1284.7968437 -1024.1356227 -1324.5428221 -1484.0715302 -1252.0701977 
-1399.2277269 -1010.9042289 -1143.2367813 1333.5663113 1277.6890159 1303.9442512 1165.1376807 1099.4061914 -2733.9039763 
-2726.4580349 -2725.9743054 -2785.5025549 -2785.2923797 -3250.0947143 -2940.4368339 -3319.8600442 -2810.3239273 -2807.1766206 
-2772.797831 -2895.1423266 -6963.9877791 -5876.4102893 -6926.9895951 -7353.3994796 -5804.6178754 2362.0435477 -4858.949949 
11918.178266 781.5328925 1064.0955187 1143.2817981 1098.1556463 1354.5755568 996.65965316 -2828.7887653 -2076.8475848 
-2938.7737135 -6051.240063 -4613.3509726 -7439.3049553 -3783.2205762 -6334.136893 -7401.1682234 -6510.9685906 -5308.6840202 
-7918.4360928 -1906.1260573 -6221.9016531 -5856.9077789 -5838.2828864 -5979.1065595 1373.0251286 2631.7756016 1377.8644539 
-2887.6804658 -3202.8171822 -5158.8026693 -5480.9247276 -4506.9312161 13544.545566 404.13873119 -9579.2639159 21.160701565 
383.60953246 2384.9347184 1519.2220631 1057.4143486 1377.0252472 -4741.8693099 -6399.186673 -3115.5956957 -3706.5917068 
184.0580733 -3587.3938404 1460.3368111 1449.7590819 1457.2476405 1461.3971184 -2932.341277 -6827.1057507 -6208.4047663 
-5929.2054961 -3279.2375143 -3087.6035563 -4547.4896802 -4186.2869568 -4074.8611662 -3186.4316924 -5870.3203952 -4356.2491358 
-5194.8785814 -6239.0429785 -6286.3227376 -1171.7699258 -1414.7519192 -1455.033231 -1670.5417363 -1549.435977 -1475.5317164 
-1341.3764461 -1323.8717853 -1572.3806851 -1641.3208489 -2867.693468 -3082.7613691 -2898.5425515 -2864.8166909 -2960.4400003 
-2994.2355975 -793.76876875 -898.53449 -468.38963161 -389.61623969 -462.32000465 -817.6366182 -8209.9927634 -6263.1265542 
-6290.0514558 -6139.1358268 1545.8640976 1488.2569482 -2826.1538589 -4135.8158106 -4106.3686604 -3712.8514879 -2676.325708 
-2651.3257799 -2837.1703061 -155.57617605 -468.44451324 -672.95730413 -1049.2857756 -675.04167129 -3539.5178328 -3314.9854201 
-3262.1975794 -3495.3557728 -3236.930716 -3633.0985739 -1427.3618287 -5171.277831 -12568.868198 -3805.9333347 -5920.2038727 
-5860.8472499 -6609.0866072 -809.96202381 -638.66024743 -1161.8051452 -1320.3423761 -1108.0004971 -1420.0115662 -3122.4601362 
-3834.5998578 -4097.8886947 -1005.9969508 -1442.5857046 -2680.7120841 59006.171891 -79733.555629 -52545.962335 -28120.778889 
-1995.8356166 -4769.0845144 -5186.1447974 -4665.0962095 -4832.354248 -4583.820352 -2431.2791334 -2829.9779481 -2924.4784273 
-17.20545515 482.52254559 -30.893000508 13414.530723 -24065.775637 -4891.3298459 -3333.0850507 -1275.4221954 -1522.4335765 
-1871.0654396 -1519.9225172 -2164.1008682 -1080.632156 -3244.932516 -3906.5000536 -3150.4248089 -3501.2177538 -2890.5830771 
-2168.0497535 -2306.4469151 -2207.8724652 -2191.8004638 -5760.9205868 -6084.2201328 -5597.0532346 -4317.3822391 -4824.3735169 
-4332.7378942 -4511.8047145 -4967.4604296 -4916.987349 -2845.9562954 1411.8515074 1281.9667341 1605.9965165 1444.8496226 
1336.7535284 1076.5194382 -4909.8776246 -4620.4337438 -5949.2694554 -7703.300506 -5611.7982982 -6303.6229288 -7846.0067652 
-5758.3511788 -6157.3749759 -1199.4601921 -4674.693546 -5135.793901 -5416.1275908 -5116.7661596 -4746.1456543 -3040.0411671 
-3370.0332686 -6570.2144114 -4355.0688112 -1655.0650822 -3865.0779955 -3925.1396995 -5458.1975917 -5233.0532111 -5709.6730989 
-6382.0583199 -5798.9887281 -4399.2710274 -572.64189781 -754.72723938 -686.37556953 -805.29797188 -875.61836905 -3350.5820738 
-6121.0485784 -6190.9008919 -2694.4516671 -2949.5399285 -1067.7952374 -1124.1933288 -1294.5146936 -1209.9549049 -1562.3708895 
-1099.9521212 -1963.1198686 -5036.0012978 -4150.0141269 -5108.327297 -4870.6332575 -4944.569706 -967.12204774 -696.25669924 
6790.4048012 -47892.018673 -81556.782882 -6249.6639633 3052.1012079 -5349.8631913 -5493.824079 -5186.1087234 77.913808285 
-2188.3345724 -3125.0320932 -3063.3015694 -3380.5572526 -3321.7759257 -1175.8932819 -1448.923572 -10712.425214 -9187.6147558 
-6466.9558612 -8187.9535794 -6984.1353843 -3934.7738074 -6537.733487 -5034.0940311 -6045.9804565 -5238.5818679 -5185.5197156 
-6418.422203 -6474.5170036 -5840.7927485 -6118.3089177 -2115.5131936 -2003.2170177 -2054.977305 -2153.0727406 -2116.9793754 
-11398.770105 -9405.6032157 -9666.7404354 -6995.8352786 -6959.7620579 -1679.9135568 -1571.8496674 -6971.2884893 -7379.7155849 
-6119.8375535 -7556.452025 -6703.7561874 -6440.9776729 -278.212285 446.43388494 1095.9142427 -2814.4249482 -2652.714491 
-2793.1194538 -2530.2168819 -5246.3540437 -6337.3294543 -5271.3354959 -682.76786652 -1123.9832191 -916.30888642 -1038.5674479 
1266.166201 1188.5370414 1505.6840697 1099.580152 995.70068268 813.22764138 -4463.8338144 -2790.7691151 -2890.6244763 
-2765.1817107 -3264.0538649 -3192.2842432 10156.311165 4628.2685404 3640.265451 2947.7796803 4078.6122755 -517.60642094 
-552.89018575 -917.39447249 -971.56529994 -767.93350853 -4477.2214071 -5220.5164373 -4770.69372 -2840.5900837 -5817.3855351 
-4540.0248027 -4183.6470958 -4499.1006661 -4112.2858615 -4623.0623743 1341.9990467 1214.8835462 1152.570094 1013.717368 
1110.3407874 -2607.1090763 -1252.0577583 -1364.7699099 -1195.9389569 -4831.6150245 -4149.6666477 -5801.604628 -6521.5321371 
-6574.130431 -4198.857626 -5211.6023124 -5458.9369461 -4942.4329834 -5377.3089203 -4794.0093786 1968.3505515 2416.8809486 
2974.3526122 -3477.49197 -3406.068511 -2962.8429647 -2732.1665144 -2867.1203816 -2694.2155372 -3036.4568871 -3171.3686965 
-3227.2886114 2498.7028152 70.748157013 -725.79588419 -1410.4186846 -1668.1846976 -4680.8493934 -761.3906986 -30998.777388 
-3280.1053628 -3628.3782719 -4229.0269349 588.55953163 -3693.3810954 -2990.1270646 -2867.9223579 -2969.6979744 -1037.3761537 
-4559.0990815 -4515.2573136 -3323.3460943 -3545.9322983 -7717.0794293 -6159.8329186 -4748.6447175 -3178.212323 -3050.3608962 
-3263.5311456 -3458.7384285 -2918.8826924 -3648.4930432 -3856.8222244 -3387.2060685 -3196.8582567 -3020.3489575 -3154.049044 
-3108.4991022 2200.1076079 -2538.7925328 -2619.9488582 -2366.7359917 -2295.7345926 -2414.0107329 109.87366616 -102.44461012 
-177.22237346 109.35289803 183.95837633 -2948.6909798 -2396.6701933 -4694.4776829 -5329.655018 -4509.5683814 1618.6763979 
1673.5944178 1744.9990621 -3731.8495896 -2928.1834395 -3464.1277838 -2811.987184 -3090.7138528 -897.8334111 -1855.2471893 
-1415.9549842 -102.52879896 -205.7592742 -288.68954925 -337.11824582 -472.20610837 -305.46465133 -6171.0314053 -5901.2576379 
-2048.0964345 -2127.9486265 -1076.4070251 -853.74589513 -1226.7315981 -3317.6323223 -2992.1795921 -570.51759465 -1498.8168012 
1519.7300371 1867.3993232 1766.4122489 1434.2627669 1500.8211306 1383.9693338 1385.8204259 659.65355353 -537.31929665 
-5285.3352759 -5345.6465669 -4672.7702329 -2906.0177528 -2503.3147666 -2509.8086402 -1967.0280036 -2456.2674391 1545.5155516 
1437.0814184 -4482.9175323 -4501.3372369 754.64989367 -534.87093201 1780.9526417 2307.333143 -1444.6610164 -1638.1013404 
-1725.6810411 -2332.990239 -1815.6170163 -2084.3619941 -2515.2601312 -2063.4177071 -2286.4220701 -5941.1037362 -5904.3321838 
-5912.2013345 -4934.2007183 -5285.0515317 -5368.3623545 -4985.7740709 -5081.7170027 -4546.7502025 -3964.1485317 -3126.4065419 
-4471.1446679 -4169.2766507 -2839.763884 -3335.9697333 -5999.9785013 -6199.7680197 -5121.2385352 -15847.730434 -7113.4135477 
-5915.8502066 -5584.1411867 -5651.5963906 -6134.4305989 -7814.4110129 -5490.1721327 -6977.0717029 -9155.4613472 -7138.3478142 
-2267.7638694 -3752.7492179 -3745.9944378 -3987.6372016 1373.7634869 1377.6428996 -1697.2202049 -1881.3135576 -2580.6961946 
-2486.9938085 -2502.0116075 -2633.1496077 -2629.7025557 1471.681462 1301.5797975 -3986.9177307 -3367.4108601 -3002.3769431 
-3165.934469 -3563.9392357 -3289.5112906 -3476.2357702 -3024.2884993 -7057.4855876 -19418.507628 -5044.5585168 -5521.8892479 
-6580.3788801 -832.25390247 -1112.5368576 -1424.4592151 -4763.2903816 -5450.4127921 -3108.2512994 -3229.1366054 -3594.106115 
-5318.2067058 -4897.2843514 -4706.0412251 -4535.4013112 -4961.3824809 -4407.6274459 -3978.6218785 -4272.5958837 -4240.2235282 
-9176.3309125 -8088.0936523 -3528.8244729 -3146.9877519 -2758.2771073 -1488.962749 -1749.9587828 -2073.7065834 -2758.3636154 
-2788.2487088 -2871.1409469 -2655.178664 -2656.6856406 -45.755598104 116.38342624 -278.30617284 175.1609423 -2108.3119767 
-1870.4298144 -1877.5269745 -1603.4951482 -140.31732542 -278.91871017 -472.8196403 -374.41904736 -332.73693508 584.89612944 
-3929.5634508 -3981.3755127 -3554.7972702 -618.50780857 -871.84185715 -1098.5884292 -6005.3099641 3837.7574056 -6931.6680592 
-6945.189296 -4207.7499877 -7465.165318 1484.4712399 1297.3200237 -4554.0259647 -4186.7134797 -3937.8524928 -3910.9744304 
-1559.371834 1184.5736147 1060.990293 -5303.8260854 -5588.6040283 -5698.6380802 -5147.0531028 -5696.5612885 -3807.4781218 
-6952.8300322 -8175.0627554 -2644.6650346 -4760.674585 -4342.1696199 -4959.59469 -4204.5549654 -3809.165016 -4080.6484932 
-3644.491197 -3719.1240846 -5209.7604358 -4765.3084073 -4531.6080054 -2667.3625901 -3698.8474039 -3033.7257193 -2686.2312651 
-3066.6022082 -92.25575536 54.510582504 -3821.0759577 -3318.2124908 -5956.7679484 -4527.994011 -13958.160169 -6942.4149264 
8446.067995 -20350.829284 -10775.619232 -1654.0813926 -5490.601205 -46521.221372 -7877.0483137 -6202.0820586 -2602.9155602 
-3138.2168608 1616.8365688 -1673.2977525 -1815.2221482 -6095.8803252 -6246.7245346 -4336.1954689 -9458.9942165 -6621.4813691 
-3587.6283861 -7087.0180537 -6038.0594901 -3613.4190485 -3970.4231029 -4932.8550896 -5034.2596929 -22.510026994 -3062.6196271 
-2888.2102914 -2880.2578407 -3170.2896624 -2926.9525044 -3004.6991662 -4933.3831302 -4434.2902501 -4459.2688777 -480.38749085 
-880.43081371 -4470.8550452 -4878.7543656 -4549.8662123 1485.2026333 1470.8996227 -1239.9432137 -1015.5946222 -6541.919098 
-6355.6466352 -92.999625004 -6739.9596888 -1656.4371459 -4143.478555 -4238.057796 -5135.7265115 -1776.2897861 -2072.3847383 
-1893.2651706 -2658.0020505 133.38180184 -111.54160719 -361.19122962 -5523.3070659 -4034.9354957 -2687.6243669 -5508.3433867 
-4286.3495655 -3901.0017239 -515.20593177 -271.70355937 -571.16757581 -2936.404821 -265.45928176 -469.12875522 -486.04971224 
-688.42934995 -5894.854524 -6773.2570737 -6350.034874 -6566.6450903 -1180.0474215 -2471.3424245 -2649.7249699 2340.736769 
1376.4195331 1870.1737123 2524.8084402 -6727.1697209 -5750.5402578 -9425.0831283 -6479.0086017 -6921.1457242 -8645.7859466 
-6313.6772022 1583.39052 -325.51293782 -4192.4290944 -4262.9645661 -5149.4684809 -534.08053949 -7431.7857676 1634.2754315 
-7369.4261708 -10434.732633 -7519.8897565 6357.3604361 3512.1014402 35.320711868 25830.334027 -5951.2142543 -710.32849596 
-1140.6932647 -2185.6935156 -1800.4281533 -1935.935122 -2515.4531587 -2276.4696904 1773.5495692 1206.457214 1442.7341751 
-9321.5731258 -673.87547109 -5877.1771794 -1886.2796565 -2014.9951082 -3365.3353592 -3469.8072052 -3706.1137745 -3521.2609233 
-3770.5761362 -3241.9670986 -7134.8526798 -6866.6815999 -5473.4270636 -5245.6304143 -4900.5997206 1555.3529978 1245.5458522 
-4119.7083786 1535.2523532 1257.683904 -2498.7829034 -2305.6889966 -2543.1693438 -2614.1564909 -2565.7662747 -2671.0073428 
-2318.3173109 -2411.7413498 364.22913784 -4265.9026681 -6476.594982 -4647.8061893 -6085.7041376 -6343.9615007 -5681.0013711 
-5240.3603557 -5803.3402441 -3523.8617522 27795.884684 -2263.9549777 -2977.2888723 -7126.8545239 -6564.1272558 1684.2967602 
1627.8674717 1309.224485 21503.291268 -50135.145292 3577.9176218 -4194.9429726 -4129.9104461 -4439.4342306 -2358.8373808 
-1885.591839 -1969.7344132 -5158.7411943 4009.97323 3079.6795593 2273.4575926 4181.3815346 3318.3183485 1961.1956222 
-3724.06445 -3511.1127042 -3026.4312504 -3308.9290557 -3160.8985734 -3694.2462622 -2373.4849617 -2569.9698474 -401.6369521 
-6065.083437 -5271.7136903 -1936.308389 -2189.6032081 -2259.2808832 -2325.290144 -2081.6246509 -3861.4240471 -4254.2465981 
-3922.2450532 -8572.1464954 -6596.5052703 -6963.5890081 -5965.5049316 -5849.055909 -3360.8618448 -3680.823502 -3387.0797039 
-3780.7122372 -3891.4181853 -2307.7629813 -2236.0208702 -1360.0149353 -1493.9357581 -4522.5071382 -4596.5134074 -3990.876981 
-5205.2319945 -5189.280495 2843.5793368 2127.3352623 2294.952357 -5256.0105361 -3941.1173048 -3036.4066038 197.02853836 
-1611.1843361 -1686.8325873 -6266.9834923 -3900.6337159 -3822.6125745 -891.29082451 -682.82605024 -613.11891826 -1062.4575042 
-1104.4376889 -497.13408596 -897.4684134 -929.93380858 -604.89689644 -3476.1283332 -3337.414148 -3565.1109306 -1530.9225238 
-1232.7149034 -1643.5012312 -2075.6935162 -2509.3288315 -23254.868886 34917.055532 1396.8395268 1371.9174403 -5298.2898548 
-5727.0012748 -2758.1427835 -2817.4567725 -5814.0023227 61000.83524 -16596.36199 -2647.3593888 -2614.1029901 -2743.9080696 
-2955.3451808 -2853.201289 -5134.7057216 -6365.8814155 -5428.9095046 -6371.5669896 -2774.9681083 -7823.6873077 -7179.2344176 
3548.9403387 -6534.9330431 -5854.3123139 -150.22538431 -310.92830011 -457.97845964 3630.1580529 2308.0153322 -5142.4409075 
-4279.4755937 -5313.7024852 -4357.869977 -4460.5629358 -962.21802674 -1025.2260007 -1375.4941215 -2927.9604081 -2965.9257474 
-2839.5129997 -2835.7048965 1866.5817498 -2456.6578827 -2024.3280303 -2239.5595848 -1821.918249 -2173.9100788 -5136.9615675 
-6878.3929177 -2905.4975582 -2962.5756793 -4330.9029613 -4137.2675442 15915.596888 -33970.95234 -9311.9285152 251.96819843 
311.81098256 409.29867784 -3509.1375394 -162.24538731 -749.65602175 1064.3827027 971.85258459 -1247.701922 -1443.6894478 
-5124.4238726 1461.2800408 1264.964832 -2515.0943245 -2546.4695994 -2763.2771331 538.78150697 28.076949661 536.90277599 
184.26960786 324.08196782 -4113.6928573 -4113.2890215 -4380.7916631 -4023.2971541 -3850.6518699 -32524.362392 -1432.6215642 
-1695.7305446 -1784.3655633 -1703.6813403 -2385.3022459 -2689.7830185 -2718.5128516 -2956.754513 -2457.4769368 -2508.0146369 
-2251.9223655 -2357.8915924 -2360.8818773 -8022.0197128 -10059.573446 -7303.8302367 -2491.3695805 -2703.3495047 -2878.3112458 
-2981.1363804 -1614.0208368 -1967.2352449 -2130.142926 -4119.2660915 -3724.0775473 -1906.4253374 -9854.8102977 -9026.8572436 
-3169.9699108 -2750.8986988 -4308.718142 -3700.0512898 -4906.6829107 -1895.0642214 -2048.5130952 -1663.9336234 -1647.5735293 
-3043.1143659 -3017.3569621 -3125.5632176 -3279.9019261 -3155.2006827 32.1456767 -3979.9369403 -3634.5025915 -1769.2038494 
-2032.5645856 -8606.7089081 -3446.0183994 -146.0895066 -2546.4373076 -2502.6686033 -2596.2680593 -2646.6885729 -2513.427099 
521.53008254 148.40655583 551.99663239 -1048.6245108 556.8783975 -6357.1999536 -1792.4207059 -1746.6055546 -1508.3747018 
-5371.4573559 -5181.6368801 1162.5029815 914.3234297 -2647.3955893 -2997.6043031 -3330.9537521 -3773.2938303 -3696.9461803 
-3887.3738619 -1939.9703162 -4559.9543694 -4541.6949975 -4619.8399606 -3862.1685848 -4130.8138267 -5952.8524233 -6557.9785624 
-3130.9669205 -2667.6084388 -3596.0584258 -1405.7859404 -1901.910249 -3601.6618527 -2408.2365414 5389.215965 -7860.1472969 
112039.32991 18166.492844 -9800.8713585 -808.20300344 -716.51448584 -413.04180807 -63.504864923 -266.04456945 1503.2179451 
1378.7034084 -6627.260381 -1227.8382242 982.84292134 22156.036038 -391.46640391 380.04697521 395.75359483 290.45072141 
-3800.3603198 -4310.6590765 -4203.5095192 -5597.3713804 -5059.3306437 -2239.3070854 -5705.3291744 -5226.9079164 -5462.3532117 
-5798.5401662 -2795.3989056 257.32834195 240.86220146 -156.77071057 -607.34589112 -1759.7509749 830.24798899 -3178.6202041 
-2351.2591116 725.65154259 379.51102467 1109.5689352 -2753.4553967 -2886.3715876 -2921.4288629 -2855.231825 -2906.0441566 
-2855.7160234 -6387.801652 -5634.2889165 -2757.2750728 -1023.9595925 -1054.7890503 -15127.311413 -4452.6343105 1256.8712175 
-754.2395707 -674.35643346 -2419.2327835 -2574.4450171 -2819.4687195 -2785.8950363 -6080.5445386 -1930.9538188 -2471.3367909 
-2317.1776222 -2397.9157611 -1850.5045553 -6343.2245081 -4264.0460115 -3834.9274497 -4466.0681718 -3348.0067688 -3438.7823798 
-3158.7910972 -3166.1517025 -3026.7879 -3225.7528795 -3286.761216 -3164.3126197 -3078.3786665 -3108.2078631 -3750.6847178 
-3104.4727367 -3053.9970833 -285.12875883 -6587.2425199 -6799.2623169 -8703.5000358 -9545.4194805 -2733.0266669 -2459.3772197 
43.875896706 1578.7101739 -3345.6791383 -3285.0734572 -429.06002258 -4539.3495077 -3907.6609112 -6164.5792613 -5632.7019587 
1514.4359568 -3770.4681802 -3422.4305231 -3350.2003862 -3696.3015322 -3702.762077 -1658.2446864 -3442.3923701 3521.2547921 
-934.95322459 -1357.5600923 -1264.44845 -1624.2896944 -2168.4596219 -1632.5305701 -4081.4721995 -4496.1458147 -3720.4420374 
-3417.2137723 -3915.7231261 -5140.7904658 -5211.5291811 -4853.8040663 -2865.8720125 -2777.4429391 -2852.4785551 -8115.7423042 
-3187.8970401 4037.1767864 -1500.8455573 -6021.5651134 -5726.8820073 -5810.9157884 432.62710138 48.656457961 455.31154672 
-5710.9010962 2526.106634 1848.4776824 2062.0800555 3329.139375 2434.0100471 3006.1768007 -3664.1333726 -3725.9964806 
-1308.6789586 -5773.2744636 -6652.4625014 -2479.7635393 -1357.0357277 -6484.5096456 -5988.7567966 -2858.3725187 -2874.8716805 
-2993.1268341 563.82832865 -5964.1107556 -5169.4237026 -5761.2297066 -5564.5631798 -5646.8636018 -5343.5626258 -3602.2870218 
-1984.0281503 -2832.5069378 -3643.150124 -3273.7717984 -3244.6550282 -3839.3860412 -3478.5027507 -3912.7364708 -1514.3046665 
-1634.933328 -4237.2793641 -3868.6238663 -3871.762341 -3435.3796285 -6058.8993418 -4500.7625063 -2811.1703377 -152.19869316 
-41.1091937 186.07484604 234.02299716 332.81759273 22.909600267 -4003.9508672 -4555.9151673 -4959.1134924 -4445.9703946 
-4124.7399687 -4215.671296 -4289.4632547 329.46582648 123.36662306 64.461410081 390.33820106 -3494.1782311 -3517.9958796 
-2414.3982626 -2519.7693824 -2556.0794746 -2526.953775 -2474.2414423 -1296.7119129 -812.00873574 -1989.4862897 -2338.4275125 
-2918.2422625 -3074.9742444 -2991.8290833 -3134.3853129 -3100.0022619 374.53835986 440.19239449 -2771.2842365 -2826.215722 
-2755.4906961 -2619.2980074 -2716.2928142 -2853.3302287 -2681.2794468 -2663.060734 -2493.2238764 -4562.6580692 -4355.6063501 
-4522.9857912 -4271.3042236 -4660.5526679 -5873.2574588 14052.464318 113427.26467 -4024.1246661 -4665.6828078 -4891.3331591 
-698.68183821 -2874.5589765 -2883.5786801 -2415.0118399 -2787.9346739 -3099.719291 -2664.3283398 -2614.1224854 -3471.3701968 
-3163.5628091 -3170.8954085 -2984.1310995 -2902.2574478 -2950.0909395 -3484.9422673 3842.1387299 -2342.9869915 -2622.3694573 
-2561.6030323 -2896.3792609 -4360.9453404 -7728.761756 -5487.2037592 -953.26092985 -721.70918721 -532.7568883 -5254.1317371 
-5838.3874561 -7305.6653561 -6000.8263365 -1485.2136288 -1218.5803153 -5099.7321417 -3690.445694 -3882.8924 -2555.8204348 
-4095.3677731 -3608.4927145 -3173.5414202 -1067.8246274 -1560.3083608 -1588.8626785 -84.116149877 -305.58464686 -4344.4360507 
-5191.2426579 -3753.9901259 -3819.4001586 -7231.4531681 -4689.5200464 -2999.422023 858.7649584 659.37325198 -7646.4132309 
-10506.498445 -9749.5453593 -8198.091376 -6375.2976503 -5779.02266 -6688.2045209 -7187.0716063 -2479.6546308 -2274.9191554 
-7101.4670571 -6429.495581 -4965.8851073 -3112.0962377 -3697.4388868 -5431.9218057 -5362.0737996 -5423.1982277 -1085.9203548 
-5162.6666663 -10254.108208 -6056.9785148 -1749.9927485 70899.859239 -2039.7745389 -1806.1722235 -2684.9030215 -3709.6703435 
-7572.9395388 -6872.8320311 -181.49224589 93.754286512 55.147011198 -7799.2934462 -7343.8872497 -5828.7071824 -7129.3514416 
-6640.3662412 -8338.6079687 -4397.6082178 -4603.1013451 -2966.4432279 -2842.7212286 1065.1857386 3794.5399241 -4599.4439572 
-2911.4632132 -2870.8962155 -2833.5032628 -2590.1240219 -2472.8565629 -3102.0325284 -2949.8356145 -2055.2891066 -1942.6563563 
-2183.669796 6960.6681102 5950.5948419 14881.543487 -4864.004076 969.43303839 998.96987806 564.57505277 638.71839792 
659.63381232 -3743.3116018 1077.8012304 2539.5576914 14125.028077 16254.041594 -1250.334589 1581.3635747 1226.3435891 
11603.582603 12054.458868 3884.270417 -2648.0148195 -2843.1774029 -6605.6432318 -6354.7564361 -7210.1875083 -2923.5734365 
1601.3315335 1544.1362159 -4967.5886354 -5162.8767845 -4606.24549 -2886.271065 -2996.8484913 -5435.8580715 -2877.8867344 
-2828.940099 -3218.7325132 -82.998900255 838.22452656 546.31837592 78.415419246 773.9811146 -1224.8672712 4115.9720259 
44.114884264 -3191.7632242 -5625.7922572 -2354.8292116 -5914.952131 -7439.7702119 -7401.7628143 -6536.7688799 -4042.5825495 
-3564.4259341 -2904.7122068 -5965.7282143 -1584.9382748 -14628.599125 -4810.1247993 -3966.5850269 -3980.1420631 -4090.7965793 
-4627.8147663 -4167.7589401 -8587.3509406 -5989.4956049 -6527.5610835 -5983.0744566 -1145.4458846 608.09963895 -1893.1892732 
-1743.2002424 4479.0986603 2973.1020155 -3244.5810011 -3410.5082977 -3488.7961847 -3262.7132815 -3381.1176467 -3197.4417221 
-4966.0648845 -6010.114951 -5140.6028897 -5538.1868441 -4164.3185927 -1020.9977983 -1209.2242338 -824.21308414 -1798.0135975 
-2824.4130618 -2745.9496891 -2360.9831098 -2630.8359809 -4780.033344 -2251.8517438 -2212.9531192 -1664.3058887 -2045.8580898 
-2012.3605025 -3751.7566295 -3683.3879415 -2456.299039 -2333.1472959 -5344.3097973 -5010.5388078 -4852.551037 -4706.7714657 
-3693.4491167 -3408.1992722 -3385.9509239 -3663.2837398 -3443.7729197 -3461.2680258 7708.7294523 416.94586487 939.12089762 
-23150.789449 -3014.6897479 -2854.7191031 -3103.0019608 -843.79071017 807.66376707 -5249.9304346 -4530.8781911 -2809.7691731 
-2603.8506701 -772.46308795 -120.29905222 -3115.6857939 -2933.471675 -6239.0733273 -5821.0518553 -6231.7865741 13477.889164 
-5250.477734 -2909.1176779 -9071.1750884 -21040.850966 -3055.4414815 -3590.9391859 -3284.8637392 -3134.2216651 -4882.019715 
-1837.7466194 -792.0259442 -4645.0500756 -5463.3136662 -3035.5038169 -3373.5487516 -11632.257441 -9541.0537536 -9052.8931099 
-762.93711081 1425.5293548 1624.2487298 -3648.7934384 -1127.583748 -3696.6664438 -4713.2431181 -4623.7752199 -5401.0429663 
-4693.269408 -5045.727509 21359.119118 -5267.2986805 -5574.6822897 -219.32639388 479.45322496 -805.65768824 -871.20130238 
-1909.1358734 -1814.0679011 -2048.4483832 -1938.838944 -1789.2477697 -1722.5664625 -2501.493054 -2996.0896568 -3000.5785007 
-3204.9545404 -9245.6258528 -4492.9763405 -2584.802876 -1015.0680655 28281.447407 11640.475194 -2821.9093101 -2800.5466751 
-2822.4222153 -1944.086891 -1328.6935537 -1649.9946811 -1614.8971438 -1451.6600094 1458.6221298 1640.0136908 -3205.3893359 
-3404.8731546 -5912.7165653 -5037.9853521 -3159.2098518 -3034.2696992 -3070.7953267 -2905.3947493 -3420.2146288 -3282.0762774 
-7510.9651911 12025.070445 6492.0633067 -3634.1135857 -5231.9250173 -2990.5376876 -2978.5057154 -3249.3969123 -1657.3436611 
1405.9405822 -2313.6179013 841.41263191 946.6437069 763.99145995 -3045.478576 -4791.3363091 -4422.2553164 2163.2295786 
-2982.0581835 -2995.2171059 -2653.926287 -2566.2717459 -2984.2695617 -3132.0605543 -1866.8837824 -2169.4287386 -1828.6494917 
-1461.1641807 -2370.7743165 -1998.9314478 -5073.1668931 -4736.3576765 -4953.4339407 -8302.9523611 -8663.9642763 10596.676649 
-1040.5825764 -2628.6055497 18008.426272 -3095.7628724 -3138.4448352 -3376.653477 -3129.379799 -3116.433313 -3580.2809878 
-3195.7349436 -2352.1660561 1043.6411306 -2833.178947 -4280.1349468 -5197.347983 1301.6876523 -5544.8167523 -6042.3304239 
-7734.9573471 -6430.7745798 -292.83301042 -591.32271596 -524.53623001 -352.18674725 -3828.0394393 -3744.7724672 -213.78361361 
-3908.9042397 -4202.2952461 -3892.7427802 -3593.5047223 -3687.2295161 -3778.5254826 -3980.2156077 -2395.2369216 -442.80443145 
719.97107885 133.53659629 -2694.4162257 -909.62920682 1395.4598669 1551.339881 1117.3648391 1030.6622607 -3307.301589 
-3521.937291 -2786.2857989 -3030.8827951 795.73838155 609.95457628 783.4437643 -2896.8202863 -2867.9777106 409.24478606 
-3273.1757189 -3191.7959261 12157.789779 572.28575419 -2716.1082656 -3047.9663687 -2658.4354266 -3196.0721577 -2783.0185302 
-3248.7306475 -4111.3361432 -3693.5288659 7.0472878039 -4493.0668876 -2497.0031701 -2282.2406026 -2352.3461129 -4152.1420593 
844.99686939 406.15443307 807.30808567 1007.0328612 -2023.4633567 -6960.9922012 14327.49681 -32281.873336 23779.566122 
17315.829063 11898.604107 -1944.490537 -4840.199372 -6509.8596015 -2502.3156938 -1283.8515487 -10524.560158 -28122.905645 
-19497.628127 -1568.6098533 -1539.2054348 -1924.008073 2078.8740846 1525.9868016 -3539.8779568 -1836.7776448 -5264.8511629 
-4912.5221629 -5661.7148046 -4834.4811699 -4560.17878 -3923.9200891 -3814.6209474 -7487.0616229 -3685.3517252 -1577.1369623 
-6592.8332743 -5459.7014998 -3351.0380896 -1941.071056 -1675.7994886 -5087.7705171 -4923.1087967 -5717.2214776 -6027.9226478 
-7613.2377524 -6436.6387199 1545.0314358 1184.7871903 3841.56225 -2188.0379254 -3049.2624468 14756.068313 -2065.2974764 
-3143.4066699 898.75119946 668.22240059 -6053.7600695 -6053.3105797 -5979.7957328 -5965.1857219 -7976.7420067 -3294.8662321 
-1276.7625781 17802.691657 -73.165332726 -325.21714818 -1816.8023105 -1939.4127393 -2110.5683737 3742.7951334 -6326.6088075 
10593.199722 -3444.5936008 -5359.8741071 -3899.0322858 -5589.0504831 -1978.1092959 -1474.40177 -1528.2101346 -2538.4309069 
-2282.0802029 -3907.6050709 -4760.222466 -4299.8417315 1411.8607233 1305.5229491 1616.5480594 1412.5539968 1296.6709912 
1078.1848405 1629.3868308 -6059.9269784 -7644.254534 -3942.9975575 -3573.9482889 -3621.8507278 1304.0868901 1541.8807428 
-5952.3849653 7608.2334505 -6636.9333901 -13131.873036 -1791.0716163 -2047.9924846 -4717.4989589 -1927.1803771 -2158.9907382 
-2110.3225746 -2165.9624189 -2252.9306597 -4940.4700381 -274.21189808 -4464.2423412 -3662.6945135 -4223.9281563 -3673.7102884 
-2978.3486337 -2947.8054007 -3041.2216441 -2929.1449194 -2842.2009936 -4455.8482111 -4713.3767262 -4750.6648923 563.91343866 
705.46434148 516.29388657 -3250.2328506 -2659.0522486 -5197.7849463 2346.0101774 95.275240513 876.35878729 -334.2679587 
-41.778514035 77.786757155 961.65171296 -4283.5777135 -9533.2176136 -10660.699085 -6778.3661566 -5793.5567257 368.24604121 
190.13085543 612.2562067 743.74160068 548.88651031 354.42547987 -3610.3944548 -3326.3979142 337.31057534 139.0992745 
-3507.143217 -1063.6732911 -1351.7179645 -1675.3482815 -2028.2935666 -1849.9867854 -7414.3590723 -5775.8376766 -6751.9782575 
1894.1912819 -3220.0938752 -3624.7050049 -3601.689775 -6186.6646795 -3215.3264208 1821.4531739 1616.7879277 1482.9693465 
1929.6880861 -2811.2348998 2473.7487572 2436.3959672 -2621.3842816 568.19291222 175.69979405 361.25095079 664.32252266 
511.73495369 -5035.9595746 -4929.2321037 -96.087270184 -397.55409635 4526.4342531 9894.8996015 2324.0682902 -3817.066553 
-3814.0443242 -2259.3798518 -4264.4863368 1276.3213434 1594.6439891 855.12239354 1025.7012728 -3718.4419074 -4019.9881843 
-3945.5436487 12793.922272 2042.0560625 -628.65249573 -972.77693244 -4072.3907162 -7005.7212598 -2848.9267835 -3054.7329643 
-365.82350983 -432.53017093 -599.17733388 -3342.7589274 -3146.1706779 -3414.3597862 1549.1463211 1289.6722395 1702.2833141 
1574.4945568 1260.7439428 1060.1199853 1433.9795176 1094.6609533 94.957670323 -622.7595635 -1817.4716119 29310.063922 
-13769.167271 -3882.8872123 -4322.1818695 -3810.008566 -4265.3007279 -4124.2572157 -3519.7803967 -2153.5196446 -2282.1523811 
2178.7499742 2418.9034951 1829.8903633 -923.02085002 -3094.0016796 -1991.9646285 -1526.9478607 -2141.1965528 2003.8457371 
1466.1571755 1554.5199799 190.55464264 1143.0537261 1087.8721173 935.83695596 921.07368779 884.63984521 -3103.9645917 
-6560.2113149 -3489.8521162 -3433.6912087 -3898.0995256 -3770.1763782 1579.7699667 1256.4428383 -570.28895179 -2449.4637215 
-2821.1675461 585.31021331 10148.939885 -4821.4395975 -3010.0557531 -2985.0554296 -5003.4629571 -3921.6865221 -2645.2031913 
-2548.8157136 -3019.084171 -2021.4661011 -1913.9773927 -7504.6066998 -2742.0265236 -2093.4880518 3443.1707106 -2144.9726908 
2011.0999907 4111.4035414 -2981.3173979 -2754.5053281 -2779.644125 -3176.7249931 -2825.209083 1667.4829001 -2044.2662997 
-2170.2967761 3131.7763635 2229.022643 1780.6034619 2062.8347516 491.68981338 192.37055187 518.63047643 -2631.5958694 
-3076.0598244 -3105.8944501 -3118.4469274 -45002.263615 1598.0633631 776.65219646 784.35845646 1108.0821475 766.78384249 
854.27731275 -9396.5375212 -4092.9836998 -1232.5120867 1031.5119981 926.50559617 820.98072747 812.03298954 -1696.0036316 
-1619.58862 -3254.9651735 2990.3183247 4007.7146743 -51.20034152 -10269.687574 -6928.4920748 -7360.3540679 -11950.964339 
-5143.124323 556.95007297 401.79979771 -1442.9751767 -5311.181389 -2418.580275 -2354.0758838 -538.14678458 -3766.6229625 
-3961.0435534 -4324.3522735 -4131.31016 795.56611687 864.55432999 589.30990765 -2783.5325276 -2776.0447034 -4687.4916062 
-3151.2096615 -1004.1103976 -3910.7205128 -3755.1563739 -1622.9729366 -1433.1880314 -1568.130441 1132.981083 1533.981963 
1356.4450408 1039.3015127 1504.7301956 1184.3967447 -2756.6822599 -1118.8556454 -3074.3756285 -3407.5096452 -3720.9627625 
-4150.0965698 -5621.000947 1700.0798884 102.90738436 -932.71710767 -2831.3500498 776.71534049 26446.954117 768.02194656 
923.46762605 859.11878268 -8467.4111023 1041.2441841 272.01371657 -2849.106622 -2844.2148611 -2705.384738 489.84625054 
7047.9363201 2531.6366704 -2223.604356 -2302.9148814 -2822.4901946 -2796.0893208 -2934.2966631 -1634.4194864 -2612.0745411 
568.14582294 340.06188473 -6771.2368963 -2776.0902506 -1228.3555627 -1396.3875631 -1192.2100509 -6568.8580382 -2010.3979666 
426.80288039 -4341.4048523 -4391.2556415 -645.40892092 -2868.985601 -2851.0151668 -2857.5857851 801.02073711 1112.2345853 
-753.09895311 -532.05192215 -7905.824047 -6077.0467625 -4901.4030586 2551.0385984 5054.1314022 -1306.0846465 -1847.9527148 
-2475.120491 -2328.2950382 1091.3644482 -4062.8944348 -3367.7762052 -3844.0168802 1569.1893715 -4520.7332889 -2801.0427229 
-989.42662714 -3687.3093416 -3223.8248978 -3770.0252876 -56374.999605 -3588.2475627 -2859.3330574 -2933.3229378 -5976.6526098 
1557.1146213 1214.2283512 -5726.9922153 -5429.8677662 953.04442673 781.47476707 806.43385696 -3375.6854533 -2366.7198819 
-2733.267651 -6770.0682637 -7548.5513704 -2890.4075927 415.68899986 405.71211426 199.48941806 5812.6149496 -2786.3117192 
-2758.4215838 -1330.6425772 -4479.7493443 -4036.8278546 -8832.6661562 -5578.8559091 -2920.342679 -3171.3847607 -1976.1691403 
-3266.4698867 -108.83757175 58.484915124 431.15902219 357.08092062 115.98661217 81.540441671 99.493557304 -7049.894132 
-8273.6855123 1337.6425769 5419.9030291 1249.3919114 -2804.5421284 -2796.0208851 -3049.9604806 -3195.5522597 -1910.0330683 
764.84970574 1022.0849109 1363.6462179 1923.3804472 2041.9172232 1515.0359075 2159.9348192 1417.3083231 -533.78906558 
-370.17856141 -4387.8555319 49641.672253 -2084.0429157 756.80288067 684.20763218 1279.2578268 1404.1589607 1256.432602 
883.82578592 528.72502203 963.75471449 754.55702078 -3772.8568062 2676.2404998 -2096.8467294 -175.32927056 -5218.2884143 
-6045.2469058 -5932.5322798 -5284.8696695 -5280.6043773 -8906.3191483 -2841.2708647 -227.20605964 139.02188394 148.06493447 
-3527.9422199 1605.9969344 10132.571615 -3648.0948447 1092.0178255 -7706.9485429 -379.23142495 -4213.8739404 -4353.6326161 
-5069.1777557 1379.6097701 -3631.9180584 -1856.0578865 -4941.0842238 -4509.5200685 -5170.2455791 -6070.1122487 -2888.7113642 
10721.568201 -272.72685027 -7726.5194503 -6902.0655657 -3916.3081515 -4325.169177 -3961.0599272 -4243.9692943 -2238.8507809 
1633.760333 2430.3430391 1487.4482114 2383.0093958 391.13587726 446.06500532 -5265.2932911 -8776.3591595 915.24729391 
-4223.9000617 1023.4095433 2332.2262238 -473.54059491 -1048.6035961 -5713.1807798 -6553.6241419 -2717.1742378 -2967.4271005 
1498.3306051 -2525.0266641 -2665.6812214 810.24844956 -6117.8716614 1055.8352587 -3256.8501836 -3601.701019 -3349.845988 
-2953.0866508 -2740.212484 6862.98702 -6125.7741839 3917.6383524 9506.2453471 1338.2786812 1411.9345587 -2501.4610207 
-3318.9778129 -2697.2480674 -1615.6084031 -1682.8579298 -2050.0952431 -4826.2781688 -3041.5999714 -3391.3597 -2806.7879557 
4239.8689262 3412.5498602 -2706.5805226 1054.2658888 1103.5212831 -2567.889968 -2729.5556641 -4194.3281659 -3921.1828349 
-1847.1273947 -214.2204793 -2411.0185914 -2957.1064161 -2972.9215251 13355.655716 -3438.6221645 -256.61332511 927.75486865 
-1438.5596768 -1912.7500386 2522.3211987 1846.9624727 -481.99124666 2338.8565079 3268.9776182 308.12410719 -2156.8801003 
-10428.878474 -3479.1784091 -4251.334001 -5131.311113 -5848.0934251 -6158.5269027 -1984.1978155 -14375.219771 -3848.5284745 
-1417.769517 -1252.2571133 -5074.2921925 703.02264511 417.9188425 -1303.2654906 -945.66131942 -4557.5542507 -2721.4395011 
-1333.997805 -5676.7050136 -2225.9042872 714.07722071 -368.33962746 -7745.4663271 -6120.2257752 -2194.1899741 -5637.4308414 
-6397.2662161 -4421.4482441 470.05491557 -3299.1390692 834.42854987 825.84522282 -10138.304711 -1123.8976712 -1747.175342 
-2472.8537094 -2985.1461703 -5981.1936819 -7288.5710635 -4850.4608772 1876.1525698 1737.9949768 -6212.6733938 -7909.8783459 
-991.10467954 -9609.0471133 2160.5074055 -452.58366228 3462.9051486 -3569.055505 -4265.9626509 -3605.4446045 -2130.1885737 
-2025.4527221 -1974.0052468 -6108.4924338 -7492.4706193 -4747.2720845 995.22162858 -6194.4815721 -1829.5457619 226.55503581 
451.79050657 1443.4131453 1567.1748506 -2748.2060173 -2794.8927055 -3153.1627794 -3220.1100221 -2761.041378 1877.2691444 
-2232.5442138 -9806.7374516 -8494.6239174 -1829.0626696 -1987.776567 -1866.7445322 -2120.5432136 -2234.5848949 813.84417679 
1202.1816806 -3793.6196138 735.88414689 -1247.894051 -6732.9728019 -6020.167685 -5316.2843434 -6242.2361081 2621.3251319 
-6166.7173317 -1957.572524 -2177.4837774 -4204.65449 -2769.5505412 -3614.8795681 913.57899394 37.65031246 -108.04178061 
1672.6483041 1985.050062 -8381.3898994 -7556.3245052 -653.09937055 1561.4449569 624.90530305 2321.3555968 -3151.5983843 
-2313.8461122 -5286.3115669 1557.6678917 -12444.14547 -3933.4005733 -3607.286885 -3584.0818777 305.07751193 -7446.478003 
-5405.2044302 -7120.6559228 521.95505807 640.32083545 554.81103593 -3673.685093 1885.3994807 -4218.3641594 -5447.4181572 
-4999.8959649 -160.21088698 -3518.7078241 1540.8357939 -8172.8728952 -7362.2920613 -6616.2662957 -8525.9384486 -889.58027643 
-4236.4905325 -2508.6287784 -2419.8833545 -2862.3634558 467.83390617 1542.8220577 -5996.161154 -6291.6148762 1543.8889538 
-4356.5535838 -4594.7933118 1003.3358601 -12520.476963 -8180.1533945 -11702.341427 -1777.9917351 -2219.6516667 -5028.1263664 
-4144.6614335 -3922.2839779 4147.1481701 2096.4352105 -6868.2451537 -3219.9047824 -2669.1465009 -3132.4047743 -2928.2341062 
841.69002478 533.2252938 -6207.665375 -27778.495272 -4064.5772285 -2849.2720265 -2752.4220531 -2621.8488207 1689.2313427 
-6648.8933722 -8969.4093672 142885.61171 1733.0700473 -1960.8378942 -4346.399817 -2144.6452418 -2625.078854 -26143.111324 
-2165.3058782 -2360.2812651 -1821.66512 -2656.9388288 -5523.8275764 -3721.3463717 -7404.9935771 -7274.988159 -3428.4327165 
-5945.2493545 -7878.2660747 905.55467867 -22123.396684 -6231.7618338 -59068.700044 -12911.221277 27269.856362 23803.148045 
-3135.4139186 -2896.1639918 -3998.1599435 -7361.811421 -5544.334512 -2653.7634461 -2566.3981096 -1716.7648823 -1850.065978 
-8991.6768917 -2507.2331999 -1936.2645107 -2838.0119823 1634.7924442 -7293.8844059 -11606.377606 13274.795439 -3814.7876434 
-6971.3008753 -9160.5671717 -3576.7758944 -11135.127869 -3316.6551374 -2841.4098164 1174.4959819 1210.0800446 -3666.7653801 
-2387.1290229 1290.7989637 -4160.9510045 -1975.5167729 -4056.9837412 -8945.0963692 -3162.5812802 -3024.4144444 -3063.949443 
-4767.7199185 -2357.7546851 -2243.1076496 -2239.7267798 -29729.374351 -2515.0364428 -2858.0621025 -3007.7121078 -11117.886892 
-6435.943332 -1928.6742626 -3787.6160481 -5577.9216834 -2850.3033193 -18747.400471 -20671.622767 -23332.955635 -22222.797115 
-23485.301331 -20719.106313 -17357.219029 -17435.218192 -17313.753985 -19286.274671 -22961.081482 -23952.064816 -18262.151356 
-23850.793949 -22441.164401 -23147.293494 -21022.367493 -22010.469242 -25124.984627 -17332.725886 -23110.724282 -20023.1646 
-23263.598487 -17402.257215 -21304.23955 -15491.481437 -22155.512845 -24519.822701 -16245.433951 -23029.544686 -22451.914184 
-22883.538769 -24576.916982 -20116.643591 -20059.472716 -15513.864293 -20296.535431 -18143.21597 -22017.317045 -24123.463299 
-21165.213421 -14515.798492 -13510.874324 -21649.146914 -19432.313273 -23699.45888 -22837.543059 -14823.819142 -24986.495614 
-24726.756968 -22875.2518 -22571.945517 -25037.545816 -22874.524411 -19810.994669 -22216.545311 -22348.318031 -24662.53619 
-15644.709883 -22919.770289 -21114.184466 -20554.827429 -18161.001191 -18665.400705 -14916.378215 -22831.265076 -21850.181148 
-17070.870611 -22154.045866 -24441.899636 -25178.875607 -14866.649045 -20364.277471 -21002.358222 -14026.460873 -19924.307222 
-24348.096089 -22290.910761 -21795.346856 -19047.831522 -23291.134206 -21700.177961 -21947.399291 -20610.643706 -22106.599983 
-14453.476793 -15285.623686 -21716.220087 -18062.400533 -23808.014397 -17605.447735 -16925.465725 -20548.391307 -23671.474048 
-21681.241216 -23149.074418 -22420.598726 -17817.619623 -21606.91817 -14294.226064 -22376.274323 -17448.829637 -23132.590353 
-21996.878593 -20984.24748 -21175.970072 -14448.423039 -13925.623012 -24484.052552 -21896.883496 -23869.407244 -22862.13371 
-23033.550955 -21335.104699 -14317.7908 -22605.498865 -22447.407106 -23936.198075 -21953.74738 -19617.003611 -23031.377325 
-23685.482545 -22787.48645 -21601.371738 -15059.121213 -22324.725091 -21650.131043 -21080.987286 -22067.400998 -22040.844491 
-17359.25802 -13271.61807 -22260.823504 -19074.261703 -22521.864221 -14123.483093 -22958.043797 -21764.304105 -18801.002792 
-23354.204459 -23172.679393 -23021.575056 -22618.143547 -18465.319724 -23227.442765 -20067.904157 -19433.609167 -16645.716467 
-24260.3023 -23578.782892 -22893.015771 -16510.618177 -22404.566985 -26907.884614 -23662.558196 -21885.783231 -17932.525451 
-22211.443693 -23122.450932 -23029.79395 -23487.093042 -17339.025509 -23890.025028 -23327.794187 -25113.037794 -22600.354557 
-21547.427382 -22872.409061 -22457.803466 -26667.014172 -23546.696187 -23022.436953 -17649.541254 -23036.473765 -21074.156373 
-22354.545148 -21946.554702 -29976.857286 -22169.035576 -17222.545492 -22711.707737 -17417.665258 -15807.666465 -20089.03181 
-21955.455026 -23673.753653 -23239.281901 -25751.147571 -23497.221295 -22190.201451 -23326.804848 -24217.869586 -17896.41889 
-21394.856243 -23497.748121 -18165.288669 -13056.440412 -20880.225907 -23710.907967 -22709.8374 -23199.213992 -21837.666952 
-23283.117644 -24088.0097 -15337.311915 -14843.931396 -16568.635921 -17325.387984 -22409.757554 -23644.43596 -22609.15873 
-13481.111036 -20787.868817 -16401.190862 -23206.015127 -21485.026005 -23197.664434 -20223.263665 -21047.540339 -22186.855392 
-22283.449433 -22876.142962 -19745.477266 -15238.608393 -20248.207124 -15711.084551 -22722.918993 -13345.93405 -24351.447795 
-24358.059679 -18096.382115 -15549.627427 -21528.668536 -17724.054167 -22794.584834 -21791.011935 -21601.582736 -22399.822163 
-15155.768288 -22369.319585 -21922.531733 -22879.741927 -21694.741126 -20723.631001 -14501.420345 -13689.043266 -13920.629439 
-15256.22651 -15306.399002 -15434.709891 -23931.977118 -22780.165702 -19318.999302 -24116.25775 -21124.266314 -23674.133872 
-14142.625194 -13170.861374 -14388.762287 -22086.225468 -22686.240932 -22247.125183 -17736.178029 -22088.897619 -21582.581118 
-20944.567858 -19049.014666 -19169.825704 -19003.121879 -17395.1862 -19536.501683 -26373.41385 -19948.070313 -18147.31144 
-20328.58895 -18348.555068 -18167.839665 -16969.87766 -15539.020039 -15567.553257 -16804.970088 -16994.684814 -12254.300056 
-14136.582467 -12931.642959 -14326.441987 -16220.300933 -15177.71394 -15246.243948 -16246.60976 -16414.084371 -17578.108233 
-18753.605414 -18772.611855 -18213.752683 -19354.16066 -21359.405848 -21414.417055 -19585.230631 -19924.742419 -17486.290824 
-22216.549353 -21343.454716 -20236.130427 -20702.842341 -20078.597728 -20452.612527 -16500.018935 -16187.019224 -16130.114712 
-21547.719863 -22813.377507 -22079.57094 -21486.180201 -22653.184242 -22183.099886 -22147.23788 -22121.370473 -19921.722974 
-22466.633985 -19594.261692 -25092.647574 -17618.048127 -16341.383258 -16298.409729 -19841.534638 -18531.266427 -17543.733694 
-18733.92769 -18144.949952 -19002.20093 -13639.657214 -25986.145528 -22412.892508 -21271.993774 -22739.527905 -26531.589891 
-21426.318453 -20794.445216 -23411.835098 -25156.335413 -21855.363481 -22905.754317 -23398.82171 -20791.383712 -27721.694723 
-19812.21178 -23412.08131 -20977.327362 -17198.493852 -18312.849479 -25539.645097 -25610.729971 -15765.640649 -22437.921429 
-23581.621667 -24829.332615 -19401.588861 -27457.666525 -22930.474057 -26010.39349 -28837.096495 -12422.399803 -15821.620311 
-13061.875577 -14269.521254 -15240.591333 -12522.937802 -15588.198809 -12566.386616 -14722.588285 -20329.253106 -21528.316162 
-19615.674413 -16596.788041 -18025.555961 -25946.895036 -20820.903004 -19951.532771 -22942.424838 -19917.064019 -18724.18951 
-18340.557618 -20632.059033 -19306.296105 -21132.894915 -21109.426832 -21529.278367 -24107.934369 -19701.02493 -22187.836982 
-24393.947523 -19108.187167 -22817.245537 -23825.860361 -29273.078328 -26839.846923 -25041.472432 -24618.546881 -21155.244189 
-14195.350654 -17751.143546 -20527.277997 -21015.274239 -17161.81028 -18044.535089 -17815.050725 -16207.831464 -16421.047556 
-22487.359393 -25480.056913 -20104.909605 -18499.47074 -21873.037624 -25957.183895 -23092.76768 -19923.555729 -21122.04334 
-19289.995969 -17605.982924 -19164.924066 -21206.963417 -23066.021718 -17349.886478 -13434.244239 -21569.458973 -13863.44461 
-13652.323926 -14556.635285 -16292.307156 15795.96836 -65292.694956 17759.659593 -2238.9136471 -19088.558465 -27423.687662 
-20930.655658 -15039.334663 -11829.187293 -28157.19375 -28998.136523 -18685.864288 -25016.344703 -22459.230264 -18601.185471 
-18631.816744 -17979.949039 -25926.439624 -22403.518863 -23392.824838 -26041.489319 -26066.586561 -28066.980946 -13356.963723 
-19822.417806 -12424.891547 -14165.010204 -15260.594427 -15402.857371 -15890.141031 -22512.860371 -22370.379981 -19035.783086 
-21629.6526 -20964.797021 -25870.959464 -16242.966303 -15344.67768 -14393.099756 -16301.358335 -15380.079372 -17551.739743 
-17815.879076 -20094.858855 -25488.016664 -24862.749889 -27086.818689 -20341.613501 -20241.069016 -6841.780601 -49098.661216 
19600.214475 -25295.886966 -16820.788051 -18128.262911 -15985.360198 -23237.323016 -25336.896473 -21488.865964 -22793.864687 
-20752.609317 -25438.531096 -21514.047276 -19720.60233 -19771.352482 -17938.133134 -16501.696984 -17639.523295 -21045.838669 
-20125.292645 -22352.451244 -22447.878782 -28535.676672 -19181.790633 3124.8389477 -42200.160764 -15923.721975 -18126.542567 
-24664.798262 -22548.229233 -23722.590466 -21301.083341 -17125.545624 -23701.757295 -24581.743968 -25548.827474 -21697.289123 
-20381.419397 -19384.854087 -20768.618301 -26146.580598 -21764.691559 -28008.206784 -26531.157932 -25285.920623 -22334.678629 
-18686.296173 -11180.369575 -9940.8702368 -13152.932779 -13262.352142 -12419.634186 -13121.224867 -15228.884263 -13007.08918 
-12383.549353 -14706.948614 -14610.110605 -16713.06555 -18036.927816 -16106.138514 -14658.32227 -14802.274029 -14181.679231 
-14860.088428 -14505.436481 -15621.618858 -20888.960987 -26026.772107 -24719.891436 -24866.48698 -22721.608912 -23662.694592 
-23236.742716 -24779.941864 -18994.73519 -23697.744786 -30025.756956 -23115.499704 -19948.529449 -15227.167381 -14908.76595 
-15489.234807 -12491.827907 -13195.873857 -14099.753333 -23059.456944 -18852.66473 -28993.738877 -17559.180282 -27423.350462 
-28329.349875 -26004.774146 -26086.495251 -20854.509883 -30454.977986 -24312.817189 -11623.457363 -17085.07128 -12424.605624 
-22979.618014 -22171.366313 -21183.572472 -21654.095271 -20206.20252 -23180.748757 -22084.567237 -33614.198464 -21236.888047 
-19296.197954 -20532.607292 -25100.794387 -19978.003805 -19202.293093 -21787.191345 -26553.536059 -20797.332753 -21915.14002 
-14613.179587 -25162.279757 -21841.614886 -21819.530715 -24078.702275 -25086.391278 -18606.237558 -30991.113102 -22581.622419 
-31978.328022 -13221.028207 -13024.371719 -9866.7869757 -13409.116274 -13370.271336 -14508.772558 -13941.566032 -20484.500133 
-19691.718655 -20993.984839 -26014.489679 -16498.167174 -18660.129003 -17778.929838 -16533.729813 -18425.444701 -17402.157609 
-14806.212723 -16260.229473 -15873.218748 -20450.263304 -12513.460966 -23391.486029 -20630.552067 -20563.959721 -25994.18724 
-22241.761527 -23941.525562 -18407.745892 -23167.826323 -17184.422067 -18660.109667 -21297.119529 -20806.836639 -20257.090442 
-22951.944155 -11782.766889 -28038.88349 -29973.802391 -21925.158916 -21577.999926 -24363.090436 -15346.78181 -16417.009912 
-16483.950534 -22765.121449 -22407.13089 -23920.289367 -19840.904066 -29671.67455 -18731.098763 -18638.527702 -21471.153147 
-20378.339031 -10687.547755 -8115.1231299 -24210.449352 -16187.067826 -17901.761116 -20548.805771 -17069.588463 -15047.398551 
-17339.979217 -32914.895177 -28462.259947 -19455.134501 -10458.59831 -21662.725797 -15490.807385 -13389.889641 -14030.806231 
-15582.293814 -23046.599855 -23537.715739 -21734.226251 -22883.255117 -23146.151404 -17421.672989 -15400.108541 -22387.274425 
-23379.817158 -23727.566463 -22737.619723 -23709.751899 -22243.207586 -17836.360846 -18130.908713 -15114.627637 -15645.156484 
-15808.685104 -12367.01527 -14030.137298 -12053.068416 -11979.768348 -12304.509127 -25925.157297 -25286.308906 -25790.066509 
-24266.378339 -19356.18465 -22177.520048 -11481.274301 -36439.803248 -19853.516269 -25796.74896 -21706.969349 -8270.8807361 
-23025.908591 -11803.846208 -6202.799463 -23202.39156 -19040.281697 -25835.733147 -21301.07571 -22851.236013 -25494.300634 
-25267.994009 -25033.225065 -24148.283898 -23789.594998 -25134.742469 -24967.95557 -24516.438953 -22391.75209 -22922.20669 
-25526.140779 -22450.008646 -23415.715435 -26532.254342 -25607.791031 -16177.79662 -18539.164843 -19630.403203 -22855.020237 
-24614.97285 -28743.145787 -23875.5005 -17401.720726 -15688.525676 -23953.718724 -31860.225581 -12096.066673 -12625.825726 
-13354.376447 -13429.723499 -28141.308738 -24298.08916 -24037.743056 -15958.382581 -18393.915264 -18695.648869 -21674.536599 
-21854.614698 -23968.527154 -21601.634246 -24733.33964 -16762.61851 -28141.508747 -14552.497751 -30732.293192 -20230.503838 
-24984.233212 -23446.973346 -22237.111273 -18540.38797 -24387.612037 -20271.168444 -17986.115698 -24803.255787 -12221.692417 
-14225.091483 -11774.871883 -11896.43757 -15084.094874 -20615.271616 -20340.229984 -24795.963207 -25454.598875 -23141.771497 
-22132.04365 -17464.021967 -27382.416112 -26123.114073 -15653.026582 -14246.487329 -22626.166311 -18435.547219 -25468.019804 
-21402.892697 -13140.571799 -21299.939421 -20217.968561 -16772.987353 -18773.649291 -17378.787079 -16609.843191 -18297.847524 
-18183.258006 -26059.096527 -16039.849473 -16676.004755 -22931.008496 -30497.463822 -24372.569397 -18191.480158 -30270.37869 
-22951.488665 -21816.693366 -21487.58611 -21089.215023 -22304.123596 -18508.768987 -17729.331061 -18360.751321 -11191.518213 
-9991.3226925 -15596.570432 -15105.938768 -20883.312974 -22547.347778 -11808.46399 -13871.029158 -19368.091925 -22072.037419 
-21491.124095 -22357.035327 -17871.499857 -14217.105403 -19741.632668 -24571.920644 -24242.447361 -22358.083833 -21857.055098 
-24775.01149 -21851.395766 -24276.849098 -15970.942473 -14681.753212 -25045.929988 -27343.694307 -15649.850218 -19998.8517 
-21486.376221 -12353.010248 -15107.197792 -11722.436801 -11739.516704 -13882.124042 -15460.615353 -10611.26186 -14011.419737 
-10186.559588 -14589.853151 -13864.904793 -20538.132461 -20373.935919 -9974.0397319 -25815.978634 -31119.710523 -13023.587927 
-16800.382709 -23037.464674 -12441.361499 -13656.733455 -25742.404928 -19884.128333 -19241.468659 -27588.734924 -30084.068349 
-24355.711297 -13078.912637 -11559.341453 -14550.55339 -7669.4481449 -17992.922227 -17739.19787 -16599.333789 -17970.85763 
-29697.450944 -22231.357683 -15377.013946 -19987.59218 -21186.496934 -21329.613726 -22389.363283 -20941.771403 -20335.952394 
-25075.632117 -24888.761722 -22643.679694 -20544.290676 -25316.934032 -22789.555699 -23186.344264 -19756.27808 -25389.012396 
-23926.975758 -22121.311826 -21602.133686 -22870.846481 -24376.783426 -17806.884733 -17211.16721 -17686.304386 -17216.26873 
-25526.616104 -20721.542412 -24779.004514 -27251.39792 -18906.555242 -17547.603226 -18660.822875 -15570.777249 -27918.820542 
-17041.017057 -17108.824145 -16409.554945 -23062.589436 -22580.06259 -23002.761671 -23499.832767 -23670.958169 -30109.993724 
-20637.766258 -29398.997743 -22231.597283 -19395.497352 -17363.93585 -19250.996459 -18346.291842 -24733.957701 -24976.71483 
-19469.179528 -26804.927121 -21918.506632 -23664.9558 -8161.4240835 -3449.4326958 -24399.129101 -29598.671779 -23267.947018 
-22211.004817 -20273.316925 -17541.536541 -21820.663984 -24314.801946 -23166.065362 -25629.97272 -24783.284299 -14845.360728 
-11726.403475 -15763.986083 -22894.893211 -21066.755387 -22175.139145 -48315.440471 -11112.869825 -22380.781044 -24951.128347 
-18845.949514 -26782.292197 -21930.707519 -17990.221153 -23092.880877 -24249.911766 -27563.381932 -23674.416365 -24613.469524 
-13163.966623 -22680.264389 -19067.774376 -23248.748183 -21852.379736 -21949.238414 -17671.099734 -15020.042415 -15005.019476 
-14052.03959 -20713.314052 -21489.56928 -16581.922044 -17773.867227 -17573.138174 -14241.544114 -14238.272106 -14735.546012 
-11168.792145 -11717.442562 -17027.594597 -23435.680108 -16450.477892 -15166.143012 -11836.936414 -13132.401483 -25221.704338 
-27750.928251 -20473.896666 -19056.018259 -18544.990918 -19018.003336 -16973.491913 -19715.222325 -24298.985721 -23194.170509 
-29366.201483 -19213.588353 -20588.447462 -18681.936528 -24471.477046 -27250.743949 -23828.700069 -22281.978747 -17386.443866 
-18793.853695 -17210.364113 -26817.732597 -12588.45551 -26408.77409 -8110.8173279 -6257.3223512 -32809.240575 -22353.768319 
-20578.959655 -20067.840666 -26452.319136 -23493.614397 -16765.238833 -25222.986974 -19314.230004 -11293.21471 -18453.447093 
-13962.166186 -12274.194493 -17561.05532 -14016.667723 -17498.771229 -15845.604094 -15425.819035 -32325.292789 -16595.672598 
-26416.332675 -26591.464091 -22186.801055 -19902.51095 -21894.67848 -23287.546343 -24064.347597 -24658.96287 -21711.078109 
-23258.533498 -20169.188514 -21690.985956 -24681.597147 -22369.383688 -27621.047397 -29435.264159 -20888.7346 -22329.648428 
-22481.946402 -21697.492648 -22521.209363 -21717.026378 -23585.940355 -22379.109817 -22740.247899 -24807.261468 -22194.590088 
-20932.37845 -18548.365673 -18954.058143 -23037.351371 -22026.024708 -22426.692057 -23071.36581 -22661.543722 -21661.09387 
-20587.853457 -21076.66536 -24922.233324 -20729.646008 -23305.622165 -23889.285746 -24625.826734 -20402.297878 -18248.786457 
-29959.882933 -20017.999739 -26615.709039 -23616.676736 -22011.384724 -15894.90652 -15988.409647 -14821.398254 -32386.122691 
-26126.934118 -16102.884799 -28400.396837 -21146.601064 -16224.518111 -20828.618631 -20491.083547 -20524.110126 -19698.365766 
-20205.642648 -20647.078394 -13219.967688 -12879.919412 -20472.823076 -22063.660765 -21555.676343 -20680.866548 -23103.142457 
-21038.243622 -21731.340656 -23311.840452 -26030.384832 -24123.974847 -15337.76291 -13626.490034 -15044.634476 -12153.808242 
-18469.098005 -17620.2432 -26909.763479 -28522.804126 -5938.4748478 -23502.48067 -21956.98425 -21500.722357 -21502.121606 
-50419.704407 -21683.67885 -24767.381338 -16630.216809 -21784.695905 -21855.060896 -14003.072702 -14168.461808 -11527.035676 
-21181.739227 -23474.40916 -24596.108418 -14127.657487 -16409.198392 -18364.295814 -16700.270105 -16080.892661 -13408.051429 
-13445.954626 -13165.677088 -21770.501807 -24310.831259 -22766.705527 -22159.498824 -24148.038827 -19551.057814 -16465.764019 
-20779.902955 -24921.234178 -8480.8620024 -26545.949585 -18884.8881 -19782.946106 -18922.945446 -26310.343512 -23037.216931 
-22302.998694 -28433.635593 -26295.105007 -20091.98306 -26471.517588 -21504.55188 -21093.22803 -11799.398141 -23295.234914 
-25167.074288 -20749.854107 -25711.54873 -19619.882851 -19316.971512 -31008.931148 -21444.738744 -21137.872169 -30635.980748 
-30298.621459 -19527.758494 -22884.29143 -20674.023757 -22531.477639 -20891.357079 -24568.201443 -10520.335889 -13979.009032 
-14818.253222 -23290.049958 -22696.19621 -21928.196871 -19541.283663 -27704.413 -25144.57649 -27780.112498 -24964.565091 
-24104.528543 -18722.56757 -23534.914489 -23182.482628 -34144.559205 -16353.770237 -22675.078639 -21326.583186 -15221.483182 
-17660.017823 -16271.452227 -15624.927071 -13883.157492 -12988.036283 -12843.610493 -13709.371033 -28511.137058 -19453.002286 
-21826.204268 -20089.452589 -18460.714958 -22126.47743 -26304.212694 -22567.069583 -9395.3720141 -14607.009579 -9571.7308803 
-13794.072966 -20378.249867 -18998.746177 -20144.388135 -29155.278174 -17304.792906 -23387.428841 -21657.420431 -22091.575058 
-19565.313046 -18728.167337 -18653.385201 -25212.480459 -14479.722762 -15940.367187 -15917.754295 -15971.946231 -17433.337556 
-25145.274587 -25390.908946 -11922.090627 -12559.292099 -23963.094344 -17495.683211 -23059.062074 -27294.951816 -15394.311511 
-16934.380324 -16348.856114 -17051.127881 -15854.670672 -21239.093199 -24132.633134 -24670.17817 -17400.156618 -23180.546503 
-22714.546503 -18841.832993 -17712.913209 -22948.660756 -21426.109902 -21471.499973 -22622.485645 -16001.738272 -20912.063269 
-19030.350924 -20280.309181 -22590.057445 -27894.56319 -20549.537436 -19572.23404 -21492.560609 -19804.740565 -20609.400736 
-23837.111488 -15438.68376 -14902.481339 -25866.720373 -27285.299938 -24060.328734 -13139.493751 -10542.012001 -12117.336891 
-14529.539607 -12114.378912 -15493.0546 -23960.627223 -15006.524825 -9509.6138806 -22417.249858 -22661.849626 -22949.736646 
-18773.74965 -12400.580164 -11492.934672 -12611.191495 -25841.621878 -21505.135593 -21526.907913 -19897.177075 -20450.023961 
-20829.21405 -23002.240099 -18795.692574 -20529.751104 -21452.987957 -19016.759639 -27415.708281 -19666.740217 -20423.758626 
-21039.786559 -17816.530507 -24488.895418 -21752.818231 -22016.323312 -12909.984246 -18457.085142 -23942.342452 -25630.123512 
-15569.401405 -29744.270109 -17992.161274 -17425.581373 -26434.158806 -13697.419671 -26434.511593 -13589.573459 -17978.967415 
-25347.276651 -20017.787591 -25776.079477 -22774.246046 -23062.002297 -22385.830728 -25345.772937 -22932.853125 -24532.868606 
-17988.204537 -30888.591956 -27757.599344 -24325.418707 -16589.174653 -23677.205756 -22463.933064 -23923.941919 -23493.324933 
-22698.078247 -18635.035994 -22563.526198 -22988.773839 -22960.26213 -25594.55561 -22099.385031 -22096.72276 -20575.67707 
-20877.445966 -20707.662894 -19206.185845 -19680.099405 -19208.223893 -26242.8609 -28022.663135 -25743.356441 -26864.361598 
-24064.068695 -20544.272895 -23264.457615 -23339.377846 -23300.042584 -22018.120458 -15266.368471 -25920.61581 -26300.830248 
-17042.733852 -25702.401424 -23267.576371 -21124.791915 -20489.125936 -21172.675735 -12578.426202 -11805.551695 -13849.092752 
-12515.436512 -12001.4981 -15639.287442 -38339.85525 -23215.133456 -20128.886905 -29679.186222 -21308.38219 -26527.13085 
-19573.663046 -5558.4739759 -14284.605194 -15054.310517 -13797.87367 -10505.156509 -11785.226314 -21460.336998 -4210.6905374 
-16340.512115 -23675.029095 -20803.02083 -20487.171221 -22013.276463 -24787.39083 -18532.623838 -19080.897879 -21352.086183 
-19093.000959 -17505.181151 -18976.153556 -17419.996742 -23899.245886 -23537.196811 -25801.959705 -22790.727743 -22993.025147 
-21412.875421 -19470.632614 -18406.885246 -22297.645419 -22545.182368 -26352.016136 -38338.278584 -26785.500814 -8617.8681941 
4471.501592 -21852.409278 -21177.602801 -24355.253545 -22087.858687 -18291.636656 -18623.279668 -25053.979718 -11435.183984 
-31328.046907 -29264.330535 -23205.451405 -24775.952287 -28597.06295 -20478.785913 -22921.544312 -21579.806323 -21428.059434 
-26608.279743 -18024.752342 -22209.728036 -21409.289528 -23807.14156 -26117.533263 -22613.217679 -28441.257723 -24730.463322 
-13169.847081 -12148.809764 -15616.525529 -18101.599036 -21464.971944 -18241.834373 -17066.609141 -17281.424368 -26145.000681 
-21691.00063 -18434.163627 -15314.566809 -14207.805611 -16178.44642 -21996.178084 -11464.611582 -13927.816891 -13375.945129 
-13988.943655 -21920.963694 -23275.595211 -24243.613517 -23266.374884 -20638.462664 -24484.912261 -22465.042592 -23811.989705 
-22501.488452 -22751.410748 -22036.858997 -23167.787099 -22104.870536 -26555.924744 -19225.547448 -26394.093135 -22202.025107 
-29059.370885 -22995.805554 -23050.800202 -21545.48812 -17901.29259 -21634.137764 -12898.952375 -14621.837771 -21846.963284 
-16057.990149 -21885.386158 -21080.81196 -25309.318509 -20551.67851 -24775.786963 -16472.898714 -21519.73316 -22877.52629 
-27226.308608 -20232.251415 -10596.034322 -15136.696744 -10197.206609 -10582.593542 -24173.424701 -22350.396799 -15883.68409 
-26632.955881 -13352.987823 -20996.897732 -21872.883438 -20435.855032 -20803.286813 -25173.349794 -29045.23411 -23073.477424 
-18820.383613 -20925.649875 -22333.674717 -21562.01837 -26531.135638 -17003.43886 -23540.056551 -22720.717225 -22145.335948 
-21489.693103 -13043.679275 -13990.28555 -10837.381592 -20591.747531 -24256.159509 -25604.012218 -23273.098706 -23508.290767 
-20819.020295 -14186.036403 -35341.782918 -23053.147793 -28613.053075 -23186.011219 -20169.840883 -19077.3 -18826.336168 
-16918.966541 -27508.071516 -20837.186483 -19099.583414 -20931.623117 -18552.147229 -32828.134183 -10618.21996 -12830.729035 
-15821.552919 -14111.991774 -13873.928363 -13471.378758 -15275.779768 -12189.631503 -13596.942884 -22024.875643 -13416.629263 
-16220.954636 -19611.217797 -24840.285758 -23403.018395 -25189.68318 -16312.381245 -16821.900402 -17762.23897 -16542.042631 
-17935.32002 -19672.757295 -15274.711173 -13737.722673 -12767.943073 -12571.510264 -15790.533841 -16992.137238 -16516.767159 
-21420.255319 -22214.736841 -10355.162901 -14889.541816 -11793.157953 -10098.039108 -24663.94492 -21504.816583 -20692.346353 
-30038.328357 -20113.242911 -23784.648533 -23685.343482 -21884.775636 -85494.8061 -33702.26894 -39290.049465 -14080.526265 
-26841.464876 -21812.649478 -13197.084664 -22849.171568 -24916.32941 -27293.736866 -32085.773632 -22316.431657 -17547.916912 
-26690.167395 -21681.259558 -22318.898334 -23120.067805 -24108.804665 -24497.669969 -24945.016263 -24147.510857 -20434.195714 
-14563.969246 -22136.730651 -22340.078207 -22762.313125 -28937.963703 -27419.98184 -12346.463982 -12537.907575 -14062.336635 
-13527.846077 -13364.360006 -28714.236272 -23186.220847 -25648.80787 -33430.396592 -20825.87653 -21741.789237 -22178.033096 
-23608.563076 -26273.843062 -13893.706158 -24468.951134 -27599.574954 -20546.110345 -23325.882183 -28530.281454 -25751.361957 
-14650.204892 -12708.051172 -13337.989944 -16888.547206 -14978.796718 -19906.267008 -23571.952414 -20823.451623 -9285.5223018 
-12609.376338 -14672.106405 -14563.348374 -15643.973352 -25896.918145 -22175.805911 -22757.643528 -17611.26237 -16508.57795 
-16540.076535 -24176.371643 -23063.797178 -20774.818164 -26328.893189 -22053.826004 -12786.367268 -14412.836009 -16200.312613 
-19283.862634 -22014.057981 -24826.534408 -17349.835939 -28025.51782 -18791.503726 -19490.123547 -12784.096368 -13507.960269 
-13485.226176 -21762.620065 -14121.662253 -20542.237798 -23011.778363 -22374.399598 -23365.163721 -23367.835728 -26464.958527 
-27118.878167 -21712.405449 -21656.843372 -20457.041333 -24615.397291 -24565.142227 -24540.801745 -23166.835077 -19929.967817 
-17359.161952 -16173.792445 -15983.764585 -18786.152745 -21942.510885 -14484.579305 -14461.118867 -17669.152204 -31508.40315 
-12526.554992 -12513.601344 -22510.620023 -19449.069381 -23915.539945 -21160.485331 -21506.826156 -21521.557459 -21466.354574 
-20862.455017 -18659.589787 -28079.68907 -18058.298915 -21420.804385 -19517.245676 -15573.819159 -18683.359403 -20092.629026 
-18332.168445 -16554.555163 -17058.453048 -13443.392298 -12370.868875 -20987.559093 -18786.236215 -19720.02143 -24717.546059 
-14938.955405 -14718.257243 -22933.996568 -27941.818271 -24847.29175 -23155.620996 -21960.386816 -26294.648857 -24182.034692 
-22256.554856 -18691.245783 -23639.966575 -22659.626863 -27187.264505 -19431.280416 -27832.113354 -24294.289386 -25732.524624 
-27283.393439 -10181.724276 -14829.452997 -19302.318718 -11275.959356 -13927.641512 -17549.630239 -19253.515338 -17633.985838 
-22859.756521 -14961.516786 -16574.838173 -15278.989978 -13303.4432 -25897.90604 -23402.301323 -21819.02012 -22867.470155 
-18899.347873 -18270.345592 -23742.759452 -21753.061791 -21557.381035 -19102.541665 -17534.039883 -16325.578241 -20117.371677 
-15969.038284 -10782.565401 -12809.380005 -25779.318364 -23021.108011 -9948.1901871 -12875.27984 -11808.845857 -12172.147307 
-21467.174645 -25051.453788 -26328.417365 -28276.308691 -22953.831219 -17423.020422 -20102.287636 -20665.495171 -22073.113921 
-19997.138481 -29282.384597 -22638.898219 -23671.44008 -20884.448835 -21622.423535 -23489.585553 -24102.445054 -16296.67519 
-14096.324336 -14721.453118 -28060.375004 -15834.175393 -25331.105019 -32120.796297 -28731.120024 -22064.633543 -23150.690959 
-23771.070845 -23453.031218 -12370.198003 -21890.118571 -21962.239372 -23092.607435 -12654.02805 -12930.35991 -17945.399998 
-12750.607591 -18403.879279 -18128.995566 -16740.575794 -28718.615126 -18097.918245 -24307.588688 -22288.655772 -13843.797901 
-14171.017342 -15940.965677 -19508.322789 -26618.219546 -19251.465688 -25419.358228 -23978.743038 -17634.074311 -14490.86425 
-21380.195161 -24439.127922 -1895.6021018 -10188.758269 -28578.883421 -26370.854281 -14468.167566 -15897.381376 -25189.862108 
-16073.95136 -29063.918178 -36416.09164 -24713.932601 -24578.136698 -21898.494188 -15222.230645 -14385.768122 -8392.3017007 
-18999.688575 -19938.159081 -19307.560564 -16088.256739 -22572.62729 -20993.459575 -21766.568918 -21646.397154 -23447.429315 
-22391.35859 -21421.982255 -22401.935977 -22118.303154 -22829.996931 -22503.316757 -17628.61355 -13902.020677 -14897.753052 
-23741.000181 -28393.328554 -15786.138995 -18452.938117 -15101.810852 -18436.051591 -19474.09217 -13517.534641 -14176.122133 
-15914.931943 -12917.308031 -12966.452344 -13477.823759 -28425.299464 -19658.29477 -18993.659178 -19705.363581 -18692.524909 
-20174.71216 -58978.273261 -20080.561883 -22074.252172 -21823.756569 -22089.631516 -18278.408263 -19636.533757 -20569.068409 
-19765.789078 -20472.542415 -18506.180582 -17721.907891 -21102.886565 -10846.605271 -8535.4330788 -12298.635975 -12223.888471 
-11839.79048 -21765.693238 -28897.161892 -15831.538202 -18441.750835 -18756.824708 -17861.804735 -19555.418456 -21274.922358 
-19917.386665 -24646.254457 -24179.134671 -19767.472686 -22374.181503 -23112.874508 -22888.666068 -24237.093093 -22490.414375 
-17168.530806 -23719.718803 -25795.753309 -15819.820383 -13110.61523 -14985.163387 -14327.009302 -20843.561847 -21568.39398 
-27230.499244 -27157.179898 -29452.077232 -21650.656025 -22360.286159 -20462.222362 -21784.250623 -25783.015413 -24185.475832 
-25475.282971 -17783.074768 -18955.72603 -22947.271301 -20907.135993 -21652.052206 -19671.458577 -24280.919608 -22720.553883 
-11071.268827 -12687.69564 -13298.903159 -14471.159924 -14875.012974 -20190.789592 -22917.130956 -20355.896176 -11573.911341 
-20327.727216 -19419.164618 -13630.844662 -14347.145438 -13576.401266 -14275.323879 -24517.810201 -35277.511088 -11412.082357 
-22221.272545 -18519.596635 -20053.681463 -21774.542257 -23297.601627 -15422.008824 -24942.623647 -22255.757217 -22632.462653 
-16548.649897 -26815.802013 -19802.886795 -34441.55091 -18212.556585 -17837.981093 -21715.235669 -20836.591271 -18628.541372 
-24512.483994 -21568.57524 -22364.318385 -15003.420793 -12856.61671 -24132.687341 -22344.781611 -22225.428801 -21306.058856 
-19946.99852 -24143.942289 -22912.93094 -23733.59102 -20876.053617 -20720.515619 -21226.626415 -22357.406671 -21305.711036 
-21290.965539 -23168.839238 -20589.934676 -25604.974235 -25427.260983 -22159.89459 -11414.201091 -22368.885114 -20366.815336 
-8401.7082859 -12110.536632 -19411.561418 -21554.604139 -20946.240673 -24812.683983 -22375.362836 -27949.45296 -16299.187763 
-21050.060183 -20718.037202 -16235.962638 -13347.130665 -23501.715073 -24211.729619 -22002.27771 -30196.100317 -26299.639613 
-20770.371669 -22739.406207 -22580.361371 -19725.027212 -19310.511498 -20187.363837 -18112.404307 -10071.809162 -15114.404787 
-21953.528262 -12277.597994 -31789.702903 -22402.192077 -20449.158952 -24209.136939 -23143.240111 -23054.644521 -22932.600489 
-26684.983382 -9640.707278 -27039.31843 -25229.414052 -27570.359826 2338.4572619 -25210.307427 -23957.617504 -25151.186764 
-29316.781547 -22272.863235 -34008.615697 -13956.918487 -22286.581073 -22723.734465 -21787.96035 -15320.205178 -13056.428166 
-24180.432995 -20750.346885 -25993.612213 -29019.812232 -26339.304623 -15291.612681 -19057.240488 -21337.520696 -24409.00616 
-22835.919899 -30198.18282 -19541.500016 -21493.538539 -22307.259768 -21273.783779 -12851.359608 -22182.151573 -21858.975047 
-21341.814263 -20957.032621 -21687.959344 -39864.742499 -29300.810968 -16953.133622 -23355.168573 -22430.583433 -22946.440364 
-21812.456991 -21852.534087 -21728.956019 -19572.733515 -23753.61677 -21012.196481 -12094.475327 -12075.326252 -26419.088241 
-30180.658823 -23965.336222 -12517.791101 -12388.799934 -24789.828101 -26306.436931 -21122.511488 -20904.589981 -21261.12377 
-19893.412424 -21393.737159 -24802.433567 -22678.174141 -10775.752452 -12403.513767 -25234.342958 -22882.33767 -29361.32205 
-20077.135544 -19826.645089 -12275.53508 -11915.378348 -14534.198098 -13505.292368 -18878.951673 -11022.126778 -47709.418222 
-69279.714571 -14942.287253 -11220.575914 -17527.039041 -29433.568784 -17982.149555 -19908.88469 -20453.093443 -21431.051767 
-8049.2395433 -24685.952696 -22698.581508 -13774.075591 -14127.419746 -18195.164099 -17797.834928 -32091.345047 -20459.142139 
-22189.384769 -14156.43264 -23789.010633 -22263.169867 -22019.227176 -21963.866123 -23351.213922 -20062.637791 -17194.978159 
-23244.032274 -21769.978153 -19166.435204 -13925.408003 -24176.577038 -24126.808032 -23601.990505 -24303.6608 -22697.349062 
-24536.188782 -22639.341656 -23928.320113 -17064.218632 4439.4198552 -58987.313027 1875.159985 -33686.044773 -22574.926398 
-17437.49059 -22633.562266 -16792.986401 -19599.056472 -18457.377514 -15766.667155 -20222.209543 -13816.837979 -14180.495462 
-18746.223188 -15748.898787 -21062.951841 -10934.33076 -8620.3854291 -17712.440836 -15526.239482 -20080.362042 -22952.342482 
-28564.79882 -23325.00566 -24188.360575 -20606.413542 -23553.720178 -22068.836367 -24717.372491 -25626.273754 -24171.571959 
-11689.100874 -14248.58517 -8231.8529383 -8364.9142057 -5974.3440822 -27778.021995 -16027.729212 -21819.857842 -19315.827799 
-12670.710384 -13497.049395 -12040.716299 -13204.881811 -15810.678539 -26535.252724 -25794.371308 -24499.690333 -15767.144156 
-22102.726126 -13659.209519 -21789.668108 -22808.162896 -22073.885251 -23097.358434 -20499.203293 -21010.207172 -19372.062002 
-19487.156955 -20200.194133 -20884.204674 -20645.667861 -19782.383183 -20623.94872 -21595.991886 -24592.825016 -24552.024305 
-21381.413141 -21219.646717 -21386.071244 -11801.262636 -15887.274354 -21303.299505 -22344.992345 -21106.954635 -23430.274211 
-21811.894459 -25295.163163 -20088.698795 -10415.256717 -11627.74501 -10630.449728 -11412.042283 -24396.609135 -22864.726341 
-24961.682492 -24069.648461 -27746.187295 -22366.714379 -22194.816659 -19903.039779 -20977.894993 -20133.858927 -22032.080709 
-23503.584217 -14596.273286 -26241.225866 -26409.597849 -25787.693721 -21588.339771 -15874.979704 -28510.898233 -17800.747082 
-119609.54369 -24114.728592 -23658.881577 -23943.090345 -11302.465078 -20941.888388 -26841.755079 -24375.357943 -23047.695882 
-21303.538725 -21465.894507 -24526.711379 -21685.570376 -18799.640066 -16777.001937 -23441.617452 -30469.392335 -22407.068455 
-22325.946187 -19244.065607 -20501.96638 -19707.413249 -11745.671082 -21406.734017 -15089.086804 -16343.852491 -15184.761731 
-15561.674677 -11686.740199 -20605.353587 -20803.00746 -21867.161496 -28061.710975 -24891.680025 -24000.786117 -22617.000749 
-23120.493901 -11287.233581 -18109.795042 -15388.470434 -10082.925371 -22839.255159 -18715.59258 -18240.354238 -19246.14789 
-33790.061786 -20577.773443 -12423.549052 -36694.154818 -16115.814155 -23143.188369 -23981.095035 -28700.950508 -12837.590213 
-25587.77516 -31953.225964 -28852.505155 -19032.444281 -21915.951203 -24471.830074 -18731.740672 -11305.55006 -34361.64607 
-15033.853891 -22786.001474 -19847.543814 -20770.913389 -18621.851568 -12370.493335 -18905.880442 -21990.827414 -21528.583241 
-28384.605969 -23205.527445 -24257.289569 -18835.959281 -22222.548785 -20678.233877 -19663.589552 -18736.596411 -16128.67417 
-19886.026565 -11662.781317 -12043.191834 -9046.5681018 -22123.159555 -16564.198317 -18605.75528 -16471.165227 -23814.385027 
-31342.126054 -19722.410377 -20460.929461 -24402.171334 -25836.767942 -29741.877741 -16977.72214 -28063.929043 -23613.128281 
-23550.498759 -21440.274394 -20613.745088 -22785.077788 -20171.076594 -20971.149364 -21388.666021 -19891.426992 -20859.566493 
-22914.795856 -26084.161112 -16997.226605 -17012.701336 -23666.559805 -22994.988997 -16902.411051 -18717.912628 -23428.132305 
-22896.926773 -20239.765421 -22702.582197 -18224.786685 -21873.385982 -21791.550397 -25701.608456 -23052.762655 -27164.983864 
-25115.406163 -20647.483702 -19473.041081 -15584.627915 -10034.09477 -7815.620064 -23694.320018 -22950.234585 -19983.20478 
-22569.58999 -21934.667238 -19823.971657 -16945.098877 -17671.877628 -21773.060025 -22146.14005 -12200.524488 -22185.051596 
-23056.133263 -22235.445849 -21901.411519 -10962.939127 -20751.193361 -23495.869565 -21291.138071 -21150.597029 -22648.509051 
-22416.42739 -14000.619307 -9753.1755591 -18919.112564 -21339.732196 -21825.177725 -21927.26739 -22251.759384 -21053.128714 
-22248.536669 -22555.434659 -25715.900319 -1698.2241213 -15872.399275 -13088.116888 -18888.872577 -21757.421934 -21706.381105 
-10557.869935 -15126.369157 -16839.102088 -17123.979674 -17140.188567 -18332.300308 -18641.146645 -20216.987831 -23054.353125 
-22578.916686 -24298.120946 -21762.852505 -23734.208046 -23347.889604 -20945.158307 -25607.776061 -22125.863854 -23960.731553 
-24223.407445 -10529.691241 -18002.133634 -26278.30412 -27002.459727 -24210.445865 -23934.353274 -21656.629242 -21843.056746 
-22251.100238 -19304.230811 -19582.644628 -18160.769076 -23223.233556 -21275.5789 -22101.598911 -24508.952829 -16181.858164 
-18659.916131 -22194.452616 -23979.096079 -23156.979281 -23440.291928 -22042.759709 -24964.574784 -21044.690192 -18972.108569 
-21436.636863 -16791.389898 -23643.755319 -18549.851035 -20833.923168 -18350.137332 -13179.807403 -11863.047645 -19170.3904 
-19197.050269 -17984.445263 -19432.65545 -20247.757795 -20035.616165 -19530.587547 -63826.447932 -28662.145594 -20500.748064 
-20437.461419 -23483.336565 -21855.603348 -21464.824432 -20722.840382 -21977.051676 -15130.867775 -15071.633938 -21836.245887 
-25373.52503 -23684.70893 -21725.51136 -22582.491966 -20017.6945 -17874.215259 -13006.985445 -20596.722628 -23951.63099 
-27436.082482 -10172.094846 -22395.023132 -20591.40219 -20953.589075 -23814.053189 -21955.219521 -23035.011935 -20897.098877 
-15396.238477 -12848.168078 -26245.807478 -21494.779768 -18131.543707 -22068.895762 -37937.16649 -26532.065805 -23420.716078 
-13398.154656 -11446.683944 -21175.926267 -21612.884373 -27946.384481 -32692.923539 -29770.442704 -20756.868072 -21926.652054 
-24103.377832 -16920.857651 -18432.262526 -18803.775003 -29502.010602 -19705.517129 -15000.296794 -16013.262497 -26701.798023 
-13926.161425 -17891.521806 -21858.884223 -22653.722858 -23413.49132 -19008.458905 -19099.749428 -17705.404447 -17683.392924 
-18927.422798 -18368.839483 -18621.532821 -17240.842268 -16973.4261 -16751.288328 -24776.121616 -26272.499841 -18131.006293 
-19608.322363 -19721.607497 -24596.49972 -20219.963002 -24479.281265 -22621.31306 -31620.52641 -29938.869661 -20482.903683 
-32380.974728 -23888.829741 -23923.890586 -30916.631038 -32737.988258 -22204.23041 -25648.102928 -18826.458101 -22897.987665 
-20644.376145 -25068.346707 -10218.069194 -12367.311333 -23268.366373 -21585.196503 -13954.189084 -11946.642666 -24100.996598 
-25278.381572 -21115.324358 -12219.33901 -19608.062845 -27806.945804 -21318.956484 -21061.25208 -23290.757497 -20178.508854 
-25025.241912 -20520.521849 -6225.096223 -13016.931082 -30342.741522 -22363.120931 -21373.311934 -22169.090245 -26600.360145 
-22095.429207 -21361.459884 -23069.267423 -20261.53006 -24392.500189 -19914.328269 -22037.09092 -21890.191768 -12050.448395 
-15445.21225 -16776.915197 -16148.22954 -15505.07946 -14113.279388 -21421.65628 -22682.597376 -15453.227317 -14691.173903 
-13393.673238 -10940.24055 -10286.773206 -16874.127497 -27143.413221 -11088.280142 -7766.5632739 -14751.891572 -21906.479977 
-18241.067068 -20189.420651 -20869.167571 -19740.354022 -19606.763238 3300.8445825 -18937.44227 -18821.635066 -26147.247367 
-22434.878275 -24333.744116 -23784.325599 -22896.065002 -21626.872425 -20395.232345 -24169.09305 -21171.468261 -21780.828759 
-33021.843073 -21549.545328 -19403.264796 -22176.158429 -27952.273649 -17327.557498 -23580.102862 -15043.985964 -26446.593737 
-21016.845083 -26975.069129 -27515.363309 -21688.714145 -21362.257233 -23662.090446 -19282.982793 -19006.126954 -29559.480722 
-24034.863344 -18350.254526 -18048.183912 -8677.3738589 -13050.338883 -17783.043467 -18999.562781 -25623.5786 -24075.069426 
-55472.569104 -35309.670744 -14877.0444 -16339.903699 -20767.91613 -21354.440611 -16477.477417 -15965.243371 -20853.071807 
-16551.560211 -16472.949248 -16657.270793 -26375.854233 -26172.646595 -21553.518862 -14070.848055 -23182.115558 -15357.496349 
-14174.010627 -24431.94999 -27074.137857 -25071.624996 -11042.254073 -20759.238979 -20319.416024 -20956.97092 -11690.264993 
-13033.227781 -19487.213571 -17801.797107 -21636.278054 -21840.304415 -20941.281908 -22724.98153 -24944.714836 -15052.865047 
-17116.172216 -18864.289109 -19676.027702 -19838.339653 -23968.026613 -23543.848476 -20478.990607 -24087.617535 -14322.642244 
-17328.754107 -23190.844744 -18853.228742 -23047.667272 -22202.557104 -19009.418904 -18195.673979 -13264.843843 -19228.994744 
-21226.45449 -28888.024625 -22529.675218 -24244.1197 -18130.629585 -23280.085899 -26044.471085 -11773.749537 -28609.541064 
-12176.039101 -23555.551949 -36489.48001 -32930.08361 -33359.404454 -21826.222959 -24036.410424 -14408.04708 -15486.623494 
-16488.933934 -21471.400127 -10922.554887 -18997.062143 -18574.35528 -31845.005214 -20775.935447 -16512.015559 -12326.108351 
-28275.255156 -21780.766459 -21560.541625 -17588.9336 -22724.069742 -22979.780111 -22015.309557 -26120.345908 -15805.777017 
-21202.957007 -29187.38964 -16097.681078 -21816.342183 -16920.565146 -23713.027983 -25099.130491 -25141.400951 -17670.20512 
-24239.274621 -22599.693081 -23606.18103 -22625.702447 -21521.514889 -21727.745996 -21293.101933 -22744.256004 -21346.577091 
-21818.104383 -4280.0302948 -14565.420906 -23258.801717 -14651.380812 -27709.259372 -17110.30894 -4332.8921882 -15031.108915 
-15721.937732 -18688.049867 -14312.495876 -24035.826092 -16956.205332 -20476.040162 -19906.768122 -26783.111583 -15476.640959 
-16440.055083 -20413.901655 -20479.603161 -40768.604385 -22723.395955 -21878.248928 -23662.43756 -25496.230897 -19499.626531 
-22821.724152 -21497.355397 -22014.296339 -21775.630804 -6113.2030753 -20947.287752 -23020.279653 -2377.3216185 -22412.575941 
-15660.923304 -25026.618553 -20521.536776 -23888.181863 -20421.689561 -27532.931421 -9279.5402753 -25808.10474 -12329.475845 
-9621.099892 -19313.854849 -20131.468669 -20668.71859 -20303.02247 -16599.795033 -15246.730124 -12548.072857 -11316.78806 
-8402.4380978 -18034.62111 4180.2302567 -23366.025898 -23469.484277 -22979.343881 -22541.231662 -23384.506666 -27590.794264 
-25876.236126 -22268.754917 -21242.872781 -19091.22607 -19952.971773 -22467.040932 -17274.098859 -21263.20757 -10972.147882 
-12095.319012 -24512.061032 -7040.0511161 -19283.635527 -11070.927861 -10297.051223 -13171.721533 -9121.0637703 -10834.28725 
-33366.349834 -27361.201577 -25329.126368 -16668.311707 -17294.660555 -16817.39732 -15713.463906 -24058.435326 -23335.454061 
-23202.599216 -20610.393889 -17637.486597 -22419.370497 -25014.064857 -8148.8442321 -20649.795907 -24015.991327 -14081.808269 
-12061.007436 -27746.474522 -27986.828275 -26745.556554 -24481.620112 -22508.49173 -16147.015527 -25677.360535 -21542.356607 
-21009.38958 -21954.126217 -21267.604812 -27021.172847 -23190.870662 -25413.978809 -22543.405658 -25022.043972 -21196.204652 
-22825.419635 -22840.176501 -19692.17345 77751.057993 -32818.290096 -19764.718001 -25577.126577 -28107.027218 -24569.58559 
-23931.664824 -22171.819834 -25573.486342 -26122.593175 -17552.50502 -21415.113335 -30269.656495 -27722.243694 -10217.054961 
-8735.1747693 -23686.065043 -27296.877378 -20120.802433 -26198.514708 -20100.916685 -21386.157294 -32497.982971 -22162.032812 
-25071.791176 -23263.563973 -21491.799091 -22118.506497 -25749.06337 -20203.008192 -17774.046754 -22291.006623 -25988.377909 
-21781.513248 -28807.027116 -22927.508071 -22733.714263 -22545.984869 -18203.665105 -17823.071892 -19580.032284 -22766.563261 
-18953.667725 -24114.658661 -12726.606887 -17288.330741 -23416.33608 -21452.964792 -23781.565023 -23076.506382 -23860.550114 
-19925.461281 -17376.644003 -16035.857083 -13802.808508 -16559.409897 -25355.245527 -17511.645718 -17360.289577 -21607.85151 
-22530.380724 -23048.939389 -16440.267257 -17019.533017 -17327.296849 -18015.05847 -17203.266381 -22439.880165 -23025.585326 
-23922.375948 -21275.630956 -30304.604828 -10951.680618 -18621.905104 -15892.373171 -18369.180015 -17238.431729 -20634.913337 
-28249.492007 -23020.379344 -13786.018902 -21585.190864 -17828.06158 -13791.13789 -21108.748791 -23413.403774 -24331.107318 
-23016.277704 -25776.093954 -22915.45376 -21809.05985 -22212.33599 -23329.670222 -29664.795699 -24424.573207 -26280.726161 
-24656.67382 -13664.1136 -12511.913918 -13116.030203 -30045.568113 -25823.343257 -10336.654066 -20390.028357 -12622.912986 
-13238.676629 -17693.157719 -19115.000083 -24744.223763 -4419.9232926 -23023.921373 -23444.750687 -12046.339023 -11118.444263 
-10134.426314 -14711.95772 -23226.820067 -17642.458774 -35520.42736 -31147.512269 -24903.537759 -25803.792731 -23214.857798 
-15411.091808 -21200.949058 -17004.971141 -16196.274391 -54707.968184 -20311.631111 -17914.823041 -9340.3573829 -31583.361906 
-22583.487724 -22071.567625 -24252.531742 -21952.729188 -20309.307129 -18466.32424 -18993.986221 -19347.339838 -20255.685253 
-22965.187924 -22555.400714 -23362.478898 -21517.910433 -23204.284295 -17332.540109 -24666.904922 -11262.300153 -27998.350826 
-11481.395955 -31172.785782 -25957.04539 -18401.95383 -19884.820931 -24217.381154 -24144.036645 -10714.086892 -21679.384345 
-19291.732178 -22429.524651 -23932.135104 -9420.226191 -21714.277987 -22456.346409 -21925.012414 -21461.078533 -22669.959594 
-21110.874935 -20884.551137 -16765.138306 -20382.271891 -13029.668679 -22722.703391 -21667.574427 -21772.548928 -21356.339194 
-12287.065216 -12450.427171 -24418.560218 -20987.582315 -23332.035647 -20319.972133 -19399.699234 -21102.503515 -12708.737549 
-22590.106806 -23942.473202 -19595.277133 -15706.976019 -13867.128209 -20547.660685 -21450.382446 -13660.182235 -22731.089814 
-28809.859579 -14641.58622 -21810.422406 -9858.7611335 -28289.554301 -23329.139384 -20387.861572 -22831.127497 -24296.191877 
-15709.711557 -11523.327015 -26640.612825 -20475.362721 -22923.489623 -11639.55434 -16408.270055 -20645.439569 -21211.448981 
-12867.809052 -20955.388159 -7012.8456323 -16965.275539 -13235.159133 -29771.098382 -23898.259704 -22236.746351 
Stress%20xy%20component 1 13895 double
42.116761321 -21.795736091 26.197261105 21.413248355 -1285.1752754 -1.1882206474 1287.1681853 1.1472729782 13.290202242 
-24.222473419 244.16235219 23.438723552 -11.533943715 19.521497202 184.6677221 -142.91892054 1.6793913637 -0.79508961294 
0.94196476826 3.1298304594 -5.8649653601 2.9896444136 -1.2705494209e-15 -1.2546675531e-14 -7.0409613741e-15 1.7364175419e-14 -1.4664257899e-14 
8.0468129989e-15 -1.863472484e-14 -170.29874719 -96.378020591 -400.93759644 -214.75169078 -199.88789866 -102.57146457 50.898123485 
-84.611934621 -133.9590644 -358.59195632 -170.70135317 -211.70382924 -13.168022051 1.7700912715 1.2605245599 -3.1826296122 
1.1900177153 5.4786819692 -11.295665235 1.3592231825e-14 -7.7291756437e-15 -6.5750932531e-14 1.4558378781e-13 1.7681812774e-14 3.6845933206e-14 
-4.2986922073e-14 -2.7131524092e-15 -1.7789346254e-14 -3.652829585e-15 -9.6614695546e-16 -3.9704669403e-15 -1.2867621609e-14 -7.3056591701e-15 -4.4469229731e-15 
6.8821426964e-16 -4.4469229731e-15 -1.4320150765e-14 -2.1175823681e-16 -7.1402230476e-15 2.2166862131 12.473790049 33.014277291 -14.84274349 
1042.6592017 -1312.2894036 -1.2248283377 3.3333765038 -3.3365907079 13.503891395 -708.77003415 -91.465288108 747.12713131 
-1332.4554495 -681.72331134 -2454.6117197 157.60028796 847.88607734 1042.0619361 -2156.9322526 -647.78834153 -1629.4568457 
-1617.9231915 252.92924804 1234.6865264 1500.881672 -1.2697502187 1.2271587733 -7.3320473872 25.783719422 -1025.1904794 
2913.3704938 1.2313964497 -2.2344309951 10.254466298 15.440794602 -384.63267334 1654.7376001 -450.82542205 0.52441285716 
-0.12946767878 0.22199035676 -0.20493126442 0.22594507893 -0.56958033272 -8.9997250646e-15 3.3325452519e-14 2.9275576239e-14 1.5246593051e-14 
2.1175823681e-16 -3.5257746429e-14 -4.8174998875e-15 -1.7887362945 -1.004551122 -0.90940223663 -1.2320044884 -0.82824053592 -2.9988887432 
9.634999775e-15 1.0402623383e-14 1.3168715352e-14 -1.3473117817e-14 -3.343546754e-14 2.5066881283e-14 -1.5564230406e-14 -113.29597406 -20.101221202 
37.502313475 1617.8084351 4581.2545276 7191.6991622 -323.14777578 19.034882567 -9.0628128039 422.85034367 3132.4800675 
-518.47061239 4503.4175319 1.6105332691 -1.9395302931 1.6257611011 0.94184666411 -0.52759624563 3.7383112443 1.2387856854e-14 
-1.2493735972e-14 -2.3306640939e-14 -5.119255375e-14 -9.7620547171e-14 -9.5291206566e-15 -1.4240741426e-14 203.55887844 -49.09299887 -69.322037738 
-1421.4434417 -3856.8931979 -7115.6542357 375.30209497 -4.1534360599 -10.038582588 -471.14645965 -3950.8104845 -52.346266208 
-4251.9671481 -0.33173334635 -0.019981047096 -1.4472565364 -1.4388249475 8.3795615467 -1.5128475476 2.3018120342e-13 -1.4215330437e-12 
-3.785178483e-13 -3.865646613e-13 -9.1479558303e-13 -2.6757770804e-12 -7.4759127925e-12 22.131938062 52.561363324 -603.31016198 416.88999322 
327.6396491 -57.131807365 81.923848603 25.818517453 -301.72115396 332.08518696 -271.39866689 349.21972262 653.59153964 
0.52507638585 -1.4696355177 -2.3209085269 2.0623522558 -0.14527705189 18.454666905 1.1889166206e-12 1.3780167261e-13 1.1649350003e-12 
4.8378022085e-12 6.8832014876e-13 1.4098016374e-11 5.6175225062e-12 1.6517142471e-14 2.873029878e-13 8.6344421061e-14 -17.037080419 -9.8732277914e-14 
3.4124839863e-13 1.0736142606e-13 -1.8475906162e-13 8.2246899178e-13 -4.8704394467e-13 1.8105329248e-13 1.1498472259e-13 -3.4940109074e-15 -0.40949972311 
-0.75287530585 1.6571277514 -0.47904928212 1.1913419476 1.294066207 3.2944104531 -1.6193895845 2.3992634612 -0.61619285599 
0.95073025192 -7.6762360845e-15 0.099331535179 -2.7634449904e-14 4.7566193944e-14 -5.8815850275e-14 9.5608843921e-14 -2.4557338025e-14 4.6411449809e-14 
2.5543337316e-14 -1.3679582098e-13 3.3021050053e-14 6.9456701675e-14 1.1002163891e-13 -2.130684909e-13 1.779033887e-13 -1.8957656151e-13 492.92104243 
1008.1164466 -697.12960087 1372.7077147 173.06802682 43.966405324 -22.801505488 -1.4596423714 537.26521266 -18.747845525 
115.70121449 268.02020732 -569.05600435 -270.91994683 26.646212616 -356.77584681 -323.24355288 392.06924877 40.424420348 
-7.8891738308 60.179540653 -561.48773552 430.23501471 -110.0776522 255.56147607 249.97530511 -203.21576317 -1.7423236594 
-1.081942185 0.55576022166 -0.317199675 -0.96629071179 -1.592414609 -2.1420558486 -3.2336062261 -2.3131113953 -1.1577933432 
-1.0407188939 -4.9498487855e-15 4.1965536029 1.7076812874e-13 -9.8864626812e-14 1.0164395367e-14 8.206293421e-14 3.0307897644e-15 2.8852059766e-14 
-4.400931731e-14 4.2828103396e-14 -7.2659545007e-15 1.0775847276e-13 1.8043125265e-13 4.8624985128e-14 -2.1043474783e-14 6.6915602833e-14 1299.3084357 
-928.14130151 2138.2902878 -236.26225507 -106.16702535 309.98396282 -399.46948446 -51.970929306 -278.91319534 -283.79080211 
-26.261504684 31.754927322 -261.61201821 1916.8066568 650.9680901 447.88007567 14.862258474 154.20383331 207.76390684 
-135.55756013 -192.8007486 -207.51820664 252.90082986 -425.79333562 100.95055232 -3.9921042967 -501.33486644 -671.89793008 
-650.99870158 -391.09196225 203.4661155 35.483730516 -69.693415717 -233.41650824 -18.038193674 164.29242304 -66.296650731 
2.0595863042 -5.2318175833e-10 -8.5510093608e-11 -58.981362566 51.213427625 -37.469568707 7.247898631 -33.919231597 35.760889888 
-26.150375801 -13.005759568 4.8281737915 -19.087466384 0.46300231259 19.89109938 -5.2968859772 -112.31715438 237.49672284 
33.056047786 462.87088534 -38.828453504 14.037246996 115.85483058 4.2585057236 -21.798490353 91.198655327 2.02301908 
1.4956230156e-10 -8.7955901243e-11 -0.32768900807 6.9685528033 10.040902446 -17.824117181 -17.781908795 23.983971193 -1.3984513959e-12 
-4.5096034112e-12 -2.8255430934e-12 5.0169761466e-12 -5.8885730493e-12 -3.0637181702e-12 5.846636722 321.36719615 400.54245532 -639.62058807 
-793.22515082 -142.13697461 -18.596286904 927.53412811 345.24428517 -38.10677702 -1422.15657 -116.79233719 -52.930169612 
-628.46429248 -8.6910857651 4.0435779646 4.0433240132 -6.8861607171 15.016860786 7.9551904722 1.9651164376e-13 2.2788150896e-11 
9.6244118632e-13 9.9505195479e-13 1.6875119771e-11 8.1213518983e-12 2.6038449622 47.533226339 -5.0475393313 -424.18725682 378.37032411 
-198.26093323 228.46514429 -234.40825082 144.11035331 -423.59741222 -557.36567153 146.32785493 -90.997397613 210.88761358 
90.765476514 -116.42087917 108.7286147 364.91667411 -47.21001677 -23.255621231 165.5014532 -93.399477638 26.344573306 
-749.4143375 106.82984378 -98.394623971 -134.9675934 -396.69384783 -57.75581323 -233.74472982 813.18115616 50.075511914 
465.81215929 100.01321876 76.58289948 -4.7200552411 160.84146544 41.535556156 450.10476635 270.69291566 -588.02782108 
-4.8789261778 -119.45214723 11.97909377 -1.687013611 187.17001014 446.51598897 -266.29298659 263.06091699 -109.65347956 
275.12721276 425.46325634 503.57011616 137.77926372 275.43760459 -67.407521071 -26.292189903 -87.90708265 -30.715752622 
-101.19429366 -25.809135942 -51.700147609 -152.13549711 -37.73974083 -13.859829538 -100.53518739 -16.387634553 -140.71322953 
-27.204306556 -14.252434546 -22.070550803 -178.31286443 -15.823106732 -60.46013356 -112.41450711 -57.797756288 -59.527946705 
-82.925999266 -58.013709795 -117.74199127 -67.488804027 -38.159758574 -116.97469193 -92.892154975 -18.622787337 -31.300695975 
-13.288807428 -155.59345947 -26.893946452 -60.032111277 -43.438849178 -126.11996039 -11.018536088 -11.233388691 -3.9790239625 
-168.37114988 -54.552298037 -2.5993361278 -95.884809261 -133.73024483 -11.789088883 -10.158823559 10.527752244 -86.744569596 
85.96462918 -21.921804133 -35.05104133 -4.3848315379 -11.403482165 2.9090948365 -115.71886241 -102.03439627 -46.773829949 
-0.85928145596 5.6576569398 -1.9572978266 -6.5069635145 1.0568973764 -14.189202832 -17.33532941 -10.75606698 -12.91002533 
-14.963706391 -15.409123211 -34.116605773 -52.593126119 -26.546187322 -29.941971332 -20.66677178 -20.66677178 -55.596380206 
-37.599451374 -6.8562813966 -5.2307788433 -9.1931528722 -5.6553300285 -9.1817377149 -8.0728311442 -4.1382794581 -12.189443764 
-24.937829838 -5.3721768702 -5.3721768702 -6.5966538068 4.3128370462 -6.1665880739 -19.059761269 -2.8325390124 -143.13364677 
-204.4911747 -127.96678664 -282.63071725 -138.69298084 -184.41598578 -197.70706087 -360.0825408 -131.88014093 -174.30286223 
-119.12851129 -160.22120838 -146.74996575 -165.14681096 -111.66058261 -135.22110122 -7.1583121048 -2.4682465839 -9.973853586 
-9.3641518544 -9.3641518544 -14.407807446 -7.6571363267 -1.8654397651 -18.816557318 -34.125819842 -22.141280222 -42.715426083 
-39.045240335 -50.748502238 -74.035085534 -87.608586503 -61.352092253 -64.104327793 -73.410702682 -53.777597531 -53.172635909 
-82.965164167 -77.668443384 -95.715473314 -100.74006855 -69.892018915 -45.889279037 -85.055317777 -81.554052621 -94.028514113 
-124.4535457 -108.00689762 -18.842674356 -16.938460003 -20.440410536 -16.838615594 -27.231266289 -37.756867041 -53.817021611 
-54.955741891 -23.301333488 -33.754933725 -23.017618941 -49.41078458 -42.366582177 -101.31598799 -76.084912636 -131.26623924 
-87.809659688 -78.390064679 -142.33001847 -146.06096822 -112.52389413 -70.722923804 -85.791069648 -63.271188624 -70.503156588 
-100.32433973 -22.628652121 -23.659926626 -15.542630631 -9.7835122466 -14.104089225 -29.63081415 -42.338204268 -32.778583739 
-17.961049054 -32.052196227 -35.383406917 -43.079559435 -49.969263986 -132.33045343 -123.49682855 -115.11405246 -109.7927142 
-146.32534266 -95.160333817 -117.91802301 -113.26983295 -98.527160165 -66.573723273 -98.632936522 -123.44012635 -124.23635583 
-21.574735774 -25.982368845 -28.447997911 -25.466750256 -21.600648171 -40.687127362 -45.503233868 -61.81381818 -42.564160073 
-69.970297246 -26.811172969 -74.729856934 -180.27869488 -124.5265482 -159.06917945 -127.56874386 -137.8052262 -127.52032208 
-26.50988242 -25.262660812 -33.714800258 -47.927635399 -71.955742209 -47.128390802 -3.3252806777 -88.475207208 -10.818857508 
-104.82498748 -127.74720536 -52.130673819 625.29740582 -52.826999738 -286.74030593 -56.883717323 -1.0873210727 -100.4387739 
913.57536084 -30.396499722 -1557.1834491 -21.078357407 -1417.6869339 -60.413578379 -37.959499385 -32.009069406 1974.7791092 
-37.187946471 -343.03876166 -195.06285159 -98.731135706 -76.942899192 -16.339590508 -128.04058911 17.013358427 -79.558984462 
-91.311725622 273.92070673 -219.93054665 -30.722523204 -31.385474774 -97.21303933 3338.3081166 -62.332330282 434.18523202 
-65.982084929 -171.67570576 -19.580521724 -22.729695786 -30.196924976 -1166.6470214 -21.30780659 -1064.8713093 -1013.0378843 
-839.49099236 -15.053145117 -7.4193002871 -1295.3001962 58.582404709 -1856.3613808 -1000.6887518 -929.24599435 -8.0596923504 
-8.6295345338 -5.6972906395 2360.1991316 -344.24103992 1397.1288566 -1.7973846262 -3.5471844906 -3.8927705725 -11.967774095 
-10.460417865 -19.081627151 -18.773494645 -18.934734288 -27.524159971 -14.11257962 -13.244931408 -34.967028299 -18.355857273 
-18.962203189 -33.595827773 -10.4794632 -9.5609889339 -29.470150277 -16.026690452 -7.7539266362 -8.4597157761 -19.208919034 
-18.872440637 -12.882836877 -27.697148784 -3.7181460201 -18.515602344 -41.126796622 -427.85750591 -3.564467335 -88.467964406 
2308.0636942 -1357.1706926 -343.51503262 -1506.8510113 -982.54000199 -536.74441347 -253.19862493 -70.588893135 -1584.8354481 
-1808.3916942 -852.2425598 827.88420507 1587.7924162 -523.92058182 -956.77243898 1479.5177547 65.398363036 652.40472047 
2946.6046905 319.26822814 -13.61051716 -15.194021707 -14.345755465 -31.329240429 -35.709067149 -55.401908645 -34.316423078 
-55.22147024 -68.724895404 36.745696705 -472.95146655 -69.071712379 1117.8043129 -1312.6527268 -1153.2722583 -1470.1642522 
-91.593991577 -75.255770002 -96.781780101 -80.364453728 -105.52823176 -110.33142939 2.4867537386 41.830640096 127.17070005 
-112.0075787 -125.01252731 -194.46461353 -202.86726522 484.90186156 -100.48916204 -201.56298097 -25.757192129 -42.330614625 
-44.463224996 -44.467476872 -28.823840703 -61.69162219 -76.429714286 -55.347405157 -47.336130086 -54.078952752 -52.604488485 
-58.817170917 -72.466197578 -3656.2155122 2441.2360163 1047.2532106 -3156.1576215 756.13505518 -1123.4418547 2005.6548739 
4454.1120261 -167.62309199 972.10270559 1184.0985322 -104.2228477 137.84416515 -22.393067644 -34.349105772 -36.802172562 
-37.502295157 -23.506773312 -46.362643672 -58.766566719 -42.72000305 -75.399743452 -61.61913332 -44.732488502 -88.222441924 
-92.33205735 -280.06740201 -1090.8772883 -355.65390034 -2697.740724 -197.43765268 729.36255341 184.54377423 920.3475242 
-219.44158626 -148.98342863 -102.65419303 -189.2515889 -77.55251061 -46.889288902 -46.605302299 -57.152660938 -76.997150301 
-47.867164777 -68.192829793 -33.51081576 -40.364577194 -67.012381155 -139.88046068 178.54160355 -38.93476753 -54.949569102 
-36.640377708 -68.456643286 -162.52915072 -133.32352464 -123.81195653 -461.84583396 -1874.6016452 6044.9519416 3245.049853 
323.67937455 602.79640574 -23.212555117 -2191.1425588 -15.047108902 -760.17232058 13.238978117 2.6766050408 -0.23677694809 
-12.036910276 -251.59696636 -1.3234598658 0.27587331076 -40.001712107 -29.105124338 2.2953921498 1.244230574 -29.371196633 
3591.6896249 4.9196918488 0.01314114399 -66.698189068 1.8287300431 8.613225206 2.3053341265 -226.2261339 1048.1674496 
-1.6350488688 -2.0939086828 20.517806995 12.08726175 0.30353934465 6.1633961912 -1.3011020427 31.748057048 -2.9724588144 
3.8921203242 -9.9203211258 60.396586052 -5.5733605612 -1.0138814722 -18.034492933 -56.425679424 -28.172871532 0.084285323801 
-7.5695250198 3.4485245789 -1.6345966915 -2.2338349465 931.39069552 1200.2061115 -13.884790483 39.550296474 1.353907328 
2140.5078707 56.958702979 54.341916352 -47.471643065 -25.775964093 -4.7486905452 -17.210757092 2885.1685066 -333.8839002 
2481.9912536 -0.4782713369 -4.6236622221 -1.7828817712 -2.3805360686 1.3481454615 -15.106758241 -3.4634868575 4.4016311298 
-0.98357865463 2.8227560613 2.030361729 9.1647625425 7.6163093988 23.23178157 -4.3282178104 1.65877836 4.4613813025 
34.120488052 19.87713509 3.3907535386 -3.6767520568 -16.869130152 -0.76303389167 -4.9855956678 3.1882905684 1.0053337213 
-2.4768679151 6.5596514107 0.67715755974 -0.33044398354 4.2317124063 -3.6811298589 -5.7295856101 1.1059919847 0.92966177569 
-23.950096375 -67.922366443 97.801324189 -45.985751152 -63.386827734 -36.277755532 84.533269155 825.5884045 -101.70792368 
1896.9781014 5921.4818053 47.935691208 3238.7288843 2474.1765063 4339.7896356 -955.89038252 11.147528171 4.1455340303 
8.8384666279 21.138938965 14.906357798 3.9664929913 84.735811999 80.881872835 10.463744312 -1128.6142779 -70.420529073 
-58.122201658 -1262.9057373 1196.3292559 251.28726622 6407.1218353 -2.1718781422 4.7697051477 8.0888404805 9.3799312174 
3.0252135263 5.7571989454 -1.0082905309 0.23194652099 10.21747135 33.500233725 12.171743617 15.833830055 25.716857594 
20.620734339 -14.713943939 -10.715068572 0.62638162845 -0.62862109709 -4.6285407305 -1.11138651 9.2011417396 7.2573896421 
-0.10032404538 -2.355950569 -2.8126790389 -3.9064500018 -0.15072117424 -3.9197343384 -8.2246055919 1.4121591628 1.4983179115 
-3.5250065387 0.43647128975 0.10970684242 0.19505934585 4.7963884129 2.7317837858 -0.13891231892 -2.7827720337 3.2063846958 
-0.2507982489 -2.6932321075 -11.498282086 -10.849549848 -25.898299096 -11.121088573 8.7157668672 -4.9909783589 -3.8854196536 
-21.772661376 -15.399132909 -3.1074464503 -2.3369912705 6.9819847095 -5.8139197581 1797.873145 1951.1434291 1290.8150308 
-611.38919953 4903.2375129 -472.36976344 -177.9972974 -118.70538111 176.75198223 -14.286797107 -9.9502778988 -143.09545618 
2.0923103301 2.5470007704 0.79848424948 -5.9569445854 -4.0092180167 1.4845837287 -5.3706167095 8.1867269959 -6.3910671385 
4.948837752 1.0397384784 -0.11183940823 -3.7157962864 -31.206595095 -10.578551634 -40.671636558 -97.426367371 23.608453984 
-39.614031396 -1.1720671816 -6.8606644911 -37.907181126 -149.98351445 -41.956934175 9.1591016757 -0.66286335759 3.2913635696 
-21.24410504 3446.5066282 -0.28868979771 -0.49833520042 1.0327978208 13.886954302 114.34981856 -3.6783855923 2.1982976075 
5.1430729419 -25.024091751 5.4747870763 -3.6119771649 -14.092037703 -567.72336529 -3.4225424451 -0.27661061572 -2.0242574168 
3.0589241317 4.9479874762 4.7930176011 58.132627628 -960.6570172 -0.20862185284 0.95946439475 -7.6700024566 0.67963478998 
1.2500824046 -3.6681135244 9.0257575281 -2.952159708 -3.0334187593 1.508779837 -84.666726965 4.1267972516 2.4295726313 
-4.7589061037 5.0140158535 -2.0761098195 4.4176212405 0.81983508809 1.3249290781 1.0186901953 2.2893664166 -1198.1863973 
-7.0782723435 -126.12778446 5.7260493887 -3.2821218305 -47.466400006 -1804.3946714 51.548929446 -23.40790281 7.0803149945 
22.391236151 12.353972469 0.98968032014 438.39009507 1087.7394213 -2576.7075821 1.6510217285 -1.9516500694 -1.5363712094 
2.5011476357 -5.4809020321 5.6173185392 2.100896186 -0.47376755791 2.3891818834 0.00093031367158 -1.6247607125 -6.4155214833 
1.5802285353 2.6847332798 -2.6010837376 3.4360794211 1.5862280368 5.3436973443 -5.4518025833 -1.5535712258 3.5211979685 
-1.2516835238 2.0229913026 -0.85181090445 0.45231726176 -2.3004289536 -0.94374303892 2.4602340808 8.8699419898 -279.85706366 
-12.435716198 -495.4201349 3937.6971024 51.746058399 -2453.345037 21.825278573 49.244272757 -71.982142334 -1.2862277948 
-18.528304799 12.031023783 -1006.657329 -237.5669312 11.671116677 -4724.3257787 -2074.4772203 -413.37469079 -2434.3565401 
-5746.7902219 -3087.882799 -55.637785948 3.2645027214 4.8256840065 3.9867055826 -4.191481826 1.5766309162 1.9074993196 
-8.3044743313 -2.7780302432 2.5456307891 -5.7372634759 3.0675614002 -3.771858729 -4.777494266 3.484107096 -11.868859022 
-2.1547068704 -0.19921132404 -1.5397486383 -1.3566849476 4.3424454244 -2.6707975813 -0.35909043599 5.6660570631 0.097171597444 
6.3161671503 -10.85847487 -9.572802118 1.9865706531 3.5714653159 1.4175489241 0.73596592474 -1.9709292531 7.7938859015 
4.0273383294 2.2706989907 1.7120758616 4.3473312361 -1.8094543734 -5.4920832148 -4.9203472299 -2.3603092956 -0.41954506282 
3.8703687411 -3.8872248955 2.0369953267 0.35161350224 -0.23572652106 3.1727714066 -0.49464823495 4.1240974603 0.96670572454 
2.6978338775 -0.42513297246 0.6065099126 -3.0960509473 4.051411851 -2.928225545 -1.557820625 -20.632678492 -0.47293087525 
5.1251934126 -17.378314729 -32.708768957 -6.1929539521 13.553861081 -8.2010313154 4.0643273631 12.010131287 3.8324433466 
3.7111718291 2.9320601571 98.254110087 -744.83920634 -51.855584945 -406.88730265 -7.0857011962 -18.830695 27.378717756 
25.552143637 37.443444288 26.399852233 136.08248626 6.1767736578 1.1927777707 -3.4410242759 -3.4094336403 -4.2155707751 
1.4923980886 -4.2401306748 -2.7605520214 7.6394306055 0.50248374678 6.9978991204 -2.3156888187 14.340179437 4.1089983984 
6.5237140733 2.0289161841 3.1053981056 -12.899440266 -2.5152480017 -1.9957239386 17.071494557 -10.113155074 -3.5631016603 
5.6000682227 1.6033018976 -4.0028296384 2.3588954358 -4.6287898503 1.6802128009 -1337.5539426 0.26036919722 2.3727813065 
0.60360807636 3.2808712656 -3.0170873966 -5.7947543362 1.6149649377 1.2625025193 -0.52277626192 3.4465773376 -1.098430931 
6.0407639208 1.7711818051 0.91604404091 2.1158014276 -0.58010883162 0.48550682033 -0.87409343376 -1.937820064 0.83946956409 
4.5651994421 1.2681691077 -1.0600077356 5.8447580623 4.6043676108 3.7902937014 -0.27630811066 -0.07730097078 -0.36914026377 
-1.0632797197 -1.8746218004 0.3957283938 -1.2301127897 -0.57408977212 -1.2791415432 -3.8910576014e-15 8.4712854725 -17.546335465 
4.4281238005 2.9274918316 0.040814893288 0.73886950999 5.862584681 -3.0345294008 -1.5039866794 4.2030633679 2.5717557581 
-4.6186203956 1.3335370813 0.67584709623 -11.900865914 -1.6276437411 1.7121762317 9.8055875161 3.6881273117 -2.7552267953 
-1.397604363e-14 -1.0667321179e-14 3.6849084995 -4.6206309017e-14 0.22022108336 -5.5586537164e-15 2.4749243928e-15 -2.9734984064 1.9620433211 
-1.5414839753 -1.3484297899 1.6795789517 -0.89783099377 1.0958488755e-14 -4.1405352742e-14 -1.6563464586e-14 -3.9350299458 1.8299951355 
-1.0200004623 4.5652618405 -0.43725865286 -11.280065087 7.4115382885e-16 1.2076836943e-15 0.12725222677 -9.6631239158e-15 3.3819287827 
-2.461689503e-15 7.6232965253e-15 -2.4153147043 -2.5500737853 -0.233644305 5.7986451374 1.0084986028e-14 1.8131799027e-14 -3.9253373608 
1.665275457 0.60180537376 0.54651040255 0.76781546453 2.1387581918e-14 1.2917252446e-14 -1.4974238933 1.4552873777 2.9434394917e-14 
1.871444479 -0.91176605933 1.7797121947 -1.9022118745 1.392310407e-14 1.8237678146e-14 1.6212566927 1.132906567e-14 5.1549895774e-14 
0.48249256558 -4.7539724165e-14 -4.9961708998e-15 -0.79536189184 4.9209094055 1.7205356741e-16 -2.2094771242 -0.052921615467 -9.9391954453e-15 
-1.343025083 -1.5125809671 8.4306248031e-15 -1.5468197937 0.70858419459 -4.5743087874e-15 -1.7549463876e-14 2.2904593438 -2.9714118096 
1.1249656331e-14 -1.4038775747 -3.5473751533 3.4893977436 -6.0351097492e-15 1.8122321845 -1.7165135793 6.4799787756 14.772822229 
-1.794651057e-14 1.3892756188 -1.0508502502e-14 -2.0789101335 5.6115932756e-15 -29.13406545 1.7137285321 -1.036112757 2.9461107953 
1.5881867761e-14 -9.5291206566e-15 -0.77123489619 1.8012685019e-14 1.6993598504e-14 7.64314886e-15 -4.8307347773e-15 1.7746316996 6.3527471044e-15 
-1.3023131564e-14 6.0861845303 -1.0363796082 -1.8128771705 6.4750817853 2.2419903323e-14 -7.7038847731 -0.73194038507 -3.0612300109e-14 
1.4690727679e-14 1.262608487e-14 1.9428818228e-14 -6.5512704514e-15 6.3409545859 1.5034834814e-14 3.785178483e-15 5.5589292419 6.8610860305 
0.019860197461 -1.3234889801e-15 1.4258877044 -1.0208756906 -5.1880768019e-15 -2.0699367649e-14 -3.1763735522e-15 -8.8938459462e-15 1.0963094039 
-0.29774039304 -4.5683089624 0.32997214584 5.5586537164e-15 -5.2939559203e-16 -2.975402795 1.7345150265e-14 -6.2136668798 1.6350051988e-14 
-5.0821976835e-15 15.765520525 -1.1117307433e-14 -7.264311652 -2.3778544362 -2.1387581918e-14 1.6761104046 -9.8599929016e-15 10.655535647 
-5.8398338212 -1.6803274189 1.1892586723 4.9908769439e-14 1.4127721828 -2.1149353902e-14 -1.4095157638e-14 -3.9711505771 18.164455804 
-7.9763271606 -1.6411263353e-15 2.9646153154e-14 1.9693516024e-14 -2.4537892165 -2.2075796188e-14 -2.4471311242e-14 0.26406801018 15.340493898 
-4.3321230113 1.3578996936e-14 5.0716565787 -655.72548905 -219.62766231 -199.11180231 -2425.6743383 -218.73899427 -224.82327001 
-215.26054957 -4024.6561877 -374.42892984 -104.53765551 -120.21499218 -3126.1718581 3315.8852651 -106.10264419 3.2699041832 
439.02443594 -142.66062386 -31.008204093 -187.78730371 757.92543031 -1874.9175705 -473.50038301 -333.41200432 -742.3233225 
-618.37012948 -270.55835861 -939.91974318 -378.30612344 -1447.1403731 59.503957246 -5325.6006265 -159.44494283 70.971600071 
-150.7301053 -154.01084864 1199.3970419 -452.06896381 2271.9073356 -134.69098941 -33.419915064 -57.537261475 -60.690526389 
-836.21230673 -1567.8002963 3412.172004 -157.78993998 -1484.7810263 -84.767011799 4418.5522473 -55.607832509 -270.73357024 
59.28591713 12.014374996 -19.133752964 -62.18809099 355.8852108 -1321.0385927 -796.07178459 1680.7630403 -163.53187181 
1039.1737919 499.29934131 -1042.2115021 1552.7362983 -929.71034793 497.9468028 314.06926614 1365.0844894 352.48700459 
-1604.8027497 -25.045259176 651.36369917 -4614.3582735 239.08744737 -1023.4284875 -1021.339139 -402.41790301 66.505958028 
-54.01165771 -108.31456626 -69.542486012 -45.526722887 -130.24483995 59.359826906 -341.04449116 -79.671361459 244.30992708 
-545.57189455 338.76209522 4581.9003462 17.724050939 3728.754803 3999.7397801 -95.193067489 -164.06550182 -253.32267805 
-188.99299548 -128.38524685 -102.20318599 -197.40679606 -172.04749492 -136.95615615 -251.79321762 -126.26582556 -175.13812882 
-40.612099394 -57.928471543 -167.52496984 -95.449552181 45.43961738 -72.217542411 44.140974504 46.581456963 35.529516314 
51.288468663 480.91584778 41.927922539 46.932850997 3147.3809991 308.83414869 5.7895321089 616.06004537 48.266507677 
-985.28895164 -3905.2928232 -402.62306422 -360.78841474 -542.48305193 -721.32364826 -818.87676124 -304.85736603 -450.93597086 
-521.8894987 -386.62533404 -932.04384594 -923.46415371 -1032.8275311 -987.32585894 -497.75923404 -649.06175594 -896.9575079 
-144.12714404 -72.728503245 -197.67293636 -60.004105343 -177.0686488 -274.06902573 -260.35480532 -68.532669139 -146.21098512 
-155.77456877 -204.2963927 -371.5896373 -304.62086747 -121.38276009 -82.23191359 -119.87534162 -129.16090904 -149.68553763 
-274.48368598 -252.83935945 -180.99276034 -92.049756589 -294.74443716 -268.23493952 -272.12795018 -210.21128 -463.88244716 
1146.0632598 -3216.1233941 -1302.3103101 -1382.6934757 3410.7288599 -1210.2767007 -3444.4556531 -1373.1299463 -286.50882118 
-791.70702169 -1087.3245177 -74.864924144 -316.68021922 168.18146708 310.38176341 -333.77843307 913.66177249 -880.783539 
-442.12635583 -1015.0412832 -769.59256362 -1640.9596833 -796.54224441 -506.42398248 -529.72256853 -33.460369961 -111.82230106 
-167.15606337 -568.68818633 64.045644265 -332.81193254 -210.26897382 -282.26659518 -229.2023562 -54.444706893 -105.93774211 
-247.94780657 -6742.8938039 2969.7134308 872.96411337 -4501.8779336 -5177.2840927 -2300.2273724 -331.9889074 -213.70357261 
-291.39594788 -668.70509871 -442.78438815 -478.27840733 -275.93858178 -118.14916044 -557.57562877 2150.5914492 -149.48763452 
-58.314167702 -374.80096013 -28.52894895 -58.165929964 -52.635706546 -116.48013196 -655.99763545 -25.488348007 -27.51755293 
-170.94439191 -18.380768775 36.922120423 -37.251076494 -39.270646566 -12.416160766 -718.66030889 -34.10607806 -69.770274326 
0.96108191863 28.703182615 -90.062447252 -224.71086086 -60.683930197 -284.70111929 -100.51204394 -62.5471555 -428.40651435 
-77.379537911 -31.755366367 -46.149844612 -0.29104275972 -840.67133829 -62.771596701 -195.27062405 -32.986526453 -284.04946274 
-13.094019567 -23.351346998 -25.703287044 -271.33732076 -102.94407939 -18.085108289 175.31767413 205.48234016 -27.402103243 
3.1884314017 -45.325818078 111.33163836 -34.214764194 39.749177348 43.565172666 -28.619538096 -7.6084018908 -35.288902445 
-436.06065881 479.24816163 243.08691079 -5.141027574 13.995348492 19.345413323 -10.024003747 -11.105216804 -16.899122911 
-21.924472792 -19.748358879 -29.013974743 -23.044216192 -23.269840078 -41.310145953 -25.237906148 -17.830884549 -66.478094704 
-53.31734039 -53.31734039 -97.136868441 -105.29968314 -95.536212847 -68.791468211 -162.93276454 -326.07511907 -897.63598673 
-496.58016315 -863.02750384 -218.82891335 -845.52607353 7.5023272751 609.34281397 -681.21700215 517.88150273 -51.06826697 
435.31008183 -846.11600058 -4.1355386431 -4.1355386431 -8.4881144833 -3.4348204134 -6.2303969684 -18.587030771 9.4777760173 
-4.6888103811 -6.598499976 29.589722228 1.9139888022 8.4401823961 165.42104781 94.980617851 93.416196924 300.16118934 
-9.9863395657 -9.9863395657 -32.110124152 -22.102890302 -16.972276847 -23.02451956 -6.6348090687 -7.8069232442 -50.722518988 
-27.525535095 -48.183276392 -36.690990586 -13.408215507 -12.088295274 -32.565660577 -12.658847772 -125.16653187 -99.729662256 
-107.72536405 -76.153996874 -82.050713117 -130.61926436 -191.21449865 -269.01016318 -319.5202354 -58.215102873 -104.12883194 
-64.790664502 -130.45827432 -363.78639548 -235.68226146 -167.30332185 -38.821256758 -27.777823177 -41.320668746 -46.725004525 
-40.896452879 -72.027016682 -64.177019342 -46.713724344 -56.666580795 -62.17916458 -49.156771296 -77.09204462 -71.666356693 
-268.15435188 -151.37082659 -268.10750946 -133.57642614 -197.60431392 -394.44719823 -648.37355455 -480.91888989 -142.65008127 
-242.56724578 -200.11942018 -350.19204264 -201.11585327 -12.404849944 -20.577439387 -23.979153335 -23.98603551 -8.6545552017 
-21.045673945 -35.392679878 -15.696192002 -46.377548808 -50.462610515 -32.612701796 -42.945599701 -49.890271482 45.352026893 
190.5178452 77.349711349 -4.8899833116 241.9103671 -165.41297173 -171.4460057 -44.592016601 -103.38864369 -15.574444209 
-28.371157978 -187.88396945 -270.44142937 -45.118112461 -46.588950479 -57.073276078 -60.595278416 -44.371205767 -66.190415793 
-103.84611669 -59.723696894 -67.692473823 -94.642949374 -183.66706301 -153.66889994 -574.99657463 -748.76030934 -795.27009344 
-501.73427597 -460.48507421 -439.22983118 -14.155282497 -17.083874318 -27.598014759 -46.137171039 0.49145321353 -44.378955491 
-14.718624882 -128.76944369 -20.884409216 78.186244622 0.22183528097 -0.21893324014 -67.895763095 0.57593590411 8.1786313194 
-31.086440425 -4.8681010402 0.89313002849 -56.176915682 -0.86333038301 1691.5946508 -1.3875769387 -25.2984074 -1.9626313448 
-1.7980937813 -39.019706812 4.3427181193 4.5118261356 -477.29472231 -1.4197057932 -0.8051879066 6.2576687534 1.8441735801 
8.5030308978 3.4971842546 12.69527651 -126.32426366 4.5663251567 -5.6414775246 -80.085717897 -193.46106911 4.9603849101 
-7.4407136356 808.46393092 -69.194686644 -4.476458837 2.0637997716 -42.678743978 -451.19525251 -6.6614216109 1.0930783256 
-3.4119823335 -2.2828844277 35.971188238 1.4076912541 -575.31821565 1.4691553981 3.2167452114 -2300.7016348 -21.843344714 
16.590744805 -311.93615564 3.0514558312 4.6459249777 -1.1162328755 -15.146588625 2.93876112 -76.238401984 -0.43459054025 
-18.881490583 4.4658042941 -284.03331317 2.3419192281 -6.369942687 -448.69480654 -6.3889457949 -10.057522459 -2.4568593224 
169.16539208 2.1012322597 -16.836472866 4.2472929162 -8.5145810331 4.9137289531 2.8024923826 5.0525460214 3.6451729818 
-0.26709310648 -266.19492816 0.031558248974 -7.7226305265 2625.8979141 137.03935023 0.25732198234 -13.077250389 -5.0665967059 
-35.461020546 1.2053703396 40.610977133 -0.52593264635 2.4734016011 381.5788713 6.7855371457 -42.527229006 -5.778329584 
-100.10073907 1.6038023436 -17.405652067 1.5098070107 2.1717389742 -2024.5311386 -44.399526749 -2.051192362 233.33952619 
-2.4902394079 -20.712263748 40.40371458 -0.87859656731 1026.6197175 -1897.1312467 -2185.1292312 -3.6095576933 7.0570539254 
-4.4112664088 -67.944040583 -45.155949785 -237.78118028 0.71701121964 -16.075112809 3.9457859471 3.224764405 1.6562281258 
11.306586553 9.8514545689 -11.032783082 -2.5461315368 40.659869764 31.895472788 -4.4382640732 -318.09001832 -154.05103623 
56.513182267 4605.9984982 -103.75057183 659.72284673 3664.3710978 -2.6490672606 -1.0494335939 0.59848844561 0.74501643111 
0.052170081083 -1.3743393278 -2.4971915626 0.049710519707 -2.7803675152 -43.047293204 -44.054017009 -26.258577809 6.1771147441 
-4.4884766766 -36.591899183 5.9730998148 3.0087913935 -3.2564299431 -6.2077694704 -1.2259914667 -2.0365914967 8.4922104635 
-0.45525810514 -2.7235633067 0.070425679537 0.88763576374 0.9294825102 2.7951693585 1.1579335586 4.7773013774 2.9333668332 
2.576842667 5.8822728509 1.1482414186 3.3950288807 9.0705142699 1.247259169 -3.5578609445 -0.085245825509 7.4611155269 
2.3970967989 4.5107261902 -4.9041704976 0.041741592311 1.0942320403 1.3811484769 -2.3029165412 0.67258962608 0.66357355621 
3.6188871019 -0.68004573712 -8.1073274726 -11.128765903 -4.6703914877 -17.044769713 2429.3197874 3729.3320345 -692.30676151 
614.9784083 531.31850328 -584.84169705 2049.6211489 2452.5700566 -1306.3718992 383.14248436 -258.03427946 -1339.7195194 
-1.8088657322 -24.586663968 -363.18645881 -22.848856481 -43.071480643 -121.73221085 -32.588017462 7.1325692768 -73.109018094 
32.056676081 -182.06320423 -62.100635226 -375.15658 -1567.3543214 474.98191876 -1396.1587677 -1192.5274866 46.466157249 
-1022.1769245 -882.7879477 -968.10621385 -26.240837419 -383.41524114 -900.69384384 -309.99409673 -203.25876486 -28.532466507 
9.5563289879 -1.5478091105 6.6919538011 8.7564595274 1.068082082 4.0350179703 2.3356177649 1.1877278999 3.1169915281 
-5.2187724707 -0.20505116964 7.2107449578 -3.8394893716 -0.88929795563 7.8266210308 5.4627632526 2.3585310003 -2.1319379161 
-6.0786076991 -12.532594313 -7.5530788574 -35.734886476 -90.796662799 -53.278336804 -36.233254456 -35.742711502 -38.214494999 
-10.756461367 -15.594525405 -5.9848886049 -2.8522250067 -57.960758603 9.4384986118 -25.163407503 -276.26488314 -0.78545741681 
-0.79281517666 4.310798173 4.9476560116 1.2886373203 8.1999118358 1.2947624792 -0.5769021742 -2.2127163582 -1.4716342357 
1.6258365829 4.5574590799 -4.5877435723 -9.5133370602 -0.6641282274 7.8493099331 4.2138062376 -39.058883001 11.994110979 
7.7261288932 -4.2067287608 -25.67025241 8.4632044903 -31.191802515 7.544229184 -83.484405239 -148.43336903 -26.988649553 
-83.844783761 -50.13884789 -89.085956302 -130.02255246 -26.833991953 -22.232779945 13.609315992 24.07366193 32.740072271 
-336.66461759 1.6975307573 -1.6078923007 1.0705640225 -1.765173492 -3.7462638184 -10.987064591 -8.4773261267 -2.1508392526 
-3.1678680538 -3.1134604382 -7.2221543186 -0.64342944123 1.095035981 1.1242463954 6.2697294537 -2.721297332 -1.9956974062 
-1.5396350507 1.5725355549 -3.6616918499 -0.75401669081 6.2788928852 2.5898079824 -0.93214545371 1.1461681666 -3.9420885335 
-110.2435481 -162.26603723 -17.017050419 28.626489606 -98.299557329 -52.392781032 -13.119713406 -31.736588375 -16.26260332 
-11.064285436 -3.985151703 -41.799841052 -11.462223773 -9.0892331788 -8.6888739598 1.4481292746 -1.4652255881 3.4063327135 
20.471633985 -7.5838164444 -1.2929136844 2.4738029613 12.640593714 18.015251643 3.2658634222 1978.5506632 5580.6617542 
1443.0604583 -377.17351854 369.53922395 -47.352876273 163.24482612 112.64748767 1069.5806988 -135.3217439 -142.75042523 
17.619549131 -213.62914598 -3.782280114 -2.0061527893 -2.778640784 -2.3074407864 -2.035812513 -0.99439211066 2.5291768285 
-2.3283586419 0.65347477653 0.82966746689 4.0756416974 -53.633398874 -41.095819304 -10.63995941 -5.0117964937 -6.2572968647 
-14.572356826 -3.5629932323 -46.519714252 20.424698815 76.991462543 1.4443228324 0.55350318217 -7.0934413419 -1.0756361921 
-0.2103488417 -4.0564644649 2.4359612315 0.38385347781 -0.077372182265 -1.0190107386 36.293733356 -61.512885264 -35.782438608 
-48.27111136 -21.62092543 6.4377040274 -49.082480883 28.848226338 -25.623785786 -11.238383715 -25.87701749 -102.52679752 
12.961388938 -18.264472998 139.03622613 -9.6686138325 -18.008657702 -70.422995681 -5.4512565599 3.9768000184 4.6468090852 
3.0914184324 -7.1213673634 12.364165355 -0.34867666321 -0.94016929263 -1.6669691097 0.048211574636 1.7777124384 4.7429534202 
5.3539362773 -141.98747596 -454.26545947 -273.78950003 -272.24233612 -1240.0307039 -1793.8189128 -9.9596537529 -2.6701952632 
-1.538880311 -5.085722542 7.557309323 4.4595495501 -12.471202438 -12.870204719 -10.208890748 0.50962167974 2.3296528963 
-4.15767551 3.6892534779 -6.0979408545 -7.211919987 -4.2098459603 5.7461303754 1.3509766433 6.0847905939 4.8244618737 
4.5967693074 -0.24844671768 -0.046652125384 -0.8383017223 0.42327879465 3.1379678514 -20.851734696 -18.742904489 4.0808985444 
36.674151315 83.468376008 -2.3289345442 42.9995652 -64.332541617 -0.44653019195 487.78105596 -6.4911141473 -0.9618028041 
0.83138770482 0.41345976269 1.5788823059 2.6671189745 -1.2334950597 -2.0257732176 26.609719304 -2.6928570627 496.60500041 
-0.69207543672 15.452817066 9.2025528653 0.30409355559 25.058544361 -2.4716289264 0.52595771768 -20.13409459 7.1504096955 
5.7246404581 0.8038347693 -0.32357714221 568.27021716 2.2165112921 -27.428867682 -332.28323051 -0.71911616279 7.9235862072 
71.507828006 -84.068813643 -0.073705244915 1.2896762868 -5292.45795 -45.923199324 -2.2931317034 -2.3034843621 1.6034208537 
147.7441032 -4.9144022713 1.6334431066 -11.843567544 -2.3857610939 -15.191860231 0.022753459995 83.557968887 -2.848581125 
-2.0785886269 -764.12135624 -34.395878221 0.22665040456 -39.738471531 4.1167770434 19.690404265 0.89494631325 0.85084744334 
0.032157759927 -380.11305882 -2.5742350174 -3.5051469325 -208.21380227 -51.43686045 0.9154152157 -41.884325746 -3.0127702132 
38.76439345 -0.70326320983 -297.84629347 -1.6785871262 591.16848229 -1.3176397769 -6.6674040269 6.7807320589 3.776624551 
1.5307991643 2.5868380455 -5.835578054 -0.94145647967 0.62079760792 -90.815455276 9.336715131 3.6680667849 -708.30712226 
-3.145909175 -9.7405926022 14.682798708 -30.437450715 0.61924988298 0.23724350806 23.174268246 0.06216893016 3078.2955609 
-3.5718087273 -35.780608536 9.3610968952 -49.824677749 128.17654723 -0.42428125488 -1.099810158 0.85739397433 -4896.1509688 
0.048417695347 -4.0740592834 -0.068197894924 16.44759174 -0.49440715255 -71.932492119 2.0813728724 -1.6841067994 597.48540986 
-3451.2359496 -458.64090505 -2.2052293466 2.0139090187 -0.11073874838 -38.106565472 247.36165571 488.71042528 20.677911743 
4.9233068289 0.8596493623 -1.6872709392 1.3991183717 -6.3702927476 3.7099583102 -5.5004211087 -8.6702823823 17.515523833 
-8.1706950058 6.0945663008 -632.7667267 2.8388163796 10.679519597 1493.8688291 -620.63498114 810.35040017 -8203.4978497 
0.78587889378 0.10003056649 3.5597735462 0.76345319671 -1.8621222898 4.157178376 1.2470170024 1.8857688145 -1.3927660608 
3.3641939063 -2.2472531131 -3.1992025584 9.7619799154 31.01382167 17.612635715 -95.830677116 -1.8920767095 -5.6356297087 
6.8081846379 -1.2184433453 -2.1409247785 0.51715789869 0.0048737230274 -1.4251552685 -2.2820688089 -1.1112328659 -0.87609724267 
-1.8960381522 -2.5898003773 -0.78526789194 -1.4546254721 -2.7666220379 1.1473324782 0.26404516762 -8.0619960815 -5.1283692926 
0.49701199234 -4.6651461981 -0.61775736676 2.6637825826 -2.7976571739 0.52605348392 -4.9679487084 -0.69641608409 -0.8865288982 
2.4478552747 -3.3864392114 -3.3132112803 1.3339015544 0.05203767709 -2.6480312541 8.1713489225 8.5856094852 12.944584037 
10.27185186 -1331.9854526 1956.4491901 -2443.3603868 1481.7080298 -3768.0168664 1292.2307366 2201.5312632 3572.7124029 
-772.12495847 532.11187753 677.03744398 326.25566526 3860.9774293 1428.6690599 121.82946666 3263.0879408 3746.4120702 
-346.65520349 1284.4278318 3336.2686865 4.1604861704 -434.49541805 -14.831692049 -258.25915423 1876.7934046 781.40005645 
-205.25526468 1474.7768796 1679.0343094 -74.931758661 982.91800889 821.29984728 -219.52523273 1119.805204 -10.785640585 
1132.6458676 11.458413063 584.7228542 -7.7710381319 -1.5133175379 -0.65080101433 -8.2476087739 -2.4872334908 -4.8007244932 
-1.4115512873 3.1708136304 -0.51212144007 -0.28344677052 1.0688049718 0.30301265988 -4.3758386897 -7.9734099588 -0.012196994312 
-4.666418994 -18.444425962 1.588415018 1.927951108 -15.381723115 -2.9625985602 0.15244869559 2.2526444474 -17.962392652 
-4.6112219865 -17.4629547 -10.347911386 -55.357119506 2.2826263214 1.3029162722 -3.1067748753 2.6381695023 -2.8009143035 
10.160622924 9.8500401882 -62.192059789 6.3621480384 2.9626099008 -0.36649224468 0.12985664884 0.14831239081 -1.0730688737 
-0.15684551791 0.71109692852 2.6706424419 1.8635362767 -1.6356304325 -1.2511993889 1.6258672036 33.738495839 13.27559918 
-2.3020374978 64.237649953 39.624168585 10.072337256 -4.9568467277 6.0012202831 13.015326375 -6.5508329028 18.457668278 
52.50018014 138.71878008 14.401106326 80.816978589 5.7337265682 -60.766025918 -66.692575814 -47.769280677 9.4427788298 
-12.114984657 -0.7012225809 -0.3350222178 -31.921240042 -38.828900159 0.69029686178 0.025242224658 -0.14272945739 -0.2559266159 
2.1533696583 1.4625524161 -1.003205725 -0.31174664811 -1.1204356185 2.6169651277 -2.0830596229 0.77070700889 0.22214730991 
-2.6999060065 -0.40178285846 0.1795849297 0.98816090065 1.8956944706 -0.54757174758 -0.61158420712 -4.2220484882 -4.5010183779 
-7.0235500678 4.7499488597 -0.73296235015 2.0036506443 97.424475298 109.84126086 69.928656841 43.685626958 42.166381638 
-15.710896098 -51.055945175 7.7443767845 9.3731195145 -2.4062669543 5.4919185009 -65.867959118 4.0872226938 -2.1755707698 
-1.0591694687 -0.74472414917 0.24269879694 -4.1927860956 -0.6135450445 0.58700188286 -2.1993978536 -1.7911927475 -3.175939808 
2.2532241667 6.1316751499 -1158.5206718 -8892.1544545 -2703.1316536 -1201.9460544 3124.2265201 254.51693387 178.5755121 
21.858219474 229.96817493 211.63093317 491.29298246 88.551014377 -34.146052816 2.2871148774 1.2943067504 3.0998538845 
-2.0918057642 -1.0088680852 0.72148563638 1.049955809 -1.4650542483 -2.6500001885 -2.2764669493 -2.6758896651 -12.055703388 
-3.518030401 16.847565882 15.912822224 -13.064879278 -4.6769326443 77.334808079 103.47085443 151.26153604 194.04796974 
-3.0731919117 -28.845595709 33.318921272 79.124214817 -21.538919034 -18.840274866 -6.9429347587 -2.1183195919 54.15675715 
13.958984091 0.70039062907 1.8404355955 -1.928745235 -1.4693310681 -1.9684470703 1.041478131 1.6462958897 -4.1636945336 
-3.0464386351 -1.3014616036 0.81597698318 -1.1767195138 25.877394504 3.9220476427 43.004867541 3.8944722746 -0.83111145708 
5.8323297332 26.443811192 -3.570811574 -1.917284432 0.0058047285841 -5.2898874379 -1.049718312 -3.9823453975 -0.3851430224 
-0.069912434892 1.1476163059 0.11311336283 0.1007034669 -0.72480292313 29.595020746 -37.676658512 -95.384887638 -126.85106285 
58.856951817 364.160961 4.0084610261 0.22577463624 2.8690423158 -1.2180541869 20.813848236 -1.4338916496 13.90911858 
9.5124535825 0.80929117146 4.3336648764 1.398548211 1.5332285429 2.9485212495 13.007165606 -4.3656667496 -1.7080778001 
14.530065979 10.349046731 3.2542206873 -3.3232625578 -0.6180832407 3.1238006715 2.5394852801 4.2012246342 0.32430325037 
2.7568604338 -2.0088536862 2.0183198518 -3.6920652801 119.71519267 266.87247776 97.042432367 288.32423259 185.44051143 
0.20759786171 1.4250645027 48.685998225 0.97663285413 -5309.6380335 1.3298417272e-14 5.9624328223 0.61706450024 1.7184382612 
-2.9318147908 1.2223396237 0.66832594809 3.4266286454 1.2118628934 -4.3949394362 -0.78597707047 4.9022031822e-14 2.0157664085 
-2.5706408857 1.703153075 -2.1627556248 0.19374551646 2.6251744322 2.2524379444 -0.54148985169 -3.8216238082 5.4000282075 
-0.09949237904 -1.4310983476 -0.73331175059 8.2244743959 -2.5932627881 3.3822551892 -9.961436569 11.860503875 2.1162741061 
4.9459186411 -3.6470578071 0.36871717697 0.46396004828 0.83674879084 1.1142561457 2.4866529787 -1.1733195315 0.23414563385 
0.63152707864 2.411816878 4.7146240143 4.2154587134 1.5174999594 -2.5295567426 1.1995146113 -1.0537116045 -4.2534638918 
-2.9906194797 -3.5806888362 -0.85884189482 -0.38154408004 1.4466943111 -2.5077884535 1.9053731129 5.7468913749 -1.5164059518 
-1.5711917886 -1.5656516104 2.9470669946 0.83023280894 -0.71752989686 -2.0042640017 4.3409519091 -2.4793360227e-15 -3.1362944042 
2.2327265966 3.0364457526 1.7791264378 -1.5661537969 -10.517696386 0.7168995216 -5.4096975869 1.1720192993 4.1528115069 
-1.8986530283 5.938802123 2.376512396 3.0188967092 0.19887934136 0.14368758168 1.0082149584 1.4471411267 -9.329925256 
2.1191181167 -0.16788656594 -4.1716372652e-14 5.5710717562 -2.1897497543 -1.2819202815 -4.488367146 0.92875201981 2.0050588855 
7.89646352 -9.5533468629 12.603384394 -7.1165839487 0.32653127291 -2.3678703077 -2.0108375206 1.7512600604 1.365638592 
-2.6770653667 2.4963656431 -4.8956794648 -1.7200873153 7.4105177048 0.98089309206 1.3369262728 -0.19381866182 -2.4240742247 
-0.62660478678 -6.8186152254e-14 -2.8455013072e-14 -11.461862512 1.4653669987e-13 10.812758726 2.5147395015 1.2726670032e-13 -0.69039542592 
9.2114833014e-15 -8.2585712357e-15 1.0587911841e-14 1.0429093163e-13 0.52379719699 -2.2287554425e-14 -1.3491680387 -2.7966304269 -2.4996093285 
1.471845027 1.6838239762 -2.0752307208e-14 -1.3552527156e-14 -2.7097186628 4.1067863052e-14 -1.4677492789e-14 -2.5108952786 -2.4030071201 
-1.4664257899e-14 -1.206459467e-13 -0.80020942678 2.4468645722 -1.7943043193 -1.0392763581 1.3098239564e-13 0.81216823625 2.5731744005 
3.1721549311e-14 2.7783438314 1.9672547439 2.7846208141e-14 3.9234438979 3.4064979843 -1.1858461262e-14 -4.8744099137e-14 0.74703658989 
-0.78218064796 4.0311649858 7.700350871 8.7667910041e-14 2.6264473109 3.0901220302 -1.9624046251 3.9508070833 3.6051839818e-14 
3.3087224502e-15 4.587212805e-14 -4.3032341424 -8.5501952356 0.39935146601 5.381306193e-14 -1.2790327643 -1.6368145657 16.892944947 
-4.7725012622e-14 -2.864025345 5.2937904842e-14 0.028354686189 -1.3081213217 -14.333797525 2.4282714062e-14 -1.0925401531e-14 -3.4857627514 
-0.48051006805 -0.0084844087237 -1.3528266841 -1.0638501712 2.3948533095e-14 -3.0234460897 -2.4598176172 -1.3785792089e-14 0.049605074719 
-2.7928555555 4.5633900033e-14 1.2794226994 -2.7046781511 -3.4093076127e-14 -1.8110292331e-14 -4.0529325249 1.084863917e-13 9.1426618744e-14 
-3.6256360638 3.4632397886e-14 8.8280095064 6.577740231e-15 -1.9382496113e-14 1.8301059701 1.3508127018 12.752295749 -6.8939595773 
-1.0296744265e-14 8.1799277625 -19.654707082 -0.21010290109 -10.137227247 9.6826453783e-14 4.2986922073e-13 -0.79068623018 2.1276592929 
-6.0981078246e-13 14.027449929 -0.49859331368 -22.710544497 0.7678663057 1.4431323839e-13 -4.4892746204e-14 4.5945559268 -2.8364992334 
-3.0708914805e-13 2.6893296075e-14 1.1345903751 1.4928955695e-14 2.5040411503e-14 2.0331123876 -3.8645878218e-15 -6.2998075452e-15 -5.251604273e-14 
1.5196374027 3.8199031555 1.7888399107 -5.4408631971e-14 -1.9934391018e-13 3.3775438772e-14 6.2451583678 10.47617468 9.4761810974e-15 
-7.9669733618 -1.5749518863e-14 -1.0270274485e-14 15.223980859 -31.595111924 0.71322766719 1.2071096661 6.1304009558e-14 1.5119538108e-13 
8.9573734172e-14 -0.47825454205 0.88704888726 3.324604318e-14 -5.8657031597e-14 -4.2242679884 4.0654759293 -1.1646703025e-13 2.6599440678 
-4.4424531566 -6.6915602833e-14 -0.78025964476 -6.7577347323e-14 0.7263059953 2.2036091518e-14 1.0431740141e-13 -14.901248548 5.1811065819 
3.6612174996 1.7774843589 7.8747594315e-15 2.7897712918 -7.6365314151e-14 -10.523682545 -7.3049974256e-14 29.532592721 -0.32197012769 
-1.5564230406e-14 -4.4045713257e-14 -1.2493735972e-13 4.8810273586e-14 2.0727979969 11.169952449 5.9431185612 -1.8105329248e-14 0.89407731778 
4.8174998875e-14 0 2.7343282329e-14 0.34375767608 0.31677616855 1.5992670012 -8.3909201337e-15 3.159023697 3.7761410557 
2.2978893518 4.8969092263e-15 -1.2694906297e-13 -3.8857636455e-14 -1.1826697526e-13 -1.2186686529e-13 1.259961509e-13 1.3597525781e-13 2.0312908866e-13 
2.9479300406 0.58196000007 -2.3412434755 8.4227019103 -4.5792718711e-14 -0.47951970146 7.0465872812 -3.6515885511 -5.2436633391e-14 
-12.819014367 -8.8303184751e-14 4.7736309227 1.8137092983e-13 3.986348808e-14 -1.2997947347 -2.3505164286e-14 1.6241856764e-13 -7.307522792 
12.000515301 -7.7291756437e-15 -0.26428733664 14.535867382 -2.1175823681e-15 4.9524957635e-14 -10.420244781 -1.8475906162e-13 2.3710185321 
-3.1763735522e-15 1.196434038e-14 -8.8276714972e-14 0.73368761729 -1.3552527156e-14 -9.7991772684 -2.8553263231 -0.2635266294 -2.9285544828 
4.2351647363e-15 5.2749249431 -4.6586812099e-14 -2.5622746654e-14 1.0401348879 8.3432745305e-14 6.776263578e-15 3.6845933206e-14 -6.9668459912e-14 
-2.3291564963 8.0008403532 0.74215241793 1.2281977735e-13 3.5575383785e-14 0.49815783998 -6.8609668728e-14 2.959988584 -2.2975768694e-14 
-1.72582963e-14 -6.8609668728e-14 -8.5310067574 3.4834229956e-14 0.29735248118 7.3056591701e-15 4.0657581468e-14 2.3187526931e-14 2.1969917069e-15 
-3.7057691442e-15 -3.4051517139 -6.511565782e-15 -1.6305384235e-14 -7.0922035804 2.4722774148e-14 2.858736197e-15 -1.5034834814e-14 1.8223988588 
-1.5881867761e-14 4.0723635089 4.9695706502 1.6093625998e-14 2.2022856629e-14 -5.8974668953e-14 -7.0349551224 6.8941214479 -1.9799395142e-14 
8.441212715e-14 13.331412483 -8.2250149442 -3.5734202462e-15 6.2680438097e-14 2.2245202777e-13 5.5957114078e-14 7.4769135619 -1.0534972281e-13 
-3.2399010232e-14 -8.6503239738e-14 6.1462828235e-14 -3.9553252388 -4.950872081 -1.7972153169e-14 -1.4293680985e-14 -1.2246408969e-13 -8.173867941e-14 
-0.8205487355 6.1515767794e-14 -9.4867690092e-14 -2.7508253118 6.9574768161 -2.7885104586 -3.410048916 4.3304559428e-14 1.1222847659 
-7.1401801915 -5.138304512 -1.8370027044e-14 1.1921988733e-13 -1.5977212556 5.138795414 -4.6911066899e-14 0.73982328668 1.5500702935e-13 
9.5397085685e-14 1.3327887174 1.4153369406 6.4586262228e-15 0.18341132524 -0.26274825761 -3.013713742 -1.1921988733e-13 3.3616620094e-15 
-2.0540548971e-14 -0.3558558061 -3.3457801417e-14 -1.3446648038e-14 0.91574582123 1.1072989997 2.1427286588e-14 -6.8468955201 -1.7754738876 
0.97239753316 -1.1475562487 -1.1203334216e-13 0.76184595562 -2.6613801348 -2.9010878443e-14 9.8456713288 -1.9348007816 1.2176098617e-14 
2.5315385837 5.2398963086 -3.6422416732e-14 8.4226838693e-14 -10.445282182 2.8540212214 -7.2527073587 -7.1362525806e-14 -3.388131789e-14 
7.9793719692 7.3442233197 3.9309955672 -29.811162104 -4.8280877993e-14 -7.3353421651 -6.6183078635 7.9628475217 -560.24401145 
841.24520015 -3251.1890971 -929.72402453 -1103.7766828 2931.13964 -51.851165792 323.99868743 -339.79565892 479.61815883 
-417.66588229 1342.0943035 321.35176287 -502.92884877 -655.87718538 -212.4535297 742.07945605 -565.5728403 0.51671945234 
-1399.8330424 419.96657514 -33.796726438 -13.474314824 422.31023763 1973.397036 -1407.175298 1779.849049 -58.003634292 
387.26198962 370.16673459 -289.95403267 30.706755918 7837.3338675 423.35097393 -3024.3715908 -1112.9633013 269.09347185 
-758.89366544 -5118.2461371 408.30843786 -1329.1471546 -1284.4746112 -1000.8633725 -2229.2992966 -180.66936937 99.744177786 
385.56201138 199.492426 6376.8481538 -886.85867841 477.79983333 -3482.628284 -2930.1859417 -338.95142514 -9.5543773652 
-5288.1920209 -8.8785386062 1257.8286709 1026.5470564 -491.95181162 365.60255245 -493.40101495 -1102.7639296 -620.2192331 
387.04681782 -72.661468833 -731.2263027 -257.29100886 324.54685934 -552.29471474 1219.6664867 -1094.6016324 -296.97719709 
-1865.5855314 -878.42586874 92.412552175 -345.40992483 -546.93490498 -1033.719002 2233.8296527 -937.26240442 1825.0224073 
697.07738871 -1260.8249769 -624.46337205 -4378.0562973 1516.5622529 -3361.8639847 79.41896806 -296.74526269 -357.00951518 
2973.0952701 109.23055574 7.2078244008 -20.37662148 1149.9145081 -2177.7387469 2866.9683134 -427.58888667 4631.7515831 
-153.87072458 -122.89820165 827.74912633 -11760.721577 -2094.5014314 32.025376669 2540.4619492 -2732.4911296 -1251.5837212 
-1310.3885667 630.84005227 2389.6890213 2609.9229756 314.88387863 -85.141697851 -17.14827252 -214.45318436 968.15428705 
215.92406462 1268.3376171 55.84267456 124.87792822 22.720231227 -49.930098778 -6.4923955355 -37.619394903 -216.44923166 
-896.26567737 -310.39762831 187.90623144 -112.39202295 -1159.4616775 -340.15351162 151.08294442 97.591473454 -384.90330593 
745.47486593 -553.04892936 -860.56771622 -1615.9672211 -1144.4034629 -251.79141947 759.39870198 -2106.0615602 -659.26174673 
164.24785608 347.97283545 65.370434617 127.4387636 46.579024304 -287.98124646 -52.249049919 13.594343121 164.72823255 
-48.82438227 -113.65049161 -134.28967481 449.78893344 -79.900123734 -60.301366297 -1948.9647471 -785.53015953 -620.22991608 
-1462.985918 -1695.387057 -926.33809956 -1014.720809 -1064.8537308 53.599897886 -811.22700984 -795.8002628 -1018.0749247 
10.917944239 -248.72925698 366.17202385 2860.9992543 946.38096604 4936.484171 1080.275116 4725.2632075 4860.3868735 
3387.7915633 1971.16836 4157.2497921 -1696.5750192 -751.66682359 101.33919375 2553.8776655 4603.8834653 2265.7467391 
4606.2960996 3987.5126735 1311.4273848 3197.821095 2002.6925771 932.23979133 777.92722337 -201.04277412 446.93295883 
1105.5815669 1871.7305623 397.16424678 1911.5701514 1635.2041221 666.49050787 1427.7435691 1452.9797287 42.23538609 
1422.5108625 646.17882406 1258.1414119 -256.80385189 758.19614443 892.64948643 -350.75972856 300.03112075 606.8664135 
502.85782815 695.54529777 715.41193335 -2355.5899618 349.78919607 -1296.2750496 1002.552763 -158.4742285 -3418.9290272 
-913.70575939 -36.667762023 -3165.663918 3806.4607037 -938.42125219 -1222.9316484 -1872.8157767 -2367.7060776 -1041.3219487 
-301.08850691 -1176.8502292 176.80741936 -403.10364273 486.40633583 379.24621014 254.65229361 417.06414918 2471.0523297 
1539.9521763 908.65544144 1022.4578298 334.18674862 -97.497307357 1049.9876465 1034.0098677 -1560.283672 -5292.6216066 
-6508.4178065 -7495.6182061 -1053.4007297 -7907.8159779 -3575.4417982 -2638.0658174 -3461.0908242 -1725.324999 -1169.4189503 
-2951.1704757 -1161.204209 -7371.3741038 -2598.6571557 -1804.6895183 -1425.905541 -360.65845517 599.78520882 673.96656619 
113.10177961 -729.86266764 -1336.3126607 -660.42292695 1373.690772 951.63141083 3297.2159572 -791.82423764 -652.6672098 
-1083.8969523 -1484.3721598 -1779.7975414 392.52564189 537.03005866 -1077.6532596 -2456.3525433 -1910.7881767 856.13298689 
-2046.9306827 2394.1231104 1747.047953 1719.892875 2044.7367321 4308.8975352 5401.563191 1124.2528393 -4758.006448 
109.34843552 -988.476388 2079.8275168 919.97385637 -38.765023368 -495.58906666 -509.92019215 -2255.7013496 -2412.7815644 
-4558.1898491 -1750.6736816 -507.82797606 -551.00650665 -357.16614221 -2938.4998838 -5195.1344117 -3549.9341521 -594.92276445 
273.08613441 411.19487696 203.26378342 -27.464568479 -42.836137502 -165.07807524 241.99541539 204.12080623 -365.53492022 
-18.227090102 -46.473145188 -436.38173488 -34.30677317 -206.95088613 -178.63534916 -306.26990583 -438.36425242 -353.18814522 
-67.265904446 -206.53924152 55.744190352 130.75304856 -350.227937 -1185.704009 -1528.1686028 -1650.9221253 -1714.446238 
-317.12430366 -936.55294079 26.093187049 -485.98806344 -1097.5857412 -1631.4341661 2758.934241 714.44223554 3644.8614305 
-573.48253656 -2920.9321881 6318.6254512 1414.5504077 4935.1327379 5360.5248638 9598.6099152 -5831.3030319 -9766.9317148 
-7744.7333766 -1205.7494377 6344.7433298 6044.0728886 -7015.8997763 -10770.809842 256.82913447 -1227.1494353 177.05674666 
2048.3689566 456.14507981 1490.6007965 1553.0155214 1473.0953847 1085.7582651 1899.0452326 39.7607997 136.2077134 
-3213.1956666 -406.72570073 -2531.4810297 -3788.4073053 -2564.6751816 -760.71791691 -4425.2663161 110.65233772 -1972.0515398 
-520.94779363 -862.73172454 -1598.8019978 -1063.3730792 -199.32814751 -557.33746166 -593.83699605 -396.27433238 -144.60079195 
-416.93450815 -1830.9325147 -1969.7270373 -72.252577043 75.831518859 -1487.4756446 -447.28818617 468.01664808 96.905370298 
348.93676134 570.45136139 -3023.8390421 -4692.5732655 -2887.631311 -3205.7259362 -2971.5996439 -2767.1231326 4.8224743034 
-845.3568766 1116.1616909 977.79969777 420.16728296 -987.45532925 917.24585326 190.40895394 -633.23876687 -653.11016965 
483.06996206 -211.15801144 2274.2208086 5375.7081423 5708.5297257 -486.6798657 -2640.7450972 562.96895542 4265.3940159 
-8102.9873704 -5694.167337 1482.7724081 1995.7210466 2115.1217594 674.3579212 -576.63244613 -3949.2994488 -7309.9797415 
-2845.276916 -2538.5308971 -1778.0031814 865.68463154 4001.5817531 2721.9090307 -8.1249843931 585.79629247 -436.89278849 
1739.1033607 271.05356663 1120.8105766 -163.70206267 -413.68055364 3463.1305995 1711.8575858 3589.0178731 132.75175189 
182.97236653 -2351.2394995 -3244.9405776 -3385.8818074 1471.1895198 1205.3277398 2271.5267939 762.39206763 -1951.8594873 
2864.695386 285.4249341 -443.32005088 -2009.8680578 15.20337635 284.83231523 253.51667347 -553.07023167 -387.78376297 
91.70388947 1706.0987429 -459.00486183 296.22626179 -78.409377269 130.28324648 116.34944186 12.999623786 -1905.2219115 
1212.3895107 -257.1624155 -132.49899378 -81.483333569 77.365711674 486.99151322 -943.37814311 1794.6786811 217.22944827 
39.764745551 -741.88340629 193.70584606 -227.41941619 38.496505714 -965.69079376 438.88156128 -743.83612139 -1427.1308281 
-380.49792679 197.15551432 56.540652543 -1944.7252376 -75.843259626 928.66859967 712.25371997 41.020397853 7.938915325 
-261.10684462 82.588975899 -982.41567755 -136.67139358 -512.06948075 35.455430563 -70.315962928 -124.73317141 -54.564005014 
-331.76929856 -502.55696246 -702.83619661 30.679175589 18.044784015 34.23039047 -705.47309447 -238.04842836 -1444.450168 
1267.6077548 -830.79190131 -1136.2250118 484.18642509 594.92173479 1305.4141887 -46.21440996 -392.85481221 119.46222031 
-106.4760265 202.43189077 114.0644151 -235.81526154 -95.269801562 -424.81157169 -283.67505139 92.432870019 -59.140412175 
-143.65362841 16.046976019 65.042363569 94.894291077 19.820533922 -34.347175483 74.900089193 -8.4912234852 1.1923701604 
72.944584652 62.622698638 -30.503014237 39.48723665 23.685597786 623.79511924 -482.66371244 1470.3756691 766.42161417 
821.89531287 394.04875319 -444.13360197 1062.3134135 407.47626755 26.109010379 -8.476567644 282.69531641 -54.768404192 
105.13055568 -94.580159786 146.9724393 -2235.7177317 -2076.4083962 -1144.6030925 -2661.6621619 -3321.5957755 -1756.2217602 
-3347.4659143 -2473.8807787 -750.24185216 -810.66886209 -416.55052357 -1060.0347015 212.99175834 133.43062595 -62.182008713 
-1319.0782072 -241.2153294 25.597137498 905.1703207 523.87219427 -176.72087398 177.75935559 733.49993568 79.077590538 
-779.90168631 1092.1455686 1032.1632614 -261.14519929 555.86857431 -247.66203921 329.5878485 -424.51862935 -1444.2286547 
-1398.4330891 -527.6645671 546.58960045 -763.37980352 -1809.9976512 -873.39009393 -2368.9698311 -1568.2217168 -1567.8364932 
-1417.3396164 -1911.5593619 -1575.7091032 54.996019055 -126.01979687 14.43174953 -237.58770237 -1.3560847821 92.901198544 
180.81132467 277.43677506 -783.60263665 -280.39051403 -1166.8455009 377.11408108 -773.30446814 440.01092028 548.21208694 
542.13769855 -34.896271314 200.00846131 684.76297845 130.23345932 356.35449287 314.42214528 57.394932803 57.423253905 
753.2481886 582.88913631 93.989232391 97.206938393 29.267712784 199.90679191 306.26294071 144.50244222 -158.15938575 
61.916285759 144.56035291 118.4171833 104.79865979 342.64923267 341.40880342 -579.98844967 -577.58371658 -1165.7010366 
-1767.5385878 317.57517144 -113.43191314 -543.601399 624.31865599 -922.4718908 -338.64690176 -710.72340057 -669.63567264 
133.57609374 306.48854768 -29.214675143 -12.990991852 -156.81092103 215.10633194 682.48058159 692.17272315 757.23864303 
75.177005597 293.02807828 2335.6608527 -1007.1464707 171.34595716 -133.10886686 81.016465058 -100.28402537 -265.75727117 
-33.015588466 15.321006198 -42.208522432 -549.47186506 -83.728059739 205.04923747 -15.208546464 -116.62691021 -218.23895526 
17.824815952 92.392949496 -56.504570552 -640.35260354 -127.91089025 36.775130608 279.82206894 -57.148238051 49.830559392 
284.43380384 -142.34126804 -180.84149623 -70.555194724 -53.235951786 22.778476151 -307.64992829 -57.381844732 -111.98897233 
-24.072592312 -948.40021028 -579.93692543 32.676345659 -116.62148099 -243.55741704 51.083209417 -51.720276791 -180.59003173 
93.842136857 33.14705186 -84.711063758 233.4724566 126.56861282 34.595118412 145.7036235 -5.7931789214 357.05018243 
-180.66514607 -468.76274101 -87.986944646 430.30434 364.86267494 47.843624509 -26.237011914 16.112358782 -130.11869102 
-611.50912004 -71.262203962 219.64638211 147.15580703 -553.52034009 -34.560443111 -34.560443111 -57.872393151 -12.7501605 
-14.649725994 -101.71043863 -7.905626852 -31.413924847 -35.748581547 -52.768589385 -81.118686521 -43.880566263 15.889454128 
15.889454128 51.590439698 79.77912644 615.44356593 608.32472681 227.5137507 210.48265147 -404.71784543 42.232025264 
-1507.8152932 -1291.7637696 -571.58320443 257.18333089 244.49418609 -48.243762743 121.56712881 51.385973462 188.20275035 
187.35307995 55.788953645 53.444407173 125.18230728 28.616759175 20.63917374 42.44540217 15.696243706 19.525152225 
36.698764516 99.813282609 28.470310604 11.156709493 188.29979555 116.61725721 94.659327088 -218.40831755 -24.900272682 
-47.299057937 -110.66895568 -824.29482421 -258.85570039 -396.66765878 467.86623128 -388.89258493 -726.00409407 404.6969336 
386.11755889 -431.78810539 3.6132407521 572.56301045 481.08186129 -711.25763425 -231.45645791 -210.58501017 -114.71881877 
-93.484544159 -103.00355191 -42.433491016 -18.664824131 -128.31239545 -250.15200623 -30.911504854 -94.877404333 -87.228761402 
-64.353687367 -19.646304494 -56.81012526 -90.074622291 -158.97534532 -223.34161076 -177.4088114 -143.16685839 -73.449744793 
-189.32517348 -84.013191181 -131.9205671 -529.00002094 -302.48807231 -416.7723844 -231.20030811 -134.47081009 -240.41327701 
-261.59067141 -251.08898017 -26.610782782 -41.196711298 34.868629744 -154.05260773 -170.2671874 -92.024412429 -65.972831033 
11.589940254 -63.121159176 -46.906579504 154.37420116 57.065507799 87.875501604 234.94959671 23.704620204 33.911510069 
4.0538539031 50.247336449 -97.999372803 -25.01897033 80.877245557 -86.481949606 -236.18674827 41.718826562 64.124879382 
-21.846967674 -83.721755158 46.065428968 -28.270279761 -12.020168261 -18.449417177 -10.867496281 -90.674610202 93.002893992 
-140.18700515 -4.1943644372 -433.46005738 -679.08720937 -684.59822738 -348.07895688 -395.61729071 -286.89726274 -46.215765504 
-58.704938067 -85.596778426 -90.605736012 -81.392860498 -104.7499239 -5.1937637462 82.836231736 48.787807006 -75.22493413 
231.8832102 32.856043392 40.80903669 37.085645654 31.133213935 47.689611482 -116.05071047 -9.4213367388 -62.201586259 
39.36339569 -19.225767145 -20.851547645 -469.81107837 -17.710470333 64.449250662 -585.21945323 -92.99751268 379.81161133 
-42.010663575 -51.511246777 -54.88864481 -283.09536281 -636.93095672 188.86164011 -56.344173023 108.23758753 19.360974492 
21.450814146 -16.635441229 182.88655616 -115.95596408 -26.479300217 506.85526058 -71.329086217 92.755174152 158.65521338 
159.01940015 166.7419377 -102.96960323 204.22818173 -231.40527615 -350.13442025 -253.09180391 -86.912863386 -326.86706391 
-262.31616993 369.08520304 -102.62203313 19.492140434 -15.457210045 54.95140057 156.38506523 -887.36989934 -64.842165583 
-100.32562547 704.94459551 87.364415459 -352.91136256 -23.280266782 949.94340981 -77.717852402 20.114679039 39.76326302 
85.100244125 121.86337998 190.5625002 39.581345635 148.21957197 68.020846094 -224.27350281 29.762094417 170.52361901 
-137.5143339 270.50566573 31.773817238 -294.98891071 -73.838223633 -624.17942599 -37.210871339 327.69595245 160.34911745 
78.600194076 -22.233319538 32.18450029 -6.8069402477 -81.385918772 -7.5106199742 -70.497533038 397.13163886 -17.426617883 
-184.95675913 68.736481342 433.79438208 -172.13488687 241.99541576 248.85459638 278.20843706 -11.279958128 335.9023347 
-119.26313888 12.604216623 9.0498018744 849.91359219 722.88023951 128.71094034 154.70594524 -47.042730004 258.65754472 
321.41615275 31.737663349 104.90451516 1601.4936185 83.950793267 -14.074332799 12.192981203 -6.6482749796 414.327113 
127.58009183 27.830824837 152.98609179 -42.545213191 -12.078169318 -4.9725438751 163.29924581 421.30632502 1596.0377218 
10.212634453 217.6062488 195.61982482 268.61947556 -31.291841791 -47.798706261 -164.88039087 -1105.9951054 198.34338349 
1867.3428523 -716.36574414 231.38397941 -12.891803518 -1185.826327 26.984763679 182.99542582 109.73770889 258.00963166 
-332.04611669 211.27463272 93.691041594 370.02886388 134.59176396 -5.8338231392 -2.5342895272 -13.2457389 8.4772387714 
-15.700876448 -40.380637934 -19.883358419 -4.2080838638 -24.186856823 31.494254282 -6.2970086239 -20.362219857 43.585849175 
0.27302215619 65.424539108 0.72384040948 378.13612866 254.62607182 406.42445085 713.88252819 921.21260715 425.82739328 
-7.4922716923 391.14173259 -218.21430596 -394.27912042 -365.06084893 -588.55297773 -174.39364533 17.708849361 -231.95822615 
-175.75691165 -399.83925749 -166.26926807 -170.51049161 74.248820463 -37.620686637 97.706839924 -146.29277987 120.8275328 
-146.06491533 86.893883891 -35.010728685 -196.4135219 251.68767056 641.51897548 -36.623321597 -103.41221029 -194.00165965 
-304.81724615 -88.244693204 -130.95843532 -334.93574786 -47.22335103 -343.81695543 2038.0935117 2665.7617329 -461.94354161 
2106.3087745 1694.3450183 1206.0541574 458.84142193 328.68738153 900.70060021 -554.2616175 -536.24248139 26.745289968 
59.824924609 286.210876 -17.336079914 98.769777084 146.82872718 -9.7551197866 225.58314858 160.40707884 57.383938279 
754.34060598 193.7662416 277.0857278 1835.1014767 1911.7088498 133.25064502 752.20443659 1149.6745719 63.83833307 
739.03399995 1161.1965079 875.68534735 -155.92786998 -258.37431347 -45.434310932 -480.31837212 -115.19322786 -79.462022768 
-364.20331131 -305.72039623 -156.02346833 -5.9811378048 -152.84044547 -248.14099117 -10.476443423 468.98472687 240.67916991 
435.78118671 -9.236884744 3.8892577397 23.841933405 5.5260173141 6.1169604422 16.409290108 14.283064429 48.692550046 
-46.745097098 -14.428105036 19.501909639 -24.273273265 166.03627714 132.10360495 206.01548909 274.13935242 -57.431140953 
69.899629725 26.484175632 132.57669101 -32.821494977 -63.72784507 55.510692701 89.086992197 -174.35202376 138.43115473 
-497.39159446 120.52691064 265.14511846 286.32787452 -193.57509227 -868.90445829 -508.42288814 554.37362517 -121.6659014 
87.229482646 586.21842202 190.07483541 -118.86238518 -54.40260522 -129.26095364 -43.514063124 -100.25812338 -14.607578162 
6.8480117176 -54.749979851 20.489577978 -51.490956622 20.136019758 10.026379551 130.74434969 120.83345373 334.47002264 
121.20320583 462.90796214 133.46362803 292.03164419 283.56881944 222.3223873 177.65022989 12.946525074 117.96138491 
-113.4506267 172.69063672 154.49371584 218.40835946 -19.101384802 -78.519583883 -78.131690571 -93.292903755 -146.61844128 
96.553472465 483.45136362 271.37281141 21.389216584 293.37006072 -5.9896141561 4.8751045949 -32.33867408 -116.81880031 
23.733735331 19.294680662 -10.459485011 -84.541392452 -31.309612167 14.437448668 -37.358930767 39.372456528 -77.874953487 
-164.0532477 -35.756553976 -18.005650408 -67.023695652 -11.915263763 -34.667861993 -13.052258243 -13.004888838 -24.941206128 
-40.197974636 6.1213285582 -18.801259479 -194.97991941 -119.10387526 -79.693076258 315.55822881 279.49052879 -150.8675988 
122.2622814 -94.528253004 -747.41620241 50.581847022 -533.34382646 120.70132315 259.27585951 -135.86172419 -0.047833127233 
-131.88695159 -576.03372577 -18.372471715 -273.51499039 -230.58764274 93.671387794 -493.73884914 -349.32929812 -357.60066572 
-167.83425325 23.599125874 14.408470606 49.610196827 231.83806324 179.00420647 86.206197232 -69.405925168 221.79637414 
56.317060437 150.8668519 94.296640247 108.43740465 213.13171886 232.62428203 -111.53665262 253.97835623 410.16766513 
-207.52411309 -103.39787308 -53.777598547 -99.534058296 -20.488376318 469.66752183 303.88961872 120.48580999 68.389074273 
95.261910748 91.163764086 17.52568573 -21.60502316 444.34587208 -208.89175162 57.804507609 216.84989006 116.46940091 
3.6131885643 64.455949982 1.4295609633 54.673375557 9.7500317253 42.210157308 46.861050304 24.907417859 24.312649609 
-148.40526469 -331.69043407 343.19560706 478.98421141 155.63946042 -13.578252011 42.800331731 -21.481853959 -1.6037344658 
-13.990791033 -2.349658733 -23.985355395 -13.334111359 -106.95480896 34.647103164 147.08771161 681.09856773 -338.92336557 
-42.99894984 169.85493193 264.54019889 -376.49105339 -52.684634305 345.81396463 -1131.5410137 -66.814368616 -18.675787995 
-36.764512724 292.7106885 66.103730437 254.16704419 70.062635003 -11.713227136 162.44974184 -526.31241596 384.74046118 
-261.77294924 244.48868127 -14.825655401 -47.717708685 -239.68651532 -252.72713818 47.023116113 -51.524340794 27.921151194 
17.656369908 -228.07345553 -37.819063435 -130.56622239 116.6683143 146.75552852 151.45574808 81.464694681 39.424594736 
254.17427401 98.557483427 191.89307209 87.77870979 39.624929072 236.47036984 277.83339964 121.75029233 357.55987405 
86.109478374 -351.82878923 23.673663855 5.3282701934 65.536813258 -30.863047735 10.479737529 57.220329852 -3.9406954805 
116.24273109 602.82582295 428.28363181 157.04436353 -353.69286553 -64.247176321 136.51445868 -113.50474365 8.3771615234 
-75.714880841 -165.00002808 100.53170478 -1.5231330459 62.508010577 -52.416234202 -824.18572012 -190.47448533 -180.79919743 
26.70178433 -73.906079179 205.10025045 423.35943791 111.85688737 21.172313975 -444.90365613 -341.66860445 -226.96061158 
73.757023893 -2.7301714528 -37.176818618 328.58444393 56.896375868 275.05787319 38.118270023 60.461984311 -253.53810373 
381.41645004 -56.569721161 5.9297774618 -1534.6394858 567.56532651 78.02343289 9.7377456408 277.53754371 -85.916836181 
-202.91547252 5.95361293 19.517357473 110.11499617 177.72138284 27.539474629 -452.43412956 -472.45599822 -157.90548915 
-20.864243072 217.38537829 -156.41465861 -671.10842574 95.480744783 -390.65580876 609.71023421 719.52115328 4.7590429028 
27.745329331 40.742087975 23.180252603 69.087243107 68.213706694 96.067961044 29.310120248 -11.556750623 297.35161983 
-172.82143039 234.07446425 -289.30032579 -12.084518625 -73.402041925 -130.58701074 99.150944763 276.03301977 41.631047799 
-7.8859189434 -1367.3835814 -262.19294719 42.805580938 -444.00745182 17.957031927 -5.7252369922 -293.26992685 -88.536250344 
-39.38712757 -525.92633306 -195.27786525 -6.7698991788 33.428111782 4.0291461091 264.70401596 -115.35249194 46.376551795 
-215.17016089 -89.942900872 -57.316706347 -78.228660883 -92.573741728 -662.73096099 -25.223091218 -84.314743254 -234.89371834 
34.538178786 41.896909312 -1409.9066442 -140.9999359 -30.277461718 83.071779518 -8.9076086227 -549.14150389 -99.017929758 
360.37505679 171.11987796 -1117.4660728 -1004.2668601 -203.25102635 -13.348450189 633.62669001 15.700907045 -97.025479563 
-174.80736161 -412.98314876 -124.35849079 -1800.9831181 -2129.5960119 -162.13503116 -1359.0187683 -2321.8042053 -1556.2830714 
-1659.9592078 -437.75422511 -1576.8479477 876.84080028 141.60450182 1774.0430933 -1595.8029812 -3675.2653394 -339.00322764 
-3583.1069462 -3330.2882383 189.66691574 -4201.0326936 -2312.8159084 96.248667576 -1095.7057029 -1044.2396897 -222.59329817 
-736.01244693 -1928.6619688 -430.38659418 -2499.6091535 -1882.456183 -233.32356695 -1114.4296002 -945.04997593 -208.06072413 
-869.36018041 269.0699372 -492.61237293 44.565729262 -798.95198624 183.38900709 -3.1979406028 23.210278792 -42.115633833 
10.051945022 -0.69991451817 27.714469666 -4.0237307881 -6.4724894116 -12.866265174 -29.583783927 -65.085496485 6.4912151086 
-42.943009127 3.9882459797 -101.66777011 -450.09289464 111.42994553 37.282373191 -132.93378487 -541.60601334 -353.20535985 
-37.358514168 519.32658053 754.79236027 -139.27953463 313.41918735 421.93085902 137.06572758 215.76357178 487.37094099 
162.7850805 16.343758317 57.213345048 65.617020223 96.12114329 264.75054949 150.2555397 -10.095811193 -88.624973394 
-39.054318658 -51.528324168 179.48021002 82.934087437 -478.00628375 -401.05990549 -123.79549628 -296.23238639 -7.0643713581 
-313.87154415 91.245207651 -29.608853732 -332.25356477 229.90117538 159.93015094 329.08396887 -6.0820603106 -238.8133104 
-326.67374443 -175.47425135 -61.530275868 -55.102316429 -266.80592445 -44.339188727 -358.61237063 -354.47650727 4.3403191591 
-8.8570885334 16.086126176 14.306596509 16.599003583 51.33549184 -11.93478038 23.167748027 100.2585848 32.036690462 
31.104242674 9.871983787 -225.71626913 -135.45911709 -53.034812341 43.640228773 -116.03420297 304.94733969 2.2952600317 
121.77945854 -302.43642747 -118.3635761 -32.462859694 239.12678024 9.2577840636 -187.38124143 -8.9824216698 -7.173953375 
79.622664048 21.195408674 -47.920841963 24.753894045 8.337717364 -31.135474631 -4.2732848303 -45.4782982 6.4749535127 
-84.193727241 -7.0344880816 -88.700828041 304.47637549 -552.35172171 -512.11659829 -181.8333613 399.53043744 -19.987015805 
-105.44810731 -350.17335153 -316.0543405 6.7154545177 -104.68908467 -25.946027698 -107.48618542 16.94535312 -150.14506912 
45.486218833 -301.34237526 -89.882304807 -332.3056111 89.572377086 221.94858895 346.78164146 -234.52698549 253.95368399 
-436.76065503 15.81032241 -784.5021445 47.474976042 58.336129639 -38.150130235 164.83034521 187.74309711 -635.57578208 
-183.8699684 834.10299401 -12.719735349 59.291941317 84.73812489 12.353333692 41.971892633 -86.652956308 -8.6536287829 
-77.198150991 -4.8111512455 6.6397421811 -24.37766946 9.553824022 -16.141705569 10.62506736 145.46215937 128.02886788 
102.29540641 28.832278879 196.39349183 272.21128135 65.933695837 25.847782952 121.14428604 52.190218137 85.903172639 
167.02567462 -38.861005011 -241.91247299 -159.31628519 -390.70002812 -244.01074138 935.80198538 920.2294298 718.70118101 
1038.5429834 261.76508756 1015.5637851 426.86654064 316.5554283 21.844695229 791.11457048 273.03460568 138.0284717 
-122.29848867 287.27148813 0.61109419256 -79.115646417 178.56058344 80.584048753 158.69692284 -106.89180103 -177.28725946 
139.41060095 9.9535959556 198.128667 25.247177947 350.92170416 51.452547653 -247.87166657 383.23458505 34.670924148 
-380.20738152 -55.656648786 272.90864119 -396.38539595 -142.80508145 -64.046427635 199.37520911 162.70306348 -416.56270921 
-256.54179243 -270.44819356 -401.58962634 -20.956183893 -35.11621111 -191.99441859 15.154938799 -17.127087849 -64.550574166 
-37.126086936 23.836206703 -219.06117393 -189.5026408 336.0794442 48.843514813 -89.990970347 -55.073829737 370.31739376 
395.30973742 37.339667607 8.3130174806 -116.80277492 -294.57874422 -55.459402694 -206.09301969 -195.69709529 -111.28483056 
-156.68884077 -58.520133654 -85.841595063 2.255056381 7.4032656127 26.350231638 -2.5991460892 20.490027938 14.281335295 
158.79161403 45.820099777 -44.576912875 170.82919722 -332.97546339 -54.4448177 -215.39683675 -51.588216453 -16.678877669 
-510.7440172 -350.57017526 317.60466788 66.811886988 -44.542741737 42.519674096 115.90189431 -441.59768377 -81.422607619 
265.1295718 22.190486276 -72.926379068 -168.39844535 270.37148132 59.955218385 129.44603628 48.688199893 6.0616004719 
-97.561646424 -129.70940235 -25.799029455 4.3693678232 64.039378547 18.608616262 52.876685328 -31.488739279 -75.881818948 
-74.042166812 -70.881656464 245.89631029 -17.370997555 -105.27616107 -610.65099023 -564.6211297 -443.54221272 -218.7882016 
-427.97794212 -193.09837184 -293.97641446 -296.55108498 -94.870837153 -85.850342591 -260.32972396 -294.69763624 -98.948524898 
-210.43221178 1656.4136338 -399.32132196 -6395.5313344 0.079848817983 -589.96020324 -1829.8182668 696.21858681 1290.3538602 
-618.9956143 -1562.0139658 1559.2132813 -2563.1900539 892.62787186 -463.96847666 -183.38974016 -1408.6264484 2937.2223134 
-487.74987617 -553.89435187 125.77815379 1042.7881912 -321.24620935 1264.4072049 133.70759166 -3521.6592832 435.53421123 
704.60479728 4605.6073914 -2071.2461683 1064.3633747 -833.70995171 1075.4165429 657.13983155 773.10023755 -515.44694933 
-283.81612758 -336.69432192 -116.83153343 3132.4273674 1795.9259239 932.04660042 -86.830659219 -595.2688542 -2577.537541 
628.50272696 1019.2312828 -1431.6876419 3079.4513062 -2942.7265511 4228.4821123 267.66636035 846.88475747 -1796.0443153 
1767.8760211 1228.6306109 -1176.4260766 396.67393043 3737.8228741 659.86334698 472.84265368 3043.9712898 -2677.3160577 
7.6052118286 -313.64275048 -983.55859051 169.10765827 -1025.2005651 423.67729657 226.4058953 330.21615876 422.67846606 
444.89997516 316.46269185 591.58698745 604.12559549 -1779.8668689 -4787.1071245 603.03079424 -860.70460007 -3369.7055935 
1588.1141378 -3069.0611035 -1551.2866491 -4586.707011 -3215.3485333 -3109.0952594 -4895.5106145 -5100.0697241 -2079.8553842 
-1167.8236993 -2961.8165226 -606.76880081 1079.4098371 -2783.3342753 -2173.2207105 -1177.565607 -1898.6962047 -2436.7680708 
-1081.1157325 -1466.4036432 -1617.875244 -1512.7354297 -872.82365666 -184.49692249 -853.30805604 -596.11933278 -131.68423073 
1276.778108 1807.1637934 2314.6050595 1203.7718761 2326.4735643 1627.7059663 1448.3946959 1195.3097574 652.77220187 
1009.4528532 600.77398089 -536.19514488 -624.82634947 132.01049644 46.780535023 225.22519669 871.91223286 411.64840333 
114.41265319 -249.19712582 -1046.4125987 890.08419562 -13.253316026 -0.99986011212 292.37528975 -159.5201224 216.54823473 
276.51285347 1966.3808235 410.74038468 2201.1091773 -737.5897345 -103.86281603 -8.8993135546 -16.886944905 -1730.1602064 
-1898.7780449 -349.34029812 610.90956334 64.596633913 113.45892578 434.80061999 -1967.0492113 -101.6342638 426.32934971 
5565.6609826 7667.7575288 1796.5214023 2209.1487402 2407.8903366 1876.6913128 863.02725107 1656.0065077 -1043.4061088 
-464.01055712 2449.326654 2711.7600294 1193.1595443 -862.04648647 1265.2732012 1465.5518345 2164.9864809 -121.56284685 
973.44320449 876.00632569 -812.03553692 -1048.8083178 1217.8091076 -496.95951956 -200.14912954 2448.7703407 -917.61167194 
-391.80034698 -2277.453106 -4357.6609729 -4007.1184693 -3076.9846 -4038.7039363 -4686.6403774 -6835.4719193 -9129.7214661 
-2860.8510637 6087.1306321 -3054.8666005 -468.80539329 -1719.7989741 3503.878994 1992.6646825 3245.6382014 6743.8172943 
4526.590126 3417.9668812 4597.5101247 -431.22410011 -543.03042467 75.576592857 1205.1085375 1211.1171509 449.11815688 
749.83062439 -569.79135336 394.59593931 -106.26863544 905.74127249 -581.41667176 -34.839626616 240.72502848 -26.330663602 
-813.37443626 100.39150342 533.84893631 465.67793925 1129.3466914 -2388.4643126 -254.09144829 -670.00556635 -1764.4945571 
-1978.7236918 -88.618611267 1460.4013578 -756.64999909 -4193.3460195 -3925.1229357 -266.44977502 1497.3005453 794.41483436 
-2050.4938838 -1943.5758534 -2163.3112112 -730.05941797 651.70188036 -477.21710388 -2576.967848 -915.64012922 390.28127308 
-1873.4270331 -3412.6727801 4016.624911 3624.1268461 3291.7955665 48.510841465 2602.2471408 4496.5316578 2112.8618844 
1044.1173668 1264.2113939 675.09598979 1029.4865966 1312.0951841 333.98919315 658.33501573 664.27009582 694.48158165 
587.99140594 -615.26321324 -1474.4997892 -661.65521278 625.94587494 -558.40584287 152.42603487 -335.23240574 1206.7330591 
1727.1237489 2187.2256969 2988.358614 -723.65243992 2970.4801673 438.3429505 -216.42303042 245.24102238 1020.9188455 
-110.55351208 -4527.0170401 -1441.6476313 1172.0796038 -3364.3237806 -4543.6616978 -4238.0002885 4325.3459379 1982.5801948 
3295.4840547 5011.5118354 6992.1517498 3707.1704054 3807.7289545 2760.732721 2204.6566183 2045.7814402 -2231.152949 
-3187.8203424 -838.56630147 -57.98644626 -2213.2800199 301.77417507 -50.328688957 -1300.1611824 544.18372283 -3136.436918 
-5833.763812 -5759.0266942 3639.5000625 2420.1918744 4095.4966813 -1954.7375979 -1520.293937 1630.0107511 1943.4870224 
-1179.2659741 2554.4358456 -622.96191806 484.41681512 231.37219537 553.32445435 -305.88176778 331.24991303 -71.426864396 
33.671780638 155.67709394 66.705392586 208.65449191 203.58936173 -134.97113438 -270.9522362 36.730887681 -330.29600171 
-513.88871691 523.8259375 470.34801145 267.18579578 -275.08990389 806.67909009 164.01264639 -62.832294559 293.08275394 
26.628748829 -230.20172537 99.712853375 -230.40717531 334.10760342 166.62540603 -21.967119382 86.981048012 286.73874679 
78.501805672 56.501592496 -56.142279083 614.03009294 -47.525826312 -54.35823614 213.21037812 -93.359394491 800.6196448 
-144.92407396 -413.7742319 -386.39679457 -23.740283549 -609.04286991 -254.62738916 124.06438486 973.51032807 294.05019117 
148.20767895 -853.12296284 615.06425683 780.53380196 -0.15580251154 185.65079509 -352.66520644 77.010196241 70.171495961 
-81.447963651 -106.78995112 408.10859981 27.225542762 -575.05984105 -24.514527965 -127.2298555 3.3240321615 458.82605007 
-1415.5578666 106.03842242 256.31425559 -175.64940539 125.40435999 -66.135764762 854.97932207 775.84192606 -410.12096181 
382.19255126 11.131778297 -0.5386857998 -310.55939753 -835.29780253 427.22111535 -420.88649215 -117.86734412 108.82647163 
165.42969627 -149.81026731 -594.09996955 385.83607874 108.9253966 -203.71814474 -622.4285694 258.7056105 -19.004621612 
-0.88176376949 -864.55398824 -27.716326252 79.024895045 -62.331422835 -91.067737327 -13.446426535 153.10485765 288.07604928 
-1.3205321827 -29.057990861 -1.5367918502 -49.365944776 84.067402485 14.598963548 74.253731406 69.841408519 -428.56652088 
-291.05372102 249.44594586 39.368040902 742.33541589 -1327.7822757 -51.509922637 51.685078253 -57.612410649 -9.3802183651 
-6.3038851906 2.695812648 -51.044402625 12.170639781 -81.280119408 -21.507454621 -24.570159206 -28.010000737 -53.858483967 
92.653856826 -149.81177564 111.14415061 -379.24415122 -488.99092557 -38.037440941 463.84575809 -388.36407481 -539.71873117 
-537.04311057 824.33806691 482.25586466 49.911378456 417.12132091 -226.57080803 -121.52543021 203.76253145 183.93125693 
800.93878997 -644.96023617 -525.79250327 -75.320820262 -426.82424711 -786.09497354 -879.26272308 959.89618234 -1264.4915504 
-1240.5552743 163.3390304 -60.415461065 113.17774409 117.5746556 33.413347307 -42.313971732 -47.916622468 295.11741731 
15.487419626 -2.6754608801 -19.899871685 37.563534101 -97.384414885 35.91975109 9.2892907128 -298.433093 -636.46977173 
36.9929815 153.73431108 -367.30399126 -414.12695735 406.86912523 442.87919921 457.01379582 293.05092396 106.9849535 
232.25514525 257.21532604 488.92312678 -190.21879628 365.88043181 272.36061982 303.94212238 -49.946523759 -12.184527911 
204.94578831 334.37204276 -1871.0258525 -293.09628647 -387.48813303 -175.66289626 -2069.2941188 -13.329782962 28.987154185 
-54.935515769 85.523553338 139.52360293 191.12377426 13.035432065 159.04041363 -140.2064779 -57.349133896 -85.29443491 
150.80370883 207.80445067 -506.78873414 173.24364191 69.152835839 227.69926407 -1467.8300921 126.59511555 -241.53507763 
41.676216424 192.34068578 411.38203064 -332.74560933 1.1951304384 -243.39558714 526.31154835 -187.57607588 -499.03182655 
-177.57262646 -184.42102476 -2.368090276 -649.16312735 -398.3585115 -605.72834997 -437.30967001 -455.33810327 1586.3345225 
119.78102177 1075.3287206 970.97249926 872.76741985 -6.4948773317 -89.70663598 -367.34989167 -575.90973346 -169.50250821 
984.95985056 618.25292909 1081.9239674 312.94423879 919.56004134 -218.94591029 593.13068182 1070.6629064 497.44576617 
-433.176298 209.83821805 -860.32140221 -1169.4467776 -394.79917348 487.52775529 81.42451628 432.25597232 -427.04161307 
430.46387587 908.31354956 25.213654867 698.90114532 635.05190892 53.914654213 -122.57559533 -65.449932022 -71.248840737 
-453.99468236 -255.54217148 33.011480988 -209.06654775 15.512038176 -101.66211495 522.47497326 91.135103882 -253.24497911 
0.66325952005 46.095842748 66.733000468 -104.7129557 521.11212353 -58.231491616 64.718929449 -259.99282486 -222.81542901 
-435.40517818 372.84719286 -204.28210561 404.86555921 37.412938002 942.66174313 -77.785622947 -153.96644347 -461.45429508 
59.016018216 -27.449287642 -32.130376084 -373.19117072 584.85245332 -785.37540893 -343.59814817 661.40309977 70.336255581 
-282.75933474 112.19692209 134.3320945 321.16611971 196.92321228 48.270937048 20.138782433 372.91503599 234.29767692 
38.200918131 12.504289715 1247.9209372 -434.32557802 931.14616408 110.1046031 380.83871982 -122.72549538 -491.52444959 
275.11367145 286.51465652 -24.728716965 348.22825512 248.44873315 -449.79718273 52.427069278 303.64137001 110.90367959 
188.34980707 156.20551243 89.485790046 231.7548468 342.32514052 321.08623008 37.525477837 75.653797926 58.872688263 
-848.19208437 -730.95942451 178.8667528 379.95851772 368.97471502 89.376423788 62.275315325 288.72158381 116.85881398 
126.14240259 -121.24411155 64.657055718 -134.64967565 526.68102375 740.79367864 67.83966623 160.79853599 287.31809835 
386.65873902 238.54516263 127.51765399 -31.257184326 667.75533451 -87.243186206 200.61318578 175.78471539 374.62329861 
39.150674793 -36.430989149 -182.83928445 -282.39291845 -152.57839075 -59.789100264 -23.420649414 -119.17186202 4.3091674253 
-184.81820687 -102.3376461 52.049242034 -1621.175991 299.19970017 -260.13739446 -931.67988955 -10.376694288 -378.04540858 
-287.49448734 -946.40889989 -2144.1405557 -466.36089857 237.27052776 101.23894615 148.60818974 35.16496843 49.30175562 
157.34036187 161.41300444 156.52048143 520.9369452 914.97477982 84.825877902 58.285470276 -53.140057978 -50.698937495 
-212.86118388 -172.94665427 -228.0881555 -149.98252818 -27.5268603 -494.34041871 -308.78474181 -1699.0115704 579.47050625 
241.09271447 -249.09788551 901.75042974 -193.63679795 294.65691268 155.2761286 -377.86588103 489.60538093 -1058.9837667 
-1371.74581 172.47184222 335.29866236 659.62646735 256.27839443 829.79091541 377.39041171 29.394013173 1112.2845466 
-202.34995237 -1152.8319029 -293.021084 -620.80950132 -39.628950037 248.19658421 30.9188801 -549.13880435 -228.55430994 
-149.30925495 -546.63580226 -359.23763275 -385.0574555 897.2065979 213.30701803 506.68917261 -42.087770188 -100.20121131 
116.7726214 251.74048554 173.13860922 130.13798725 -24.870665555 -126.79313358 -216.20903346 -196.19486385 618.20119583 
31.890272144 -94.031510044 85.99472102 38.765022992 461.54805948 -2.8845188068 -21.103410303 -111.85144247 -114.0544498 
-16.886425491 -4.08175759 -11.416951439 -2.5401134425 38.847441547 2.4114061107 -6.9151929251 -5.0723872712 -70.758162889 
-23.08609783 23.238780082 255.21282032 -11.533669649 -97.435161545 -45.613820164 7.602633585 15.43048314 -37.696158908 
-152.08009259 -3.7338099195 -15.783046809 -93.140574105 21.111099536 -24.064312003 -50.944832964 -4.6128868439 -0.96020447329 
-29.307602814 -344.50748441 -95.083296263 15.80269987 0.54939426247 -15.499496715 -48.334036002 1.8862993914 3.8410035514 
-35.351357196 -26.61623248 -11.24647022 -17.841217266 -163.84287532 -53.861412783 -156.97254723 -583.14579799 -17.625875586 
168.99306293 -0.86287056558 -13.807460955 -148.59226055 3.1590731803 -17.68717026 -63.087017993 -108.89570445 -21.953661543 
-225.96830381 -231.31290292 3.3835902523 -48.700681764 -73.712513419 -20.757533174 6.6928381465 0.6474437496 4.1012986105 
60.810655553 -7.0770701276 -293.88327492 -58.017419372 -2.3555360137 -34.284320216 -29.516928375 -239.73668302 -1.3982388917 
39.429982531 -7.7390580485 -36.215409886 -33.77931901 23.76504057 37.64726105 -10.710001358 5.0429054276 12.46894021 
-2.1931241044 -0.52294875398 -24.056577543 -38.863184781 -151.8420996 -314.70580318 -6.7916202752 -0.07039071369 -184.40729662 
-58.947257926 -3.4029020174 6.0345998682 -101.84125494 -57.194047093 13.73010644 -31.69048421 90.715656312 -2.7493498311 
-6.7824575468 7.4325001515 -3.9318033764 0.76067025383 3.3035882107 10.819297173 -9.6047724806 -18.851600491 -6.3351167908 
-4.8512300646 -11.413648515 -9.5496398855 -107.29184494 -162.90438474 -151.87428971 -207.72783449 -215.00978482 -202.22502118 
-110.06895664 -110.07015881 -244.17132074 -45.281273042 -62.697077551 -87.111070962 -53.0748917 -93.388521492 -42.638824422 
-22.968666216 -59.90919874 19.899618982 -118.98900201 -194.30795151 -141.64638361 -1.2063649023 2.6160106889 15.414011617 
5.9611407916 2.0562810647 3.012486814 74.19479315 -63.69638096 49.675365916 -14.688463736 -87.126252201 -33.195476864 
2607.9414043 253.4736201 1414.4560945 -750.11213593 2300.9214145 -1008.6674099 -871.75118789 -840.83919887 -218.34679757 
4152.1438581 487.59460718 -1463.6088865 6.2232975588 -11.082874985 -14.641500567 -8.7013090262 -17.173346346 -11.178521269 
-10.19233652 -6.7979839965 -6.4471983946 -7.0769894453 -4.2971281991 -6.9234170619 7.8951654321 -122.53848861 26.991715069 
-93.864707374 -62.894572404 -47.691608441 -86.097421494 -94.070736822 302.99606172 116.72669151 395.53248368 289.51182708 
94.201642994 105.12101281 -153.48357415 -236.84721536 -257.55002263 -110.81621317 -70.326449567 -70.867330866 -35.633096272 
-4.9521931695 -10.157471142 -12.311632425 1.0539337566 -25.335487334 -3.1296641543 -44.488203329 -28.245158929 -484.34240576 
-100.77606196 -184.0785742 4.0323357747 -49.308659419 -154.3415872 -272.44768678 -99.913300008 -81.529244266 -243.6522873 
-194.22426213 -17.877098252 -147.02840923 10.051338849 4.0693127088 1.6960461552 -3.4154671165 -69.559139863 13.872497632 
-54.118481767 -89.261700381 -53.38622963 -51.956703156 -51.314937456 -58.286528339 -12.223770313 -12.113086091 -3.5812922452 
-13.634516809 -2.7600287123 -0.63343394205 -83.603620335 -45.735619763 -79.243081028 -71.286173141 -102.47787644 -3.2617530439 
-11.356644543 -7.777154822 -3.4771677052 -15.89099601 -26.290779365 -1.6862588752 -23.088342401 -2.4412987736 -14.065057039 
-14.927642762 -6.0962043336 -35.82838401 -22.110543367 -13.241512592 -21.618668749 -20.774053 -25.957696329 -299.33768577 
-992.90194662 -160.34741328 -89.560229606 -75.704053833 -77.283286203 -116.29170245 -92.585967033 -85.767402071 -26.090410978 
-14.829597501 -35.003437517 0.44932620545 -1.3449242751 8.3980584533 177.24382357 -180.9982589 103.48579547 276.75196782 
-88.934945287 -59.460480803 -52.404257534 -11.855381644 31.251043934 -37.562319144 -10.455065097 -13.364259934 -19.229768413 
-18.813020396 -248.85001924 -168.07355537 4.8534510008 4.7258026192 10.267685867 -65.723170873 -38.705362365 -36.824073143 
-8.8910337895 -8.0868932842 4.7579283423 5.6327654832 4.3114625871 -2.0161924702 5.8733189579 -6.0965503844 -3.6865799321 
-8.3352752312 6.5310848234 -116.27523969 0.80645508279 0.2961737477 -139.57627734 -288.66155982 4.4310876456 5.1742188479 
1.5908495643 1.4819528669 5.1863366567 -6.6510791428 -64.501917155 -66.24796164 -92.352368976 0.12710595499 -0.96940727763 
-2.3064669788 -11.233392111 -9.4284423558 -4.8951993427 3.4036937792 -6.22532576 -7.8714676367 -2.4890286917 -5.7170135326 
4.1607275224 5.7414331647 3.3989708935 473.38981452 -74.322260952 -207.26069929 -111.11085051 -108.17261692 -91.825657143 
-12.040532959 -13.832376259 -23.717176433 -6.1270750988 -6.207486529 13.954360486 -34.805823487 2.9675412857 74.179855623 
-42.006891542 -15.001589819 1.2627409562 5.5986161609 0.54152229532 0.93681035353 5.6680895051 -3.2586244649 -7.9817844933 
0.8652929654 -7.065556469 -1471.9538968 -898.11791524 -420.25568185 -112.20983911 -1517.3355926 6.5168359418 -1.8665602409 
5.1107852084 -242.49678099 -131.91542072 -53.398939985 -9.9500128026 -2.9364989569 -22.730258192 -161.60160463 -100.44536737 
-190.00720255 -104.68984301 -60.308727962 -55.188880381 -183.98943372 -16.216132785 -56.42488072 -4.0521484064 -2.260232451 
-11.803300529 -5.9268479539 -11.641082171 -13.859974656 -7.3088366324 -8.20594226 -4.7736302747 1344.7916992 -1258.1271889 
1659.4572583 -3.7122372716 2.0236309223 -7.8403378455 5.5178667104 4.5628852494 -0.37602876845 -112.12215036 -192.54689559 
-238.88160478 -110.52544279 -162.28381824 -891.45284397 -2332.8857901 -1877.8440342 -19.686637607 -79.284749345 5.6061301527 
18.238202404 5.9523620592 0.9042662186 -1.4210108044 1.9190259772 -17.068379446 -2.0075994001 -1.742649576 -229.24468971 
-212.76294055 -434.60682163 -311.8014781 19.038081567 -1419.8820091 314.80920998 50.827351481 -3.1327343264 -12.381832362 
-139.23513313 -115.85072842 -108.6643326 -4.5904979745 2.5743891581 -8.5255835073 9.0598316386 5.4931782945 -8.7033559067 
-15.19348614 -11.409644909 -213.27897614 -270.82555384 1421.746553 41.456145522 -1325.2093816 -0.39500485064 3.7135901244 
-4.5738746939 -4.6478316893 -3.8907500835 -0.26787876146 1847.7723651 -304.85503181 -218.7959458 -990.66787945 -216.62443108 
-100.11978757 -605.10962163 161.02869208 187.78567516 -431.14062199 -10.355396595 -8.162126885 -16.849656778 -16.145619996 
-1.9586524975 -10.38313123 40.686794944 -3103.2825777 30.609066374 -582.68888306 -480.96515032 3256.3937101 307.84806133 
89.729209608 272.49979152 -202.03613202 -10.661237051 -5.1837301542 -17.923580892 -15.072423189 1.2292627502 -4.7003587272 
0.16387044262 -3.1309087348 -14.961085521 8.9493443186 18.676827713 47.095313276 -5.2925957926 224.38030852 -1786.2843624 
-962.19868337 -125.71584958 -298.26769951 -123.71189902 -52.237567764 -60.497626926 -177.40836358 -106.43273597 3.8180998418 
-39.119639593 -49.217369493 -3.3200327368 -1.8126567248 -3.2183493464 0.55606563549 1904.864454 -254.34389 -350.44853787 
-507.06102936 -301.31380269 -385.58831376 -18.209973271 -33.706763922 -38.385281239 -118.74776231 -14.335460615 -5.2533817689 
-128.70659063 -106.86521118 -91.410257827 -48.678598099 -128.27953124 -100.83007542 -180.64025933 -40.436527705 -40.127131915 
-35.055451155 2.2570005526 -5.4300701815 5.17471534 10.122814597 0.8389016328 1.0272577294 -34.944950087 -40.198028306 
39.870057476 67.51841361 -16.057408932 -8.71483136 -24.812650898 -40.599680551 -43.626517674 -1.3184717559 -4.0398571947 
-0.89156213009 -79.715507355 -91.717773663 -33.942781259 895.47876135 367.64558425 -189.12763271 3.4652338284 -11.213957212 
-6.9780516923 -2.857916645 -18.169113548 -11.5650716 43.568090968 0.98546318296 6.6266433507 3.3937551975 -7.2133060527 
-12.383867042 -103.09706792 -76.46844143 -27.220200988 -97.492001504 -40.993528869 -41.831343632 -85.071283982 4.6929714065 
0.007179103902 6.3369134702 -49.727214696 -40.107920937 -62.778523717 -79.140887978 9.2684442274 215.31204591 -134.98195838 
-218.08353435 -103.27902205 -190.05125496 -217.64289651 -8.1223276667 -16.938030571 -7.5393591499 -23.370994722 -17.990516177 
-282.54536298 4.190425585 4.2575952711 -21.255108106 -7.3023190177 -25.225495081 -17.418999295 -14.873334913 -24.499818356 
-1.8159663829 -0.46821385664 -82.59563537 -56.649098753 -79.887686104 -47.112045811 -2.1355410853 -9.5883198665 -7.3923217992 
1.143184419 1.4723577382 -31.101707568 -26.933705986 3.9912203081 -0.82775681324 -4.8746843116 -68.686432688 -112.69587166 
-38.630825017 -14.135103442 -14.144399115 -17.842292427 -3.8046537909 -6.8892631162 -3.9914175354 -4.7995696985 -59.281557456 
-64.375203376 -189.11915425 -327.50955792 -110.4051442 -61.513042933 -111.38943661 97.135470958 -17.844994206 -24.744839592 
-1548.9328491 510.04026001 -23.376917782 -34.208159733 -9.5761868476 -244.62646897 1975.8525157 -2879.8428858 -1229.5196965 
-12.823052534 -9.9285139109 3.6594674017 2.2260558071 -3.5863267951 -106.3660313 -98.31511371 -146.41904377 -47.434352825 
-22.800662155 -9.4872184135 -13.378804936 -20.442625248 -8.2237003915 -13.291965538 -14.722868993 -12.69931512 -6.2268409511 
-75.016807511 -71.151752152 -270.39537935 -29.990782539 -17.31950141 -29.353391824 -12.458148675 -9.7044640092 -3.8066944514 
-57.671709193 -70.847224217 -28.210653358 -5.208825851 7.4070649097 -20.32352415 -14.059929912 -21.496166639 145.37790309 
-258.3600951 230.71331575 -68.017427071 -269.43932873 -5.3983795685 8.987184118 -54.114744393 -33.624476646 -26.873607055 
-35.519925489 -39.17872213 -125.93175926 -2172.025882 -1108.7637278 -6.5175269709 -3.6688176738 -4.27727677 -2.465722019 
-8.7885959654 -122.11916656 -2.0462148516 -1.2448851624 -11.832468008 5.6804191824 -26.527069137 85.730287704 -3.1779089819 
-10.233956175 -14.616567769 -4.0947159166 -10.862992276 -189.70884914 -168.68667688 -1734.9569548 -97.890277664 -5.2965745114 
-2.4684228957 9.0044929694 -501.4744183 2294.1412385 -11.545197051 -7.1670868426 -4.9165730528 -28.210691609 -19.826424512 
1.0234576502 -13.85486409 0.65003993756 -707.53133882 -723.71173566 -672.28443657 -4.7688457652 -8.8507735523 -13.466377797 
-7.3660887872 110.3566733 298.1229392 22.601848529 -5.2802898559 -7.9594087259 603.07426791 -10.634070363 -4.7654193812 
-3239.7786202 1704.1575179 773.38047532 -449.46742023 1759.1407304 -29.668694041 -64.625551927 -44.040808761 -34.629395417 
-36.664110157 -83.962295654 -11.154767721 -4.6083587171 -1.5975955016 2.1548327846 -0.013054050352 -130.36163945 -73.334207969 
-1471.8109175 511.77718728 -3514.7703112 -589.46426314 -15.233637924 -15.13840309 -16.670109212 -30.723718442 -7.3904086687 
-10.644913069 -12.040089428 -3.8168840082 -5.7855271857 -150.93917628 -142.42454205 -0.18802376286 0.015690411345 517.57365216 
-98.022699738 -34.259755976 -21.777845699 0.17153072477 -8.1075709077 -3.8834702556 -32.468021457 -13.234449842 -17.345330442 
-46.739697432 -33.13832225 -47.769258329 -27.82881359 -2.0089822808 1.3963091457 -2.0905152435 -72.605235546 -14.607751617 
-29.383208583 -29.454233118 -7.3922213806 -13.254234127 -7.5623030289 -3.3173022306 -9.2606618851 -45.987759251 -24.622145061 
-2.3869190759 -1.0042334714 -15.468055391 -11.484383501 -10.732949831 0.21375290521 -6869.6615763 -805.41563066 -3.6806526845 
-60.658075104 -13.676975397 -23.40437338 -17.22747245 -1.9866219556 -2.0403664641 -3.7603657626 -9.6792991986 -79.439875189 
65.782524262 -139.74058911 -62.075891291 -36.729104074 -52.368662182 9.8563664994 -10.740230283 -2.9693959902 -0.80196856598 
-18.460936923 -6.1528617829 -23.745629402 -76.476041653 -49.111772892 -37.574946367 -13.836275354 -10.653483888 -33.869441091 
-12.327778351 -22.944393586 -39.387294101 -62.51157835 -152.81254832 -397.50377693 -405.98403265 -234.22941293 -428.85862314 
-235.33227507 -682.84504319 1854.6213511 3626.464182 -532.49943985 -50.705296813 -264.15342676 24.754925726 -33.044650478 
-97.410570488 -9.7294136724 -28.365155305 -21.495809519 -24.281244327 -194.78545941 -397.68707284 -411.40923617 -254.442114 
-17.121240989 -9.2477019092 -59.471452635 24.546893401 9.3155119333 14.369641138 32.551687774 22.675100139 -2.825408341 
1.1162353707 -45.048579473 15.536444441 7.0001277866 12.976971125 -136.09379271 -45.286309394 -27.547077907 -26.486404372 
-42.584686683 -22.30677376 -36.189054098 -25.287576191 -19.305542847 -16.181253105 -19.540512367 -16.005007363 -5.3209519813 
-9.5974550502 -12.250171168 -45.949588122 -30.771536788 -55.366909773 -53.283756472 -67.994172241 -92.759061196 -106.68938244 
-90.241569724 -104.37550182 -344.28541739 -30.175769793 -8.846383676 -15.555552243 9.0834584335 -264.40285448 -171.63027044 
-205.53011293 -226.40194608 -209.65369497 -420.27702857 -2767.2516978 7.9532041045 -128.33546683 -72.031330937 -168.94248337 
-7.8415338968 -3.596957925 -69.246597529 -80.802342781 -50.924655856 -66.611840514 -77.105778015 -67.402068211 -20.068083022 
-45.993046618 -98.765406919 -32.5301737 -95.055190996 -63.180579935 -63.996471567 -37.155368098 -84.478928761 -100.71366407 
-38.025976503 -18.954662542 -20.004471805 -65.111576778 0.9777351 -1.4264765332 -2.0328690772 1.7057882209 2.9254165484 
-490.4147324 -44.720655515 -64.884354982 67.357326171 486.87330113 1.1455531934 14.071787948 12.359623647 -28.267906033 
-4.8679626226 -23.192933845 -15.809322237 1.699024484 4.8324711779 4.0279218045 -4.5877146462 2.1986863742 1.5136969238 
1.6351259182 2.9066630786 -3.7791740894 -4.7859075888 -139.14247453 -158.17980353 -149.16438803 -21.343603824 -19.317353533 
97.175277005 -38.724378164 -5.2072452219 -0.64886819078 4.1423079566 -131.12339567 -309.92724159 -111.56776917 -251.51302212 
-266.21996073 8.6695550986 -23.337188479 -7.1943492909 -2.2787973021 -22.150946738 -20.877044849 -19.922255154 406.05083655 
-483.34774181 -1085.2000775 -415.55407333 99.613058805 -797.75944214 342.02368265 -10.475239642 -16.380717602 3.8444027021 
-2.2269900664 -12.779063477 -10.240464764 -34.851083185 -48.72722038 -41.266745372 -2.5713156724 75.742871258 -1.46703818 
-74.609934774 17.817143313 -1.0707091428 -406.21717225 -14.727463266 -12.392868714 10.067896188 8.9418995533 -8.7159498035 
-13.948661862 -28.576031816 -38.746695795 -18.165944784 -17.759619046 -10.896540621 -15.150345597 -27.469192468 -83.54856859 
33.351370494 14.377940006 36.783300279 -5.3883923848 -2.7154094166 2.1119545048 -18.483625216 -31.909078561 -10.67289017 
-126.3062991 -14.838310716 7.5033459419 -21.502533216 -24.724536874 -5.0271930398 -14.075400925 -20.793828625 -211.22999358 
-37.265020096 -17.589612308 0.36159764353 14.520821148 -66.640063635 -4322.7191164 -3.3428302428 -12.516633216 -10.587659791 
54.905628776 -85.886991309 1.4591155633 -763.79985227 11.500488385 -82.445619229 -310.59336498 -262.42928237 -70.297937583 
-78.054092967 -156.92886441 -81.196079092 -83.09876007 -87.082054413 153.60263233 10.311131676 1.0742358123 -42.816970752 
3.5467705435 2.917950119 -43.264100333 -46.719810738 -73.878097943 -1.0657252938 -10.248519141 8.8834412859 -43.827831679 
0.73655507238 55.066971543 -0.15763263167 -40.429454587 -41.160158172 -11.292526337 -10.050147197 -44.852422233 12.678292009 
-37.483301309 -111.16479206 -45.770783838 -77.744442792 -84.856891839 -12.918328562 -97.579617763 -63.493824137 -3.6777791276 
-6.888468968 -22.84134544 -26.937753251 -15.356947316 -96.631860637 4.2119903779 -966.33422858 393.24629744 -10.916747833 
-1.3506088118 -17.819364214 -145.8313856 -53.547886942 -78.780950308 -38.599437919 -7.5206458281 -0.45441218924 220.66195945 
-0.75271067958 8.0586666729 14.844766424 5.1088039871 8.2133525778 11.306483503 5.0675434633 -7.4584095144 -376.41384667 
15.169296572 32.764438048 3.1332042971 -190.78091987 -133.86547159 21.631322196 -5.1069963196 0.30209046327 -4.1429994976 
-34.801898184 -41.044798662 -8.6242546417 -5.4460731337 -17.470852936 -107.67280069 -104.29573769 3.0333989113 8.828352597 
-1945.502294 -1437.8945083 -11.230807454 6.6881031703 -227.33410175 -6.6934673569 4030.8767288 -12.072905101 2.4036059733 
-8.7612534106 -1.4897500245 -6.0005339104 0.88654774464 1.1300356665 -5.6260154245 -1.4293249273 -7.5997341548 2.121279383 
-95.966561441 -102.1595193 -2.3252076415 -103.55771697 -66.419881655 -58.628833466 -172.13013654 -184.70567561 1.3207497284 
5.3900835361 3.3213859257 -1.6354425319 83.37934304 -2.9666079435 8.9547582108 27.045023287 21.092726974 -2.5883016397 
-3.4194693098 -2.9812618029 -9.7405862393 -28.047144536 -10.073700738 -6.4703785989 -3.8919146195 -6.5402726892 -67.318002062 
-28.119723537 -22.417414232 -271.0386516 -174.71675227 -1.5577360778 -111.97783363 -154.29538262 -2.3521422699 -33.818743231 
-17.634103231 1434.631819 863.91805331 72.069953058 -22.99364306 -7.7435764162 -18.422069012 -25.175483324 -22.78448513 
6.0408490498 2.597904341 -1.9854778979 -74.57940748 -17.574742161 -240.16193523 -30.748350138 995.54538674 56.74319691 
-673.79054263 -172.01316824 -97.040763112 -182.26226796 -166.45416882 -217.94822212 -47.993713917 4.870648615 4.4336008506 
-82.43072551 -331.79715491 -174.06497306 -162.31945553 -149.89141345 -188.62344185 -50.645410915 -5.532798875 2.3235969941 
-32.574490189 -43.228084983 77.518484292 64.400437123 -46.379205781 -35.626739391 -25.017251051 -575.74135 -509.0510519 
-2.0332515503 1.4234879571 -17.24813369 -21.60979212 -25.371305442 -37.447507462 -28.169080546 1.4341051022 2.5239647096 
-11.746805042 -40.847404068 -62.855112653 -288.54483974 -3.2498979156 -6.3082703549 -182.20177986 0.87484069728 1.0548799502 
1.8614514003 7.4489321941 6.0516473852 7.7722330223 -35.57520771 -0.75237160953 2.8701286035 -29.685780391 -5.439921869 
-2.8012507297 0.15177856201 -8.621551608 -53.678855036 -30.930290562 -343.5655238 -13.828000036 -34.096003828 -2.2742589253 
-9.5129207822 -12.432642787 46.964383413 -1.5318573995 21.820137877 -63.109465355 -58.803876586 -32.657830464 -111.37446503 
-133.55320006 -156.89751414 393.22021016 -4.0392263213 0.60282842424 -298.87615572 -3.703493192 -0.27575759048 -1.2696682029 
-3.8288491202 -0.65705389646 -112.37207514 -157.32274625 -103.461185 197.16546088 0.53348404231 -1.3186212166 -8.6746681062 
-874.15923474 -20.395303329 -19.733061644 7.2130006268 80.427915872 -2.0841645397 -2.6455472325 4.7950268804 -109.19153985 
-26.621172786 -27.548368302 -83.826503781 -91.719882829 -29.682908058 -6.2049693782 -10.101571295 -473.50381007 -1578.7072386 
-11.687661157 -102.68394412 8.5113484554 -1.0543587966 -3.0594306617 0.6854286562 3.0314371375 1.6127798472 3.5196958248 
-1.1190328142 -7.5133592242 -17.579653132 -153.43365932 -138.29114728 -9.5674095309 -92.257893272 -4.4093075318 -2.4435853296 
-11.371646771 -37.398481964 -164.28219197 -10.186365599 -17.42386293 -292.54013299 -3073.2757792 -1001.0663173 -16.017374054 
-7.5956699899 -38.155030673 0.26278227097 -26.003358458 -1.8928243973 4.2777875614 -5.0811658843 -14.710995768 13.59340432 
-104.04942858 -314.79962751 -1.6386370488 -16.530318019 -28.849661794 -10.60542565 -27.924242691 -55.359862806 -63.465068992 
0.77891265786 -28.846645436 -155.34168783 -132.16190898 -12.600414386 -46.330285877 -11.786673902 -3.1049205746 -18.106766546 
-15.369095423 -9.5622925468 -149.68012466 -32.103081583 -6.5010975855 0.66169612218 -36.143793773 -137.74508405 -141.80039496 
-185.93112121 -182.22303534 -204.96023994 -134.97779378 2.7644988065 -2.7744723666 -18.340783121 -10.028540989 -39.233426037 
1.8334328525 25.155242746 -13.732525522 -69.160736007 -50.000866299 -60.482528868 -17.866255157 -56.9157425 -45.003500138 
-10.241048136 -10.744930621 1.643625988 -0.54760105054 -510.36662779 4.5333261504 1.9705929047 -275.65544741 -186.284164 
-22.906034452 -54.376093407 -18.595056167 -13.704707655 5.5872546514 -1.1689006814 -14.744921337 -55.526380558 -1.7326382956 
-4.5230854619 -1.9591958827 -159.22954288 -192.48717401 -22.012589425 -34.513261894 -133.66174644 -0.9177417145 -17.151961649 
-534.73583757 -0.48312171748 -17.577151272 -20.767213701 -58.686674442 -15.791400926 -19.72461846 23.548137376 7.7631079751 
-0.008108202495 2.3474061311 1.5001627462 -21.240083966 -17.169432926 -34.193455056 -10.043316043 948.39870756 -6.0398212643 
-27.29663409 -6.3554970777 -15.250615584 -46.361222018 1.7044086768 -145.89558894 -3.279882469 -115.93754078 -40.242504038 
-33.035530032 -2.1656229322 18.625118929 -8.7574555999 -16.99788384 -21.524393584 -1534.7110621 -41.844025345 -41.26424799 
-1.3857238897 -175.83583207 -135.01993757 4.6428738605 6.3156605492 -149.75680968 -36.172013427 -75.778495638 -38.322444392 
-36.717166153 -83.324715491 -82.996847356 -4.7784694591 -4.990046482 -1.0041764283 2.231983899 -7.9729823733 5.077045405 
4.9196749804 -9.7606662234 -16.560719821 -6.0450854812 -6.6984597997 -18.45858822 -32.138136311 -37.821661357 -12.60813541 
-29.215526818 -7.781975931 -136.69679656 1860.7926698 -49.628257435 -136.263876 -5.6031294002 21.09858913 -35.877840037 
-252.32860386 -6.9089742657 -189.88050423 -8.5917157805 13.190518272 -11.055517242 -838.95391413 -113.10990155 9.5885248259 
-150.92133758 -85.699832764 -11.152848599 155.30048931 -113.48962693 -70.135224479 114.60692926 1064.0918912 7.6911339384 
17.592404236 52.731509422 -58.606235134 -28.897597042 -326.86613245 -291.6656177 -17.532770105 26.234183076 34.7358064 
-246.22968074 -164.95198515 3.2076794797 485.14103167 52.343315825 -53.279062319 -19.913186661 -13.462515875 -13.218960835 
-70.995653645 0.18364454041 -1621.3336754 -51.18766049 9.162075685 -21.575604044 -52.556282373 -168.60246662 -19.685351853 
665.66318539 -148.68135163 156.05705384 -31.983923312 3.7380130706 -158.84639133 -83.626199183 -47.302438571 -311.66302636 
31.428017638 -109.85959856 -6.0534230272 -7.648533119 104.70317806 -30.94222721 -242.20032517 -161.95718382 4.26070025 
-66.394738572 -73.843607956 -7.753224376 -5.9130645278 12.528161615 17.436932785 17.10297229 -516.24014314 -14.070686907 
-7.431888346 572.99226556 -24.70832519 38.688645318 98.895991384 -159.5035074 29.456380797 -107.4697249 -0.13909107522 
5.9106861414 -535.14287074 1.7660282258 -132.22349781 -41.187412397 -362.4276543 54.43350911 143.84562873 -28.463052061 
-34.533552212 -26.795376456 29.970965939 4.4145601534 -50.145715168 -64.842586022 35.916021063 -3.7111106271 677.34052769 
3.6370628835 -74.534806208 -7.5558887128 -591.37368571 1074.9047218 5.2535008732 5.1853689088 -60.698179194 28.834599812 
-53.374014781 6.1056234435 45.378231166 -21.684632734 -1045.3338758 -40.630028504 -472.96944824 -10.810655242 -46.136637986 
-11.898892832 17.046554403 -557.57526037 -30.347364549 301.96785812 -480.50054327 -2.8833550085 26.812931693 -94.677389825 
-81.695428884 26.239795461 -231.55814951 45.436557166 -39.326910198 20.753640034 592.91819501 -37.518488807 -99.135157656 
-70.98748086 64.782124016 -170.79537374 139.66994072 -20.067343607 3.8407120866 13.609883282 37.271732571 -514.41215507 
-29.002438365 -48.826309937 -222.46550728 -2270.3802275 18.560949273 -27.956906582 -66.786516709 6.4333571509 69.014373105 
-17.776190753 1005.3146413 -0.57169467099 3.4482464728 24.569917461 -33.135354914 -499.93683582 -1.9995207445 16.591249175 
66.429643294 -24.058827995 -101.82094019 -113.19150054 3.2129282167 -699.98218331 8.3875306599 45.398047286 13.512491094 
-9.0369211236 -24.230331988 -153.18347518 262.33800092 -46.557315148 252.63665894 -128.78111258 -13.816840024 -44.014261015 
-990.78658721 1.7377868475 -5.6876486121 -429.04994989 -8.0103952245 -233.90917742 -9.3205272309 -45.737967185 37.403303151 
91.546994788 -12.406544808 385.65740146 -506.17622953 23.669023056 -72.464181244 -115.64540617 15.182209771 10.024252875 
238.84571468 14.760811202 57.091948006 -630.7228372 -93.87153669 -263.16385672 -98.889274633 2963.3652586 -37.113823779 
-423.9851012 -64.91288295 -27.261057928 -18.268898317 11.429091838 -15.809871333 -4.7362418775 8.0496004464 443.88300389 
-7.138533455 -79.06669071 -26.42511624 11.373624801 0.036490707381 -38.768532245 -124.82339044 3.1059298293 -169.91633867 
-1033.1433935 -256.00730537 -612.51471357 -17.187973483 39.275893844 -116.03011736 -47.563989647 1132.9360586 -36.22029709 
8.5885887818 -28.97218876 -221.58361619 -101.7956971 -197.86329758 -640.01825913 -265.88356893 12.620787012 32.124788868 
12.687243077 7.663491175 25.878099058 21.449704534 -515.43964814 584.73353291 -436.63437211 -175.79229115 493.820805 
757.47953386 36.81754862 29.820307401 27.154778497 85.015154999 -33.906170073 0.33858705711 -1.141400006 -7.7097100468 
51.833137703 28.658168332 5.793981564 16.648621446 46.52705908 47.320929355 69.443915984 23.928157649 15.389357546 
14.055594815 18.395903667 10.776918193 16.615674412 -301.46789198 939.27138953 -88.592772819 1481.1003341 70.838616618 
283.315119 940.8838192 -83.468978523 85.673027424 12.621848023 5.9603110098 6.9310807137 5.1028010119 3.9002624493 
10.612350909 19.304355566 12.741342039 -86.318793246 -105.19029249 -74.937038848 -102.1565645 -112.54369059 -125.69931253 
341.25329821 332.19799246 -4.9081200084 -38.271147399 0.420141466 245.49499921 -121.49098063 -172.12504912 -41.712623095 
-11.645865157 -62.646876779 -166.81762022 -183.71540607 -113.63696505 -100.20680042 9.8615180536 19.08768314 13.003219561 
27.89280113 27.389520517 2.0072903489 -62.75758747 -25.493377278 -46.05454688 -71.638030611 -22.572490568 28.225366786 
35.351598007 38.4502622 32.047032776 38.416141596 25.76878805 -73.3234895 -108.70383785 -237.73609518 -44.764025838 
-35.815774574 -63.454986729 -372.01264971 26.450756932 -201.64546728 5.7331674791 -2217.4361585 -1421.8751574 -442.72962444 
758.72714075 -2046.9411486 -11.115380129 -23.493212382 -15.628999346 -19.298103264 -23.796562618 -22.523762311 -11.839139083 
-12.466143987 -30.076472809 15.708207085 -0.038286721443 24.130945928 -86.383047797 -962.9496171 -351.19236665 -1840.6689645 
-1645.7455459 -168.33985812 -48.478716056 -52.308551329 -62.696128376 -14.433344534 -9.3941498622 -1.0594661484 -182.64887417 
-137.48283456 -176.92767366 -42.007731123 -22.200761249 -9.3989278951 -33.170265068 -17.284922547 -34.773716185 -39.156336906 
-18.988861684 -13.470693745 -107.7398826 -173.05292673 -144.86298845 11.9007142 14.652800472 0.73580719959 -0.3258873803 
2.2421681827 19.461116629 27.415050614 18.552723693 39.209561714 18.102266796 5.3626856584 26.290546418 28.627219231 
-14.158344105 -9.7653962033 -12.057605856 407.72952264 -130.86320577 1209.1106644 33.261855715 38.566174852 32.321289202 
-52.500274341 -22.234582356 -50.079723414 13.187273664 2.8692224483 13.696110736 -2.65248482 14.355457842 -3.500279867 
13.698946559 -20.325385644 -39.208954448 -28.069156168 -142.78664507 121.72662994 -197.79422281 -81.513565067 -69.824393739 
-43.83298887 9.8709856133 -0.35678124922 -6.0695169253 11.216280531 -3.66844219 19.383097625 6.5179267003 -12.009934494 
-5.333792592 -11.939674061 -46.428942379 -30.949594677 -25.621300803 -54.717732702 22.285683079 26.869081143 2.9605131559 
-8.3519544124 -1.2135560036 6.4362391446 -82.031652472 -740.81055553 145.50332263 -131.32849447 68.347184476 74.203892849 
49.938954057 -16.04751241 -229.19950431 -213.29437379 33.914576619 -113.69888731 40.643637148 -19.945132531 7.3749416421 
-9.9260721638 10.560177183 -0.037307800943 8.41002211 6.2654035048 385.21553708 672.2154445 -324.97380098 15.297622515 
-106.26049087 -71.568681301 23.333764344 -234.30386185 -2.0538683181 12.456567587 -2926.9840835 -100.7610954 -22.333879073 
-71.025129657 6.3075905424 6.986090845 11.82446968 -8.4493905359 -12.245912035 -56.36410621 -66.163094874 -78.829730498 
-50.853916232 -45.996660645 -38.062388554 0.10920836685 9.1750415022 -3.9956774475 235.77933961 107.19922353 321.08555757 
289.34382856 151.21045621 98.064064033 8.05905183 -0.72400038841 -143.4193193 42.713769722 31.467046887 30.329418897 
-366.15300737 -322.37241639 -370.80440571 -382.28232465 -105.3619578 -282.34522338 3.5275807552 3.9010783775 0.23374719359 
6.5897007931 6.9427520545 -148.18559688 -73.491510107 1.1447586933 5.8694191835 -0.24505851216 4.1632969865 24.108825134 
30.823012215 37.662370229 50.740907258 27.387757789 16.193617041 11.610080791 10.545103732 22.908803637 11.674444534 
12.677905759 9.3998736375 8.9735984003 -6.887397866 -4.5780399446 -24.673749584 -27.682377694 -26.589743997 9.1423965518 
6.8666929818 0.22169378257 7.2404880965 3.8037043588 -18.702605544 -7.4547184636 -16.719346089 0.17310246175 10.056091509 
-6.0589636952 10.468656508 -904.54357192 -384.00826824 -838.87808754 -734.59268931 -367.34675801 -2324.1497383 -1471.0826376 
-2523.5174306 -41.412973829 -25.011951231 -19.394158856 -55.595986673 -39.679145634 -52.880940377 25.244734582 -22.152255307 
9.0990970534 -2.7704099412 323.79443928 467.97281613 94.742711176 60.345906448 242.0294817 -1209.245679 64.93275126 
-540.24389668 -1438.2469975 -107.88275077 -490.24421869 650.01826644 1009.6778525 -16.653090531 -46.476867662 -24.248610567 
-1.834062007 -4.4949393783 107.27910489 255.00678587 65.623768162 798.83721477 -789.39868282 218.98573372 -203.59211665 
107.03906343 -639.50562122 -16.34469844 -27.706945734 -56.661185015 30.66081679 -95.726050733 -3.4289797256 -1178.0666868 
-3123.671028 -1900.592356 -21.925160997 -11.794159737 -35.234790278 -40.334869414 -2.0368386822 -154.01183438 -300.2601798 
-166.86009973 -25.558680804 -35.200909584 -107.68634873 -46.872384672 28.085322496 12.011980213 503.37679827 113.80983155 
575.12239901 -547.79369425 183.76740433 7.1588808232 6.1698963783 9.5545801873 6.0578830602 6.3277875583 0.45724295289 
0.32303755755 2.3179781856 -0.73253656199 1.5317961023 3.94569528 -2.2783567464 -9.9709063898 -0.5016568586 -6.3016101056 
-4.8846044637 -0.89985965915 1.0601734489 -1.875406951 -4.8533373708 -1.1117674075 -0.90036554488 -1404.9121166 -1075.4397856 
-1536.4977705 181.67432871 -2.5405455886 -16.279349805 -8.7439767101 7.500856932 -10.018269933 -3.0689660384 4.0089286758 
2.0721625904 6.8595571665 -137.72414092 -21.095318101 -113.94381176 -10.843455847 -49.676622727 -46.142977565 -30.252109782 
-35.428213787 -55.838091513 -27.544177938 -44.104017031 -251.79675749 -74.78884088 111.84858805 537.24923183 -618.9797356 
-860.46652905 -175.62429673 -0.16637027317 -49.148520044 -61.285591218 8.8691166665 16.463328482 26.973025345 3.4510259759 
20.339971539 -38.783685147 11.906517828 9.1807451466 2.4529462616 1939.8726989 1548.3746801 -905.2414587 2846.7327611 
836.24155446 71.927248537 99.23303322 9.9819054029 41.132955387 97.113912561 1.1460762852 -4.6113067778 9.3383205112 
-95.39198961 -93.220174392 -90.583431917 -1021.5539303 1592.4285933 -49.808872114 -70.781579389 -209.43628997 -366.60348786 
-101.4182886 -24.211047924 -158.03680211 -255.83653379 30.270945479 55.734087931 27.026837732 68.403632676 41.918467718 
3.5278107973 2.5950873987 4.5558888977 9.4138327439 -24.761827916 -20.34095189 27.736837922 50.774896454 106.3110585 
77.08753951 56.353008016 97.370065658 72.482151349 -154.65565897 -50.555898757 -26.626592923 -18.99606307 -48.373589794 
-29.430746961 -63.378384671 -1187.9452959 -338.23320778 -1103.1255957 -628.68630304 -395.08723181 -491.19877547 -819.13354528 
-394.3579201 -177.11218187 5.6553014688 19.889816005 57.595011285 68.769439681 11.583588886 37.129457667 5.6800542893 
16.683778302 270.23185142 2.4987808776 -384.52497661 24.436118015 18.995771793 -175.12469162 7.36971162 -238.13586747 
-176.87837377 -107.21691741 -0.2283531344 0.30218669504 3.7879222592 8.2537991224 5.8030480195 1.8842053572 -119.34093066 
-444.30192968 -456.1989925 2.8314917555 5.7983400474 -12.036678531 -113.79184321 -4.8953784472 -102.03673226 -14.777425511 
-223.36606171 -115.91972323 -243.94229532 -139.96049226 -192.64331294 -273.77961299 -327.87563926 -11.017448981 -57.797793645 
-1436.331392 -1827.9761488 -3903.4129088 1444.5799604 443.50357285 -230.76726094 -417.5173811 -548.29868598 -122.20367964 
-177.47611077 4.0137478497 8.2450466749 13.650601504 13.010864476 6.5366787645 5.4868070027 248.01677845 -39.62165144 
-77.255894303 155.48009096 -48.577201411 -324.55145282 360.91101106 375.7102255 691.73606984 183.13951538 182.19279598 
644.45188986 209.66784996 195.64377404 136.05429486 2.8815064244 -0.29548930869 1.6184103876 -0.43066253798 -4.4903908439 
135.83575688 -40.130662249 -638.10025819 -13.94532651 123.98801451 17.707301858 27.77625182 -54.335677139 -95.764647559 
-135.57222121 -181.80256478 -438.26427643 -299.81573131 246.34577279 -1668.6568436 77.896304948 0.30866219431 -1.9653728026 
-4.3993820879 17.747365629 347.0511326 448.20098058 239.14060122 -0.65697976367 0.75805314848 -12.225499172 -9.2017306002 
-29.986299889 -85.392068822 -79.436133775 -44.413183033 -105.79137623 -65.817558534 6.3851939619 -16.825733533 -28.331403676 
-18.749128112 -25.416641369 -7.9048636868 413.3581364 489.60020017 -723.46260261 -503.22406981 -1567.9044661 -2.0726350738 
-9.3062386937 3.9032386032 0.41039936904 1.4197543029 76.446308038 216.15253338 104.49892322 -2.5431222298 -454.4114964 
-18.997605876 -25.088027368 12.392470283 -17.77320066 -17.804788094 -1.4150694713 -4.144380907 -15.36753426 -17.527852689 
-18.428968331 3.093180291 -7.4798589397 -2.2843186074 -18.912891577 -146.95970711 -141.59469808 -304.94046134 375.30916053 
293.03875388 -901.00036849 68.321803437 206.37090773 155.8424766 38.839318212 59.815096662 165.66916085 63.639785499 
131.81741513 -7.2905423857 -9.9780346845 -15.700017774 -8.96182745 -5.2975656859 -9.7651991463 -22.216529549 -15.844702764 
-26.467723286 -60.458964024 -1.435204458 -51.016853897 -69.201382317 -38.476680453 157.36443275 -115.55240534 -389.07236105 
0.19749438214 -16.62246922 -1002.3764803 -853.08993982 -273.08131408 -21.459134893 -3.1858986108 -1.8487971888 -2.6945540871 
72.298381659 22.689695183 -40.465063822 -55.096846684 372.38040119 -74.51759418 -47.317328173 -46.032889235 -22.414647012 
-41.689140408 -75.407275008 -44.651920144 -52.439853413 -60.137965351 -30.629686139 -43.505525081 -15.361018543 -12.723621137 
-4.4651671767 -320.42219711 -0.39510764718 4.806877833 4.2036206287 6.1154472028 11.548352264 -1.9011430643 -4.447910383 
-3.8151582661 -9.5738474078 -11.367760913 38.495623167 50.218717738 -1087.2013236 -384.86501971 -324.0495236 -51.711182832 
-8.4822647581 -34.449208674 -88.880969129 -40.192470108 -58.153269354 -28.064921494 -22.442341823 -106.59990746 -2.3812380036 
-70.116783621 -10.353507327 -24.383537957 0.13532422766 6.1593463084 -6.6044728602 -15.324441735 830.74392412 -213.1550238 
6.1265756175 5.947431426 -2.8807419042 -27.967695219 -9.1075751267 -62.556421878 -37.623719111 -88.634228566 -82.804094033 
-65.581901681 -49.851322343 -104.00960931 -13.043687324 -14.041693858 -27.190143732 -14.870345417 199.7936524 1013.5557102 
-172.92048703 -171.0771087 -138.28775811 27.876431704 29.89697886 -167.06142666 -61.642014307 -108.23222932 -17.787528761 
-32.40752178 29.452796928 -86.649999718 -334.90538605 143.31025751 -464.90148103 1000.9338657 10.604344181 12.557648361 
7.3490380104 -7.5475578534 -5.0010718694 -0.49314036511 -17.938864462 0.44699683195 -13.348921373 -181.59374035 -232.85610953 
-305.24710524 70.210282427 147.07241747 174.29435321 -58.725084348 192.57734011 59.854787275 -72.110055257 -64.530359249 
96.76507732 42.537834114 61.83373048 18.497832219 442.54923771 37.207545817 62.680783285 -321.23057638 -1835.677386 
104.77052989 -12.13772454 299.73258334 -212.64285784 -291.06863821 153.40360976 19.503381968 658.00547198 550.01286935 
4969.6913556 30.488574571 36.781215778 41.4357334 -3.0422985675 -12.01786579 18.92498465 19.639618351 0.65577631859 
-2.8611937893 3.1263983812 1.4607916089 13.986028347 -17.530968971 -11.041311115 26.86088211 -0.26603223502 -1.6085440861 
-9.5512693747 -14.387678953 -13.059381445 -2.4068999652 1404.8785177 202.25343973 1449.4872553 26.298552763 -43.033694683 
-27.073104858 -56.14437693 7.7611102138 -5.3748841888 -621.41256844 -165.50151804 -15.18263422 -11.123029724 -9.2982762299 
57.77886163 23.098464025 21.855508185 2.4779464071 -106.00356418 -119.30067923 -49.243085453 -112.95088466 -3.4699230166 
-771.97079499 180.87852766 18.34834125 1.5976038526 -26.133216202 -3.4929007493 0.28805231733 -263.4238164 1.1762038301 
5.461136664 -1.5002142796 -7.3191150029 3.9829999936 -1.164392571 -14.507445985 -110.66463761 -198.06989877 -7.9030475776 
-3.1540265112 -7.1778775895 -8.1649350443 -9.6661934942 -1.8472486172 -5.1031905165 -0.24702945386 -15.00971242 -22.956008127 
14.508201324 20.725695794 -3.5427701861 -29.534315212 -4.2223057734 12.368132117 -915.17149374 -1585.286463 1234.511507 
590.14432868 -556.23743718 -1907.217047 -5.6344298116 -24.111022116 -81.676836211 -51.02865251 -95.760503312 2.1205042287 
16.426215813 -2.5632250814 -24.082460408 -78.432488975 89.695820143 126.16389718 31.700838106 137.13488062 49.33764324 
55.048759909 6.1944703622 -328.41554635 3.1510102808 7.8790142933 12.145219378 34.168143526 16.350770421 13.840822272 
5.5066380216 21.163232608 87.75857223 -52.321687238 50.723545568 -43.275676469 -93.315354727 21.554140171 20.054165671 
26.425743898 -3.2077712099 -9.9738307814 -66.364096937 -68.063521953 -53.942568714 -190.09325765 -307.27929527 -1144.0548927 
-805.12498557 243.84359575 -1291.068765 -470.41485601 -470.84442578 -2655.6794354 -890.52989695 -591.15332793 -0.88674742933 
-0.085468346786 -15.416949513 -4.3168114055 0.21126736856 141.60758759 -184.78183458 38.661437538 909.67197954 500.80278652 
216.55738248 1625.5837289 255.99966112 22.321707784 -112.40489835 -380.02403056 -310.28638483 -70.13145873 -17.971979215 
-4.6919909129 -8.8460164864 -15.554886147 -6.4189020986 -15.299062048 101.00823951 56.158605677 53.417633487 -2.3651822509 
6.0227198013 -82.728444979 18.936241122 -30.81602748 -20.23206559 -39.230193943 -35.122878939 -48.260208849 -484.7904788 
-201.00683914 -234.01540529 298.77482557 7.4025957056 -82.149949125 -43.637486221 26.781964297 -2.9200589615 -0.68660814744 
-3.8767714894 4.5832069712 -11.185475176 -21.884126537 -12.721684162 -85.292433624 -60.108869587 -247.96512009 -99.611118212 
15.786927485 5.347922614 -15.515175594 -41.988847043 -2.8492054051 -353.63463704 -2.0643924702 0.12661173309 -10.509048552 
-9.5727412545 -46.918516195 -8.9744076388 9.056283943 160.96524215 -9.3562704615 8.7823156914 -3.7661802256 -191.80227826 
-149.52020273 -152.25908656 -418.55785444 -485.16853804 -243.56307734 39.264645626 -381.91391529 -277.39032541 309.41177588 
367.79354628 -9.6194166866 -300.82584925 -17.162512501 -8.7085123559 -38.377678585 -11.454382771 -281.41907159 -7.302187889 
-76.820736295 -92.420535063 -123.03511301 -1110.1476734 1164.8245488 -3094.658484 -3881.86902 242.24629853 -3.3078726539 
1.5725133056 19.102403341 25.488377108 11.516525511 -13.800292254 1.9997659918 -79.901472205 -76.355346996 -131.75212945 
250.13445712 175.08217523 562.3646744 1721.586045 13.873093718 -23.88920159 -34.900037186 -40.807895613 -35.572375053 
-48.700846452 -34.610621744 164.45428126 134.7833503 -23.389095844 -45.077243994 3.6883216166 -21.116010975 -37.15711461 
-204.56248495 -70.9743607 -93.348423499 -0.69911948702 11.225662162 -35.605114013 -75.325104659 -39.531917283 11.691873009 
20.223699094 14.786141704 -45.226625508 77.330152653 198.45540335 -68.919104895 348.06286297 -73.237002057 -593.1380817 
80.59562026 199.80410395 9.1536400084 294.21596681 51.895584469 39.236260393 -957.59983205 -1061.315125 -19.994715329 
-25.571789894 -28.981131158 351.50793463 -1006.4430853 777.60757479 58.077736869 43.868924065 76.059298412 -74.75843249 
1.4428797825 21.007992835 133.01100333 109.38597342 -444.81390242 263.44617249 594.46084731 15.930556451 167.64767521 
-32.738727747 -35.026301951 2.3779920271 -15.254055813 -25.784896618 -38.57324406 13.093033561 10.989092067 -286.31580827 
74.736437526 -372.48585733 1.4728185859 -2.2628189064 -3.2917994314 -1.1958439532 -3.2214909931 -49.530268008 -66.09818966 
-76.991826627 32.360806031 706.80020216 -191.51298001 84.177079053 383.77998229 -23.857997116 -10.777424549 -13.573429817 
-21.615273538 -32.032590491 0.56176222001 5.2356558695 24.492311879 24.18509287 -162.64774941 -324.12376085 -135.04766567 
699.02407534 156.94838428 -252.99239837 -24.171409164 -178.52051905 64.07172818 21.079331726 -6.595375913 -10.555374444 
-0.59439835497 27.279936481 322.4430483 202.61239226 71.125228596 -27.608929966 -21.504559962 -4.7777854329 5.4224775562 
-7.1603262475 -1.6300302492 4.4784754174 2.8137685206 -1.2292751456 -15.980942098 -28.988071219 -9.0151354986 19.732242728 
14.380896375 10.501120808 20.429043641 21.861037667 1414.8154447 -640.31788717 -9.206492738 -27.955316801 -21.089005549 
-169.92523483 8.1822775609 -0.98098928544 32.344139948 -2181.2606747 1641.7237453 1.9992451515 -0.30026164983 0.18162073885 
2.8867272552 4.7807404667 -55.45253535 -149.17926238 -59.351301101 -197.4312582 -8.3415474986 -112.07602399 -30.243731876 
-443.75091427 -249.15074944 -308.24501136 -21.259425444 -25.380868494 -46.95674469 -155.47951779 -72.295626274 -226.04658522 
-135.97590317 -198.97845446 -112.82264022 -120.62943742 13.11517043 5.3349627453 13.352275823 1.7474596877 -0.74618089107 
1.8691226101 8.2421322831 -281.12664126 -15.898374581 10.043608014 -0.12797691227 15.594860345 2.2731700277 -324.9511304 
-1965.0898737 3.0621176738 4.5005123145 4.5227670703 -19.291466082 -526.61705606 -1326.7119777 1579.8250923 -40.867729187 
-21.261599183 -33.588606645 -9.6407413896 -4.3657447055 -12.437408827 -1.1025241356 -16.301506905 13.194375921 8.9148233956 
-281.77938023 1.6454214378 -13.472720582 -23.638345567 -41.075142815 -18.491889484 -262.54305126 -121.12631168 -104.01539187 
-61.248134574 -127.40818149 -82.196628982 -39.668463603 -84.329289376 -78.181146383 -49.194213455 -2584.9137419 21.844492886 
18.315711561 28.646188681 26.814204593 6.5354146287 -0.24568987114 1.4162608951 -0.87526538377 0.32173109264 13.615478882 
-2.6473433333 -4.5668980962 5.608830759 -834.62543025 -866.97952388 -409.73208303 -14.587417032 1.2910978928 6.1091771148 
4.9170662498 6.6487618377 -3.0917056866 -7.2286407963 -70.107481741 -70.707377988 -3.3655185352 -104.13248218 336.85386467 
-9.1009272701 -7.3133722887 -66.87341536 -49.883865591 -132.81756597 27.366089321 12.524217031 9.6849523919 5.3440239029 
3.8983654236 -0.67246240526 -0.33736288571 1.9342327163 0.56698448618 -301.8180995 -5.5343011823 -1.1783755045 6.7707982311 
-8.0246986124 -522.81487242 -971.17423993 -23.033952478 -0.82611045768 -0.68256861257 5.5352827001 5.9720631648 -18.112972547 
-53.187342242 -29.219661485 115.99897731 -87.432585375 -98.300504214 -124.24834026 13.619410351 26.070077239 16.784151157 
74.368718902 4.2878585518 -196.59068823 -199.53510267 -3.7163299239 -56.665265823 -484.99025083 -454.15094912 -16.251107022 
-13.701865666 12.275124908 -42.450035838 -35.524622238 -198.41800086 -96.351069498 -134.29340946 55.967718272 706.62159666 
618.48114545 5.1181305402 1136.2384997 -0.62335611083 -14.919457376 -68.99731997 -10.801954469 -6528.3623005 160.05917543 
726.24290164 -1277.2823994 -2503.2564816 12.608902589 -7.6316361686 -6.3340796096 -13.817256762 2.9321788232 -4.7120024794 
-31.718270495 -6535.1054566 8.2279632227 -121.28650001 1765.8280147 -5.1357396272 -9.8962106723 -27.142715951 -29.143844049 
-8.6057515449 -33.753865808 25.373523834 518.32315762 -8.1537545519 11.811313332 -32.981082136 -128.57467751 -69.456110175 
-178.42878626 -23.027689357 -44.978513524 6.4918742149 -14.118580871 -39.566370581 8.3527884981 -124.32055236 -32.581793229 
5.3012011208 -64.408565918 -18.61836628 -69.622676625 -3.03094396 3.7776121195 3.7262754398 -1.3647169154 13.434887698 
6.7542369707 -397.55061431 -264.59199703 -1.0849017555 -1.5685990733 0.56375248596 -71.517318556 -85.20997983 -0.030874087688 
7.4244429702 4.9053563011 -1.6182405757 5.2883520727 3.9033301591 -3.2242286834 -1106.2196781 -4.9502470517 20.098317845 
-9.4475398239 3.7393572596 -36.570299208 -224.68968007 -42.054948206 -19.470059555 30.530906908 -46.236519743 -30.057054766 
-16.20177894 -30.425536121 -16.715315946 -31.618647418 -38.900603984 -24.248447443 -15.285926508 -46.965265205 -213.87088693 
-37.132885722 -10.510993337 -2.9441192644 -437.15091774 -677.79378832 -125.21852662 239.92454484 0.33554513968 -83.452038128 
-7.661244308 -6.2725122871 -13.26204375 -12.329782368 -20.897699085 60.138186576 -12.271371253 -20.193598019 -130.40576405 
1.013970826 -64.319939382 -51.004130659 -27.455282548 -63.209052512 -27.473182215 29.628339896 -13.654465154 -392.39719873 
-17.487116897 -41.071489766 25.028443626 14.374470887 -5.6843667729 -13.117739756 -57.618062416 -29.629544516 -14.866274941 
-5.2451467664 8.331820577 -44.404780313 -145.16042732 -127.4782928 7.9071169872 0.21262109409 -9.171065858 -540.60709399 
1016.7916165 -745.41731144 -2.8325041245 623.32401607 406.24535203 636.85908505 -110.98967109 -96.960938357 -158.83974102 
-994.83802158 -87.583328871 -115.25404396 -180.74575811 -275.85593777 -262.29589359 -195.54427912 -1.2799661783 -0.23833389937 
-0.23845326791 -404.89284192 -383.6032348 -3.7519797607 1.3597508244 -203.15306716 -83.469418208 1.0220190988 -9.6588052247 
5.8442939925 -37.237017441 10.140252213 -43.704360056 -134.12655554 -142.04232502 72.640263629 35.308046829 -23.076341532 
24.982727993 -9.2034761557 -17.072136795 -5.4228369495 -6.7347532756 -26.006103119 -24.461673849 -29.613584859 6.6995560845 
11.59276946 -76.533374995 -82.066661919 -77.738559637 -11.924677598 299.24189573 13.915552717 1.50643183 -2.2466356692 
-1.6846375889 0.96070907499 -13.319456438 -13.939941113 -20.264183537 -8.8620530833 -35.109519266 -46.45799372 33.175528056 
58.115278107 32.938246009 47.78709902 -618.80126292 0.087781734176 -18.818349766 -24.745599098 5.7581070725 9.0211670121 
4.8734633583 5.0687142933 1.8147504926 2.1690927526 0.78916260062 11.434986958 46.618549482 33.466259656 -97.694757151 
10.607610395 -5.7413641528 -5.6680772429 -14.166988878 -14.793017774 -3.6979308911 -15.057591073 -8.2721195085 -22.140558076 
3.1138025823 5.5009966785 11.468374092 7.0128962315 10.492712851 1.0810036271 15.382630425 31.049400455 31.389756956 
20.320337505 20.090702703 -190.40105569 -681.43060906 230.66125246 -829.84834673 90.476173889 -13.591451492 145.73207965 
-14.540078186 -9.6500549321 -16.568346732 5.3755052305 -22.022857821 -22.179457449 27.134544849 7.5418554216 -9.4363091144 
-6.7264205132 -4.0264618128 -12.563565813 -9.4447011047 -2.0426824885 -15.067677967 560.51231035 -34.032351969 0.30137744129 
-2.9024830469 -583.6172171 -316.21526941 -701.90474541 -32.643775916 12.874889925 8.4557098227 0.87631622134 592.52475162 
706.22297017 222.21652013 727.66498839 -23.284744128 -30.788196789 -786.38873375 -5.409795882 -12.997668016 -32.076004448 
-45.728546511 -46.449834508 -60.375676364 -247.29295518 -304.69572373 -118.64278614 -11.658992747 -0.94137175287 7.1122649481 
-121.84113696 -19.464242848 -6.0979506223 1584.7919253 870.57496964 -1.5226091865 -16.452998431 -21.964811354 21.719463811 
31.669355738 -20.770936257 -105.3506635 -364.96405167 -233.98016761 -187.8279796 -309.51756485 0.72110783145 -3.2647031406 
66.561561572 -440.25206419 106.97086073 -8.5369449438 -31.017868566 -218.64978121 -25.155815318 -98.988349784 -2145.1946248 
-1384.2716096 -1039.5137953 -2999.3901238 -336.68376595 -523.27822309 -6.4802236927 3.2442578797 -5.8279599317 -109.24437974 
-362.79355071 -461.77307253 -18.377289022 -16.567040808 -46.894153013 -455.71930526 92.956440309 1123.0613296 967.61573717 
712.20559938 117.93020506 -59.622323838 -123.56573824 -4.1245421542 -5.1250842254 968.53193559 1293.5560694 84.254984957 
-16.462894238 3.0624647548 -19.054207652 5.0278981309 -75.581984365 -25.608170597 -112.76257346 26.463184166 26.168815121 
16.05105153 -554.75045524 1248.3330616 -1746.7041409 58.796464742 -16.979703938 -0.47484583431 -13.814832001 -16.512401647 
-17.87735406 -96.163262461 119.74796586 -397.3526221 -621.9111675 -496.45437221 -824.53875464 -9.0889302551 -19.815967067 
2686.7982004 -2420.1870059 1027.224313 -77.516475437 3.8190193835 1104.8775182 -401.0987209 -604.30949645 -15.182850259 
-21.021187493 245.70818314 -169.38229111 -137.11874203 -71.750556461 0.54079721606 -10.680364908 -11.101575455 -2.3237528254 
-7.0309197718 -11.52904862 -221.48438515 -250.45038333 -252.4050963 -149.40018717 -182.07895104 -2.9945616091 252.84913888 
558.39862413 -37.596606701 50.952276444 2.2417166036 -130.13893796 -1387.8549536 -1185.714577 -221.49064731 -44.153676123 
-74.441585272 -74.262094778 -511.17490599 4.0585911157 37.651833927 88.263108552 -69.122951965 2.7868525955 -18.837756662 
-43.917361139 32.598526771 40.675960864 2.5914751065 339.16097039 61.255906162 3.3876410007 1395.7354132 898.61005839 
1792.3887033 866.04870005 -59.17737206 -12.462071256 -10.112125236 -4.9751665466 -0.028357477907 -26.116073306 -29.013379147 
-122.29494728 1320.0083423 815.68895572 370.90526138 -458.13244168 11.116448827 21.185412777 5.1043908894 -8.3827223033 
9.5126876808 -1.765575763 13.258166213 10.20291998 65.13514511 -40.755831831 -17.008038406 -11.693607386 -39.207011072 
-20.922525128 -65.451143308 -67.232137873 0.33016777404 1.5191173143 221.74722228 -171.02087144 -30.20588897 55.083919825 
-210.0659124 -13.242763906 -39.380347938 -52.268903773 -41.827027362 -30.074905143 -3737.3325191 -3340.6109169 -3713.1766332 
-2985.9555354 -7.4697821882 -3.7450331445 -6.9384786273 3.8249888098 -27.985220156 176.36457714 97.671730748 11.823370738 
2.0494647733 -131.96684755 -144.36433079 -12.763158599 0.4645117022 -73.524100101 -78.568119528 -124.80543699 1497.1117615 
2612.7802496 2802.9475786 4221.9046029 953.15069114 -1.5364958673 -21.490411991 9.8981200756 0.96692863211 17.334323098 
20.734200738 -84.217032056 -87.4557852 12.489514492 -27.468986819 -35.248139831 283.38457672 -502.35129645 -960.51192248 
-107.37755022 -65.34699667 -85.783369297 -31.967643735 9.5668611259 -5.2000113443 -17.585278778 -53.581356716 -56.048853357 
-90.938833635 -110.58415537 44.318911531 383.84478387 -96.808608204 -499.32659872 -634.53397103 -583.80130066 -444.83828259 
11.214964945 19.008171794 19.834915931 11.40420859 17.195707652 4.0417880346 -40.379072315 -35.831208553 5.9131161117 
5.2128686603 -459.38764346 25.112645088 -67.459769016 5.4958515232 674.25904668 -1169.6260247 4.6939670193 0.83627668161 
1.1252393908 -74.768560402 -28.652294364 -52.497071542 -66.469314164 -31.530478898 -58.108720096 -70.38902123 -8.0739189332 
-11.310954429 36.228385824 18.353134209 -25.595692577 -27.490217866 -31.588048775 -22.965143114 -199.18047288 -128.8177454 
317.62714153 691.75958256 2266.5751754 3.3637433193 -5.9559800166 -5.3888846035 -4.3681067108 4.5110876755 -925.55232375 
-426.38081718 -2.3700707913 -30.277088724 -10.434708307 -25.251467472 -104.86766355 -202.87589629 -559.194077 -30.393643959 
-1.2448223474 -16.678994839 0.61892070009 -10.943402093 -21.927649467 -28.4781643 -8.9908506625 -0.60613816939 20.404916166 
10.941104784 22.013180056 13.270158504 -36.973324681 35.949510892 2602.7146048 79.496993502 2988.7671657 4418.1842954 
10.742874803 4244.6711529 6190.6271006 -9.9623861314 0.2611484959 -4.7605377419 4.5656368702 -8.8977115372 -61.165650459 
-17.110406745 -22.458017112 -271.69295111 -1824.2468678 -281.40906451 -164.66048258 -13.180196797 -557.9753437 -1074.1281773 
-665.17649526 -626.08197172 -23.596505703 -14.185005319 288.62513981 -227.9946572 51.502875953 -72.339677968 -21.537782515 
5.7774024078 45.117811956 10.175890785 -3.8518275556 2.5712239102 -19.60787168 15.705295256 -147.86978324 -183.94060001 
-334.63128034 -85.271271157 -3.2747115192 12.551778534 -62.93391142 -82.658203308 -0.13628391643 -17.538841097 -17.280790802 
-11.66929948 -21.110141924 -19.872191272 -11.30126954 -10.254846827 -31.699919154 0.34741509196 -4.7602532852 -44.810142849 
-8.7575287589 -3.2558040732 -951.96638463 -356.06783801 465.31466494 -6.9080558723 1.1865210034 -2.1175620056 19.284506815 
-12.133598075 -52.991575236 -16.522691861 -13.076161065 -65.481343286 7.7692764125 10.607624972 11.350159783 -52.281529305 
-178.55312371 -127.11366926 -77.853772977 -111.71575742 28.967561242 350.89909263 41.870445931 707.77019441 1044.2062683 
409.07568789 517.52015054 -18.179545609 -345.06156875 -421.58251379 -474.10979496 -414.06568276 -1696.3879515 1067.1223201 
-5438.7239019 -5.3422323975 -22.471779003 -22.140327762 -113.89949152 -153.28792554 -517.43748167 -12.330421204 -118.58859738 
-43.245407266 -59.040483257 28.684563878 -36.898033484 -47.649623957 -48.138140675 -691.48361715 -1.2326794797 8.0069586731 
50.395602796 214.05757602 -2.8924840003 -26.630818145 -40.79098624 100.01259329 44.887419547 82.772902034 82.17769956 
-1830.5130528 -670.97023174 -1.0490910208 -15.709422492 247.38484872 0.36322130062 3.9744857675 -1732.9158358 -744.06165375 
-359.20309126 -32.100279493 -30.252438425 581.14959333 941.47159242 435.55621025 269.10730707 1451.4547511 -16.105412636 
-704.49882953 -1642.0177824 -5.5903712711 -32.437509475 10.309175454 8.5972471196 16.245590366 -227.46490562 164.72497387 
1113.8828256 -1.3163187975 162.25599718 15.114945821 -121.21355424 18.033364615 0.16635838064 7.9947212929 -86.145666913 
-42.567199128 718.79263175 -1176.000173 325.717822 -45.607500856 -37.035153663 -17.113254673 -44.845734309 -29.268122057 
-60.936610089 -12.207579744 114.29877607 -816.19087189 -9.1109319079 -16.8646008 -1.3717910691 -13.463655901 -12.868084565 
-780.45719309 -790.21432584 723.92800289 -2011.1639466 19.681384179 23.661898487 -120.24573962 17.585398368 18.457862588 
15.385692174 9.2854224326 17.159288736 -35.409146958 -1593.8610838 -35.15106759 11.799284736 45.291185225 44.692981325 
0.98095897653 2.2249256177 -3.4858783434 4.0578410794 -1.5994087195 -7.7822193925 2.7674760251 -39.57749525 -27.638005656 
-43.262762433 -51.53799211 -18.251130491 -15.104583023 74.49104866 -292.80375307 -242.09476975 -47.926797452 155.75026968 
-254.79830726 -190.31311348 -315.85919715 -33.340531045 -661.81264117 429.84848622 -99.030390839 -686.46798389 -18.425273059 
-53.185863267 -30.575202833 -22.957267074 -52.910951629 -39.081077972 -14.32642127 -20.135823145 -12.836042705 -30.538841194 
3.8463815405 -9.9123145392 -20.405221321 -33.934757897 -20.408915706 -34.566198813 808.69993509 779.74643469 149.82299933 
1960.7962797 -16.359426889 -18.000203225 -18.142124001 -398.72598786 -5.3981109686 -49.32438517 -79.101964121 -168.09566365 
-154.59513788 24.016767882 -376.06878448 -283.22148695 14.606257844 -29.902106981 -36.446751996 -15.505303653 -14.812889341 
-44.180667852 20.964799939 -171.21553327 -28.121623031 -9.689075814 169.99306396 932.30369064 -178.65944427 -1552.1214564 
-2123.3185492 -757.33892772 -801.68352889 -88.395941044 -126.4463212 -40.326165712 -66.643394455 -31.897372351 -97.528485795 
12.436673612 -1472.677283 -171.44900098 -14.000955651 -23.92222843 -25.771969905 -107.05375322 2.6927958412 4.0073549247 
-1.9697836471 1.6586432097 11.628796812 -21.427792377 -6.849602179 2.5100618023 -146.26219119 -164.2872573 -102.08632683 
-99.020440375 -123.19860475 -163.09425634 -84.082975476 -93.620998875 17.065569089 -30.919578414 19.172146389 -1886.3217651 
477.25388529 37.439270762 53.851207742 -56.066582156 -77.366010077 15.841326831 10.921287518 26.604267583 15.705116189 
-375.30599039 -386.29198488 -220.5268583 -303.33123996 -312.5309274 100.10800198 -0.14083812599 -25.902572068 -138.74821152 
-214.14899836 -151.33983437 -24.338764801 -36.348936587 -37.773629679 -29.691178878 -22.504680165 -56.90806631 8.4063143118 
-74.060752409 15.188113201 12.325697988 29.433284796 16.24567491 -7.96729431 -18.453762692 -2464.2004333 -32.794426599 
1.2493702965 -51.370440073 -2189.5872092 -469.41984211 -27.199452444 -24.036534193 -140.34924108 -67.233702448 -3.0917604901 
-0.38097882981 43.455507821 16.549137016 19.483367942 26.912888566 -5.6377907393 -59.193517633 -794.13979707 12.102275604 
-358.31809174 441.18513079 -17.304202092 -7.9337765089 -10.171442163 -17.777125064 -4.7989684776 -6.8170648624 10.225961506 
8.594752881 82.237774421 38.089054318 29.824922002 -30.803240186 -98.906983794 -14.367459658 -11.766127217 -17.369778633 
-17.786125732 -6.7693825076 -12.992071983 1532.1924345 -8.466936276 -59.592352175 -35.266931741 -28.933505176 -66.510716485 
-16.963155861 -100.60558609 -564.87598854 854.81701673 -22.223234692 -25.457357304 -36.543922227 -13.399754884 19.221960566 
8.3030776473 -15.216422942 597.25772139 54.365973243 271.96444593 -67.428509891 744.77384793 387.71229851 1057.4355774 
278.86528001 -21.290269413 -20.399001592 20.938124027 205.73358399 -4.0699994857 -4.9228237923 14.216070235 28.466866695 
-15.656347068 -43.743205083 -18.601113526 -81.11074903 -52.314435895 -70.430340936 -3.1994390713 2.1839143275 1306.7565873 
-29.692587549 -25.511867141 48.154105323 20.876076792 -1.7571431271 -3.2969992696 -6.713650555 -71.01638642 -65.342418538 
-57.255519477 -78.435820779 -78.716107797 -94.245814468 2.7225835013 -38.27643617 -2.5680515143 -5.8883702962 -29.074710331 
-26.579981673 105.90976025 952.07595815 875.25276914 -8.3918449099 -15.055168847 -421.71339044 -1091.5737335 -100.29071439 
-129.27087909 -136.23513657 -255.92733772 -34.056796979 -22.462714426 10.850112838 -8.2796295348 -11.873347072 -12.253728031 
216.84553907 -251.22955925 8.7812186741 8.0768301499 -0.73957226824 -1.7196169735 -29.877632281 52.93831923 51.651968658 
-3.1109039248 -11.635068908 -408.178187 -0.21069654011 -10.254365025 -21.349723944 -20.029066525 -120.93692338 31.402797504 
-65.472184512 -43.892229529 -85.851131566 6.8923471569 -3.3004892158 -7.2270545524 1.3368294497 -179.03241451 -129.57209601 
11.93397622 5.3835741133 -30.118640732 510.88544333 763.40708328 -240.04529548 -248.34736336 33.240123239 -21.743770939 
8.081463099 15.276489342 -538.01145882 68.540556235 9.0099171429 -10.653669309 -208.15935861 105.38334315 1.2547505022 
-0.66455864051 -77.800007473 -45.357258483 -99.002036527 60.903704894 -48.206714959 -9.5917377237 -13.936431747 525.95836682 
-12.250188259 -25.838242387 -646.8767866 -112.11743649 -18.252820697 -13.797059586 -2.8382557595 -43.877933804 -1.5054216074 
0.20053248819 -296.18651541 -541.65908933 17.212190094 0.67949591681 -15.339175839 -50.073927623 -653.25423098 -14.475700067 
-13.888981819 -1.0004872798 -343.10469664 -2846.1604467 -981.26131096 -2284.2286131 -15.560394367 -17.736230041 1289.7777065 
-12.823536963 2.5338901101 -69.664081937 -68.534666269 -27.931736216 -16.354053384 -6.1945701231 -36.313516709 86.302751108 
-386.36822661 -829.02451391 -662.93838379 -541.50820016 -9.0054900623 -6.2140965247 -21.590612172 -28.39963396 3.4080746742 
-20.26799628 -41.55622 -44.623003163 -140.12983401 -187.16568483 -231.52165109 -180.43235603 -178.45457786 7.5975163566 
3.1962600181 -77.045479237 -1596.3117504 3.5607359213 -17.533310052 -13.64803486 -27.969299163 -34.706463636 -66.796455117 
-34.753434533 -80.678504057 -116.67793282 -14.724645069 23.516153801 257.51395038 -4.5471500979 -2.8455289911 -516.62879736 
-64.353363585 -38.864612844 -38.818720197 140.84633955 -212.76466186 2503.6633494 3973.5279286 -14.102226675 -69.31890905 
-3.49179986 -22.994697498 2607.4462872 30.385455505 -157.01502006 -3221.3380316 0.92627721395 68.049588735 71.89134684 
-582.9651028 -55.359224445 -15.335952208 5.0896431399 -60.962768025 -62.225154253 -84.351541299 -61.957850799 -6.6050273247 
-4249.7133012 -4202.2940628 -22.330413161 -339.20768467 -47.097481469 -39.694867429 -34.157706107 -17.440846075 5.5766260021 
503.69385117 -443.77932223 -156.96010001 -479.2993365 -86.13164783 -81.789370056 -6.695155158 -980.03034255 -163.06958634 
62.250825438 -26.074652271 1510.5264506 -49.403718524 926.27414289 -160.46029217 -143.30565714 -3.2314621014 -4.8832867484 
-43.79109438 13.096108606 -3.9324142322 -120.99521795 384.42469369 -33.224940734 3.1859862332 14.308068941 2.0290179636 
-1854.6183315 951.64673904 -434.37908565 3465.584533 1759.3002978 2619.3112686 -36.81330071 -45.65765365 -24.804306726 
-2.5107717831 -1.2532986424 -5.4220437678 -18.647067398 -16.961681184 79.098420369 -7.3028917347 -0.32153116377 0.3474889718 
-219.98466512 -607.94354368 7.0469610904 -473.4103468 -19.212208166 -2.3401290466 -0.60078451646 29.283945815 36.101810166 
11.792023607 -4.2634654927 0.52346054698 -7.1612074147 -4.3182631555 442.5327556 552.6097717 1866.8003344 -31.347832612 
24.622131391 -18.442685478 -228.28911881 -355.84614361 -2490.1886484 -251.20787801 -785.78631722 389.65354751 -1.7070705933 
15.890138616 17.48709885 -48.639492205 724.8065685 645.28049175 368.20378933 2.685079508 287.01984462 -89.759977181 
-13.034837764 3.1451590331 -3611.9424084 -21.426194272 -324.98304123 -20.995544275 -9.8020635717 176.43687487 -15.662693511 
-4.5692225125 -296.17263175 19.490782996 -88.312507828 -97.680207634 -1973.6592279 -502.35995305 11.945878176 -297.83057944 
-281.13661522 -207.52341806 -24.838296858 7.8926089665 -74.744969196 -94.49957304 -512.4388534 -16.772273703 -36.650361233 
25.350151639 -2.9054184321 -95.864828746 -568.62773704 80.017838252 -121.70568783 -95.128970138 -156.98563852 18.3090092 
-6.9827910537 237.63760551 -182.64494958 -3098.2748495 48.56367652 -1517.7873505 -921.5990481 -11.638339173 3.478464241 
8.1118748326 6.8719253167 -187.05506901 530.03938034 -158.18103792 -203.64865358 -139.31172068 18.927740588 -18.20330324 
-16.310611747 -75.324808569 -103.60555317 -1.4444102567 1.5888637187 -6.1179098021 -0.84232689925 -2.2985757505 -705.18515505 
-3.0377952762 -302.25992444 -214.15160203 10.7262997 7.5131631519 -2.3528078863 -8.0600037725 -14.196175395 -65.170360339 
-356.13883782 -37.203304043 -52.387740801 11.132523132 145.26669011 288.58566202 1069.8058797 224.45224591 -355.25482945 
-46.077212542 7.3169953718 0.95263672138 -50.003824464 -3.9748548156 5.4895740809 -24.727332652 651.70968907 -5.1514898471 
-124.35971371 -178.32650457 -328.17099382 -105.49386484 8.0322483663 -585.51756059 -20.422263397 15.059914458 278.20826151 
-24.032879828 -69.291659401 -87.984031657 -801.8099473 -17.408009515 -39.452013322 -25.49606997 -54.172047867 -457.40092698 
-79.755929697 -661.02545838 -40.710813774 -1.2120725459 -17.399370336 -268.98688466 -4.5425979505 -19.191901257 323.93189731 
105.24054084 -5.6897880684 6.4018386215 -142.33183252 -43.553235353 27.147116912 -90.129016114 18.965770267 852.2266584 
663.09189858 20.701225871 46.352464175 2.6959332643 -24.820033898 -21.139559471 -803.67359135 -573.41741184 -15.355079187 
-19.587605034 -30.791984617 -60.642955666 -922.22469716 814.6134982 -574.22004285 -6.0277339281 -17.718541499 749.3122188 
-1514.3002604 571.11243536 75.134377296 -145.44463596 164.00168004 -6.1702258444 -22.407929172 -3.8370273725 -1.3443824946 
-2.8111691689 -51.712329146 -448.32391701 327.24397611 -18.103594797 -41.670315581 4.5612041075 13.057883866 -107.50661863 
-18.146145505 -794.94127355 -4628.3147831 -280.66656713 -15.588703563 -36.043318961 -12.031271379 -15.870346197 -880.16517763 
8.3180133741 0.20636289924 3.2045322443 -6.0464031162 -162.83540256 -2420.6774512 -219.79344386 -636.72726644 -1.6032379402 
-389.1798176 -301.72644315 339.67814827 -2934.7144459 7.4395705802 -15.395152795 1550.0702268 4102.4788307 4932.4126065 
-26.123938772 -7.0378173999 -21.250998868 551.37867656 -29.629893726 3.4646834605 -1.1698851513 9.1585373805 8.0554420654 
-80.635019922 -22.215131517 6.8824140404 -2.0053148997 -8.441135688 3284.1753576 -383.00452205 2982.8744092 -18.659794031 
-166.24789774 -112.33212637 -11.815155523 -66.801897725 -2.1799798395 -42.322916098 -18.372701751 11.351179325 4.9477535163 
-5.7646807696 -33.104657859 2.7370058145 0.94862097257 -941.10273106 -53.915401603 -14.025508864 -8.6429545637 -38.840780231 
487.67533062 11.323759411 1.4556152561 2.2175847415 -2432.4703223 -5.5160586423 2.2051810355 -2.4080772032 -218.43713567 
-48.592702662 3.8032689439 -6.7315689667 77.242757048 -9.7201485131 445.19447195 155.45962229 -182.41277765 -609.25506967 
-2.3610607271 -239.73048394 192.62907071 160.92138379 487.46501145 -279.62924547 -381.8114106 246.13126047 90.420986117 
502.32047448 150.56222522 287.66311131 -62.120183674 12.727649145 123.99627234 334.91622728 61.878302645 40.763665807 
-584.0205034 -684.95919524 406.42823863 657.95314014 -72.551516905 -124.49541548 277.35674347 -18.575354924 90.263471698 
302.77729812 99.496268914 102.54926674 -120.49263914 85.075057258 50.523275964 105.59795488 297.74340992 -17.462280747 
-276.8973765 192.87704937 837.50908169 635.53574593 -508.29086347 -193.3628408 217.09703109 104.99443893 -8.5747410856 
44.736585168 176.99039209 -148.4763771 126.84593517 -17.046263009 -16.10337538 73.524660346 -170.50469475 21.379505143 
718.61015907 -1034.131337 -126.41700993 554.15411826 -732.80296543 -650.18058541 -855.44396855 168.39324544 526.81603436 
113.88955363 -94.76819486 125.84000671 -330.21844514 -301.23794592 93.957674202 -176.11536344 51.218710944 107.83174616 
108.75481012 -145.47238706 331.08351511 241.49774803 -66.868564124 64.703958975 -98.701033527 313.429689 224.22344585 
402.73331298 327.12229386 24.919385079 43.834552561 -272.64419584 263.18189526 -10.480072296 75.883192723 -66.29934229 
54.006236293 -410.28721603 -175.02603608 194.49205274 263.72639916 225.73315215 -51.481651079 22.225509827 320.68565445 
-568.6386722 76.425017269 -4.4687270507 406.24619131 611.8457593 -395.86558301 -298.69089649 -113.67046456 -264.94978238 
99.500870403 250.32484934 -326.20801911 -32.898417878 -342.52773621 7.7259296173 -193.83673304 183.3238889 146.59076076 
-94.862607926 22.745988336 117.40584778 -497.65158895 178.52051269 -1.4169731753 -52.401126183 -405.16284157 173.92445055 
321.92537492 846.60991972 16.477703406 46.13350468 -450.44473577 840.82178155 -91.981939489 -36.886673418 119.03382712 
227.2142521 10.648142837 -273.22621843 2.1227544125 -38.162962912 211.74261658 108.73029457 157.48157593 48.523099441 
-79.230127334 51.461458157 -249.11778623 46.941136039 -1011.4160014 -648.09382198 -32.952315263 -187.16899135 183.63082389 
492.25497644 22.243451928 -274.53171913 274.92869051 -1447.5217387 -49.262013219 -138.66444817 -197.59102731 -148.3570416 
-24.968876856 -79.576176334 50.098201031 -168.35084823 -1.2415890292 -446.24609306 3.6358910133 35.252229207 -71.920066382 
-36.48686101 507.1096573 -198.34170078 -66.017919001 261.87670449 586.73026221 13.7133651 334.54017567 75.996793491 
-331.48511133 47.345276039 348.16542251 -246.91584616 -519.0876387 461.64925113 -57.265174917 -1.0808387758 0.22428987741 
218.05674132 -145.66421793 -303.30542623 123.8241434 11.976557818 -447.38428838 -273.30286366 611.02967755 241.3306925 
248.45655166 -323.45719648 588.63164813 1164.7077595 156.70492044 365.02303657 358.39774956 -189.61767535 -28.867797115 
284.92325597 -38.698870703 -650.69638563 77.335177546 569.31070269 424.85389134 21.031846928 35.208379777 -162.91851895 
163.02086821 36.319131919 12.960210454 -47.254235463 406.02408612 563.27675148 214.50039407 -145.59596285 372.37754595 
786.63722278 2.9785450276 -1197.1738956 24.77290685 57.466894104 -590.18365629 -177.2036899 -253.28377643 -120.95759366 
-148.23515959 76.445647899 284.49039434 -132.18000877 -265.55757977 -1236.3685217 3.0570047511 128.87343473 -115.47404275 
-137.09204135 35.939003652 231.51862111 -364.35098743 487.6893824 -121.93768086 334.09917115 -331.64803496 -391.98605861 
337.25635883 -137.23079139 5.191745346 -59.423609086 -253.97898105 -416.33645179 -98.372669602 -341.10242921 -224.75789641 
121.29881128 199.59892734 262.71212298 234.22891664 336.57758878 251.48530544 -223.05515811 413.98862105 451.49085002 
148.48878618 298.79956005 319.87338424 58.724343811 -41.045946338 22.120249239 125.7789418 11.241482725 -179.06004733 
107.38050435 6.9684744242 -130.83542085 172.4652775 -55.746117894 -93.586075845 -60.468999365 -62.663441335 285.95699449 
208.94306167 177.41893337 216.30174224 168.03539221 248.89333596 144.06239064 394.88333126 170.309313 304.00753952 
140.180428 -32.05648188 272.4801039 206.91728562 88.219553697 116.19459409 305.41848933 333.56336766 416.35901463 
-3.4267718968 -181.82251634 -116.25321172 42.246164594 -201.71786999 99.497411159 105.20640189 -672.75336018 -358.08521476 
587.51385028 -299.37039431 186.65571568 -123.93156542 138.17813722 -410.09552548 10.847208583 45.557288871 57.764392646 
-875.76826414 -362.21834379 89.668534308 -17.558637872 290.28859104 -139.84834077 -181.35227558 -364.27972273 -86.305615117 
51.67703241 78.696864862 123.20746833 129.87431522 199.12828255 47.828412784 -113.29619791 659.40152506 -1.0580234557 
624.08633974 -756.53224387 64.648727787 -393.29263604 -74.889482681 295.34768056 -143.43618798 58.289166347 247.67841284 
421.29693827 29.824641604 -283.1165838 15.895252457 10.929098343 -51.033003538 221.86717208 130.43276157 -103.71941809 
397.6271385 866.71562125 271.35349596 -63.764195147 66.207268812 -85.881336845 -157.56721669 8.9006493614 -204.69725276 
62.24631606 185.11583294 171.39024028 -21.350794321 -6.2281174662 -21.702178839 204.6455414 -19.821066887 151.18453608 
-335.41686501 -1104.0308894 229.7177048 79.869712488 219.18997402 -78.145626871 -64.136285659 -93.32425278 -211.12925275 
-52.482078629 -2.9182450357 519.71677153 413.96959148 -169.62906844 -28.400010213 -226.28146322 90.693404521 47.567986033 
156.91349801 207.32166156 -268.43670131 -81.219213845 523.16510636 397.1273547 200.98070821 -66.742609245 -75.939036462 
-162.78172781 388.53735583 199.78928059 180.71505148 69.535854836 116.47826104 357.6936583 125.04767484 253.25886056 
274.64998581 287.72587969 233.90143793 221.72647896 110.25994349 -264.43835109 683.91381909 528.5510347 -142.9911384 
302.11246141 -63.454430984 337.97606164 825.91840681 86.911477764 709.3728704 86.328405389 -234.40499671 76.652390883 
-280.87558424 -121.44593675 -77.309652382 149.35254162 -18.324361831 -70.213743466 -232.59360668 -180.70870271 238.30895043 
88.262968912 90.186832639 60.499814271 88.572694984 -126.19113044 247.42529097 130.25508596 -114.24847686 -1503.1875194 
-1047.7309552 -1780.2963013 -1508.4413963 -976.05769806 -562.59724154 387.98381156 -372.41714742 428.34042322 -85.370780318 
229.22895825 303.11533231 -463.2961153 16.284650342 -4.9763444061 30.245223685 31.195818285 15.895841481 14.124929181 
-453.57876205 -376.61547602 -75.37642963 -112.0834918 -210.81279018 62.514097991 451.41885077 -155.89932167 -626.30599404 
-204.79096068 86.218068579 260.26357627 114.90741403 299.25907334 -2.1483271289 554.20387294 -54.933244611 303.49213708 
696.49642431 -258.53858206 174.98878163 1025.7148054 545.39114907 271.06505985 362.8991949 319.93292827 99.99751568 
-69.34137878 -156.90002079 -0.81132907842 67.01611334 -116.01703257 -484.16915006 1814.0534074 383.10327262 96.097262211 
608.7570294 -285.10887924 183.39535401 -5.8184116422 186.25388722 110.64798796 27.856175487 9.3474157098 25.40050498 
76.06463548 -91.296281976 -106.41620698 -172.19257344 -13.794913009 -186.85680646 61.721953808 -55.028909857 -111.63384101 
-18.628983948 424.6602411 340.33995117 94.379563028 476.34392596 142.28215927 477.41212686 476.5595412 535.2618229 
345.07724273 411.32835757 369.2345402 88.901049384 47.738410974 92.52314379 -573.48485261 -527.13653561 -773.70041388 
-260.23626435 142.02602469 -158.1499099 389.83365255 -10.651850459 11.542703573 2.3734983519 -7.8552881024 -157.92372901 
-102.15760943 550.68638706 248.71462236 192.32028659 451.04666979 479.31922824 -716.32792718 -1645.1951705 -887.60948763 
-1102.2355664 72.108308664 135.11454456 190.97549067 -17.659333285 -303.11326337 -287.27678973 282.13840285 -524.49259859 
617.53079126 147.40332431 110.40622104 38.585916273 -91.557343869 -17.480532512 -878.0235582 -736.85836289 -487.1667931 
52.75405702 -10.199899398 47.815107721 54.701372624 26.096015906 -18.504233091 42.965535087 465.67264215 21.595722161 
-72.573901498 -63.276988893 -177.88860147 -224.6339997 -233.7879564 -319.26922183 91.498270688 -299.20155748 -197.52619395 
-381.37902711 -199.47151915 86.988925651 -82.007710042 304.64939605 -5.4441794076 -48.573902254 192.69139335 97.710058186 
-206.33859284 -214.53863672 -497.27328728 -670.78047676 -259.95457623 -493.53191148 12.822645055 394.24753876 -1.229282424 
-92.535997089 -104.51902485 -354.54598747 165.62786542 198.07454566 196.75315366 307.95157257 278.49922307 320.29475327 
-171.66229745 133.37728232 -462.20906146 -23.275969609 -1371.2024927 76.565838222 -3.1392364544 18.368356754 -178.70895807 
-131.63763283 36.550875885 404.23335234 137.35862642 -803.51541293 -375.25300137 -224.3637304 -381.07671683 116.16587361 
-301.74838642 -126.1766523 17.764082297 -125.36502913 1.169015358 -203.56821013 213.30364931 414.75779891 428.08946983 
470.17867595 -61.182232606 83.369422426 -242.14506468 24.486774902 114.37286034 -341.29278434 136.05724561 -222.67996136 
-80.929223361 318.85361811 644.27560886 382.4343821 -551.27413367 -151.90759762 -654.60315808 -906.78544792 -643.40056565 
-745.89810074 -483.96756432 -751.40127482 -284.59221064 -324.36575154 -273.65032988 -781.03174936 -72.892858365 -149.24662032 
-51.390181462 161.14208809 -0.49311053954 -241.03913789 -18.527211961 -133.59095303 -460.54636646 -241.7131902 23.024356299 
82.472725859 -17.389509353 14.990813768 14.083905009 68.739677455 268.9025666 239.18823647 368.21399816 326.68221773 
360.38826697 596.02963187 541.06820274 649.31424719 1687.1427844 756.29422608 -151.86662424 -8.7161553857 -511.39667428 
-390.9598711 -911.44905396 186.4498113 -347.16266443 190.77368466 -413.87706598 175.56714851 -54.358620031 438.88068293 
-428.8345266 127.02204966 -604.70145659 -1248.5431827 -530.10036841 6.013604873 -396.20914994 5.9460210723 -144.20536984 
156.57965607 344.97139509 -8.2044660959 59.220416813 -302.56184816 97.269201813 -252.18558174 -114.58488822 -167.56285957 
-20.873732507 -156.71709257 -143.68344032 193.10024433 -57.131097731 373.18686048 -245.53336827 -258.61781045 306.98068993 
347.36415299 53.801028484 -11.096290845 -214.51937669 263.06720713 201.91245948 -338.96005816 369.04625344 485.41519762 
434.26327062 391.53299376 -0.77307044409 141.54840126 95.229581465 -258.19761473 206.38999293 231.10980059 -63.868283539 
-22.775258685 -188.67662519 -124.57423434 -78.791127473 193.8792124 364.66946134 96.234313435 -65.230717226 108.79760481 
-188.31182307 -299.90822783 -797.91590139 -267.98075593 -95.977956729 174.77463283 -23.836063716 68.126196237 -176.30565306 
-45.121375193 540.25312264 753.67249764 332.90206658 -167.57887676 -102.3078397 -816.53146649 -283.08005771 -76.747460416 
32.232663613 -10.866819709 -137.68242539 148.08395119 490.04017391 452.3660437 224.99875785 526.5512194 98.532819885 
-79.652186164 92.354666475 -137.06569391 -266.1127244 -125.99315851 2.8373210078 -100.9365621 -6.7385270857 86.668070917 
-36.551867905 -654.42729994 436.13934673 165.64067572 421.60672355 827.87287238 -117.76861504 464.73345952 -214.64655269 
210.92445127 11.665821194 -135.78073301 36.67181791 -85.778947097 -19.934342972 -52.518070359 4.4843118491 383.16768973 
447.55897139 -113.41270249 93.752740765 222.80923293 430.88073387 458.03450005 417.03561849 -309.43889199 -116.64432651 
-104.66871159 -8.0908601153 57.656285315 -62.84901976 -330.56925027 -168.33966759 258.28277511 120.19099737 -94.788328748 
33.494149939 83.862252549 445.24639538 -213.39064909 -417.46085777 483.21950873 225.88903661 -298.04195596 283.56037598 
93.826911724 881.33575595 485.9022977 769.34397102 552.74599702 123.78387161 334.59179208 1459.2615291 1696.3669732 
1490.6866653 845.30690204 219.82901069 32.352066762 -128.88040908 2.0371150241 -80.697860081 -523.1216736 192.76750999 
-855.56702188 -55.29806364 20.763770729 1372.2667168 -535.18519499 -343.92484616 -182.95939738 -39.559891713 194.91731732 
154.83591626 455.55615331 692.21974462 689.14107084 -626.02309441 196.10437302 43.765981321 50.151198064 37.259434215 
163.7121541 -433.34838184 -364.32845871 -683.86681518 -401.80865695 -338.6469964 -94.149921409 -167.67361052 -202.82162178 
-113.04782749 454.1315206 328.4945292 555.80514839 31.96462341 332.18469155 -281.86992817 -196.20420272 298.40439496 
239.57639549 150.54561212 395.98039079 -66.892420954 -112.7537546 50.544100031 33.516953912 5.8486391228 -13.381710063 
808.99263938 -68.812094988 108.37287201 441.64864625 -367.92129588 431.34905228 -158.84122395 -89.59552471 525.2656058 
-160.73286616 81.320450872 115.55074641 107.05338882 -75.007580235 -375.90987211 128.79377567 6.7916954379 -354.4079572 
336.93171918 -515.16523421 374.07245796 -259.9201979 30.254089924 216.2476462 244.67814099 -225.79135986 145.88105823 
-208.5424792 -372.24050069 -243.48216305 230.19953565 175.27351585 -420.47594959 174.25391568 -316.64356791 -139.92815045 
-389.29465351 72.206356195 -338.99103185 141.77138885 61.86251922 -1.1396622428 389.23630984 -264.93167131 5.9587064918 
-148.1837848 -40.405220367 109.53132013 290.03029336 -133.27566903 -532.50212459 372.96886033 848.84859979 336.72998019 
444.77828998 390.16438135 -3.1733988567 365.7842854 -205.11046942 224.31454749 -192.96187974 458.16391423 -55.239122652 
-660.92853387 -126.99104065 -82.294989454 232.53823936 141.7475089 -172.68120535 -146.37286787 328.51129339 311.33747365 
797.18881823 301.0989336 -762.11037798 24.619246774 -37.522388436 10.933263839 474.99315476 759.03639533 595.74119513 
705.40115611 -59.186738062 307.57801203 152.18643011 -348.06704673 122.40151718 586.98729572 423.88141225 476.69407656 
238.2006928 61.79216213 -45.467379614 -7.1902956171 79.92101747 -47.675682419 32.956105322 -378.70947168 -674.12661585 
-487.44066441 -225.70267568 -668.26317393 -48.193766421 582.84720878 806.70077463 -384.36946851 9.2153268315 110.67529815 
118.42527036 136.10483282 174.67083844 675.64622879 -592.63232983 1165.4177162 -1066.6015801 -374.42312091 -283.37907138 
26.280404236 -62.552568298 377.08758581 -47.687086926 69.270637311 -1006.0555783 -89.323590011 334.3252815 596.10365248 
-218.75107987 141.90971309 560.29211158 763.43058519 185.75595683 76.835555643 284.3183015 -105.75947738 92.683301085 
209.52135213 -103.44029161 814.05295524 23.371819365 497.46780535 -629.1638987 -30.231539859 -294.36861047 139.93724976 
70.983868481 648.42024807 -45.708141943 -830.83317371 52.957751461 686.32542032 664.63689923 -506.70255499 -175.23896931 
-108.9330281 89.644812415 -55.949326342 109.2180396 58.617139595 3.5264094697 185.80380133 451.99880826 -31.527261243 
-128.68162705 -29.969446595 160.82764035 401.42554365 -141.57652994 -75.740744669 80.697029232 119.05985837 208.30120749 
23.759148268 -281.42096639 539.85924046 80.996343983 164.23831975 286.35206676 817.88740536 8.4247512179 220.26623864 
149.95807592 74.660663752 -269.10868958 -614.82233238 -406.76834174 376.24991396 564.96734367 583.35121313 212.79215387 
-80.908846424 120.60860011 114.93574636 26.979080161 -311.49277722 22.243060429 137.74607879 33.469505083 -51.494430761 
-17.948920299 21.708667849 605.57408988 780.00049835 13.294716831 -60.522393276 72.297825759 117.54462879 6.3546626602 
-79.342385664 -64.417340304 -75.389046623 58.168505535 -87.380014572 -677.18646011 -615.90273113 -684.29183286 -753.50760111 
-1925.4442727 10.290422599 118.77713813 87.365023717 -618.33484408 -877.85940398 -530.34853679 -460.31317481 -358.04718293 
-215.44477865 730.27297974 435.99315875 -1127.9072577 77.112674827 54.811106324 -1804.3000653 -789.27149937 594.23326532 
189.87111949 252.23662363 -251.68558176 260.92961491 67.786533161 74.057433547 84.294895916 -45.189786634 123.92958369 
-76.360314947 498.2018106 -83.378254764 -138.97256459 -127.786992 -14.25525549 -77.425697222 61.62868382 59.648014175 
195.58574294 420.89992384 9.2632989923 -17.842669257 -733.12375293 124.39572757 74.629746497 196.24414035 532.94764651 
292.43373564 147.60330472 -48.804835683 811.04063208 -114.86420512 345.80867388 104.28616697 -163.94508392 274.68053973 
62.253447145 -47.619896354 -175.83963933 -169.74713417 -157.83321224 658.25793392 -225.18740076 -54.731456 -557.0547632 
-273.23619492 -412.89903277 -287.28266011 -617.78769089 1080.8209012 -462.24968161 40.648392228 -392.61212442 -205.37397822 
-193.9203668 48.110271334 436.36848252 250.32714864 93.145589425 16.509307595 42.722740505 301.52580852 -10.273398953 
132.38639669 -70.470302651 -427.89600775 -693.62282717 94.614775653 1046.9191619 -498.62164584 -584.73107658 58.166622824 
630.12220523 405.34913274 408.98980058 406.23145312 746.10634706 500.40715364 -1340.8478819 225.44919855 264.62549621 
107.26309773 239.66886028 38.188281311 81.043562012 -317.78365956 263.11454482 1378.7006969 1503.7412943 2192.7122118 
1939.1533861 1319.2702114 428.94896926 485.32999793 213.38577034 -116.26357783 0.96057769458 58.090292155 123.41629938 
6.4790167949 15.279119718 208.43670906 -21.035015629 101.932017 54.913763265 197.11805023 113.84898597 101.28611593 
518.36386956 -1.5149797114 -339.33522607 -344.85076776 22.788448056 258.18274612 1217.2559231 27.669972352 232.52084267 
158.86449586 99.814285444 211.01463543 339.72429394 -544.93788487 171.31865041 208.6544482 579.26121325 58.752868317 
-826.2803344 -701.18141404 -934.22673396 -30.516999751 -925.51153838 771.81916254 -58.153042366 -493.47836722 -14.566036702 
-36.411557759 -10.014445997 -135.3970267 -386.02247389 171.34919614 165.28811946 21.482727552 -115.11443018 197.53348499 
637.27040768 90.926465944 281.2501176 -615.19703921 -70.433067565 563.84156715 582.51834678 1216.3686084 1224.530914 
783.55349872 1095.0841817 491.34857354 -367.44110646 568.09176097 -678.96904184 -411.69969675 -223.78681142 -117.52490363 
-171.90401424 46.706755005 -9.0986494256 8.554021104 -136.15728008 29.160019841 167.49643956 -84.770519748 -39.370178412 
-61.634598855 60.806337193 -16.258750704 85.323974375 47.619582331 438.94417132 -619.68248256 1315.3272882 538.24022243 
355.94574848 -1125.3967404 60.927055678 75.98869321 140.77477149 -261.2901199 89.860313104 218.82078404 232.92997707 
-92.631457871 -87.475225978 153.44575302 125.36340368 950.87569079 712.20911037 57.479159617 -378.76030742 -583.17830412 
-839.9218959 0.052736805847 -215.09168745 -154.26476102 -31.186007771 -255.75879001 -100.47023498 -564.29331662 -488.83998585 
-773.68912149 -304.86550656 509.29172131 -476.51846417 -64.577279928 -169.33843745 -40.494463481 -25.537972085 11.084186256 
35.817213774 -344.70743108 -50.225185624 -487.29468238 -240.62149747 -174.71446602 316.04763484 257.29320289 73.81488803 
35.678931518 25.214651922 57.294948393 21.356561538 51.467295325 -269.45130681 -133.03797211 397.11814621 37.541632064 
152.13861004 96.319613237 -40.772118599 -49.95114642 115.80134732 -66.809651697 416.46806121 235.28044489 -914.14268487 
11.012381453 -62.558281513 -113.48720383 71.009966866 20.870555056 27.512379618 37.825783429 -107.01946779 114.18550088 
-56.855716532 -325.81707561 58.070959099 -511.52204724 633.88493038 235.95526949 -671.3838073 1103.7554913 -92.831390454 
89.221118446 560.12385641 145.12358115 -112.40129187 -239.88708886 704.46098941 701.57955465 47.111618054 -545.96347957 
-747.42120278 346.97162056 -227.54624048 -68.532188255 408.83473582 -46.239548095 -302.9175531 4.4284227275 49.177537882 
-5.1650116397 -27.763729324 29.056786111 615.67231533 -47.657931709 1.6754191103 96.485386082 25.119050824 -101.60234012 
-122.19339805 -198.18622195 -737.28144646 688.29589808 205.26663889 -932.27738853 -62.265700041 -781.59000819 479.3506526 
785.16056385 216.77370313 40.326386845 170.36216002 56.950726783 -27.089102809 1.7065350745 -1098.1097977 2082.9135598 
769.81167933 364.16261641 298.15158593 595.71876349 761.32006433 874.28300948 -261.75437283 329.56831169 -90.168289171 
-146.50981591 161.18484312 100.01215023 10.391365417 48.200522725 109.17715447 -298.32575613 72.729476548 -79.279731615 
200.69014855 18.996438301 308.11763627 -483.37729763 -535.27837099 76.846113679 218.92160045 73.654794422 -434.44965573 
-77.071174826 649.2791177 801.91205913 1178.3155403 902.47781629 298.39297517 209.9563954 609.83397771 419.1970328 
472.64404 220.71938855 29.35908036 245.88503463 -16.508208793 468.04638926 124.61560066 53.442090687 24.460507555 
231.93840917 99.46214224 -332.945954 -47.981095461 55.405675018 37.344029986 355.30024449 182.45604107 125.01107516 
-113.09064233 -107.04549236 -593.39365336 -842.1516699 -472.16136428 212.08159874 159.47007403 101.69321407 93.237021053 
-566.38493573 -53.152346745 83.659604034 24.677375667 131.77297457 25.455499474 -77.545064574 377.69941232 875.72192231 
66.191056596 571.98887755 2745.3788965 499.43313359 -2517.5600158 -4189.1085097 -167.48807746 201.64227841 947.50947715 
-547.54013637 -37.605546367 -705.97104315 84.634346508 183.64541502 -441.96139294 553.83155392 894.19346604 -206.5794213 
643.0438932 -795.72915256 -218.01226344 -551.87088717 393.96679324 -250.88566031 -473.99905669 -343.02347151 -507.99889167 
-410.02614304 -546.186856 -277.31916097 -15.697585425 57.897734554 38.667682672 -44.669956519 -207.39789097 -523.03469098 
-565.63413367 -287.69323826 115.85045031 390.09225153 -521.10326287 846.01171618 -501.5467396 -31.538957959 -201.14373059 
83.861863732 62.972012819 -4.8634314793 -190.47324534 -265.17202881 -15.098207155 72.192810046 -25.310725173 538.59833115 
-100.74540148 194.04957761 1090.5843007 -38.96157669 217.37978676 -251.82031411 287.28068924 127.37514044 -97.534373287 
-124.04916974 -886.98506092 -102.59010349 241.03148707 151.59011226 -432.29042197 -88.234835811 -47.279868694 -322.2247275 
-285.07841846 -393.6545142 201.37442568 -35.355089594 -57.254379654 -43.672609665 438.89793114 175.0218587 -31.529260392 
44.914238858 709.55898232 -440.17419384 -372.14924427 60.976430272 238.39124245 -673.20479376 -311.02414554 59.274399953 
-452.75642589 -563.05242956 -178.21356955 2.9064413106 159.87389583 466.12143007 491.531565 -1294.8548078 -125.39303029 
-157.62992291 -484.59439824 860.81337936 -17.596533249 888.05041563 -980.9675611 -558.30591834 12.546323956 -27.950235418 
-236.90269444 -54.353073569 -6.4436750379 -102.86648456 -23.476720889 233.13744809 48.064147261 124.75337642 -33.676672453 
577.06400277 295.61091422 71.332654957 -51.35904626 -374.43394454 -131.55263154 224.16994511 85.683512747 423.19928546 
20.633185243 50.937295266 5.7815021397 -191.38674499 226.71816938 30.866298949 312.44821616 -367.93258184 300.20206165 
-571.62240705 -77.455468848 1105.3799609 475.02958957 814.73697344 -641.5522929 -162.51205012 855.85158213 52.305692298 
-207.76592425 -399.33356493 -382.86053074 -323.1480861 -1521.1417622 13.096209824 5.9588123076 146.80011396 1135.2596036 
672.30992467 911.94876355 -360.26144414 -109.2314617 66.391701674 51.793041774 -72.389701784 81.032215514 -25.222276084 
29.275046722 38.737685821 68.228272839 228.72862877 194.03050301 456.75567349 67.148106335 161.29641779 576.10129319 
-8.7624837145 -95.670039929 236.31041483 173.86102371 -101.28151998 -308.48104075 -269.94073178 -71.11457924 -52.475339521 
-74.368657535 354.51380173 162.13246045 -315.9692377 -90.976799757 -82.193013911 -485.65186096 11.921651902 167.95474895 
454.93695985 -12.865762656 -58.32654965 482.16604712 1154.6306885 -254.21316599 -43.019397494 -175.80278399 328.10877561 
212.81464238 222.76188612 443.66711724 119.26306811 -38.049810013 -414.985266 -417.37077615 -212.74832216 143.9621563 
-236.22686612 -346.02021529 -53.413187247 -217.9863318 -46.400313797 148.16042376 -163.69459695 102.07951843 -131.23126624 
-122.14151561 245.13233861 20.22456676 294.90682277 520.01601267 621.09107673 -14.376015952 -778.90316138 -151.58663565 
55.176600442 -45.306891628 59.332234678 351.21757221 64.652068044 19.109481262 35.506751554 -195.79886272 -35.960779099 
71.274896851 -871.70033079 637.67517364 -39.768935481 -100.01831206 628.35671387 -303.5069336 15.108472658 -21.230730054 
-185.39494218 -372.73437559 222.58376562 -134.1864444 34.011487158 -93.860314398 291.48059476 -849.79854695 -348.27206502 
-114.78961171 -36.408312152 282.6698629 -732.92995289 -725.40102718 1057.18659 585.55766975 34.644552877 4.7200276478 
14.289200244 243.0312373 -297.68806174 789.90480407 407.49318025 -41.479952458 50.481447023 59.564810638 -566.53712049 
16.268018012 203.12650168 72.31001828 -105.87688542 -106.29142534 79.079191757 93.069981075 49.750233768 382.02058973 
359.16011209 -1875.0174748 -1831.401468 -53.203857821 -112.25108563 189.68488051 634.80108728 399.67502722 215.28769828 
510.68974583 85.827295187 -140.23280064 -472.0479021 693.99132521 1789.5497843 9.7074417549 79.901759301 186.19620093 
46.637256181 329.70014962 35.201718065 201.01124118 -414.09679149 -103.42801082 23.619550157 51.78876143 188.27947555 
551.02783311 -25.443578547 -600.24727197 27.195221518 -177.28173307 -125.73732181 671.74562175 90.009089827 -32.182396703 
193.86133828 706.46204264 33.716377346 44.010835791 79.686366809 116.29962425 -545.18756642 -146.17558226 -139.85922365 
-131.31307889 396.84047087 252.97343179 -27.424109019 510.92254011 -792.67960544 -526.13236928 118.83305957 82.132282859 
86.78085588 195.41766902 492.34195085 148.47480008 349.961792 583.47718873 -689.42293085 -3.028806478 37.72679281 
-465.06862006 81.082576292 -302.008653 -1113.1354269 -564.4876946 303.75250302 307.22365316 196.75572625 146.41492928 
114.70016329 83.845237635 -395.68029644 -659.52942076 -160.83126614 614.35353958 45.47717187 1981.468924 2238.8763082 
131.4469881 159.83533515 134.3276106 193.64325721 666.7790532 223.55107752 5.8511509678 -35.160084247 503.25972347 
-159.28505445 179.89475654 -86.610791199 202.71507712 33.312579635 -159.23368388 46.27202648 585.372052 389.83988828 
17.272511193 102.17468648 2179.1536789 181.22714635 -1413.2256743 -4.5740459371 8.2121905901 545.69914692 -153.51386247 
96.413194947 -208.46561818 -422.01128879 -82.886297308 917.14244759 17.114820793 32.832848342 0.051639575512 -28.337394044 
32.461661845 -2340.5638836 -1007.7699736 -81.30142615 37.267039966 154.69097666 775.90644477 -352.19670061 282.80088364 
812.34506627 772.58886472 85.447602829 -461.44939338 -506.25243988 -170.14811907 -438.84776585 -125.434575 -444.90168496 
190.1496441 189.85574537 18.171509529 -212.10172503 169.99628791 109.3066787 139.05914583 38.338583738 44.436274154 
58.402752158 -114.9517113 -232.04546985 -196.08922931 105.50936767 -33.356275906 38.706772185 -367.27217005 -307.31784589 
-563.05410961 -205.05881895 -283.68529732 -2745.4493697 -364.81737326 -1509.522015 -1509.2810314 301.69328804 158.18816106 
-491.63911671 -219.34267522 -188.22423865 -30.736058423 18.27071579 285.52770905 186.6890139 -128.09633382 206.94527185 
-115.23882522 4.8152790441 6.6889713247 17.432261274 22.123160965 -17.360618583 16.756995554 -174.84454602 518.65482035 
-95.034157037 52.283779494 -86.995165227 -6.9454190112 -175.43740964 580.8456817 259.73127821 -34.093092748 673.01613721 
-32.210197472 -76.121803986 -85.336995155 -57.509178098 -111.51731169 -124.21552538 -176.76143296 330.66122847 -791.9056926 
28.78839459 55.67451064 84.232917262 -37.964245254 -83.762042802 55.672206164 -2.6543380627 110.48058823 98.93310169 
1143.187226 -30.908293379 1889.1537779 702.39292612 1786.503464 628.81111023 166.84595038 -156.36621195 -359.66018985 
-203.78624799 23.402583489 -56.247808515 109.50901808 -412.22069388 61.622931059 25.332278069 -65.863708601 42.021872419 
123.17742987 414.45619333 184.04399525 -119.95050617 -498.10898671 -52.968226883 -603.38651919 15.669383407 213.15964464 
54.658603179 362.15144043 -454.237701 -322.3344221 180.32388956 82.042859671 -398.22568928 -206.64006629 24.412311216 
442.82718417 1044.633135 -202.89700218 155.55360383 32.875405737 93.761506153 -31.47672943 650.51764477 -243.58197651 
-735.45009311 -216.20451552 187.2736016 436.14843908 -80.265961265 261.63205402 -16.066461897 -603.34662037 250.38911079 
-796.80141545 -188.78760361 84.565755242 146.1515795 134.38704834 99.824413716 224.75122744 -107.10506415 -46.447597375 
413.30246373 81.73020342 353.78533281 -20.358486468 -273.45618758 -193.6561136 -282.49868793 -201.4380733 5.2700394835 
-20.098440159 -67.521153207 -225.7678746 -158.49672406 -530.0427632 249.48211739 37.3677495 156.55216646 -90.419295674 
445.81336346 455.35750521 -534.20108442 651.14436039 -652.09000401 -162.19369854 466.53780675 -136.01089236 -166.58005573 
-507.49310372 687.51995642 -467.81696696 110.05375642 -16.740568998 -231.52333491 48.717148516 127.51343595 -286.68281704 
-369.75239465 49.119902845 403.70842498 -524.9095794 -335.33004668 90.103578035 17.017399214 -62.356762 -277.90907919 
19.046476777 -144.52894071 -70.853188971 164.91363353 -63.505488176 131.81453747 -1.1936425328 -79.204705526 237.21752145 
-271.19557964 290.54880224 10.100407528 20.888270329 120.50774678 92.569429825 484.76411614 618.89115913 -392.20689966 
60.375464677 -902.1253329 512.81807554 1130.8458327 -110.31561838 -3.9783964156 42.675452973 43.905664052 25.35822932 
45.94247525 -16.954900418 510.32464455 -193.13387652 1710.9580233 879.18107392 -369.96699682 -399.63304947 -123.8762607 
41.794187179 70.779915906 -475.77727088 -522.87004474 -736.82487602 -1307.9981239 -221.12814974 325.25971491 17.051869438 
-520.76454627 847.34451801 1061.2802027 511.19199189 526.08133579 -9.0913530806 -94.514101673 -437.71794622 676.36865869 
256.32702148 -107.71152511 -191.03317002 -21.892548754 0.88150178658 22.555172341 10.302757587 -586.78933168 -542.23684561 
347.19489361 313.55629552 110.48162508 203.64366453 -382.10428835 146.83909422 -113.20330991 128.22683082 20.937348485 
487.80812166 89.445608434 151.55063824 522.95047119 -25.094541399 -106.53759148 -619.36792249 -224.93625873 -75.816248999 
-98.017442309 4.625429463 -217.24740036 241.29444024 -184.89506799 -1613.8500491 -1226.6480748 -1843.1206545 629.96725207 
-126.70278481 1066.606803 156.92498216 26.718562869 14.460424044 258.90759379 -143.17836799 -33.045215061 -39.19329577 
-6.7047141282 -85.912299533 21.062737928 -124.66873769 299.88212909 229.47605858 330.09716143 -215.88187733 96.368291936 
-137.57522353 60.766889399 49.837316969 223.4509887 -221.47627474 -280.85870357 51.172986574 -111.46418384 -60.805657203 
-1000.6969992 -726.03141059 -242.74545923 -1690.0567659 96.519206377 -1077.3290303 -1885.3098609 51.554404814 -269.9561177 
811.80660033 -1032.6212193 -315.84971738 328.46432903 -1097.9142507 -115.1046589 38.743632323 86.342441546 -78.784621332 
314.29328328 -429.53347694 -18.607493223 107.81697237 -103.99310379 76.029532784 224.57262322 149.99432543 181.46368991 
210.26584927 121.66965666 148.17150884 -292.3256816 -86.784474047 282.47952681 -48.48410155 -83.89293954 -187.2292241 
392.5651428 221.67398087 -194.25033175 1188.6388951 -87.129155836 134.8071729 11.589135992 63.077173885 -417.2888124 
113.1617591 -128.74073242 -427.03995348 746.38009968 751.56439787 683.9702436 861.94851578 -162.84643021 -382.03234487 
-631.13682816 -1130.2832741 -1311.5494186 -561.08131086 102.14017155 141.03859233 -141.14674558 45.377380529 24.180981945 
137.72634755 391.00882018 -518.97163082 -188.73394704 65.373097515 -640.39790062 -385.43129644 256.98302968 538.35415695 
215.01149344 68.060564651 74.356044569 -173.55968037 538.84002662 109.66635733 -272.48430118 -68.322908035 0.868219261 
55.112666936 136.95744086 541.2552396 -301.5727436 24.903384023 -570.4733095 -142.70754432 -166.21747077 153.78950997 
-34.909598848 84.579005979 165.17796708 162.77630258 529.79363036 -152.85182025 49.375112708 12.171988153 -14.814191776 
28.623872502 255.89731594 -86.569761497 413.63617621 -264.61823653 -293.38011103 -441.20031077 -138.82877154 -194.99286574 
168.03284873 2468.509704 -103.10610611 1080.1348148 1646.8996424 106.51025838 606.49040094 28.733963175 2.5901503535 
-263.47758533 -1008.7330971 -1819.2475255 -828.28515508 -456.27387036 33.472747749 506.19652845 -346.39103354 1578.2220369 
109.12764407 266.9367209 -273.52875107 -702.69655597 -803.834973 195.02945275 -58.731727554 111.01874026 -62.174098403 
44.418731539 455.65629189 88.401798603 79.932601679 101.37397386 246.79655785 -473.75942223 -157.6525584 1290.2004474 
421.5804056 -138.54619608 -5.5168443884 144.99176314 -199.65130472 790.15447636 4.5938688404 39.201160199 -633.55183115 
-453.0651329 -1765.3777607 -2170.8324273 -3373.5663524 46.161035652 536.5360062 196.39086267 -16.850378936 -405.84542716 
-468.39816442 48.137730137 -71.85705465 -70.321125608 68.119181772 137.0593017 217.37051349 -672.96527866 -145.90422064 
198.66350347 33.506029102 86.530988121 36.247827133 46.638533289 93.957048525 26.98635742 6.7799695025 32.189797943 
62.556621884 119.54281753 -379.25526409 82.599703303 -247.95675045 -83.709418271 291.20296449 -49.132164933 -56.572568359 
-61.011597774 317.60011979 185.9755329 639.21277162 -135.64174518 -88.224547382 -222.17480985 -25.466073686 66.289016867 
-219.86982052 -6.6506642687 -300.72129689 990.01236369 -28.271494944 2085.1262246 50.822921833 137.48801258 184.08419709 
440.2662938 -198.46082619 -273.36207019 906.38997314 1475.7172774 -63.107887474 41.126137834 759.90435609 30.591095138 
31.818453559 38.690330088 40.499456481 -133.08666614 1335.9503944 224.61940835 143.15119039 128.25260143 227.62067565 
503.55680977 95.746505415 9.921520301 154.41664264 19.99587423 49.745301282 31.212205426 -9.1936965165 17.193255045 
759.93420029 165.60583386 -170.78526205 966.45316396 289.82030783 866.87410035 72.4312234 111.01946772 492.77936555 
-907.60151385 465.74169211 -21.081225075 9.6599528458 -26.746554913 -4.8267038779 2.2955659572 -141.79428345 -101.50893197 
-170.04749552 -441.01588922 -187.209318 728.50630597 169.44923356 -174.88040084 -1.9156067049 223.46124209 -194.43824387 
-148.0222763 1011.3974713 22.154037513 240.8065012 316.46728998 -93.879525545 115.19912729 -21.374700299 -22.821626564 
-547.17263796 5.0635685624 -35.27458589 39.91913679 42.361183115 -12.761456332 1300.6396669 -84.502385321 -27.876775471 
49.92901137 19.737410628 -408.96101062 66.122669055 22.233302929 -238.89852957 -293.34180353 235.49788582 -213.71244606 
374.43482544 -96.688297797 -330.82399069 105.59124534 328.20624544 -1.7265042069 -185.64635671 -777.2866608 -56.765107099 
11.068542909 -21.846237407 7.4217636708 10.918848197 108.14229643 63.365882849 -594.39941541 493.59387785 -89.239127562 
214.59810794 -135.0930432 -192.80006497 -359.76668139 31.618365025 133.63120539 -12.407588695 -30.643940424 8.7661973834 
157.40622111 -100.44280188 128.45204663 -118.22463599 414.54573194 85.576287451 380.7317128 311.43644277 130.76925907 
-979.97732722 -1572.414456 536.53570239 789.97010446 344.57884879 481.27879168 892.77457623 32.346274223 -257.97959931 
541.27963581 -1933.5930215 -608.49796571 275.02770645 -532.91131679 261.88100767 -67.67139028 -55.135098525 -283.26694042 
-300.6992552 -400.44176879 199.16540315 299.29582154 -903.41135155 -807.28509732 277.99746966 997.18636044 45.478780309 
-277.39558268 556.04665215 325.37272208 -723.96188333 -483.58573544 25.796467473 207.97105129 107.84820869 98.837390596 
621.75264768 -643.34985282 -8.2752960309 -148.13352906 19.302117519 131.37629849 31.644886202 77.297233466 22.770696049 
91.744917582 111.41200187 173.36372289 209.76735694 181.21123864 398.25218419 -262.47482426 40.843358237 24.166044779 
0.57632132777 0.49994029892 -1190.7861684 26.919830445 32.766966235 -392.33625033 -331.18463718 -707.12331674 -156.48153971 
489.12051115 180.29725286 197.59213343 -257.24432677 85.107124119 492.40915988 239.98580907 186.3820163 24.29208492 
778.24750493 -538.102822 292.64989981 -380.99243625 141.8490199 9.517750483 -1122.3191956 -442.58148071 977.78677377 
87.478712463 -538.89014713 -718.92562786 -272.63083758 471.53027424 -730.1553744 -530.49265467 84.704730987 -126.81651535 
-210.2282853 -269.11684056 56.324637153 -233.0164324 53.582303008 -270.74488755 183.48862966 51.724461416 105.1526227 
-272.9736774 -15.956123914 777.57448122 -225.47604503 -122.97758657 179.75219908 103.66452936 83.355783253 -143.40408424 
-21.374250079 1.597886402 -102.25834475 -62.079891866 -683.76048134 258.50940082 546.00070536 -105.49666937 -137.07266144 
566.73957692 802.83075996 1712.0752411 2464.1780264 183.17396819 23.958547037 194.99250764 264.36020576 -113.21807601 
40.589263943 -389.2201087 101.23322935 -126.17060116 167.87842564 141.0240707 93.579364159 17.562360963 -1570.2543201 
-167.1784549 1035.1830102 -72.501739145 319.52082443 106.95315499 22.694744624 -139.55738374 157.60978334 -30.13994707 
-299.03615979 -261.45605325 -120.60408991 64.355823546 179.84553724 1444.3592731 -87.348480486 -103.70166344 -367.21195278 
-885.88406377 -957.0209024 -21.997933724 -128.69469598 119.4932092 274.32704808 585.45878217 345.13076794 -667.62747347 
109.44139789 16.943317977 5.1552322685 -5.8144968439 156.32640767 -171.13117869 613.46880768 56.907108666 213.84728465 
-586.7131543 -74.57729271 -116.72313791 -38.531722003 256.78342092 126.929167 -55.338106391 11.409311794 128.1089226 
90.080036054 21.095994475 -20.832005722 -92.834506536 -306.3712399 107.16945772 75.009582089 78.666642967 -1167.7307182 
-499.86312887 551.34311028 533.34471989 -515.2351116 -4297.5472811 188.16908765 118.31325962 128.14646446 -100.25627335 
216.37820132 29.477904671 90.247541399 -240.08178389 884.94224587 27.785234748 -67.591246146 1196.1558109 -522.87749563 
-479.37477523 -204.24665997 98.592041551 49.882035871 -0.098120443547 -3.7514294353 -248.65043556 209.36046784 63.88330957 
176.16000425 140.62375788 636.19329918 -86.193269764 -43.493858258 32.900401721 -1219.31835 330.52720944 205.90554057 
971.9322617 145.36580442 -19.223717562 311.48896853 -541.45464212 59.174928233 -406.970771 631.31444529 327.47331589 
-307.43360039 -141.3343228 367.12161124 -335.05459598 -238.53873354 10.216313075 107.5141009 41.180554713 -9.1121032912 
59.263782293 215.33035221 1446.5451706 999.36291426 -84.102165148 289.09861431 976.73087167 1107.8254664 508.69850465 
-255.56766934 -117.99346235 104.38390519 -718.37058855 -51.979851792 -71.586043724 100.15479869 279.9579368 454.41311289 
142.24427097 319.75461978 -21.763720279 12.000340778 -1117.1416812 445.49305314 -585.56914309 -127.4943827 284.23006462 
-45.323493083 -137.89436932 -175.28216021 -195.83460594 110.90482908 121.03126105 53.158864409 48.387424472 35.459592044 
31.658043047 -2385.7538872 -1639.048244 8.2162066131 -33.50505357 653.89838162 1840.169166 703.09576833 164.48265028 
-273.51581076 190.31233511 117.55557242 -22.03745077 18.565641376 -79.245813854 -36.349384404 79.978555932 -29.437478517 
-14.356762712 44.399181863 134.9056963 -487.59022208 -385.69720342 -240.111624 -358.49545506 -737.26998923 38.839411234 
135.20198251 -284.30578749 -112.07601355 -519.88755693 2280.2245396 143.15435896 56.522358781 66.15930843 -147.99872506 
-236.62428971 -467.68308924 -245.49163234 45.187017468 77.564737069 51.642044104 177.63708048 79.486809498 811.93753749 
-445.14279208 156.98840624 -564.30945865 37.357322829 87.736262134 -41.55845177 -36.047835233 255.80752699 -519.85532654 
3594.4071396 9.1328398969 -1970.8775278 6.2544695 103.11692972 -30.365081431 33.569140376 144.15723915 -676.37476467 
259.70359337 -497.59585721 -65.472015604 -30.328170954 74.87328672 43.157319746 -67.356306651 98.424315517 130.61588216 
540.96439906 -577.53046974 842.56067654 13.676432603 119.31390542 236.34582029 706.16368359 535.8009273 714.91974279 
-97.411770849 -140.75755225 -178.6886186 -31.391864202 -10.7615961 -70.762432713 730.98757055 -306.5134697 -187.4212854 
-31.022690251 590.1033865 -48.356484188 38.397224521 44.740026329 97.08590924 -861.19168162 -296.17043873 168.03173376 
-534.38704395 1201.0757198 1349.5207069 -1808.4463256 -82.100754255 37.323224104 9.0988512311 -208.08568007 69.745197141 
428.07983546 135.60268986 731.11372662 272.93035282 60.31856316 46.929828312 -210.70511438 83.595291488 -27.418660738 
-231.78370417 -34.790743758 -538.03730535 -984.05560696 -30.44176728 -312.17987996 1065.9298224 121.6539034 177.56312191 
200.53190364 68.211505062 162.52139262 -631.16567351 -1.8254685338 -19.545040632 982.18390003 195.3045743 468.23419538 
662.2224471 41.583625381 -101.2449811 -55.572858586 -595.0227086 572.5497082 259.21360492 -1038.6489902 91.114413522 
281.49346264 61.151870952 -241.98969274 35.011169431 -203.2050045 -297.08063958 -669.38721263 99.158613156 -240.38501743 
-119.23118366 1462.0697508 21.810314245 134.43825319 -8.2664217813 15.595198033 22.940722699 20.362323472 52.028796915 
-43.996869257 149.93861745 -205.74167043 -600.96922568 62.732844064 -7.4707090708 -18.418006308 12.756867836 53.354312526 
126.56107677 22.559872658 -13.453624464 279.63386571 -45.649809627 -176.00324819 0.16869184352 -70.007528245 -77.666591712 
-291.75877546 -87.938194414 -10.829891075 -20.506120846 -30.599719178 -5.6921135605 8.7631509124 66.649294997 -11.957864589 
-140.37345343 113.25804806 -240.66871699 -88.393206392 -106.88464768 -241.73653799 15.284035701 18.797991884 -84.777851105 
300.61843185 42.929785916 -437.01141444 -1.6253206491 13.450124155 -2797.3318968 -231.43864017 -234.18085484 -137.34124446 
52.790564747 -241.81115153 -665.00904731 26.972504278 607.8328484 244.69421482 -223.90447777 92.613182286 25.854833675 
-410.69225373 48.521015227 -24.872205327 135.56080111 -67.889557705 178.36041658 2062.4474575 574.04079295 -44.189639349 
-23.154632232 2.1574339764 309.14191406 -564.46692721 -4.5447835597 30.796686273 -52.318509981 -743.49630652 -149.73715491 
-700.5583573 -275.73180176 -44.504105075 -23.442112525 -203.06253652 -908.42167671 -33.543057408 116.06176188 24.249159838 
237.35761195 -543.56731712 -496.31000522 -298.86723046 -250.94354942 2.0066852632 -374.96235606 -2931.8802535 -544.01083129 
247.23466156 -269.62119011 60.383857066 -7.0127501688 12.008817256 17.523472956 35.279477866 -1.4459733606 -22.01257614 
-118.55147716 -341.9920654 23.902974864 103.40560195 -61.268195338 26.959335549 172.01773476 94.645741941 -415.27918135 
-756.65212932 97.410541259 -805.4318738 -155.40703429 -825.20704125 -273.66526232 78.802701791 -741.39901028 -15.906124586 
13.086468388 -68.699000656 -209.97569884 298.61058888 43.064781261 32.367733541 -68.629849699 -165.71954671 -111.61201485 
64.563203385 -127.25500385 11.253705274 12.380504878 -76.293902385 -282.07396315 -85.706398549 -104.74275295 -35.699475567 
-26.251654955 -84.078910647 -114.66457368 217.3251719 105.79723361 -22.716970948 -20.269218378 54.148073334 -62.033064056 
-573.82651523 54.268903022 293.31448509 32.645418395 -327.32726757 -246.80533286 28.592665527 -114.58854634 178.72723353 
214.6476048 60.459778401 -69.494310894 895.58844513 538.08319194 69.917627131 -574.69737359 133.3558095 -442.16324176 
-87.628669857 122.9007591 -231.7353514 10.846782507 48.074962893 203.60781137 -39.887220598 118.98563941 -134.68434253 
-281.47241196 -206.21921337 -2533.0634061 -63.252239881 -97.060105006 222.38583207 -88.530214516 -30.203025626 
Stress%20xz%20component 1 13895 double
-3862.858734 131.60077344 -3562.0794413 129.66563479 8144.9839131 423.16006574 9736.5146721 274.67454476 2819.2696676 
152.76445281 3175.5403202 147.88261554 27.958200642 55.612970275 -12039.059668 -12220.993639 384.61256504 452.14916566 
367.49172603 80.006366497 -473.56093498 -1485.3167477 279.14284725 424.35040425 417.0039028 236.81429864 -173.88154955 
-960.91035423 -2404.0078065 -5013.6362108 -4528.3585907 -4546.4391308 -4354.3444719 -4361.655323 -4416.5888673 -5069.335394 
-4908.2165705 -4323.5152457 -4783.5007799 -4111.9258874 -4816.9802033 -4394.3233147 352.93707346 415.0285375 312.12631483 
0.7549712668 -569.18525264 -1599.5624241 265.31979139 396.81265513 366.44064077 169.78947245 -267.97962555 -1013.5210842 
-2375.8405674 -2.0328790734e-14 4.4045713257e-14 -3.388131789e-15 -4.0657581468e-14 -9.8255821881e-14 -6.776263578e-15 2.0328790734e-14 4.7433845046e-14 
-2.7105054312e-14 -1.3552527156e-14 -3.388131789e-14 -4.0657581468e-14 -6.776263578e-15 759.41007218 1225.6272505 1729.488228 1755.962239 
-5062.1117475 12086.283504 587.00379304 977.86703078 1476.4889327 1702.1968081 1311.4214712 222.7172059 10789.087059 
8335.0998891 8048.0079028 9395.1404897 9747.794719 10774.088238 10506.919282 7611.6244934 8015.1845187 7889.2954292 
7995.524983 9421.8861669 9940.3633051 9399.6816933 611.26907338 1023.1967154 1490.1134658 1504.4180451 -1319.7370848 
-1027.2633007 443.74059493 813.5705397 1244.5848246 1528.1687819 567.73715223 -3042.8016866 11370.78173 404.1984704 
383.12466404 353.76318267 323.47071125 295.53472054 273.19724217 412.79014432 394.86135856 368.15917385 339.16086767 
308.95798591 285.2000464 272.27080476 285.39278849 320.64123725 388.38188524 432.93054753 477.60728267 475.9190028 
239.60048262 299.24081013 354.52795604 411.78189159 456.32550998 482.12571892 457.28313398 231.53672096 -47.327793089 
141.68737815 1867.7862814 3890.153993 -1539.1444652 -1271.6745411 -68.282063519 33.451811366 590.79631714 2304.0876693 
-1174.2432216 2892.9442565 288.93059059 326.84400174 384.92292494 417.54369142 427.93169136 379.32038954 238.51945451 
304.30770569 356.73247795 400.47285449 423.89733536 409.71608601 334.98357004 206.18689756 19.512630096 94.508747689 
1407.2524734 2606.5189393 -1203.3043887 -1151.6535546 -63.306094364 20.259537497 602.92162222 2083.6875351 -144.30164925 
2755.7603895 472.18170838 729.4351582 1014.4430387 1438.7819839 1917.8902582 2754.4608024 346.356788 597.25236611 
862.002583 1225.0148259 1653.3304952 2305.2306691 3070.2140495 2728.5641719 2710.7827791 2817.4398964 3157.9811142 
2713.5222621 3450.1992267 2790.5438493 2732.4472433 2741.7714763 3269.5225668 3142.6502011 2945.2391022 3757.6452486 
435.24790678 617.32239755 756.66633399 847.58645733 796.78572446 1082.2327594 323.69248876 524.04455826 691.30613112 
804.77025579 833.20972905 812.83342179 1399.7404452 -7.5216525716e-13 -1.7067713887e-12 -7.1489580748e-13 129.4164358 -1.0960606337e-12 
-7.2760130169e-13 -8.1315162936e-13 -1.9024359995e-12 -1.2468324984e-12 -1.6940658945e-13 -6.2002811739e-13 -1.4077687583e-12 -2.7105054312e-13 328.60367028 
174.66696714 -1.2676427527 -187.40513332 -303.12024555 -341.42473727 -305.36489826 -221.92302668 -113.84050034 5.4469862843 
129.41158263 244.9238322 326.69668248 373.31026781 253.36955092 87.117074609 -97.146634846 -250.37058066 -327.45136509 
-330.01370905 -265.14612174 -169.21848442 -57.256499999 69.589840339 194.00087947 289.96737169 263.29971128 2136.9203078 
2451.4597046 3351.4776824 9387.8410372 6893.1079965 5001.6649698 4061.9141207 3300.7244242 3698.4060536 3440.6067895 
2201.8295127 2348.2287339 1776.7366786 3949.174243 1943.2010849 2706.8552045 5737.6831844 8136.3191598 5641.8588065 
4531.6656534 3730.9893355 3372.4409222 3599.790942 3006.355631 2251.4300911 2195.022724 2335.2690705 144.46174586 
0.22479879675 -132.57300068 -249.77825979 -311.34679239 -319.46383742 -280.66157671 -202.63858741 -101.47522475 29.02803848 
150.71549199 248.55239465 305.8419503 204.19946366 69.718393127 -67.249362731 -192.23375381 -285.37766913 -319.52339888 
-304.03546379 -247.62802455 -155.54211399 -35.67935832 83.059846581 207.69713582 282.17629289 257.47328186 226.65870808 
2677.6721466 7192.106806 9078.3453856 9730.2268953 9846.7575749 8672.3639204 6159.4797796 4214.8055859 3987.6925172 
2725.8029785 2885.1401297 1846.6162467 2772.5406026 -733.50812662 5441.8453401 5329.8975453 10144.449816 9979.0499644 
9229.2843605 7655.6020195 5378.5455293 4629.3797628 3316.202565 2877.7895045 2643.0552868 2605.8357964 -1442.999834 
-2634.5498302 104.51367151 909.85731095 87.111634871 102.83669563 231.79063723 -1888.0908589 -978.69210038 1112.8275496 
124.77680196 138.94970184 36.647960872 118.72542624 141.57394837 35.315712861 106.03480038 163.05832863 42.322052097 
86.814015037 142.40671152 97.248651845 59.161851906 137.08253281 102.84260468 60.039910015 2020.5400232 -413.28666154 
3275.7059673 -319.35195406 -176.10160357 69.183735505 2715.3069699 638.58479506 969.46223347 1780.7707829 -14.191440955 
-5.8903348503 45.248287524 2048.8081646 1479.0662173 360.74854902 -1370.4146388 -3674.9417813 -7694.3903819 2239.764717 
1772.8401782 945.53530415 -445.66727798 -2478.5835143 -5431.4748067 -10405.159108 -14360.174097 -14069.476033 -13956.475066 
-11756.889075 -13720.845764 -14384.526761 -13285.212053 -13399.65731 -13400.796875 -12774.31747 -12898.625603 -13317.367624 
-13527.420251 3604.214528 2484.428891 894.34011655 -1099.2712627 -3582.8683258 -7852.2317772 3664.6876534 3140.1213883 
1709.3046587 -82.725071951 -2301.6636571 -5328.4540735 -10550.648913 -70.627458652 -683.65354269 1453.6137423 195.10291224 
-106.24196417 -162.06393479 -346.91186015 40.055607244 -363.22603603 -269.29067578 241.49868562 605.67561978 963.15902335 
-97.462895645 -202.55164615 -498.79518359 931.40908833 4.4714196354 164.27333782 -379.13875834 -205.73956691 -163.47480448 
-401.47121498 -253.25803758 439.82674198 -84.722972861 -3116.9358529 110.74147546 -569.16519068 620.25076917 -65.344754732 
104.83178727 -582.41979791 -352.0188005 3.216530798 -127.76194304 -418.84463778 641.10176175 1289.1411731 1041.1980475 
-16.153325665 -501.61976483 237.2037058 751.5394696 84.1899678 472.94000061 -858.41090342 -174.55799555 -255.41166793 
-512.54028598 249.61945784 985.74276127 820.52278929 -3496.0927384 169.06999425 407.93844203 -694.96648271 380.39980191 
-737.51805557 372.01693846 210.47145321 -1100.8514888 121.29692587 350.84343332 -1402.6897481 377.42720362 -1307.8798708 
390.40918756 334.64140351 332.15249692 -1721.9059282 326.16433664 -156.76368949 -1695.5093761 -261.51889798 352.44774171 
7.2534465091 271.95699644 -310.39559383 302.21127479 363.9609164 -460.23093336 -65.913021378 269.5504697 239.89908852 
154.36413215 -2211.389733 403.13824186 -102.0431191 301.00310914 -868.21691296 405.77255337 408.2141695 253.60113173 
-2139.5643085 -798.34623815 276.23998802 -815.79050111 -2025.1420444 283.36557519 310.83902733 -2247.0468822 -1968.648681 
-3143.9805356 -1688.9211276 -3814.0115522 344.9213171 204.75209684 146.07383853 -2824.0510562 -3100.7911107 -1790.7385255 
169.06397544 214.85260795 332.29694982 443.3042002 417.79416292 367.80757858 385.79350602 434.59366952 419.57543243 
166.41540882 304.58273223 315.96478146 -320.15931312 -8.6825553434 97.57571374 -1101.6959561 -620.30272337 -480.360332 
-1244.1003504 132.9901109 148.6494336 216.49541174 177.48988381 179.03049382 310.72687099 130.51641699 126.04416423 
300.97120839 176.72068626 176.72068626 293.16072382 136.1838474 143.34400696 294.98787327 296.564488 -3496.2017894 
-3599.1043689 -2497.2484267 -3117.0538727 -3022.4754509 -1892.2432704 -3420.4519842 -3487.7909488 -1973.5283115 -2856.6329678 
-2893.0920223 -1958.1654475 -3350.926692 -3349.2180052 -1889.8775506 -2031.3357727 382.36407594 410.57223288 368.18155896 
382.58925395 329.0619407 377.35948544 264.7978586 95.001614188 260.27608631 -117.22576577 -399.59569962 -49.544499711 
-688.67260797 -1182.0908432 -508.35418528 -1365.0646124 278.2685036 330.66596443 246.31720293 295.72332376 359.40499412 
87.146409917 208.75599084 -221.87142234 -110.67236438 235.35553523 328.55980955 59.279852068 103.81196613 -46.826004139 
-374.24195407 -171.42438856 377.01939086 383.79445897 397.80767629 357.07193058 311.77833833 393.60377045 348.58281311 
379.95190232 387.95658341 416.11089598 377.51497042 402.42031148 386.96184825 -981.36674121 -1756.9499322 -1279.233893 
-712.01391565 -1058.9543858 -1154.1886264 -1025.2159207 -589.47201403 -431.70574118 -370.92017578 -162.66233525 -305.57383759 
-56.253354429 397.8002035 404.34112489 395.85569032 336.8732498 345.25021546 363.22948213 347.72221066 310.76963013 
361.07491521 363.33877046 364.79464283 336.5660256 287.86931779 -1029.8538718 -1064.8713373 -786.8453383 -1285.9719813 
-1607.3800657 -1209.7655648 -815.39866839 -1265.9774874 -506.53547732 -165.82020972 -330.37024301 -492.91205912 -566.1408823 
365.95139832 334.22886975 393.82493204 346.0146104 373.02626558 378.07405856 310.46843385 265.04635051 231.11876166 
52.021711218 73.387331862 131.66108969 -1389.4197641 -763.28661977 -1564.5498349 -1376.9764035 -967.64643994 -636.69901793 
240.96471506 117.86499655 227.59717158 -71.91549212 21.292321438 193.63904108 323.34406225 -1731.4249164 349.75307226 
-1608.0731459 1930.7747033 1103.9792396 -2468.7146475 1034.9311988 1653.8811761 882.73534224 1719.5610438 1634.2074363 
-2118.7533406 853.59052936 9544.842525 733.70320829 2383.2449994 1479.9152125 697.748423 1267.5203444 6274.013017 
658.1454894 1414.5660586 2701.7344959 1945.7655907 1373.0463716 2114.1546037 1603.8212433 1849.5639245 1650.0701338 
1234.1667676 1880.3777598 1884.9036578 565.79707094 1565.7926849 1747.8018748 11754.240528 1027.8038009 1609.6691106 
1389.8610854 1797.9993707 936.37926302 637.34724426 1098.083425 9027.5554883 535.78886088 -6239.1524017 515.74767623 
6254.8971181 669.69243818 535.61201999 11610.759104 6351.9184619 11452.873687 11735.46246 11336.066062 535.10907157 
546.66178358 714.06869457 11634.444914 3250.5043949 12184.464265 403.62070277 403.73346655 573.48584141 510.90788965 
522.11723183 653.03110786 529.19593251 544.83596672 670.20696252 444.62031762 460.34527386 634.54584292 477.59228755 
491.68054886 614.52656412 404.19125626 416.89197917 598.67551627 533.88107051 981.25615945 767.75793692 726.42024725 
1365.5971146 1148.3476483 1105.8714064 1469.3037797 1528.7944611 1449.0603425 847.77745157 1715.9059766 1690.716064 
-1231.3849431 -639.71773445 1772.5208543 861.89655532 11441.97845 11441.249327 6915.1971264 11241.05183 11852.719534 
10835.532864 12072.690885 11745.383605 6161.2711649 11381.139736 11970.521443 9354.8624918 12457.155006 11928.655831 
3377.9087778 5390.9119401 926.94524357 1154.2798106 873.76847846 1357.9993533 1592.710594 1294.0009011 1782.6469939 
1601.1199313 1649.7966729 1494.7589726 1009.4343375 1572.1509908 -6966.2920362 1770.7850262 202.19582529 4066.0396233 
1760.9700315 1505.7525058 1643.8734333 1307.9725621 1568.6912903 1839.6371044 2069.0957648 1770.0629497 1939.1448959 
1417.5322133 1771.64933 1734.6581169 1896.3664675 1948.6944686 2072.4490204 2098.9839065 745.1052219 863.05081111 
977.60962841 1103.6390608 974.36702997 1362.3640251 1564.4065671 1292.0945609 845.15882219 1068.8203656 891.21880537 
1232.0679651 1192.4963305 530.19514368 9973.996403 -2624.7770157 -3616.1418751 -3407.0106031 1409.9160306 4305.8546236 
240.76915667 887.69651007 3326.8869277 1768.5410195 2772.0940654 1904.1537962 826.0290307 988.74772169 876.5737172 
773.25361556 633.36464956 1332.8756303 1208.6772224 1152.6175581 1133.9459125 937.76993015 840.62429777 1305.7598473 
1492.2070278 1764.8534245 1209.919251 2050.2522287 4034.0568513 3354.9131223 -3562.1038059 1894.8000003 -1793.820819 
1779.877412 1827.7900664 1809.6850323 1727.3327917 1500.8189891 716.08155124 779.35876645 954.03529612 1063.1815601 
765.66689639 1125.1788772 1698.6539536 1619.4747397 1773.4115034 1650.6099149 1576.6098824 1915.8622659 1634.5621167 
1488.3221282 1541.9033307 1713.106885 1760.7018028 1632.197981 1918.4786892 -4041.3645863 -419.13140978 -4757.9678172 
1726.1843486 1846.1316602 762.14409045 10935.141503 635.41972034 2347.7593985 1154.3046549 303.94758133 914.61239607 
503.13082043 2875.748737 283.26784236 575.66339891 2162.8106334 1574.6183715 186.97715632 796.44977126 -351.36502344 
10102.045221 375.29036467 237.44910712 862.47660533 1312.5908965 -59.257234519 602.59984209 1981.9534495 1576.4329604 
624.90898972 899.71585262 1420.7306506 1624.0291197 601.68855648 669.65916331 1228.1788928 2232.1325718 159.23989102 
468.01616202 946.64765443 1782.5887855 339.25694348 746.28821298 1286.1280944 1906.1404896 192.30403774 256.23685787 
270.93675628 1032.0330932 -567.84319433 614.19773412 888.29836704 -693.63819607 167.15063123 -1103.5088526 659.92218908 
8126.0842581 -1433.0085489 -2372.2378588 -388.77025836 166.2701786 258.19957093 227.40825065 4105.4936702 10239.252794 
7051.8024387 549.87808651 566.03977596 708.76203581 320.1400146 356.04461852 213.15776581 327.03559142 294.17896112 
253.16514212 268.91000147 122.25872985 214.35656584 -47.361823922 -294.30051692 40.524588392 -544.17000364 -1027.8273557 
-296.51386409 -818.82178992 304.45325066 280.62263758 214.50944503 384.79790017 343.1706392 314.79716692 453.99821495 
426.91738018 426.15488418 541.05754708 514.40952205 536.80044165 547.70818394 543.99426226 613.38141596 643.7952194 
57.058150285 92.401875046 -420.15998047 408.77638883 508.49855664 488.21905204 549.67795062 981.26674095 936.36064469 
1443.0858994 2096.6247617 905.95602651 -1808.0696471 1763.1851227 113.97256455 5976.9882592 1136.6769598 905.36264582 
841.9796931 1517.7367792 1276.8302862 1172.8122686 1948.7305417 1725.656 1504.8851107 1479.9857125 2422.2992842 
2023.3536816 8188.4469282 -2998.7603133 3542.8092893 2681.5047426 901.30137551 615.10471177 869.95981722 941.5741426 
658.28269091 1024.0635589 755.16391093 1074.9415604 1194.293256 1291.3051941 1045.1780974 1597.8689834 1824.7036741 
1391.2770322 1410.6044949 1889.7190785 255.34809504 263.05118972 222.2015853 238.79372654 282.34118365 349.19437553 
473.62507327 448.89129249 270.28081525 317.82270408 291.33437689 456.64642002 473.45224777 869.78434149 907.54433714 
979.34632807 762.78434216 700.99094657 1118.3415149 1294.247557 1084.0089385 747.89812367 828.11444608 677.64808305 
907.57179402 818.8953646 132.93221741 356.40621089 -23.427169782 -507.89161175 -73.304825093 743.21439421 911.5539655 
1095.6094718 172.55656088 317.54399408 596.65079185 978.02754829 1354.4943585 3230.7201026 9527.4711292 4543.9798261 
751.15199728 -1310.3970366 2216.3444334 2323.6598962 1829.3048292 4084.8845761 2884.7188251 2713.6034764 2213.9165559 
1759.6373336 256.91587493 199.06406011 308.7785017 161.19293591 459.11419455 456.90799717 472.71355259 585.75510878 
518.58758949 598.28737241 663.17515482 728.97525618 1452.4087858 1644.5057495 1677.8872957 2534.8443787 2282.9463023 
1789.5809722 1472.5717864 1403.3351005 1685.3023722 1712.516457 1721.8532759 1589.0094453 184.8753203 729.22587455 
-671.32547487 11589.084814 1115.5274952 289.84795794 871.60963037 292.49184725 2654.1652427 570.73696183 201.91915592 
1566.1366746 1446.5811548 212.68338118 702.48962487 -426.72108716 4410.4734924 173.98478599 369.70590187 1200.2065416 
559.39003154 -185.1089228 567.28369186 1889.2161915 857.9710949 574.37461989 909.10529472 1138.9072777 1662.9256091 
598.97269776 565.63599101 1274.5593877 1816.7995044 457.3387217 64.139785927 724.0905793 1587.4708609 288.68239139 
734.15376328 858.12098463 1966.4741063 213.90172541 264.16733296 910.96034114 55.461284253 549.0965449 367.35736304 
-665.40257963 1670.4061116 155.644858 547.23932793 -1107.0891874 5990.8624521 -399.18121058 -2222.9328224 -1444.3946367 
157.67949754 220.12502918 249.89990024 3447.7190521 10146.244686 4510.4207567 461.19697848 420.99995339 584.0374721 
276.81787687 305.41303476 205.28789465 342.85047842 383.39626967 316.60536219 421.2803888 439.75526702 418.72090505 
485.81281963 496.23798138 514.18372756 484.63586054 466.97918418 563.04184546 553.03509834 767.39194166 966.8931694 
725.44503787 1112.4679189 1332.2535161 1052.7018538 1561.7437451 1594.7718448 1397.7234079 1805.9758895 1116.6844044 
1797.1270612 1078.8711986 4223.1257801 2333.4098223 -64.403498883 43.219918294 -34.090075891 -461.01837939 324.40849974 
271.77574912 263.28871073 834.87666169 380.41087959 686.92448924 2267.6078644 249.40359556 878.83223342 2247.4652888 
-2825.8798906 -665.95725347 5066.3908923 320.8219766 294.47081217 192.63852863 227.17272822 280.73409896 207.42991849 
40.211428159 196.67068803 137.74278263 -389.45184537 -132.82310451 -59.758900995 -1071.8207844 -624.69318743 -404.32908591 
-906.5527186 844.0017474 583.33075041 835.40743976 572.90591423 847.05091792 756.3953178 1012.0504936 1211.0941278 
1094.2721142 839.70259921 1129.7471477 1471.5532887 1452.0450489 1483.5626927 1386.2207725 1702.3496787 202.7908596 
241.79365984 249.33083416 271.53238169 230.49258548 239.8298674 286.53753205 242.9711531 434.24287759 473.44065922 
335.10582191 420.09599436 421.15849666 895.33931354 813.58196668 798.56375801 623.64461548 706.30162721 1071.2143585 
1241.1048698 1035.5711966 651.7274077 804.82778571 710.50025987 899.76453548 814.89714727 -145.54619523 188.53644033 
-49.946698586 -227.6284008 -611.60230019 724.26762891 576.66735376 455.1315612 433.0059891 197.91410373 44.916536375 
729.8555499 1025.0324271 3477.8164769 4220.7304608 3191.1271952 2141.3379751 2442.1765165 2035.4620995 2208.5885435 
2289.2024523 2193.0980429 1877.7205878 2500.1458335 2024.7434764 1806.5931112 585.19936439 463.26729911 507.42360778 
582.09475156 652.47854718 725.14436961 128.7439504 201.59032491 250.5831372 363.82396893 46.326536237 394.32493314 
1423.1812298 1385.0725865 1562.0931596 1805.7014348 1797.6228566 1646.7306778 1224.9929953 999.95985202 1142.1769199 
1655.9816519 1611.5778789 1299.1341111 190.7039666 625.6053728 -736.57562266 5382.9011991 403.44738806 332.17770969 
455.7933731 332.99169869 423.05173066 296.1656347 408.80692139 391.78106381 428.32197684 260.1060243 456.69763517 
285.63329309 384.38278168 267.50133782 354.88528598 444.64730697 365.7927951 255.57364299 445.37970383 395.06686565 
413.97159732 353.8047631 430.64352422 381.38346487 430.10961252 330.51510564 378.93449707 410.93119051 443.09532559 
407.15522755 221.91434359 400.44267656 404.52192248 313.25613888 365.02342047 435.04598663 430.25693487 243.12958214 
434.47242048 304.86753185 325.50973504 235.66845137 400.55804242 458.92293272 373.18702313 249.63725249 242.32731144 
455.18870065 357.06980571 140.07789399 183.79609457 268.21620531 272.46095424 187.95492837 144.43276274 442.59397377 
424.49789777 466.39314381 316.95469653 367.007647 305.99338753 328.25873931 301.88196017 293.75040931 371.06701826 
350.68892981 355.99977026 407.97571558 391.66255977 376.60345064 425.19071247 416.77449995 415.64680692 395.37506784 
424.97607734 416.8872012 386.82011907 130.93376993 145.98384204 291.52005434 163.35926002 161.88402365 239.30607171 
135.36787902 135.36787902 243.03234027 160.67526742 164.25211672 237.87390706 144.80146359 144.80146359 248.97660222 
238.53081283 416.4376183 407.49119704 432.94116472 404.90669093 390.14490599 439.52464221 372.28775083 358.97043988 
421.31459204 355.13224958 343.17565275 399.8015677 327.41381061 316.81637108 385.25901728 347.46135155 296.60503174 
314.12308166 284.52170422 335.43402735 370.51617752 326.97922322 397.97364142 418.77279956 380.1874665 441.83883169 
462.96352725 422.96932271 472.65725052 472.28005666 458.81172986 465.24766307 381.68941715 340.03440822 365.79714785 
399.31679162 366.09620795 418.53552769 409.76846604 424.74048001 436.46387465 384.62783431 354.03748346 402.37910163 
404.51337355 418.43660511 427.74177763 433.09385861 311.57566915 267.05070503 286.06177071 318.37292014 303.42244595 
309.8590487 299.5412572 322.31289155 344.89923295 355.57166347 378.71092046 339.11363886 332.02419301 451.17545937 
450.49264266 446.39922685 457.42207476 455.91588773 460.69481245 455.08805087 450.97578039 455.62813578 439.97973292 
450.01526658 443.52558001 428.55630007 311.29442301 307.66815576 333.87040648 281.6418318 255.67387468 353.55705161 
359.3688792 340.08184337 289.17466466 332.328627 295.3896695 353.58372789 379.62921863 400.65081319 408.48747358 
391.24018925 381.88159834 401.7203714 408.15679968 413.01854857 432.02233085 417.65855865 425.30421616 400.22125564 
448.12437626 433.06023899 289.2165809 254.00814452 308.44033705 262.67855717 318.73909287 327.24554207 386.95968986 
399.97036521 406.64876636 420.77940771 419.08319611 419.49278269 377.4799729 403.51588646 386.6565832 397.88318376 
396.79417937 402.65431631 439.57108402 430.54092917 425.49493221 415.07023683 425.14244096 422.8456401 270.2661325 
459.09842513 272.43716154 374.21866748 334.58222876 151.3588851 60.162573078 1298.9623077 1071.9179492 402.41858092 
-10.207195232 1349.2240278 225.4773763 -115.24665416 -102.59792267 -397.98566792 4039.4626544 -21.993360732 125.2504475 
-774.0280777 63.620221551 2047.3333844 -199.76185756 1032.8003224 1961.9430865 215.44974775 161.72940989 1173.8096671 
288.44778322 161.43484978 897.95013424 116.65013402 1298.7113159 492.54638064 1026.5068614 -883.59032775 191.32163911 
146.33750146 274.39793471 2910.3905264 360.24375326 -266.93201569 -798.70155674 336.14544809 137.95611319 -652.74442911 
-1484.9900828 3047.1907781 -315.59822712 82.004124798 3954.8721534 -618.35677359 5465.8129302 -1977.1136275 -2309.2011489 
143.33229317 -2147.2048783 76.840937039 -2507.6720943 7666.3350342 7952.7419384 4467.5507187 7737.4226794 7630.6410276 
4720.9308787 7523.6969054 7708.9382155 1931.7699594 6748.3360869 6951.1490263 -1147.9948163 6856.6605154 7363.3973967 
2501.5993916 7651.9006396 7543.1219437 -270.60963066 6906.8565314 6701.7187523 3673.105143 5381.4642525 101.69083661 
29.061818948 80.477723898 6.346045304 70.837117815 52.34046294 115.93951632 691.36778416 132.79616047 2379.1582354 
3489.9812731 225.1169814 -301.66856492 -3873.7928797 5251.9193984 5122.4879836 -2702.4699116 -2525.7011594 47.446132413 
-2212.1017709 -2172.6176216 -340.36247219 -2718.4863721 -2490.0949804 -475.75967357 -2226.377837 -2262.986695 -428.12316557 
-2445.6654581 -2418.3831199 -382.86566211 -581.87277788 120.8764048 176.75910117 122.737124 101.95158284 47.547075555 
200.76240374 728.82932785 304.29374749 279.4480296 3877.0959187 2444.4615896 1267.1734304 -4233.8809453 1958.9947261 
3069.5149195 4901.8456158 229.59312712 199.10126619 284.24836893 548.34634583 639.40013207 141.02985899 223.19204437 
154.62191359 136.81380034 868.90382055 677.72721104 1168.3298496 656.77511254 205.86566538 270.41846316 690.96221036 
-191.73737606 -469.59186232 177.48864176 283.65838659 165.09720454 155.95042745 236.54236519 297.14824218 133.39645267 
99.394428304 128.956301 142.1579284 144.93536318 74.935959341 33.293419415 -14.623091687 -373.76261335 -219.73147676 
95.469787412 91.684424227 20.900896428 214.59343584 112.44822774 71.570090092 75.592426477 256.28214078 889.50639502 
-2665.1163158 -3212.7304215 -1487.8016807 -6398.8009205 -2642.822658 2481.6080886 -3658.065224 1476.8577268 856.56778154 
1305.8462828 1687.0274341 2063.4478151 2791.2025781 5439.6248422 1968.5723663 -2238.8938056 1354.7487931 143.83235333 
1085.6150217 672.34873364 1317.1427548 1756.6637201 1837.2658688 806.192735 259.64508462 428.91751159 246.9684025 
268.44353001 591.19503298 776.60767542 282.13801889 64.024207724 152.33161086 -346.50375137 187.1836886 134.17326113 
109.87836117 857.12994574 -109.58602727 2594.2403551 2138.6002451 -927.70817694 2247.2281681 64.22592347 118.27175612 
225.92831804 -72.212761914 307.58150747 297.61115368 178.08109704 16.852944992 2495.9263683 3592.5004048 879.60549944 
635.44252861 1918.8394527 579.58554124 639.13557868 520.6437071 1130.6486896 698.12632988 773.15876634 479.08685275 
2564.1739498 438.98285292 487.37423537 874.17923975 407.63318911 683.27758634 2235.0949966 407.36511374 1609.9134333 
-589.48729578 756.2414536 744.9652829 1187.5016809 771.54564354 819.46052085 918.8065154 663.28487026 1163.1082246 
789.67294331 309.42422724 1166.1025753 775.46168209 93.407803135 592.02547968 1396.1450979 703.54490191 591.2481862 
558.25603716 655.64569804 359.80656758 3029.9503929 2210.3719335 352.75651898 665.15952436 1602.3706521 331.10146523 
313.99627277 2932.2982484 -47.795630736 2837.7863444 3047.9123118 2922.8959007 254.95146812 437.36535556 172.20239873 
-618.37056109 8.8921871899 682.80291475 404.33083586 240.50502564 167.11526673 559.55029314 694.567633 526.02663588 
805.58213897 941.29134234 780.31059258 1098.4551112 1301.6544658 1018.371036 1494.9400404 1816.0618958 1313.1816394 
2081.7126131 2454.8191859 1939.5345956 2512.5193511 2936.0660259 2923.2728728 3033.8637221 2563.2968459 2110.290302 
2635.370317 -272.88504921 -1732.1918031 1286.6615337 -1889.4482682 -235.82743562 -386.08048934 2641.1231019 2907.132665 
349.56172909 701.78613771 590.17043247 498.34066809 472.22810743 723.61887299 655.6677273 625.20043265 820.63218332 
776.58021557 733.66323088 765.85946019 803.48131036 779.65649123 828.74444979 738.3867448 761.77832532 570.01657888 
189.47611133 189.47611133 350.83197154 215.25226272 212.75955835 381.55438616 233.98769057 150.51143221 360.29620092 
209.15808844 262.04373394 379.52730651 172.64886331 162.34005506 368.24785114 326.39119191 894.88425529 830.41012706 
804.61271356 698.57516402 754.79307896 1026.2452781 1026.3788821 1036.6802349 1184.7928141 719.54326485 831.51663462 
796.90701147 865.9717495 965.08262391 892.24574408 803.76758929 645.78719613 569.24569249 562.01315443 422.25649856 
495.85209895 782.80484802 884.39461592 760.36245921 510.40691633 605.98262049 527.260313 713.04742019 678.24699892 
2470.9758393 2794.5170203 2232.9799751 2391.0831904 1984.4272227 1555.6403725 1741.8921917 2206.0822852 1546.8101581 
1635.5220999 1757.2886385 1491.3177509 1312.2428456 506.7490979 561.95247096 515.68416269 474.09402054 402.99136167 
690.43426794 650.12661505 626.27010354 620.90427972 542.02985176 504.06945882 676.72915736 735.94765046 677.64388548 
575.34425686 562.26609918 822.23398544 433.2658459 374.17671365 630.54338779 399.21093442 722.77995158 775.27473515 
709.19668757 727.05037492 711.01064851 432.54748065 473.015058 554.69655227 591.72497631 472.41678843 624.77709375 
1022.540676 981.11998341 1130.5774894 1348.3752417 1263.5378643 1156.3991943 976.57141475 1445.8009489 584.44781828 
256.38338801 585.38827069 785.33621271 769.30504065 731.07390842 741.55078628 774.70049167 784.50198477 766.37559845 
416.53805335 2736.8207087 387.46931778 222.36878887 1348.058247 578.9699938 2231.8118762 631.85344814 1804.7828364 
2794.3236611 789.69915035 238.38519817 72.079424754 1291.5895921 2320.0664569 485.32627522 2308.5225611 284.40646112 
1451.8026735 2919.3816059 424.32791249 747.59311419 5506.4335376 1450.6542189 1199.58889 880.52844874 268.3833616 
1960.9846973 312.57607733 2414.3135493 3820.1492973 200.94554869 193.01546054 -246.4599094 863.85630354 202.83714655 
897.34449012 7148.6509715 2954.1112299 1254.6276751 504.30355221 560.26492634 5123.018565 1786.5226288 800.98814524 
1700.3846742 896.19188198 1794.3804124 329.4341876 4763.4340177 294.19253984 604.86191146 7765.5298455 500.15399209 
1377.3940732 3282.9774943 2160.1983599 579.88391515 279.92087041 1837.4482765 124.88473134 3155.3788154 264.94367497 
1021.6487808 132.94229797 3475.3062673 1370.8152755 185.14068102 875.3071696 459.11311243 2564.3786076 88.07608317 
2401.7140458 284.14002913 10277.429928 767.21600145 1281.6324132 1339.4143306 976.04870202 1637.116816 345.98326377 
756.08880965 3956.8657833 938.62602197 1206.9541395 4917.3873069 1891.1588102 114.27135452 917.27343843 2056.2615735 
2697.4395599 510.11373825 954.87934155 421.52909716 559.32495375 7089.4286933 71.357038199 2735.1249511 187.01104761 
1718.9500498 371.24849277 2208.9651754 1274.8601559 663.7108913 11617.63936 1887.4845087 1220.8343994 4202.1726459 
2031.9207681 655.50852405 2039.4155244 479.00527402 10333.813822 11217.732319 8063.4377118 535.35065496 713.44368825 
492.78350576 2395.1052545 2256.8541599 2185.9540719 329.32365691 194.65451757 255.11050998 966.81463429 1196.2722265 
923.54459418 1504.7498526 1768.0350492 1487.9874189 2173.5315574 2064.940833 2181.573572 3501.3007253 1582.0147894 
3727.2942645 -2601.0669556 6758.4442953 9319.0113291 5978.856274 569.93507133 443.62455202 303.02133999 746.12194388 
618.42337893 470.16458252 1094.3516004 901.90013988 631.79176008 1189.0525527 1032.2612904 694.6711392 1847.0555299 
1514.7554291 730.45951626 1237.6197663 372.47359462 440.99138885 608.31882463 302.1934386 387.12853373 589.15093215 
49.209618212 136.26474014 447.68601606 14.775379912 79.195811028 307.1649463 -70.126122249 -41.933857211 260.67743785 
-94.248900786 -101.48664169 156.32422951 -74.017108307 -109.68518939 90.636649132 -20.151190446 -62.989967508 77.48848884 
52.121177517 3.7206666219 103.60308869 129.82674451 75.632592692 121.93304205 218.78914054 167.70837992 161.1694472 
177.60419129 191.16118248 258.97783686 235.76843148 184.06265134 185.45080885 4751.9637529 3560.1214177 9017.9939994 
5823.5112302 10115.683524 5069.609875 9612.7527768 9626.5316349 9116.0364022 6921.1952455 6219.7546297 6117.012926 
5284.8999586 4459.4184046 4219.8772686 4083.9015072 3628.514696 3491.2519163 3411.1308738 3031.9601326 2973.3175681 
2387.6728287 3179.6665638 2371.6409184 2396.5259205 2441.103756 2427.6011371 1789.1915166 1039.2801688 1400.130659 
1860.2951783 1972.6424047 2072.0806817 900.54098068 712.41750326 1204.7661286 568.91141379 218.32707991 744.76090097 
1558.9786775 1499.1838828 1695.5078128 1499.9242268 1280.3720421 1158.542734 1127.722901 1314.2431747 1096.5999274 
1470.538794 737.26231119 660.35461481 514.57477514 757.80567135 893.70248065 410.14003241 285.83225426 406.6694783 
365.81592205 559.64125648 377.31530815 728.07681189 2725.603632 2057.215383 2417.9387912 3429.4202922 3081.3112009 
1758.9579351 1568.7034402 1799.4385106 1312.2994391 2891.0540645 2849.3431567 2236.4376779 3594.6062447 1778.6955391 
465.12773649 443.79272286 603.09938774 500.72011761 340.15733993 723.17754194 781.95991117 869.97854065 631.91473191 
551.62144263 757.59332133 425.93557708 1696.7782518 1521.103942 1568.418747 1920.0549015 1908.3421576 1642.7209911 
1377.4354585 1616.1611156 1904.7048698 2018.1650727 2137.1356517 2035.6546262 3397.0861333 3715.7558774 2746.5771626 
3318.0621113 2817.8261845 3359.4481922 3424.5609008 2491.0099532 2377.0756835 2247.382402 1909.7078437 2224.115079 
4294.1718573 499.62522469 553.86061011 353.68127855 647.10756492 1009.2111069 1027.3563013 1263.0411371 1000.4713391 
766.06112072 845.05341688 1078.8028658 706.20933487 544.45278526 234.03835296 200.83946575 310.25477805 321.96740472 
211.15271397 251.06818451 227.04911542 356.70747362 421.74661911 294.89255289 274.9394684 300.87285542 309.55151061 
119.84252392 266.88617435 456.00276472 460.20143776 379.06174486 657.19368542 308.58610572 277.59269291 155.6841184 
381.65475928 252.996913 535.5947851 1088.7506292 1262.8000882 1066.8264368 721.28202698 914.08778131 1552.3149573 
1651.2420536 1905.3181917 956.21393822 974.61240777 1334.1237775 1685.8545944 2084.3646241 3334.1356468 3723.9959696 
2342.9815655 5625.7552443 10679.751033 4782.9229335 4620.2077747 4469.8025944 8141.6044257 3118.7101415 6466.5825035 
3344.9556447 3361.3815306 650.57846364 895.66370488 728.46147012 490.55362228 690.9918805 931.16253588 496.61101342 
310.95203092 318.07106519 277.41673191 281.57379493 2021.1137643 1975.1566896 1698.7469769 2237.6089413 2036.9122861 
2485.7174991 2762.0293486 2999.7933924 2609.970068 2354.000626 302.5918543 421.28670951 206.44187427 215.20210934 
241.58468244 278.91221673 204.84853391 373.43850262 527.23418511 369.18813931 1818.5320935 1815.3280095 2247.6779669 
2129.1112675 1584.3580404 924.58248509 1156.5283684 1116.2283133 1369.9333299 1103.0061035 1234.8444313 954.47199566 
3755.7677044 2664.7539077 3797.5918455 2303.4705343 2455.574463 3268.2696843 2554.6100319 471.59569381 573.72033473 
382.91044101 514.23471404 337.67005802 337.76011474 1003.9215353 1063.9658158 749.73525962 529.32485118 514.18311104 
680.6015027 4231.7002674 4785.0645261 4449.5108719 5063.916209 7466.0009117 7091.2686097 1174.3457977 1386.5736078 
1065.2031992 1343.7705736 1640.717204 1751.3455091 1645.2737171 1567.9235615 1952.087484 999.49627543 1077.2669706 
1235.2246309 1030.5588208 1451.6985609 1266.4517019 1504.5624178 1124.6340826 1101.6014809 1113.3558088 740.66365729 
922.5749458 171.38353045 169.31739794 222.83611012 319.35870438 374.13147666 1991.9771719 2312.275231 2108.0498426 
2357.5406369 2043.963033 206.88373361 2725.2990474 2384.5839663 782.04430527 5803.2665482 1399.7848216 684.48139514 
1919.4999917 561.89051602 1280.973854 2464.2676334 763.76176344 270.15173208 721.14447415 994.88005588 4833.3067545 
485.94195819 2539.720225 1373.8946047 314.06280902 2140.3184386 468.02307887 609.41097897 4849.8899025 1504.5346791 
1027.9828263 867.448224 252.32933847 1349.5903653 241.29683694 1704.5317859 3146.2883294 185.74796605 166.23385176 
603.20064798 1156.9723289 210.62554613 690.20205432 6019.0645465 2529.11783 1103.8840257 426.21655919 480.46274171 
3546.8254992 1411.7650622 752.28180096 1405.2604955 937.92863257 1907.5260067 267.41743068 3728.0522851 447.7528011 
434.83037339 7343.7856097 855.27540536 551.46192341 2619.7999183 1634.9647776 1170.3224668 335.50711342 1700.6062943 
120.12037185 3430.58843 581.80653883 165.36828749 1178.9775391 3510.7647758 1067.4409944 1079.9496879 194.94990682 
2172.9723651 78.914638802 2155.683178 171.54434645 8472.5609606 572.37895373 515.89120659 1229.2388929 794.97849241 
944.46938438 992.14981567 1686.5892986 378.99534969 660.30355999 3311.9728214 1058.004018 969.02803679 3892.0266291 
109.68314935 1928.7149554 1988.6805883 2616.5742577 514.98886457 369.05243748 536.7697031 378.24358083 10424.525757 
66.682491881 2132.1501633 186.85337766 955.92959316 1554.7500971 334.26283021 1206.8409448 487.02474243 6317.7255713 
418.95363131 709.9597868 1307.9431869 3119.1605237 1531.2164984 908.7561981 1594.1422953 454.82944956 11650.433081 
1511.9931743 6413.9289843 551.81783118 373.94243188 317.02477091 758.39977871 1465.2395659 2454.5403253 189.48515649 
307.92947516 244.42533422 994.26460899 778.90992723 719.59933709 1458.0427912 1224.8169516 1189.9265025 1881.2220037 
1847.7333327 1760.7406771 1408.7439475 2980.8357957 2976.2608449 -2041.0771696 4856.1716367 5723.5214435 -2930.6892287 
399.13687822 491.83688566 276.81693001 520.00415592 582.35137146 404.62031822 663.93771582 700.82204613 504.01200856 
641.49657756 623.39360128 535.69408847 682.23530525 721.6422808 528.8785543 504.97319511 261.51454585 193.98658895 
433.91667669 216.08898081 155.72505305 404.6620352 17.237547104 -38.606738931 304.62786043 12.471065497 -20.472812736 
220.24005124 -58.668618283 -69.120378588 225.13528656 -96.073978416 -84.325481084 149.60515695 -99.944316494 -70.989138551 
90.807485964 -55.734175248 -16.505814886 72.288114032 5.1248856127 63.901601772 99.859846052 98.155298906 147.76474543 
139.98359328 178.08281698 222.19033283 193.47416984 175.4135771 203.9308445 253.65287592 185.61321509 218.85462165 
183.9493687 4408.3615117 7168.7304081 7978.2208967 8176.4699242 5977.14494 8490.2443289 9194.9490553 9012.6301345 
6612.8236833 5314.0932976 6595.6798978 6402.0584909 6458.3956367 5639.8392914 2738.474513 5817.3248377 6004.4019709 
3471.4792828 3639.4596227 5309.5293773 2818.1844011 3031.7148066 4131.3912705 1289.2927351 2545.2473997 2906.693392 
2201.1869245 1570.1004481 1981.3141128 1491.9958434 1953.0441438 1998.4041416 1033.6248054 1857.4324607 1254.595709 
1222.532159 791.71890586 1960.1088852 904.44202183 1786.6295991 1552.0535471 1647.2661215 1346.6126331 1607.5231197 
1313.3079309 1099.7256337 1194.3555148 1155.5247041 1460.6972445 623.81369936 515.92336947 562.87714574 476.29941639 
600.02640392 700.74707954 780.55153743 818.93695797 898.10378219 615.16608765 705.64972929 829.23822956 2147.6448615 
1800.8075376 2253.2270024 2680.1297548 3001.0671214 1407.858117 1492.7660503 1094.0812902 1484.186552 1804.228085 
2116.7521405 2288.6082657 3116.4292436 1348.6786508 773.56141526 676.05484266 656.20591297 506.92001191 597.69493273 
675.91912401 553.62044983 488.12014173 494.20615169 374.67910943 447.92036194 395.18801426 1396.3088562 1196.3747175 
1458.0534881 1427.5495729 1667.5531776 1164.7972291 1237.088263 1349.8484868 1522.7978271 1477.1395118 1110.0003224 
1574.067469 3394.3752905 2793.8012703 3148.4995467 2467.9147831 2801.9337657 2994.3057168 2529.7622557 2224.326135 
2306.7561717 1940.6473237 2154.3690331 2218.9044355 3541.2137119 516.04337157 473.72488785 641.32791249 351.31908288 
1169.5005408 993.08581044 932.477139 709.4713533 882.09906952 1082.7724119 856.93626126 730.03588315 466.08304542 
227.66037582 231.35628799 308.07074481 277.2356059 267.40750494 304.53557833 244.81562487 319.39050922 403.78870588 
339.01364323 392.68651013 348.78975168 407.28143018 763.48870119 637.99965535 494.77000216 594.32738408 986.86462521 
838.92141513 863.38068988 528.99483436 655.25662533 576.99395447 779.60131974 893.840248 834.41759439 984.67795666 
838.39861351 685.00260941 533.78969742 1205.5156928 1462.4952319 1261.424241 1039.3165461 753.0208962 720.77271735 
1306.3818836 1604.1134022 2305.2522796 -2959.1398399 7603.3916177 7885.7869398 8272.4254826 4026.2383225 4128.9892776 
3015.6135359 4985.2007564 4012.2103592 5756.3361515 3533.9361897 2859.351478 738.89512677 870.20916959 625.19934746 
473.98851489 967.46394482 712.37286195 497.98040328 315.97403607 307.54874838 271.13868991 265.44562242 1561.5459909 
2072.4623035 1953.9313445 2094.6434721 2177.2125002 2584.8592728 2977.2224491 3053.4276636 2571.5296579 2071.151288 
1291.3708005 1561.3697239 2065.3742548 1793.2396097 1148.3100767 1096.9276526 1116.1926031 1065.1496425 1314.3212511 
1134.7231767 216.24477832 169.62879785 279.47550695 327.58770148 364.75546324 323.75427427 269.79601352 238.09095833 
532.93362592 409.91333231 424.90960637 420.94193312 2097.8846668 2622.4985314 2629.592974 1757.8641274 1838.6580799 
1908.4394476 2420.9579722 516.19788096 452.18264984 423.89443795 526.26273636 486.89608548 457.78950909 849.43030679 
856.61804031 632.92274028 395.22889327 436.49907054 526.35919233 4167.1954619 3608.421772 4140.6217199 6888.282587 
4497.3591637 5412.5263109 1372.2787437 1215.009087 1403.8210768 1128.7124492 1733.2158909 1733.2397713 1467.6088633 
1613.9728101 1847.5509683 912.24528971 900.30448846 972.76936913 1116.5323325 1044.9455274 1215.9955214 1321.7941244 
926.48159319 834.72307293 704.06804799 778.04659285 628.92773077 906.4712228 1031.8664313 962.5471711 159.09995832 
165.47966108 295.96370487 207.93198944 351.07518065 1675.5912231 1589.7639973 1784.8252034 1628.4211001 1575.6206463 
162.56922902 287.95833387 2167.5148685 586.34430381 293.09946224 -291.07554049 77.351527279 -109.76917775 -141.62365545 
-148.2214579 -289.83102083 -279.10801745 253.24611917 228.91774891 160.84896258 60.13000609 -278.37952077 -309.24643521 
26.91817145 25.016119735 153.01060515 256.16296622 -105.4940001 -178.65889138 -297.01212814 -203.71490004 -32.86518243 
-213.09150921 -227.08921856 -100.90167318 -100.10812689 -309.72555689 -322.8997471 265.42594218 256.56504998 145.0374515 
161.73479228 127.86766139 285.19406639 -218.43460125 -184.63074898 281.14817647 270.53025448 203.27316867 272.34747912 
-245.8598036 -235.87543808 -309.59700302 -321.92669341 -242.95266985 -276.86839985 179.73314956 69.246126808 -68.208762419 
125.97574025 -47.415782906 4.188904633 42.382861025 -66.944127472 118.43116814 -231.31974879 -312.07258427 -300.04333718 
213.72865795 54.439005338 85.297836113 -100.66889208 -33.450621828 228.55846926 248.4165825 38.032623257 265.17043256 
-162.96866999 -177.96691012 -99.432280199 -187.79730118 292.12592452 -276.08424954 -143.78748861 -279.93419925 -289.57743269 
255.29019935 -210.36248597 -246.5507517 -134.60939489 318.9781572 198.32320279 -28.787683594 -39.712979289 42.693588371 
-277.81468417 -305.85348601 -323.92220701 239.52741722 218.40664448 216.99176155 46.53522499 -248.04352385 -263.65568421 
304.5973288 286.36785277 -177.19987905 -158.83681975 -258.54421061 181.76493569 340.13729316 -62.876994874 -307.45999159 
108.66828478 164.77580113 145.22556746 -234.63471165 -246.35182602 383.26601794 384.29432033 336.64952851 225.37786518 
234.47510877 161.39111713 314.48969308 216.55628648 160.86395588 209.13882307 288.50643076 155.12911027 360.31975547 
372.43994677 353.13410961 322.78486211 337.54664705 294.02217824 301.1151993 317.99996188 271.20188441 255.91586366 
272.55423279 232.49029797 243.87551132 254.47295085 199.64058466 206.05436117 273.30359085 192.83469422 279.78110928 
122.55816453 37.79423709 137.25242702 -47.474195298 -149.92399354 -7.0172022275 -217.67525849 -276.17333864 -179.34660341 
-316.35755155 -334.94204003 -289.07651362 -332.92828119 -312.09062028 -318.73126508 -284.69262931 -248.91850432 -289.94107694 
-205.17854816 -139.81570138 -224.45152308 -76.050890319 -21.304425955 -90.824826006 31.516516229 96.996794342 1.6695450323 
191.83240248 242.75535521 140.64048485 88.365931246 190.48512189 287.7988947 313.13266365 262.73288145 342.13764339 
22.3928186 98.749057693 118.28917887 -104.72903031 -33.684677445 -16.893214234 -220.64594104 -163.49127282 -129.10332974 
-297.25533446 -266.64729702 -235.84644053 -317.5667085 -314.09599544 -295.25964732 -289.45685839 -312.51507971 -312.19572977 
-223.97910387 -263.14283391 -273.81023579 -128.54260532 -177.89370501 -198.56402207 6.3488565328 -60.132224809 -86.289729657 
119.23833394 56.499175349 16.660311583 252.02796863 211.17270981 162.36283426 131.05123499 197.87930452 296.41286515 
295.87153913 272.96330406 312.62627689 140.8999669 141.67709608 306.41780195 179.38416323 181.55685511 263.85496317 
179.40741316 219.73565397 290.82375345 221.168277 181.99645403 284.47312054 135.29702953 130.82171006 238.59605031 
294.44514991 -296.25690731 -290.33544542 -286.65318455 -298.89184805 -308.61203473 -274.15184442 -278.57420035 -286.02572513 
-272.50134902 -301.66062386 17.089447606 45.92683525 5.6744103696 9.0085496904 68.00511476 113.02678453 140.3441163 
201.54535089 84.375212842 112.80493926 175.99023008 70.803992821 -167.01417712 -223.89264919 -175.84389144 -109.29551586 
-162.54126636 -146.70793637 -209.92801767 -112.27516282 -76.115964434 -56.182125097 -35.938700213 19.143857007 -52.737378549 
2.5674971137 -202.29875296 -153.21083572 -209.58566905 -241.0172465 -196.61045275 -102.71836483 -85.537189835 -103.23973163 
-53.660617262 -144.37870879 -98.797812716 -198.54466436 -114.74997389 -115.34204998 -82.706766671 -145.66579057 -153.75964398 
-186.16259813 -178.86922779 -146.39138791 -186.85840131 -237.64547408 -108.41911136 -205.04698381 -296.93650223 -281.7029965 
-307.8957342 -299.89005678 -259.1349643 -233.79761644 -272.86291362 -283.05615185 -252.14912048 -304.15732989 -304.89029374 
-304.50905589 -260.14158348 -301.33549273 -263.32988313 -301.75311615 -323.50458359 -234.04760279 -234.83759191 -279.08591019 
-247.63919382 -195.27622138 -309.42287077 -305.63964485 -327.15305121 -227.38365472 269.8138535 236.29885795 273.20245766 
252.64956098 200.53851775 138.74126566 191.50101586 283.25883064 255.8476208 279.14458118 211.35271384 141.42263331 
227.30936705 256.91719994 229.11764165 249.7899509 246.45684616 180.74927372 184.84133045 149.04331889 248.09198433 
245.89796627 225.9722591 198.91435636 143.95796951 226.38616581 303.25143559 237.58971948 188.63138158 255.10925667 
208.12470637 216.62703527 157.86166613 112.05295291 65.725234233 19.431144495 101.0870555 104.06758354 92.409066128 
125.12456063 164.90132436 86.305583106 56.552536876 131.96149092 82.727776532 152.97199498 1.8881971603 -77.433618512 
-20.596874326 29.807913676 64.072032695 -268.24003636 -263.32528635 -279.51958183 -262.87320021 -287.37714681 -288.21744636 
-284.60070201 -304.65721141 -270.60772601 -255.10140545 -324.05609957 -301.72242735 -342.80875439 -269.21508762 -296.54436424 
-265.53453572 -278.67328275 -327.00114421 -310.38195162 -286.54528806 -272.14919492 -40.090966511 -23.422114743 -8.0803572034 
-57.291503485 80.355873497 73.674465513 31.004406917 -1.1222193554 32.106615105 65.947859629 76.763683639 28.138196217 
109.84308823 -8.7619227384 3.0887778937 -24.687706018 53.78960319 -19.733947797 121.73592148 -51.875449534 176.59612249 
206.42218288 135.42767391 214.87688576 159.05622943 79.233507522 94.728028198 272.39274522 284.8429191 257.66598584 
268.88864767 244.43049728 240.76794248 -142.46404013 -66.196635591 -160.56631855 -180.15530464 -102.07146854 -15.586942249 
-200.70540425 -139.89191767 -215.28339921 -228.74700044 -181.23328949 -118.38726135 -310.60786889 -289.27932989 -303.03417279 
-305.50084212 -285.70205973 -310.43907189 -268.52160382 -254.50537766 -256.94237864 -227.76917709 -186.68832551 -227.91946223 
-250.9455291 -212.0288563 -162.78951047 -250.6241973 -135.63840792 -27.891569265 -71.633103698 -44.811830161 -84.837061715 
-190.48804345 -228.60811264 -174.55020602 -191.81034018 -226.61389541 -209.92649671 -242.68190148 -207.1384435 -188.41342264 
-242.57864137 -141.69257516 -59.641865694 -129.93226408 -77.154025505 -137.83928599 154.75429197 314.9496153 948.09777903 
813.33246665 8104.0313594 739.85948969 139.54632633 3020.91636 9165.9839471 1508.3284049 386.75541245 2380.2211994 
6709.3581108 777.04360929 5580.0627064 407.01080356 497.89756017 4196.435024 1492.8755046 9744.5081447 7353.2077026 
7811.1700325 5273.1083374 215.04933288 6203.6599674 4357.4873399 3261.7815579 856.00582646 2601.9966172 5980.8704656 
1474.3763208 -438.35642929 409.13824575 177.92421058 5446.5676069 6492.7399803 2363.1393291 9335.1783328 1845.1553173 
53.847079349 -866.35873523 5556.3320975 1181.2556708 674.91087439 914.25904663 2188.3910677 8696.8213388 8951.9731174 
619.24790999 4143.668084 3313.6115116 2341.3484542 3213.7561286 7251.9137409 2077.9609935 365.67043562 709.15482023 
7258.3873053 4756.3810602 452.89865726 917.65490207 264.01092784 64.964922841 3046.1468713 2326.3398292 83.472830481 
-167.6752067 180.51163596 4988.8691116 4115.2364264 3458.0618983 9879.1645204 8882.4056649 -186.13761981 5338.5975652 
1712.6729146 894.94791913 1200.2781822 -1121.5428956 9648.4910738 9027.1943786 1351.271249 4991.6657457 6357.1623157 
800.00657087 1537.6242601 3484.976663 2106.0330278 1550.5148106 5098.2344652 1929.8787446 1867.2237443 5583.7399808 
6010.2369595 1940.5283167 4098.8821979 1991.6356587 -78.51838139 1120.9353684 2717.8835366 996.26687677 5694.2362178 
5888.1724726 917.09557054 2250.4916942 -4561.5166624 4292.5067734 515.81237718 1165.7252435 2317.2233139 3120.1593319 
5330.4152763 4725.0730382 6518.9138329 2440.4280097 6970.5847001 2303.4434456 2395.4865946 1971.9655688 416.6235994 
-884.44158187 1335.848296 2348.2362905 2335.3444418 1903.2988086 2240.4728615 2214.4361193 1931.5639335 -1329.7814517 
-77.331857047 2344.1712525 -203.87336798 -1197.1906608 -342.59584037 2594.6718479 2246.3889245 -684.06772225 -1009.8801871 
4711.3806669 3115.7351533 4629.6852104 3587.0699538 1036.9208792 3972.7674294 9574.6846948 4771.3450347 7360.7504859 
7647.7282158 8697.1450512 9383.851507 5413.7817301 6019.4179234 7236.2397944 4370.6472924 4845.6848746 5395.9629914 
3728.8967584 4021.0485594 4417.4482734 4045.8282821 3460.0943536 3777.1230672 2000.0177917 2729.9094119 3226.5865736 
1100.9285465 1584.3019894 394.92240819 1259.6441856 1994.5102796 508.48780572 879.90897107 21.489359522 43.538999162 
-1110.6873473 1544.9091769 1763.9797526 1391.3052947 3659.1400612 4199.7186751 1291.7159382 6180.9649478 2524.5936412 
6302.8601558 8541.2490743 7786.3707681 8565.1711772 9738.4283937 11978.341688 5019.5421194 5461.9140515 5206.0295746 
4451.5957531 3675.4126354 1428.5256557 4473.4509498 3192.1252749 759.86629047 5948.9653478 4657.1822069 2402.4970015 
1748.0516527 1959.7346143 2302.9480912 1313.293434 813.51458967 538.22899655 1838.8825508 1176.439588 275.9910343 
1265.9576853 -216.12797381 152.40306553 182.24287612 701.54238379 -503.19448853 4891.1864672 3729.6362768 5106.5814329 
4022.3765325 5107.2913827 5258.6198692 4891.1124079 5640.8471164 2551.2825764 6043.7347204 7385.7713974 3556.7997102 
6669.5986145 6995.8369389 4300.21237 7302.2155822 733.92075223 995.09647949 1055.2709627 479.38847042 784.53434911 
1140.7345911 982.11719274 1031.9350981 965.3780823 1639.708995 390.31465297 588.08658996 603.28391462 2764.628491 
1939.7071816 1092.9452131 1077.1029465 439.42240927 251.09450122 5019.7377539 2214.733394 2673.3642563 7510.8710162 
3478.0288076 4226.4854134 3385.3507875 3329.8562768 9093.7926548 8161.250682 6105.1650516 5037.0348049 4172.9843493 
5527.230494 5357.1144333 3685.7569994 3178.6612661 1000.0447986 1329.8094436 852.08525994 1053.7068782 1193.064599 
335.3565732 -717.44935987 809.43473182 732.88911927 1807.4155103 1483.1385924 1073.0742445 549.82206011 278.67445146 
503.04555759 509.23637574 1062.3282501 465.04767827 564.56689498 528.37708436 1207.7289095 887.3793164 888.70008985 
1792.4386284 4615.6360391 3176.4104546 2208.3785045 2162.9523114 4264.5394936 5166.7868175 2814.6929751 1755.5178356 
2445.2390709 1464.4595595 1720.738688 1012.6885719 9266.6669761 9836.4030815 7958.6615473 5682.4445437 6915.8252147 
6631.8659378 7180.9395864 9548.0034882 9824.0187949 9473.2146495 3323.8401884 3929.0847593 3839.8848226 8962.6331711 
-974.03591988 2005.1640952 1693.0716493 1829.8555471 -1824.3414859 663.92178536 -1128.022175 -994.63110374 -956.70612651 
1735.7517774 767.95629959 -692.13909509 -133.69568292 373.00265828 448.56730237 -1492.1135831 -1718.5885043 416.12885523 
471.55713403 491.81664596 -701.96996073 642.728595 582.46993727 3437.9197352 1529.1154601 3169.1720349 6520.3486293 
3778.6519731 6441.469228 3731.2284768 3391.8369402 1796.2048518 6048.0199247 2212.0460878 4161.2806154 4255.5695029 
2037.149133 1551.7690502 6077.9074398 8487.9742342 7799.6351749 7161.5311487 4196.6760466 1891.132644 -4846.9796458 
2620.8070429 4642.339877 3177.8530313 4077.8325984 8969.2685626 446.24001147 955.23363005 1253.848786 1098.4768732 
1003.8077932 874.8938432 1267.112083 1408.2066499 799.39775425 1338.6688664 1885.8529342 5604.3492311 6273.5185797 
5107.5609167 694.19128553 2572.9882763 2926.331944 4619.2513327 1906.0383598 3615.6834118 5196.6700888 3163.9254527 
425.57945612 543.15408613 1067.7828089 762.07391793 587.57729423 624.67891694 184.93469533 331.19196899 272.01755102 
464.48590318 1115.4696286 126.76108174 636.89818643 3546.5257408 2058.6556931 562.23520782 850.88191539 476.68335172 
414.19866226 1126.7653037 4199.6949937 -646.22142046 -157.07373965 2776.7450494 4042.1254476 2471.6083077 5651.8651616 
4681.7808128 1972.5029469 -1862.6947048 -1720.8892107 2720.330979 -2000.126355 4997.0442123 8699.8072884 10244.83563 
10166.324931 9587.3707932 6726.2277926 5975.2766439 5119.4012061 8318.3514708 10439.97026 7515.3556628 7959.2730364 
4731.139345 2259.2646563 3563.5503817 8080.9402852 5134.2677774 2618.4382551 5781.9576436 8182.7565506 3891.6070339 
5004.4573833 2923.023798 1455.2398315 983.68416279 4715.2074002 1965.5955277 550.901285 1655.5226847 1150.9783033 
1405.1249113 331.63412237 981.15116783 2290.3459596 4799.1707734 4037.5598434 4071.3874465 1708.9132616 4187.3337767 
3870.5773686 2837.8014377 3383.0685156 2977.4587982 1642.7765642 5086.1868267 2911.7158119 1527.6998747 2503.5221743 
3610.8306058 6703.2358503 1152.1587641 -3174.3463242 2086.0770646 -914.51635622 125.1585234 1264.7670974 -1031.3266746 
358.15164246 684.02318102 -3611.2229892 -275.59362131 960.57358597 316.37508168 211.99399329 -3405.2973406 -989.5587282 
-2682.8217904 1183.7379403 1271.3204255 -575.24679562 596.84752511 1958.5139174 -1680.9292988 -268.21389725 507.68755642 
-1837.8070525 -1697.0706823 968.82609699 173.56591494 324.38241721 201.3203889 2678.2562431 -456.02993565 -2554.8456837 
-2152.6705581 2409.469286 872.46079791 -1793.0470567 739.8600798 -3813.7123978 -933.22206065 799.26890507 542.93324857 
877.87808403 -126.09401218 -1830.6884873 300.88914872 -118.35856037 202.54492463 110.40516179 176.78451974 182.65404836 
-1518.8059458 302.03497829 -304.58211346 94.24875468 75.557928878 137.41709015 1701.0405428 383.46077804 812.62613561 
-2098.368945 -3539.9331742 -3037.9809309 -1825.0005296 -3049.3136616 -3970.6784032 810.33648948 684.15616574 -1536.7333583 
260.07309523 369.52518767 673.57124728 431.45675272 417.30639931 1567.7814252 648.29240267 268.77524876 319.34540034 
543.49095037 92.18312396 125.61959202 340.28607097 200.52001593 111.8447007 134.92246072 300.35506595 280.72240873 
516.56358549 178.09850588 284.77988019 634.05209734 236.91159288 234.96922263 -121.06633715 -647.89376487 -1215.2023045 
324.10541255 -1053.3423085 3271.4913656 325.73873396 132.74765924 578.40516228 452.61287504 2102.997156 -201.34101381 
27.798179945 727.63399156 169.87395829 -650.45413574 0.78878489378 -2225.5891848 -845.6919588 1468.8805237 -1367.0573759 
-113.08691337 872.33933529 -362.98271037 736.37754394 1204.3236136 -1186.9926955 1649.2170878 1803.98491 716.81219836 
-261.8197036 2474.681751 674.47592978 2149.2766658 2043.2981791 1180.5171825 -65.282914118 -88.965880166 -1860.8386631 
-1911.2273488 1121.0611415 -1093.412092 2090.6603792 853.46936962 1883.4237264 1409.0446243 -97.364774442 -3893.281724 
-3121.9011453 -3041.8370137 -4353.5836341 -4833.2504187 -3510.0812318 -2537.6537923 -3112.677659 -2356.5765464 -2675.0020955 
-2393.073255 -2631.9427473 -2067.1798731 1519.0280948 1022.9366346 1301.1804191 1626.8545346 912.31496767 872.32769791 
423.01319791 1368.5909195 2374.2810085 3190.9735103 1749.3024015 2251.8694357 3477.650426 -289.94260715 -797.13638332 
-638.28478463 140.85917679 203.7994847 -1241.1746429 -1669.2091565 -2462.9924118 -786.45740436 -1685.750799 -1731.9526044 
-811.7000935 -1328.8892873 186.37889737 481.47230749 428.11621965 249.53066351 -78.857411064 988.72618199 677.9659756 
-203.50593164 548.47042342 504.15148069 838.79076287 698.22097469 1240.9368852 -956.63887737 704.29543281 968.05568303 
1359.0372024 2172.6719913 2272.8759317 -1761.1256854 -1207.3865537 -1690.9581819 -1970.9587808 -1747.2938086 -933.45884392 
210.8579402 502.5531648 494.23874526 800.44605401 723.32097656 1428.2976872 -1288.2285405 2013.9670103 -860.16827395 
1745.1495295 858.31769293 1532.1071802 -2792.772062 -184.63050344 596.69207408 262.15766697 -214.28282682 1520.0714147 
-4563.1204877 2745.651269 -4325.8874737 3173.1767159 -545.11700012 -5983.8248643 -132.1784485 1854.1645517 -7282.9450951 
3571.7058137 -7950.6832617 864.91725074 2490.3882396 -9500.8300566 1625.7045263 5163.4949704 -2452.4783789 -2240.7848865 
-9386.515888 294.43702013 1676.1049282 -2487.4606927 -1130.0556817 791.72583838 1733.9902245 -1574.84684 -3157.1064908 
-465.31317041 -11417.992924 4785.5102996 -50.307717148 610.00177144 3081.7253946 -5113.8191496 -1816.8279729 2037.339971 
2844.9747229 -10529.847672 1526.4685987 3346.9436382 -5152.2911647 -4832.5079799 -10273.352341 2113.8967772 -10014.006179 
4785.670731 -10421.427532 -8741.8778433 -11895.189833 -12885.980567 2402.3386871 2106.7608239 2445.0611242 -13199.523138 
-11976.536922 -9673.0437659 4033.9440719 5604.5532866 6633.0820908 1800.2476776 1498.5153158 1865.6261921 1186.8752279 
637.17536865 1238.7457089 -11.941742725 -912.13030401 254.48949667 -1819.2106687 -3016.4108934 -1365.7550584 -4101.8343628 
-5869.9882995 -3532.7731362 -6312.4833477 -13012.900002 -12512.801364 -11571.467793 -12464.951801 -12423.084156 -9805.628277 
-12663.768742 -11579.621946 -10750.951415 -11449.153077 -12531.021916 -9866.8777763 -12365.336857 -12484.898766 -9653.2063907 
-11998.891803 2663.4523609 3319.483089 3501.0878823 1267.729746 2073.4085559 2245.5789957 -568.14484807 421.39361289 
780.60958346 -2914.0675202 -1570.3580323 -991.31076142 -5789.7743981 -4027.2556766 -3530.5691548 -7212.6404556 2443.3194173 
2439.0058121 2150.0230699 3131.8200443 2687.5873862 2185.9819262 7197.391246 5609.3977867 3533.8252624 5368.4124453 
7291.9243544 5121.0857058 2881.2741936 2615.2646305 4341.7045095 4323.0357339 1064.8529059 839.30277417 153.6973181 
-793.68859782 -586.43930529 1231.9196162 344.78332602 774.45113299 1664.9896717 -1964.3988574 -1350.2039782 -1636.5537085 
-2810.9853059 -78.841927829 -637.75017225 -2090.7964054 1985.3092201 1777.2130238 1647.5035594 1516.2697911 1696.2156866 
1119.5880417 727.27207636 1206.1959365 2165.4056915 1649.5602073 1876.4896999 1050.318951 456.43445625 -6800.4340454 
-8615.9653158 -5968.6545884 -5946.5856893 -4883.910989 -4851.724325 -6648.266618 -6386.1717933 -2123.2004238 -2865.3791584 
-3480.3671561 -3483.4975264 -3745.5923511 3207.4543278 2780.4582768 3171.2421081 3565.1882437 3612.0293231 1223.6061251 
1786.2153677 2182.1948332 2915.3696432 3688.9099146 3553.78935 2211.62217 2426.739452 -4587.5471901 -6190.9686048 
-5670.4905627 -9252.318729 -6897.2307216 -3027.6941316 -2157.134008 -3351.7422535 -5579.4794701 -3654.3881338 -6232.7845194 
-2584.7140683 -1509.9373878 2370.6948673 2859.19935 3858.5997689 3959.2692511 3253.0754415 2384.1425166 -526.00456361 
205.45189297 53.184775745 -1023.2593084 -1384.867495 -183.80067596 -8358.185521 -7236.8655603 -5471.5794604 -4518.277252 
-7251.9738344 -3908.5241345 334.43877268 772.67986055 -57.473111434 -1142.9564742 -948.52387061 -601.18946734 1975.3144075 
-8308.3228057 4033.9745161 -9070.8734438 669.29464847 322.06476795 42.345167648 898.80365861 1786.361145 -509.4782477 
70.176475223 -1247.0082718 769.13380449 -604.22055589 -1413.3760006 -86.567205719 4071.6924799 614.61560035 917.82442463 
-2478.2814867 -951.9859164 -80.624167716 -347.52743817 -39.810975722 286.00437915 913.35130775 176.5680904 2869.1774385 
2378.574297 1438.6316529 -502.41955734 6196.2970663 1775.7840907 -3285.4327187 735.94195644 418.95102078 -426.16724693 
-202.63081367 -353.39452718 -618.65086278 -2574.904617 189.63711002 -390.90734184 -300.90018991 794.24726381 2315.1442902 
-289.1692242 1070.1343488 4685.205665 -124.03604049 71.802688414 -20.125687891 -85.579747683 -33.186370555 1027.9526578 
-1072.3958603 27.307923772 267.52382738 688.18331487 -559.0072501 4843.5756193 205.58167913 -887.40845181 569.84668854 
1184.9966688 -941.72981893 -794.43320059 1164.1863342 28.905710862 -1731.5293661 -134.30110122 2704.900086 1433.6976081 
357.1716609 -908.98288575 715.73302988 -506.21973138 1723.1431376 567.70203253 61.34718779 1722.8323978 6.4025747039 
-303.61701537 121.19862619 1203.7471113 878.64623529 348.60207672 1488.6027834 966.75756081 -678.3229 -761.40209573 
4997.9740324 -4472.7242992 1152.1235718 -800.27602388 38.289594848 3902.5892732 -39.728386606 1771.6515247 -5456.1975325 
-837.54717804 1844.8105398 605.15565509 1709.3840088 27.246859375 1231.1072909 799.93090256 604.57763043 870.05487665 
-562.00400601 88.225113435 195.05960882 2924.1575071 103.55591118 -9.6744357583 -37.11106435 1721.2735461 -605.48307531 
919.59891833 -8241.8203019 -7558.2662009 -453.417407 1900.0184152 2186.4809245 1418.3324498 -752.62756909 -262.70293471 
28.15963728 -1437.5017777 -1432.559417 1209.2466146 -1400.0485068 33.78439261 -2148.6633246 -37.918174894 -416.99208712 
-434.85473129 -7.9325657772 -78.114355855 17.845650611 230.63036394 1275.9604676 1559.010604 1471.0531557 224.03435903 
813.72846984 714.21355704 -1150.2211294 -261.72585433 -300.56288884 -3157.4950652 -2024.0981557 -1707.0261203 -5823.498857 
-4134.1272871 -3512.4839211 -5824.7801331 217.72046539 -161.0569492 157.54280285 -49.285133525 712.42974004 -128.22797465 
1337.5339887 -427.44118949 -279.41152118 287.9211815 -374.07826444 -378.11164792 -409.84635193 -412.61186005 -423.8447543 
-110.94331175 124.9160922 -251.1361963 -116.99919227 107.52493193 98.368153706 32.92312122 -169.80108185 85.167785236 
455.49222299 803.89535244 74.03746776 15.032775282 587.40673013 277.61204464 338.63075838 434.62172901 557.62220398 
937.39207727 191.38288918 -389.67352915 -1180.655973 -1386.8946754 -4222.9019107 1223.3150965 272.53286605 230.93183253 
1197.2716912 558.51500118 1347.0705592 5318.300038 -96.64268915 -72.743798739 6061.3353002 7771.7416508 3537.5953528 
5606.3124604 6651.1171373 5695.5190002 4561.350032 5051.2551577 5240.6028272 3824.8549126 4056.8177101 4310.902525 
2952.9604747 3479.1756303 3622.987234 2769.5116794 2809.3347595 1725.9480574 2020.0029887 2315.3251376 1270.8985781 
1264.0839843 808.06281915 1211.9521689 1172.8841226 621.60646394 1130.7885699 2040.4558697 1734.323474 1750.1881643 
426.42607579 712.8473543 99.38971339 280.82719264 793.0551326 692.18436543 400.91740521 999.24625422 1350.6730825 
389.24677311 204.24239366 -405.78787092 -235.41245319 516.35130932 405.57275115 130.51129006 -498.04202458 254.1703942 
428.68626559 533.94905738 745.29348961 704.59703491 97.651537525 -378.72319034 -446.65013673 -844.19279839 -391.59898273 
-164.49225805 -645.59191001 -504.68704605 -830.69264597 -565.55668737 -554.44712593 -172.56331943 -1071.3668693 -243.00442434 
2645.302855 678.69310249 476.14091724 1095.3607575 34.070815364 -229.56488344 629.84662396 1787.232512 -491.39731916 
806.25490705 398.25507297 29.886522509 2064.3940859 1663.6726376 1802.2198579 2628.0790981 2258.5007812 1369.5721767 
1345.8018776 1540.1942006 1102.3321132 1819.5845105 1529.3660053 2425.3914385 -365.53999598 -239.35563643 -987.2504547 
-426.87998373 -444.34145675 -247.85954079 -515.83391974 -452.78039457 -589.30870335 -637.81986428 -494.97366231 -547.78330436 
-116.73157869 3585.8369116 2770.7591067 5751.8001759 2346.4882916 -188.6321366 217.71196675 -519.2432148 82.570513717 
-491.58577246 200.07169782 282.93074227 2570.4217637 2640.3607269 -2170.8348952 -574.06562747 -3021.635066 -4165.1495123 
-224.41513894 208.18422263 -422.9519429 -2205.4416626 -1180.6683728 -1723.2218 -551.85595937 110.02575996 1176.1000788 
1156.8687189 1356.6188379 982.49277357 731.57229778 682.56285249 738.93855437 485.223655 101.37081572 371.61419968 
404.94883008 356.8335046 27.750671408 -460.13979752 443.32303156 13.442641673 -397.39260476 -224.56730408 -1330.325849 
365.0261508 650.22326167 -128.51441086 -117.39210247 -639.85052519 -425.24860824 -407.51325051 -171.38161891 227.11796885 
519.00276222 -2549.4035227 -990.43659788 -759.06906437 -1245.8608232 -842.51062385 -387.54616185 -355.05575688 -1074.465699 
-792.786733 44.490987536 29.06434044 194.8513686 -332.75016136 231.15072664 -127.21876349 304.52329799 -432.90280212 
-327.34147431 -172.38725198 -79.24623179 2957.7168711 2292.69263 3314.128088 3361.6484287 2485.0491663 1473.9293055 
4287.3107793 4577.0744616 4600.1258776 3876.3632572 3424.5368934 1099.2933819 451.78312465 426.84671366 883.23170356 
297.2037972 581.92215424 -40.985074459 661.42998497 920.46501128 963.89482698 1140.1312865 1392.8533372 1044.8825811 
1066.78137 1341.5712256 875.28334661 867.83767189 964.91495454 980.30073517 840.04132269 883.99738283 731.24990459 
-1127.2353253 -2368.32104 -1367.2937192 -1210.844635 -1253.9266073 -1695.1475781 -572.03641344 -1688.3927744 -907.94311897 
-970.816033 -362.62626866 -460.55457438 -404.15293252 99.526693182 -425.01344179 428.45460929 292.25030721 847.33944568 
-499.54479439 -298.17239006 -513.0363942 -270.25704807 -166.06587656 218.47799171 -1720.5871514 -111.72654856 -364.95927478 
234.23750967 779.40255264 -198.05689306 1589.0875101 -213.02185804 -559.6605119 -299.30248666 -94.990079359 780.19184643 
1574.5109909 788.69973023 1941.4881799 1352.3703701 1327.6322552 1511.4813906 980.05174259 1441.7343821 928.7626567 
753.96123347 1045.077987 605.19834409 732.2413912 84.821158397 85.013201519 -236.34947582 -493.7525269 338.7338447 
2906.8737663 3433.9024071 2089.6422748 2440.7343735 3130.4345813 547.95157315 1627.4223982 1582.6546772 -71.507463578 
-304.73947281 557.54036674 -73.761753955 -994.49215133 1307.5897218 749.57909227 -645.28597633 683.7435048 295.81239204 
-1482.5079093 101.65221342 -1454.8715033 -285.17887744 3949.2254095 512.12372387 697.01675177 -1026.8891936 -926.58866068 
1370.1784167 -1034.3377134 169.94429526 494.91335027 586.49113721 64.015897023 1794.4996516 1232.1864337 1200.055653 
-441.67313687 6503.4368748 1611.3560462 -3347.7188167 103.65332046 366.25004578 241.2821784 -168.80910016 -609.41765801 
277.65332799 430.03370532 -2434.4843777 -686.49431563 -1781.5114143 2455.3530847 1868.8549576 185.96198177 451.71273157 
3926.9245731 -364.1130578 -345.79516382 2654.5808458 -114.37668934 -312.3545729 667.70720476 -418.09344424 -727.8985363 
88.791242258 24.271598565 -436.97124414 4568.022331 435.49354083 -1086.7189884 828.85415409 1218.0037776 -859.41834357 
-235.77101257 547.20522938 -270.14848465 300.72023135 121.41876615 2835.610983 4158.2444168 -969.98643029 -698.12240731 
168.11373902 659.99812805 1083.5190424 231.58672222 294.72175033 2312.7779763 -132.57119366 -923.80226514 1048.94093 
1285.6323176 -610.41269683 -91.935189911 668.21474225 1405.4264628 -453.98265014 27.931516777 4527.7640917 1673.4225174 
-4596.6932368 803.33440425 174.16495544 -211.27128029 3503.7883039 2379.8085797 -5661.1907454 -1085.8722943 1377.3145238 
380.83756426 162.38888252 -2.901866765 785.78676546 425.1927503 683.34431168 220.86552366 -1004.0755612 263.94442078 
651.864416 2891.0131784 15.944469077 -35.796168067 51.794832022 378.76474442 3576.6784799 -750.33694241 -7876.1703788 
-8460.23499 -763.8633301 1271.7537014 3349.2416559 3130.2252835 -297.65666697 626.97117258 -1101.8453706 -314.29671212 
-1450.5267929 -905.88090101 -15.863513935 1778.5946947 -1207.413959 -133.56051006 -962.41357745 -1030.2680394 -140.47241764 
-285.58679345 28.266935401 -107.99814098 1465.7623054 3341.3436094 -165.50299495 2928.3680073 7105.5716777 1077.4157555 
5428.4112627 7211.6105923 3180.0915349 7137.235151 7274.713369 3975.5897069 9424.7997176 8467.8612769 4448.7842368 
7054.8762445 6326.0933291 4983.378872 5963.5411018 4474.8546788 3985.9674703 4929.4336086 3752.5628094 3282.5090536 
2863.0445462 3131.6933834 1528.8382038 2854.021908 2727.0543013 1490.2770558 924.73855837 1531.2963104 582.33853366 
1172.594002 286.57673766 1390.8548059 1188.0809704 1326.6908381 1854.5834625 2662.2479121 2064.3004195 2203.1368505 
1426.1598422 664.29294858 1070.0131778 108.09961846 -894.54862453 -89.350141129 -1923.5247402 -3102.6290553 -1604.9554639 
-4094.964509 -5909.1915805 -3417.2090644 -5779.1348162 -147.25420025 186.71664889 38.961694374 1896.0635755 -348.13622005 
-828.789939 -566.71556075 -1158.9006883 -635.64846262 -306.42754694 -373.71327379 -278.81880804 -212.70133624 -403.89967107 
-614.91610688 147.59417643 -531.3714759 92.890557719 -164.66889858 -176.47840252 179.38064916 -72.746470005 101.44827564 
-108.30659489 -41.233211632 263.57400866 207.48708347 558.55867011 485.01176201 847.53152914 556.89815151 712.91653495 
303.1203965 498.80271055 109.81857501 -410.91596249 -1620.571705 -1117.0090446 -4453.2440873 294.69000239 302.06905655 
225.74977884 1034.0786319 510.5407898 -83.043180911 300.4192788 853.32431116 689.62617353 405.00556079 -538.86002981 
-676.06282259 -254.42933037 -103.25766378 61.71067028 -746.89884874 -180.97671056 109.11176366 -66.446772659 305.17135909 
191.74747285 352.27674509 -654.60298056 -582.57611095 -704.21453843 -880.84562134 -590.93630007 243.78803695 -359.15608317 
45.422066174 -495.90448753 -909.74426176 -531.8212831 -714.27771749 -612.4046436 -576.6722751 1271.0862438 1178.8596222 
1508.8235029 1824.7695825 2384.9938688 892.79189891 921.65733121 717.42462818 1029.4291156 952.76288169 1405.1448322 
2195.4078977 918.74989431 1238.0846471 1546.9200554 -444.90239028 -312.72759036 942.00818418 1359.7222866 523.74608109 
1160.1203512 600.90284603 -186.93812269 144.33736049 -232.94883643 -805.80839016 -42.148724571 -595.49357 -637.12540001 
-385.27996785 -166.92137594 -628.29217936 -547.76642335 -108.99729873 -183.0376818 79.714219296 -590.429506 2801.6795299 
2614.8991057 2473.5347726 5479.2552796 796.39419954 765.07361938 581.23774196 1119.3796115 826.83879004 626.24778141 
-411.40566217 2638.434881 3178.6493032 419.50399464 878.55760079 994.18172128 1624.9552524 71.433728996 142.90250054 
286.97349922 104.65748843 143.48342061 426.09815914 -159.50816464 6.2728559303 -248.67133793 -627.29637792 -2098.6145679 
-4053.6749273 -3137.8018834 -158.56140407 -599.95554843 235.59810406 -1732.1113302 -1336.3920921 -2144.5284329 -777.66998157 
153.0288107 103.08315749 -126.73425355 -246.46271692 -150.36066082 261.04460934 -1171.1564516 -389.01597799 204.09460378 
-153.15744349 -62.925599475 -33.610581387 53.201978227 -437.23258371 251.54354086 -1227.3496148 -705.14590137 -196.10053778 
-2027.4998523 -1654.3587584 -1252.5231944 -1369.4353375 -813.48484485 1155.045778 -181.15548672 -1124.5372952 -641.07399453 
228.9773216 -75.173272033 -230.09115049 1164.3232456 54.727749135 532.86128515 -65.952524692 -327.05297046 -70.098431197 
-30.506109188 3949.9903607 2964.2658389 2463.6561839 3413.9560007 1324.0079059 2118.6871534 4351.8684031 4081.8626408 
4837.5875416 3963.852438 3602.3689625 203.10586427 190.06964075 937.50618452 442.48088799 286.39042864 638.5662714 
713.1779607 67.436818898 1073.2324917 1075.7711503 257.50816174 916.13712311 822.43336272 890.40444011 258.53085247 
-53.749742268 450.01854334 167.62995314 889.04676259 450.88267536 -384.77269063 -112.47369997 -324.11975946 -597.69315855 
-876.96748302 -842.61719414 -755.14384731 -868.63462195 -266.63859586 -512.76822593 -1005.3988255 -1573.4666514 -588.9986338 
427.43383352 373.45631481 1490.9573322 1862.4344445 2526.2248273 2531.2198536 -807.34212546 -469.27808176 -909.26811339 
352.33804241 -738.63670056 -89.670605515 -199.94736401 286.72670538 250.24683385 488.06645977 1237.4601371 1081.7282289 
225.3324148 -193.74762081 -390.54743881 981.6730398 1166.450534 198.32577794 2414.6831222 1127.1512376 1444.5667732 
805.09575773 1222.8922452 939.88590706 627.38423687 469.92282843 545.47646056 327.52163621 328.33582251 851.48202487 
-152.35608882 200.37164041 -120.43728711 -177.40055146 537.77648815 3000.1154481 2456.2529521 2172.2431751 1636.1124709 
2921.4923956 315.93914573 1332.6227083 1358.7754572 1052.2030867 966.03479476 414.09370037 -58.202467952 567.54922927 
-35.392813957 -38.626088011 -441.91337599 1126.16923 -120.95339191 1420.802647 81.373613348 -81.289915035 496.22804801 
631.38139348 850.02988969 228.80352558 1044.3293165 1234.8160778 -313.78605393 37.043791765 1903.3945356 -4583.0674172 
919.3810169 1374.8936683 -16.426111631 -48.620257633 756.28061187 379.6860203 -526.786202 6903.5546182 -303.00646199 
-226.35443019 4588.5828025 1490.7863951 -6.8512938232 285.39205459 -175.27836482 3180.2690607 -39.008232918 623.8017818 
-327.92713134 1488.8808025 1884.2957255 4161.5604649 501.85497469 705.80888334 374.34519781 2738.337339 1942.767323 
1135.7065121 28.260913249 537.66975938 1048.8473341 661.87116805 4936.6793883 2783.4710686 994.26969821 904.79877468 
476.52929745 876.37765954 2778.4852259 1017.2106998 1337.0340765 1218.4145403 -124.50517802 2238.3547883 369.22596029 
4855.7997771 1392.5221733 1045.9012624 3293.4622015 966.63680826 4703.1529041 1685.5343216 2032.2514161 1677.8578376 
1803.099068 1618.6602333 736.2382026 1593.2032912 6000.5450583 5294.1716767 7791.8635524 9779.8145876 -2060.9733687 
4313.7453484 4646.4897477 -4472.1806929 4483.4532305 5004.0052524 5726.2452647 4732.3888067 5288.7358332 1281.0888321 
3949.2317873 4583.1077193 1600.7993481 3641.3853198 2218.4860865 2456.2147683 1150.2256816 1659.9582209 2032.2414215 
578.20982744 1061.8545854 314.01276789 1001.5684708 -352.36325555 -71.926795519 1173.2780306 593.94836515 -266.98353855 
833.09340675 1378.5996822 1634.3090657 842.51020749 1749.0207786 1425.4194206 135.06556741 427.07714061 1055.6283599 
611.80615993 -287.87565893 478.11515293 1484.0223313 3434.9170141 3713.4920722 5499.9661194 217.72104241 4769.3738522 
3389.9859664 1618.0181498 2809.3268124 2700.6378551 527.4564675 553.26947276 391.66675386 -586.5185446 781.50086423 
546.54167985 908.51645051 550.17104845 920.458399 336.3383183 118.96049852 -172.98387472 198.98700792 2010.4953266 
737.31560898 17.710654575 -177.14731989 -256.16739821 378.42114764 -435.36828361 -612.15395699 -2364.1488941 -317.72122126 
2785.3458009 -5109.3276656 8700.0804983 5257.916299 1279.3568849 8425.7133194 5746.1639201 -72.05775454 1210.5883666 
1190.9617963 1079.2049101 667.98815559 -118.08253915 927.89128207 88.7895545 176.58737396 1438.3737286 -1.5687211413 
-529.27833195 558.32184643 48.274252408 -1.701872516 3113.8578105 3506.1226961 -213.95632434 3369.2592453 -18.669005664 
897.23647341 1177.6616746 1074.3791812 5754.885655 1468.0064506 586.2058675 -4190.9631212 -1126.4245061 5027.4227097 
1412.0469931 -5335.5218996 104.79282489 137.89017568 471.15036432 6888.1302414 5514.6701753 8873.2656547 4649.7643841 
3965.2332705 -93.742575231 2347.0373686 3323.326615 2877.3206148 -302.45722104 3111.2628404 3014.1577292 3653.7187898 
1498.5414216 843.63810276 193.13245384 -84.032985029 4025.9146883 3168.5466141 -35.237387049 -143.01330265 -40.23839458 
-121.90347366 -21.213878545 460.27972966 -1807.6409973 1268.219496 2396.9322484 1310.3091406 1917.4867814 4197.7880958 
3916.2611664 1122.1259926 1366.0222492 2014.2764036 5065.0942558 3753.6736206 3217.9085203 4183.0309852 5221.2194242 
955.96807401 897.33209923 300.15401587 129.44423913 314.55708825 407.08506669 270.51112247 302.4396832 606.77011373 
1392.7408703 1920.2194078 5334.8300446 1845.8263914 2171.3740636 -82.923733104 3454.6154934 2462.3281264 2749.0411523 
-76.874383364 35.424738308 -115.19807126 166.26381885 266.82389769 -116.92333109 -130.91657148 -37.273078363 -197.02764667 
-168.87974974 559.12239945 831.42129119 548.14053834 841.50759484 1052.3342411 111.2542015 625.76028548 575.90327826 
3066.9612109 1855.1100782 2289.0043645 4112.0760522 3030.4402269 -2247.9830938 3844.0918331 -728.02500671 3803.6252581 
3428.8663076 1956.2463376 3750.4128559 4245.7476408 3485.697969 3766.0364785 2543.6348433 4924.0308285 1575.0079893 
5422.4806892 2240.0208574 1750.1251689 -185.34523878 2049.2098096 1306.9988775 4392.7011032 -122.48141864 2455.0699076 
2080.5799835 340.45725173 1524.8035556 2856.2021242 572.23586308 445.29826531 1266.8785465 5937.0913098 2324.056138 
4427.1874698 4469.4598871 1767.8690912 1051.4238292 3573.3930506 1242.2536743 1247.1297837 420.99503087 503.45490288 
2074.8117571 1278.595843 76.582792695 1020.4138856 -1419.5008845 -305.1809438 -488.0297609 1134.5643236 407.58002985 
973.04794015 1020.1566892 163.25579803 24.122496602 642.37818485 186.20889994 -148.26316584 -174.50964583 204.76713191 
393.24560102 -169.64442667 -685.64135263 129.12753161 -394.08011014 -106.32877843 -340.5685746 -332.75827458 -243.36733097 
224.92235053 -593.99197891 323.91169138 1009.7911783 907.10549678 1113.0525104 752.79787161 -346.35879209 -198.38580509 
1170.0835825 -957.67274728 886.74205123 1378.3732197 -164.94114241 -13.879542976 314.95691634 -285.18678004 -361.52787255 
222.0971524 -20.837925421 1013.7584264 1442.8891635 -329.37590135 -219.6048671 875.75108461 -820.45917654 -1556.3252848 
-614.24737547 420.19437979 489.8033088 2482.24415 80.838405607 -320.62133872 1267.8952582 -13.889193969 -653.50932032 
-829.58244331 -74.14906854 1271.7319127 1123.6801789 48.613386345 -16.679148256 -11.706913578 73.401505064 -653.1086842 
381.20366398 -20.993566708 517.20479033 202.56013974 -618.83938707 159.87041774 1136.6891978 -194.72307936 1090.8979252 
-1390.6467369 -72.888633673 -196.34656722 23.465784259 -175.00401723 -1518.4512478 385.63658348 -994.40965828 337.41301409 
-158.28586069 -285.97722959 -1132.477508 -184.07102036 -60.181321372 -181.97790949 809.31224927 2305.6493567 -182.27450494 
-19.443531214 -413.79860788 -203.40891694 -80.187071365 -159.94290462 772.95827228 174.43327874 -36.636060631 389.75299703 
-453.41915491 -471.18981799 -98.391797422 -105.97854158 -90.30730278 -10.44500731 -19.448522781 34.449270145 -5674.7136057 
-5531.3250468 711.24678152 -5016.5762418 -5316.3372484 1567.5312784 56.492765021 72.181211491 -191.01235471 31.354189418 
-10.996668322 -52.878025285 26.192633231 49.594967811 48.318023714 -40.644729903 -12.536373032 -110.2443451 13.632381827 
-41.448772527 -168.00393997 -46.177652473 -6393.4369798 -6285.0856497 2834.0200041 -6036.0003807 -6082.7881605 -41.161453024 
-6002.2962629 -6614.906427 1186.5016933 -5724.9378701 -5187.5153417 1217.7343049 -5956.0092134 -6293.7747093 -191.37220702 
3362.2213819 -844.1051091 -556.2290342 -376.20526167 262.49174944 -1006.9009489 -1200.7682533 -366.9042487 -1260.8803553 
-2820.3990381 225.94551182 -152.18105515 -378.3025843 369.59873105 100.53887099 606.10049123 -148.37014327 -76.667399612 
418.02944272 0.1240377296 -178.77433467 94.709663849 -27.137102342 39.052803824 -170.5986919 -206.62131298 -839.78773021 
-397.46854425 -348.35281902 -579.07150851 250.90550341 681.16161062 553.23055327 -391.67197126 646.74929586 1296.5813459 
194.89013605 2558.4230689 723.26689259 553.97701399 -178.1051042 -193.79996981 -486.97397038 -545.52543414 259.12737678 
-633.20401764 -370.68285818 277.65040418 -1412.2792145 435.6854724 268.35593521 1484.0170212 450.06869684 -692.18384627 
946.64625875 -589.80553751 -400.54073038 -546.20879933 -74.669390489 27.97021263 -285.10062512 41.393881011 -102.72792347 
-201.2204762 -529.66357458 -587.34421266 -637.08402978 -273.98396537 1.6399244442 -525.47926139 1038.8344245 943.2025491 
461.05056868 312.89418792 1274.0512593 206.83593545 1945.6902323 649.51530163 1177.1736728 618.59482395 461.7597977 
780.62988333 917.89300962 524.23048978 -746.07692842 -919.32814307 71.693612567 649.74759951 -304.10561849 362.09245819 
-200.10923954 -912.61329761 -2285.4612338 183.47615137 1140.4002212 1374.76173 1587.1115887 1409.1825047 963.84426815 
971.61723745 792.79282213 1031.3555833 2179.7508922 -1111.4824889 209.55579069 -1042.9349549 302.92462021 -438.29806565 
-632.42868672 747.27840461 -1085.1221126 -2375.4502625 -3726.601815 -2519.3528352 -2206.0846558 -777.37874093 35.427111557 
-1064.3792055 -1448.2173008 117.79205887 -597.16388708 -839.25943591 -258.98567041 -525.17195477 -474.49865569 -1124.8035569 
-787.70421934 -652.76307197 -930.81467476 -635.90744394 -296.26091318 -534.80268844 -207.41757071 -431.37437726 -143.92790534 
-702.10745659 -163.99074375 -135.71361092 -378.92957908 867.65534867 2137.6536278 1578.2246324 -1113.2569967 1217.5014261 
1887.6376981 1926.8967297 1975.8496232 366.72558007 657.2205822 684.73040429 -225.57016459 965.56005491 1156.1077013 
238.63734628 294.49131745 423.25164237 518.07520605 -189.82408914 -5.7203394374 -1239.3130622 333.03340671 665.12253257 
447.00317647 381.4029099 -289.85990051 1187.5338509 1483.4791482 385.71290244 286.30329775 420.29530807 1515.1934504 
1225.2403119 761.34436008 1620.1525447 1379.7972855 907.7227875 1079.8479865 1102.3269139 928.22452535 1980.246635 
398.35898978 406.29027791 1213.5119837 1107.1956641 681.98474082 873.94191718 1126.8893851 853.57179634 939.22125601 
1081.7607329 -95.489659745 -179.22509139 -133.65635215 -377.12074685 81.229827961 -85.450545649 -62.260072791 104.00656565 
-729.4630155 -1978.1594712 709.88167008 324.05405594 -361.702285 -195.34217535 -381.1944462 -279.49652603 -336.86750727 
-676.52856084 -121.85035327 -95.653739918 221.36420285 -2657.1046992 -2336.870336 -493.99777834 -470.1604175 -1227.2311981 
133.02454655 -648.07594568 -508.74192524 279.40492831 -384.65133734 332.42556702 245.69850667 -88.213462501 -83.630090772 
61.001435039 -172.38357532 48.461598163 327.09495347 258.37026644 -102.71952731 128.84796992 -118.24657851 -78.715430137 
390.78578142 34.554135693 -119.14792891 -281.29102307 -727.95787726 -1778.3869172 -37.288684116 -249.60006212 703.48920751 
-848.28584985 339.04564717 30.252745559 -170.45733474 -305.24468838 282.72047793 -5.0821578036 -192.26974928 132.84745835 
-1772.6551709 364.81458373 -899.41471855 -2834.2454154 -565.82641879 -238.7619481 -1274.997952 -226.06401674 -179.56956542 
254.60194898 -61.061385487 91.296155268 -628.79742121 -966.14202455 923.87869144 980.79504611 639.85718704 1424.3852546 
717.07030483 900.19975412 201.28676182 -604.04011178 -79.95993647 626.21255181 -858.26758546 -903.64769031 -223.47785252 
-1322.7817341 -922.76714497 43.218525553 172.38959036 -1248.0131085 621.02260293 398.46005153 728.0576364 2316.1009714 
2155.3361643 -28.165296719 1724.5216888 894.90899581 -1282.8187476 315.64441112 420.87182089 -196.43144141 -920.0876928 
-415.3874997 -48.755024991 -853.75580834 196.08716173 -644.18149071 402.26606357 -858.8880962 -490.30416406 -275.33301761 
-770.13853537 -169.79235135 -342.50727154 -377.8926101 -265.74855544 5.7767486439 -194.42827434 -502.2420748 -1097.3257167 
141.21162631 6.7288601224 -253.86456816 -88.553263366 81.673987327 1097.3846932 2055.8225563 1174.1615547 468.69132454 
413.36544037 911.44351376 363.09283536 923.86455552 2419.385953 512.10841034 205.71884897 1349.2328105 -158.08402695 
953.64512863 1536.7417112 2857.7452323 783.06187191 -46.809771293 264.18837811 677.32597392 1448.5371933 368.90778804 
1752.506585 195.28340351 825.28207127 6975.5595389 4794.2068605 796.3256159 1852.9786221 207.64729806 549.62807226 
1522.8272576 2475.749225 29.453226549 1102.1750146 627.0557805 318.72450964 988.73185245 737.8027171 398.21734262 
1178.7026587 100.32663463 172.35419154 2064.9616563 -649.63367114 94.024407017 2377.4323324 4098.9044038 694.79159708 
1990.3125056 641.18016246 1320.5670999 1253.7911151 758.63360746 190.96010747 1236.6956102 1738.2244099 808.28773966 
811.99971878 1145.4944882 434.01010771 1603.6192911 929.30521734 212.49824956 1363.5798872 1053.8663197 590.35771759 
1736.6281097 1092.8023976 2003.0888334 1036.7227784 1007.5035474 211.95068432 216.78714616 1656.9444404 608.13937009 
1608.3704951 399.12143061 1126.086671 576.56761595 1844.2577325 1944.5103977 710.60794105 465.10467 1698.7733042 
695.67011346 374.95302141 199.54952834 1360.6872282 -387.81064014 1528.7965875 160.06195857 284.11926889 260.40392465 
-154.66549458 339.32995816 654.66621813 -203.37624385 476.95503902 1308.3015133 -920.19471228 2147.623118 375.49573944 
306.85192714 377.17855423 302.31945417 353.84795016 405.13942597 431.40164306 1199.4539136 1168.067487 875.67705985 
1012.7691762 976.37751541 1276.5243063 572.42535671 995.56707134 408.1003535 765.55612458 1163.2226064 1401.8382477 
577.1185085 1260.7914599 1391.9356525 642.12523328 539.61245129 119.96943484 75.910902566 -137.69505229 419.77581135 
1859.7522849 2131.8495832 1667.8723783 1747.461002 1910.672329 2281.4414524 776.69435626 792.1993865 1094.2333925 
1057.074767 1048.6207454 763.8302094 1337.4019322 946.35338356 460.97892218 1003.8939771 621.76361491 1408.05497 
4966.378227 4020.8563848 3684.3738054 2195.6623818 2526.1819138 4507.0529705 3372.2794371 3289.1667514 3311.4373347 
5938.6101696 6062.5396048 5814.0040103 455.50129314 546.71746984 767.00721177 575.31552175 664.51998024 639.10438365 
726.89108357 741.56938182 674.04085555 535.02468631 536.23239589 575.26046851 1499.3180737 1955.6079565 2021.50279 
-1095.8498488 -1295.5902349 -899.80475394 -134.92980692 -733.63260558 1637.6896343 2411.0553888 3436.8729125 1819.072493 
2944.1664412 1966.6922255 109.29003673 473.49036561 723.6543913 -596.89722638 -283.40469982 -201.85597848 -513.32074553 
580.29352916 739.84398755 769.0158549 860.48415651 1046.7947827 813.17056265 -866.11448225 -1220.2167883 3751.8402982 
2393.2569823 2958.7869047 2490.0618027 1870.9552996 2079.3130744 1593.5504898 1261.7235265 1483.1964077 1970.3064333 
1470.6627638 1683.6322674 603.27809721 1001.937152 734.81047898 961.67793762 2172.653583 2073.5172515 1721.6909779 
211.08536813 -37.365734069 150.22188504 270.78406212 151.96401966 161.42304188 1197.2973405 873.48426706 1004.4656259 
632.29971964 489.88450755 470.68630021 32.824457199 210.55519617 -18.227496505 91.82525512 -120.20528233 465.24124497 
622.25056607 371.49650373 907.46192845 602.7241011 746.78563052 717.64037327 402.48335402 575.94684559 634.12759049 
360.11203706 377.12541885 255.15059289 305.64187075 315.52679947 234.79968717 305.47926106 194.04665319 2943.7844637 
4644.207067 2260.6273743 -539.54401605 -260.58230969 -17.199069247 -184.3792103 -63.542840419 -459.95141255 845.6587978 
679.95399336 486.10520416 396.97533776 299.65759766 441.69135053 1910.4791462 2917.4230058 1889.8055529 2208.0784563 
1534.3378231 227.9149174 794.18457424 122.62175815 1799.3973107 360.00123347 251.91837716 275.94884621 224.87793524 
489.70728925 1061.4890443 646.27239962 857.13224012 578.66443433 881.84750519 -273.64547638 -31.389791115 93.814025087 
303.93473739 400.58833435 420.17435564 512.85937899 528.45716967 519.13713383 696.56951455 580.93474461 558.03541677 
745.03713965 636.20706102 1479.2400701 625.56614617 870.08741096 730.48086056 833.7559849 431.36468866 554.48072672 
520.85999084 522.95181609 685.0085843 585.48227657 177.31096662 265.57280416 103.72616301 300.68997083 368.13359804 
420.63140886 415.17076936 310.40316302 545.09903321 312.75585875 205.1938871 301.90166564 236.23900314 228.57551035 
192.31550271 219.46020097 196.73068695 3965.9836755 2983.1855065 2391.7769323 87.30992129 191.3085388 471.53767915 
762.03042543 835.8441104 846.95651911 813.1701706 750.73130241 1828.7530053 1737.1126183 1591.9033922 1909.4022218 
1811.407341 2141.1203693 474.91928151 503.46904338 440.19779992 518.81818285 551.44406617 593.25622741 732.30863066 
769.05473624 856.81682403 4499.3741016 3273.0142077 9387.7936654 8348.6176191 4884.0240434 282.2001445 277.75895858 
356.7899391 2129.4203088 1916.8882071 1632.8558446 373.76822798 543.93917444 468.7720977 -21.665424248 -212.31327332 
261.86691452 1512.4694044 1416.5800438 1696.5541154 1934.6073745 1812.9384903 1680.9158332 256.41821532 238.24380189 
246.48114597 254.26700984 642.22161092 642.47998516 646.60955756 634.16762275 767.57413284 5980.2150397 4971.4445805 
6288.9423152 456.71241164 438.92751424 538.95831823 603.32992569 559.85645929 552.85069705 1680.2159316 1817.9207576 
2385.1937965 1986.4309826 1591.8663718 4675.7655491 5622.9236986 9430.0385689 7940.2250343 251.47247856 747.99910722 
825.28038726 562.53793402 255.36446285 226.51667158 732.56258509 945.41916928 624.8994402 561.85416466 1088.2113966 
1774.4043264 1192.7373726 1784.532846 2394.6627077 11707.143063 10329.251617 -1667.3213802 1062.778387 1429.6380961 
-408.73840402 -739.98263281 -378.2797976 842.8583469 645.26347872 819.42829069 729.1357993 525.94628776 547.09723183 
740.92708611 654.10852481 5744.1370523 68.186646922 -120.62121563 2809.7004134 269.41927321 767.42366924 604.42295804 
683.08724675 586.46616586 753.79698147 617.54107932 4428.0140782 3797.3593898 2522.1836439 2504.7705819 2975.1850667 
2979.2082237 2320.1217872 2136.6182081 2468.6161634 2667.7749086 247.22408498 197.10238494 222.58304834 222.84752065 
194.26827756 183.55224901 2507.2153022 3529.3255324 3851.8394593 1119.6283755 1790.3394835 1645.3523621 3569.59299 
1921.980039 2543.0992675 1621.8827661 824.99783066 847.66637316 455.65192235 665.39721784 534.91248687 570.43572556 
551.71584493 527.75224708 1880.9593665 1708.8910606 1686.7262664 1846.9807637 2009.0783099 2610.0636962 4471.9400473 
2408.6065286 2321.426365 3484.069563 1071.7666363 1230.0193827 644.12692756 799.76058943 1023.7904075 375.87723925 
-952.08755927 -367.44021364 328.13721003 298.32692833 264.24593054 242.92098048 4721.3198117 2980.5504062 1920.3363705 
1503.387214 2248.3063419 2928.3883551 1394.276552 1143.1633152 1548.7012954 -23.05201722 818.40775843 861.26391701 
-797.23121021 -503.87239579 -762.53446708 -546.86135672 -192.33749731 70.45994949 -213.75012953 921.05569664 961.53905642 
753.26909032 286.64168808 359.90660248 399.54992085 360.56619233 449.70156626 1392.3445079 1381.2519511 1484.3790402 
1642.1374814 1565.789743 780.25125781 487.05047998 814.62002591 647.24920972 986.96168129 385.46025272 313.3739595 
258.03410732 681.56528871 1107.6508073 1340.3415572 1779.458832 2503.0048198 2133.9338605 531.57712575 711.69544898 
585.94663185 555.34986843 745.29926681 668.35810946 2605.8253961 500.05004411 534.78590003 573.01371782 1912.0197261 
2017.3218817 74.504321763 302.23466452 304.88240862 588.69787005 795.45924943 482.62085496 -111.87089678 800.88727245 
747.12531017 633.52046129 1179.6133776 1020.0202849 1140.278514 1789.0459292 2907.4916953 1578.0331769 1048.3334077 
578.08577808 625.01943525 174.53573616 684.5218296 283.25059209 190.34694953 287.27349702 298.96042242 215.54531541 
648.81431786 534.25255399 778.71941049 282.96610635 631.22294135 773.64225469 565.15594192 612.75003419 817.24734656 
409.70597792 438.14082047 1739.3207847 1612.1649087 1708.8526349 1887.6110987 420.04228756 401.41237581 316.78694111 
352.22776073 326.64181448 1041.8810466 1090.905783 234.16047115 231.41914861 460.42990885 886.71048523 1212.4212736 
273.8970594 285.22725688 204.83840723 288.95457454 615.91443916 625.76139977 69.986471149 248.60947896 -8.7009427611 
-27.478343695 2428.2560077 2974.3435995 -1056.5931751 -1381.3012413 -1301.9810683 1654.4108672 278.92691228 303.91589813 
5014.2937926 549.20794088 1644.3388429 1184.1172705 208.06144799 4581.2493108 9832.0480878 3726.6606574 2860.5553138 
1645.379811 1571.4762178 581.43538317 603.27528521 807.67784089 597.97880607 -21.095631804 425.82296167 1609.9170902 
369.96198404 237.42557592 231.77029395 278.87311636 310.21555441 223.18957978 293.42878543 307.37559595 269.62078376 
1686.9377863 1555.8328884 1954.7579129 1906.6319759 1581.4741947 1135.9613244 1378.348229 276.88775771 242.34950735 
110.95171432 161.62858104 228.78168923 772.43009325 468.56633472 269.8358578 945.58146725 963.54589191 2578.3822203 
1369.4265745 860.17749082 1858.7719421 804.57751159 217.35380854 630.15044208 191.19999453 970.48147213 1084.9635679 
662.00976417 924.72596974 809.97037673 -2191.1810782 7827.5044757 215.59011792 222.68383974 209.35203775 268.53291584 
270.58518799 -208.77852125 476.50247665 517.9186062 200.65968748 199.9398459 1514.5356142 1580.5088116 665.76240525 
757.99290577 711.60286191 540.31882253 697.76884365 -478.68460003 130.26977343 6110.7265527 6566.7029441 923.58136081 
990.24309712 871.39106382 -2493.3623665 632.19772722 597.79497771 555.06820393 427.88180578 403.61744842 164.59360456 
298.11766362 281.25895856 532.89424984 2352.1367826 3284.3282408 1555.6246431 275.36508163 282.16869386 634.55584617 
636.01293428 2197.6529039 2570.69918 2069.2692629 1361.7594719 1153.5921741 1446.3079665 297.49744872 515.82096009 
-1189.1756037 -1409.000731 2188.4212034 2037.0448709 8302.0763066 -113.4265173 -334.23808678 -566.22201837 -590.10630467 
-336.93865706 2122.1106103 865.93270658 560.57011556 490.34609371 443.2167808 515.35134205 1493.2374484 1401.4506615 
5604.4510777 5593.6770075 7197.790855 10081.509794 547.05295252 482.43801314 604.08125811 694.78417467 231.32132645 
560.1168517 182.83657378 189.96446834 202.82383101 1752.1281008 4776.8928483 251.79228953 562.34595662 7914.95531 
1378.6388882 1628.9198864 1233.5666991 201.79719582 287.79788096 212.2709617 165.45483221 200.53175688 1025.3835404 
1261.6800512 1339.9613511 1049.6916877 767.61536133 370.00473257 497.84483955 536.3784235 1503.4756106 1461.8065462 
1598.5950782 81.94800802 181.85194615 366.3198839 396.07977469 514.7397849 -30.855737957 -174.82981443 -517.50460882 
1267.2258714 1357.4200957 1226.3841712 926.67572245 1022.757958 1046.6071941 2605.3059884 10310.685877 615.85061708 
705.08634794 554.13302881 637.17076262 764.09818903 938.83879451 980.77914783 728.30435701 694.14586536 2196.9840756 
2262.2493896 2168.3289071 1258.8759525 1035.1689042 742.8546077 1241.4939209 319.84744942 331.65622859 236.22327088 
568.92249237 536.30673889 744.56733655 856.8431234 356.36484352 423.92663852 1503.0136316 1365.9598201 1266.9532475 
256.7974736 455.40626751 1934.5377143 2735.7635064 2181.2814388 1504.4449611 1224.4880606 1686.4927907 957.77125324 
2010.8854053 2544.5670599 2549.0509754 2717.9578117 1116.6816066 1493.1091646 1744.560083 720.7486464 959.15442068 
1172.4979829 489.00989862 295.82410894 467.20242731 860.88796281 1318.3352978 654.37552037 765.21622111 954.98335084 
183.86389001 263.54868732 792.81831275 1790.0239936 1700.6393987 1457.4239248 1539.4892271 1450.5379108 562.18024007 
614.59288285 367.28755899 880.82467892 670.34427344 1716.0602837 2079.0567277 58.119867688 55.806157926 161.59585833 
152.19868533 173.06498317 220.19204695 181.62310099 299.69559149 289.90447579 866.57660358 1071.3209335 1133.6446009 
258.12985767 234.90702831 1278.14719 965.52232571 1087.6198698 1168.9975155 -464.88389449 -341.88241376 -665.37375778 
-102.81670899 -85.844912726 1118.2920868 145.44830902 -88.305182077 1947.1100422 1639.9144606 334.55568466 121.05050361 
-351.81188035 100.3759697 492.23157406 4915.2037789 1911.505164 1077.966261 1985.7788891 -201.40278713 79.398810858 
717.53519517 1003.6519401 1093.8409173 1412.435823 1648.376088 1368.763375 1420.5842859 1496.1758397 1286.5891818 
1885.1368928 1283.2017873 1176.3168079 2258.1030016 184.75840625 69.122323269 279.3784215 511.05783202 1062.3678981 
1598.9522044 257.71813938 264.89679319 -146.80219347 939.47038319 736.2769872 704.82740248 452.51156518 542.56057594 
1075.4366757 237.73757915 100.79177295 1846.2603089 652.68155014 1328.0830651 1403.2225405 1571.3687808 258.74977156 
1581.7481134 297.51145388 310.14239749 530.23449714 681.66290208 486.98351867 240.74458374 218.08340241 241.00651649 
256.19567497 261.92865151 211.76702906 201.68446427 -1313.0379264 -1116.2935154 -1205.6515223 582.99166226 954.26290275 
2976.0775953 2323.8993967 2247.8624859 499.80707886 623.61600662 2226.6519857 2488.9675975 2577.6793579 912.84254198 
1773.6756576 2204.3798874 2421.2542526 985.00659623 1126.7197423 1059.6160096 1207.9087749 1280.7128721 1365.920251 
3023.2998716 4180.2796294 2527.4153524 1921.6561234 3666.1149762 3664.0280937 925.97122981 869.59638101 472.99714442 
658.2563269 449.87759582 571.35157221 227.88459852 145.80106237 257.09080071 204.08332805 1635.7861999 1039.4703684 
1421.8002074 1342.2216229 1240.2627212 832.40894983 1055.5082305 1126.9085626 1103.7203677 1176.1631059 1249.9481098 
1134.6275461 1163.1725618 231.52450766 237.90263467 1204.0710699 1009.4636448 1150.086769 -687.08053724 -503.07223342 
1559.5159442 1423.7823497 1436.5318169 295.77839324 236.16608223 504.00130108 1038.9301877 842.3717051 259.52668401 
-1218.9965806 -1712.7321174 868.00545863 63.600485731 68.93952015 111.36817006 140.43752187 166.95326113 2500.2901603 
1960.2157448 865.90064751 234.61643921 -637.17884346 -298.80285946 4158.163012 316.47212771 287.15469807 279.30458075 
1580.508014 1843.4156385 1460.7676146 8051.6454924 1206.875983 -422.38117741 628.26812498 270.3790996 2394.8649604 
1862.5927195 2001.6589767 1720.5466984 1376.2759061 1468.3406342 1612.9514649 456.63783039 424.13595612 251.81994156 
505.59463909 486.99099052 580.11424275 -37.53754924 -25.8927065 1505.7848897 1843.4072503 1798.2649068 205.71433171 
209.69875585 1600.8384165 187.6575527 1442.4739832 213.11151651 252.20671212 206.22146391 2079.9755867 1738.0462632 
1676.9510775 1290.2921234 854.64052651 81.819628604 116.4616666 267.67145498 614.36251232 613.90724766 535.44979418 
715.9182395 311.36159717 299.03094815 215.47658153 708.76784052 930.32871073 -5392.7239937 -3237.6723116 234.91974603 
329.24932511 975.52975557 1855.332836 2047.6520512 1365.7739035 1152.3608896 622.03030426 535.13214523 1490.4464006 
365.87712943 459.98729629 1209.9596369 1156.7257028 1054.7933491 1227.0511547 1214.0999459 1203.6464229 869.63750135 
1319.5635339 1331.461847 647.14622904 -118.50555573 -469.09864052 1510.6061255 1390.2410885 691.58417909 913.49647312 
858.83519901 794.95761437 543.47321197 284.25844749 280.22570611 -589.29961272 -890.15349014 1155.9617721 1288.1406089 
3326.426557 -465.1210186 -1181.8748059 471.14008761 1294.1116139 724.09558567 4763.5131526 434.42152809 302.93662308 
243.88075012 315.93489709 262.23528261 308.685748 261.31223654 327.53521263 227.56245668 596.60539509 537.7966986 
1629.2307044 1989.8372321 546.09553378 254.57944022 435.44819616 635.71209149 -228.99188035 223.48624475 396.14120752 
439.15301374 473.88756378 509.36044531 1410.9422089 1102.3555921 1284.2926777 1480.6013534 1613.5565259 1580.6781392 
634.7950875 473.88877889 1064.8097661 1264.7350758 921.791745 254.35671197 327.18532903 222.05828753 1293.6269466 
223.08187381 284.2571108 1478.5500312 924.08989517 524.61871377 -1396.5423422 2330.0406824 1244.8696202 212.73784781 
1104.0259664 4947.0096195 3956.2011315 2104.1793381 623.70879084 537.28526022 258.60743884 289.65936989 235.32320529 
845.27767129 791.15600388 988.50584291 1797.0098867 1801.1313523 229.14352624 37.118298312 2329.5412044 -2637.6456233 
4516.1431813 -495.53110508 -977.35896651 -1547.9398602 -623.11131472 -1180.4243046 1339.4860379 705.97521053 625.73154019 
2057.3131571 1945.6023538 1675.0497882 661.83551585 35.08302858 1904.1750908 1026.3506413 296.40064565 254.8128217 
915.28655535 1204.8577574 1708.6465567 1726.3594414 1103.7124733 864.12519851 930.88812954 1766.3724849 1824.4444101 
720.91294576 803.93730853 200.40932444 40.479828129 182.91345526 78.10665763 209.52039404 454.80858327 405.48961893 
1155.6926909 260.19422185 -380.47267022 479.78138224 262.21631242 196.4391233 179.64460075 430.36944346 478.2457449 
459.5752613 525.85727797 433.93482978 1191.3479684 204.50362827 518.85013133 520.21505291 263.9312258 449.02542881 
350.71504821 367.6467871 359.34750872 1902.4068905 -359.54801353 580.70893848 1447.1482963 1413.3620647 -43.359706042 
217.86619496 195.10578436 1746.426197 643.97105407 1785.8991855 1300.6145423 1250.9656916 402.15463668 -250.77498432 
-533.8114159 362.09070973 2298.2160037 828.51655191 961.04416145 1583.2153895 564.66923516 559.04254973 1239.0208166 
916.19249151 636.69780518 -868.65307369 -1089.4180467 667.69225083 1877.559595 322.69043386 308.93664323 280.21639687 
1874.010096 244.66218353 281.0606483 1127.7903184 1832.9826773 715.3280055 633.02703603 379.44181719 -321.34162857 
733.56353735 677.01693566 -479.47415341 -692.93868605 752.26815964 634.96667106 888.2875298 3766.7092114 3361.7089739 
337.70010169 -263.91386515 1712.5480084 264.65919413 254.49424457 552.72291513 413.05201759 426.76103628 485.67907476 
513.46947857 958.23037597 910.4037802 -333.14112351 1681.048892 1751.1157739 -135.56378499 625.32116859 284.61208035 
243.29365471 -341.55302854 1440.3063782 259.35495676 273.80876055 607.74578756 812.33634215 2884.1329631 477.27477525 
545.34627159 1330.2549439 327.10228423 285.65206471 192.37441003 382.96421546 299.00416043 233.78191185 689.47037186 
1052.4070048 1033.1834581 389.09935183 -648.85556735 -266.72331748 -781.44143199 -901.86213221 -863.56266415 -1128.1625025 
605.11400839 914.06433444 -845.09226323 -599.15890404 591.02681866 439.52704644 1970.7485613 284.6771891 556.66751226 
109.48091189 84.948123683 -874.56003369 455.68874576 357.95927379 383.88501401 611.84685717 903.727499 -1581.6042467 
-1338.0340417 -835.93266326 -634.23307759 -1240.8695945 934.33733453 1297.6248005 1460.5339543 275.26653522 1125.3264893 
525.88466895 1901.7265169 272.02441881 1191.6526869 950.45058721 1180.1321569 1968.9952464 1516.0550209 1505.4871473 
1377.3166628 179.01672587 326.68178023 342.06860573 1603.4680442 315.04988357 486.25743871 470.03036198 -7.2147745301 
330.08976839 1375.5542205 1027.5864161 1070.9423568 410.42360282 195.30737853 502.71680531 1280.6852277 361.34121901 
530.52887068 330.06989659 2740.184214 -1379.6614754 268.70963615 287.74163873 357.22729656 383.89574684 1087.8065205 
1318.9502827 526.20047248 279.45004922 -146.74906165 -181.15739883 1334.1509067 1702.3221159 1600.3080042 1498.2469904 
784.21560159 487.79371594 343.20245918 1598.6456834 1784.828339 1684.0216698 1691.1494304 2668.833569 464.58185034 
-229.98019271 1452.9655668 1478.6690443 1498.3734013 635.98106639 -1450.6463331 658.32524263 -202.31863276 277.44547685 
288.23921857 1889.6622194 357.69225761 589.45514113 519.77343494 1238.3463158 3962.3907931 243.80695472 227.00605242 
499.26784681 -1285.8266378 -1005.7745785 421.18108278 494.26087909 -1581.7737698 -1478.4610482 -827.85468378 -1426.8857772 
-379.32709711 -367.03351175 -842.20463509 -989.95600689 267.97146647 254.05858334 186.02738319 227.68764725 257.43824376 
191.78516869 162.54832643 264.526815 250.0226556 225.68702875 -443.60175932 -725.17698839 -1593.0659112 -1254.8974963 
518.69392111 1442.1341958 206.20480618 2119.0456799 -26.639469534 -1394.8754368 645.81877582 1424.1200734 762.12395395 
2456.8984637 938.79887515 2623.2301583 257.32728674 314.09048972 906.43884597 4281.533298 1327.7894352 682.69121379 
1737.0331406 2523.3667331 690.19111581 111.05533802 1368.3857524 1117.1872839 813.88849084 4793.0782585 363.6064806 
555.22515115 1691.3279017 1713.7106454 2579.6064895 1521.1570199 2591.3544669 596.94933298 796.70027436 567.97876728 
791.38500158 4503.8410621 349.40098748 87.946782928 337.64292371 239.2351457 183.97722922 2373.2200751 1606.9457315 
1144.6095209 298.26156414 3889.3853157 949.58803461 315.64643104 210.61213562 1096.5463042 2128.1539036 2962.9468359 
1319.9474346 -681.48179944 85.066810675 757.20029392 457.91203969 2229.4177676 2396.5525275 1603.0971999 2597.0733441 
415.10474592 4104.3566786 450.06460093 540.24952374 3594.0554643 1569.916357 2123.7276476 1474.7567012 221.75631744 
797.00476202 600.67980181 228.57315863 1506.8794075 521.06957597 373.00230816 1253.2219871 1615.2303264 893.6240846 
193.05943959 1066.1342887 974.59554267 569.68766114 1145.0584241 2372.8070422 419.73800016 1106.9772231 561.6436408 
230.64287085 9695.0959995 232.38550288 2658.6067418 1481.9601553 298.44424762 244.13057803 2511.8366072 278.26597402 
683.45172931 598.58636946 803.68797278 278.03191593 927.06352985 1338.2376676 1091.2565352 1128.4437706 -878.57461423 
236.8844489 1716.2025172 185.40686114 2423.6381685 4021.4239038 513.11903464 338.5880198 719.00513399 304.65303903 
701.41322057 341.24574136 1071.6548757 736.49268808 5656.3913343 354.87381755 3451.9379702 619.41205852 1627.2315579 
171.79882248 1321.2827875 3398.7829203 1180.7453859 2369.8268024 1121.8229054 750.96920903 734.72760698 1607.1946573 
1346.9852848 292.22487354 1674.3650281 1923.1598133 984.74300447 324.94692672 5819.2267635 2265.5018604 3219.0377096 
3161.5772184 1183.5055842 1194.0212749 586.64251749 730.65688443 367.28369445 495.77506225 678.97692672 3752.0084619 
384.03167712 1873.9600308 2317.7825976 5647.8154089 253.57029403 1936.1671625 1491.4489559 194.57247327 1827.1980838 
408.72052949 4935.3634964 267.82980947 378.7855813 259.78731953 667.00003065 2203.9240779 316.12587493 273.84899211 
685.92013942 1669.2977199 140.30082889 1432.3049258 338.88640526 3789.7496234 3552.6419365 766.01379082 857.86502997 
690.69805909 1190.2512064 835.37288026 1097.5587971 535.81981172 2728.0036749 1890.2127439 397.1220966 590.38446501 
6891.438279 201.07051234 410.08548789 1309.4082021 2279.0626023 2409.8687806 990.5131307 987.59722905 2628.6327337 
1576.6637946 196.85913079 5154.4195439 1822.2293512 1082.5832774 2353.5733405 1341.5290266 1030.9395545 352.82739259 
3184.8678574 567.33620394 486.13863197 3991.9512127 2702.4212139 -242.0558368 603.45928683 8748.7727931 1313.9772549 
2655.76203 1659.7422744 482.21444874 2203.4215526 1964.6876953 439.92762339 792.5342878 145.53273581 1428.4247163 
209.66088519 2175.5209553 179.03162184 208.27247908 3207.0397198 1137.3578433 1411.2353906 168.31304591 2170.1134611 
3993.8127479 2277.7756796 2958.557691 306.83085739 1343.3062578 1769.8230375 367.6316665 5788.7987534 2018.5491298 
596.29414526 2035.3016071 1532.1480404 1783.6376132 2327.8889766 1828.4344068 1948.996121 606.86334109 694.37009872 
1011.4301973 629.83200613 708.91463374 308.78433182 4402.910957 3554.9178771 2914.488677 3457.9981735 2278.8532958 
3210.8106201 826.23459349 436.93746223 446.17435167 603.01153707 881.79773776 402.70111604 778.34080799 961.75377419 
1168.5456341 1731.012532 2233.6412801 2339.1063034 1797.9516456 2319.2545421 1779.0148143 395.32153133 431.28188622 
333.03719311 436.11768242 474.27195319 527.66662644 3071.2790452 4374.1806344 3540.486078 3962.8501477 3175.3996252 
2983.0016754 2500.447143 2767.1098276 3139.3489931 268.76905933 290.13263778 276.30845248 294.57467847 239.64011569 
403.89896877 373.52185536 324.28699676 1250.1031738 1374.4855112 1242.7458153 1467.7058158 1589.7837943 1607.7808629 
4824.0300495 4206.5796236 4343.3651971 3756.0832679 3214.5819276 3241.3873843 1400.8802348 1019.2763357 1004.3372332 
1188.2296838 832.07517351 1207.3951315 1314.0197558 1823.986264 1568.5786094 415.35330791 537.80417441 378.28067058 
410.40537843 282.16044452 2124.7680757 2095.6081451 1703.7643961 1598.6359821 1649.3004927 2097.9346147 1058.8991871 
1199.5830446 949.90758522 774.96855806 908.43244512 1026.2728101 1695.9178338 1456.0898475 1841.3116444 1053.0350111 
1131.4636145 1355.476359 1014.0361419 886.38103891 1424.2847256 355.34724048 4951.0525007 6613.9403333 3134.9820049 
4075.1734055 5096.8780259 936.78075466 845.56193407 1083.8877919 1257.5498526 1148.6630651 989.46906803 795.7528945 
958.38302977 1110.0851515 812.1548147 732.12390433 409.16523791 8886.9926149 5300.0500491 10891.326625 9073.3613182 
7114.9936606 2399.9599419 304.6738066 514.02641316 348.18010407 239.4211816 388.12388478 315.60249724 1834.6958236 
1839.9872778 2061.387509 282.12491679 335.0135652 283.34056446 1243.9773714 826.43428992 1167.6056802 1392.3166397 
975.32850525 1053.5059352 1720.2243739 2260.3065512 1934.4688563 570.74525766 498.81399082 674.6099041 539.54638384 
461.28168479 393.00632706 487.69050619 654.71279192 682.9350043 762.67540026 600.8175759 638.90673366 537.28812136 
593.14090229 680.13347081 821.44042264 5002.6583912 6000.3472397 4933.7499823 688.63418765 821.04003358 652.72189573 
916.4748788 832.68469018 1003.9343156 839.23787062 708.88500128 682.50663627 634.88540678 311.81115695 649.35758481 
328.81450613 752.10663446 1090.2765524 667.03364939 1586.9889473 1049.0720984 1728.0600784 388.24158062 154.68275989 
369.24056426 533.00213445 514.08344888 665.45012984 485.33625999 466.02378991 324.76791305 429.17241305 673.74295669 
713.74726204 513.28199527 262.56022736 1230.37777 1366.5637401 1441.9790737 430.12278535 564.4648721 530.2550599 
524.32385779 477.13788051 324.69444992 2899.8780732 4734.0460127 3857.6718781 1513.0792754 517.81554824 849.03432194 
1020.9492637 2493.6243318 2630.4293368 3009.6767452 3132.4012751 3603.027793 2925.3624047 524.70412427 74.133304224 
273.18395776 88.590208424 46.36214545 236.94424008 195.82118226 2350.9465166 2121.5928318 4299.6033951 3249.3579733 
4240.0166232 1007.6943073 2974.3687059 2440.6635562 2733.0215812 369.4763861 8618.075075 1480.9601287 2626.0547934 
2806.2992647 713.33933479 475.59827381 448.11486826 474.22902894 729.68400659 1373.4129532 1388.4220788 1146.0252242 
854.89222415 873.92487122 1028.4107164 743.71981058 582.26130514 707.81062861 298.80328909 207.37970193 120.05059561 
459.20568158 377.17267944 450.69964391 63.564095164 17.879891475 3254.0389108 1083.2140858 952.72037809 1208.4272936 
5456.7570578 3508.981891 6740.3321161 6983.0873276 4445.6877385 3269.2373327 354.85103977 368.48341171 358.56445356 
457.39634115 464.53630763 1501.22651 982.65760714 197.4094321 315.19025586 140.31848497 232.91919784 1675.0272544 
1587.7680043 1421.0501571 1377.268657 1294.9816539 531.87975121 98.410442541 134.77622867 430.90625743 2.0629405932 
572.86438123 555.64778565 140.95326825 596.43433663 571.65994267 625.49102804 594.16478211 923.16597512 151.4478201 
178.50947675 107.1495874 274.41016577 216.63075633 674.56021609 425.50751714 665.47638636 173.17434007 181.31158151 
140.71818262 215.8522632 1382.0435627 1766.6338792 1373.6849562 1714.6745408 2071.3984375 10557.907324 6407.3050422 
7496.9028123 1100.4294339 1455.855148 1075.3468876 1053.398083 1377.0180738 1407.0273467 2064.8461084 1926.6825318 
1978.5908642 848.87302735 773.80929089 930.73682573 242.26261673 918.7013673 1317.4845636 2658.1094443 2704.6992364 
2593.0498526 2142.2107702 2975.5404615 2717.9594897 2894.6545858 3239.5782554 2270.3379329 2086.9778476 2769.4423554 
496.52238717 590.44631701 101.50432108 188.52986677 313.3186179 8547.5476007 3481.6184026 6841.4055783 2578.4730053 
3109.8471753 4586.6554932 1679.1478826 1745.462384 1625.3926133 2027.2336942 1775.5134837 490.80064485 8986.8093284 
5286.1555405 7551.7547421 885.72858513 785.21670077 803.53007595 913.7622212 558.05744916 1002.7963229 939.72460617 
494.56429555 2372.746869 2322.4952597 2708.7934833 2392.6411065 2308.5344656 1942.5046135 2259.5168823 1509.666208 
2812.1342128 2539.0609222 1394.2839306 76.632666415 511.03587434 24.804119817 456.21498166 399.64467144 -91.605643339 
283.98099647 71.30952815 24.373667004 229.73940614 181.23915846 212.35857858 197.93040886 197.79199319 192.88743067 
200.7680987 98.62688579 361.60167085 -3.8646421429 90.811358591 359.01441009 451.18074406 4329.9355273 3359.590981 
3353.8179119 2748.2865112 489.66289892 582.02930291 769.3879375 419.82587129 603.73083776 390.05609113 293.58173103 
111.29555814 230.66985468 1967.053029 2541.4068124 1991.8158704 2544.4428809 1602.8890371 491.84852773 278.85514972 
367.65525587 496.43354905 286.73868045 363.96800424 3574.1810987 1125.2816866 2686.5081961 904.2114127 1793.5699688 
1838.5471585 680.11428199 2974.5802424 1920.5260871 1920.5142579 682.92560605 595.94923716 716.7740563 528.45736792 
2632.7121416 1975.8917739 260.51866005 219.62330594 270.90320851 10071.66811 10431.360114 5141.4834557 5138.4643692 
4810.8014177 1481.0724997 1646.4920778 1400.5985174 1405.7080723 1385.1612152 -49.05184174 173.39488022 212.62378515 
1539.6308634 1501.5046159 1760.2819677 7908.0831269 7515.8197566 762.71040158 2572.4178213 2268.2356595 2819.0275544 
2087.4302376 2002.9035281 2530.7359633 2690.2275063 1661.3193246 1713.5104884 1498.0209186 1589.3513656 1533.8725475 
25.452131297 35.388861577 290.9719657 52.729472621 2622.3155967 3171.9699937 2303.832571 859.39811025 980.36733783 
675.91728702 652.66075816 742.77827329 937.76215639 3151.4662361 819.92612363 611.12654491 522.38619062 752.38194332 
545.76736725 872.2454431 1863.3353895 1141.7370317 1090.8442911 1608.6704374 993.87877142 1618.349161 1927.0030763 
2114.2456558 2318.010743 528.57609933 460.10931199 390.73831322 385.06554542 553.71155042 562.61352136 293.94179219 
391.98167587 2966.6792148 3068.2673433 2883.6539744 744.09276288 630.60166132 934.85475529 -151.10701326 874.97725828 
1191.2603843 -35.296902836 363.19058309 21.748982468 418.98461862 128.52242349 163.7327366 456.7299454 2599.6317979 
1120.7842551 1043.5803852 266.90018579 291.08106384 1278.5201211 1821.6586887 1228.4071684 1794.9972 1560.9878796 
2389.2808933 2036.8579886 1302.8616391 1158.0792913 1299.4337909 1550.0448935 1562.9203957 1254.925421 1383.9482113 
4562.4130369 7619.6148861 4635.2951272 2211.0104456 2798.7349208 1289.6408271 1419.7022026 1530.270463 1716.0577956 
3317.9888779 3423.7658982 301.33786073 327.87635078 422.28981966 75.909189442 24.367007876 2354.9196213 2134.3106677 
996.20258239 -228.12184843 1082.8596469 2249.6536298 1889.910141 -210.35291049 -268.99749286 -68.494071773 -25.732804224 
-141.70094523 434.045012 514.52186635 249.90762341 23.920229259 6.7176469665 40.798528888 275.88644226 53.096775256 
2866.5000374 2854.4711263 3371.9120247 2123.4973517 2406.9675382 792.93097137 968.16318217 1313.1459399 1390.9154401 
-398.12453301 1515.0382072 1491.4141784 795.10784603 4281.094129 5569.6763115 3686.6353493 362.70769861 373.03595101 
321.13700966 260.16542429 547.73031304 637.8423508 831.40413475 607.05226998 607.29218541 973.36474261 815.41007885 
1371.8849725 1567.8784452 2026.833018 1747.5861467 1940.6846724 1286.6823051 630.33768104 263.51651576 298.03049156 
208.6121142 337.5137277 290.23831091 3561.4134561 3754.9633483 2733.0912639 2823.7042439 5771.1857215 648.98691332 
890.98088421 808.05679524 1049.7376153 704.40330726 589.24739856 621.74237394 713.11370959 277.14687987 806.10736975 
1478.4256879 1377.7966106 1171.3899302 1273.3487397 1251.624972 298.72828355 398.75049637 616.3147242 724.54021957 
433.4371848 223.98416078 877.79509216 723.61377027 1086.762609 2395.8152807 2113.5291762 2399.1123954 557.81904752 
220.95639003 1089.4586638 666.49491597 359.80458947 325.39435253 301.13505699 594.65088125 2937.1581141 2586.6914568 
3092.175085 878.84085612 916.10879087 758.87423251 653.69610284 592.0169393 623.81701887 857.69554812 769.98382125 
798.46400936 3726.7736727 3627.1554112 2864.9684087 3102.6180053 2497.7100893 1350.0351358 12923.695622 9243.227147 
698.94790158 878.27858139 6813.0284332 4086.0213296 3458.8156332 189.46919758 181.4314345 195.8087788 680.33311381 
623.47346137 372.60785482 389.0097756 522.02762445 2056.182433 2225.7017813 202.71803637 366.48195953 181.552937 
389.48177145 1324.3692878 1074.9992917 1195.0783845 1206.6364965 984.18314277 1092.2880624 267.90782049 346.7741934 
212.76307714 3160.1497122 128.89973001 327.38400936 75.255670183 52.428483139 277.40571807 -9.0118510026 130.14177066 
311.14265297 452.45508868 276.60273261 1562.5678005 1212.0228417 1880.0304474 2703.3485483 2550.8770728 1304.1072517 
1338.2957196 1591.5272806 1258.4918929 1141.579294 1038.2924306 1795.961576 2196.5484323 2354.7393023 2931.3172321 
2000.7617259 241.8990678 620.29252287 170.64290398 65.372979599 440.78435413 512.63602239 1090.6484772 1561.2183241 
9.5509895159 37.179130599 966.49761547 1080.1187598 1321.2009655 1391.9856359 1447.0795596 1811.9457649 2290.2848699 
1244.3384684 1622.001365 1886.5826643 446.54691895 344.64679175 758.5821703 646.99677777 4492.7599497 6320.0808437 
1088.7170272 1133.0268432 1057.0300505 1336.7427389 1019.968781 2552.3012027 2050.050669 2376.7580601 471.89605804 
788.61530059 345.30830944 1009.3549975 2712.7682522 4726.3810618 2831.0983873 3695.098715 -76.224478873 356.31118118 
244.76969563 789.82858412 719.10547546 627.54693703 929.376664 869.14629463 1037.1549412 1064.4926364 647.36199406 
915.03032082 1049.1373548 1168.1426567 985.8378581 812.75640749 1034.3579018 966.94926993 1440.7488304 1356.8203185 
722.55163688 692.40602216 1793.0250559 1834.253921 1037.842028 1054.9251122 1330.8051526 10169.441282 7043.2589893 
971.56310761 1074.7722078 1445.6637589 1079.7435814 586.5078876 -903.07260814 -690.16244445 1568.0116763 -282.34281602 
2308.6453493 403.10971037 519.76084908 527.11325494 610.29205902 711.1025407 519.83749169 772.78087779 89.055926891 
257.23977632 96.403125054 79.668564892 238.58857065 2531.5139003 3299.778814 883.85943718 320.10679126 301.45443704 
253.12292388 321.41698536 321.77406915 387.51498064 5568.3364958 6974.3914496 9249.8890261 350.39235838 732.77430988 
199.67366309 1399.9257078 971.55995984 1322.0045881 166.99421646 669.69556127 398.50273207 478.61924682 495.58571394 
418.80771947 613.37053086 550.34993133 211.74753709 702.415213 686.50468636 306.87805356 721.16640271 326.37100293 
5708.6581906 3854.1340881 679.44839078 571.52179091 842.55840419 470.32048416 413.16500571 2838.8186218 123.38790505 
169.25573221 206.10583132 187.14425031 130.91930319 223.66850303 293.87634407 1759.9207845 2214.690593 521.37168823 
606.86267684 682.47866425 678.53087247 178.78345966 105.64153683 382.68219548 34.729642451 456.06051446 5010.6674499 
990.15721952 937.52164766 1038.7203801 824.79519689 710.9184525 775.06035763 5403.2751811 7471.9522928 1457.2910199 
1221.1534744 4304.0105925 3861.9769932 497.508104 796.38567485 617.92925633 558.74268167 605.75585522 356.81912659 
227.69158768 553.92565694 574.20005539 1042.3240373 1177.3213436 1553.4054821 1298.5667356 1398.9513919 450.99248621 
896.29962838 1613.9825369 3019.8564013 1026.6491954 719.1257462 796.24714705 497.90516666 505.63981926 456.87025133 
400.26400092 442.7799126 582.94216578 744.23277505 2274.2437259 1451.3123988 1595.9548932 1284.1996845 996.91268242 
1295.1434884 134.80596009 212.11959206 2122.9738187 1746.4758978 6187.9249244 3260.7473843 5148.5722575 4641.6973805 
4304.5897325 8803.3478645 6733.9567306 8723.3857894 8451.1516546 5720.0839335 1091.3768639 919.82895276 45.440086763 
236.49759798 484.9728878 -110.91807021 200.36383574 495.34277181 463.08423603 983.52064077 2812.124658 3260.5212213 
1994.1342822 2080.016625 1983.8822638 454.86977269 1742.2027061 1567.216023 1921.7678445 2687.6266062 188.36969887 
185.86500883 216.51045851 209.73840856 196.97204075 185.93386719 2728.5938154 2112.7623408 2802.9356551 436.95364232 
599.87564554 627.3965363 365.07510203 957.84775677 1022.3302185 1054.2746501 1638.0421213 1676.9995154 1025.7738954 
590.10362522 2810.9727199 -276.05524959 186.68727587 1953.3470601 2578.8489589 2574.6598172 34.845803685 315.70353295 
47.804398582 297.81206953 905.33270803 1333.8463303 1137.0580745 2838.8729807 3335.7899232 2544.8971107 2636.1328075 
459.49845877 417.46395294 654.40134024 772.95187261 456.17403485 2770.9299888 527.85678314 557.0538406 897.176158 
925.40556952 2168.5243807 2545.0655962 2468.4371509 2707.2482283 952.90179654 106.86539325 77.873284475 2554.6188833 
2386.6877899 2030.4093284 2862.7646927 803.76500394 881.64301548 -556.02974158 -413.84387373 -1288.8119237 -1446.6518459 
-424.21918894 667.86055193 2782.9825653 285.5424144 359.65056554 238.82461151 683.28076419 1893.5064981 513.7752441 
1258.9094642 2732.2504055 1923.0475679 2276.3247438 3507.9831245 5681.9027291 606.94708871 991.71693624 -44.709933355 
321.21117441 1109.7599843 675.53432667 975.67489526 1314.7903565 998.27447298 1471.3517488 1205.8196845 1831.343457 
4663.2448884 7062.8230782 3955.1727229 6917.9357991 608.71257751 404.8953465 395.16907848 621.36158808 526.56231598 
452.24207599 302.42759963 1115.6235061 1494.8332785 -339.47483854 -57.13115113 138.48669266 501.54592647 522.75860822 
625.44145787 1028.2644809 1122.8450932 122.53567094 55.622709012 1977.3684979 2238.8469153 1840.240206 984.58122674 
733.4565428 710.19171835 931.35595084 431.77671747 646.04680689 -82.177271479 803.60028077 737.50301069 -23.907593429 
446.25456566 30.184535277 592.78365255 10983.522773 1390.8184385 1527.6097838 1957.5647388 1461.7463158 1429.7896701 
1155.1998756 1098.6259599 9726.4529742 9098.5890233 4680.9578608 976.84225326 1020.2239084 1104.5961313 2266.6192088 
1781.7624777 1714.8359559 996.34755997 2471.9715077 3075.2152997 2268.6196221 2486.4441729 2836.794246 2828.3269658 
1146.4466256 883.22597693 1001.9782129 1206.3247229 955.31568721 1061.7048026 502.9340426 538.60246626 2472.8241939 
1195.7661532 2788.4051411 405.26874926 367.28877959 570.20159294 485.40543955 527.455171 1435.3467674 1279.9101037 
1336.7612318 -4.5523112761 -71.256738624 620.06043306 663.98837301 -56.74883759 252.71363275 375.12158526 364.9378021 
529.01361273 389.97887378 322.35856568 85.807952054 665.49725721 1063.2812947 1488.053844 1252.939329 1472.0640733 
2292.2735776 2519.7253717 2427.8251412 1817.5217358 1949.1015867 1152.8056108 798.3196272 475.30837815 280.73028588 
1357.1223901 1318.9949454 157.38441956 3211.1150073 3004.0984774 1304.7988064 1087.1677279 743.42720208 899.87687644 
1248.876528 79.802060063 90.709352575 384.47728497 14.471216163 553.38879263 693.75860144 659.77697064 138.04581269 
-4.8288976267 -22.517512108 1142.4378337 1282.3109466 6331.8606841 5950.8166067 817.69694886 856.44226058 119.91938697 
-270.4376453 184.29105975 177.34462903 843.02676673 10273.530961 2572.2803539 385.99620168 320.76198334 488.74441048 
467.01414649 371.04638129 522.71216207 495.12780858 380.62825606 243.63265796 212.66166763 2307.8455946 2917.582142 
4523.1111622 1955.4298754 2420.9686102 499.41628001 922.48672222 1501.0571194 2570.8433225 2116.6105773 1661.5890301 
1435.3619847 1573.7982334 1328.9177916 1665.3250491 6.552092998 -60.633823195 -30.638536007 230.88101484 378.33510541 
213.18379024 208.26302598 4765.1294589 735.4703319 677.37677429 451.81797187 384.39353678 497.06717838 1872.396256 
3537.833435 309.4923762 275.11457124 560.03271931 604.72078911 9459.0586081 10126.475406 7511.8632892 1560.1172534 
1275.4072609 1110.0409199 773.24441609 765.02139337 1465.7778748 368.74385261 398.46449567 3.8871772713 -77.840511324 
1807.4760034 328.1285899 457.36335748 1600.3109604 1503.21075 1498.0410622 2713.8027646 2146.8024166 2357.9015335 
1514.2899105 2007.1316128 826.16022498 420.99825988 684.85535003 713.06288467 335.04485821 12254.116513 -2.71507921 
-0.22952616065 433.51220773 295.71512757 342.57294818 564.467319 394.26431654 575.69469904 54.300077619 264.69766144 
67.269369066 64.396336068 290.1780791 2436.7708793 3255.3051378 3272.7553597 989.49638887 272.83743184 275.68781567 
405.9491621 829.88761908 1276.5048732 1159.3422512 1041.5260516 1110.061161 -90.309501106 3479.4020345 2915.6583266 
997.42967865 867.11254574 1831.0312417 1847.9767021 2136.1024145 470.54016354 287.63362271 26.969316823 -68.957050817 
256.0739998 208.92339741 238.70479477 316.26924743 277.84447526 2944.2990423 602.05113241 389.56136018 1480.6891687 
1898.2591293 2877.1018711 2304.5241539 540.01498188 449.47786994 282.50132955 148.11066199 77.129205709 922.84380569 
3561.3880716 3622.5739574 4962.0082517 2060.3436879 1493.8656215 1711.8745572 1230.8620415 923.23408921 791.719019 
1739.0746543 1447.1193952 2245.1181713 2724.5486776 453.96707853 2985.6373332 3189.3618169 2779.3018613 310.88330371 
435.30324751 269.27833919 1120.1578636 948.51475082 1056.5585167 1076.8582233 1320.3628466 889.07128118 1168.8045281 
1162.7159155 320.00044036 2249.1384577 790.50309399 1017.1668514 2831.9873055 2476.7157417 9047.4445882 6170.3409634 
9787.9346316 6708.8988338 4315.3936485 119.19083284 611.8299371 354.21559688 251.88457102 78.734047073 343.15607674 
649.23952017 3404.0875089 -96.544324499 1752.6048657 9157.7121035 370.16025268 152.47716696 607.34726072 538.6446543 
444.53597288 559.8789903 361.43045666 2200.49392 2535.426701 792.37673646 379.87470553 505.65529304 240.68874616 
316.78979974 896.29042042 1754.5238401 2612.6123921 1940.5513195 2335.8770353 373.8623476 2313.5069489 287.68817733 
302.25043052 2166.9649079 3105.4896631 2692.1052933 66.487354319 98.426719924 139.98440344 103.95840439 188.32282666 
147.03194999 863.30591988 1057.6892211 143.53578962 -62.755504013 80.742458758 7966.9191624 895.75700546 272.69179573 
320.93861825 425.41729607 471.15310759 420.59059759 200.56222828 206.46948802 1381.7944281 1511.7582022 1679.7917442 
1648.6514688 1934.5894043 1738.4967897 2547.8625001 1202.106373 1041.9300511 1016.2773179 2478.0671338 754.72015419 
547.83294719 355.78968183 201.50537262 335.76143658 410.47679043 244.73272602 243.66442792 2023.6256801 2378.9808905 
2098.338381 1806.1403506 638.87365431 -446.27373559 395.26914275 2890.2998674 3660.8201694 2192.3761029 2159.1074534 
673.41936057 364.97241306 460.69267313 312.36446958 1301.4498002 253.91321895 338.30530472 4947.8073413 4455.4946554 
513.37754845 550.84575589 441.4243695 292.78043565 563.44370872 365.78053563 559.10522369 266.13688116 2625.0137342 
1771.5723754 2448.6768565 2506.4449007 2107.9430143 2730.7139425 2076.5429301 814.23044123 718.85384975 1255.3921286 
1006.5631707 1080.8462627 474.54444077 557.67615003 589.16062868 469.2495561 195.25667391 203.75569694 4417.0377139 
2937.7240291 3867.5405816 1082.5926032 -416.5499188 -409.83812615 126.91603338 1366.1874756 1279.6572324 1873.6826486 
3191.2979629 2088.8332801 2424.0245089 2025.372871 2669.2475326 3014.2903561 3266.168077 364.48073179 274.99890708 
482.75112784 1054.6389338 1434.047694 693.02757613 856.84362998 555.352352 349.96203748 173.16938959 211.30913893 
191.80477811 1893.3328746 240.34246396 514.13719134 267.613434 -324.9887677 484.84470779 709.74068975 516.67773182 
503.90636126 200.70639923 432.27543859 411.04320704 443.52909664 701.65703208 674.99211951 670.94232092 -95.591165036 
-26.350504326 609.76954291 624.36440332 631.45053795 535.59046256 2046.1908855 2311.2162568 263.72486065 416.36617647 
225.2560787 91.765540521 486.4607483 290.52090989 608.6647913 496.36638426 594.55717469 439.21390905 371.56057552 
418.37162161 461.76583368 419.84579494 3541.5926789 1595.8284143 1910.7119102 1840.932565 397.40430383 343.59195482 
-14.431720131 75.735829894 239.06822727 80.342880426 161.45743809 3467.4602567 4055.523331 4490.8729471 3004.8109331 
238.75079286 315.39082602 188.80539824 301.97015499 262.51722089 47.448540734 329.51056945 205.16248862 210.3806063 
33.07624242 -18.033012874 249.36576122 287.05443894 201.94790419 141.14537095 77.553053436 1195.6193369 1127.8198812 
517.0140186 574.84158676 1758.9156004 2053.4138821 6554.0980851 7736.3737888 2141.8295714 2200.9361429 1411.4249483 
1145.3068499 204.74730041 1272.0637952 1108.7031752 959.64998713 1214.4487421 1378.7017101 1051.907817 341.85512956 
264.56088022 351.94055757 321.23525906 171.37149076 181.48976948 269.92003645 7182.68445 1662.5429626 6.9719152041 
173.23694787 3297.9312603 2737.9540501 2862.9752922 956.868237 20.056032324 130.56307554 31.396014895 177.94858025 
534.75428843 531.01306107 177.78759968 1680.9948758 1595.1088551 5049.4299523 497.36669339 566.1351219 2112.0264398 
2311.0356431 1914.319366 1934.6806399 2716.2528145 2940.1171832 2334.3408654 196.69501681 49.489156089 926.12857576 
327.80070035 291.47729265 352.50165601 1976.73907 2092.7405543 1696.5436672 870.69806004 1232.6470548 1056.2171336 
2620.4713192 2138.7781899 2317.7106174 -63.892344497 -256.84304843 208.51847936 475.20725268 437.1442115 313.27755865 
528.62425861 818.02100122 1388.5140725 499.71277099 779.3515837 1269.8296142 370.09626871 92.159819522 4564.2445046 
6242.0253903 3184.93327 6102.1956102 5514.4277241 2700.9017647 40.043425746 37.771257733 110.17934239 1144.6533415 
-143.85024819 220.80986417 1038.3999039 717.46991757 997.9008508 165.20825064 -1106.3888794 943.76091586 687.84903725 
443.58991515 4672.0422122 2966.4366568 751.37020383 204.85091149 198.65289466 6727.9276344 4748.9791592 644.41995835 
256.53590022 250.61253096 287.6604293 235.87275426 2250.2759027 2428.7428332 2206.7841986 520.16910879 545.7318264 
496.09787993 3346.68621 7837.3050491 4263.6817424 196.49701602 569.42226764 212.56706018 550.94701597 378.32105546 
751.35138068 1407.8066732 4344.3093603 3206.9412506 5950.2740026 5508.5913929 5165.5145045 2042.2135543 2836.3893406 
2643.861287 3968.4668136 2322.5761171 2502.491505 2436.921748 2717.0201392 -481.52251172 87.012458828 1568.5101531 
4132.9796983 4113.8395467 979.36421143 1065.6477764 394.59048354 221.12621516 195.60531042 1468.2782654 222.77840579 
199.7465781 231.0890996 2459.9607816 2231.2276239 2336.6578904 1950.0629965 1753.3648683 -94.068016222 5146.1689136 
5539.1674901 1511.3337962 1033.037202 82.838533355 2440.4427176 2358.9247234 1895.3178205 2198.7411869 2515.5442144 
2349.7407378 2052.4133699 572.89355191 29.173644296 1786.5175401 -132.00558686 607.5010131 366.68962913 417.8001831 
266.16137044 921.18002202 996.50211926 569.14952101 674.2271454 1203.2310747 823.66339383 8313.3988264 6712.3981929 
7180.4392742 7738.5528284 6622.7758113 353.62411172 421.1709789 443.23987358 270.73348117 870.58116768 934.3768723 
2029.589674 1585.8409302 1742.042424 860.20399928 842.89431081 4.5204683343 2.1998800033 -0.37726090837 1436.8300772 
1026.9754761 782.23273159 766.3731149 746.80588587 413.55566663 1623.7091314 1405.5349053 1358.871506 1445.9119789 
1238.9443469 855.43054792 913.5786355 62.193299346 74.872309208 961.5540623 1009.705464 777.76203999 760.61095173 
2769.0015446 1243.2889872 402.42068744 527.64305703 487.4601326 354.11403375 5895.2086638 5655.2073897 3396.0066511 
3962.3838603 200.60787488 172.52185054 220.85504741 157.92477503 1514.8858652 896.80293077 679.05472718 955.41482889 
82.578987185 2080.3090272 1641.6190872 878.64740347 675.67685052 867.69510191 1393.2882697 1565.596191 5916.5605386 
7620.9338751 7368.8667602 9817.8805684 5596.9420245 491.21681969 785.56923752 1219.2330758 982.1985749 649.74463892 
275.02502514 1707.2126499 81.076861267 -7.0444322548 196.64908485 407.56109733 3036.2202151 3497.036145 3809.3662814 
1871.1955732 923.0863628 1214.4904706 313.56873654 528.99634935 554.15575951 842.1076201 424.14292398 286.64666731 
520.14650742 179.98932537 7341.718244 6327.9679054 69.510977178 3223.3005311 3618.3622228 3744.1440153 3549.7971029 
59.747319477 13.65755215 334.04711489 261.09722322 218.23085435 -60.479895535 1528.0986944 1651.4632926 281.91727528 
413.92871366 3309.7187144 1065.846225 1783.4746684 560.56042718 1166.7714813 -547.4216588 221.44040001 221.76880245 
199.86933476 2113.5203048 1612.5449656 2179.9300871 2469.2062196 1892.01227 1049.4042028 1266.8097998 239.68529265 
299.42558348 1047.2609463 1091.9264002 293.30372435 297.52137548 284.1356665 188.03610568 2553.7629918 2323.728598 
7634.8008702 7113.4696887 7880.8845467 369.30982724 817.70501531 261.09521785 344.75297391 349.1104996 3513.9408511 
4060.9732362 483.1204471 2663.6813939 2187.7514124 2906.7274463 2653.3432479 2671.8085806 2847.3686042 1999.483842 
284.62503052 295.05297391 209.7250731 222.63707346 251.74042095 331.08487639 1785.4597851 2196.162316 986.15146807 
872.7669766 3142.822571 2473.9055055 2039.0239587 1966.8403865 6183.8792527 3950.4641883 7042.1209349 6793.4807275 
11.64268778 7364.4235264 4817.55206 217.69675587 252.34941582 261.88686268 249.4315129 217.1768821 1528.9848199 
239.33893144 1289.9242497 3707.3033001 6473.5040085 5639.4014448 1797.8188831 440.34238637 1579.7313958 1314.680233 
1361.8191137 1898.3996796 1779.7589892 1540.7752848 2326.0196194 4050.4824539 3167.1965631 566.19665582 2964.2570592 
877.85725595 313.08856673 403.26748839 339.95967156 369.39935326 405.58928422 432.00396834 2415.6998409 2647.1840748 
3889.986722 3236.0579002 87.98348758 12.122243381 841.43699781 1144.0469946 391.83795406 758.23963923 364.81381509 
451.23065158 223.90147786 179.46668568 352.56405846 207.93282978 624.84919688 695.26290143 518.56386794 4222.0962262 
414.10983158 269.91622193 6703.4533391 292.62791881 -1752.8003537 238.39505496 93.724318829 259.66945355 1631.7720829 
1626.8190976 652.03444389 558.49613031 2056.0260994 1296.5464322 53.770810173 66.896906212 45.193272351 936.35345488 
1967.0216239 1664.3028126 1126.1724865 1384.4158671 1494.971615 1182.6736282 8031.2803859 3344.1934573 9559.0127055 
7753.6004304 9345.9654053 1487.0139655 285.17661937 311.207767 3716.974627 3734.0530122 6753.7106287 5900.1572647 
6358.9700823 1061.3085965 1282.2033352 1161.3623735 2012.7074289 2306.4935422 3205.0836095 944.09996829 1950.8181143 
1722.6414721 2035.6149055 1819.4737062 1770.3041511 713.79541563 611.31924195 1891.4264099 568.1019415 -73.428280676 
2043.2052261 2090.7250863 464.69005764 1709.5572595 1741.8344497 597.53108638 654.46676838 298.27154916 234.68259611 
4496.2044469 2799.8345431 954.00417139 862.98311832 2887.68099 65.564213127 663.25604884 8939.1041174 8632.0085394 
9997.326664 1130.2061084 1475.0496763 150.04148912 710.99016794 869.29715692 397.77253249 3115.2376316 259.93438161 
3220.517463 7129.5514646 2905.382678 2267.5149376 -10.52965965 2.8107697752 283.68500149 4203.6630244 8594.5761084 
9637.6610219 358.60470107 632.97164864 388.51383458 222.80479759 1252.0643576 1184.7865114 1154.8100748 2334.4569611 
1945.4967653 1386.004052 2381.3141652 1385.1607667 681.93606487 519.46069853 419.67728522 635.99454764 472.78798459 
750.20896863 499.79909846 -1049.5375618 1369.7325422 644.13801696 633.57897243 439.54514229 1754.5628663 710.78553294 
1017.4891898 7703.0712001 5680.9181412 5051.3856295 341.50573084 583.47551217 935.00714609 13.737916898 306.98256861 
44.04922489 23.935783852 290.66398116 1500.6813057 7146.8004745 1663.0284882 1468.5647824 1758.4114515 1550.2041913 
207.99976688 168.84251457 204.82122706 140.31867533 195.41776542 552.2675781 549.33956109 573.44940191 994.47384588 
813.72556252 1154.6494493 335.30496219 209.18438288 2253.7494999 3382.0953225 3889.4007077 3128.7046131 3650.2438675 
3465.8769559 2863.427951 2759.1414078 1537.3463269 2291.4479251 3307.5642502 2303.7420531 1846.6665739 355.73427829 
702.48334798 379.21611309 319.50124225 652.57389188 635.84681661 321.81659306 282.27493426 282.96848629 671.57808544 
330.90768674 1976.2304416 1634.3153867 1859.4681348 1793.6238999 2140.4627239 2369.1776582 1412.9196164 7176.7187751 
7160.48235 233.18112274 297.64227767 290.79308759 1781.9451952 242.47697776 1657.8207686 1364.6009094 1772.2795706 
1802.665643 1344.7526985 2637.6669132 2110.1532988 1052.6294038 354.98360159 653.73841624 296.97986015 244.33888235 
597.71683025 529.37827807 670.89172284 1363.3851623 1511.1235927 6318.1851695 6623.3166821 8466.272891 7373.5774206 
7571.6375245 3360.1390027 4050.2459647 2150.7061422 2545.6309796 1858.47355 2294.0142573 868.88661019 973.33088787 
767.56055407 7119.7655285 3018.6854057 2102.6992691 1694.9684884 943.01140742 2507.9877313 224.42873432 285.19529848 
157.13739844 47.322305637 44.020035531 448.93234149 241.27001626 325.74266506 1799.13394 1789.0155184 1393.4856234 
1374.8418553 1385.4007666 1727.6710736 1106.0522521 1062.5713633 2640.1212917 1932.2695914 477.55056207 7442.7928769 
2436.4531487 699.59580494 645.02276594 1502.9313069 1807.2681178 1906.0502245 1579.9643607 1024.416989 850.93436626 
3292.0814947 3085.3162435 2579.9326863 2929.9052746 2702.1638909 3522.8138222 2149.6812481 1986.7122491 1844.1981855 
2291.5617582 1895.8788984 1016.2005117 471.65734879 479.14299215 366.71968577 374.87289685 690.18246964 1264.3054931 
2298.4999355 353.08290305 344.8383659 337.22118973 283.72877328 374.82670313 466.00452641 4460.371185 2444.4562486 
156.37729577 1291.1359459 8086.6363667 2450.0081722 844.35266778 265.5758267 1975.7631899 928.17077384 37.834034467 
99.798882832 1481.7946535 67.007357022 17.723545631 710.96787563 214.70561697 2131.7650448 2683.1133397 22.745041827 
2061.8630315 844.02478856 267.28388515 211.07644333 277.04649943 332.92629077 236.44808685 887.53483513 76.74974956 
29.122009439 2714.3299447 1863.4432084 2011.0811045 1790.8316666 1252.4733917 251.37690496 192.49645598 203.07424166 
290.63248297 215.29467971 225.03902692 10298.606454 366.03250716 760.46957109 427.33292091 425.52878318 717.72566875 
2119.9582033 3310.5531679 958.29000712 4440.1028782 399.73802922 361.94885407 595.28157759 294.06328398 4.2871108192 
-69.765472407 238.15177197 4803.9192118 4454.7404494 4860.5781591 2372.2210615 -1783.3308098 -48.215006908 3241.9506799 
301.45230038 1565.2429851 1898.1176031 2.7661417418 3396.569151 719.04381554 832.82415036 55.598662814 456.36567681 
352.16634637 383.79149443 481.16866182 1046.1239588 762.95706821 944.62204137 153.64161076 139.20853399 2018.5426536 
918.82788674 1416.3723872 388.35513892 322.51267157 733.91465127 752.92164526 964.44731276 1027.8065014 1197.9818159 
877.14711787 1008.0253561 1181.5603878 1350.3736152 195.27697161 1393.5770666 844.96178594 1031.0560024 989.05777364 
1182.0767099 542.26522898 4052.1809023 4389.922112 1443.2444711 906.36379112 7843.8169623 4643.1075954 1098.0441217 
1434.6247268 1370.047674 2025.771778 545.29745866 1527.7584514 220.71652076 221.84772463 214.5372823 872.67587043 
4841.9034981 2349.1884152 15.504705428 239.38635486 180.75302839 186.53496385 2392.3888053 2837.8121836 2626.8222383 
182.95778089 580.75513103 355.78310319 143.27737393 1014.6837852 1371.0579886 1242.794916 324.00135861 1249.3985673 
1003.055946 554.3973624 567.74962527 -16.956090378 161.07882702 164.54675466 152.99499342 1722.4990837 1862.2247184 
31.055219644 33.58815802 2469.078623 1709.3594621 1706.3166496 2407.8410216 3000.4431662 2987.6711388 2561.8671821 
55.544761322 52.807176299 5630.7213652 4653.052668 295.87830458 327.56003749 3419.9936502 550.58672711 184.31019227 
749.30370658 986.78699328 1121.4945175 1190.0458517 -580.14089346 928.36139308 227.13036076 192.01601243 -167.42608656 
390.57136885 438.28367751 741.75761924 556.88120591 402.35122878 269.08655046 156.51620213 2615.7946327 428.07507202 
565.02134608 595.92032111 620.29932081 1301.7772569 260.90938271 639.54569332 2837.7990361 3645.6849858 229.70603845 
224.81752254 795.78674421 3853.7490865 3553.4850682 1917.7892827 2419.0093596 917.21944275 1229.5821156 9276.245343 
384.06242309 114.83515662 939.98712129 918.58565056 304.70554922 286.15732355 143.62073106 553.71472553 682.21750118 
-425.45810402 4386.4048451 6724.0478872 3236.1820419 137.57748814 121.85906245 295.41484322 364.55367387 173.07257726 
796.02596495 729.96982938 905.56486064 1680.850644 2092.9847433 2215.6838109 2135.0804563 1794.8129961 151.38607241 
56.953029039 845.24148365 -653.97149465 2.4981030673 432.54033891 617.53973981 437.48364023 616.34940571 1907.0138176 
1990.7155379 1668.4611301 1622.5856094 2398.0605915 354.26806014 5056.7594219 595.22683378 -54.352368636 8718.7523113 
230.19131546 1616.275826 729.52876537 1941.099487 -910.83415221 8084.0734261 4468.3131778 249.06026702 1045.6049072 
532.46278712 496.2394436 8140.8726422 385.74138892 2395.1882752 5577.4455363 44.476802975 501.07165143 383.11930301 
1798.6578018 798.48338969 308.08505896 -29.10000625 1084.9124745 989.83965977 1159.6127916 452.84536192 228.43957344 
4102.6608552 3031.6683579 849.88755887 720.32486687 572.05251445 589.41755871 603.30455109 436.77402972 389.66387913 
3077.0548959 3680.3767473 3211.1274297 3459.9154089 1062.41446 1021.416068 5074.6357914 5032.9388782 2064.3883698 
551.45274537 375.3304909 5345.3102515 3285.6193613 4230.500165 1961.1008916 2250.4427169 220.9860449 192.78610188 
1141.6556553 680.81362701 117.60683197 1622.9769585 2261.1692456 3247.0543297 509.57014977 551.70774756 431.27629156 
6770.099195 5180.439331 7512.9312846 7168.8753964 7838.8294277 8921.2382744 717.86876913 688.55799551 1351.8095662 
308.27536965 73.406984147 1244.6556188 1536.0604123 1401.0959656 4203.1246802 247.99379977 312.37785407 97.046119914 
3125.0118235 4087.268378 124.08487166 3133.4995477 424.63176695 622.80385521 625.7445453 675.99094324 599.76322886 
-6.0168312004 85.32328337 504.99457298 212.00927764 188.8009793 8806.4084476 6799.1962719 5337.8116342 1829.1559144 
979.12151475 1764.9090457 2646.3130506 2990.1723549 4915.2082224 2278.8130261 1278.9169898 4397.3228911 -77.592350391 
2935.8492897 1534.1363687 841.50570144 1166.0334454 1947.5594488 1424.6011373 2092.5047272 3997.9783747 1434.9678208 
1406.4882873 1057.7476179 4009.9443577 408.31909875 2931.7317318 1401.5326907 1211.3417851 3370.886609 210.07148612 
1104.1114005 648.57366576 524.3859158 1029.9360487 2548.5591207 4675.6315321 872.93836351 603.33284628 -286.87551473 
535.20616023 -169.23428032 1117.4302913 312.29166969 1240.6619902 1217.3953513 2543.4563987 2473.0020626 2591.5441629 
2291.0963153 176.87291153 877.51110553 1365.792582 2817.6013271 1979.6746889 1555.8052894 3414.766492 4522.9429046 
1481.5295683 6808.4194188 2066.50914 6553.0030954 8984.1665511 8694.6350157 7687.3236329 389.27437334 256.63188423 
262.37479718 376.35101251 6065.0076027 1493.5257485 2059.1655741 2377.8378916 1995.0811765 2362.2672625 320.3753183 
315.11855637 989.1263995 1305.844488 203.45166222 213.38669162 204.88683865 224.40998914 126.11266377 2786.1905618 
186.15948343 1681.0017414 1746.1496863 35.061664474 -14.330261356 992.92606262 936.74112528 1152.0105441 911.39468417 
3124.6331357 1430.2274772 933.82909683 817.56180401 1762.5650802 2182.6217807 1980.2196671 3262.2922942 3087.4929447 
1811.0178771 -13.440749002 11.719148481 613.51655547 740.98800545 511.10444162 374.64955292 4278.2918219 108.22505037 
1500.0354976 1939.3766682 1221.3486839 1027.3799271 2719.8924317 7635.908207 285.55847206 3446.683715 3772.8221563 
2930.977252 1751.810784 1303.1143876 3484.5829536 577.94386381 547.61660363 518.89477638 2016.9989214 899.60377368 
2005.6006257 2214.7370252 631.73705713 338.04466409 365.39610979 2499.08243 1677.1593916 779.65313998 2615.9447216 
2216.8374884 90.86777384 364.94588813 2938.5175857 3883.130938 4584.3324363 3089.3232345 3930.7845729 4067.993759 
3129.197146 1152.2079687 5030.3844757 226.83062784 2413.3125965 444.09393976 13.412640501 -392.29616739 374.81548834 
977.70637495 1133.5131623 3070.5057566 4439.8925943 3014.1849627 1545.7992085 1161.5287715 1305.1303887 3500.7123359 
2581.9590627 2453.5287789 4782.2745465 2026.5040304 990.9979438 401.15930598 247.23483249 366.44998122 261.18192829 
405.27789338 799.51548463 824.15762859 9089.7064831 641.50976063 2312.3939721 277.87927573 237.20135062 1480.8285784 
1884.3799994 -730.79182003 8778.797101 2980.0362941 1128.4199992 1484.1421886 1661.0976263 2189.0435479 3004.9236229 
23.100832753 -42.268474398 -53.305230494 217.47881601 2450.39076 2855.3590674 891.14689081 695.61918687 268.85337287 
894.34609726 1283.4669621 5915.0853129 7496.4088297 4477.4278093 6899.6163411 3748.3614321 7220.0713428 8381.6344396 
322.82134034 291.82084723 778.01455727 -102.402961 1389.4393789 210.39803239 231.5423796 -117.70003444 160.72548922 
3624.1622847 196.13546178 -94.442306664 85.737206934 1126.5320055 3826.8044076 2218.4842085 8038.061886 687.56199043 
724.78038214 1042.0284156 593.58547387 2562.9488449 336.78883561 1217.7664959 448.8758061 3227.4230096 1304.938067 
515.91758568 1158.7244768 383.74038686 296.03626799 3526.3318101 2799.534022 221.88497366 209.07813937 278.09662988 
2452.1502794 550.16128921 -66.905451823 -63.720504574 6933.9408087 -17.550890563 312.19260675 301.15855776 2485.9298384 
1772.2180371 -17.877584196 506.35153868 524.33727489 295.56459649 372.0486376 644.90281358 -552.18737957 503.86848021 
-973.68461519 543.56537308 483.0276332 -204.34822877 1853.2251287 -251.31081893 -544.41127082 -586.73973843 1591.3016478 
1009.4299239 -489.88327516 -752.65355456 821.31822061 -90.242594601 -1401.8646162 793.56163861 131.33640507 590.57768188 
-396.43999171 3341.2487375 673.5837126 4848.6999909 186.12776577 34.334324651 876.59060511 177.08918792 345.16584344 
-402.68256616 -2327.271509 -1011.7165009 1119.0019213 896.36857324 -1432.962601 -1419.7525691 -95.610231742 -510.84979961 
911.079828 1155.0090545 2169.4981145 45.169821656 609.57655015 196.34973071 -848.64004264 1288.8740818 -2443.5737307 
-2323.3843026 137.14703155 -643.5789783 -969.29912287 17.075279671 -1350.6893893 -198.04005205 -96.153444138 -1464.5863498 
468.65763148 30.674846678 51.742960056 2605.8235623 1935.3515378 3904.0597681 2412.2884395 -593.80299153 552.00932519 
1308.1576043 -11.640315319 -659.0107376 -76.097273778 -59.703906728 -249.857716 540.40601479 1590.3700961 223.75807916 
-478.48779015 88.401116691 678.11246643 63.530750616 -354.62460144 781.40129076 -380.05592979 145.32783916 936.40672667 
1981.0893634 927.74469282 2414.5951372 -253.08037288 -743.87336381 3542.176583 64.182412084 1542.5080525 -779.28196345 
-2479.4041188 -152.85155829 72.480901592 986.21711316 881.10029433 547.38523376 207.85170406 -125.62051226 -464.16508099 
633.26025889 227.89975542 227.85231303 743.04849248 2526.7077259 -560.52065043 612.91886109 -344.32680416 333.46837705 
-1158.294063 -65.587205426 -566.63690702 -692.26369756 310.03803862 -56.862574074 1001.2683901 59.419611896 -183.34824598 
-921.65270907 -444.99882761 -30.448510792 1595.0046015 330.7168669 -139.03469643 1040.201039 1095.8742274 1249.012176 
1370.9380217 4374.4019779 -908.11692665 912.75193181 -237.20437424 581.71916875 -49.157759741 537.0959181 982.76995686 
-1111.3057545 -693.20162281 -855.08841204 -783.22620849 1201.3644545 -109.71713681 -719.55228651 831.03048641 166.30612228 
-1253.5293532 -585.66083101 605.57202652 936.86033985 -682.11252993 -2266.8316047 324.81520003 474.7020379 4420.849728 
878.27300157 115.32280094 212.61693921 -726.25404982 2678.4944139 -260.76507096 -348.3714676 1096.4872982 -819.51930521 
1060.9639163 -380.76562785 172.71379134 -4283.5432146 -539.04466224 -822.22488867 -259.90686377 -765.58294319 243.13364584 
-140.37605126 730.92981302 -534.09564085 -734.42667457 164.03644392 -181.62967483 627.8625399 2313.340686 -338.9584828 
1323.1613867 -1057.7490813 789.34058045 -349.48379703 -1193.8622268 1566.7731259 -107.04856573 -464.31046396 -0.040805648771 
2837.7548982 -765.99574546 2109.7879911 1584.8273126 -2409.077367 -663.07214448 107.8015319 -6.4071886394 108.38022713 
-845.17709374 -471.17340258 2327.0520719 4672.4001983 847.40747913 573.30311221 -423.20214659 -168.70118496 152.17225959 
248.19296804 435.49159447 3848.9411381 -4286.769026 561.24403979 95.987458193 1685.5358468 -2775.1483841 -654.92862955 
-905.82580969 211.92602832 -541.64489883 71.402949331 306.46281569 5116.0377123 877.48826552 2424.4255602 -1597.1891714 
519.30831869 -988.52789632 2484.0208534 -2276.0461728 444.64538 578.39075189 513.65046873 220.68710431 -902.06869063 
642.62045184 -946.59920694 1.1026325127 -210.25684192 820.61072992 3686.0693585 1573.6978171 1692.5865532 1312.2634534 
920.16870228 936.20809861 973.36782578 63.439404933 534.90175825 750.31933651 -370.74234295 523.12290909 1124.1343462 
1896.096035 1680.2431107 1100.0834033 30.510814148 169.40466502 197.07727203 911.53550926 435.17821295 79.006185494 
438.27634483 594.22850964 802.94439845 646.67476044 697.53068023 512.79997073 124.18139843 -246.71138959 1309.6854196 
185.85975588 507.16609311 336.15375328 291.33799568 885.74757314 1214.7964655 291.83491677 107.91274463 1397.2383508 
1499.4154015 510.62999494 954.31746678 1021.0247865 1499.5709134 730.51298045 287.39079761 407.05940292 623.42548423 
551.40456656 308.06712262 237.75434689 163.83151972 597.54448696 185.30475976 850.31134931 291.64509575 472.56097066 
434.30733691 684.07015562 829.29638489 880.05831851 802.09232823 638.26295897 748.65976613 786.42711364 653.90291681 
155.30458139 118.79429102 -52.794492901 71.798611531 -30.657621687 77.862173276 53.214324452 537.96020152 -301.18549689 
-642.74690857 689.01992273 -597.93100649 878.22584535 1400.4784686 1085.3046883 811.84984977 956.24646466 1075.7013682 
2286.4910894 1264.2169256 1742.384775 1491.8574382 -1066.2357332 -393.02864353 -578.47853249 -1331.3054982 -840.08826029 
-898.98124315 240.46275875 -437.58272617 -884.20146645 -389.9610878 -9.7045984276 -651.01212345 1937.5027708 -382.81946257 
654.74687949 681.50405107 726.3561518 1511.2691761 216.75503733 -263.79524767 -207.06744113 358.10379877 66.867590972 
495.77552429 -280.07888811 -26.064505312 -326.00231161 -301.04658631 -150.15196027 -181.98664835 515.07987463 626.71531435 
1162.3290299 1922.8455758 1425.7682571 887.88363071 729.66219261 977.89764321 259.31303315 770.85890731 826.64823574 
820.10567725 1168.9167357 1009.1113528 -640.96273972 -435.46268521 -638.1164825 -799.00813025 -929.49895551 -849.74118588 
853.36744081 608.3130264 1211.5596545 -38.794334529 7.2480979412 109.91521134 401.73714747 652.95187647 390.85141777 
489.05491398 -533.88964495 -121.00987441 4.5451422951 135.03029631 -322.6128677 215.31531648 -44.059714766 -257.81649718 
2380.6202323 2302.788424 1011.9390394 1581.2002457 1348.3064209 1641.7899488 620.87022933 155.39098616 259.39946129 
-671.24434735 -481.85346861 -693.86128561 -182.76607871 -148.57210597 56.022265083 535.07888321 1175.6110035 921.64333069 
896.7600609 893.99748808 976.69251192 1158.3571441 406.44574936 1290.6258716 1564.5798951 4888.1160652 2385.4857791 
1578.8762127 196.0882637 1273.0460234 2114.0401147 3004.9323402 128.36480679 1145.0031667 -918.10522655 -953.57170996 
-345.20921438 -382.29366514 -558.79125362 -440.98113175 -539.6258435 -235.2932061 41.894571549 -546.25184929 2433.5678875 
2371.4037133 1790.9127782 284.59812987 -223.67523295 -349.34351032 -130.61718035 -445.66196138 282.27580556 3626.2459427 
4333.985383 3148.4225991 2328.0311403 3503.4934026 3255.4832104 -63.635329419 689.29647801 254.39549344 722.37848834 
371.48555814 454.79842428 196.99327972 546.0006706 1283.7587221 1992.0963397 520.2646747 1230.2324748 -201.51812782 
-358.08089291 -348.45276308 -462.71175707 -46.61250362 -1089.7934093 -574.37957327 -948.79577758 -1334.6309327 -2825.3814205 
-2885.2048285 -2241.7451571 762.39106158 517.10945483 973.3724972 249.05463283 350.36087975 539.03675468 693.46921052 
1215.2487078 -1379.6048806 8.4528336093 2277.2620333 1355.0490628 1307.9376224 1715.6943115 821.38762225 -0.69873550354 
-149.19993176 -56.707562734 -238.99428369 -415.75979976 -282.61228757 548.2979099 -374.77943271 -284.38986432 -276.89587777 
-116.15345778 413.06186065 -312.75872211 256.02999588 244.49679688 -39.714780434 -252.95186876 -435.28896911 641.65662787 
730.08617504 -737.01054399 -440.31838545 -852.75472378 -360.07438537 -435.86600931 -432.58901415 -814.18393907 -608.64895063 
-87.144192143 3116.0922416 3022.0177693 2496.0434423 1589.4183038 2826.2669568 412.81707402 801.6573948 249.0098321 
85.33100923 465.86219627 680.25581166 600.34067729 456.2343294 837.0400523 2021.2158291 810.574391 1004.4540203 
1871.4430226 1003.2889994 1537.3811605 -1044.9944706 -868.21932782 -691.81578836 -623.43518507 -94.067722176 63.315614973 
385.68197159 468.67687569 1595.5139917 -335.97795887 306.14123081 268.4994353 502.9317162 2477.0698261 2837.718929 
2795.0478659 3091.7543817 2595.3692733 1416.6762459 457.75879241 539.98795194 -439.37344384 1771.0909047 870.81330198 
374.22975484 -1347.4579863 -480.44840862 -906.66890207 -1335.0784926 -771.85461761 3068.2077458 4471.1108444 4843.1125949 
-1174.2516774 -2018.5289194 -958.91985601 -1323.1862324 -1860.6409878 -2594.5164938 -691.83006129 -638.93724779 473.57953702 
741.09907235 931.86632222 469.31386772 -83.885802827 176.22950008 222.64425226 156.80700895 344.05890654 819.81224941 
794.90044332 206.96272622 -1822.0648775 -3119.4072407 -3488.6951765 -790.07292722 -954.79791626 -563.24801899 84.620096537 
160.40728337 513.7621931 185.78783592 614.22389178 478.32576995 176.8989019 72.323818977 -332.65181348 -33.160275568 
205.46497753 155.80885014 -306.42447841 248.29292369 -30.858074813 367.99631574 655.0045963 333.08404351 213.44579576 
4679.4913014 4800.3323133 4684.507729 1254.5315136 3919.8166404 -2512.0856502 -3405.7861738 -3721.2174267 -3537.7009151 
-4938.1328721 -3715.0783701 444.60920358 70.08215018 -304.29065574 -470.73719031 -1101.6049519 -979.03176532 -425.16333089 
107.71445606 -574.5034072 547.52599869 -460.21184198 451.82398002 753.17373844 615.86862721 487.14766943 50.590436411 
451.59429424 -2555.4934378 -1038.9620567 -3420.6042081 -675.93708302 -902.04630414 111.98716814 959.44299775 348.91402029 
743.54510282 1377.5654105 2226.7279354 621.70281396 2440.4397192 1646.746892 1047.9638555 2741.8344929 2139.5706977 
2059.8792128 1712.8953815 70.033652066 3959.9037039 4481.1617893 1823.3126622 -74.846463859 2506.183678 1911.2444252 
1101.3616221 13.089692337 -139.65515818 210.63007165 -166.80064595 208.8710867 2672.7076245 2214.1641631 432.80746923 
-603.05613839 -548.81343838 -114.4635926 -1387.3820371 26.515583517 926.58510744 1027.8486447 880.42819139 964.92543523 
1167.8408037 4081.7999848 4081.3097717 2609.0734254 3452.7328794 2369.9597618 -2155.4001864 -1068.1148608 -1334.6876278 
-110.19086982 361.92232075 -964.45419588 381.60493772 -1685.9084481 404.16825415 249.09848559 475.77264369 6154.8941827 
3123.9023187 5503.0575692 7681.1021008 2917.7786154 3555.5955271 -5049.0980942 -4422.2825316 -5015.9883394 -835.84835186 
-5409.8239092 -5085.9252886 -4726.5573653 -5081.2038806 -5281.8415989 -931.76219456 366.11276573 105.1186307 94.774190954 
-57.197141803 -126.7555734 -5479.5657345 -6521.9175143 -2933.0294923 440.11554833 1439.6738348 447.00871603 637.79857268 
-186.07772498 -857.21521326 405.41358844 864.3805084 875.88104582 696.30322104 628.46848164 477.84606111 545.19507772 
487.68730711 509.73409641 -6358.0624239 -5522.0470656 -2767.1479302 231.31647705 3.184136249 -146.81648595 1101.9152184 
80.452826261 -1015.6833122 575.1716517 27.893766694 -320.18614463 -176.67753258 -285.02516077 -258.94153326 -585.18719702 
-266.86643666 160.10234162 918.89507551 329.0969729 497.22015686 -431.02323856 48.841969994 -202.469454 1513.932639 
1285.0177872 316.25314486 405.35594791 834.10222744 265.43417261 894.84023324 1180.2398112 -15.543248642 191.77456506 
-562.96667663 -489.52874694 -850.72453922 -913.37660811 1502.1308299 769.24501955 1087.4615518 1016.9433789 12.701467846 
-141.05139149 -339.39844768 174.32023466 33.955079074 1110.0585402 1029.8810202 966.88650549 870.55153604 745.95932339 
895.18996532 1060.7133741 1708.3343154 1728.0073034 -22.205570141 -593.73959443 1.309391817 -368.87337856 -430.48448673 
122.38148286 6.7118743128 -251.77540799 -168.75022242 -23.162487779 -578.82166257 -598.6584509 -623.90273179 214.93861672 
444.94904996 857.32568222 1032.0246643 661.11995241 976.50195501 193.49552564 663.52690026 1059.5945605 141.73408762 
-6.8107127559 -47.535311697 2461.4087021 1876.0884865 1894.655488 -126.97670364 613.35720647 249.41704647 -84.18262218 
114.96008804 -293.94038297 520.94116627 1210.659959 1231.3266767 -492.68170256 -422.4091524 897.11724578 -65.307694963 
544.34418928 241.32947929 676.47974409 687.94427186 -327.57123467 415.99443468 -38.01635929 2441.5098054 4629.0326823 
3275.8254117 2880.3595328 605.16053223 -21.53823875 169.93509793 2031.7291477 -569.99910756 -1151.4956864 2216.9483504 
310.87560064 -199.42039814 140.20681404 2022.862647 442.43286831 1694.9482744 243.20098316 73.709708818 722.51979729 
237.86015609 1521.5344938 1163.5878098 1213.9256538 2203.0456955 1358.8416542 -187.33267476 428.74369661 -254.03219173 
-964.73890768 790.62424539 1203.6724043 1477.4037329 2887.0752784 1923.4735759 -423.94614857 -390.3323591 410.45813497 
85.395819654 -749.64310434 -265.42807638 -304.98450221 -707.60682743 427.23291558 -479.3182385 -645.90651421 -511.5244827 
-1667.0085872 -190.88001314 -199.24191741 -453.39609404 1636.1245775 -191.92784591 55.765393169 -187.41279088 85.343766153 
1219.666308 37.78676221 329.40246836 -678.36261302 1523.4650983 227.64725784 1866.8951226 1785.9301455 1214.150072 
1294.9918652 1527.3971499 1172.465323 -341.78111588 -190.32852404 -478.96776442 -152.59752086 46.159167528 -863.42455246 
574.37692769 984.35504582 827.30299033 1520.5085146 1768.0830822 42.16967516 -52.415211517 -984.66393191 -1280.3009498 
-859.14515016 257.11317638 355.66581774 354.96184581 776.41244034 -1837.4669509 -501.43913848 -741.77218704 -346.52555547 
-427.41930249 -103.29229917 -351.9478536 262.61966496 -1655.1813886 -892.05385133 -1428.1238791 -2516.1896507 964.34804678 
318.23030875 1008.4940952 936.40541805 735.39015907 562.87255599 2308.6208069 -830.03527028 -1252.6379891 -646.63775598 
-1435.6310363 -1469.8279627 -322.96042877 -353.29461845 -673.73573904 -628.98040885 -1112.6420903 374.60399237 -591.39950686 
3625.7157481 205.59548408 170.14827187 -231.38039587 -806.91531716 573.07418692 228.63009796 -154.41180779 517.00656703 
198.13247296 -1400.7242433 527.47763307 887.37329729 966.74007856 596.63961043 2593.3234571 3412.6126883 3029.2172937 
-446.05522492 -685.88631092 2744.6358633 2280.1722738 4859.6937771 4597.0084404 3752.6956922 2340.5772165 243.86605894 
308.64223533 -1690.0987306 -1490.8866394 -809.03826355 -638.70836012 -165.59118151 -1216.453028 -1993.1820086 -2311.0478273 
-1091.996279 358.11811928 1621.8420555 1117.0297595 1084.3002176 -539.35249585 240.29377125 -1769.0535206 89.523594425 
205.89797359 577.35225124 19.714963737 954.87355682 61.122553573 664.98327658 933.52931819 -1711.3007445 1377.1038192 
2785.8348663 -267.84527361 376.0385158 -1421.7706759 -612.87096191 126.44167636 1048.8209425 1838.0959013 2790.8847042 
2402.6784993 1633.1768873 2319.5095715 2261.6629619 839.71986357 962.74090081 1535.5203723 -44.99751586 670.20443043 
-2035.3746766 -2961.2801957 1050.859971 706.36627546 473.52883379 250.19680198 -814.06139531 -862.18936751 -463.39774843 
1199.7601139 676.27739014 -289.30793512 -421.08167428 -906.33921315 -207.6456348 -1430.9183807 -499.83395965 -125.79850946 
-288.91050224 51.017406064 -107.66049634 -44.994354403 -302.84444897 -277.36234323 -375.81249746 -577.95881795 -628.27385486 
-455.08611658 -501.7008246 -370.11878458 -253.22431198 81.326909394 11.615905593 -48.887031426 81.06783301 -94.758001167 
832.4670278 1326.5072165 159.97475051 1036.013698 263.55259788 -524.10725671 -268.42061836 575.44968654 818.08252729 
752.0912982 620.2903718 328.23289002 267.11381495 633.25846999 2362.8823037 2634.6155437 1648.7318682 715.22707337 
-1037.605764 -148.70350005 70.594105562 -93.417197903 -820.49671433 33.670667821 79.321912746 505.23996153 1088.5704605 
1101.2763721 1207.2827569 3329.3981439 3984.4470758 -1820.5509301 -1766.4126785 -1217.8199215 -2045.1428048 -2040.657348 
-2571.185777 220.83907284 -942.64612896 -2525.5841058 -2329.8006242 4660.3670371 2871.4955112 3487.6249729 2085.4859795 
5331.623005 -502.71394003 -308.77558449 -355.43505546 7385.214258 2313.2215975 3597.6187713 -339.89637581 -1138.326925 
-1065.7733812 -1632.776991 1189.8888483 1681.893189 -43.895550576 -3.0909856734 1716.413502 1115.8696224 1169.693656 
-260.51072805 -522.51189364 971.50920717 1105.3587575 712.1491966 431.84182614 798.2367371 401.7197461 2687.3036711 
1554.3480538 1632.267791 -999.4780641 -193.04854608 -811.26922114 9.3797584775 -126.84174015 145.15234482 4602.6062525 
993.20313457 1369.4832958 3493.6883205 1114.0519217 1896.4361863 930.14658138 594.21354532 -113.65468872 -1768.47928 
-1632.8134213 -738.90857547 -1181.9966446 -198.40263827 -300.99115132 -1107.7466158 -592.69211941 525.25448621 -324.65892585 
8.3769768211 -286.03432136 -444.77302385 -377.95495061 -62.648894674 141.0552038 856.10764627 819.34517013 -665.95910579 
-960.47573976 240.60725742 -354.45270449 -212.00902509 -219.3292293 -754.00250534 -537.98912454 915.96056061 1635.8024906 
1199.9283253 -66.438193275 135.29481685 96.966916222 -978.41610518 -736.91866525 -5884.1978481 -5470.4532042 -6802.2619886 
-570.38748777 932.45471009 -119.05168351 -47.884776896 -1449.2930039 -661.10116491 -2007.7735357 -391.46312015 -313.07368037 
-190.94204356 1084.433288 794.3241128 792.51181062 326.93367132 329.46560364 1273.9755444 -729.74327457 1048.2334304 
817.91003142 1366.0091477 1051.3985261 960.88924689 -300.16001257 -719.11290314 5816.0421127 4358.7890858 5411.7898556 
4703.9550799 4513.0162659 4180.4927566 539.51695537 -47.799531481 1517.3680869 699.29679857 82.432074032 16.924039614 
633.28184793 715.83787367 -414.22638101 -200.16095627 1016.5875135 340.56741443 337.97077805 542.74271519 -167.36919376 
-2482.3019774 -766.73915876 -286.99603701 -16.078230184 -517.05717001 1690.6491958 1557.435629 -1043.3559292 1021.7534299 
1332.0274079 973.3437617 973.90389475 208.22393612 -1069.498996 -1003.6843088 -1073.3802397 807.96270739 1573.6403663 
1467.7520749 2472.705074 -164.4770221 941.09015299 -538.05431019 -252.43831463 -592.20115104 -1261.2871774 538.79794942 
556.29998907 535.43100753 -287.48934724 -189.91558804 221.01388139 526.61873286 1206.866077 -22.318835786 833.30835371 
881.42823112 2811.3660068 3038.9574329 95.003058117 316.76845638 -1169.2980918 1411.8966338 165.19102484 1185.7377033 
2247.2994344 1334.8592652 1727.3270498 -1013.0000227 1539.8003272 383.91588081 -56.236555733 -342.01301026 -572.11272086 
-291.46765236 2786.8905498 3230.3357253 3037.7170625 -1.6604012872 -4395.3714333 -2363.4055401 -2622.4408576 -3381.9447794 
-1750.525235 -2945.5724826 -1359.4240764 -1653.3960892 -2516.7699723 -1486.224397 -358.2793479 -1004.2188143 1095.8539973 
842.95070293 3360.8053357 -529.68295283 -143.47300084 1322.9529987 657.02268645 -415.09147504 -810.29313663 -743.26453995 
1605.7565156 -54.754327969 1184.7652643 864.8868196 -1033.5152991 -1221.6519983 402.74622063 1979.3515912 5207.3661499 
1840.5083321 458.24985765 197.05142503 18.871605936 288.55192886 110.22926759 179.41599434 -525.05791261 2668.9365002 
3125.9680204 -1222.6432902 -1887.3061874 -2872.0663442 -203.57055603 -940.47195343 -235.35762186 -1905.242364 -1781.1725297 
-1320.6704141 503.19617924 30.625677014 7.5529478049 5.5258783299 -171.33692092 1770.6656038 -472.51424417 -790.87548185 
-634.73318344 -1238.6098231 -742.00437329 -620.24612908 -310.99298131 -974.23714418 -293.59020774 -1697.8964705 -802.37083376 
-704.39448954 -556.78423408 -943.996121 -5.4983605537 -263.14110625 522.23308783 661.64899527 953.40802485 305.22385211 
14.085778943 357.82097998 1614.6048658 758.27077387 787.0352834 664.52049454 780.80039516 -101.44150664 1762.9531414 
1118.7121863 1209.3040247 828.40246697 72.515651393 -466.65330363 -213.26842927 -853.35492892 -1834.2551888 77.117798838 
544.2465384 2813.7080678 -388.24156191 928.55566039 1867.5526732 3747.5094984 4287.3940101 99.028032499 9375.7390677 
5130.3616961 -596.38820414 56.967010218 -471.84892071 -68.115898014 -451.35872997 -753.79995317 -1923.8801367 -1917.7051989 
-1351.8411781 -521.21688147 -788.47359578 1148.8907807 -510.28420592 -848.40138316 -443.89184802 -331.24317824 -647.28287187 
-599.49345631 -193.4731221 499.93632183 -1138.0403361 931.93589306 1380.543247 1283.999889 86.253143045 1.7285060358 
1504.3064367 1534.4302972 2536.2750107 228.9563191 1169.1309199 -1026.2656464 -1011.965725 -165.21767361 2489.0683244 
973.9473242 549.37428397 773.0577588 733.50258809 838.55346914 1040.9742424 -792.00080267 703.72331694 -630.0601259 
-714.4724773 16.129738697 -578.62703776 -1304.3908 -5446.2095005 27.916206318 186.50121084 85.892691848 -458.63910143 
1402.672017 1727.1496268 706.97653708 1251.203102 650.97873803 574.68316954 942.20604988 430.1581662 153.74075238 
714.11189497 2277.1519967 3642.3994532 4907.2416952 3590.8379274 948.96972483 668.65607831 461.30013845 632.93606179 
1483.3747289 681.13385755 -182.14016055 210.11562113 44.482666857 412.95245882 222.50993531 -1508.8335842 -1332.5411813 
-704.74684842 -1710.0051279 548.20728269 761.9619736 -2105.3151234 -379.14846441 -745.24798358 -45.707052987 -33.872457194 
-59.208230304 -215.25720973 -51.209752323 2046.4983207 658.85039238 801.24066039 2670.2569965 1431.6857078 2.8141480922 
2160.636254 -977.19721231 -328.52515327 -549.5006475 343.149159 537.39911546 573.57120252 757.66466472 -599.17360843 
-14.260744767 5488.2373162 5199.9609921 5180.3748083 3692.5909782 3619.5460165 -42.905050453 -577.35886875 3254.3443241 
1310.6424706 1934.2377979 1079.7244478 95.880924456 -586.678047 170.65831916 -675.06312824 -441.96312315 135.20166098 
25.573125297 622.07760023 98.107614202 -51.74791974 -403.94679538 694.82072077 -133.54407923 848.32324153 537.45604029 
1469.9206586 1649.5498372 1312.6432461 498.17913922 1974.8523749 1134.7966266 765.23928978 553.40346119 614.19707016 
1878.9940151 1321.0141057 206.27254766 1949.15711 30.815421563 541.61166151 1809.4489727 1374.2564977 1281.2257646 
-301.78834625 -505.33821211 -590.12058755 -313.03000808 -65.841846138 -173.16375398 -229.22601932 -465.03768292 2351.5301396 
2154.2588635 1779.2714333 1427.1534669 2054.9212027 793.4578094 683.00359649 309.40886377 1170.8707467 1976.0961425 
423.44958699 492.65829758 -396.21450338 -440.82513358 -575.95561579 1653.6304595 1275.4775094 1220.0627018 1722.170668 
1468.2534343 1252.9308744 212.23680176 1535.2164495 1855.1228336 1852.1440056 2013.6311863 1610.6046487 400.07662957 
-1142.3637902 512.87928634 -984.26843962 -310.50199331 -123.15075241 370.49925577 1092.4490195 668.12183592 359.80475584 
272.64079376 914.96070293 -1114.0516902 -591.27545892 412.56412671 564.30454685 -747.82348166 713.74436132 4091.931467 
43.130449005 530.07961583 2675.8182626 140.98572424 -333.35942 -814.3798841 -951.82798299 198.73386309 -359.26295694 
-541.50427325 -21.021773234 -25.50695562 -398.72715637 -297.95150311 -273.84566374 -200.889996 -313.35082528 -386.36753633 
1906.7125199 821.50718549 523.95589128 182.41623257 195.22248061 554.95822201 1606.9441991 1600.3501382 2401.5865301 
1469.260368 1648.2376464 -427.4765075 129.6102321 -195.09486969 -352.10606158 655.71332522 483.01577058 451.85888931 
330.36618054 35.265625245 -49.75182387 -428.86126101 -240.39429471 -833.38115362 -73.979496512 -377.45248807 -2120.7620115 
4046.7876856 1792.4793048 1029.6476409 2527.3282271 2735.2389636 -3561.6606243 -2786.5522253 -2663.3229228 3575.5753174 
2877.9522085 2265.7824051 1461.3714801 3056.288608 15.899395411 -375.46299054 349.38807366 -248.96434604 312.85289126 
237.21593042 -1194.6175075 -272.40964216 -346.23409681 392.80356729 581.60698452 3822.8634294 3550.4603099 -52.197359813 
178.0422668 585.98166029 127.55753926 1504.8079996 -301.44606291 1995.0151154 977.74390023 1875.2436676 1665.7112803 
1624.97587 645.20602401 -718.04381936 -368.54906094 -584.4706027 -552.04408466 -5.0999735043 -5358.1158532 -6861.4896306 
1283.0738945 721.49279747 223.82370792 -1127.7258752 146.51024028 705.42356449 -56.80649521 -99.507418562 2520.2407525 
-60.718377643 649.5538631 201.17584486 1555.6681429 -514.71985944 2799.2885414 1920.3594401 2244.9812325 978.78054398 
1589.1299546 2125.5491017 -466.81372204 -622.54011518 -574.69045942 522.19492734 809.4923698 -170.12242067 -312.53641491 
418.53231038 393.93288395 -816.91309565 -824.29630896 258.16114591 62.189127809 2763.8267024 2280.6137186 330.71363746 
-482.71010557 -7.429813313 -12.615016936 307.67155466 90.087631313 688.78408041 400.15504188 1061.4304298 990.90526078 
2829.7150117 345.38473547 -229.72905629 -1106.9891039 -1170.7816435 -673.86659263 -749.29149416 -758.31006021 -122.64495905 
-673.05962402 519.72738664 -29.433089097 -18.30805897 -629.53898035 -257.85763139 -8129.2619834 -2178.2275089 -5099.3913211 
-2479.0863708 2337.9298889 1110.0758531 4256.065824 1815.2680631 1080.4402804 743.72492349 145.96906445 413.34145418 
-501.66040076 1047.1678546 1134.2251247 1378.8757278 1367.4645795 -43.599095195 -310.11578778 766.6810437 924.15585596 
1584.0683059 643.58273564 -754.41523065 73.536836836 335.93877476 470.16083152 739.4149816 -245.7488177 4786.862645 
2228.0245218 3494.3999706 2614.407897 -33.112046322 -347.47902107 2838.153471 1761.0502849 1953.8236731 3547.1104977 
80.017540468 -4120.5769818 -1603.1787887 -8235.8002534 -2043.6115096 3231.5810272 813.98050835 896.67219311 -245.07585744 
-1229.2303315 -229.40851687 -339.72047716 -808.55407115 432.25659718 259.69301177 -428.05356607 -1454.0218703 3985.1348919 
3945.9506597 1254.7694694 -1303.2636349 772.57770815 -713.6860758 -488.48778751 24.072259302 -187.95539262 -291.76958215 
-647.07003746 1117.7355455 2265.3987653 -575.58679548 -1790.5711222 -1429.5199613 739.9818375 882.81842877 100.68579166 
-71.030041332 486.06005175 101.97341975 796.9341971 577.8702475 1539.8903754 -91.04268123 1552.399232 2260.0456333 
2020.7176433 3124.9806636 1088.9106064 231.46905091 1042.1960824 675.14933099 744.46985397 1500.453392 522.91787133 
2260.011368 630.54713267 3483.6115515 2618.6011146 59.583054056 -483.93549352 1216.4706151 1596.1260825 -782.29213565 
126.97906429 73.883829566 741.12224675 443.59949469 443.68008902 791.07773151 1295.388855 4371.4384546 3559.7104332 
60.826001792 -60.480878397 -87.66931082 1184.1133787 607.57934295 683.61586018 310.32285104 353.42913051 -351.29602286 
388.79675566 -407.78322784 -523.94608093 -164.63820675 85.776121528 192.470214 2785.4554813 1804.2114487 3806.3704701 
-531.22271895 -21.61317589 1880.6347634 3545.9896566 2794.0210225 -908.65609147 -1625.5602983 1228.745312 1545.134314 
678.3578711 2081.0308467 2405.3147378 1475.2410268 -734.16600464 -2357.9648543 -2046.2530421 -1991.8356611 -1471.9275548 
-2829.5084388 1539.2583339 1607.8756289 75.673281943 26.108804585 491.10560368 1434.0407791 316.97674114 1508.4740788 
2310.7910989 2125.5557515 352.24047568 1171.8617145 1869.9227603 3921.0705085 3422.9033113 3267.4585393 3058.5720326 
1549.2500158 145.97858101 331.7966441 -117.69714651 952.63135779 945.37131943 786.71563985 -896.57397428 -291.59157102 
-1291.4552526 -143.09174123 -151.74354093 683.42295102 36.025727707 560.08087078 -901.36385876 -486.59506156 -561.85926871 
-960.98579821 -736.13806304 -822.02544424 5056.6117649 1466.5045166 1895.9941885 1417.7193957 236.1243863 -12.419997482 
525.24167252 262.46800283 -19.79755377 839.84465007 782.4054288 1376.7691502 123.0729516 -236.09284906 -38.098751559 
-1187.3225812 -474.29992143 -871.26955373 -2587.2817777 -2920.2578419 -3228.6486446 -2762.0215499 -1929.0788742 1619.4716953 
-127.2150972 677.77305483 83.531513042 550.78680641 -56.836714205 -173.30744389 705.75046452 -431.64228128 5587.7810219 
387.53867276 515.67244276 1966.5150103 1434.4434628 2623.2833445 1988.0588168 78.463787945 -859.9894653 3619.1859548 
-599.1255797 -217.34467227 -658.75530506 -326.06935191 -1759.6015951 710.94151686 -0.49387598615 -291.15795035 -476.06186607 
2917.2517601 -400.12370694 1121.2377354 823.54727785 2424.6339845 -641.71113055 -261.94220392 852.21768988 -587.77604297 
-433.81561046 -388.65380022 -2350.3342296 1025.3017293 1130.3616806 -2504.8509937 -1642.4689785 -4039.8508211 -4734.2501699 
-3840.3344996 881.62806166 828.78001929 1004.4943631 472.21228644 -444.02251837 -858.82681336 -149.90185053 -856.65064601 
229.47657126 -636.49994985 365.20330645 -59.869323049 -514.78372603 184.70335887 -245.09402336 -159.89568805 1104.6548824 
3155.9149855 2781.7814912 429.11061062 69.379237798 380.02364873 16.841300599 241.9755572 2258.4189092 2365.6198786 
3718.6978537 4345.0920522 900.2410578 657.83941358 -792.87337874 -73.867931141 -53.10307031 -851.42830017 119.35031924 
278.51186795 -154.38688854 -227.04883136 973.32817066 553.47771788 318.0989618 758.28913806 -157.15282609 141.67057771 
256.75758193 509.08437093 1271.5529374 -185.7114595 1194.8024797 388.27387259 551.36745112 -840.67120384 -626.91474772 
-508.59212197 -954.25851504 -431.58871632 -537.22473008 -192.15299426 -248.08782751 -343.55791327 -426.24539949 10.43397473 
143.17587508 298.6769441 -59.412355725 3311.0572662 266.61586835 516.42225118 1301.4445802 229.36079826 1062.5046489 
-908.41329872 -11.000395166 -613.32764745 -34.686154759 -710.54911632 -1392.0170101 -986.84261949 959.12697348 -763.6442375 
-985.32827677 -983.81500802 -840.31331134 -6.0304465282 -552.78077316 -46.312996427 553.82879063 -433.77031149 -224.99489672 
-92.480360959 940.72588743 -39.360732685 -866.22634994 -1104.8524372 -1098.151433 20.257883378 325.18504446 -479.53288451 
312.50095633 424.56434381 -14.03771431 1292.5146006 -4522.6559138 -3870.7805077 353.97689 440.31322173 -857.87834605 
-507.12042173 -371.74802631 3274.7616885 2079.9540459 -503.52457748 -509.71691516 -272.24495845 -9.9053777686 -469.77891705 
-151.89273017 -733.50846302 339.49411682 693.04847271 99.840123108 1378.10314 -35.759300223 -13.870245146 -691.16245949 
-622.97824019 -411.74015199 1128.7647261 1929.8846696 1880.2128802 1799.9419612 1934.985652 2169.4080435 2701.8433317 
1193.0584728 3185.357711 3169.9073845 970.16367952 1257.9409573 499.33692209 151.7839276 1521.3873557 345.06219905 
-234.18861397 153.51510185 120.18758309 1497.0642333 1250.2378177 1002.6719861 651.72853581 -898.7822476 -816.13689653 
679.89362924 1074.0962169 320.70535923 -312.78682713 876.1368699 913.35895052 3.6955035728 1268.7781704 -201.21605362 
761.00817227 1077.2882521 1323.5177909 2017.6419846 -556.19698668 -41.813540547 78.601000542 -5896.5904148 -5644.4630117 
-6840.3653329 -138.81363783 786.44538439 1305.6274746 -852.37198192 2902.5962754 1496.8513868 942.56593432 692.96039288 
1510.8137388 885.91706752 933.97180578 -330.82669209 -284.2084148 2202.3780366 1407.0967833 1324.6434639 1299.1183176 
-2033.6327586 4902.2925559 2864.6219774 6985.9300308 7743.6419878 5104.2336329 4236.5449857 591.17608606 -676.53030794 
-602.35526418 -951.58156567 -831.621714 -712.17961016 338.81537817 76.908615897 -3563.8352804 -1554.1906376 -4469.7404577 
2434.4995589 3235.397083 1733.6812616 1221.6881016 2973.5620892 654.8615796 4278.7390514 -93.929476111 -355.87120192 
1147.1898202 1631.041588 1061.2855835 5436.7593381 2194.0519831 -504.42653978 101.91139403 1088.4255657 849.50453774 
177.97283909 1020.8273714 112.89939171 68.508721715 -28.996653223 10.937673738 -29.764685169 -508.27977622 -375.31211449 
-282.61404092 -832.8530317 -394.70902899 1155.8541945 1350.322013 -674.30636781 -123.74611498 -514.66020871 -459.6637168 
412.63206313 -56.323876811 -111.00352777 1240.1397623 737.38451546 -483.17493884 -6.1379829628 37.363766343 -289.29556884 
-191.70083775 861.80827756 1045.2629277 592.39702498 583.34279193 533.38351488 446.59830218 -512.04898704 374.28138784 
-253.92117821 -2277.0026607 -1387.3895118 474.66361622 393.98801961 -45.439802403 -44.327723682 10.127116722 7.3750283144 
-95.709847665 1829.0360282 1619.7460891 1295.2771356 398.42560136 -1275.9506873 -362.44432826 -474.9351759 -1175.6581538 
377.31551473 32.437468123 -73.045455676 285.13152199 -192.4279844 -208.4753717 -6684.410255 -4403.1462323 -6444.6538821 
-4185.5647424 -4033.2048969 324.22998341 -40.661256323 474.67446559 607.49297022 -519.04958726 -1027.5859128 -959.16574255 
-1006.6024765 -834.32015956 7.6884680782 -254.86202768 1244.9361386 689.32075282 1463.4993077 632.17070874 752.64723459 
629.49329057 -34.398084764 1085.9826614 353.98661274 -606.28799928 -365.77126183 -982.88324666 -423.08520063 -45.062364201 
64.239193714 3747.9223785 2088.8882987 4170.6105896 4157.6243863 2418.4643197 3293.78263 116.52387221 -199.56680263 
-1869.4733368 954.35662215 2337.5380092 404.76968255 175.72492811 -671.79724716 2169.1827585 898.54642971 4181.0628072 
-314.45317688 -51.658667408 385.56611492 518.92828972 1146.0393733 -492.93898124 -348.37454061 4242.5203948 -612.38810943 
192.82928111 -332.53745357 -1035.491684 -1448.3010555 -484.30948404 4159.2084512 422.71762064 505.38823248 220.37619804 
-271.54867918 -231.69040756 -350.34794574 -400.79168389 -856.21930942 1023.5043001 -1138.0825595 -524.41614764 3857.8880152 
507.78735019 3307.4242547 2143.4301183 2619.833153 361.97035479 999.08646687 -278.11189077 10.994566291 -923.5788996 
-378.66847076 -350.01025066 -503.17569429 -832.08645226 -772.94979126 -824.40270966 -525.15010715 2539.4034687 5.4376128605 
85.341912183 -252.66523517 -54.797331728 -736.19906761 285.64305537 328.74511788 346.49708776 -91.441008469 -101.84805438 
-101.81302314 -334.47341971 1436.2212369 383.55280548 -587.70600762 -646.72007453 975.69082609 -1469.361363 -1687.3971747 
-958.18636251 716.06808664 -639.06799042 506.6945201 -153.47236869 -294.35733108 -346.02505283 -331.70831404 281.32519798 
-207.8482285 898.27719695 675.36919287 6067.2752278 6265.8748607 7115.9903789 3281.1583324 50.442635123 -542.05515749 
-730.27637184 -234.64751488 -596.50211572 1071.0588041 4687.0685406 -4702.3750519 -5143.9334398 216.08920711 -139.37634605 
-541.78895842 157.50269057 -513.72285329 460.0885233 5050.6185652 959.67180117 174.24178655 -35.09478894 -17.699092035 
525.71678363 2930.6275975 655.17425843 434.11398754 467.00730601 244.33498187 -146.19536503 -354.61569455 -377.43446818 
767.54270047 -4860.8156779 -5141.6642093 -1448.2479171 573.8019917 -277.15325526 -450.96989355 787.41487275 1486.5638718 
3815.9933291 1240.6450587 463.28885759 411.24121232 70.942166578 -232.44801177 -269.15429576 -421.83418454 -754.93523303 
5.1830608418 -1857.7461666 -363.08990855 22.529008335 132.40582511 -1395.5779405 -1032.8968311 -845.16904728 -399.15037347 
286.92078288 6674.8639761 1167.6358839 -1962.9877364 -3559.4384331 -516.31976494 275.02982804 71.811089796 73.539584048 
-1011.0064556 -1266.557725 -1399.9482291 570.51543904 -556.4261697 589.72715297 220.50780523 -502.82015698 379.98224075 
1045.8680265 354.68616221 -593.68808875 -26.768120734 -355.39827997 447.40837665 -449.62673932 -319.46551736 945.55656592 
-937.86351793 1462.4109747 243.62059546 -28.495481554 233.15744436 -627.72465488 788.61618946 943.00156694 -1923.9377549 
-1151.6002324 -1659.1531114 -2459.0766761 -1640.112327 1407.5784312 1255.9575003 -1285.043665 -727.41389973 230.84501479 
-698.66179438 58.958182609 -619.04864008 -340.3187537 435.7034772 181.76097343 347.85632797 604.9055188 331.05685722 
-398.82739507 111.91554658 677.59775117 599.3564181 404.68290246 -854.92357116 2915.6631176 714.02262609 -1389.6044273 
-1349.7239085 -727.4036057 -785.43166627 100.65340996 185.03967991 461.96974796 157.35615079 87.514414124 270.26858881 
2617.2452553 1720.0659039 -387.07572326 -232.98489072 661.24577449 448.73978158 -96.921723777 580.4762844 657.70795176 
981.89298662 1420.6178507 64.642769878 259.98183904 197.14404002 -233.11774155 180.82872395 31.552255964 -855.76061233 
-725.0858729 183.7761976 995.03678668 1198.4823169 133.13502589 3145.7447935 921.75803941 840.27376627 -5339.9164287 
816.24299072 844.03493019 335.10126879 -24.153266775 -224.17637 -217.12864712 -122.88807137 -152.69477609 168.45877744 
71.452261359 -236.46963231 -380.0788778 351.34577509 180.348594 851.7303238 -183.44245609 -103.64501494 -1117.1548177 
-2435.5544463 -2604.7961704 3221.5862018 -3588.2700554 -46.795232326 -1123.1074444 -659.14987056 -1211.6133025 -766.5319738 
2392.9811606 178.29952259 -125.2506962 -306.68451295 -474.98682278 -717.55595937 -817.94961095 -83.514458841 -131.79844732 
-29.008856924 -1159.7534455 3198.2011046 1473.9187984 -322.20137466 310.5634937 -533.59896389 -65.67430439 -628.56470187 
-1281.1864805 -724.95618681 218.72716553 1393.5963111 -693.25058022 657.96366802 376.4994318 -677.12175584 -108.27173458 
-418.06428378 12.276748921 -682.81575354 2416.8746044 -357.91861345 -194.78617866 -179.17805095 -437.69168277 -412.69237678 
347.84841575 341.74999845 -1215.2798809 -220.44406736 -397.94349754 -96.101821161 806.62539775 873.77511823 1964.7250978 
931.93209048 694.41807294 641.76805985 773.25980551 4973.6920408 162.51912887 -235.0969264 834.07684194 956.8044651 
1286.8736706 1035.2046394 4442.4474548 5077.3383371 -80.651079023 3455.0803919 7502.2128453 5403.2287237 -95.495756792 
1277.6268297 -220.58472853 354.59343962 744.4468882 299.45282906 1612.3652545 789.51247916 1224.5061569 657.43404335 
179.43270042 -84.708376518 -1261.4466034 -390.98277267 83.398002133 1310.688907 -3679.0086177 -4906.119522 -3592.9919623 
975.42213486 -72.708685237 1482.7546527 -1053.8616566 -571.50465083 3525.0774336 569.45617373 1099.4755968 2220.8279045 
3760.0480879 414.32602534 -1192.9217112 -521.90575055 -702.98789778 336.26163478 769.78445087 -886.38835721 703.21824908 
-92.442917142 -145.31807096 -144.72352841 90.506056148 970.94063402 1901.8463326 -1371.2004338 -200.59779748 -5804.9361995 
1235.961528 -627.95036098 1237.471627 438.80759186 170.05374835 -297.52614489 -114.35864862 -112.06023283 487.09431791 
4313.8321955 147.6318955 64.601278509 -76.909214902 121.33004847 818.92296675 353.0537004 -171.59620266 1603.9825732 
-934.81416555 62.062506042 -1197.9140583 1744.9705545 7528.9981245 406.37894345 184.94898557 308.20237095 1040.0324799 
1447.1309233 -981.32584959 1597.4099632 1085.4171064 -500.973615 -533.22200906 595.35323182 3552.2956857 3410.8456347 
3661.8431856 -686.58899202 836.80574097 581.81023548 -91.704478221 -165.51018757 -845.21482112 -281.73406845 -89.032746032 
12.78295949 -518.01685986 672.67982055 400.65663421 -117.68477466 333.30155182 1835.2325606 1003.3332474 435.00326497 
-40.691840431 -343.78139682 -312.37416141 274.07092094 1180.71301 326.06211851 5.9658763073 -233.4844941 -886.02660132 
2784.2526146 158.80194917 -627.78420694 -1834.5529157 -637.33638437 132.59356732 -248.195103 620.67993195 138.61398181 
541.87074759 -918.06961421 3370.6269056 5778.1331862 1269.2958524 97.186745 2968.0592355 2017.2006512 1059.7812521 
-429.6688619 -228.13101989 -343.41901768 2122.96696 -742.83495571 -448.47257922 -126.30410407 -272.43078752 981.01725222 
-848.3900357 -1261.6950078 -694.64172507 158.21269675 2052.3064693 -100.90992218 -29.162866152 -289.14927111 1214.0874225 
-259.9402821 132.42697965 -79.397856033 -15.576492407 -1020.3228215 -466.4601573 -890.22679464 -3688.8151642 -4615.7606793 
-3352.8248415 7188.1800296 1289.8860387 -896.22577711 1011.2409779 -286.27344819 715.75386887 2395.1881131 556.7347114 
1253.2379829 888.72302102 -279.27430308 -115.8355286 -191.52752615 -514.32091081 -2497.7106372 -795.00460433 503.0764374 
141.31130096 -162.98439576 610.46147808 -282.93993569 -241.47425531 -274.73271442 -107.10198378 410.0421165 103.67774038 
-121.04155912 1408.6381853 -763.20258219 -725.01931628 4615.5393874 -624.87270422 1995.7339999 -706.66123757 -260.5966841 
3128.2936266 -767.27882739 -967.8731319 597.55650607 -488.40623223 -1935.8214876 2193.0403214 -456.95619275 590.62301361 
2823.569661 1014.2972765 853.23334308 84.939221882 -193.6739117 197.17759924 238.60214954 3842.3582321 2145.4026545 
4951.2376224 -551.57492001 7714.1270257 120.65922422 -352.01985081 -174.26378719 -83.381292906 -14.302909263 -1443.285564 
-420.59481763 457.00548581 446.71969065 550.48898402 -492.29652947 1145.6117249 -623.10639597 -707.25087244 5926.271671 
5262.5288514 -1028.0993926 8186.8169647 -14.875193776 4921.2624684 5477.4919758 4753.0543593 5942.5274383 5054.8142205 
-1571.4867786 -664.81698812 -1409.9883625 -30.69133426 -408.18964995 -169.49489609 329.72847593 -96.019942339 -106.49520475 
-564.52235929 -824.09852815 -1286.5120532 -424.15504571 -361.61567078 6156.0159426 952.79884464 -1236.0685679 2746.1630763 
967.41339585 -985.6075522 -208.06189466 3417.7306736 3068.7509798 -736.0870574 835.88892947 -5064.1468487 15.969712292 
-507.42079844 -145.70289975 -588.64740658 -46.094317675 194.2876702 -370.59244563 124.43156658 -118.41633162 9.9991585809 
-20.235624318 63.042608968 -305.57754064 1847.9932168 212.74705933 -561.46147593 -997.17570965 -514.087088 -50.205628512 
125.45142184 168.60896406 -155.2900329 -1542.1084752 280.22732233 295.18431195 32.312556699 419.76530182 992.94991836 
771.3309066 -3050.7920099 93.461863564 506.71307317 1100.6546828 618.54260179 -601.420734 596.16118662 -146.68510219 
-462.53731372 -581.58202655 -157.55618474 -1725.0099761 -7665.0180786 -554.50287431 -668.9692593 -219.97695831 100.7288305 
-53.973029178 -1037.5867936 287.47314906 255.47967846 -242.65562733 99.861399463 371.58450129 222.09346063 -1955.0935691 
491.68898121 -464.42815522 -1724.7227361 820.29453049 89.142138275 -233.38629766 83.939796675 -961.44323967 -358.967086 
951.95840958 55.704240214 55.299667891 5527.8101628 485.06396773 -527.224668 -141.13089852 -778.67924004 -24.000086949 
-93.089023687 146.28475366 -130.02257789 -681.64068894 -743.97804267 -948.3570694 -353.07782307 289.03943066 2678.1435567 
-489.73804664 105.15191683 -1047.6590263 -19.305822948 314.10104481 397.63215589 -1350.2517342 -374.84557782 -6046.2431448 
-5402.4336393 -626.58591045 1195.8657101 86.474491687 -477.61619928 1859.4389113 133.43501417 587.70590218 156.5386546 
357.833903 -90.002950377 -772.60195007 935.0172847 626.53198816 -877.75181703 80.397692964 -867.85321908 -346.31145721 
-429.69461055 1959.979258 1910.7943217 2891.3662337 -5082.4973607 -819.22909385 2236.3225615 -375.27040332 1922.0107061 
1619.6735569 -495.89799857 785.53773936 -1955.1092255 5386.0753923 -330.1331152 -500.2222485 824.21096546 2112.0367563 
1057.4746918 1048.4871416 149.44154361 -1189.3640173 -238.73056878 -1765.0028942 -564.40170988 -6580.2266348 -255.19379647 
442.77366321 -389.6870707 1920.0910079 5027.7074288 -655.95980032 -1329.109866 2629.9401492 4185.1421003 -461.82641476 
345.67858597 766.8749733 -500.93574231 -865.73987861 -693.36518929 -1014.7772046 -838.16556307 -719.07703311 -1551.6311992 
106.60715428 249.68209199 176.02490681 71.964735928 786.44386242 940.51459472 791.89406341 4413.6399087 8055.6993651 
3886.8294031 -279.41180196 -1753.8503913 298.75564495 406.3759649 -855.66546688 -305.22487712 849.42142827 213.39028326 
-1757.3135633 -4285.5329429 -7191.5058843 3261.3512557 27.456134542 131.97121533 144.25026084 4.9718918453 -85.282338437 
-1573.2878908 -3430.1082766 267.06892937 -3420.0001086 4344.736828 -544.50204478 -21.976129629 156.44573132 -196.74028834 
1697.4984756 1762.3113637 -5.7712728983 325.30606015 175.64126729 -3512.9529109 -2544.5701538 -2423.399289 2875.8859744 
283.27514177 -49.506025456 -4933.7697261 1015.2433792 2003.5233336 104.17762039 -95.351737858 1810.9654064 -414.11268405 
-4820.883921 1620.3092307 175.62506558 669.57964497 -767.1642154 -4.9678373892 1362.4928162 1014.0701422 119.72395831 
2446.5693035 5842.5272842 1805.419007 -368.23371018 145.99141378 3811.585788 960.86895988 212.21580082 741.57217498 
-501.66771427 -40.712752509 1984.438547 -390.50999199 1762.218056 -4228.7309332 -6386.8107504 -5743.7715512 
Stress%20yy%20component 1 13895 double
8105.3448585 1184.3991554 7446.6592373 1166.9615283 -4031.3709036 1814.149305 -7372.7388943 1837.6221356 -9755.7880966 
-1373.8617904 -12917.615088 -1331.1357785 -9583.9604778 -9931.2891415 -32877.452319 -32854.485905 2301.7151045 2738.0658401 
3210.5489851 3647.6020921 4185.039828 4479.940461 1940.1666427 2502.7012901 3010.8607754 3416.3396009 4001.2487279 
4507.7782094 5716.7681823 10181.932143 9877.3779296 9998.2364624 9969.0544097 9631.9190573 9707.5357581 13090.153901 
10868.473824 10387.99221 11296.788836 9781.9555914 11527.566666 11782.655165 2242.4966608 2668.6109101 3041.8735255 
3470.100328 3802.7884329 4066.0717965 1923.0436109 2443.0408963 2847.5308816 3229.2451713 3801.8227593 4207.9039781 
5250.1127474 1.6263032587e-13 8.1315162936e-14 2.7105054312e-13 -5.4210108624e-14 4.3368086899e-13 -1.0842021725e-13 7.5894152074e-13 -1.0842021725e-13 
-5.4210108624e-13 -2.168404345e-13 2.168404345e-13 -4.3368086899e-13 5.4210108624e-13 1781.4340497 1820.7595228 2006.7075508 2167.9942805 
1734.6614888 -5532.0349918 1804.1793057 1817.4126931 1951.9791499 2527.0673879 4878.6909489 35210.884729 128919.34539 
-18656.308632 -14539.971539 -9277.9685101 -19053.698629 -2113.4313633 -3496.0702416 63658.150637 76607.710628 9279.4371394 
-42065.138047 -8801.8123438 -13813.599265 -18860.504971 1776.9394342 1820.447445 1932.612602 2222.6894587 2215.9024626 
240.36812415 1799.4702198 1802.7901953 1860.9084503 2264.8764845 2569.0529183 16614.065834 92510.913048 1809.6627757 
1804.6501705 1790.2282209 1797.7396842 1809.5459616 1811.5857565 1825.403666 1810.8629683 1795.0954297 1792.1016514 
1805.5475001 1810.7172321 1835.4850878 2309.6359531 2418.2141906 2403.8428421 2330.6708099 2207.8017946 2049.2389567 
1993.8324173 2367.8131622 2459.2751516 2382.0840615 2292.0380487 2151.0506616 1971.237697 1898.1304921 2076.5347937 
2777.3784295 6149.6378907 3515.9200344 8721.221897 3164.2014812 1769.7578343 2204.4152785 3315.5503874 2561.8069834 
-16553.769684 -19599.463376 2242.2091814 2372.8280072 2391.9010409 2347.6057805 2250.5043654 2092.5936718 1953.7062292 
2326.5262451 2429.3470997 2397.7529162 2324.4678087 2188.5412131 2004.0445739 1993.4209976 2254.859257 2853.7544658 
5280.1452033 11667.456386 8755.5797579 2863.2987693 1984.6460547 2352.3341765 2556.146711 7958.1178118 -21936.807212 
-17749.615665 -2627.3635692 -2949.6908585 -3324.3106077 -3950.1553698 -4765.4332721 -6161.3784821 -2278.8303166 -2776.9699725 
-3068.4303295 -3532.3875809 -4091.5001964 -5254.5649143 -8576.9413016 -10278.804364 -10532.542562 -10453.860806 -10975.95894 
-10322.579477 -13502.152105 -10030.197818 -10232.673056 -10721.502722 -13073.825015 -14682.949933 -14709.424012 -16796.916401 
-2558.6609904 -2867.55815 -3243.0242161 -3765.0313464 -4486.9884107 -5051.4033433 -2235.6762962 -2700.8122963 -3020.3458172 
-3468.9590169 -4116.1759942 -4832.0149785 -9298.6780125 8.2941466195e-12 1.6303690169e-11 5.7191664599e-12 -1173.3963666 1.0448998437e-11 
6.9388939039e-12 7.5894152074e-12 1.9325903725e-11 1.1980434006e-11 1.0842021725e-12 7.0744191755e-12 1.5395670849e-11 2.3310346708e-12 1526.7433936 
1160.3809122 664.67219481 65.528302695 -611.30574879 -1270.0611434 -1882.9826715 -2354.6991614 -2736.1244169 -2992.1450775 
-3092.2737206 -3037.1193217 -2765.7356199 1671.2507591 1353.770427 929.32867898 367.68543379 -307.36218623 -975.47561025 
-1621.8013041 -2143.4684374 -2571.3480868 -2908.4728264 -3076.1594706 -3084.6965977 -2903.0763031 -2312.995543 -14664.003371 
-7882.4658358 -10922.51632 952.99128449 -1760.5477583 -3890.7491319 -5451.4942181 -6755.9429152 -12018.561339 -12522.07983 
-11083.80994 -11949.572557 -10351.74269 -127305.28433 -100175.76826 -21612.377233 4850.0569555 -1628.2797711 -3421.5705534 
-5011.8804198 -6473.8001904 -10683.428496 -13623.679434 -14422.433447 -14939.211952 -13032.512305 -10151.279566 1480.6655728 
1027.8618331 494.1359103 -93.41708663 -715.70027714 -1299.580974 -1828.5424653 -2283.9154251 -2617.2661467 -2824.441097 
-2946.3072409 -2884.4784132 -2613.9487086 1671.1542829 1265.386432 786.93299878 201.28290415 -420.90589618 -1034.3563425 
-1598.0215016 -2093.4274378 -2484.8095367 -2738.7547076 -2886.3250092 -2916.1161622 -2737.4777472 -2253.7632989 -13601.207501 
10070.988787 -6886.3114933 5769.6959975 -1266.5381683 -3842.8043278 -5525.6175793 -7430.7429014 -10712.735616 -11769.87348 
-11806.969642 -14746.836199 -10590.945067 -140004.96205 -27618.482088 -9636.7691966 -873.5240881 4049.3441807 -2655.7137769 
-5838.4903548 -7091.1465776 -10096.54863 -14094.24606 -15772.587792 -17182.070963 -16211.228979 -15564.411562 -14861.169077 
-24024.738939 -9662.1326781 -9921.0438373 -9454.3787757 -9614.7798023 16732.338021 32879.861217 1135.0276343 1469.6470979 
-10595.784189 -8952.7184828 -9514.4135131 -9596.4438078 -9681.2199725 -9631.0598076 -9690.5415988 -9959.0303815 -10078.452368 
-9684.2606225 -10140.140947 -9508.550556 -9782.2963283 -9661.0922396 -10201.549612 -10061.036402 -16200.851986 -16473.261411 
-9642.1547284 -10413.855394 -10614.104041 -9936.4610584 56666.125046 50790.444684 1523.1343911 -11484.642396 -9991.4804263 
-10152.194003 -9906.1231581 -10486.894956 -11393.92319 -12773.552405 -14267.965332 -15968.926147 -18859.589154 -10497.276708 
-10879.037383 -11931.539132 -13687.83874 -15458.357589 -18340.792805 -29147.877218 -27412.213552 -27813.414808 -29099.588982 
-36994.698151 -28522.158588 -26673.350654 -44330.88355 -25261.122914 -32764.698611 -53516.03323 -46000.991237 -31747.451289 
-47072.711088 -9830.9965475 -11300.388192 -12860.729509 -14323.194952 -16171.613241 -19026.816488 -12899.88171 -10682.880685 
-12161.882291 -13630.957973 -15425.499714 -18171.915794 -30604.507555 -9617.5466417 -9441.3776022 -10983.151622 -11371.665127 
-11645.96166 -11023.947177 -11361.573871 -11606.519263 -12073.833807 -11334.173401 -10386.101546 -8816.6143353 -8305.9605449 
-9927.6041468 -10158.506192 -11344.485811 -10708.969213 -11854.168796 -10827.978312 -9004.2747307 -10813.389276 -11408.395425 
-14862.857166 -11597.582836 -9657.9605776 -8637.6827766 -10094.95869 -10029.418616 -10471.055318 -9964.6448373 -10285.88648 
-11829.097218 -10835.896315 -11471.144474 -11620.94363 -12198.105056 -12296.157288 -10772.92195 -8979.1779029 -7859.8934367 
-10201.194954 -10802.966055 -11856.88225 -10232.908704 -11543.384886 -9167.2098486 -8813.4722871 -11290.22523 -13369.369604 
-15087.455298 -13844.49227 -12498.07244 -7926.8543677 -7762.7913958 3310.4546087 2655.5794197 3981.0619273 2667.0279922 
3902.0748039 2462.9398259 3373.0616362 4172.8231452 3276.2730379 2448.3487903 4342.0852845 2375.1588964 4068.5762781 
3026.537699 2456.7528244 2907.5718184 3883.3333779 2381.6724269 3934.0401849 3625.5856716 3577.6670999 2930.1763645 
3591.7226567 3148.8595039 3710.8463766 3170.3778317 2828.9085611 3890.1406369 3395.6788281 2117.1292057 3376.6093151 
3260.1672998 4561.3717539 2531.1699955 3902.3023645 3040.4721334 4001.8234796 2583.1098169 2652.1296841 2141.2721551 
4764.4202892 4235.4207054 2194.1593769 3912.8531441 4254.9996869 2127.1239739 2259.3510256 4759.9137158 3757.5839705 
6263.0280682 4699.0054695 6699.3459466 2185.7439254 1689.7534246 1243.4455791 5863.5966758 5884.9645322 4216.162053 
1370.7071226 1699.2944434 2174.6517599 2661.1053128 2513.9613042 2395.9039308 3097.2855136 2876.5557483 2890.1720185 
3582.3731197 3290.7250627 3160.8032448 3973.2637633 3805.5802004 3848.18164 4554.5831938 4249.2772712 4094.5597924 
4640.7478355 1235.8961928 1313.8545784 1934.8355507 1416.4560941 1456.9562129 2361.8447859 1062.6844034 1047.8947432 
2267.3652713 1465.9249214 1465.9249214 2224.1461064 1173.2070818 1203.8703004 2251.6515602 2246.599036 7715.9410467 
7408.8506329 4792.34288 6083.2079648 6027.9615501 4283.0525746 7608.3256429 6997.4388593 4006.9592487 5837.16712 
5879.0673328 4118.009969 7250.9129008 7233.4798825 3797.590208 3808.4475482 2425.3559042 2617.5024019 2412.0797792 
2765.6161628 3004.3416729 2647.6240684 3204.7810889 3322.740432 3201.1461566 3595.694252 3676.0784437 3451.5321242 
3858.7174594 4082.4749498 3534.1863865 4135.3312794 3241.4411592 3013.176844 3279.7193861 3165.6649579 2839.8555676 
3463.419776 3693.1226491 3785.7314205 3521.5033975 3246.4888839 3091.3498124 3350.4505867 3167.2035679 3305.4205292 
3926.929245 3464.7605095 2589.7208841 2520.4662226 2716.6920843 2366.7673545 2343.8586995 2854.3856623 3071.8247543 
2775.9669254 2500.7454553 2561.8866279 2412.3239692 2596.6715098 2631.8363872 4170.086718 4286.9382122 5111.3455873 
4312.1712063 4600.0101204 4643.2214143 4237.6512576 4057.4986095 4067.5360592 3980.563294 3955.2367361 4015.8915529 
3735.0778708 2631.1089499 2588.6042206 2548.5226 2176.5628526 2388.3800637 2663.8299103 2798.4571227 2954.6116814 
2409.6776733 2533.1703204 2736.3721318 3014.9051488 3097.6553976 3951.5391151 3968.6169588 3851.5797958 4712.0768674 
4767.6459077 4100.6080214 3856.6412751 4344.3981909 3688.5419396 3592.9424224 4111.4895848 4084.0273859 4021.6691081 
2369.9303625 2171.2859627 2482.1150141 2278.8661552 2660.4918816 2567.5810908 3233.3654365 3356.9464129 3430.8849743 
3730.1969185 3647.6030045 3659.9769878 4607.3373618 4049.8918688 5148.1521501 4430.9050567 4036.6241397 4279.5675963 
3218.7984175 3239.5056439 3297.2730285 3535.5418685 3294.9861645 3228.2900091 2319.2277276 4873.6255476 2238.7160756 
4235.2905987 2175.5494245 1829.6602151 2528.1936583 1834.6929153 2399.1771892 1816.9579979 2095.5728731 2013.8407342 
4316.5099613 1793.9573295 -9502.7970628 1796.7279069 322.51404602 1893.4521876 1777.0609072 1884.3271208 -6338.0552577 
1786.1166193 2817.1257601 -893.02558702 2095.9154084 1925.4080109 2126.268689 1932.0074532 2152.1619124 1968.5865108 
1878.6920476 2932.3243467 2095.7248605 1785.054072 1988.7544687 1913.4026342 10098.988441 1827.1290977 2583.13111 
1894.6089589 -224.73270034 1802.7203426 1765.8692887 1808.3412143 12139.516965 1774.039074 2429.9196135 1798.2200425 
3939.3191294 1772.8407684 1774.1564984 6714.3246088 -1945.728197 15286.841125 17956.375571 -31118.368729 1786.5524831 
1790.7520593 1796.4942602 22824.91056 -21356.21421 -6621.2859785 1798.6079361 1765.6060953 1792.1127658 1785.3353393 
1784.7507342 1751.5917165 1754.8216363 1765.4786439 1779.9484584 1781.0429438 1783.4063494 1772.0443848 1773.2859189 
1766.6898666 1788.2202857 1789.0285788 1779.377711 1793.0087524 1762.2109476 1837.8053629 1783.9099927 1786.895882 
1877.5853759 1851.1282764 1820.3380234 2003.0972768 2143.2418887 2062.7586608 4338.2516037 2634.1007738 2079.7757646 
28481.235198 2651.9265796 1566.8868041 -3291.7417525 -53669.957031 -7315.2609631 37380.715759 -30406.991475 -17232.255924 
-9205.309374 30310.275417 -41309.06427 -43216.629955 443.26727526 1675.8323358 -16037.386141 -4000.2600103 25706.487126 
-21610.805573 -4305.4681859 1791.9971287 1798.2079595 1786.4048156 1883.0276205 1839.3977867 1900.2837653 2175.8887097 
1570.8526557 2184.9839264 2191.4309498 3851.7061351 2639.7161776 -4598.562028 -8740.879875 7250.3537102 12128.928846 
2060.3175038 2026.8757778 2034.0568909 1918.2751009 1901.194178 1691.384717 2284.3215444 3287.149021 2311.4878429 
1881.9570951 2049.1920987 1952.8861703 2228.0057951 713.55276085 2029.9273936 2221.0538355 1758.9012198 1803.4198087 
1818.1554492 1827.6622804 1803.1792244 1880.8691071 1935.5989488 1856.5928331 1789.3709091 1840.2997305 1800.2003594 
1870.3230747 1900.8039051 -10248.249384 1136.5188673 7215.2713486 2235.9382164 1697.9544907 1748.1250183 9241.0466887 
-12871.491391 2630.0413492 490.27967031 5749.4514097 465.03458363 2405.1334822 1782.0655282 1806.4926361 1817.2582339 
1805.7069127 1761.5847093 1890.8470619 1872.5403595 1874.3071231 1876.6431353 1803.2033611 1804.5967349 1900.8705108 
1945.8378234 1958.2752194 934.51497413 1482.4497343 3095.4936993 4210.0193198 11766.29373 1095.2967652 3726.427491 
2152.7819754 2013.7090663 2521.1480172 3208.4922938 1402.4417889 1812.4964634 1808.7049573 1822.0977426 1835.9844595 
1810.8532326 1886.2974189 2106.9926548 1976.1764483 1915.2681115 2219.7385522 2585.8491354 2174.9887628 2005.3808587 
1983.2330424 1957.5607635 2118.4844005 1792.8330825 1963.0726315 2470.4841665 -15214.257789 11581.31062 319.73021065 
-3487.1328734 4235.8063945 1772.6139391 15982.674398 1778.2486526 -3505.6208374 2750.7038479 2655.2587329 2296.326648 
3085.9058133 2118.073824 3030.7294516 2470.7219938 3150.8179747 2398.1291863 2519.2796263 2121.0679945 3265.969881 
2047.3795957 2489.9816274 2881.389727 2929.2541085 2192.2211209 3344.8824274 2318.1626479 2485.0296801 6172.1903455 
2807.4507153 2542.8038179 2915.7271446 2556.2841405 2616.6635866 2991.1028207 2489.60476 2851.5669561 3226.3501868 
2401.2167549 3292.2315024 2296.0094078 2838.1940969 2416.0894887 2972.5295419 2357.9578724 2780.1107986 2647.8896945 
2438.2181353 2029.0341342 3595.4121876 2186.9052406 4864.1582236 -2509.6748794 2314.57118 3489.0125753 1983.9317997 
11283.101792 3618.5503401 4575.9744931 2730.4985446 1968.6475784 2319.0414209 2319.1003447 -54717.757054 -2260.2585074 
-79249.207324 1887.0956675 2004.7800101 1905.2104236 2484.3665422 2732.4469704 2482.6195575 2811.6734652 3049.9793462 
2765.4415879 3199.0321686 3473.4923495 3021.383853 3295.0857108 3700.6374452 3321.1774525 3800.0935207 4005.9994932 
3519.7665986 3908.0936132 2357.6388085 2351.9932248 2421.3441803 2430.3676241 2475.83938 2536.1985824 2355.2573675 
2383.0434054 2447.9303862 2254.6334733 2311.4518431 2393.2682786 2102.5812099 2176.4374921 2271.0545249 2115.663345 
2825.5561604 2573.7388584 2706.5866149 2710.9363734 2792.1943761 2713.4041302 3257.5625629 4166.4458533 3356.637219 
3417.5994682 9272.8907807 5555.7750735 -49039.805722 8287.6047619 34665.934691 42689.084437 1901.7454877 1898.5339995 
2006.9281354 2015.4299723 2120.5058665 2153.6278657 2287.336198 2761.8687085 2455.5369357 6757.7303596 3876.9452793 
2549.8024773 48726.565824 -3002.0225794 -334.24930556 -45313.541719 2758.2871596 2666.2218111 2653.8597794 2879.9517502 
2928.9222986 2634.2306526 2605.9077247 2528.3371054 2629.9491374 2836.054711 2821.4214077 2654.2615452 2855.8411432 
2806.0965201 2441.2030518 2543.7313423 2630.3345208 2622.4914353 2537.0028387 2460.4372904 2535.9221937 2517.37369 
2529.9652889 2689.3484503 2767.9508424 2754.9460757 2844.9818698 2715.0461744 2821.646032 2195.0824332 2099.4193758 
2160.3454963 2259.6180574 2156.4198226 2236.4754756 2288.955916 2382.1427639 2305.2881831 2365.4687276 2353.7800415 
2424.4418332 2469.0108773 3028.6149858 2876.1775829 2886.8707462 3397.6255974 3381.6438391 3020.1087779 2951.5387483 
2967.9337388 3216.4129073 3178.2689594 3075.6002215 3019.6572898 2954.9518728 -8396.8146926 1098.7775635 1594.7266011 
3675.3587989 3319.1512424 1733.2283031 2790.044235 2318.6779176 4148.0666871 3132.5155162 2968.4733441 2952.1494464 
2526.4095614 2938.5236306 3148.2788386 2925.2272154 3205.7452991 2966.3734199 2958.10296 2501.0038917 2515.5375944 
2433.1630253 2378.6880595 2454.0452127 2475.2734837 3130.3878592 3039.9945776 3171.6848396 3740.3523235 3049.2933824 
2879.9131385 2194.6975718 2520.6055046 2309.3769657 2279.670486 2416.513057 2446.3502301 2413.9052512 2054.6834509 
3388.7804341 8422.9495277 2876.6080966 2675.9312752 2338.8506225 3181.9620667 3293.0440337 2503.2273564 3069.6549596 
2527.3846093 3283.7999861 2497.78553 2126.0104465 3168.5253942 4771.4386018 2854.1109441 2482.0165383 2217.4452369 
3041.7055388 3359.7586904 2350.9638154 2878.394667 3607.4286635 2873.3233773 2610.4554348 3137.3743113 2907.0450027 
2676.9211411 3078.9767199 2608.8893024 3236.3081269 2407.0442614 3161.7337424 3449.4378715 2276.4718322 2867.2896578 
2457.2005358 3165.5006598 2924.5384125 2627.515625 2422.3962653 2026.1401925 2946.7166216 2209.3089833 10112.02733 
3516.8378914 3033.8558218 2305.8364233 2001.2832098 3344.9618731 8085.1115649 2647.7653575 4270.266097 3471.4792847 
1921.4656914 2253.6564208 2296.5258067 -43717.897896 2592.9882525 -62508.453855 2030.0753814 1891.4919627 1913.3080906 
2303.3241872 2383.2199772 2382.9090326 2393.851826 2394.4439455 2494.4005682 2381.428246 2357.1866194 2472.2153808 
2336.1718169 2294.605677 2402.7267933 2179.0632515 2119.3391804 2313.6291102 2129.5611566 1887.6309897 1921.3635059 
1995.529893 2031.0340343 2059.3727382 2107.7406021 2165.5401976 2424.8338237 2289.3842251 2859.1238149 3413.5610509 
2491.3422474 6801.3797039 11779.385092 2950.4021728 -563.60915977 2840.5426641 2880.7974188 2945.3655762 2880.1229668 
2766.3315468 2871.3547781 4249.839117 2917.7581319 3087.7072435 -13998.818224 50.021198887 4966.6548253 7351.2478156 
-10860.453912 14233.122527 45859.122192 2704.7101264 2454.1247376 2433.8496172 2963.9853844 2742.8483107 2738.0880152 
3294.7369059 3029.4392102 3007.3484949 3612.9944797 3431.7355193 3280.4526712 3665.6346593 3568.9679668 3482.2490757 
3744.7056774 2771.3099859 2758.864725 2849.7675009 3024.2937438 3005.4193534 2682.2093726 2743.4637421 2791.3313181 
2606.8853893 3030.0364611 3042.3572589 3140.264052 2976.5339728 2809.8854364 2882.123967 3079.4953726 2548.347838 
2660.4730445 2609.6024987 2529.0035345 2437.2739581 2858.9629553 2756.532543 2740.897308 2717.7172144 2545.4096087 
2543.0856938 2780.61191 2862.6915369 2209.7040764 2082.7486237 2226.5742384 2171.3910536 2305.2131285 2455.7863613 
2384.8206358 2279.0707759 2416.5924515 2412.5550186 2358.1930314 2472.2738726 2500.704289 2960.2733824 3074.9750017 
3136.9479462 3388.3470918 3404.9448518 3221.0767296 3088.1408355 3111.4872662 3164.4210279 3201.8494844 3201.5281148 
3158.748507 3233.1094203 3469.9146054 6544.1483613 1804.153503 4283.2114958 3931.0754455 2981.5678511 2987.1146426 
3096.6227807 3323.8205452 3430.0180743 3569.6144798 3214.4899674 2898.2682569 2558.487618 2528.1957643 2466.2806531 
2425.5146729 2485.5058728 2553.6351012 3157.1361205 2967.5106334 2971.8981922 3021.8625611 3217.3999355 2993.3639361 
2591.0388542 2366.2320762 2419.8183794 2735.650559 2734.0733256 2721.5467174 3350.358078 3280.9001098 3179.2361766 
3305.6691227 3229.9535674 3281.9997695 2388.7563723 2074.9697928 3454.3278779 6940.0970708 2372.8148161 2430.0685788 
2218.1902301 2409.0825425 2266.530342 2349.1066877 2373.7897032 2372.6125179 2129.2000901 2405.952755 2094.8963444 
2299.3527458 2157.4322619 2531.5935958 2425.5827066 2078.7801715 2407.5247405 2499.1288148 2275.8202096 2064.9919083 
2335.5154071 2403.1410523 2353.6971177 2394.8437338 2286.9255215 2414.0419422 2384.4597665 2317.8395428 2262.6068989 
2383.3296651 2292.2306348 2363.5141412 2005.7943224 2391.3231616 2373.0296174 2304.7592702 2225.5666408 2318.6196671 
2003.5047836 2431.0999723 2387.6945505 2301.6213315 2228.3291856 2189.5314248 2034.2828531 2290.1389562 2284.1764727 
2014.6511703 2055.0234485 1228.501812 1706.876854 2265.9065461 2203.9485684 1778.7434006 1440.9614213 1915.014373 
1908.2259495 2050.8135006 1954.3144679 2116.7952043 1927.3360342 2402.5770137 2326.777963 2338.9434978 2424.8980634 
2385.1489608 2472.275663 2352.0332975 2410.27128 2406.3794728 2310.6318338 2344.9197674 2375.7764557 2176.1452877 
2244.9277981 2354.2537234 2181.3096656 1245.9319965 1337.8449024 2521.4206555 1590.7540025 1611.2744444 2363.5784146 
1353.8545964 1353.8545964 2376.6304108 1517.9380359 1583.5763178 2412.2807332 1389.4167536 1389.4167536 2435.3592881 
2290.1366382 1894.7698454 1894.410416 2024.6394847 1931.0363391 1920.4314581 2062.419434 1906.2839559 1896.8762409 
2054.8536388 1928.6787807 1933.7456057 2025.4468058 1920.7633208 1928.3105952 2055.7699824 2036.7924885 2409.0559301 
2398.2082136 2379.3221421 2470.0672136 2415.8406257 2523.739647 2416.2683411 2351.8108047 2467.3737645 2326.9812686 
2241.2278422 2353.2400123 2218.3171552 2121.4856966 2276.3078757 2099.4745354 2444.9151797 2405.2771616 2502.5976693 
2425.4032257 2418.7490829 2357.7606546 2458.6075288 2396.4729327 2360.2071035 2412.6116143 2485.6457898 2374.1103778 
2376.666671 2386.9173244 2365.4728106 2284.6458108 2495.1611476 2481.7165424 2378.9863441 2445.158457 2527.7513485 
2445.905704 2413.1810344 2408.7384581 2472.4299561 2458.1160872 2454.5322056 2463.6036871 2452.4879306 2188.2580753 
2184.5643065 2036.4827461 2183.6291993 2212.2026417 2174.581509 2252.3245653 2205.9293122 2283.0996237 2289.6874579 
2268.6227617 2313.2852007 2349.4217092 2411.2791754 2364.0491414 2464.4746532 2348.2907715 2236.8558832 2434.0409187 
2396.6656033 2417.8498625 2405.8948402 2435.4630257 2440.3998949 2442.1575668 2395.845843 2264.3721962 2254.4521223 
2232.2475924 2111.4339477 2236.0333314 2213.9761449 2200.201568 2235.6068655 2361.9805877 2384.6610888 2336.7985927 
2364.7628073 2267.5682965 2360.3318503 2298.7188972 2380.2017728 2352.0925627 2451.7145102 2421.033424 2423.3515134 
2382.7716982 2391.8166472 2332.2011923 2330.9807755 2380.8484251 2419.6153349 2394.8276482 2437.5285733 2350.5526097 
2302.9399427 2427.5164388 2158.8762976 2206.3716374 2127.1441178 2132.4407672 2197.6219947 2216.0249038 2513.5994747 
2066.7855548 2271.2358211 2120.6311791 3169.0514506 2093.9835825 2149.1834373 7995.2737287 6286.0450664 2989.0981129 
2095.9853513 6047.3412699 3047.1091184 1961.2921018 2175.4585123 20126.724047 8992.4212569 1449.6552953 2327.8828453 
-3195.551421 2516.7521649 3949.8368559 1768.4620179 1965.3577342 13335.151811 2727.3454607 2432.2083617 5631.1908502 
3531.4694472 2244.7815512 3899.0740797 2718.9791529 5590.7159643 3096.3975022 27867.086262 2251.8633434 3036.2151869 
2392.753525 2136.0682431 9194.4405089 3823.062063 4879.7626277 2199.7099572 1935.4295954 2190.7158922 2096.5793774 
833.95456553 19330.197571 -5089.2982492 1535.5055193 10491.503974 1978.109156 10406.129666 4726.1069533 4687.7184866 
1588.0436428 4447.4680068 2089.5176448 4499.7816796 -42479.491841 47709.009724 33164.654673 54414.193848 -26528.055171 
34550.824182 -5703.7041332 58050.419039 74415.593577 -43436.561278 -13485.971243 15084.041662 56710.169351 -18607.11683 
-7526.3663472 27845.815385 54555.917045 12209.409079 -53110.405371 25865.223088 14868.477156 46721.214275 2194.9454614 
2157.9254314 1425.5845937 2357.7497962 2695.764187 2055.0870236 3291.0957865 4786.2367555 2447.1973525 6421.4932605 
10845.711004 1477.7979131 43079.241831 67499.487174 -33701.945545 -66091.840122 4936.6178183 4140.5396136 1935.7144497 
4443.8720336 4330.5321884 1685.504483 5638.4922593 4466.6430897 2087.2839584 4604.0853147 4608.0406451 1979.8018756 
3673.479051 4064.7239782 1968.6593171 2032.3757921 1813.4914777 2389.1507118 1312.0562757 2367.5460506 2251.0064697 
1786.2852641 5463.3870827 3099.730455 2713.1009111 24700.700801 7402.722832 3703.7682645 61344.781714 16860.322195 
-10579.94624 -59582.056378 2536.2429455 2353.847731 2898.7872159 3710.3828099 3551.2392112 2395.1372282 2732.5003981 
2894.0190675 2549.7239743 4037.3239985 4209.8037655 4805.588781 3890.9372196 3181.1950435 3419.4678406 4526.6752408 
2008.7355807 1765.3363749 1594.9355136 1607.6626919 2114.7592009 2188.4628673 1746.9108396 1547.60906 2400.6429543 
2154.5584812 2119.7599435 2267.293747 2552.6507572 2415.3830759 2156.5509145 2104.6615034 2348.4481191 2352.1615216 
2450.3819278 2624.3527936 2343.7377458 1965.5120575 2070.6024085 1991.9032302 2173.2470456 1950.6387857 -59437.372683 
9082.8920057 6495.2091837 5711.4063351 36850.300722 6795.9567316 10195.32774 10796.369556 6633.3360903 4471.6710267 
7159.2180967 7466.9747005 8965.7271918 12991.055785 16483.214227 10200.126682 17752.074059 11955.557072 3961.263257 
4943.5250941 2301.7982859 6366.6429656 12107.553717 8183.0812995 5005.426043 3769.0260305 3069.5376006 2659.1053325 
2574.4476226 3417.9542723 3345.3551565 2915.7657355 2116.2124695 1728.9127187 2035.3370225 1437.7677361 2071.1596246 
1977.6651293 22735.088203 18216.115506 7114.384496 4570.2668925 102.14311403 3215.8085059 2997.2629762 2427.9778458 
3237.985467 2865.4533692 2831.8193267 3196.7711472 2046.8173123 1713.3795321 21769.822113 8764.3674875 -3427.8847147 
-2874.8335409 -4417.3573117 -2831.4389251 -4341.7156777 -2736.8954037 -3533.6581095 -4384.0787808 -3463.6465792 -2728.3356596 
-5481.0119317 -2669.3612748 -3637.2383604 -3168.7883866 -2715.8541574 -3095.3711433 -5922.3514716 -2688.94144 -4124.5294847 
-4782.016095 -3855.859996 -3074.3713775 -3697.1249178 -3258.6746122 -3932.4040191 -3258.0828214 -2971.1063305 -3844.1317862 
-3744.7882247 -2525.9158105 -3619.0392857 -3464.2191327 -6167.4465908 -2767.1339229 -4104.6702009 -3212.3768229 -4700.0724201 
-2773.5158734 -2853.2473462 -2564.1119704 -6962.8292798 -4898.0720124 -2511.5214154 -4217.3537346 -7162.0476456 -2508.0212789 
-2451.3862311 -6841.4678594 -5540.5826982 -6450.5107513 -8402.0968311 -8407.8675368 -2083.3011571 -2584.1642031 -1565.0117088 
-6103.1482102 -6249.8159639 -5021.9405369 -2497.9031654 -1981.5101991 -1540.1363643 -2713.3272162 -2915.1921161 -2670.0138936 
-3042.1523207 -3215.0007104 -2944.946888 -3440.2499571 -3686.8401649 -3354.1168575 -3957.7079623 -4460.4784426 -3779.7058205 
-4705.0782764 -5254.041647 -4283.087789 -5539.4665153 -8163.5110269 -8386.1662597 -7603.1398865 -7526.9741463 -8264.3877138 
-6522.5658279 -6161.8559547 -5754.3342089 -7097.5369293 -5351.2348282 -6423.6189081 -4902.9350475 -9788.2864767 -12612.27251 
-3639.8322883 -2155.1067042 -2828.2871584 -2662.7466362 -2617.783008 -3158.3386832 -2972.5735213 -2906.8975804 -3536.3537384 
-3371.6435596 -3296.3810648 -4024.4646124 -3864.5759708 -3673.6898987 -4407.7618671 -4347.9187659 -3969.5895185 -6043.8953009 
-1410.3053741 -1410.3053741 -2784.7260728 -1637.178851 -1580.4310505 -2647.1981938 -1958.1647609 -1345.6654832 -2626.6274952 
-1640.0500134 -2015.9124927 -2442.9217577 -1217.6732657 -1180.1289366 -2600.1347892 -2537.419114 -3266.3912187 -3085.3853445 
-3244.7972861 -2988.8681397 -3105.3072034 -3348.6160705 -3567.6894221 -3631.8214018 -3703.6068541 -3108.9106431 -3283.6755058 
-3432.2259482 -3419.9190281 -3634.1510071 -3684.6397708 -3691.9930222 -2855.1035368 -2653.852676 -2756.9636765 -2664.949229 
-2657.1749606 -2986.5722485 -3214.7867437 -2963.7740517 -2610.6607595 -2836.1316399 -2725.9203989 -2913.0813568 -2919.2992448 
-5285.9577078 -5907.5205533 -5239.683541 -4995.1296129 -4760.443198 -4076.4660032 -4938.5313022 -4483.4833442 -3876.27775 
-4306.4369574 -4335.614598 -3492.3063346 -3893.0895032 -2661.6029919 -2813.5155798 -2717.4430254 -2655.3851535 -2590.6274987 
-3204.7285753 -2962.2457586 -2942.5847403 -2901.825216 -2768.5492307 -2698.2699224 -3083.2645344 -3176.1435298 -4121.7284123 
-3954.6563151 -3562.0646217 -3020.8606961 -2293.9757411 -5142.8789496 -4288.8836223 -5059.3128549 -4025.5463322 -3853.3325165 
-3958.678389 -4027.8242901 -4283.0251589 -2573.5024923 -2623.8776894 -2705.1399905 -2850.3739801 -2661.3866868 -2877.113054 
-3400.1123865 -3318.7031654 -3491.3806599 -3754.2857774 -3736.8057416 -3243.284581 -4428.0575259 -5738.8664893 -6226.7125593 
-5139.511434 -3736.4000793 -3779.8502789 -3468.0231737 -3252.32019 -3279.8036916 -3491.8922019 -3734.1139735 -3329.7846618 
-2662.6251865 -5556.7782405 -2609.8830181 -4974.0893826 -1899.5702191 -3093.0622957 290.48601951 -2479.5424254 -2853.7058869 
-1003.5954313 -710.91218367 -3072.9464251 -4039.6199177 1046.360466 7142.1384827 -1647.1797004 -2781.2117503 -2874.734074 
-3059.279023 1355.9365253 -3518.1181497 171.08518651 1047.6284387 -1033.4979814 -2432.3549445 -2915.0088768 -2157.0340054 
-3465.2185108 -2628.0293106 -2594.1085549 -2153.5450489 -963.76885838 -2882.9983822 -5415.7327121 -3532.2543014 -2960.0344323 
1310.4961996 -8045.7928721 -98.468320581 -131.6066027 -3220.4378482 -4071.1204499 2163.7512662 1510.9252699 -2102.3213576 
-2521.2664884 -1302.7527834 -1721.3079345 -370.44070779 -181.10704693 -3217.0036285 715.47216181 6691.4949265 -3294.2662739 
-2923.0043155 1046.5821387 809.16449147 -2755.5034787 -3035.2855106 -376.91199085 -1481.3080606 -3283.4254024 -3544.2896711 
-2458.9426232 -2912.9625797 765.93808247 467.04770794 -2944.1926795 -4197.1708721 -2977.2662532 1805.0660813 -2420.2730034 
-5087.1447818 232.55571659 6268.7688831 -3636.7974933 -613.57867819 -2722.1088027 -1776.3048032 -2222.7834141 -3235.3093354 
-270.19034996 -332.44927716 -2551.2715574 1520.3725285 19190.605455 -3027.9926341 -2762.7810065 -3078.5836094 -822.8681708 
-2160.7067922 -1234.2733415 -5099.0862465 -2980.328506 1139.8173427 -3908.4889008 -1952.1954207 -4191.9129155 -2618.7187142 
-7177.2508753 -2401.067837 -3229.9597542 -2144.7022438 1543.518873 -964.25840823 -2929.9369263 -1486.5242986 1801.0118164 
1208.4775071 -3439.628139 -2907.5268798 -2036.5639871 91855.784427 -51821.669711 23267.077982 1645.5243394 1662.6343421 
1535.6787445 -8186.8207271 -6955.9335646 -9616.1188154 -2634.5844412 -2229.4861126 -2683.9805057 1624.8195411 1654.2145157 
1519.8900946 1621.4705083 1742.184977 1534.9680956 1611.7641322 1458.0256483 1808.4884761 1426.5052363 -7697.3599205 
3059.5585849 3588.8024601 -136051.40475 16242.074086 37747.323406 -2969.0557889 -2798.6774908 -2800.0729552 -3337.473909 
-3111.6700992 -3055.4507228 -3820.1170596 -3523.4082123 -3341.202033 -4522.2808426 -4366.6743273 -3866.3597638 -5483.1939799 
-5161.9818292 -4227.8959732 -5890.8925256 1136.7410212 1317.3166078 1346.1503151 667.50475119 921.57093677 962.80210332 
121.46447216 417.98910487 503.58361407 -514.4487707 -162.88656113 -47.843639706 -1114.0507875 -767.9006152 -671.28960078 
-1661.0162344 -1333.6497969 -1252.2400892 -2137.4626141 -1894.7003277 -1758.8725949 -2545.7624718 -2335.093278 -2192.2039937 
-2842.784903 -2726.3611934 -2637.1818489 -2956.3190675 -2915.0296612 -2905.1637619 -2987.0463695 -3019.5622579 -2966.6828203 
-2953.0454512 -2982.6688864 -2885.080846 -2704.547265 -2894.5736904 -2801.9281592 76745.879489 68859.623766 -72379.921085 
12405.056916 18757.64749 -57666.711619 -971.57840659 10219.543784 2176.6108998 -1040.5125674 699.73422728 -3917.3940128 
-2266.2228445 -2260.1762274 -2114.105512 -3604.7000985 -4319.5612709 -3055.8265956 -5021.3191915 -5546.3589669 -4149.7569821 
-5682.4177507 -9338.5914574 -5274.8636219 -4569.5082648 -7570.8546151 -3264.0905179 -3547.6282021 -5186.2147864 -1470.3368512 
-5700.4494212 -5890.7434367 -5696.4268044 -3094.9636156 -2838.7923416 -6964.5298412 -7290.4674389 -4839.1406061 -6675.4031159 
-1748.6445021 -2054.0957656 -2036.0545722 -1522.2509585 -1709.5035186 -1794.7526478 -1935.3922441 -2056.9902562 -1658.6702881 
-2184.4987815 -3029.5913417 -2913.4392207 -3003.8857212 -3016.7584699 -2986.8509251 -3128.2280028 -3365.5784272 -3333.5205958 
-3104.74014 -3073.4719617 -3273.0577587 -3195.7524595 -51.797180518 -227.34378733 -288.76573946 -656.92749902 662.19078625 
-101.14937986 -364.89984074 204.24314845 173.01576805 279.23149516 539.3034497 594.36270265 1654.6352726 679.12336094 
-2504.0684554 -2662.3191084 -2629.5743796 -2421.6432552 -2521.8280892 -2306.3184102 -2479.150093 -2320.0989571 -1996.459991 
-2235.2374021 -2637.7284053 -2244.998241 -2590.7513095 -2612.8971286 -2541.6812633 -2978.1761466 -2552.9459158 -2822.5568421 
-2854.1775583 -2780.3530133 -3009.8052868 -2629.0507561 -2979.6846302 -2989.4546242 -1394.6360686 -1060.9592088 -1641.0963889 
-2059.5832008 -497.56339134 -1029.2163168 -256.37547246 -552.89005226 -872.30252419 -1422.7044692 -1377.7947777 -1854.35072 
174.38165735 -838.11001991 -519.68520965 -1079.8581364 -970.20215875 -440.4272376 -750.18597997 -365.97285023 -212.32344732 
-479.7555311 -1006.2515594 -1005.163637 -1272.2346885 -327.94859619 -3000.89067 -2953.9199395 -2926.1572945 -2988.1157536 
-3006.1593589 -3105.7302808 -3008.8437336 -3182.6728487 -3228.8426986 -3115.1293853 -3112.2269697 -3104.8332159 -3256.3188856 
-4529.4074165 -6604.4724734 -4497.9792433 -5692.7137184 -4097.9693939 -3636.2109759 -3989.0160621 -4435.022689 -3438.5110175 
-3930.6605854 -3616.2195034 -3192.2803374 1197.7012205 1358.7838313 1407.0695502 1208.6286975 1039.3878521 1270.4151773 
1133.3354584 1343.38753 872.97017191 548.58841001 815.46135762 915.15887403 1138.8390536 31607.624065 87983.874364 
-4115.8039644 22793.173556 16113.406609 8717.5424927 2976.9759732 4547.8972573 11455.900389 -2478.8519068 571.39553763 
725.44500589 1960.5883727 -1855.7923139 -1954.5112049 -1674.7261125 -1880.6057613 -1479.5646879 -1556.6072843 -1455.1014926 
-1522.4961624 -1351.5478485 -1796.3189136 -1977.7692325 -2708.9990236 -2382.6688623 -2433.0247722 -3000.0105664 -2061.1496173 
-2674.2514723 -2941.8911282 -2737.3419741 -3182.5457176 -3767.3719586 -2778.4577079 -2790.1819376 -2680.0873478 -2793.5209306 
-2928.8029728 -2944.7203557 -2881.7482171 -2921.2741049 -2895.2394675 -2959.9093355 -2354.0157905 -2854.4609736 -1797.6872399 
-2613.4010983 -3020.2048005 -3198.6937228 -3529.837843 -3168.8938939 -2995.2316293 -3028.6908565 -2601.9148695 -3547.9681732 
1914.5791011 1663.1069773 1265.0999129 1571.9643237 1293.325158 1401.7573361 955.81591271 -3362.1670237 -3583.8544943 
-3349.7317541 -3722.7013329 -3520.7801318 -3394.5712663 7.7164267007 309.49204254 -42.504548575 -97.619697875 191.62424007 
451.60758158 794.11631659 1079.7457206 -597.91724952 341.73212843 4145.5379288 -9318.2819252 -1189.9921456 -767.89593441 
-1337.170766 -1339.4974913 -1313.8079703 -926.07842648 -741.37773732 -582.2443782 -554.63376653 -2233.721378 -2492.3883099 
-2295.5424354 -2095.4427273 -2427.5497736 -2599.8160647 -2372.9308376 -2647.2640261 -2966.4305898 -2825.4602348 -2817.4945556 
-2731.0406285 -2293.3420271 -2071.5178494 -2374.2997348 -2251.0998212 -2076.5365263 -3867.6894576 -3861.1707936 -3776.4725421 
-3706.3717227 -2751.5066877 -2528.4634916 -2735.0997921 -3119.940157 1462.081941 -54335.369913 -2031.9019814 -3312.7759618 
59.437186906 -2565.5650402 -2957.7035698 -1789.1595648 -797.58539628 -3088.1914322 -3626.6367016 990.08211218 2604.5456145 
-1709.3938323 -2596.6571133 -3384.0528519 -2896.8860882 1235.5247012 -3479.0275544 107.78528805 -391.20677211 -1241.1623693 
-2566.0608936 -2992.7773399 -2189.9394423 -3850.0049102 -2644.8475809 -3223.0176968 -2824.2363452 -1009.4718154 -2833.2836759 
-3794.2214741 -3556.1926685 -2954.0357517 1289.5826642 -633.39389524 -758.94590659 -241.88652019 -3195.8419988 -3801.0341157 
2262.8929926 1448.3820049 -2215.3651126 -2606.6260247 -1393.1458147 -1909.7551506 -431.40946287 -2376.4979015 -3286.6083711 
661.17801435 -3596.0043874 -3405.7821434 -2906.5284037 607.72168395 721.41159803 -3169.5113132 -3085.3447184 -660.71211458 
-1508.1003552 -2856.3353052 -3539.4766518 -2865.5551437 -3082.4537206 41.985148349 376.78518895 -3012.9996713 -2891.3961899 
1645.3312758 -2410.1898338 -3795.6555973 155.8867405 145.09861896 -3495.5180049 -3091.5882645 -752.90685943 -2722.3100891 
-3311.6064572 -1876.4865939 -2296.3735345 -3263.2021352 -330.88823432 -1388.3439247 -2829.2275804 1513.5394516 3139.0630507 
-2738.1599452 -3255.3999623 -1271.4846881 -2345.4082773 -1292.060975 -2937.9741018 -4011.5226063 1074.5203179 5398.8442198 
-1953.0379229 -1828.5048806 -2606.6695781 -3788.7684438 -2972.4843631 -2441.5581018 -2261.3978164 1519.5511038 993.32998392 
-2727.0198904 -3139.969048 -1618.376978 1176.4302405 1091.6593518 -3502.6397451 -2829.8765575 -2101.5558233 -13367.983315 
37276.033277 31554.440895 1656.572324 1668.1124758 1497.3784328 -4750.1644486 -6001.2711333 -6228.3553584 -2177.1859578 
-2606.281419 -2600.1828444 1677.0867998 1628.4184152 1530.5815238 1606.153348 1595.5468869 1478.8006967 1420.9017288 
1662.3999073 1606.4016233 -2411.5311688 1366.4539102 2587.1177704 -80996.188126 -15452.484088 12826.839581 82113.018905 
-2738.8897437 -2921.3129265 -2775.3751237 -3027.2623652 -3246.4560269 -3042.9155002 -3344.8055948 -3711.7836502 -3301.6224303 
-3843.7104516 -4231.7233641 -3644.5892344 -4329.2608456 -4962.4559242 -3923.3811995 -4417.2321715 1265.9641634 1028.5324043 
1333.4979444 833.50481074 556.36590637 900.37163229 323.32087032 21.677634078 419.1513785 -245.43646931 -583.18031246 
-143.42984512 -832.72154465 -1149.2015914 -727.29065669 -1369.553807 -1655.8610004 -1285.8525075 -1863.7016671 -2104.71566 
-1765.4560029 -2329.1282325 -2503.4057034 -2219.3278081 -2653.2417182 -2761.8421429 -2608.5419376 -2812.9439067 -2861.4476745 
-2853.2101347 -2881.0037627 -2865.6860004 -2960.8231395 -2947.3198418 -2986.7162274 -2783.5766096 -2910.1187145 -2664.8999744 
-2792.7917645 72587.427717 -11852.407639 -52627.234006 15750.825914 -28580.264949 -10286.839141 2844.392241 -10338.480761 
-1591.5980191 5882.9737803 1880.8301842 -840.88661752 -4451.9929358 -3633.3919631 -2517.4088873 -2505.9482987 -2013.2889959 
-2640.1745836 -2250.8254039 -1817.2229395 -1178.7758899 -6846.6825171 -9468.3203751 -3632.6429884 -7235.4890399 -6992.1792566 
-2508.0612532 -5657.384931 -6206.4152998 -3550.0253591 -6999.9963285 -6320.0840633 -2811.2167741 -5508.3106514 -2028.8559195 
-7101.8556753 -3481.5779203 -6154.9069074 -3110.3209372 -2147.0823342 -2201.8477959 -1904.3478405 -1827.2717453 -1702.5896044 
-2209.4452699 -2037.527884 -1922.9703864 -1765.9606496 -2244.1303154 -3427.0992468 -3417.7238595 -3301.0125159 -3198.941493 
-3167.8517539 -3415.632138 -3430.2658764 -3327.3941743 -3324.1498871 -3139.2821674 -3248.4559159 -3190.036472 -810.18904685 
-356.73826705 -375.25587679 161.00015773 -472.21955264 -389.93923438 -48.945989849 60.252928045 189.34016926 429.85608301 
597.01842138 148.66113315 304.17274527 542.50188877 -2492.3766703 -2635.4262703 -2399.0100493 -2317.4305863 -2137.5627341 
-2832.3269203 -2735.6679571 -2810.5981863 -2660.6372746 -2592.7593701 -2478.6841924 -2298.5243885 -3082.466813 -3070.4898573 
-2843.6896035 -2648.2680524 -3012.6225459 -2856.0844082 -2763.0749727 -2997.4401184 -2707.4191562 -2789.6446604 -2934.9328943 
-2924.2071405 -2626.4939712 -1338.6464908 -2323.5988019 -2071.8673382 -788.58766431 -1726.3227155 -1375.6074699 -1325.8244858 
-1114.1945918 -1683.9097545 -1767.438784 -1926.0918516 -1947.7488592 -605.39412042 -908.67490784 -1049.70871 -1139.0920827 
-498.71783603 -807.12954952 -556.99965007 -559.87440798 -298.03556822 -1097.3816634 -1097.6596754 -1330.0823682 -388.33581158 
-2985.7841729 -2972.0400549 -3001.3526355 -2874.4717177 -2998.6335789 -3114.4026681 -3018.9466695 -3158.6447017 -3247.3378163 
-3136.8577625 -3171.8868972 -3165.8211592 -3272.9628194 -4505.3701702 -4087.0802331 -4411.5428738 -3896.7575957 -4135.0558021 
-3451.4273335 -4082.8319906 -3638.599862 -3539.7430711 -3498.0654575 -3598.5156777 -3339.4789359 1381.7891614 1299.8022441 
1152.7060127 1025.3495242 1194.788746 1227.9087803 1255.7588841 954.32523052 719.7960049 477.52682386 819.76068428 
792.6364378 938.49189507 -726.21072706 14661.24947 4992.3260999 663.52320624 4911.4243316 2098.4365185 2993.3595792 
976.43643031 1432.9214668 -2.7962148675 3447.8781466 1378.4522935 860.15674621 -1791.0020866 -2068.9816485 -1961.4259624 
-1928.6978082 -1654.4843615 -1548.3329823 -1519.4636019 -1408.4167221 -1592.1588305 -1821.851844 -2016.2688354 -2385.2703471 
-2432.2050427 -2525.7074109 -2622.3387939 -2405.0135672 -2692.5692546 -2828.0799392 -2784.2027684 -2095.8761165 -2367.648118 
-3364.0407236 -3567.348077 -4338.4995146 -3825.2236996 -3345.7495778 -3623.3523917 -3369.6530135 -3276.5768073 -3207.3166211 
-3811.2823113 -2811.0830843 -2684.4557426 -2798.5403618 -2664.0132546 -2828.6011723 -2990.6759711 -2946.9520472 -2877.3716885 
-3015.9169942 -2947.9607181 -2880.9373466 -3069.5942112 1436.8679763 1479.6578742 1196.9952597 1230.8741037 1103.3368873 
897.84047013 962.21039458 -3492.753255 -3340.4098844 -3357.7551448 -3461.7072654 -3628.2215431 -3410.9311353 247.56384178 
-64.357154732 -107.39090197 119.63801796 -172.67233476 396.76806003 -301.02215723 -514.26218572 -949.41643004 261.38900655 
-1714.5047338 -1030.4025631 -988.83352366 -1282.2285363 -1417.9063247 -1512.2807005 -1328.6939383 -1570.5304431 -702.69417078 
-1023.5888152 -1009.5518084 -2648.5305694 -2374.0932718 -2225.4808263 -2427.1733423 -2697.8011136 -2549.3307059 -2327.031723 
-2721.3900247 -2853.2431796 -2955.2771597 -3075.041339 -3019.2196973 -3135.6003861 -2921.778889 -2919.760022 -2084.6627139 
-2295.4433057 -2311.7793148 -2427.1439693 -2143.9754248 -1962.8148458 -5087.4932259 -3335.9528279 -3991.6995752 -3332.5291942 
-2535.9630133 -2551.9621375 -3203.9132126 1411.6538448 6420.6919209 -1535.996657 -2955.525946 424.09743793 -2455.7692847 
-2504.5807662 -643.54059872 -532.23893141 -3035.4093856 -2962.072508 1201.7802118 1107.6744669 -1597.9925151 -1639.8341864 
-2989.4541627 -2928.8330164 1298.0404528 -2826.0697575 394.78342323 224.33934713 -740.95362616 -2229.320804 -2791.2535257 
-2192.0975653 -2279.3830798 -2642.1195863 -2769.9779288 -983.51978961 -982.04570404 -2923.0180558 -2865.1971229 -3106.415274 
-2971.1329046 1381.2025388 1437.9787894 -48.442071417 46.572358631 -2928.4888243 -2833.0545339 1511.0601792 1525.1473876 
-2038.4298295 -2093.4105644 -1209.7435035 -1186.2556819 -221.55787579 -370.27654139 -3050.874274 877.01215844 753.97857136 
-2990.151222 -2773.1715475 896.54866461 919.9631028 -2783.1758104 -3069.8340015 -167.8068966 -1569.0820916 -1522.5841674 
-2987.8230927 -3049.4128133 -2965.4304386 541.9491883 642.67243094 -3081.5768507 -2957.3790773 -2920.4867468 1614.2436333 
-2445.2556131 -2566.142033 406.84804787 221.95838794 -2644.0583972 -514.09817994 -2506.7619849 -1670.7418248 -1645.5213234 
-2920.671918 -72.58192289 -209.01152231 -2504.4786104 1604.8698836 1584.9419723 -2759.0759378 -2862.0442421 -2889.3724949 
-559.09976691 -1220.0495685 -999.80427965 -2639.0280003 -2528.4150257 1285.1985249 1166.8312004 -1988.1468715 -2031.5312255 
-2580.0702925 -2475.5007013 -2521.9028114 -2451.1215914 -1876.3215108 1591.1998318 1598.1623675 -2740.1742291 -1207.3173663 
1181.2922021 1238.6542025 -2984.5435299 -2015.4319642 -2101.3061366 1727.5596309 1729.9424995 1575.9774732 1723.5130933 
1714.1848787 1544.5787735 -2626.6711636 -1867.9357697 -1419.8538818 -1832.0570171 -2499.5574761 -1375.2661444 1748.4835375 
1721.281101 1625.8824201 1690.6976228 1701.3025038 1565.5719956 1723.6842672 1745.8248537 1565.9347248 1701.6686939 
1701.6140286 1549.1820664 1726.2064097 1718.6591354 1541.4878262 1612.0107535 1439.280164 1212.1377748 1494.7240926 
1034.9371548 790.68568905 1079.4252758 551.25808944 258.78138288 673.60268279 -62.429301183 -398.77140797 115.58514448 
-802.31263242 -1119.239996 -576.99189324 -1448.6181861 -1713.8925763 -1259.4892983 -1965.6333711 -2213.1610272 -1827.3557552 
-2482.2254741 -2655.3823278 -2320.6354802 -2819.4601522 -2946.4930762 -2741.4705401 -3052.2856548 -3096.0185171 -2982.5468096 
-3112.299805 -3064.7225291 -3120.1636278 -3122.7891924 -3218.7792154 -2930.6795105 -2813.2062447 -3078.7489319 -3135.9122506 
1121.6308015 1328.6150157 1398.9261667 628.7498976 894.30254224 1006.8843536 57.996928669 363.35149773 517.53760121 
-540.5831428 -228.3082972 -73.551094015 -1142.3087557 -858.10369321 -657.82205376 -1664.7001046 -1429.9004054 -1298.6122199 
-2133.5799809 -1909.4659985 -1784.1749004 -2522.215537 -2373.5961494 -2231.0095853 -2784.3926718 -2712.9901657 -2629.2846929 
-2960.1756724 -2935.8371876 -2941.8501495 -2956.8548574 -2988.4926064 -2965.444698 -3060.4697131 -3077.8466007 -2809.7240721 
-2682.9221981 -2977.5495682 -2944.8298848 -1518.5404667 -1545.154311 -2803.973934 -1910.3842001 -1828.6182002 -2800.7484786 
-1646.3690866 -1938.7064445 -2833.106884 -2122.9200994 -1914.9869525 -2677.0301364 -1553.8397698 -1458.6901519 -2614.3147387 
-2689.8530115 -1375.531982 -1446.4337851 -1620.2748995 -1373.976628 -1204.4561496 -1820.973059 -1736.6948165 -1596.6815337 
-1811.0220891 -1438.1637887 -2946.6918415 -2949.8114576 -2864.9250515 -2894.4803679 -2893.8840418 -3096.1707636 -3069.5481042 
-2955.9038955 -3036.3748612 -3115.1075372 -3043.779243 -2976.8541722 192.20841309 -108.49462011 144.81124835 511.11451804 
250.70982452 245.47483223 -68.669423121 353.47103511 539.15705264 694.56188331 695.75085766 943.25992559 733.59188767 
788.12846163 -2281.6545445 -2503.075706 -2316.8315005 -2013.0619958 -2291.1149993 -2700.3310198 -2698.1298681 -2684.7831334 
-2722.1599734 -2432.6759776 -2650.0607993 -2318.1977503 -2676.2395368 -2695.3156927 -2839.3326645 -2699.8651144 -2515.3930008 
-2338.8700914 -2350.9645286 -2530.808298 -2363.5036113 -2096.1674368 -2708.1022914 -2395.5212827 -819.56240834 -518.23095979 
-1127.1735803 -949.46149797 -357.65380541 -131.61388118 -466.58500983 -603.39950624 -304.38462387 -964.97897817 -960.94887228 
-1212.5412384 -312.58277004 -772.39571111 -319.77107887 -762.30288116 -1009.8971096 -214.4776278 -223.34110048 -527.20644256 
-265.11997944 9.3956170937 -915.32859656 -857.87049096 -1133.0566444 -128.92240358 -3008.283667 -3126.6815571 -2869.1569764 
-2878.4923762 -3143.2404799 -3119.9004852 -3139.0617451 -2961.6727223 -2988.3024245 -2871.9721523 -3132.48329 -3074.6413273 
-3136.0415394 -2962.8300332 -2977.3083768 -2799.4651079 -2781.5796795 -3006.8196172 -3035.8478876 -2988.8614646 -2837.854355 
-2895.7390372 -3020.432355 -3046.7966278 -2977.4789022 1451.1276476 1520.0325983 1440.7154929 1257.3527946 1445.4073256 
1354.648941 1412.1566402 1233.775411 1028.4095435 941.77460405 764.10753925 1071.1565603 1091.403429 1305.4251437 
1395.7745486 1497.0729561 1329.9586887 1186.6901772 1369.2686419 1138.7141903 1380.9168375 949.34038305 658.3221197 
843.25709734 1039.370288 1090.6614864 -1859.5787009 -1874.9072624 -1648.9980579 -1857.1365663 -1418.3236279 -1418.4293866 
-1584.6887682 -1383.5201773 -1830.7496639 -2089.893715 -1322.510689 -1619.5134591 -1418.0372362 -1924.9783698 -1645.0331578 
-1921.7157786 -1943.7391947 -1460.6055281 -1463.1490629 -1878.8380568 -2132.2903838 -2949.0457295 -2926.8983519 -2924.8329218 
-2828.5700684 -3173.3170405 -3130.1713082 -3041.1575767 -2885.0426569 -2994.2154774 -3051.2409623 -3053.0130094 -2962.08121 
-3092.8718351 -2896.267559 -2895.9412148 -2900.2542089 -2958.8363368 -2895.1705417 -3088.4878399 -2758.9409802 1437.8403848 
1517.8189761 1270.1389303 1481.1297148 1255.594384 1126.8742307 1129.1526917 -2862.4644165 -2763.7670999 -2884.055913 
-2798.1273294 -3037.0403414 -3124.0022593 243.57240981 537.54306793 162.33127399 87.289415454 422.89076794 653.2100624 
89.835400637 373.58752227 15.720675234 -73.069654463 226.20764025 525.85996453 -1018.2929954 -667.46891047 -964.23800392 
-939.90957131 -618.49745347 -1193.6982362 -440.44967962 -328.83356483 -365.84300111 -2147.2386789 -2432.7753656 -2105.4415094 
-1952.202988 -2185.305018 -2403.7993175 -2007.8493126 -2472.2733476 -2828.6667169 -2726.7219344 -2822.0255057 -2790.7916599 
-2358.5000273 -2126.7726016 -2514.2932788 -2404.4170062 -2086.7884563 -2472.540014 -2185.7076647 -2459.3123535 -2647.3229454 
-2194.0488449 -2555.8419472 -2766.6996532 -2556.4214797 -2754.7120316 -2719.3267981 1505.2233329 1538.116937 -3236.7019298 
-4132.2797821 -3133.8121999 -4133.6017388 -3407.4478009 -8544.5866318 -1419.267659 -8735.6627476 -1148.4234681 -8830.2358596 
-5652.5028661 -2866.6410747 -4350.8786296 -2309.0223057 -1931.9257486 -5993.6892474 -10830.708798 -3837.3732769 418.23940792 
-3048.0609674 -5596.7806906 -2696.018932 -7497.6851998 -7224.2363621 -5389.1982225 -3824.5949128 -5025.4500395 -3408.2431488 
-9868.7917406 -2599.5362284 -2470.8099842 -2927.9299437 -8721.6076024 -7068.2728693 -4701.6775387 609.3251494 -10788.86721 
-2509.5943775 -13843.846678 -29384.363068 -690.43073517 -1792.8082325 -6698.2360086 -5367.9571248 -763.78444511 815.8201191 
-1426.9013801 -8708.5395242 -6121.5593629 -11433.177962 -8966.9806926 -6201.0385224 -11426.564199 -2892.5820214 -1333.9053214 
-6661.2476637 -4698.8387015 -3210.8526359 -1417.538155 -3484.5090416 -2653.6969658 -4825.7246462 -9521.478049 -2557.6852566 
-2504.8410943 -2084.4267541 -21717.679313 -7980.5133128 -7859.9556046 -2113.2354116 2519.6353754 -1217.0850791 -1438.8679044 
-3481.0665212 -3053.2521003 -3468.5070353 151.9797074 458.20026837 -96.779164007 -5277.0516725 -9594.4548967 -19527.229044 
-2978.7048183 -3242.8384373 -12994.797861 -1669.0510454 -4014.3035955 -4660.7148549 -9983.3092678 -9305.6797238 -9511.9940206 
-8721.1202035 -1887.8062381 -6155.1365001 -9720.645319 -2448.9869626 -4760.092379 -4922.3634646 -2581.9325282 -9496.1610877 
-27407.429838 -3433.1943478 -3782.5831345 -10794.434727 -11123.536907 -2784.5853233 -147.26053467 -3293.0614023 -49179.613841 
-82386.786231 -56556.327437 -105795.05686 -11043.569588 9964.3291174 -10321.994943 -9477.7851506 -10344.199523 -5155.4892471 
-0.32103556163 -5949.59901 -10805.865764 -10421.451571 -10877.531713 -10647.532683 -9794.9108497 -10950.009895 -2475.9364374 
-3483.7328458 -4617.0907722 -2821.8663935 -1575.7832971 -1422.7948393 -12884.945656 -7253.4384576 -3467.5423289 -1998.3324203 
-14071.777405 -8167.0622333 27874.994601 -16843.690225 -15163.457498 1924.8266082 -2189.4157376 -14191.811816 -6044.0649949 
-1175.1059385 -3684.866979 -4054.5338965 -3510.3850546 -3258.5312842 -2835.3504461 -5089.5838061 -4573.1304508 -4273.4092677 
-6532.2765146 -5871.2477404 -6108.1536368 -13159.089477 -7895.5890937 -6760.3834504 -5465.6425434 -6284.2222459 -6224.6895462 
-5243.9341683 -7243.4101883 -1877.2446801 -2673.4392056 -6237.9883725 -1459.7339238 -4130.7545996 -2299.5926182 -3400.2117943 
-3748.2396935 -9152.4695867 -10007.016736 -40419.630175 16560.010468 -52238.151319 -21735.311865 -282.52669808 -31726.852394 
3.7473013903 9018.8158955 -4184.587627 4256.7637813 -1543.938259 10971.930127 -5982.9507997 -7122.0394981 -9060.3029003 
-3014.1148301 -3461.6784258 -3792.1628463 -434.48226666 -363.22477868 -1142.3669651 -7280.3844166 -9207.6006955 -1661.5303935 
-2242.5830054 -5671.0812607 -3424.8687632 -4051.0890365 -5800.2182504 -3566.5161391 -7298.450363 -4361.6051158 -2790.3728462 
-4893.5884671 -2538.7953709 -3803.8154503 -2486.9287496 -3719.8700701 -2194.2000289 -68998.784709 7819.6286059 234.19265018 
-67677.876191 -157389.90506 -42521.558037 -28598.611185 -57834.808406 -46977.322785 -9161.5347874 -22700.361179 -75680.570184 
-14783.788597 62021.747581 -41565.893511 -65996.381996 -3189.0955996 -3522.8651715 -5819.0330443 -2054.4335795 -570.05301764 
-1821.8140441 -2272.1713427 -5470.9255312 -3753.5084427 -5113.8621811 -2349.9859168 -2614.7129268 -5898.9675135 -8237.6814 
-3761.250656 -1711.2247379 -4549.8992043 -2642.8749004 -1696.8772579 -5041.9605554 -5904.3880145 -16402.37497 -14511.119347 
-3028.4752826 -192.9988232 944.00708521 -4033.2373339 -7340.6420898 -5117.3679625 -14373.515128 -15965.977303 4254.8932217 
-10419.322938 -33124.831034 -30914.438661 -1777.5567756 -4163.1484835 -4499.7647583 -4170.1318506 -3631.2481027 964.63834959 
-2518.9349644 -1730.3060563 -3909.2843744 -2445.549859 -3617.695186 -3620.3668253 -980.27072374 -2847.8913443 -2917.7793828 
-3346.0858998 -3865.621206 -3849.0430335 -4157.5162941 -1542.0293054 -3642.4629785 -2502.57732 -3584.3575839 -5042.6788577 
-4916.0496951 -10104.598269 -6121.0366679 -7801.3146819 -5691.7965713 -23160.719546 1509.3056366 -8082.8806572 -6827.4943313 
-3863.5356467 -5016.6365723 -7026.1869681 -5082.0278325 7189.7561075 -925.21554393 -2561.8166901 -6324.4728094 -10618.513518 
-2146.3183204 -10917.641808 -1861.7102433 3484.6194884 -4055.0078483 -4852.0904573 -9399.6749572 -6274.5399379 846.83724262 
-3067.4290407 -11735.274968 -9502.4144366 -11857.834414 -1465.7845556 -2087.0332431 -2136.2250535 -4424.3468877 -2399.3255214 
-10665.102558 -547.49020744 -2252.1258565 -146.7445802 -2006.2590079 -2059.0262807 -938.56431092 -3377.8451894 -2479.2541053 
-942.15625393 -999.29803758 1891.9071022 -1579.4899619 -2089.8522911 -2489.9984656 -5010.2740554 -33071.546634 44739.887144 
-31189.610662 -49649.922518 -28844.627813 -60802.869914 7592.6768497 -15500.748834 -6398.1555975 -28494.413198 -9598.4181364 
-9269.8927707 -46230.655062 -30796.642998 -12104.727237 -8261.0226672 2156.4932066 18889.188907 -29276.047468 2804.9043289 
-14868.408182 -23609.146665 -5707.0479911 -7380.6937377 3993.198676 -9664.3827116 -3092.3576702 -1731.2927569 -1513.0094638 
-1214.9711983 -3946.6898088 -4094.7069039 -3651.9690684 -2768.3421548 -1369.8559731 -4133.4378835 -4083.9873201 -4130.7550827 
3549.2481966 -2670.9929769 -3287.7600494 -5013.5348243 -12014.647469 -5564.1754558 -2026.2659825 -6217.8193695 -5215.4614415 
-2676.8281425 -2668.3068253 -3453.6382284 -2474.4943135 -1415.7725315 -1537.1946024 -1280.5807205 -1862.5239596 -2121.0172426 
-773.45155445 -5521.4731585 -5401.3579721 -2001.6187903 -14379.139258 -5242.103977 -4581.415322 -2408.5282673 -919.07441221 
-1331.9830994 -2206.0806792 -40496.847906 26578.168017 -11564.254332 -38281.98176 -10348.455427 11895.199821 -7884.5156578 
-5268.4615404 -18088.516939 -3808.6877719 -2561.8511157 -5936.129289 -977.54415434 -3524.152345 -1308.4910596 -4107.694459 
-2724.473411 -2208.0757818 -7987.9833645 6917.0567119 -13041.646418 -1344.3851905 598.31474736 -5084.6615708 -10590.844654 
5292.0768812 -10195.393704 -17696.188641 4967.1888442 -15672.631289 -5582.398764 -10254.385232 -7314.9399663 -8460.6410237 
-12600.40661 2589.9714012 -989.03977438 6708.1956467 -14633.420135 -856.98899131 -5320.7990364 203.91116486 -3763.3110349 
-6476.9386619 -2279.8110186 -2495.6137881 5766.810584 -6528.3551656 -13678.357766 -6346.0260443 4753.4999258 -6482.2393528 
-7799.6175877 -5174.9849965 -8934.3492129 503.67391869 -6201.5929172 -10734.73156 -3668.4039626 -1913.5708025 -4642.2772563 
-60577.699475 -10156.181502 -10646.269934 -12293.030323 -8693.5064899 -11605.206379 -9635.0095746 -6567.7994745 -16358.94257 
-9535.2261117 -10320.665629 -8942.4355228 -16232.641951 -9108.4836417 -9917.8967061 -9866.9355587 -10404.826133 -14183.446833 
-12243.657542 -10265.658309 -10146.606008 -13651.90341 -9491.6220927 -8277.5222448 -10440.9204 -10071.348614 -10408.886095 
-9140.8887637 -7725.0973462 -9475.6388651 -10201.387495 -9759.8269737 -8109.9122404 -11066.253991 -4103.78181 -11843.736704 
-12814.899471 -10924.764241 -9700.6622144 -41096.569244 -9848.1765432 -22057.187253 -15152.441309 -11802.596316 -9943.3771966 
-9479.4504097 -10288.627209 -9667.9720417 -9732.7916932 -12550.504425 -9945.9852153 -9565.503205 -9974.7380027 -9466.6449095 
5007.9075167 3014.3965452 -59073.014608 -9773.7249924 -9918.8364009 -10050.289367 15238.932408 -11778.066133 -107.11948111 
-28764.053093 -18890.734634 -58129.657777 -6405.7786503 3892.2898526 -12563.004623 -8249.5103003 -934.32660424 -2475.9316952 
-8663.7769024 -10150.708032 -8932.0528075 -8395.8706597 -9652.1221055 -4215.2484856 -8541.0611908 -9476.3089426 -9181.4005011 
-9654.2956609 -9616.8175706 -9626.683862 -10506.603864 -9575.0070086 -9696.1117339 -10048.258645 -9541.3628186 -9413.5410054 
-9763.8977715 -9631.7601038 -9739.0701345 -9962.7195544 -9698.1091904 -36127.170347 -3348.7209063 -20306.597068 -31598.919086 
-7954.073213 -5208.4395157 -7120.8047367 -9061.4767453 -500.63635408 -10129.607136 -10992.56425 -7761.0033973 -10339.67743 
-9319.8671411 -10079.727354 -9522.8727971 -10896.461217 -18301.520178 -37618.391154 -43270.189243 32061.613519 -20022.536417 
72941.762952 -23403.194669 -13028.288832 -8221.8344413 -10447.705988 8372.9664868 -6599.7544097 -11993.92181 -9948.1987719 
-19245.758818 -5580.13731 -2887.9529557 -951.62855761 -5295.2476231 -3012.8704742 -8861.8989532 -1292.6756957 -2431.3872978 
-1191.2895748 -4477.2231976 3039.1856094 -2748.7818394 -536.30817993 -5010.6766411 -10797.53087 -9164.0917193 -1993.4708526 
-30695.512514 -16330.459156 121.06689186 -20038.694512 -14495.592809 -1659.6680062 8950.1413769 -28776.097912 -3409.8152062 
-7653.1280949 -9628.0038316 -12143.909532 -7285.9112103 -9272.120809 -8105.1854158 -10343.258096 -9142.8465876 -9416.9697846 
-10970.230692 -9302.0302238 -5519.8315523 338.83336686 -10071.288907 -4570.9090018 -5878.3655322 -13352.08811 -15605.566843 
-5852.4674948 -18617.925767 -23232.187631 -12725.080342 7862.3978241 -14397.038686 -1961.5354101 -14294.881938 -17076.52346 
-23160.391528 -11074.098021 -9308.7486086 -9135.2496834 -10161.651536 -9446.6180881 -9758.8101378 -9620.8204853 -10380.835669 
-8685.469892 -8886.1285318 -9849.015868 -8175.1664806 -6127.0424059 -3894.0118148 -6213.8009403 5548.2212383 -2377.0991843 
-3375.2777214 -6451.7563578 -7801.2235982 -4816.0789578 -10104.454532 -19960.783085 -63329.601107 -4909.4342843 -4811.1167953 
-10455.696749 -9844.0207402 -9111.4290183 -8871.5600665 -9933.4898455 -3745.7418712 -3902.7891125 -9184.3545149 -9343.207347 
-7994.4976243 -5291.2314726 -7353.1344544 -30269.160296 -19067.067689 -8959.8512416 -9806.4739684 -13585.814709 -11117.044789 
-16961.87031 -10885.516747 -15589.269327 -10125.823652 -13536.255775 -17642.68475 -13478.354297 -10617.272365 -18774.830012 
-9289.6418728 -17912.173794 -12238.678306 -10364.661975 -22535.087925 -12318.07807 -9772.5322907 -14788.773753 -15155.83148 
-19330.043878 -12796.146987 -12090.019693 -14795.908014 -14357.152706 -12708.035857 -11433.783044 -14116.197074 -15074.564353 
-13658.108136 -20954.651724 -8635.1721677 -13513.765106 -12603.272945 -11077.811383 -16842.475579 -15009.871778 -10303.787105 
-10718.83508 -26377.322589 -10949.632275 -10147.423852 -15928.236643 -16782.526112 -25982.269879 -10224.27362 -24036.843376 
-10215.026417 -24345.352332 -20015.453787 -30585.863515 -26462.451476 -10110.553548 -10260.755511 -10180.165902 -26130.047931 
-30236.019923 -22899.222668 -9387.1346442 -11342.589604 -12667.437081 -10659.950309 -11161.117365 -10506.440865 -11857.061771 
-12474.248538 -11262.224735 -13293.689823 -14097.74985 -12912.94352 -14857.632454 -15341.934969 -14663.420736 -16131.735422 
-18693.236055 -16498.695206 -19794.019753 -29734.889095 -31888.56543 -33268.49029 -30010.700527 -28725.69361 -23768.15939 
-23023.895068 -34429.786348 -19891.306674 -29929.118459 -20457.476193 -21710.676242 -32471.742502 -33394.615466 -20449.774602 
-33522.164993 -11044.167328 -10318.945379 -10222.277795 -12606.20301 -11735.969935 -11528.066135 -14082.450992 -13195.236711 
-12921.779188 -15386.969343 -14803.824722 -14698.3706 -16647.593939 -16736.49881 -16066.198792 -20266.67431 -10900.87822 
-10271.180543 -10386.548675 -11112.027143 -10679.434476 -9966.630289 -12080.243579 -10796.161455 -10776.330583 -13033.431196 
-12963.19645 -8081.9308075 -13486.32832 -10662.342286 -8979.5107712 -9924.5800686 -12497.389654 -12918.419324 -13136.874969 
-13745.137148 -13303.08012 -12376.687442 -13576.712638 -13397.093337 -11845.834028 -14207.050027 -14120.766848 -14505.122309 
-15462.182148 -13984.29245 -13861.869116 -15369.748561 -10520.703656 -10926.871891 -11135.152669 -11213.786149 -10684.157069 
-11472.10491 -12509.571433 -11466.648172 -11452.206511 -11112.216453 -10706.88877 -11872.859167 -12709.850964 -20690.784268 
-21560.553557 -20245.81511 -19941.042233 -16738.649676 -17070.295461 -19621.931073 -19849.750955 -13989.169946 -16020.938881 
-17420.77087 -15392.018298 -15164.198416 -10329.936568 -11040.327578 -10065.423651 -8753.6937593 -8598.5739194 -12624.367934 
-11752.049581 -11562.823223 -10755.566262 -10847.958863 -11046.504116 -11273.74065 -11679.042453 -16635.95409 -17559.86036 
-17110.182477 -19359.415648 -22109.614271 -15616.358456 -15374.543984 -15871.529194 -16452.91898 -15383.005726 -18531.541273 
-15978.280755 -14609.045766 -11066.858552 -11229.29021 -10654.092882 -10713.441256 -10055.538112 -11122.849589 -13643.984979 
-12655.362051 -12837.77238 -13982.312306 -14555.691532 -13112.40201 -19280.007005 -19943.845742 -17475.55452 -16597.028513 
-19278.658293 -16641.942508 -12911.952595 -13102.611079 -13665.348725 -14370.165797 -14184.86105 -14419.717117 -10377.712061 
-22167.982654 -10195.761981 -22245.27152 -11055.304049 -9570.409627 -11070.095047 -8871.0276993 -7562.1973872 -11143.18939 
-9884.953242 -11451.963778 -9343.276641 -10643.466194 -14173.919432 -11176.380802 -6176.5046741 -9870.828344 -7050.0821731 
-12718.222219 -11477.407964 -10904.876297 -10645.644796 -11112.56985 -9607.5813769 -9114.4805051 -11351.405782 -6145.2239579 
-9810.3447458 -6293.3823061 -11695.836883 -3772.9508689 -9862.9700098 -12497.93588 -7365.475011 -10105.227307 -14585.697844 
-9095.2496029 -11447.830942 -11933.640526 -13036.66519 -11154.540333 -10319.059599 -9310.9121862 -8862.9964419 -7702.6004752 
-11059.896672 -8494.3376485 -5474.0714655 -10977.286352 -9793.881413 -10599.715374 -10298.058371 -10236.657094 -8164.0741822 
-12835.66315 -9783.2056019 -9576.0265356 -8507.8191773 -11568.298479 -5185.6366561 -10885.145242 -10965.803757 -9687.4142883 
-5091.5860846 -10301.134319 -11212.426116 -7307.9971079 -10534.312026 -11678.775254 -11780.126299 -6591.1437122 -5746.9476263 
-10516.207579 -12535.656672 -8696.4613404 -11139.24614 -8499.149116 -9799.850049 -10717.017805 -9857.6960143 -10423.125346 
-10309.71088 -11462.607946 -9343.2349323 -12186.800969 -10514.943182 -5648.479452 -10741.086448 -11423.84835 -12597.26483 
-5070.5864438 -14433.037311 -10627.790646 -17592.580879 -10731.012846 -6104.0760344 -11590.851759 -9914.6210585 -14095.159392 
-12576.318963 -6659.6430084 -10360.97057 -6603.8828381 -9654.8421884 -7324.2139445 -9154.414242 -9722.709599 -10986.530966 
-8722.0658587 -10248.288662 -11334.098018 -6957.067941 -9930.1984113 -9544.1295383 -9292.0964802 -15672.419821 -37500.723066 
27292.171019 -18234.720868 -13871.942332 -9035.669746 -10296.640423 -9920.1697906 -9861.8430403 -36414.784505 -34641.666419 
7501.186207 -24816.651705 -18795.107334 5095.5936163 -14582.967337 -13623.927078 1640.5928785 -11734.530157 -9763.7399576 
-6803.6183654 -10674.786805 -10481.345999 -8684.8978437 -9841.0767879 -11086.141898 -10586.566268 -10240.097991 -12072.833865 
-11313.439863 -10857.475727 -13322.57276 -12449.820791 -11882.26948 -14575.041214 -13382.608124 -13045.451578 -17054.781759 
-14923.303181 -13870.486142 -16833.317837 -9772.6755783 -8923.0054752 -11530.900565 -9205.1461539 -7531.3830799 -12471.184265 
-8366.4716031 -14501.752347 -16600.867737 -12474.61834 -11838.752552 -16712.329191 -10349.508642 -12383.480481 -11969.813793 
-9906.8996469 -12700.766302 -10804.833048 -12098.571636 -10871.245903 -9279.1882936 -11830.725764 -11560.353837 -9504.534489 
-11580.640352 -11159.478709 -14153.656009 -9845.1097786 -9985.5985054 -13933.465999 -10220.210011 -9755.9993624 -9015.2643714 
-10188.500152 -10162.336059 -10442.729054 -12492.53359 -10470.450056 -12375.856821 -12637.351851 43147.693003 -71724.384621 
-12740.015075 -2049.0940163 -12408.54824 -201.44767776 -1345.0113876 -10062.931423 -2885.428822 17.257392087 -8046.0268629 
-3750.1482636 -997.13230668 -4915.8587677 -5433.8593058 -4184.200728 -5828.4507329 -6417.4045812 -5603.1711916 -6063.1883742 
-7529.8275528 -5708.6507065 -7166.6345054 -10017.809299 -6797.5338074 -5364.8509913 -8190.7757048 -7636.1812579 -5641.4063577 
-10160.564745 -9534.1807326 -8522.2344039 -5522.4624181 -7130.8603589 -9492.9673442 -9579.9610342 -8573.6459043 -10295.405024 
-10233.519929 -13507.348583 -11666.951105 -11811.038912 -11725.023232 -13229.424888 -11706.626417 -4267.2654648 -8096.968186 
-12327.500891 -9497.2853166 -10603.486247 -9880.3169126 -9171.828448 -9072.9914734 -10050.347802 -10724.567593 -9893.4793491 
-9826.3920496 -9232.5978796 -8995.4103046 -9376.5422367 -10313.90409 -9510.1759141 -14062.856116 -11145.022681 -15391.146732 
-12441.720233 -10795.781699 -16903.958037 -8877.233414 -10378.058759 -12013.871161 -8713.0178102 -12237.207369 -10842.684543 
-8044.7336541 -9427.4866811 -9733.8306575 -11968.456318 -8121.1904358 -16278.767891 -15064.767044 -5402.6726226 -11421.520981 
-5375.9030444 -8220.0135718 -13078.992601 -7910.3953355 -7737.3630536 -9174.8099214 -7215.6596784 -7390.0521456 -7820.7853094 
-8135.9525056 -7558.6849074 -7677.9920434 -7012.1139556 -6946.2713088 -6800.730093 -8783.4282306 -10904.627591 -11602.401315 
-11943.398165 -7447.2128024 -9273.61446 -9540.9214334 -8024.1057291 -12328.119827 -12173.152479 -12444.07364 -10980.635011 
-9565.6954622 -6576.7276176 -7149.0223918 -3661.117778 -9174.8088446 -11872.190518 -8867.2392411 -9222.8151405 -13186.119529 
-12413.919166 -7775.0727263 -10956.300042 -4012.0307946 -6558.8816348 -11729.277531 -10822.774123 -13519.423967 -13202.615358 
-11053.624917 -10190.367743 -10726.39541 -12445.878049 -11530.733879 -11988.415857 -10680.991074 -10144.462697 -9198.7945503 
-9218.4313799 -10252.0827 -9811.9292686 -9063.6776602 -8747.2401257 -8908.946745 -10371.534308 -10796.294203 -9968.7675473 
-9503.8654913 -9141.1711002 -10084.173786 -8900.9793254 -10232.307002 -9690.3508145 -10300.321728 -11618.514847 -13482.786439 
-11707.579258 -12934.618295 -9121.3761454 -6765.7407452 -3012.1892055 -8327.874818 -13677.520477 -20475.310448 -15838.275748 
-26714.86071 -3307.6470286 -41889.911216 -10214.560862 -22693.105228 -8932.1349642 -12989.968874 -24811.673883 -6993.7864441 
-7033.963994 1779.209655 -9401.3968632 -13710.318877 -13756.791853 -1343.7005602 -11908.659929 -11135.226663 -8370.7296372 
-11604.476625 -11278.566298 -13535.679789 -6300.2731535 -9063.5358895 -5188.9009509 -7068.7879445 -8432.2933196 -14460.419389 
-6859.9887313 -4364.6182988 -4352.5784917 -6135.6638664 -6573.1766356 -13607.906753 -9164.542535 -12199.221382 -8963.1957289 
-10116.422093 -9318.6534045 -10660.759999 -9867.4721749 -5211.2076118 -8068.4321745 -6513.5730363 -6875.3291099 -6812.0170163 
-7069.9048334 -6540.8834329 -7151.9304546 -7634.4072155 -7026.6708952 -7382.4443993 -7831.8492062 -8465.4208812 -8526.5645103 
-9131.9843829 -13905.460593 -10721.602226 -6688.7217113 -10067.630724 -12479.132448 -16190.270035 -12216.516188 -11115.626206 
-12185.870238 -11408.548007 -10973.765728 -10609.527228 -13234.042777 -11500.362826 -10729.22158 -9469.4799299 -10577.198327 
22604.918544 -21345.315112 -4505.6293465 -10740.501519 -9953.6325726 -9300.8416605 -12961.743429 -12200.46085 -12314.637391 
-11393.801439 -5657.2893921 -11322.690985 -4635.3751789 -5286.3872999 -11151.854781 -11050.089203 -4926.0426027 -9653.7166968 
-6077.0288828 -15509.673088 -6779.4346529 -8890.1582431 -9407.3205172 -7631.6598376 -8549.7258773 -8895.8039783 -8678.2034053 
-9271.4657716 -8408.3971158 -9561.8880607 -9892.4258553 -12877.80338 -11137.110934 -14060.826575 -10801.411437 -10539.431528 
-6813.5854153 -6490.5905565 -6739.6851719 -6851.085878 -6922.6864785 -12291.25153 -5737.4971537 -6317.8919861 14809.497032 
-8417.8883415 -11218.134925 -9619.2826664 -11805.011678 -7926.3843408 -7943.8774597 -11734.116056 -9033.8440007 -8777.8874216 
-11344.714718 -10870.485392 -15155.561819 -11458.248335 -7540.0248348 -7494.157841 -9785.9555765 -11389.071012 -11384.398489 
-10317.838877 -12259.24366 -11109.922534 -9662.1945385 -9392.9186915 -11433.841098 -6997.1572369 -10683.672656 -6603.0033839 
-12096.741815 -4771.7237528 -8246.589294 -12531.083787 -6355.0156632 -9427.3326097 -9663.8570967 -10375.942384 -12418.066025 
-10268.837619 -10918.487181 -12941.573327 -11269.875926 -11084.743731 -10050.976698 -7647.5237584 -10802.000348 -10627.109993 
-7120.7868827 -12039.851223 -9725.4565717 -12300.889215 -11188.441569 -10474.439273 -8491.0521511 -11903.295382 -12360.43106 
-10070.50501 -8374.0303703 -10550.713978 -6338.9863391 -11320.545128 -10949.860514 -10393.230144 -6126.6260584 -11676.590267 
-12011.402295 -6125.0936654 -10121.853715 -13151.13621 -11511.73481 -7945.0255574 -7037.182057 -9068.052242 -12528.375913 
-8799.1268527 -10063.686664 -8679.4757438 -9784.7093992 -11248.259836 -8845.9052997 -10224.239802 -11657.06824 -9629.418927 
-9967.9759834 -12346.964096 -10432.609184 -11249.588022 -4885.7311122 -11645.805054 -11206.306384 -6894.9297024 -9962.8737198 
-14116.187633 -8182.1479004 -10081.665705 -10514.756403 -7773.0957608 -7534.8212778 -15233.857085 -11036.761722 -7159.281442 
-9329.4821563 -13813.646818 -10082.956282 -7650.9909298 -9140.8192672 -11234.638441 -11222.25186 -11352.286146 -10218.895105 
-12483.703747 -7560.477612 -10061.57652 -10403.305845 -9988.885426 -44255.409002 612.7606297 5935.5869955 -16482.053552 
-18487.758626 -11679.962045 -9012.70785 -10070.515859 -8815.8883842 -21015.885061 -21672.597834 9207.6216965 -16996.855395 
-19464.886637 -6234.6227335 -12491.865038 -16440.191425 -9122.3380179 -9944.1351306 -11757.093143 -7173.8482681 -10209.153934 
-11518.398361 -8535.7270275 -10020.046655 53519.175294 -8079.4507331 -43945.99994 10298.196483 -18614.018415 -14842.974658 
-12809.044617 -5008.9345882 -27946.175513 5984.5454815 -12449.424523 -13226.660774 1025.3814102 -3582.2611673 -6307.4586799 
-5933.0813144 -6864.9830422 -8281.0890811 -8665.9702109 -7130.02261 -7634.881005 -8476.30946 -11217.350332 -8337.5392977 
-6377.6803275 -6531.6650084 -4869.2268639 -10309.110047 -11747.858755 -4346.6334745 -8859.8758127 -10093.858513 -5979.2658833 
-7657.5760802 -6509.6835285 -8865.2207253 -6848.71734 -9030.8975308 -7206.8675945 -10203.784201 -10850.874677 -8628.8601555 
-10938.471147 -11876.845204 -10652.653175 -12605.280912 -13493.318051 -11730.475593 -13216.620344 -14494.157161 -12782.591988 
-14885.01342 -15735.638012 -13708.856061 -15162.176977 -9436.8394962 -10067.278015 -10303.241493 -7813.5715204 -9461.9955522 
-12011.226138 -10541.592623 -6939.2018466 -17494.909099 -11640.97731 -10221.550191 -9197.9595309 -12710.583299 -11720.319073 
-9480.8700462 -11321.607368 -12032.622571 -11682.012164 -11061.389751 -12003.998406 -10359.127815 -11492.288156 -10281.481677 
-13031.310356 -11140.01834 -10664.497796 -15300.555449 -9942.3699544 -11199.003973 -12259.410644 -8430.1190859 -8323.7339193 
-9910.3070576 -8269.6940349 -10882.676477 -9411.4776107 -11647.954639 -12178.591909 -14035.25065 -10817.027831 -10536.891073 
-8299.0042374 -14436.187304 -11329.744616 -11976.86836 -15600.284211 -7677.6096801 -3449.7173158 -9766.8283859 -10076.729424 
-10417.132672 -9593.5434387 -9094.9470259 -9290.5343896 -10698.619783 -9863.0918922 -9702.4893496 -10091.88204 -9007.791055 
-9340.1302493 -9447.4379774 -14540.749935 -7241.8652995 -12661.866253 -11906.17798 -13195.218073 -17453.538696 -8556.7450634 
-5045.7037363 -17629.46582 -12569.18721 -11634.316243 -10084.222113 -11773.193198 -11069.717538 -8697.602025 -8200.9695251 
-8266.77684 -8098.9036192 -7307.1172237 -8806.7265474 -8140.7030845 -8116.5026138 -7766.6437168 -7260.5143041 -7589.515369 
-7598.1995403 -9401.9180209 -7246.399704 -10813.351389 -5611.1507156 -12048.37722 -5041.069644 -15535.601719 -17715.525216 
-1609.7670246 -1669.1481815 -9912.1050826 -18914.928152 -7363.0833228 -15767.855217 -11667.114454 -9666.6858015 -12878.800955 
-11539.529844 -13679.263324 -12940.294291 -10877.920881 -7192.8138608 -11259.083461 -10498.319611 -15843.62398 -4691.6810751 
-9648.9347244 -6620.0213037 -537.06515995 -9447.645685 -16611.261784 -2212.5293707 -12760.93799 -6931.9138129 -9807.0880871 
-20445.179418 -2817.1925523 -1973.9846822 -7955.0480643 -8715.9956615 -9496.3771705 -9250.9665655 -7301.3583308 -8564.7817138 
-7540.2635306 -9788.8868037 -10620.583816 -9651.0336465 -9040.9177666 -9431.3312716 -9920.9016476 -10507.788725 -11542.401766 
-13373.978699 -13336.7698 -10410.594024 -10526.533363 -8829.1496169 -11864.6466 -11244.824839 -12219.880074 -10985.456534 
-10408.832747 -10802.433398 -10420.658889 -9711.5891913 -10901.906504 -10610.504071 -15455.289126 -6491.6386939 -16189.98644 
-10540.545633 -16048.391742 -11570.70703 -11433.047403 -10728.593563 -16506.466585 -8920.7431839 -41863.669538 -11015.955625 
-27971.958944 -6315.1769742 -11555.239251 -4660.9775051 -1017.0942388 -25527.638372 -12604.504785 -12912.191405 -11694.189841 
-10793.822889 -9960.777859 -11628.629944 -16057.804332 -8669.171255 -6666.7871954 -15315.928683 -12490.107963 -13105.341666 
-6157.5123767 -6058.5713364 -9222.7287921 -7301.1164589 -8051.4581347 -15256.657209 -3865.3357503 -13020.499886 -5570.1799892 
-7033.9223017 -7922.2310602 -7991.1337695 -7994.2371078 -7363.9832742 -7450.3336944 -8656.4650268 -8505.3927185 -8266.4337143 
-7647.4551301 -8572.7295897 -6743.5638192 -7159.0719774 -9563.514708 -10845.024566 -8972.3502971 -10856.818985 -9504.7948586 
-10865.718855 -11475.802782 -9712.5048568 -8129.8176944 -11898.675175 -13700.859919 -7646.2561711 -10632.589332 -8782.2186757 
-11659.15332 -11707.764799 -16102.02406 -12073.676451 -11221.880452 -10839.759596 -11069.217465 -12122.736679 -10668.789071 
-12036.079175 -14300.766154 -8452.6221789 -7609.4812795 -14336.243622 -3988.5215716 -11099.334024 -11988.249651 -13073.253659 
-464.95653188 -15537.913373 -12158.671424 -12656.591095 -11777.609964 -11826.053615 -15284.330529 -7873.7323031 -10506.555944 
-3459.2596433 -4731.645753 -9833.5743757 -9918.5211128 -7808.2753618 -11634.631308 -5173.4571596 -10009.988449 -6929.8755522 
-7721.2583586 -7823.3985759 -9150.8281585 -8972.2596711 -9499.6577281 -8881.1002067 -9805.5153717 -8746.1789371 -10053.935712 
-10949.898798 -11421.696013 -8820.1265491 -13100.998764 -14147.819453 -10166.497308 -8890.5335935 -6024.9671514 -7600.2255285 
-8047.7074129 -13287.623683 -7039.094258 -6104.8266455 -6844.0700595 -6876.8104174 -2491.7305884 -10218.687816 -4559.424602 
-2982.5668906 -4237.2649497 -3275.0771525 -3557.8850854 -2007.0291533 -11616.834715 -5388.5796713 -3824.8420066 -4423.0690777 
-4658.3396255 -3260.7367947 -3545.6971746 -5198.1272528 -3679.3035557 -4688.4610243 -4564.164474 -13477.419356 -11914.63881 
-2424.5636563 -13905.609076 -6685.2640662 -5443.0848395 -2747.7360233 -2674.0984076 -3231.0454536 -11586.793308 -3182.0405499 
-2957.6272828 -5093.9216888 -5920.1380471 -3524.4354891 -4411.1034833 -5356.8739108 -11779.04707 -3296.4432496 -5052.7559391 
-3552.0193677 -6488.8400022 -2177.94212 -4921.1579983 -2094.9346645 -5058.3931039 -5030.5832045 -2781.3796612 -1922.3047313 
-9915.8111861 -4029.1246701 -5975.1667785 -8996.7327199 -4609.5187221 -3817.5905732 -7579.4285615 -3470.2601146 -1894.20846 
-3609.0339233 -4624.8419188 -14849.335786 -5362.8516671 -2269.2237843 -8833.9872546 -4757.8115369 -6337.1542642 -8322.4288088 
-40365.857742 -12543.009193 -9168.8454801 -8394.1762005 -6525.0930406 -5829.3960713 -9603.6495902 -778.25344963 -36989.991526 
-11976.607414 -13822.546456 -26139.882042 -11869.431653 -27248.675344 -16922.876518 18140.595289 -5418.8371268 -18411.182731 
8752.6125354 -39044.877995 -31636.645894 -2474.4345685 -866.36634618 1236.2587631 -6878.1415894 -4599.88675 -6602.4659169 
-8769.020861 -10421.556655 -6972.7427633 -11090.840967 -8574.7690098 -5703.9123564 -4613.651393 -5374.0708175 -5611.1659184 
-4952.726658 -4207.663492 -4395.1767929 -6777.0176412 -5181.6471214 -4276.3276131 -6872.1916717 -5150.6009108 -2777.469373 
-3457.8495658 -6967.0957899 -6627.5118444 -4066.8921869 -8429.7914884 -9347.8336167 -4127.7641446 -6781.2622212 -5529.0978129 
-6306.784077 -4076.3446497 -4755.4376289 -7825.7611435 -7976.2843231 -7377.0291035 -8360.8784566 -4552.1226151 -4358.7009525 
-6067.9542488 -1093.0818333 -5341.761935 -5031.2215124 -815.43380734 -4678.9835856 -5808.3570194 -9704.8213249 -8336.1105344 
-4872.9195405 -4536.2893357 -6432.0434451 -2877.6719863 -3714.63759 -3020.6528892 -2907.1709852 -3370.0117727 -7273.1834221 
-4384.0097777 -4377.7049916 -3238.8096251 -2273.2239689 -1169.4528189 -2340.8915158 -5679.5828768 -7871.5091307 -2658.6309727 
-6916.4766907 -24674.483335 -1158.3268702 -10618.785053 -16838.792343 2822.0303533 -15337.871754 -3266.318444 -4612.3160195 
-4728.4234047 -5352.9210138 -6276.0861791 -3558.8589326 -1250.3465235 -3206.8214961 -3865.9104325 -3484.3810596 -4284.6815796 
-1202.6470577 -4486.6438104 -7390.0309575 -4757.5177473 -4749.937195 -2653.0349756 -3287.7880709 -8868.7481116 -3439.0340276 
-3160.2405181 -6472.2814521 -3052.8015067 -622.1172613 -5037.4836061 -3166.4802831 -15529.82674 -22156.977156 6230.2979013 
-7873.6784284 -25460.955443 -2004.0102996 -2426.6512076 -4636.7958161 4175.6484006 -2332.1204681 -1427.1104681 -6036.3360797 
-2338.872916 -3642.103962 -4920.9869817 -7255.2940484 -5200.9873207 -3625.3368046 -5430.0112793 -5519.2641202 -8667.4338794 
-5032.0113933 -3550.1892097 -2187.0146259 -2689.0506316 -5968.3548308 -4346.7392089 -1398.5287035 -1880.8739494 -2800.8621238 
-2256.2207097 -2479.1843077 -1789.6869577 2105.3231522 -8266.8979968 -18522.730317 -4373.5898046 -10370.033826 -29571.330503 
-12882.775289 -17056.411538 789.22881153 -4808.102338 -13664.678199 -1447.1154136 -12771.409954 -11056.567222 -5707.0167611 
-3469.3253058 -5193.0686613 -4403.0502799 -5849.1517171 -6927.4786128 -5643.8029545 -6749.9140487 -4347.5373665 -4629.1495053 
-5680.2293827 -986.76998003 -11406.808618 -5458.9415146 -5461.1351608 -6458.4001684 714.95983957 -7114.4028993 -4732.0387172 
-3981.2390275 -3198.0081698 -3396.044877 -4053.6035222 -3903.052124 -3604.6487339 -2723.5850059 -3940.9460849 -2626.6659045 
-2766.634051 -3983.3999236 -3724.829848 -4178.2963126 -5770.0852325 -3892.2349973 -3367.8647147 -3645.0370957 -5277.3877376 
-8530.3989339 -7314.8172696 -7831.8929932 -43388.251272 -7220.2172748 -2693.1770028 -7961.0506706 -3005.3436751 -8360.554623 
-4152.8103546 17006.854041 -16690.864641 -8027.5152167 -6551.0266608 1352.1373774 -8711.1830298 12425.237573 -16693.418739 
-2084.9471705 -6031.8949884 -25145.828312 -3959.4362247 -10330.105699 -672.5943684 -13035.547312 -3732.2750496 -5683.0986863 
5712.8362696 -3270.038548 -6848.4224242 -7104.1773846 -4388.1594772 -3570.4132849 -3550.9912081 -17310.794641 -7036.5889382 
7258.8408499 -20785.891605 -3256.8770135 -6187.5654189 -9505.0104254 -3154.1369984 -3413.3982643 -3836.5287934 -3530.0251876 
-17280.954639 -2665.9634534 -11744.998882 -10558.738472 -10651.960802 -13369.205413 -11598.433181 -9615.5740282 -10897.137079 
-8763.6121771 -8915.0130514 -9563.9764393 -9744.2257906 -11104.756507 -11296.709823 -12214.635192 -12327.242413 -9485.3385686 
-8562.04858 -9605.2179334 -11281.024042 -11301.115392 -12474.179505 -11953.539093 -13222.651156 -11322.014688 -13282.505222 
-12296.711041 -11546.180059 -11657.184968 -5541.4414191 -6803.0110735 -9479.8546876 -9965.7688604 -9977.8903982 -10003.392387 
-12597.075765 -9820.5811488 -6623.4081901 -6197.180838 -9830.6578496 -9508.699271 -11444.235108 -11808.111419 -12368.770004 
-10911.607828 -11856.676051 -10428.142689 -10751.325262 -10084.131462 -9942.9621939 -10076.226929 -13084.206499 -9231.7392333 
-9776.4898625 -11433.329691 -9738.3443702 -10518.062304 -11494.721523 -11395.008226 -9086.9871736 -11955.19698 -12210.247658 
-11357.711324 -11814.202504 -8469.5102685 -8998.8403379 -11178.178073 -9515.9848822 -12168.378027 -11213.122229 -10937.2851 
-11547.816671 -5280.4283119 -11981.525173 -12372.828229 -12321.263745 -11114.617146 -8633.192355 -10838.060211 -12488.042216 
-13032.86536 -9614.7052833 -9840.7542255 -11927.648859 -13478.686371 -11998.997907 -10305.204288 -12377.049098 -11499.107928 
-7359.5409639 -6045.6245244 -9840.244763 -10359.677431 -11414.428296 -12122.190553 -6988.3303229 -5239.5242719 -12329.517979 
-11749.552114 -10562.123055 -9838.4015021 -9806.2853735 -11573.688503 -11828.889372 -9420.9543115 -9725.1581855 -10193.174241 
-12767.081253 -11325.844348 -9728.8940675 -9756.2149674 -9775.7718467 -10183.762563 -10052.031339 -9730.2678522 -14077.219838 
-17064.335632 -8655.3918281 -16093.03747 -7662.6677004 -5513.1504664 -9755.9768255 -9950.0340123 -9728.6233976 -9560.4772525 
-9571.3903063 -9589.2511422 -9789.370744 -9787.2188767 -9450.5260697 -9943.3751904 -10031.748992 -9630.6813479 -10100.441891 
-10217.183752 -9703.3808703 -10022.954596 -12645.892946 -10231.426966 -40.243835313 -8127.4602722 -9218.0738529 -7701.1870821 
-15172.503592 -12506.204762 -4928.4926658 -10777.183075 -15388.324607 -13180.929307 -10594.796693 -7827.2543694 -8158.7911448 
-10799.48701 -9219.0336801 -10854.27855 -10385.835369 -10593.875918 -10363.199423 -12039.911662 -7930.7080806 -15531.10355 
-22699.101788 -11707.234118 -10354.348669 -20650.492845 -12433.915422 -11869.195343 -13088.355904 -11570.186717 -11389.273555 
-10998.603856 -11802.248348 -11010.597342 -10152.547876 -11372.071794 -11720.974245 -9176.6320545 -10972.445691 -12804.521267 
-12077.955868 -12356.472787 -11897.215802 -14081.436846 -8646.7820196 -9254.4498328 -11254.795123 -9838.4003016 -9091.437249 
-8697.73327 -5035.6682341 -9019.043757 -3804.0658736 -10466.326025 -10079.088923 -10487.115125 -9972.2975061 -9713.6508617 
-11028.657823 -14872.488342 -10424.159885 -17428.655389 -10134.943874 -11623.425765 -10197.175991 -12926.571509 -9458.4602364 
-7444.5657174 -9671.0268254 -11028.607717 -10304.316609 -12888.361646 -11874.03768 -9228.3993034 -12062.017054 -13185.707181 
-14564.149094 -13137.694978 -13133.317158 -16234.64357 -10741.05677 -14260.52598 -15713.923969 -8494.9399602 -9019.1625287 
-11646.552051 -10265.354474 -9391.7118674 -8262.3103007 -6706.7343486 -10107.259822 -5603.1788817 -8274.309318 -12940.265745 
-11349.148092 -9709.198846 -13727.23189 -10081.140615 -9777.9746182 -18397.728746 -7528.8221482 -10623.431496 -10902.986204 
-13886.348178 -20220.43436 -13094.082742 -11710.968881 -12479.762548 -9287.7261702 -11756.988408 -12299.634216 -10065.565767 
-14282.125212 -10487.264966 -13939.90162 -11973.190268 -15049.512998 -17744.726801 -12510.300141 -13068.239114 -10221.739353 
-11181.676104 -14787.651381 -8021.3737094 -15737.652513 -14479.532741 -10141.39977 -15118.223452 -9054.7879731 -11558.612939 
-15228.202176 -20543.49132 -14356.144926 -11821.850646 -13805.537894 -12684.47767 -16309.804069 -10594.538928 -16457.402591 
-14323.761442 -13793.575423 -13546.180539 -11526.002591 -11755.63182 -10372.278517 -13610.621872 -14281.401887 -12205.622541 
-12328.295264 -11728.703401 -10488.232927 -10674.904304 -7835.0540907 -15624.017586 -8614.8741116 -11412.375305 -12317.586865 
-11372.466958 -11697.150614 -13871.585837 -10938.045076 -14349.575772 -3187.3407204 -14979.251271 -11397.944763 -10851.85998 
-10086.695109 -11594.077529 -11995.68835 -12285.198277 -10181.263173 -5717.6036475 -10382.729958 -6216.3129388 -7202.2157113 
-12799.988378 -10904.150134 -11667.902034 -9199.2514322 -7245.6648846 -8369.8359692 -5254.509982 -8945.9779231 -9284.1278043 
-8556.8608788 -8468.1537605 -5880.168941 -7152.918834 -11236.601967 -8864.5014211 -9347.0917409 -8768.682364 -6480.2798771 
-6744.1323917 -8387.4905808 -9506.6137464 -10543.679146 -9523.8210477 -8865.2535391 -8891.5089048 -8271.7915501 -10981.2513 
-9850.6106303 -9656.2445814 -9830.4233738 -10135.507206 -10054.093461 -7669.5809799 -9590.6209568 -10265.007073 -9639.9117788 
-7697.4320536 -11349.846396 -8453.9828716 -8221.0297008 -9653.3258405 -9817.0464523 -10484.753592 -10448.747565 -9740.3898724 
-11593.591989 -9601.147811 -10087.560819 -9244.0869626 -15753.581149 -12486.042055 -10223.247753 -10735.965339 -11574.634034 
-12189.167922 -9598.1018914 -11052.181601 -14263.362021 -11587.221718 -9311.7973403 -8863.4159747 -10687.701163 -13456.399611 
-9598.9573384 -14607.621749 -11545.225795 -12515.600484 -11786.920078 -9972.8061513 -10533.750838 -11250.898739 -10650.96181 
-9063.3034472 -10425.033963 -12976.989915 -17471.315772 -20795.224201 -15925.420754 -16916.535025 -16229.043733 -13249.600726 
-10613.892287 -14084.792979 -11594.097085 -11356.68836 -12636.358766 -11844.677526 -11865.028585 -12348.648599 -10885.001795 
-15107.070803 -11971.825861 -15971.313805 -17881.121357 -15479.309053 -12835.262097 -12774.009377 -9712.6037337 -9982.6319406 
-9360.8260064 -9520.36626 -8714.6540405 -10086.090403 -9817.3750685 -8924.6257709 -7958.0588749 -7420.2487421 -5473.7015712 
-8580.1557233 -9275.825458 -11630.34444 -13106.441492 -10517.4421 -11995.094177 -13639.502248 -10208.632865 -12006.668135 
-17131.405587 -12922.376861 -12000.745472 -7950.5165173 -13099.29923 -11301.853467 -6093.5479755 -14128.002631 -8509.8030607 
-3365.5368169 -7832.2614727 -19571.899018 -3430.9571944 -14066.817707 -13178.133705 -12554.734327 -12331.980941 -14597.075429 
-12217.640925 -9751.779577 -11980.153736 -14287.08711 -9852.5282238 -12665.731574 -14984.529721 -14007.324551 -14108.452553 
-15861.289133 -9521.2509119 -12467.290848 -11853.838281 -11024.195457 -11732.404209 -11779.103316 -9222.4953837 -14732.518545 
-12104.027877 -13167.398048 -9836.0919442 -10254.623053 -14965.680262 2857.1554541 2901.011699 3057.5335868 3174.5235159 
2905.4652559 2438.2220905 2681.0835862 2402.5978265 3220.3938703 2575.2024189 2572.9844663 3081.215338 3290.0392369 
2768.344279 2643.6056909 3687.2548763 2211.666508 3118.5322714 3082.7562973 2513.5555313 2602.9489782 3005.4151445 
3234.1455982 2544.5787406 2165.4913162 4047.1329898 1979.70851 2191.5195555 3686.7820125 2567.9439746 2495.6669657 
2424.7348104 3354.6002002 3259.970115 2714.7069518 2412.2994242 2803.6358162 3218.5960647 2630.6991523 2498.872171 
2229.3415312 3179.0613765 2509.6091648 3059.3281206 3343.304843 3180.4555788 3310.5811621 3379.9872866 2138.050924 
2729.7857229 2338.3611639 2650.9875024 3117.8591672 2765.4335849 2955.3339192 2325.2866741 2905.6403339 2999.0936954 
3055.180036 3235.4930601 2499.9474802 2964.102128 3044.7291308 2789.8834774 2822.1170397 2475.4569184 2424.8705278 
2470.2770638 2545.6821763 3677.6557521 2968.5159164 2530.3746492 2968.0305777 2856.9302844 2701.9991562 2311.548898 
2965.5629433 2781.1212785 2261.1489792 2909.1429773 2710.8221523 2810.5720114 3017.1677548 2455.3208288 2634.0094134 
2358.0943093 2759.7377691 3067.7293668 2259.3398184 3215.5058792 3169.4660245 2409.8976866 2465.2483502 3066.5667306 
3383.2392907 2503.0546342 2710.140628 3367.196584 3156.5086393 2571.9718828 3417.3149704 2975.212241 2589.3337946 
2586.1436045 2425.9770341 2463.2257626 2554.2838864 2399.4643083 2477.603002 2356.6102202 2222.1136865 2232.2856493 
2415.2304812 2338.9248546 2582.5095186 3097.7879786 3109.8019911 2940.4706872 2908.4392572 3100.6934563 2989.9249186 
2888.9542848 3096.1849468 3161.4681444 2978.265447 3032.2459088 3345.0189976 3271.5610689 3473.1040344 3237.835819 
3265.825039 3206.2275664 3298.9778726 3441.8766862 3500.3534607 3523.5116189 2722.7092354 2632.8930954 2760.8423176 
2690.6749536 2612.5042792 2593.7092988 3805.7120516 3894.549124 3189.2168649 3174.9038707 3445.5524975 3177.9772864 
4016.9318097 7793.9658296 4034.6851745 4427.0598983 7500.176396 12525.869236 4025.1585124 6121.5153411 2417.4443419 
9316.4694409 12908.868633 7263.5584 1955.6197119 1945.5735135 2044.746316 2137.0108486 2000.8266646 1886.4388547 
1990.512921 2166.6964491 2118.0072204 2094.1126964 2123.8030625 2095.2685216 3058.3562646 3381.5071336 3065.4702379 
3498.2209511 3334.000792 3618.2703037 3111.0361544 3551.2046106 348.32361904 3302.7859505 7229.2282479 2060.2296129 
3255.9929703 2670.4136963 2813.8795929 2792.8333954 2788.3307039 3218.5761698 2672.1126201 3358.8847788 2792.8997534 
2571.1384363 2627.5715123 2690.0692291 2605.1364777 2700.7669741 2512.6089939 3899.085077 3799.8612704 3383.7261693 
2664.0606105 5257.1940699 3512.1380689 2719.9937868 2481.3758514 3435.196202 3064.6360136 3238.6890678 3395.5896571 
3269.0370522 3149.403638 2784.3073285 2541.7559131 2512.9448361 2458.0496705 2874.0272073 3245.4358464 3090.1996906 
3159.636061 3300.1181766 3258.0119415 3023.1057764 3261.3503129 3258.1837416 2430.885457 2300.5024775 2474.6906532 
2667.9364502 2618.47863 2566.7657282 3336.3317062 3205.965508 3365.3269232 3123.5871794 3350.5205502 2576.8448858 
2726.6600953 2635.0542237 2734.8171225 2796.6606422 2921.399908 2811.8651972 2877.3934227 2700.7810437 2820.8274893 
2749.7386309 2639.1653676 2896.8386325 2826.2010456 2743.4102648 2896.8764445 2881.0615095 3045.6548801 2740.9046943 
4244.3559269 2342.0697382 3197.202001 3488.6052262 3438.5653098 3437.8439173 3206.3264054 3611.4061947 2859.8457791 
2729.956505 2946.4606916 2592.7371446 2664.7292225 2584.2827163 2558.1908808 4662.1418056 1877.7679385 316.41074977 
2259.8928834 3092.3078811 3019.0427032 3340.3725923 2884.7756009 3167.1530392 2701.0975054 2634.3165629 2751.1899524 
2807.7939665 3656.0291688 3308.2444445 2790.2784462 2574.2951682 2708.6595308 3524.0431473 3442.9639206 3136.3051703 
2687.8953879 2636.5866221 2671.7565674 2621.3854569 2772.2198652 2289.7449131 2348.9421467 2162.646211 2283.4727234 
2338.8785225 2377.2239064 3379.3537604 2616.7113281 2621.8150872 2874.8994687 2959.7553 2403.4354074 2507.3300511 
2443.1216221 2356.0202409 2431.3435486 2460.8306889 3198.7888612 3105.4916769 3287.5505401 2552.3727022 2417.3293963 
2502.901372 2829.9790058 2783.8553791 2828.7719691 2580.2912633 2567.5666675 2711.1721603 2373.919532 2343.6476154 
2425.307603 2348.827764 2562.741977 520.06985344 5128.1623469 2016.0409841 3279.0540715 3147.9074753 3171.1375771 
1889.8343624 1984.0792659 2017.937779 2137.0127636 2056.9321324 1987.1221984 2118.3916883 2417.6908464 2055.3926378 
2068.8847217 1838.1483898 2419.2895771 2443.7910606 2383.3437665 2337.2464514 2389.2769682 2438.4940259 2300.3401055 
2317.4952492 2424.9486388 8673.4664768 16106.093132 4292.3836476 30227.075412 13985.070945 2414.6982392 2425.1022129 
2402.6704379 3026.2538783 2816.1946656 3100.4257293 2734.9546629 2693.8861086 2844.5022839 2790.3710624 3133.90726 
2914.8405207 2280.2970862 2391.828515 3158.0547193 3194.6669456 2710.8123554 2469.2776602 2476.7501704 2312.1309804 
2473.3052948 2495.2445656 1926.5109698 1878.745614 2068.0338172 2090.093717 2394.5422889 -12796.998231 14864.947828 
40316.079376 2017.4010072 1886.2420088 1896.6554249 2616.3178093 2632.8883163 2806.3040165 3222.3938508 2978.0501793 
3338.424074 2931.5286182 2945.8510476 61756.905258 -30351.169769 16478.239881 -11560.369354 3152.3051175 2410.8000373 
2581.2187127 2512.5849869 2242.0539138 2113.2977845 2491.343988 2605.6762934 2093.8523141 2041.3698348 3538.3014915 
3854.9274831 3909.1326706 4566.3502396 2478.1649155 5022.6260726 -11604.567811 4187.1198527 2204.7123526 2367.6162084 
3119.795282 3376.5443237 3597.987891 2680.6855398 2577.812902 2544.728122 2629.3188839 2554.2377729 2148.6054801 
2174.1253446 2335.1384918 1262.1332661 -3762.9738415 -11797.941266 262.00877392 6834.9387879 2402.0189191 2464.1083107 
2505.8416001 2416.3879639 2378.8855765 2373.3775231 2490.8838751 3300.8404313 5062.848014 4478.8165422 3493.5917088 
2434.2343121 5250.5449992 3906.601749 3677.1109856 4217.1985892 2273.9121186 2338.2854278 2433.5301528 2380.0239759 
2561.7308891 2283.3131241 4280.178758 4871.1943027 10168.597431 92.756068842 2915.9417738 -1370.9834269 3647.1845202 
2339.1274213 3120.3099203 2189.0379305 1910.4625491 2132.7969752 1968.670806 1992.4247424 2165.4369015 2164.2872307 
2142.7930314 2276.0422565 2415.7573405 2660.2964803 2567.5035297 2592.6744754 2624.302103 2936.3001245 3824.3085267 
4698.2504674 3703.9849356 3286.5066396 3116.583203 2982.3438227 3093.0154407 3178.4256233 3233.1786823 2598.8418556 
3995.0882009 3306.7656526 2408.8606378 2376.4281863 2399.388686 2495.5000589 9096.1560222 3377.0566454 4161.6871945 
4573.3885501 3573.7060527 4582.4651693 2067.481772 2037.7873997 2240.7797844 3195.9554965 2282.3061078 2303.2853248 
3530.9682865 3543.6771592 3542.6019856 3393.9476301 2828.0850915 3289.9760433 3141.623291 2037.9338868 2044.0824499 
2016.239599 2434.4301493 2650.3408362 2456.0710515 2399.0432626 2571.3458352 2593.3255636 2452.5228906 2575.6323386 
2822.1979409 3188.0242957 2804.823445 2831.9007259 2858.8684847 2935.3747585 2828.546025 2566.8211954 2381.590556 
2513.2050274 3028.7622942 3040.9546985 2551.8043724 7968.7942187 190.55531236 3185.9242738 2339.4243748 2360.1055671 
2215.0488947 2190.6247891 2167.2253373 2311.7610012 3831.117252 2504.9924908 2518.5786168 2539.2232482 3309.8681136 
3636.5709638 3122.6679111 3133.1766998 2893.3772877 3172.1744487 3182.5780252 2971.2218401 3496.873371 2461.1858245 
2376.2803876 2506.5648191 2063.7449893 2232.6013831 2036.9448253 4659.5253813 3752.579721 2614.7610954 3265.5059437 
2974.1701567 3041.0351538 2839.187536 3059.7362149 2580.5521631 2548.3566128 2591.6694694 2827.3659708 2708.150185 
3334.0536132 2461.8172744 2473.1434013 2653.9547784 2087.5157198 1989.8502535 1921.9253903 2110.5323629 2187.0478871 
2409.0713679 2396.6372439 2299.2966397 2367.9074503 2403.7879863 2492.8519577 2612.0675999 2569.6066026 2554.6526786 
2531.5517505 2630.0345056 2250.0295119 2455.7267663 2245.2207338 2436.2561069 2633.2181361 3074.4713007 3085.125609 
3120.2871241 2831.0635221 2653.6525515 2796.4744427 2128.2414189 2141.2230434 2810.6888245 2707.2367268 3020.8381879 
2956.1777575 3371.3257564 8829.043362 3368.620204 2691.0478823 3454.1848584 2149.9175529 2595.0195531 2790.4488941 
-21457.340054 -4304.1982824 3413.5153459 3265.7361711 2659.6170049 -14727.316675 -6175.5031562 14594.189892 11112.24021 
2877.6038192 1808.3907557 2522.7751912 2414.1988989 2459.700667 3148.2524173 3364.3144283 2989.3350598 1911.7039794 
2824.1096359 2449.5933067 2450.5934626 2603.2111106 2964.6314196 2696.8672928 2742.3389983 2879.2313529 2827.4215695 
2471.0011892 2248.5080686 2094.0566451 3444.3327817 3158.8586346 3185.2398922 3213.4106633 2414.1641707 2428.6224071 
3351.2554813 3261.0356795 3112.7000797 2404.3359305 2537.4045419 3066.6773175 1998.0912141 2003.8155395 5110.92173 
2811.9959273 4342.7444871 4181.0371104 3776.0668015 2994.4012661 2528.7290543 3096.5319082 2023.8559659 3009.2447784 
3118.6477326 3125.4878258 3134.0719757 -9353.2439435 6083.0175652 2794.8966632 2724.8815983 2579.6322043 2695.8925431 
2884.2998957 3330.0459183 2427.040178 2341.7024432 2257.8845993 2346.8562293 2361.7217762 2703.8501265 1867.9260652 
1978.4073181 2265.4630612 2167.1210191 2275.2034541 3231.4193776 2414.3964283 51730.174369 -11270.936789 2331.6026132 
2434.7429008 2473.462469 2200.5178295 -9005.6910617 2100.097775 2102.8286382 3036.2346927 3126.5003631 3130.0963636 
2916.5343107 2972.1662808 2893.0367841 3400.9046528 4588.6283868 4132.5015253 2572.4393709 2548.3513836 1860.4723416 
2068.4684813 2830.8451537 2530.1803024 3207.374045 2565.4449119 2520.7604957 -1598.6643301 2620.347268 2313.3525943 
23188.568847 -11990.729079 3253.9938733 46130.234348 47428.100886 3426.213689 3316.6031502 3216.2953356 3504.2861869 
3275.8894878 3232.203868 1896.3766028 2104.1853947 2387.2628499 2404.1089024 2308.3088662 3004.4532032 2943.8938015 
48837.518002 41397.435446 -6660.6507307 2378.7732027 1876.0199194 1879.3542217 2078.5816886 2015.1063929 2244.8171423 
1876.9275641 2517.743692 2513.506631 2708.4053894 3174.3329896 -44246.918348 2228.6551711 2009.2209901 29957.604463 
2936.0231079 3071.6697497 2989.6373569 2394.6166832 2556.8613222 2356.8161242 3144.3258377 3003.8579127 2826.2499386 
2810.7509629 2918.2154703 2932.304404 2864.2754123 2423.3582028 2349.7060776 2299.4888878 2106.1406921 2481.6102935 
2392.5725358 3282.1293947 3202.1424317 3178.3029038 2845.2990195 2733.1855422 3204.1109361 3415.2434473 3356.6750204 
3008.124124 2981.4370497 3025.8879448 3044.4769326 3047.878314 2940.0889083 7021.2057921 39063.112946 3133.2284566 
3138.4176209 2065.0517039 1980.0741371 2950.8565373 2865.7831513 2835.7064641 2894.1838033 2905.2862212 3016.2044142 
2823.5410491 3144.3514829 3021.0078476 2945.9076544 3027.847085 2947.2613872 2748.0384373 2662.6217103 2591.1019158 
1877.8910046 1884.1343335 1975.9047621 3028.0575156 3068.5647478 2892.0293882 2338.3530118 2424.0506057 2249.8765515 
2366.1142583 2892.9491257 3182.7775149 3978.7803819 3191.8583876 3726.4432012 3305.5241495 3230.6536153 3165.6648988 
3538.3896346 47498.72939 22062.424095 -6690.1232404 3409.9661736 3138.4601239 3386.4914397 2983.2501799 2974.2182215 
3406.4133445 2899.9179335 2918.4648112 3079.0013025 2981.1410125 3234.7889243 2977.8329147 3214.7676547 3070.688398 
2916.5079174 2791.2289925 2977.4565819 2894.0053111 2871.5211213 2808.0117942 2798.7695356 2814.1896174 2490.9248038 
2415.5235912 2923.5228867 2622.8539329 2550.334563 2465.0333621 1598.7080667 3242.3765452 3168.1549788 3071.794584 
3120.3838814 3107.6129365 2799.3112725 3071.2263181 2988.2902375 2858.4190906 2302.6778915 2755.3888792 2677.1496611 
2387.238194 2366.2159761 2401.9528141 2196.152617 2025.5652243 2288.9827767 3198.9087003 3611.5281693 3422.7584189 
3428.0770592 3217.7008145 3622.6127985 3242.9180591 3433.4153713 2999.4040995 2780.9046967 2901.7175593 2913.6763844 
3013.7910119 2855.7563679 3041.7806093 2430.5322745 -4583.6095666 2594.9055383 3676.1516936 3097.8081552 2535.3958203 
2513.3006304 2555.703475 2966.4931189 3033.4472388 2465.0205977 2108.5113756 2196.4742964 2200.0672189 2401.5456115 
3235.8524614 2999.0784254 3052.4622808 2553.0566244 3120.2102162 3489.6982788 3027.8210881 3178.7415468 3081.6512229 
2333.7446201 2576.6554596 2575.8471368 3594.5370954 2745.2395456 2869.0054212 2761.9741235 2369.94504 2307.9310744 
3526.3967413 3088.979185 3267.9538146 2961.8768214 2046.6564664 2745.7560262 2596.8161839 2594.0449723 2952.5670717 
3042.961258 3051.3223057 2930.8256134 2548.1494507 2734.6233162 2738.2326093 2374.0582665 2294.3593828 2332.6384613 
2354.8449515 2386.764116 2406.5762883 2333.375888 3004.9614831 2156.8822112 3741.8613039 2937.0950828 2926.133628 
3643.0353652 3582.3397609 3189.4921959 2342.4462096 2331.8384972 2801.9052545 2624.339725 3285.0305167 3072.8207644 
2481.5100163 2722.5904408 3163.4814018 2188.7643921 2353.6838869 2202.4542194 2384.1552107 2230.7149814 2914.797577 
2493.9640502 4584.904769 4310.6432377 3774.0227809 14972.669882 6279.7818955 1928.7439107 2036.0566143 2189.5167139 
2228.9139939 1877.3709467 2081.5061886 2997.8966903 3142.2133387 2957.674871 2896.3374252 2891.9645071 2920.6990129 
3162.1831658 2857.7989557 2984.4540913 3382.9277325 2330.3925011 2367.4873715 2463.3354758 2498.8174018 2404.1033428 
2137.1705495 2013.4141114 2994.5245378 3063.744239 2742.7738793 2662.4648826 2789.4090745 3835.6819037 3459.1056953 
2543.66324 2570.6697343 2754.1576783 2371.7759246 2534.3296171 2335.5605851 3225.0603006 3158.4579639 2361.5608687 
2685.4215206 3695.0779152 2403.5240419 3178.7920614 3179.7401623 3192.6269645 3080.8439418 3061.9046137 3631.1469639 
2740.660861 2295.2332841 2101.1428606 3047.8045398 2810.8772306 8650.894163 2640.148667 2765.5538972 2530.3937398 
2633.2917933 2323.5042593 2358.5142694 52141.92675 2696.3606277 3533.1008352 2968.8225602 2890.8735639 3594.9108215 
2544.8807462 2915.8351991 2223.2625272 2101.160487 2102.3169656 3677.1222494 2450.1092965 2404.333386 2973.7795814 
2333.7595941 2356.5852343 3030.1704532 3090.4358178 3234.6515483 2847.0097302 2928.811194 2867.9256839 3019.1544768 
2426.7705676 2223.9525117 2213.4991234 2853.4512419 2899.7098022 2287.7469093 2321.9975389 3229.8911924 2476.6741974 
2504.9329513 3030.7621408 2964.3639816 2899.6620895 2987.5838687 2516.1732445 2980.2903957 2793.1845986 2171.672371 
2203.7831458 2731.6702418 2701.413174 2680.0439525 3142.0238072 2644.4350961 -3030.7042538 -4503.4344837 2930.3691272 
2813.7137223 2214.1704402 2449.3356508 2742.9739242 2149.6288092 2229.6515174 2135.0971547 2249.5963034 2012.9195549 
2445.5276207 2486.5981481 2743.1279837 2537.5543851 2749.7360903 2742.3634164 2696.6112095 2412.0722815 2967.9837975 
2684.0933269 2818.6686991 2587.8042331 2804.4521023 3239.6730128 2753.8225059 2587.3411795 2383.7745571 2480.6474538 
2043.1965771 1996.928354 1907.8747783 2484.9453724 2917.8891342 3185.1113924 3524.738797 2532.3028134 2501.1917741 
-2973.2861361 -274.75954126 4171.2795905 2142.3867384 51573.537297 1883.0502351 6737.3090469 1910.45936 2396.8903473 
2380.6126255 2410.7513569 2591.4049817 2502.8331126 2630.4524035 2713.9779706 2585.4303726 2180.9494814 2303.3325025 
2979.4234374 3174.0818787 2273.5007648 3196.023798 3156.0724616 2947.565028 3194.2905072 2750.7912016 2403.2586911 
2469.0279932 2370.5198137 2536.2093204 2233.008382 2507.3407481 2754.8327808 2924.4293788 2625.9160554 2755.4068681 
2944.5220692 2813.9674212 1922.3222603 1936.1620596 2119.8560914 2617.5536243 2700.7953705 2267.4960358 2890.8971908 
2653.8973017 2803.7424863 3189.1481614 3048.4685491 2288.7710167 3688.5967575 3009.6252989 2581.7072447 3065.4429616 
2849.8296064 -2628.2713073 14220.141821 3061.3276945 1985.8148488 2068.0413963 2698.4836323 2696.6319141 2974.9839991 
2690.0466506 2546.6669217 2567.2220188 2356.5386538 2366.8096097 2903.7186582 3449.1491649 -18539.67007 261.35264098 
4070.7987085 3420.86123 3709.4162382 3296.7117117 3355.2543182 3296.4828223 2771.9412868 2467.8596162 2504.0389151 
3394.2860143 3508.3395508 2962.3229914 3079.4929052 3211.9276865 2237.6847791 2022.3062298 2399.8181395 2400.6251212 
2056.1399646 2020.6929205 2696.3879799 2852.5196501 2015.7642612 1989.0383153 2149.8362443 3051.3438947 3366.5575465 
2425.4651167 2488.7826345 3288.2494138 3583.3987086 3137.8278791 3451.7925627 3139.8350994 2401.5620031 2404.0910079 
2591.731895 3000.9331117 3090.4775774 2822.1340651 2372.7055454 2281.1378642 2619.9227258 2368.036302 2344.1882333 
2443.6489629 2421.0029108 2382.0409556 2569.0751883 3219.2646906 2336.5413382 2295.15365 2916.2015563 2549.8276096 
2418.7253342 2449.9122424 2553.2648889 3066.0500679 2958.4576645 3001.6430659 2840.4941791 2786.2532446 3338.483451 
2343.540562 2326.9585532 2833.704604 2441.247387 2443.8246606 2115.5014839 2111.0103698 2884.49867 3598.5944717 
3381.8791048 3131.8058407 2754.2102546 2280.5360907 2401.5895474 90.809171558 2248.489788 2251.8459204 2835.9358719 
2967.5499136 2265.7022078 3526.0197181 3723.0084565 2900.7640806 2359.7167445 2438.1396462 2540.0482639 2624.201556 
1586.0501289 2907.3413728 2802.6708992 2714.3843371 2970.6491313 2261.4375259 2311.1450517 2509.8818678 3665.2273367 
2019.1563735 1978.4302563 3482.9565736 3632.5877864 3118.1096879 3055.1045788 3152.0991952 5774.912902 -1417.9632946 
2830.3468314 3416.1389953 2563.1517771 2396.974663 2420.993978 2256.3247143 2407.5896068 2345.3089571 2410.9651238 
2492.8000359 2479.7847716 2342.184502 3433.4230794 3199.9324645 2793.5620764 3388.4818778 2321.011677 2696.1901184 
2894.3468237 3512.1575159 3083.9404269 2370.4490335 2584.8271732 2954.9419422 8946.8365259 6751.937316 1902.8456676 
2091.8325612 2135.4464727 2409.6519912 3062.8563267 2474.1789238 2384.4894066 2659.0778647 2380.6915924 2691.3037413 
3053.7563872 3221.3200552 2416.1618459 3185.143896 3219.3494933 3461.5696361 3682.9285263 3722.4097731 3577.8771892 
2530.6623849 2188.8777023 3469.477 3593.6378643 2947.9331724 3098.980959 2755.979761 2606.5039427 2910.8597741 
3273.3406489 3382.2260506 3410.0544965 3141.3652685 2592.4749251 2543.9749471 3158.4920013 3177.2448894 3022.8125147 
3471.5330742 3693.0846685 3123.7800585 3703.1739039 2824.8227962 2512.717483 2382.0381072 2573.72733 2439.5115331 
2284.7498821 2940.953114 2966.2186216 2068.6680735 2010.962893 2106.5004368 2950.9441508 2783.0543666 2516.636926 
2501.2323184 3086.9965247 2381.8080614 2410.4467577 430.47351155 2438.2031181 2538.4561314 2827.2050322 2947.4786477 
3148.5715813 2065.8689326 2368.0377213 2414.5391616 2387.2071898 2618.5847575 2688.5764733 2068.583256 2396.2340228 
2209.9828702 2471.3465702 -2717.6692955 3332.8248785 2712.5211469 2793.3319798 3076.6270704 2424.4116204 1951.5988844 
3189.1835939 2265.9868186 2413.5963273 3532.096446 3592.6031501 2541.0366153 2918.7752265 2461.2494426 2414.1041773 
2341.0214915 2317.8810323 2627.261758 2140.1829908 2248.3734674 2347.658348 2374.4892836 31954.120883 1901.8678148 
3607.5708847 2102.4885695 2261.0128391 2212.8200959 2346.3733847 2912.2395154 2818.1196734 3095.8167195 2944.2238095 
2791.5292825 3471.3887327 2847.2545122 2865.0097339 1906.2344296 2069.5787598 -464.32209704 3009.873324 3180.4299898 
2701.1415602 3364.2474527 2115.8268202 2395.9312388 2290.0220348 3146.0251729 2554.0753138 3500.6324716 3513.410296 
3751.4768383 2727.1117331 3059.4778377 3418.6487175 2403.2977968 2336.472174 2206.0306968 2295.2519734 2314.1893229 
2206.3938042 2392.4752568 3173.3797539 2345.7340475 2250.204749 3521.6393367 3694.1367128 3517.7276194 3532.2199055 
3133.9038354 2560.3219791 2562.8066972 6191.9175312 2632.4474823 3625.5664061 2443.9056519 -1757.5182686 -3276.1139591 
728.10412617 -398.90395745 -571.5578937 -3214.5215596 -3262.5464213 -410.37115267 1723.0392496 935.37801905 -2372.6864104 
-3186.610093 -812.19031274 -2399.7465525 -4001.8395076 -3228.0535649 937.1977056 -3903.6309369 -1593.5916479 -2942.8837936 
-1520.7308099 -1956.7231997 -2074.4009755 1506.7887464 -3928.5750865 -2295.3697057 -2979.9097193 -3226.4503456 -1457.9669421 
-3628.1285464 240.93152786 -2776.685679 -4475.0395556 -3719.5662512 -3717.2197091 -2973.543871 -3295.8802002 -547.76825628 
253.42836748 -2312.7080805 -2690.5868599 1263.1640496 -2315.3489746 -2960.3628635 -2735.3980455 301.00335089 -2252.062131 
-4084.7631071 -4608.0220515 -4406.3593707 1247.0255429 -1122.1015836 1367.8535945 -3088.0522832 371.16385826 582.85837082 
-3695.5029656 1466.0117175 -131.25205016 -92.071421567 693.38362705 -976.65203795 1329.619275 -2944.8193118 -3032.3915006 
1321.2850029 -3452.6954118 -2946.340836 -861.79810494 -656.23053034 -2174.2501475 -2473.2060727 -3379.6501112 -1838.2804674 
-2963.5726685 -4022.6506883 -2695.8067892 -3431.3308678 -4904.6392277 -1283.1796022 -3344.3726774 -3245.5156108 -2763.7923789 
-2988.5687916 4483.267351 -2712.2292261 -2077.041933 995.4376841 -4018.3794282 -4265.8629326 -2959.017644 -3255.2461807 
288.1799642 265.43570026 -1830.4629446 -2551.6902418 -3854.8998876 399.68660366 -1200.2689243 -1229.8263273 -5640.0003262 
-2702.1746944 -2632.6313115 -2977.9940174 -1445.8884177 232.54986078 -3405.3427145 -1782.0467581 750.14621393 -1317.2219167 
1296.5357683 -3274.9652069 -1504.6196166 593.64233152 4571.5198859 -3367.6972932 757.88333837 -2829.7461219 -227.53325175 
-2987.5136117 -2272.0702537 1233.0247028 -2179.8315378 -2747.707529 -4584.0411131 -2592.7201599 -2027.6731018 -3060.2656669 
1425.4042344 -1942.3916196 -4590.3902304 -1376.3630381 -3086.1232405 -802.36982292 3760.0831248 -259.99697202 423.52735056 
1023.8775874 -3655.5994688 -3380.878987 -3730.8599249 -2874.8587686 -3092.4440589 -3084.8321005 -4636.8510249 177.88121725 
-3362.0318926 -1370.8802477 894.47956064 11887.329124 -1773.8527384 1567.0638719 -2673.3985246 -2843.4681966 -2666.3377607 
-3150.9547234 5688.8990802 -3234.5958239 -4084.3111439 -3609.7207857 664.55015312 -3372.8082801 -396.17835133 -2423.6090848 
-3814.7665723 -30.346197899 -3792.2010711 1492.3470896 -347.42959861 2001.0122434 1309.4284682 -3560.8961907 -814.03926543 
-2371.7313973 -358.56793058 -4540.2461423 -5469.8534542 -3416.4616503 -2909.1775547 937.7188284 40.627075722 932.04956285 
7045.2413271 -2903.405218 -2801.6519141 -4232.9270477 -1033.793588 1530.239986 -1226.2449308 -3032.4691971 -1163.710858 
-3147.5529751 -2767.1889855 558.87732591 -4157.6260707 -3357.4021021 -95.348658207 1382.8892508 -903.52987534 -3201.4258825 
-3661.493016 -3188.9077554 -3583.3275664 -1513.8656676 1519.4809863 -4801.2197172 -4381.0475186 -369.86154259 -1894.1217133 
12.135701398 935.46959847 821.92439239 728.0426894 -2478.7930875 -3451.7368865 -2278.781266 -1729.7561684 3157.5300673 
-3021.072109 -2146.4142241 -2834.8712141 -2142.5261571 806.39541709 -2750.1906958 891.19629911 -2834.6337893 -3494.3638431 
431.68424959 1649.703577 -2990.935403 -3000.2655084 -2046.8846653 159.14935166 -3248.245279 1563.2968168 -1574.1115263 
-932.75356564 -2792.356766 -3292.5850717 -3437.1429023 -3112.1917211 -2954.4180502 -2814.8704551 -884.37346686 -1265.0752692 
-810.0615266 -596.51830496 -992.4162315 -1069.4106742 762.916351 -1767.4093443 851.46306497 1124.0174825 -588.86311624 
-2000.5652386 -1314.0882954 -1384.6919061 -1132.1151554 -3909.8045427 -3849.8812009 -5115.6677992 -4876.4162199 -4762.3693852 
-3768.9913647 -1845.7082121 -2012.5651318 -1936.7577222 -2180.6262177 -2540.2256839 -2312.9210218 -3212.5729385 -3004.7188927 
-3137.4981008 -3262.1020263 -3062.3282027 -3117.7043169 747.50090052 -2737.7299319 885.8100421 292.45789637 -1741.4701391 
-3049.4682227 -3881.4716527 -2165.1759813 -1725.0435966 -3136.3366122 -3013.9822689 -3118.8917893 -3018.9834846 -3055.9294709 
-3112.8198664 -3339.1306272 -3184.963249 678.94019649 745.14197919 299.92741089 147.31569899 287.6948306 650.91006747 
-103.86437429 243.04782027 598.10251341 -894.49339432 -366.14968684 -587.49839472 -3343.0410104 -3749.3533109 -3146.6213487 
-3032.4555815 -3272.3168138 -3463.2792845 -3523.7863334 -3026.5051501 -3005.5797242 -1016.6292164 -1351.9406516 -1528.8228998 
-1616.4400401 -1319.5651169 -2219.9019208 -2106.5199452 -2205.4603543 -2506.5321459 -2418.9520351 -2478.3036653 -1998.3994346 
-1877.6870752 -1698.0064692 -1947.9178859 -1783.1476168 -2124.5154123 -3122.7907707 -3029.7162694 -3423.900281 -73.243163101 
-36.614910352 -135.54907469 -4453.9027751 -4168.6967556 -4843.0721932 -3021.8026495 2740.6318527 11384.455605 871.35465078 
-5819.7724369 1373.0671949 -2316.2253398 -2520.8736201 -2521.6487998 -2124.1042542 -2369.1412452 -2134.7116408 -2121.0804045 
-2322.4916395 -1865.7298805 -891.76807763 -527.99105006 -996.8780989 462.68112701 13.067371682 12019.465376 15362.576322 
7784.8742588 -5579.1410082 -3493.0732039 -3351.9376465 -3730.6350991 -3803.0753218 -3487.5463504 -3377.4701836 885.46531551 
589.28060575 566.33965178 -3473.6905827 -3198.3801316 -3359.5198622 -36.478710945 123.89467462 451.31224462 -28.518246535 
156.61406008 -383.76063219 282.07280482 772.51528764 85.829761606 -3583.2031775 -3548.6693314 -3485.6416879 -3386.9721156 
-3406.018076 -3437.8079789 -3263.2783972 -3316.9855782 -3349.4962364 -3176.9789715 -3093.1822543 -3137.180069 -3254.893439 
250.79579013 -282.78837327 -246.76391673 1068.0683383 352.03131982 -3081.0539434 -1651.5322881 -1473.301806 -1750.769977 
245.26424007 -34.78611361 321.49451985 -3147.1379297 -2846.8010164 -2985.535786 -2960.2800146 -854.92723438 -362.02630029 
-579.92467094 -52.236127146 314.16938588 444.08395018 -3225.7177081 -3776.2595841 -3232.3977571 -3515.9105749 -3836.6870502 
-3295.1481969 -2223.252746 -2468.9179455 -2635.5232799 -2349.4243558 -2601.2221941 -2345.8136497 -520.70687142 -2867.0749887 
-2669.5447661 -2622.2035299 -3466.260057 -2649.7335899 -2426.9794275 -2288.1658982 -3319.0249764 -3328.5847699 -2973.8696348 
-2778.0192293 -2742.9923729 -2701.0437166 552.27048032 2297.3467479 1820.8098481 -3959.4387603 -4037.5461276 -3866.930219 
-4119.5395644 1502.5150921 1553.8740627 2089.7297308 1532.9754092 2164.587388 1480.1579917 56.10614922 -2668.2212046 
-2559.7893469 -2478.8335874 -2763.2698134 -2626.5624266 -2784.7144203 -2221.2952651 -2402.6391153 1257.9693524 965.65303907 
1302.2932459 630.46188393 -631.56394265 -1574.4674502 -1154.5468003 -2522.9750391 -2116.1903478 -97.379906956 -2321.20657 
-1999.8374734 -2489.6434608 -2592.7718599 -2558.6653562 -2746.4915785 -2729.849857 704.97326043 352.45192469 614.00360591 
576.50413347 235.08066288 -79.915403019 -2354.21465 -2214.2434097 -2611.8640585 -4170.4677838 -4166.6242505 -4072.9511589 
-3908.4313901 -3738.6587257 -3715.193501 -2364.5618679 -2690.9134352 981.88474706 -1366.0222527 -1561.2296463 -1763.1796761 
-494.87108297 -1347.6955381 1617.5247663 4478.6328269 1512.5684962 -2392.764301 -2930.3321249 -3014.9268556 -2875.1394734 
-2956.91938 -3122.4194704 -3433.1260955 -3243.5150571 -2401.955723 -2510.9294472 -2669.6500444 -2747.0212593 -1294.6093139 
-1401.409031 -1585.3239163 -1677.9766344 -1237.6652949 -1119.6452811 -933.72399276 -1302.2453255 -1412.8407287 -1238.9092459 
-1248.8502698 -798.72352104 -1065.610564 1440.7152361 1383.5764839 1416.0601691 1291.0117341 1294.4598354 -2869.0087779 
-2842.6326804 -2843.7719549 -2895.9979828 -2937.4891091 -2859.2505126 -2808.564944 -2977.8251628 -2923.640469 -2926.3677505 
-2891.5352082 -3026.993835 -4206.768234 -4057.0357598 -3985.0050344 -4157.3742744 -3791.6284888 10313.357298 2497.5628295 
17236.159615 1099.0976587 1282.3192861 1343.2499381 1336.3222924 1491.2946572 1265.7473601 -1506.478077 -908.89130876 
-1630.788236 -4866.757643 -3137.3936883 -5607.46222 -3410.3620742 -4212.9295344 -5962.7447713 -3282.4686056 -3027.4760379 
-3292.75576 -428.93337071 -3385.8822859 -3404.2151219 -2540.4505063 -1756.0869539 1546.5883127 1674.9778101 1366.7929295 
-2882.7758134 -3042.1009004 -4091.7089444 -4644.1101618 -3908.1443081 19159.391012 409.15409322 -3481.5457535 700.55285727 
1208.6789092 2925.6328707 1528.3952595 1248.5984996 1454.1257281 -2765.8599286 -3291.3203609 -3012.3121802 6799.6992089 
2313.3756169 2029.6901265 1560.1285283 1555.5310157 1561.0366928 1571.4138205 -2837.2007685 -3636.366546 -3955.4126181 
-3909.9118297 -1634.1405102 -1703.2103741 -2303.5407516 -2313.6970894 -2413.0327146 -1957.6946139 -4440.7508455 -2453.8484298 
-4196.1462973 -3051.394347 -3413.7205564 -1141.2609844 -1319.7678607 -1483.6462713 -1651.4301771 -1505.5765625 -1500.0563846 
-1315.7161075 -1305.4597629 -1614.4845706 -1664.6255836 -2976.7165744 -3108.8267677 -2951.5028952 -2943.8768782 -2983.1807091 
-3083.1340748 -736.32833702 -775.27370935 -396.91987867 -265.92197645 -282.19477821 -638.01116257 -3744.3353823 -2351.1516661 
-2121.8240895 -3569.7874725 1591.651955 1544.1394593 -2625.3995494 -3573.0320112 -3473.1433179 -3312.4353014 -2801.2084994 
-2786.6834132 -2958.0955595 768.77395775 424.75220041 395.97598155 93.07965389 92.321766945 -3090.7537292 -3097.1511226 
-2914.4695967 -3044.5846589 -3024.5694284 -3297.4779285 244.68251653 -3300.1001898 -8906.9753749 -2705.0113664 -2993.6323145 
-2916.884176 -3839.5733282 382.07146236 83.029688435 -279.05019332 -1028.2926486 -832.56485252 -1137.9247399 -2994.5652429 
-2392.3175164 -2610.1027794 -885.92259411 -1392.3515469 -2678.0812925 64932.289319 -71446.016079 -44817.207407 -18446.12674 
-6361.4514709 -3396.9179232 -3479.5944885 -2990.2643814 -2731.5694294 -3339.4368067 -2461.8112133 -2931.6978952 -3040.3468029 
555.44927775 957.16614089 599.9802158 20600.175687 -13190.808507 -3213.1611248 -1533.0381569 -144.72014496 6.0827187093 
-625.84806427 -361.33612994 -627.45200067 256.68513077 -2090.8932861 -2433.2810485 -2118.4978826 -2332.9902657 -1970.7305185 
-2198.2050846 -2334.9503425 -2240.7228051 -2233.6429265 -3106.6447371 -3200.8869788 -3057.5743892 -3526.2637324 -3756.9915347 
-3600.0306354 -3691.7717522 -3902.6345213 -3747.8356838 -622.49504011 1559.9918348 1401.1572272 1675.1830825 1599.0573617 
1455.859685 1302.9872164 -1888.6545281 -3145.1225553 -3574.8630354 -4009.7259828 -4184.4459114 -4918.7399762 -4538.7923536 
-3861.9317416 -3539.6008933 -1047.7871444 -3752.3576018 -4034.2612115 -4069.4764441 -3883.0658417 -3786.3906596 -3059.7850552 
-3207.1540216 -2822.1834689 -3194.8902861 -1316.1914601 -3301.8355761 -3367.9021864 -4625.0480993 -4130.5067892 -4717.4235522 
-5464.070408 -4952.785144 -3660.4980061 -482.76985181 -536.526803 -583.34742544 -710.454115 -671.98509363 -1415.9047845 
-3813.4653072 -3997.8645819 -2822.8236771 -2983.3805136 -389.6685465 -240.86563616 -643.91689416 -333.10746114 -692.31627908 
159.25984275 -750.23496159 -3663.4123045 -3264.7633985 -3682.3103522 -3478.4930269 -3596.9212743 -330.82408061 28.614219166 
8240.1805368 -42204.440194 -85179.952208 -3876.3856426 -906.15525632 -4119.4607954 -3739.5032496 -3463.5775916 667.40914211 
-257.31559822 -858.1320383 -3059.8734159 -3232.3141308 -3172.9505003 -1143.1778421 -1479.4734559 -8983.9528861 -7740.3800881 
-5469.16878 -7129.7015931 -6037.8762011 -1141.35212 -2999.1781777 -3898.7606171 -5045.4150901 -4210.5992583 -4171.4481786 
-4605.124302 -4583.7725043 -4347.4151191 -4013.2128947 -2180.5750075 -2064.8003484 -2130.6494261 -2259.7445733 -2202.6202631 
-6682.7585851 -5052.5782748 -4921.7607448 -3901.8292482 -3392.0096992 -1352.1882201 -1132.4712575 -6034.514122 -6369.3057418 
-5236.5809586 -3722.4175789 -4013.6148252 -3362.108362 -303.48352289 1262.9559828 991.71943228 -2713.014929 -2599.7558941 
-2762.4268624 -2613.2192037 -3526.5215935 -4606.0102652 -3913.3412832 -449.7159773 -955.25875063 -583.75613795 -755.03783464 
1366.3788174 1314.7619439 1457.6448019 1220.1234222 1162.4575959 1098.9817873 -3597.4080627 -2608.6426457 -2675.7625148 
-2758.9373577 -2886.859291 -2841.2310338 4447.5583587 421.4852387 -269.99452895 1406.3171752 3935.3681457 -189.18707061 
-108.02543192 -525.36848311 -452.99734933 -418.03803942 -3651.9605541 -3990.9893449 -3831.0695792 -2798.0761613 -3580.6648661 
-2974.7376046 -2949.5184572 -3361.2923731 -3136.1733773 -3407.9812114 1431.0708243 1346.6163768 1363.1576007 1264.1233751 
1263.9237274 -2775.0245744 -993.25740664 -1171.5379139 -806.50683535 -2998.3050021 -2675.4140966 -3421.5459781 -4526.2408093 
-5286.0989846 -3470.0200679 -3927.9882199 -4156.1986852 -3972.7296935 -4326.3462813 -3830.1386315 736.98051995 1989.9735414 
2589.3853823 -3004.3804942 -2893.0816976 -2707.3281941 -2652.4596676 -2802.3197182 -2626.5951131 -2744.429505 -2895.5016704 
-2938.6938832 1398.4007997 784.85465394 -245.47030332 -818.6846507 -675.66407225 -3740.2617763 2544.4660216 -27705.0722 
-3023.8686565 -3148.320086 -922.36690195 2358.6815086 -1484.1075925 -3014.0435821 -2945.5636285 -3046.9504705 -782.17203406 
-3686.3092184 -3818.5625369 -2961.9583527 -3072.7455544 -3938.3332627 -4613.5097151 -3647.3769881 -2812.9036139 -2972.8125098 
-2878.6528248 -2736.2224059 -2496.6217623 -2900.2487977 -3096.1338079 -2899.7769716 -2717.8099382 -2697.0401221 -2787.8246918 
-2962.4194226 2412.3455699 -2630.1964192 -2714.788281 -2478.2100397 -2397.8849102 -2506.1415378 188.83702826 30.107263404 
15.049996439 362.13609395 379.75231095 -1916.8758711 -1747.0114393 -2152.0344233 -2912.4772158 -2608.3553036 1659.6607531 
1651.7700134 1659.6141298 -3012.7136814 -2487.7889485 -2968.4719607 -2007.3518363 -2045.9075234 573.30414163 -344.25149827 
-171.92120174 89.502379414 129.45694348 -126.23391639 -225.45764743 -209.70963019 -15.366358038 -5398.5549355 -4160.9334332 
-2078.7400252 -2160.2254474 -636.55935246 -318.06506782 -593.55571435 -2610.1135969 -2305.6615589 203.6200498 -230.87466065 
1530.9312763 1678.9532963 1572.6050169 1534.0281434 1574.9502684 1565.9204116 1555.9428428 2115.1934438 2257.3633426 
-4089.1981634 -3869.8663668 -3671.8452303 -2200.6494664 -1995.1508194 -814.06539592 -753.06159853 -920.85399325 1599.7911098 
1565.4929234 -3859.4760346 -3480.3043035 -1755.1046659 -2627.7397495 -822.95868582 -0.83405557879 -1468.3008719 -1620.1479475 
-1771.643151 -2172.4160555 -1673.5240919 -1995.6652393 -2277.6207659 -1832.5560121 -1983.4810088 -4099.5451113 -3695.5201039 
-4501.3800463 -3652.3022175 -3988.202521 -3851.7329033 -3888.0618402 -4023.1792776 -3608.3464423 -2878.1571268 -2429.1853918 
-3566.7114541 -3529.6454246 -1797.3426793 -2195.6793302 -4880.8733673 -5105.1631638 -3809.1071624 -11407.859661 -8453.9879109 
-4444.7475668 -4111.2706277 -3211.8464333 -4384.6928548 -5847.5790731 -3919.6385673 -6552.9495059 -7206.5654299 -6367.6863564 
-4679.2096936 -3417.4791117 -3389.6653107 -3500.797227 1544.03969 1549.4756282 -1567.3839073 -1582.2863596 -2692.9453671 
-2642.924608 -2598.2602382 -2733.315835 -2764.8871443 1269.0542411 1053.2773427 -3293.231728 -3215.0784838 -2962.4151002 
-3083.3988898 -3190.0601822 -3026.7741284 -3139.9202552 -6240.2583345 -3930.6787966 -18564.364813 -3720.2795416 -3910.7154511 
-4581.7515953 -122.78380223 -646.61444144 -774.18358317 -3862.6919855 -3497.4326262 -2923.6784691 -3007.8745698 -3104.5151713 
-4204.7341567 -3934.5191111 -3903.5365412 -3787.6678932 -4219.6363014 -3706.610346 -3489.2919022 -3693.9126594 -3734.9177356 
-7813.7749355 -12093.774623 -3189.5629753 -3000.4111636 -2507.1862474 -1431.2314095 -1748.9686411 -124.88169749 -2858.7316576 
-2907.1681484 -2989.1148403 -2808.7891233 -2784.0894945 115.51619686 313.51342753 562.42575241 948.87684403 -2089.5978639 
-1790.047083 -1757.6403901 -1464.663463 26.957754847 -156.90764986 -257.71992388 -284.1461669 -61.943406058 328.58390831 
-3213.9296748 -3308.2371764 -2911.9878734 -198.78531118 -538.92090139 -752.22985961 2758.3111895 6976.4998092 -4590.0554057 
-5143.8632942 -732.1705754 -3382.8889614 1545.3170467 1433.1817597 -3893.0017343 -3600.2707822 -3426.4759322 -3460.375546 
-1552.33623 1293.0937229 1198.1214154 -4090.6308263 -3818.5946744 -3720.4129882 -3521.0575079 -4518.219514 -3446.2553768 
-5087.1489721 -6193.6045318 -893.94478463 -3477.5905204 -3439.7796639 -3660.4096124 -3595.400466 -3358.8064718 -3496.788161 
-3284.4057045 -3324.612552 -3962.7422454 -3568.9175522 -2714.4760978 -2079.2025965 -2752.1456406 -2378.6758853 -2219.5928341 
-2299.018801 42.262593995 229.74853145 -2534.6955092 -2409.2654912 -1807.1645227 -2045.7330031 -13490.817626 -11496.497918 
4852.5313767 -19676.746113 -12652.928766 3774.6703684 -3780.9777263 -49277.157025 -4231.6587359 -3444.3584344 -2709.5655195 
-3100.8551574 1670.8276958 -1719.6164429 -1873.1939175 -4588.4215164 -4028.7505183 -2999.9936049 -4188.2932588 -2130.483952 
-2045.4906349 -4125.9922163 -3126.9191595 -3303.5837059 -2868.6835368 -3427.6953788 -3187.2246228 763.65297807 -3034.4700307 
-2962.2829257 -2877.6753937 -3055.4340599 -2932.610729 -3006.5074241 -2777.5958178 -2704.96525 -2793.3498268 -223.86941296 
-583.94555867 -3829.956032 -4223.7506313 -3044.3114663 1559.350493 1548.3299127 -386.99340911 -134.06102245 -3891.8385769 
-3966.2746969 1019.429641 -5494.9091935 -1646.6745661 -2618.6718064 -2711.9832677 -2999.3004212 -1832.9270685 -2136.8782219 
-1947.3746734 -2741.8368361 496.96206933 367.07876432 36.460641891 -2953.5192893 -1077.4413932 -669.83871912 -2195.5452783 
-3558.6046102 -3385.8878139 -175.09004058 142.03428561 -309.46752433 -849.31431574 -9.4242816606 -227.22908014 -131.72525322 
-350.12245274 -3181.7177406 -3346.4551145 -3399.8285315 -3296.8869295 -821.98645485 -2571.4771902 -2756.7164976 1986.1350649 
1483.3644938 1787.3445717 2066.821452 -3716.4752181 -3418.9132596 -7363.8110047 -4416.499439 -4104.3706575 -7300.7115827 
-3857.9059819 1657.4963019 704.78362922 -3423.2797238 -3341.0342243 -3718.9340679 -164.63555375 -4318.391552 1676.1682835 
-6029.4759079 -8243.852027 -5974.0809464 5937.8817068 -2659.8417281 815.81518544 20607.834904 -4665.4430817 -677.63344388 
-1070.973773 -1772.6479294 -1668.7151748 -1598.5514279 -1991.5676968 -1975.5832713 1679.3672434 1378.5570834 1464.8829417 
-4393.7496039 3016.3049391 -2405.9095512 2947.8035053 -1849.6706945 -2966.2899932 -3118.0881394 -3167.6445539 -3064.0722923 
-3347.0014262 -2985.0389287 -2860.7414792 -4011.2347739 -4007.7113158 -4212.7171478 -3828.4113108 1625.0915969 1379.280246 
-1683.7695784 1623.963615 1431.5043887 -2593.4535957 -2402.7406416 -1771.6092355 -1565.4955601 -1784.4810961 -2301.9003933 
-2143.9717993 -2218.8752373 759.05211899 -2394.3892661 -3578.0934448 -4630.9394929 -4137.1443536 -4242.800312 -4845.9789643 
-3520.7314178 -4771.6262425 -3168.1710723 32016.517051 -1530.3661151 -2161.3740195 -3639.862465 -3545.6168678 1615.7087455 
1636.8528913 1439.2265035 26469.23709 -48886.095322 1639.8752405 -3406.9139568 -3300.0666228 -3480.3877928 -1014.9972683 
-902.68082973 -1025.7781011 -4010.0466231 2216.1384176 2278.4795603 1727.8585379 3049.9737461 2591.1795463 -422.7671902 
-2815.1652266 -2808.0046174 -2491.0364518 -2644.3687794 -2689.3840683 -2872.5684296 -2325.9142591 -2424.4220927 481.28742013 
-4416.7367136 -3291.7445015 -1955.453707 -2239.4666969 -2215.0101193 -2330.7237749 -2059.4656632 -2738.2929645 -2974.6564464 
-2885.9439174 -7876.8491262 -4284.4712214 -3788.298141 -3930.0049025 -3831.8100989 -3095.5880072 -3250.5192221 -3065.2214788 
-3289.2641057 -3399.1573856 -2409.409332 -2321.8832507 -1122.7559395 -1032.1317036 -3416.5060372 -3377.4626075 -3027.0251996 
-2588.3062555 -3233.8954937 1968.5345708 1765.380663 1908.0985993 -3785.2171012 -3336.7984042 -2897.4768457 391.74758889 
-918.95606696 -1026.7671872 -4238.0552141 23.412365605 508.6648353 -231.34222406 -165.86637909 -227.53639069 -611.53104408 
-493.20985788 -381.71295062 -848.78016642 -770.67685746 -514.89679195 -3190.7468684 -3058.012814 -3214.1672776 -1497.4929667 
-1204.5281943 -1671.3346713 -1493.739282 -1780.1228788 -20553.911812 37660.257497 1555.5369255 1542.3982204 -3780.5287316 
-4340.1308869 -2891.6176597 -2901.5133984 -4486.6483163 62170.870173 -15597.657592 -2711.834712 -2715.3347355 -2740.32787 
-2917.6075474 -2883.8753923 -3420.3336883 -3863.9349425 -3587.4971776 -4207.767678 -2749.9098324 -4284.2593895 -3426.9701865 
4715.6806548 -3085.3947527 -3390.488992 159.83448111 124.70900757 214.3885167 2239.3724582 1703.6278955 -3595.8867921 
-3226.3244988 -3544.8873539 -3151.7223901 -3120.9423268 -899.76394355 -980.20259542 -1380.519383 -2944.7367418 -2876.9152061 
-2911.2590343 -2921.2505108 2284.1593977 -2343.9923117 -1913.4262699 -2250.9835178 -1835.0809968 -2164.1056308 -3764.3883468 
-2685.1685912 -2880.1086698 -2978.369373 -3644.1769639 -3520.4748214 16110.538861 -30082.986036 -614.16731529 725.65353904 
684.8892455 778.4491265 -3151.5143945 152.72682424 -69.040476601 1205.0819267 1143.3352294 -1231.9213275 -1464.4886045 
-3581.0345375 1547.7134566 1405.7673305 -1859.1838029 -1949.8483414 -2082.1634648 1043.963204 714.42225206 1048.9660888 
667.10694955 737.42117019 -3472.9682215 -3502.2284655 -3728.5047968 -3471.5981618 -3382.2817723 -32125.295079 -1437.4573337 
-1742.5206924 -1727.6929495 -1681.1563616 -2377.4496811 -2487.0104351 -2618.104224 -2701.5346123 -2563.8928578 -2614.5473595 
-2347.0175018 -2452.6664635 -2475.1157894 -3061.8451408 -3557.7030809 -3730.4088978 -2217.7809274 -2826.2444756 -2981.9986348 
-2974.6909348 -1370.0744641 -1452.031953 -1721.5570755 -3152.6276353 -2991.814187 -1950.6265266 -6691.6424374 -5773.975383 
-2656.1541687 -2447.8729314 -2995.7452897 -2579.7935458 -2993.7592557 -1887.011335 -2152.9350034 -1698.9446496 -1679.3770772 
-3052.5888876 -3053.1964086 -3038.0648049 -3156.6256157 -3067.901474 545.62234823 -3356.7339644 -3242.5238983 -975.09693602 
-943.2349339 -2027.6574277 -1788.6150581 173.88272973 -2577.4765121 -2618.8612703 -2697.2817415 -2769.9433467 -2255.2946016 
506.54410093 983.48971048 657.37474102 161.45540136 929.80115914 -4216.8929121 -1274.3521041 -1423.3806157 -1242.1577458 
-3481.5136965 -3540.1839557 1304.4660455 1202.930598 -2686.2881772 -818.99441783 -659.95530453 -1441.4693302 -3257.6802236 
-3362.7272129 -2013.3449134 -3204.9675425 -3568.4476266 -3374.7182494 -3154.1583906 -3157.024725 -4728.7357546 -5597.2553273 
-1894.0159209 -2771.1456055 -1532.3848256 -1159.2177667 -1581.1463856 -1658.2054021 -903.44965826 7150.0796937 5067.4360108 
117705.27278 8426.6102719 -11452.251425 -701.56341633 -413.76590883 -182.58838105 131.434775 -156.49868088 1583.7783268 
1560.0473688 -2904.5274812 -1226.5600545 1175.8819821 19281.723159 -148.45996845 520.57317548 713.43918245 590.32092558 
-3194.7966601 -3385.839001 -3576.6982047 -2852.9439847 -3208.5950242 -2056.8363827 -4790.2563714 -4482.7451206 -4628.8510638 
-5046.2729511 -2533.6202311 761.18088729 858.30363261 498.8299216 317.14081113 -1700.3811929 1211.0732646 -2969.383126 
-2402.3914569 1207.3031918 1127.3456711 1519.7602502 -2801.8755619 -2936.7933752 -2962.5069681 -2909.1384558 -2935.6916774 
-2904.9379992 -5288.7312031 -3093.842155 -2812.5521441 -998.81858189 -1020.4677829 -9941.1947082 -3350.051153 1346.5362497 
-573.18172814 -438.51272844 -2457.1956295 -2625.5588294 -2929.7136481 -2872.0798436 -3415.497967 -1174.1562583 -1621.0975578 
-1569.3128928 -1396.4511891 -943.99416794 -2528.6072904 -3300.0220366 -3182.1314273 -3330.2102354 -1650.5995304 -3050.472318 
-2987.2752047 -2779.1156384 -2921.4676497 -2890.8361478 -2859.3282296 -3009.217596 -2868.1350018 -1948.3276035 -2133.4777748 
-1820.0800804 -2041.7269139 47.649013524 -4560.9758205 -4231.5179831 -4635.6806331 -5352.9451183 -1367.5415917 -1246.7954736 
353.23044684 1654.8319465 -2850.4510829 -2993.0492458 152.35285067 -3863.5968024 -3438.6506227 -2012.2374185 -2498.99662 
1653.8436811 -3289.470239 -3039.9683434 -3137.9326122 -3194.3704174 -3369.978525 -1555.6028768 -3144.9875679 1406.0199536 
-97.737962363 -86.625741253 -163.25933698 -501.56125837 -538.0219045 -431.97131438 -3335.9727035 -3636.6108738 -2766.412563 
-2788.7568544 -3088.4791122 -4321.6676679 -4464.572096 -4170.3774549 -2865.53686 -2894.6304973 -2934.6149951 -4955.9308092 
-3407.2174616 2964.9174423 -1069.4490186 -4235.4953102 -4060.8447145 -3833.7359344 864.71188854 577.0264245 962.70791156 
-4020.0253573 1714.4376381 1516.0080461 1576.0946256 1865.1630405 1775.9343009 2086.2985797 -3290.2843819 -3347.7180717 
-1216.0371868 -4475.4242356 -5125.8253419 -2384.3544913 -1054.3681463 -3409.0489565 -3581.4623296 -2953.270231 -3003.5126332 
-3070.7983876 922.16828242 -4881.8191608 -4424.8033291 -4837.598099 -4260.055611 -3746.0082161 -3659.94192 -3151.2985793 
-1873.8195274 -2869.3844943 -3095.8236124 -2941.878544 -2894.3781022 -3017.1973672 -2884.3537647 -3112.5584658 -1517.2525212 
-1654.1128759 -3611.4399783 -3339.045947 -3335.4366824 -2932.7806223 -3277.6869506 -3099.2147147 -2911.7078566 86.506251613 
123.89952114 288.49722807 474.63432862 502.0242353 321.46107859 -3165.7029675 -3286.1284467 -3512.8202947 -3855.5055856 
-3613.5268654 -3612.8453063 -3616.1028175 321.98439728 513.97599444 573.64161488 787.23563851 -3227.1729803 -3273.4501969 
-2494.0240195 -2624.2332694 -2696.1813282 -2643.7988112 -2599.0878403 367.31549603 1770.0773013 460.78656785 -701.434272 
-2621.9812792 -2738.172589 -2922.2981476 -2809.4210438 -2810.9610481 456.88432501 635.65782906 -2804.5186892 -2858.4968911 
-2789.5235134 -2652.2417463 -2558.4467955 -2640.6712706 -2708.8051011 -2750.604497 -2577.8513829 -3438.8747951 -3334.0493863 
-3643.4642121 -3518.6394183 -4365.1502485 -4047.542121 19670.76919 118795.33648 -2354.8268328 -2612.8188289 -3910.4078655 
-302.58798505 -2938.1677427 -2335.6534138 -2025.1446453 -2490.1465376 -2553.4223976 -2050.7318122 -2239.4709066 -3083.6666729 
-3023.8701445 -2949.9577874 -2897.9897434 -2978.7664156 -2962.3957121 -3208.1177333 9749.1317027 -1727.374232 -2700.8552706 
-2711.0378149 -1443.6667922 -2132.9513716 -4293.8757042 -3914.2861087 -912.43000685 -600.33123413 -433.47575112 -5042.3411803 
-4197.8714885 -5147.6777121 -4709.6716738 -603.63631945 -388.30214863 -1252.3014936 -3202.937836 -3307.2177378 -1192.2808511 
-2587.6843812 -2468.456279 -2131.4229619 384.77737153 250.03903903 -293.77603498 95.764100464 -208.40089159 -3457.7309653 
-4356.5968652 -3253.6910954 -3215.3479637 -4669.3862412 -1291.0509889 -2049.5316374 1138.8219902 986.26682237 -6687.946686 
-8439.0989784 -8130.6906519 -6963.8955671 -3652.1775024 -4090.9241275 -3959.7461015 -3667.0387372 -2522.6310954 -2379.3267071 
-4638.1221791 -3785.5114233 -3687.1804404 -2843.2435378 -2990.6200428 -4568.3979541 -4553.56439 -4541.2433341 2925.686972 
185.31002012 -5994.1787458 -3016.7661275 1360.6765522 77885.925831 -2125.5455464 -1863.5297115 -2811.3203922 -3024.58304 
-4963.3439205 -3469.7182158 290.89579567 426.72446474 496.6854163 -5689.0659116 -4875.1697846 -3519.0103487 -4444.1933551 
-3502.1122839 -3881.8410904 -1756.4035068 -3900.5176964 -2965.4271475 -2958.5406705 3142.7327834 7263.8325924 -3804.9413574 
-2513.5693652 -2808.7734012 -2540.3407793 -2479.4565334 -1188.0062454 -1660.4613405 -1856.0338851 -1970.5209243 -1871.801056 
-2146.3183595 2772.5879515 2215.6192686 6567.050984 -3863.1470986 1187.8257099 1099.5537332 824.14405325 838.27474821 
963.77521635 -2882.570519 202.08433214 -668.00247428 4902.9070315 4218.3893889 -780.63857684 1461.597189 1120.2758999 
13604.494991 4388.0034971 4085.0065992 -1222.8659894 -1549.9657762 -2487.8240878 -5091.202037 -4824.0552193 -2149.7696286 
-917.84298014 1154.9649962 -4203.4637836 -4375.4484023 -3860.993493 -2894.8479814 -3006.0099582 -3116.3840208 -2856.1108216 
-2899.3747672 -3042.2238934 630.23179434 1153.3430085 1088.727712 775.41850712 1092.3706536 -1234.5599894 2690.9093169 
-439.02220376 -2424.0576081 -4053.9737514 -2460.4421832 -3183.9612135 -2553.5899904 -3528.298693 -4506.1269926 -2319.176135 
-2296.8809728 -1792.6208542 -3530.4226987 -1636.2129737 -11610.210733 -3686.3310762 -3440.3001576 -3545.5360036 -3602.6637546 
-3641.9168215 -3393.8987808 -4803.187673 -2870.117445 -5175.5263775 -3563.2264727 -757.91027657 2642.2629867 786.96899958 
-87.05447089 2879.1950352 774.82894879 -2907.5604425 -3030.905565 -3054.4764236 -3071.9861985 -2889.9613392 -2773.5100284 
-2895.8200447 -3414.3649835 -2597.5407868 -2921.1876391 -3160.5640608 -973.36798156 -1195.9328511 -748.80428192 -1121.6666792 
-2290.9000429 -2392.6628521 -2088.536817 -2332.5435655 -3796.9129519 -1541.1478867 -1621.3160109 -1144.2858883 -1489.1967063 
-1570.3865305 -3122.9251814 -3096.5340576 -2555.2206397 -2429.5853953 -3853.8980509 -3641.801996 -3771.1560455 -3718.5303633 
-1779.1937272 -2600.9576192 -3028.0151973 -3176.4719409 -3000.6767154 -3160.4469679 15835.296196 -927.79737844 -1503.5394157 
-18842.449712 -3052.6770633 -2924.9426948 -3056.8840139 -748.6016222 1086.9767339 -4114.6621733 -3667.1569061 -2388.7097651 
-2679.3656892 224.29152143 527.39254234 -2707.6170436 -2745.0862209 -5348.8263161 -4967.5264725 -5300.2352612 10216.360173 
-473.0986078 2763.4946096 -4334.0798621 -18779.477278 -2791.7584483 -2864.9338182 -2479.8040737 -2527.6374472 -3743.0492909 
-1860.4620303 105.10713406 -3794.2498928 -4348.7842749 -2927.361621 -2974.145991 -6729.9782956 -4383.9732179 -4856.4771826 
204.72997558 1563.5576406 1677.2070983 -3262.2409216 -893.53614551 -3133.9480377 -3748.5169546 -3808.3642765 -4141.5629559 
-3961.8330867 -3881.5027163 19545.126948 -6407.5311973 -3708.0714302 546.51156767 1100.2936333 364.25498908 461.29110535 
-1981.1732066 -1865.4597599 -2086.6740934 -1993.081153 -1830.2387098 -1768.8167037 -1852.964864 -2158.0091375 -3037.4418328 
-3113.5088367 -4515.4528965 -3474.0991872 -1726.7448109 -750.71310395 20351.275475 -3425.9330346 -2847.2049948 -2877.0877106 
-2929.2654655 -858.82999623 -602.10967482 -451.9077133 -381.41230703 -684.12436055 1548.2625649 1652.6568745 -3081.3560574 
-3099.5727143 -4081.2039503 -3347.9279832 -2844.1311963 -2673.5108118 -2717.6081161 -2810.8595194 -1763.1358377 -1795.3935161 
-7557.9891207 10996.516773 7219.1297255 -3267.9053256 -3497.0355875 -2938.0811343 -2851.7488259 -3148.740445 632.95239389 
4057.9635765 -2330.9045771 878.49226068 1092.0516106 1019.2306424 -1477.7561267 -2820.2773046 -2138.2159287 1690.8476325 
-2752.0565367 -2729.3144294 -2647.9502715 -2538.2156313 -2646.4553069 -2757.16316 -854.01639649 -885.21501434 -1387.8527572 
-1064.4302165 -664.44239505 -346.26725363 -2972.0382892 -2676.0152372 -5149.6689477 -4956.7823193 -4509.0309429 12438.287239 
-1010.6473692 -1153.0374096 15777.970555 -3055.3338791 -3119.2703079 -3225.008237 -3124.3340371 -3084.7449271 -2650.5423086 
-3109.9656707 -1877.2809773 213.45309073 -649.81869188 -569.79934772 -3042.9582585 1380.0434602 -2784.1265682 -2030.9555397 
-4500.0386382 -4279.9046069 234.38243895 -146.50045524 555.93401364 1110.9019237 -939.71200093 -3252.2963366 410.5196973 
-3303.1396671 -3637.9572707 -3466.4357668 -3329.157347 -3369.1435531 -3388.3488343 -3486.7375057 -808.11267962 506.85836738 
1299.3532983 1468.6181623 -2790.3020239 -856.69159214 1553.7161444 1649.1013124 1201.6712538 1212.5144798 -2957.8605483 
-3085.5194136 -2795.5414731 -3037.0889554 970.11183628 762.41782338 1060.1757914 -2566.8684618 -2646.5026543 1614.84752 
-2803.5719588 -2969.1265706 3622.7904225 -3150.683245 -6274.2182869 -3041.7634049 -2766.8163685 -3100.4084755 -1926.5499914 
-2253.0200589 -3277.3911143 -3178.4178551 390.07758408 -3039.5275996 -2566.0713221 -2339.4346872 -2417.462484 -3346.8416093 
1139.52985 866.67153536 1111.7458689 1270.0851962 -1245.5837305 -2541.3167369 16515.562281 -33505.883855 26763.448558 
30255.131011 12030.302322 -1271.2208599 -4131.1971656 -4430.2751244 -147.50976573 1680.92566 4674.1910774 -17527.672591 
-11647.326847 -1205.3203352 -1065.3279701 -1549.7993567 1650.1627302 1271.8769186 -839.76786677 -1571.4432365 -3151.3812218 
-3097.2924338 -3182.4739212 -2957.3270677 -2973.7931209 -3340.0496324 -3304.0199803 -3480.1436341 -3307.3868732 -1606.1975899 
-3431.267355 -2692.1099743 -2867.3702217 -1145.2918679 -813.82062291 -3809.4361137 -3794.7433676 -4178.5466162 -4793.2272872 
-1876.4985747 -3373.730924 1665.3662345 1398.9920847 1331.3814234 -2289.2781689 -2681.3987849 9735.106243 736.21873035 
-4146.6816071 1154.335507 970.07090122 -4519.3855966 -4486.5273445 -4148.439198 -4266.8709308 -5452.4508071 -3074.8541271 
-2296.8300495 15137.33056 695.20987039 304.50357422 -1844.6186612 -1965.4772079 -2110.5724304 -788.37625568 -14735.996879 
9269.4835701 -3105.2263331 -3974.1201878 -3488.2335896 -4225.6574955 -1315.9556937 -849.62279164 -919.25614504 -1382.3196881 
-1393.4697214 -3988.3483061 -4147.2668185 -1987.4724317 1575.7595862 1442.0670709 1685.6681902 1578.3427572 1436.9828365 
1326.3919502 1672.9795162 -5099.5162774 -3536.1817348 -3380.3731203 -3146.0966328 -3289.9948508 1390.0167276 1673.488791 
-3895.8016916 7655.7853446 -3039.9885608 -5821.9627092 -1782.3807636 -1993.693056 -3960.8974757 -1973.2235111 -2183.33295 
-2154.7359158 -2229.5379083 -2284.0285028 -3094.8336451 1395.3520848 -2861.0960887 -2498.9762239 -2584.3722409 -2532.2318819 
-2977.8693751 -2990.8261979 -3003.8073324 -2982.5747975 -2884.0893023 -3761.9427899 -3977.2677807 -4079.2204097 866.50653272 
975.01831711 844.02334475 -2942.9925946 -2648.9575193 -2839.874012 1588.4933396 -234.62197294 1098.7962444 409.37860341 
66.242809164 438.76285036 1309.9020223 -2745.7209323 -4096.132465 -5318.6403833 -3297.2854537 -3460.2928005 575.50406624 
560.61495136 814.20769503 891.65762914 851.04500407 664.93856813 -3366.1859376 -3139.2197086 505.58746752 490.28863579 
-3273.4420803 -435.71568608 -792.21401224 -1062.0606314 -1326.2876957 -1035.496463 -6655.6599553 -4213.3854273 -8053.0348538 
-3021.3969173 -3117.3928928 -3345.1572033 -3333.883971 -3747.6764067 -3050.1722945 1696.6171712 1630.8184762 1495.2627093 
1723.8362086 -1988.3954403 1312.1278306 1836.3508264 -2061.7496685 771.81684688 534.19863962 561.47753631 822.59445833 
809.78358932 -4289.2439002 -4138.2215657 429.55831084 256.51612889 2073.900992 7939.2270586 7457.1313408 1582.911205 
1689.1925817 128.51147584 -1110.363201 1300.7082708 1455.9102744 1080.9170906 1129.3554636 -3221.2759741 -3339.0485741 
-3328.992693 10020.945692 1688.910459 -28.04621358 -322.88260478 -2970.5404091 -3968.5058871 -2981.9426912 -3049.9087567 
-208.34657576 -326.96289523 -518.01311521 -2909.4533627 -2978.4836181 -3140.0622546 1542.7819054 1426.1061459 1672.2908016 
1616.7956795 1442.7082929 1299.7360944 1594.4145013 1345.0783833 952.58984898 180.69820871 -1761.5177845 35450.878475 
-6798.4981026 -3391.8583885 -3637.9341541 -2815.2528016 -2831.6407073 -2673.6215855 -2479.1835767 -1675.1381934 -1921.3644878 
1794.8335381 1639.3488444 1975.7835809 697.0346899 -855.98450127 -1304.6446282 -798.93822079 -1446.4722894 1795.1549041 
1491.1798541 1531.4701699 579.76262387 1287.4453774 1236.0631178 1083.0150919 1064.8906353 1129.1881145 -2259.1846416 
-3520.9344176 -3296.8637223 -3221.7128743 -3469.4644461 -3414.8214835 1660.0638703 1404.3177801 2836.5596517 -989.17334671 
-2919.3215715 967.29388 5256.2465651 -2238.77612 -2741.0943003 -2648.5520376 -3151.3876539 -3224.3181172 -2720.7735659 
-2673.4022901 -2167.9834123 -2091.4210017 -1958.3481128 -4550.3987064 -2820.4379011 -874.17292478 1281.1387892 -2222.7393116 
-181.60533219 1827.4451838 -2692.8830722 -2727.3897494 -2545.1396112 -2765.6502699 -2678.736199 1712.8416304 -2124.7602629 
-2262.9396995 2141.7042662 1711.1438235 1577.1816405 1746.6626791 929.0967834 379.83046018 665.42163809 -2549.8765301 
-2739.6633716 -3074.9528436 -3014.076444 -41029.260412 1670.3385273 1060.8695503 982.23810789 1265.5825207 1068.8815626 
1049.7586871 -5001.892402 -4704.5661254 1418.3444999 1194.4140738 1094.9721466 1089.2042508 954.81682347 -1738.9198593 
-1660.4696241 -3105.8495954 3344.5899358 2237.2415586 1175.1142643 -8393.0177995 -6219.2821975 -6411.9704608 -10556.948529 
-4201.3396824 905.96386002 769.01262033 -1444.3670399 -3530.4184769 -2291.8954193 -2149.4017773 -447.69539871 -3340.0822525 
-3403.641873 -3597.2774631 -3490.8882884 1114.310615 1106.1967456 910.23986811 -2899.8811143 -2879.6052447 -3135.9620622 
-2795.8510158 -362.42201994 -3538.1822072 -3412.3216063 -1470.4477501 -1241.1386369 -1309.1602474 1358.2347361 1645.1190543 
1531.5524478 1296.4975479 1638.4751294 1392.7041362 -2905.7171952 -597.19199918 -2569.7472747 -2612.0278891 -2833.5785196 
-2923.1248983 -4025.1757445 -5722.148215 -116.96566778 -465.84549779 -2526.3836548 8241.3892769 23890.012517 1105.258399 
1212.9585782 1202.8470954 -4183.8643971 1176.6397771 680.23829751 -2781.9333087 -2808.6783907 -2661.9119942 813.76531181 
8600.5414873 1372.5162177 -2309.6261713 -2414.4250273 -2915.12956 -2913.3509053 -1934.1404147 -669.53605549 -1614.8924994 
694.42851465 627.77669808 -3590.3281087 -2880.9976102 -816.29408204 -779.67039852 -668.49648259 -3877.1387636 -1469.5392594 
770.3365048 -3643.142612 -3763.500329 -591.26623342 -2953.0857788 -2916.5344648 -2949.9326112 1082.9221348 1271.2558403 
-680.43358606 -438.43496403 -3966.588141 -3764.313746 -2864.0116491 1625.2273055 4503.2884622 193.1249308 -449.80884555 
-2550.879194 -2406.8561514 688.41257643 -1712.0240535 -3239.1134144 -3381.1002194 617.72660706 -3844.3695341 -2879.7687116 
-683.52401699 -3122.9939423 -2727.5630278 -3052.3261 -66161.384552 -3090.4178947 -2906.3456081 -2902.5185551 -4542.1258636 
1626.4212205 1362.4762159 -4609.352944 -4681.5316126 1118.4081296 929.83752302 903.51016457 -2187.2581287 -2411.3071576 
-2679.3148845 -3664.3539995 -4527.8292789 -2087.6505271 558.99014818 698.36059819 424.08707389 5499.8767318 -2772.3616236 
-2814.7670712 -1073.0799811 -6683.1696643 -2725.7444263 -3370.1144497 -544.78292896 -2563.5972639 -2578.1742312 379.7507445 
-2842.7663545 7.1825051831 523.03015189 829.89360868 560.13722217 317.78518542 226.53587264 422.307214 -4472.7003126 
-5601.5677787 611.33418589 4051.8343439 1533.1136178 -2877.3797659 -2895.0832095 -2691.8336497 -2792.6855301 -1983.1308021 
1006.5920633 1290.6992074 1531.2137191 1779.7355306 1808.1940687 1529.3409144 1720.9304637 1508.0892603 -409.37129132 
-259.05550922 -3559.5381369 43785.167031 -2150.2125713 931.23365695 909.01516741 1421.151086 1580.526947 1458.7219038 
1244.5543718 987.54562611 1305.9592834 1141.4515692 -3429.6880912 2138.2486236 -2038.9380149 -103.719861 169.92797682 
-5205.1950074 -5081.0287088 -4624.456023 -2771.9458033 -7454.3412232 6484.4572593 773.22700606 333.25473513 570.89529417 
-3005.1524997 1684.5785398 17341.250189 -3324.3470801 1224.5209152 -3066.3469685 -281.2557359 -3676.6819378 -3605.3880007 
-3366.8233542 1552.3155906 -3377.3279129 -1905.6201683 -4194.3890831 -3838.6170156 -4379.63847 -4121.4494737 -2875.3314484 
17883.905956 3949.266766 -4225.9984496 -3034.4992353 -3386.8730555 -3690.4322797 -3377.4686606 -3680.2979129 -2196.2601586 
2242.042263 1788.4385304 1493.3303364 2509.9543235 796.20603971 822.42244051 36.414425264 258.92923094 1148.1440368 
-3513.3758166 1175.0190941 3367.6139912 292.29656628 -3579.4971872 -3202.1500873 -3545.1466677 -2718.7212595 -2932.4233298 
1617.4474966 -2278.6854703 -2759.1627822 1185.8069703 -3156.3203687 1341.2566872 -3093.4572716 -3259.1144515 -3170.7600663 
1690.9644662 -1432.5151532 7492.4126415 -567.13680097 9062.3387022 12346.316748 1526.020025 1589.998674 -1967.2230626 
-3120.1077106 -2781.5631551 -1236.8778259 -1136.0013676 -1582.74303 -2433.3110145 -2952.5981869 -3164.3400969 -2871.3830989 
2518.112026 1857.6132911 -2839.0292928 1425.7646846 1231.4779331 -2485.0093391 -2632.8301406 -3544.5256302 -3402.3909308 
-1875.1084104 -77.419301211 -2406.081921 -3003.821118 -2960.5217402 5428.749316 -5018.1154386 -1537.8866373 1079.9441934 
-1001.3814378 -1314.6159547 1659.9953732 1415.6838451 -8374.4901941 977.26548256 2679.7209139 1053.2931602 -2212.2521105 
-6164.7070501 -2322.3538226 -3619.6779508 -4465.6142677 -3366.3606694 -4355.1652257 -1085.7868281 -8131.1222009 -2947.8739929 
-701.39311751 -712.47453438 -2603.4439257 883.61684173 696.65048163 -816.27864185 -544.68404561 -2819.0367412 -2744.1250339 
-995.86319992 -3887.2327773 -2138.4842976 1032.1230242 739.22211634 -2662.77175 -5165.0504136 -2036.0998574 -4879.7758146 
-5507.0307172 -3957.3171201 788.08082813 -3187.0313418 1143.9849616 1157.9045715 -5202.694887 -428.89461131 -875.2406864 
-1507.629882 -3037.765813 -4997.0843251 -5576.0156578 -2976.6411535 1628.931428 1624.7533011 -2999.8456513 -3928.5189379 
-268.78312393 -3730.893674 1787.8458976 -1294.1049085 6592.1738922 -235.3546414 703.56879285 -3241.880784 -2236.4841169 
-2025.9588678 -1923.7006336 -2549.7979556 -4063.6819136 -2884.6485325 1270.6412357 -3281.518732 -951.76633187 432.54919981 
629.19231375 1590.6730142 1656.6188735 -2754.5725616 -2809.3354458 -3033.1728285 -3065.412924 -2851.5215338 -1226.3193745 
-2353.0178794 -3830.3665246 -3418.7444684 -1886.2397019 -2063.2121905 -1586.2367952 -1854.8108526 -1857.0203764 1151.9827504 
177.92369103 -2636.3918822 1083.739066 -924.96279863 -3661.3921158 -3817.1047695 -2959.0995018 -3356.3030735 571.03167214 
-3967.5617527 -2041.335031 -2263.6717274 -3567.9477946 -2562.0451214 -3236.1040597 1047.5572391 1252.0618853 29.954931712 
1654.4343229 1669.0247301 -3850.5179054 -3908.7800408 450.74241163 5511.1338339 767.89905444 2624.2290938 -1288.5051486 
-1230.5699607 -3087.5761041 1626.7569422 -2614.122564 -3357.0389923 -3126.1469657 -3114.7075958 838.83508411 -5866.2809931 
-3422.2159714 -4115.3782628 810.62463208 780.87275357 728.87805799 -2039.8221938 1655.674953 -3070.9283345 -2683.607795 
-2773.8542209 -22.25437631 -3254.5782493 1330.4501113 -3756.384195 -3035.899161 -3272.962621 -4051.9585307 -628.78737153 
1933.657415 -1884.2589781 6243.6802332 -2851.8936592 679.52608687 1637.8329264 -3984.5482344 -4695.9432954 1626.3823943 
-3672.7762326 -3883.2515724 873.78521636 -7591.4277461 -4322.5824224 -7584.602131 -1428.7253559 -1764.8948902 519.50438883 
-1531.9847586 -2975.4187693 3523.6183727 1750.4193886 -4642.3928792 -2760.4291215 -2441.7034204 -2691.631926 -2524.1537536 
978.46312397 882.58002923 -3895.7952496 -22348.528533 -3494.6920178 -1898.0453377 -2470.0066385 -2397.39502 1648.7629743 
-5627.2297076 -8111.4218014 142149.01411 434.4887216 -1609.1202473 -2914.9749098 -1557.0694093 -1784.4229817 -20089.452415 
-2260.0559021 -2416.0273492 -1857.2778031 -2626.3114011 -3119.2733884 -5118.0794304 -4275.0346077 -4388.9195414 -3086.3871871 
-4913.3645912 -5746.0634973 4143.7497795 -25588.119449 -10710.052704 -62578.206788 -5953.6815113 35441.532533 25390.998262 
-2813.9997972 -2638.5537216 -3402.7011831 -5931.1803632 -4782.6178427 -2607.3832227 -2463.2479508 -1745.5705273 -1870.0842457 
-4446.7699411 -2331.8624694 -1968.1281845 -2884.5682981 1681.0623571 1075.9087335 -8802.6904292 18761.720009 -3256.1048743 
-2998.3174914 -5057.48024 -3069.5966999 -8558.4708695 -3018.9471146 -2255.5119028 1299.8528073 1503.709073 -2642.7945915 
-2394.3075489 1464.647205 -3677.851348 -2039.2883862 -481.16620337 -4542.5668209 -3050.7740174 -2900.6591177 -2727.0613672 
-2061.4339318 -2223.3141456 -2299.7039121 -2269.6346787 -22883.842392 -2588.4658937 -2581.6986115 -2817.7050994 -8818.1038869 
-5527.2979197 -1992.542762 -3297.5968073 -3856.9448416 -2574.0035653 -7671.6111239 -9320.092524 -11906.620707 -10506.765517 
-11468.555048 -9427.560165 -9655.3982329 -9124.6962407 -7898.3815589 -8360.3660914 -11624.148727 -11702.624446 -7860.9782049 
-12186.246838 -10712.140229 -11230.592668 -9318.5770641 -10358.418586 -13054.12901 -8373.8527658 -11772.792586 -9029.6700921 
-10825.989262 -5516.9631393 -9041.6686301 -5889.8587754 -10390.485954 -12916.498519 -7343.5482043 -11692.636018 -10330.584665 
-10298.675524 -12333.879752 -11151.634172 -8793.4975354 -7499.9034808 -11641.365791 -4839.9060203 -10912.724338 -12411.581768 
-8644.0187162 -9384.7220885 -7062.7257014 -10321.165417 -7656.7107771 -11475.863869 -11850.888251 -9009.8017815 -12267.832126 
-12094.996885 -11258.138169 -11109.208103 -13192.761069 -10305.904688 -11632.585977 -10575.780732 -10841.24364 -13254.264577 
-8226.521459 -11836.028208 -9227.636239 -8219.5932326 -7093.1636625 -7934.0909113 -7427.0015231 -11182.665706 -11786.710889 
-7402.5443053 -10741.054822 -12569.689565 -13719.18439 -8249.6616084 -9898.5494615 -8284.9854055 -9360.0780901 -9669.6578137 
-12742.344421 -9992.0738714 -9085.6823496 -9444.6182145 -11658.93585 -9749.8078781 -9871.7387705 -9333.0827884 -10376.269201 
-9169.2740202 -7688.5367912 -10927.532365 -9926.266705 -12504.696275 -7303.0164296 -10687.253487 -7938.5634593 -11154.285322 
-12599.491107 -11556.269035 -11155.45091 -8146.7852925 -9634.2763367 -7326.2925722 -10813.669982 -11035.590499 -11722.54087 
-10454.174744 -9795.4707262 -9847.3796365 -7297.8483809 -6087.1263103 -13515.337471 -9957.6800031 -12099.838461 -10971.318227 
-10860.823053 -9990.3147742 -7742.445438 -10963.01661 -10081.730142 -12321.599972 -9596.2766175 -9295.1068207 -11558.48111 
-11976.371993 -11540.725303 -10377.714102 -6759.9753859 -9976.1834473 -10473.842276 -9259.7422202 -9391.1559356 -9049.0214757 
-8178.8533061 -6072.3113387 -10613.840598 -9419.7844057 -10824.31443 -7145.8452712 -10403.669255 -9846.6808693 -8522.8695582 
-11226.790501 -11711.148893 -11561.151427 -10977.302718 -8464.1045074 -11736.934059 -10537.319719 -8874.7436129 -10847.318729 
-13406.835047 -12172.300909 -11804.924721 -8925.5719434 -9116.8794059 -16150.503185 -12283.495133 -10748.056223 -6520.0027008 
-9612.8833182 -11660.138394 -11643.477041 -12131.418674 -4776.7255516 -12306.719547 -11867.661912 -13886.392667 -10785.494142 
-9588.1618958 -11442.867541 -10870.244468 -13769.818157 -12389.418191 -10983.199295 -11612.974912 -11287.7589 -9508.8688769 
-10134.428215 -10519.650177 -17309.896123 -11174.102738 -9594.3856195 -10500.29769 -8321.3687342 -6031.180679 -10393.827992 
-10472.913636 -12176.558625 -11304.452441 -13361.574692 -12799.203203 -10388.309229 -11844.956834 -12614.78232 -8880.4427748 
-9907.7238809 -13007.052855 -7795.4199187 -9060.1698698 -12864.613112 -12270.763535 -10942.317438 -11366.141732 -9862.3379268 
-12019.622189 -12595.820296 -7196.5580268 -5609.9280828 -8169.911196 -8268.0925143 -11642.414325 -11911.477823 -10932.519719 
-6100.9145167 -9408.0291195 -6711.5005004 -13672.997648 -9477.9323227 -11862.56431 -8301.2843341 -13213.638165 -10679.173695 
-10805.743449 -11037.176527 -10589.870054 -8222.0521124 -9675.5133448 -4820.338886 -10695.067354 -9522.8048157 -12597.765341 
-13625.253972 -12326.049409 -6007.9252179 -12412.02868 -8488.5702986 -11388.104343 -9786.9504161 -9615.8936634 -11387.621657 
-8097.9840379 -11081.840666 -10203.128814 -11711.929044 -11173.352636 -8346.6735472 -10364.362263 -8166.4394613 -10185.486549 
-11149.010625 -9903.0585218 -9646.1351426 -11751.947207 -10844.582948 -7545.2947948 -12834.637496 -9829.8001314 -12029.389839 
-9887.0513168 -9997.4848104 -9510.6845833 -10267.669648 -11003.506968 -10442.559716 -5906.2482875 -10963.326869 -10102.65982 
-9544.5864222 -8867.0494306 -8783.0654444 -8665.7339955 -8338.5104434 -9148.3437081 -14121.944285 -8934.6021436 -7420.9621062 
-9737.2001741 -8919.6627784 -8824.2998928 -10023.614844 -10053.822905 -9410.402616 -10152.3845 -10990.805998 -7462.5714255 
-7817.407852 -6543.790677 -8157.4111492 -8623.7478202 -9016.6431012 -10901.860239 -11681.694102 -12069.037798 -8966.8481657 
-9053.8336081 -9753.6996165 -9476.8499496 -9413.272706 -10028.568981 -10658.314318 -9500.0889743 -9359.8745428 -8970.1187223 
-10405.375304 -9898.019392 -9105.6397574 -9296.2573895 -9145.7803385 -9156.1361834 -8887.1188755 -8024.9360041 -8007.2667332 
-9571.4101911 -10337.719921 -9919.2061468 -9699.2436953 -10560.9915 -10239.340805 -10698.968801 -9962.4321821 -8222.5083821 
-10293.604732 -7111.2389051 -13503.120219 -7218.6284381 -6983.1882764 -5821.9976643 -8566.2939421 -8333.9469044 -7981.597175 
-7992.9327812 -6682.5613713 -8439.183549 -9344.4808187 -14864.141612 -10844.549806 -9650.5403454 -11258.472438 -14682.060723 
-9905.0608053 -9832.34491 -11683.277562 -13639.178911 -10102.239204 -11056.054855 -11627.31614 -9001.5493386 -15372.594549 
-8166.6594676 -11737.184686 -9515.7106522 -5877.1579501 -7190.9209493 -13943.044838 -14037.331563 -4747.8652086 -10705.393849 
-11778.827834 -13211.451636 -8137.1137808 -15784.527752 -11106.252598 -14560.450947 -17320.695807 -7084.2359316 -8165.6714722 
-6839.4595209 -6218.6778318 -6575.7719424 -4808.6759013 -8062.9234726 -7121.0438193 -8061.9267704 -8751.3044708 -9439.9639428 
-8859.0350496 -7253.471826 -8076.1051645 -14375.496798 -9252.0730627 -8168.17262 -11148.906573 -8007.6674955 -6795.1082218 
-7976.6422755 -9205.7059718 -8267.7251747 -9724.9068888 -9944.4138923 -10162.643403 -11591.338675 -7716.883851 -9891.5149014 
-13129.298076 -7686.0483358 -11641.30361 -12229.342098 -17680.904666 -15178.842111 -13681.097188 -12934.739285 -9819.161682 
-3207.6046011 -7499.4701218 -9676.634128 -10029.058096 -8161.7629322 -8500.6116744 -9045.5027082 -11558.703418 -11980.594944 
-11074.755616 -13875.319404 -8807.9747013 -6826.4372317 -9951.9101334 -14800.513225 -10942.463946 -8119.6610827 -8968.1555218 
-8597.1122597 -8309.3466028 -8698.9836748 -9135.3310268 -10941.532509 -4816.4197524 -7336.9631226 -9219.1053873 -6675.6616736 
-5291.5718679 -7016.8189417 -9447.2721818 25902.260228 -55822.948653 27892.716205 9541.3454075 -6928.3537365 -15863.458038 
-9490.6865059 -3891.4734629 -582.74540881 -16748.954939 -17310.123671 -7171.9866659 -13647.482062 -11069.411215 -8159.7629154 
-6953.1058401 -8554.7273285 -14279.002077 -11076.381288 -11907.154887 -14639.49185 -14960.823832 -16323.544183 -5445.8571651 
-9275.2944923 -5101.9659572 -6349.8663583 -5993.6108922 -5909.8877067 -4628.7670864 -10038.727538 -10504.306761 -6970.8502941 
-9796.4424613 -9439.057117 -13084.090801 -10249.456373 -10999.106131 -10325.724181 -10382.420307 -11236.465809 -11335.432834 
-6063.891102 -8367.8512001 -13782.894259 -13018.955321 -15270.559533 -8965.5390088 -8701.5419494 2907.4642533 -39160.212631 
28932.217226 -13686.876569 -8172.6332847 -8824.2740181 -8072.8873357 -11193.469228 -12688.67104 -9503.2761776 -10252.500416 
-8284.8222591 -13035.706331 -9659.4265102 -9625.207258 -9148.5589656 -8140.0920257 -7220.0058443 -8246.047072 -9229.5080582 
-8616.3549774 -10670.732079 -11089.867442 -17062.955908 -8096.2482632 13436.173068 -31858.15172 -5544.5979194 -7229.557931 
-13294.01049 -10358.19215 -11564.772503 -9726.7337634 -6469.4779371 -12176.30596 -12927.845738 -14156.995939 -9961.2319673 
-9271.827842 -8175.9417195 -9933.4472489 -14854.552849 -10209.301634 -16083.507092 -14701.760517 -13702.38173 -11233.653403 
-7425.8080459 -8154.6682013 -6669.8956269 -9339.2672504 -8091.8824531 -8836.4140624 -6549.1423498 -7763.075631 -6524.2127249 
-5887.3585933 -7586.0963686 -7375.0141984 -9161.7682981 -9252.0583538 -8149.4213392 -6916.0083278 -6535.3063179 -6913.9836575 
-6996.6262134 -4636.1860428 -6600.67998 -9299.4467819 -14238.50469 -13436.371048 -13424.152802 -10571.216446 -11186.46711 
-10628.411779 -11234.657563 -8706.0226241 -11858.110894 -17585.773487 -11342.887181 -8357.7380762 -7801.6386591 -6248.9750987 
-6973.5239016 -8647.5783016 -9368.8639871 -8183.0081336 -11075.7833 -7098.1227692 -16483.716276 -6386.737965 -16259.411203 
-16615.672993 -14290.672851 -14477.883681 -8851.2963547 -18578.692724 -12951.538712 -5681.6846233 -8342.4352077 -4036.1378717 
-11299.915257 -12185.761947 -11157.711427 -11634.492013 -12102.285769 -13264.148457 -10040.12093 -21292.866763 -9295.4468916 
-8257.4943203 -8965.9301392 -13324.53008 -8561.1715587 -7510.8407458 -10118.397917 -14722.099721 -9181.4807324 -10190.95808 
-3673.5539777 -13447.731747 -10925.613372 -13205.514162 -13033.761684 -13273.508066 -7009.1450261 -19535.329842 -11047.168925 
-20454.878294 -6651.8624854 -8097.9686935 -5025.2110938 -6531.6563708 -8175.5239794 -7843.1961509 -2725.2391555 -9070.8694381 
-8342.3960999 -9448.7864369 -14371.920821 -7822.9183822 -9304.9330506 -8195.4406952 -7602.3514191 -8690.1586299 -8656.2072684 
-4084.4166994 -5127.1401734 -5665.7708945 -10403.370698 -3401.9778499 -12763.84406 -14125.972277 -12440.392647 -13127.703327 
-14530.763913 -13525.702256 -6727.9701891 -11716.986274 -4989.5269685 -7386.5954192 -8190.6420423 -8577.2262469 -8492.962224 
-11646.58156 82.760525384 -16494.885981 -18029.922042 -9608.1974217 -10063.741514 -11942.927759 -7292.7284437 -8575.9348573 
-8336.2077842 -12752.602178 -10731.934772 -13069.487757 -8383.137151 -17985.752339 -7180.6604041 -8189.8602074 -10044.256126 
-9670.8943678 147.61520012 2068.7834873 -12399.8221 -4418.7847032 -7172.2520446 -9193.4784921 -5853.9287181 -6149.3407025 
-6031.8355938 -21330.665222 -16601.622089 -7709.7470443 655.22630777 -8988.1916848 -3802.3684414 -10103.964204 -9169.5876047 
-10405.452031 -11507.327329 -11815.304625 -9888.5404416 -11076.667621 -11248.668012 -5767.9737295 -6866.0841754 -10248.145777 
-10880.265112 -11411.443702 -10667.690307 -11871.478553 -10208.219509 -8687.3678824 -8623.0320424 -7314.3135069 -7326.014104 
-7705.974054 -6947.5576535 -7932.4805948 -5593.0611991 -7419.2116071 -5923.4236651 -14708.337521 -14356.375524 -14798.357966 
-12758.217958 -8982.99888 -11045.509583 629.92492337 -25711.500486 -8467.4199542 -14721.36547 -10644.739834 -272.36412471 
-12277.351777 -2677.1733621 -2093.8527563 -11738.184352 -7744.3442083 -14539.213467 -11625.211521 -13797.511842 -12056.842724 
-14626.354442 -14305.434901 -12578.274217 -14703.480995 -14979.698638 -12122.9575 -12983.573856 -10590.036239 -11659.490189 
-13666.870469 -10595.203522 -14384.694558 -16157.932864 -12795.03072 -8507.4340177 -6692.8142872 -8335.2590191 -11329.395484 
-11739.958567 -16233.023599 -12439.917204 -5968.3551408 -3974.5452314 -11802.931429 -19481.24677 -6322.2445859 -6275.6401915 
-6962.1932836 -7652.897093 -17874.015647 -15283.31696 -11393.281324 -4216.8120149 -6750.354242 -6777.1234522 -9870.9859612 
-9790.9378908 -11237.853455 -9698.0320558 -13100.990554 -5149.4184128 -17974.091502 -2514.8412628 -19923.833364 -8689.0097488 
-13527.892002 -11881.006066 -10832.369309 -7929.330914 -13280.832742 -8851.3795661 -6974.2537376 -13445.691923 -8044.6426785 
-8837.1658524 -5933.3608826 -7005.2923478 -7370.0049708 -9062.5468759 -8403.8245683 -12760.419423 -13882.514948 -12116.941462 
-10632.90431 -5949.350145 -15431.586417 -14239.798469 -7511.0240652 -7068.0702232 -10978.895037 -6657.7340378 -13065.797472 
-10037.231969 -1625.6714032 -9708.0917698 -8459.2302878 -7667.8561388 -8570.936263 -8001.6409085 -7851.862557 -8480.4857156 
-8485.8603283 -13657.901679 -6395.5689652 -6588.1892389 -11560.643828 -16762.298311 -11959.219032 -6475.7187609 -18270.028322 
-10777.244328 -10271.380084 -9709.588101 -9701.7956697 -10438.460307 -11401.759126 -12204.47151 -11498.292367 -6200.6252202 
-5061.7894661 -7646.5696664 -6896.1010742 -8846.91102 -10194.96169 -5750.3836619 -6895.8021909 -7922.3692821 -10121.558166 
-9770.3742272 -10650.572973 -6108.3941804 -5581.5830981 -9716.4138878 -12758.662264 -12686.596402 -10794.65079 -10594.989387 
-13461.300629 -10527.637773 -12452.963947 -7354.2936111 -7171.9163246 -12873.073317 -15883.347232 -4967.2780312 -8194.8033621 
-10101.021662 -6077.0426235 -8563.3522691 -7238.7127033 -5383.9051175 -7803.0879267 -8128.0956805 -8046.0619209 -6877.1008884 
-6145.1092439 -6935.7829257 -7518.2154678 -8996.023832 -8868.5875902 450.39332317 -12410.637222 -19227.400111 -1943.5933108 
-5906.9677517 -11312.365523 -7690.0335896 -6090.0330786 -13999.322925 -8739.6065639 -7547.7181429 -15565.065574 -18563.723336 
-12861.239521 -7642.9709152 -5490.29673 -7883.6859631 3743.5828312 -8054.7336938 -10518.333044 -9625.8469314 -10859.804826 
-18032.034542 -11688.173042 -4079.3544675 -8911.8897102 -10862.213255 -9671.9067481 -11100.903635 -9357.0919575 -8841.0163377 
-13827.228882 -12425.313874 -11049.399048 -8566.8931183 -13841.819551 -11482.744402 -11858.088385 -8244.2954208 -13979.734212 
-12134.666913 -10179.180624 -9162.6988089 -10619.503018 -13210.89864 -9954.1049601 -10366.093046 -10912.291524 -11436.491854 
-13986.719589 -9216.968483 -13030.282504 -15737.90501 -7114.2949402 -9039.2762985 -8006.9299621 -6440.6691763 -15301.667551 
-7643.8777356 -7672.0746368 -7167.8414327 -11212.918665 -10654.354342 -11353.502554 -11958.771008 -11797.735314 -17245.432336 
-8318.6054963 -17384.619192 -9959.1954969 -7736.9682445 -5704.4026729 -9287.7133104 -9435.4495724 -13512.06393 -13273.019702 
-7960.7537385 -15474.954802 -10446.210636 -12225.634821 488.28685356 7825.3057322 -12882.411128 -17931.206677 -11667.884976 
-10487.393551 -8750.5850602 -6470.1605126 -9769.320199 -11403.773222 -10736.626617 -12412.152225 -12078.623854 -7493.8130557 
-6156.5721438 -8285.760376 -10407.029439 -8850.9370035 -9365.8182327 -36924.727803 1242.2724313 -10619.015813 -13174.781783 
-7431.7008588 -14824.607664 -9839.2952159 -6987.501595 -11490.661799 -12598.47549 -16035.815618 -12162.335293 -13225.02709 
-5892.0272845 -11161.420977 -7842.3067751 -11583.914424 -10232.388772 -10142.030057 -6313.6569603 -7177.2387979 -7151.7012876 
-6913.2938361 -8513.1789749 -8418.6700226 -8011.8598027 -8176.0089547 -8369.3865591 -6882.7927924 -6894.0654605 -6749.9881352 
-5892.1861388 -4605.0867944 -5470.1528041 -12514.296684 -5656.5234794 -6237.6910359 -4446.8666063 -4350.1020391 -16134.960476 
-17949.79348 -11532.549511 -13076.525892 -12445.868385 -11280.179881 -12182.926111 -12060.836297 -12151.206276 -12639.92637 
-17922.017614 -8108.0204646 -9509.1354479 -6883.5126924 -13050.982388 -14278.621523 -11306.744176 -11320.70318 -8610.0018301 
-9030.3107047 -8183.1457159 -15052.111271 -1189.7242655 -15073.929151 -3228.3901247 2670.7204853 -21776.110729 -10162.841531 
-8465.7198053 -7779.8197408 -13638.720782 -11687.206718 -4752.5800173 -13137.504319 -7978.4313317 -4519.3334206 -9023.086596 
-6244.7313304 -4681.425885 -7799.4742193 -6447.8157686 -7940.0407676 -7203.5152314 -6594.1518298 -20647.22963 -4894.6486423 
-13179.546048 -14200.932853 -10450.767288 -8541.0912365 -10209.761265 -11876.612882 -11657.867873 -12166.480707 -9600.0685786 
-10366.387385 -8690.2840124 -9755.5731841 -11990.14251 -10325.992518 -15315.569498 -17795.288978 -9389.7577278 -10260.44106 
-10364.302921 -9664.5113556 -10241.927657 -9858.4385685 -12117.003662 -10810.885858 -11383.704521 -13829.568341 -10736.241903 
-9467.3157323 -7427.8569459 -7692.6763264 -11323.983424 -9978.4767026 -10199.471796 -10691.157813 -10513.545569 -9565.02036 
-8978.8152113 -9112.5419256 -12760.435647 -9264.8191477 -11574.272924 -11941.214294 -12676.088121 -9342.0501205 -8619.1358666 
-18026.252158 -7665.3583654 -14648.241969 -11958.417987 -11332.910841 -7401.017899 -7951.2608501 -6919.8017833 -19948.855849 
-14999.025364 -4822.7359217 -17817.445365 -9802.4097606 -5049.6550273 -9203.0147701 -8276.3192912 -9276.7753493 -9142.5341238 
-9443.195534 -9017.3943171 -6777.5191724 -6041.0684743 -12248.673753 -12083.013665 -11161.03469 -12534.279613 -12847.298148 
-13256.403417 -9671.5421323 -10974.213037 -14364.160767 -12129.64046 -7222.2241553 -7372.4698133 -3966.6749383 -5335.0080552 
-11165.738649 -5737.0717919 -15179.518368 -16303.04311 -2131.1027081 -10639.783654 -9884.2448213 -9419.8758919 -10047.290236 
-37690.202772 -9764.0885635 -12883.767801 -4745.0991256 -10020.77598 -10008.98589 -7599.9700392 -6842.915162 -7201.7129012 
-8781.6335177 -12940.133789 -12347.85949 -6705.6561805 -8456.1572964 -9100.324014 -8275.7707503 -8091.4424852 -9883.0275954 
-9085.2583913 -9332.8037596 -10039.413138 -13222.747391 -11085.13666 -9903.3334702 -11538.046639 -8423.1633204 -5476.3815077 
-8839.8427867 -13363.682176 3398.922174 -14756.331657 -6970.8391937 -9043.5321816 -8742.6607115 -13492.649241 -10719.821791 
-9799.5448165 -15636.891847 -15169.228067 -7804.1011531 -15246.822589 -10279.614392 -9287.6850826 -6876.2928312 -11830.022957 
-13625.886529 -9502.9606519 -14092.331363 -7967.0770733 -8626.5612807 -19741.18901 -10552.561023 -9928.6452599 -20249.642653 
-18616.007494 -8095.6655124 -12374.313488 -8392.3879766 -10004.355204 -10254.06749 -13216.439741 -6004.2520539 -8903.6772528 
-8057.5305538 -11600.930732 -11150.113004 -10654.682222 -7734.0911189 -15384.74488 -15301.098682 -16200.064879 -14434.266085 
-12700.5221 -8405.8151241 -11498.494477 -11328.389893 -21858.474015 -4931.4826165 -10555.859952 -10017.762066 -4705.5312786 
-7564.2996458 -7909.8881333 -7666.5452615 -7080.4811528 -6491.1186245 -5763.9020878 -7240.5073649 -17194.098862 -9305.6302504 
-9910.290594 -8926.5110736 -7167.1032595 -10107.354791 -14446.774252 -11066.380891 -3318.1345467 -6451.9570092 -4032.1833984 
-6467.8819803 -10230.624235 -9648.9318844 -9114.1148099 -16973.695498 -5935.5288814 -11977.466637 -9817.1176343 -9875.7775433 
-9167.710546 -8632.6413998 -6909.4773155 -13553.640314 -8913.9419127 -8912.5077228 -9031.7365232 -10064.729387 -10062.267121 
-14707.465324 -14136.206025 -7057.3280832 -7786.6870905 -12589.076721 -6451.7955573 -10542.540245 -14659.721231 -7394.320374 
-7781.5332484 -7744.5951621 -8075.5640246 -2742.3044501 -9045.6161049 -11667.371322 -12059.042502 -5539.5866101 -11345.189032 
-10946.142011 -5162.3633183 -5742.5569674 -11251.009147 -9651.6243245 -9316.7633437 -9681.8859496 -4369.4797394 -9610.9174989 
-8805.8610759 -9217.3267665 -12238.784304 -16369.983173 -9324.8498159 -8089.2927318 -9569.8299397 -8759.5683693 -8375.787227 
-11499.555722 -10068.789675 -6844.8857136 -14052.045535 -14891.725672 -11277.921666 -6640.7498249 -4951.9942357 -6884.6184615 
-7230.8003624 -5640.6127152 -8176.9203625 -11079.934584 -3859.9871241 -5538.3626964 -10835.596865 -11271.695237 -11659.872148 
-7110.9821927 -8542.499423 -8342.2573944 -9302.4260853 -14569.332951 -14723.221596 -12867.630143 -13457.555143 -13733.463111 
-12193.254883 -13596.060456 -13342.23272 -12091.242606 -12849.644393 -6204.682832 -15609.16531 -8005.4833561 -8929.2061683 
-9822.530513 -7642.1793462 -13409.080031 -9742.8351548 -9278.4899745 -7465.382286 -10624.571341 -12409.382593 -13870.87607 
-6513.4127591 -18244.552036 -8250.4787617 -8287.3532403 -13901.746626 -2974.944564 -14071.978076 -2262.8939101 -7683.7242319 
-13459.070198 -8567.8212255 -14590.192486 -11548.440894 -11192.484442 -10903.656159 -13903.352282 -11262.06784 -12171.029923 
-6465.9049102 -19144.305464 -13243.914503 -12960.61077 -9183.9680575 -11299.700147 -10696.004325 -11975.486212 -11521.447074 
-11044.837942 -9163.6374979 -10280.391869 -10767.745817 -10977.489905 -12677.077917 -10256.483802 -10177.00132 -10843.028217 
-10497.084477 -11283.948583 -10805.303362 -10521.157592 -9838.1046447 -14672.293254 -17001.288124 -13741.605984 -14949.396235 
-12226.924968 -9387.5847255 -10906.503315 -11062.659797 -11162.806422 -10081.810504 -5720.3752168 -15803.242469 -15839.859973 
-9417.3721228 -13473.782816 -11744.150515 -8914.5811317 -8683.8913821 -8960.665447 -7956.231193 -6327.212277 -9267.5930582 
-7030.8821816 -7609.5256446 -9855.1192306 -25252.191335 -11105.177712 -7846.4098017 -17425.61583 -10508.326736 -14764.358871 
-9182.870653 7148.720116 -2485.6383749 -10883.908506 -10415.240139 -4622.321541 -5481.5061763 -10089.424375 -1358.7768586 
-6451.2428763 -11769.916389 -9291.7102447 -8978.5230496 -10713.250431 -12996.229356 -7255.9150504 -12988.261817 -12510.800145 
-13052.503142 -12523.901269 -11449.411977 -7812.4669247 -12110.659992 -11730.767997 -14269.502501 -11598.756111 -11019.075495 
-9968.9136814 -7762.6286345 -6419.6876095 -10399.077733 -10766.071253 -14344.722612 -26744.442085 -16112.832026 2154.097884 
14929.868352 -9157.7587854 -9678.5532864 -11762.098962 -9871.0221077 -13054.699536 -11935.464904 -14594.082047 -7669.3346158 
-20842.970197 -16434.319608 -10410.413157 -12499.035075 -16099.846879 -7799.6734958 -11461.718237 -9339.617819 -9734.5712026 
-15522.699234 -7458.6659663 -10694.642955 -11486.563325 -13886.036768 -14464.342256 -11773.934982 -16448.989296 -12547.592018 
-9240.7246339 -8403.4279738 -7622.4670467 -6638.4884092 -9812.8038249 -6616.1767285 -5906.4692887 -5974.5989709 -14031.847593 
-9629.4700568 -8250.074389 -5004.0378568 -4935.1149091 -6694.3806178 -10382.23706 -6323.6809502 -7472.7271073 -6733.9428173 
-7244.4277037 -9897.7397948 -11773.16215 -12560.190657 -11951.766076 -8800.6420471 -13313.615469 -11890.410242 -11760.246341 
-10733.669673 -12062.09103 -9738.1537883 -10903.779198 -11940.0788 -15212.526469 -7567.22828 -14869.83116 -10179.429367 
-17262.311502 -11814.802357 -10391.405751 -11265.491494 -6668.4858846 -9918.3228174 -9558.4788888 -9349.930978 -10016.301927 
-7222.700662 -10865.651667 -10009.087389 -14102.634991 -8464.66927 -13386.335647 -5118.3800651 -10148.37321 -10064.401701 
-16156.133774 -10413.959368 -4404.0772668 -4279.1377428 -3119.7132274 -2981.1065133 -12479.585925 -10748.44154 -10333.396917 
-14714.833937 -2403.0251213 -9597.3654835 -9964.5977017 -8659.257148 -8440.7114281 -12636.15742 -16328.372048 -10811.989278 
-7769.7188632 -9769.3198015 -10684.675546 -10124.91205 -15207.426059 -5083.897102 -11508.627715 -11881.936251 -11217.633683 
-10101.228777 -6081.2475819 -6800.3805677 -5851.5068805 -9610.4704297 -13100.360227 -14391.962314 -11673.987843 -12011.615608 
-10099.096127 -2867.8490538 -22969.694483 -10922.60044 -15288.148876 -11398.592691 -9057.4111504 -8637.4894123 -6749.9244707 
-5690.4792934 -16043.590102 -9134.0222944 -7565.0751598 -9138.5244029 -7168.12964 -21715.956749 858.04056498 -5031.4404076 
-4697.6738478 -5917.81654 -3695.6268419 -5189.4105741 -7363.336592 -6170.5594558 -6979.5044671 -10513.523521 -1773.082761 
-4798.598387 -7548.7693856 -13209.941779 -11854.225129 -13430.243097 -7328.1078783 -7746.4977136 -8078.2660691 -7468.9167585 
-8197.9695219 -9205.2445348 -6901.6035906 -10148.220961 -9909.494523 -9128.9839333 -7730.0225115 -7666.4672538 -8429.997793 
-11119.461192 -9715.2090998 -6663.8356595 -8428.6618528 -7340.2711237 -5225.182852 -13463.385998 -10523.454092 -9479.625573 
-18238.638031 -8800.0056646 -12032.151364 -11107.392517 -9773.4243882 -72627.652374 -21894.260018 -28097.057975 -3163.4434242 
-14549.993104 -10079.203171 -6358.8665542 -10761.492619 -13218.008287 -14903.991194 -20683.802866 -10490.647899 -6093.491706 
-15521.477974 -9890.2656235 -10255.762158 -11466.365863 -12568.415106 -13190.984503 -13517.888574 -13061.068931 -8703.2837513 
-6681.8648937 -10185.399016 -10159.768667 -11315.302421 -17052.462131 -15084.360759 -9833.9367197 -9770.3645239 -10319.456105 
-10039.143358 -10196.051496 -17007.162208 -11530.348846 -14171.594649 -21671.38364 -9205.3645657 -10448.962538 -10421.909195 
-11219.206675 -14644.966894 -2978.8967313 -13295.737562 -15868.246051 -8942.9802043 -11144.343552 -15998.262425 -13569.856039 
-9032.1721775 -8080.3419563 -6568.4343593 -9363.7398946 -10356.301852 -14111.584164 -13501.439545 -12455.349121 -5591.8926616 
-4929.5042599 -5622.5993429 -5821.9419386 -5699.307006 -14355.471761 -10482.715289 -11275.117774 -9421.2788008 -11831.246393 
-12082.403209 -11531.398326 -10689.565207 -9073.4086029 -14825.60603 -10213.909127 -8684.2126889 -8184.4548237 -4852.6880031 
-7836.6856564 -11488.405045 -13490.19705 -6460.1178503 -16260.165362 -7038.3784882 -8458.6126147 -9848.6898504 -10361.978882 
-9517.5190521 -9900.0334917 -3409.855937 -8923.3688242 -11751.558308 -11149.065126 -11975.431637 -14094.878023 -17089.255747 
-14910.602901 -9589.1646492 -9912.4102494 -7873.9873836 -11263.787877 -13418.928135 -12782.40816 -11364.867389 -8451.9568105 
-9361.2656868 -9703.3942651 -8403.785173 -8641.7527055 -10263.307876 -6456.0645908 -6939.5855036 -8025.1633996 -18773.863783 
-8813.1655079 -9016.0428897 -10874.136884 -7725.3802231 -11220.806003 -9430.6763763 -8798.8776842 -9580.058055 -9618.5730575 
-8742.4420872 -7790.6075205 -16275.405038 -6709.006244 -9425.2441935 -7440.5348875 -4898.5560814 -8194.0636783 -8828.1215717 
-10955.321456 -12060.629262 -10904.439216 -7364.6039644 -6221.1254291 -9618.4403331 -7363.149438 -8227.4552638 -13086.427529 
-11076.976282 -4118.69905 -11165.221162 -16320.655702 -12991.607212 -11707.212195 -10489.349974 -14824.53049 -13046.962651 
-10814.496259 -7673.7594351 -12445.786375 -11295.746187 -15716.260578 -7772.3001725 -17838.484637 -11815.898566 -14616.153452 
-14019.228158 -4402.6343673 -6328.9955391 -9105.3417939 -3890.0877251 -7083.6303031 -8452.4455257 -9667.5894063 -9456.4168964 
-10755.970904 -5924.6577144 -7147.3904843 -6564.727408 -3962.2746804 -14665.963578 -12237.981227 -9354.2223487 -10541.042126 
-8024.3376011 -7458.0277706 -11068.016046 -10362.624425 -9860.3054597 -9163.9232834 -8474.2015263 -5047.5550344 -8495.1545539 
-4403.6942841 -5228.5847595 -6660.392529 -14033.769258 -11514.774628 -7289.3314382 -8338.8191209 -7193.5180714 -8849.8048327 
-9179.5585232 -13712.703123 -13312.982392 -18472.598795 -10504.034224 -9349.4759805 -8205.2264981 -8323.1624863 -10141.625003 
-11536.684689 -16560.692509 -10531.489365 -11217.778154 -9315.2643751 -9887.2899248 -10812.396276 -11912.782516 -6773.3810527 
-6079.1128044 -6830.7554462 -16586.08325 -10657.446229 -13382.111288 -21906.603479 -17293.733406 -11265.364599 -11733.405542 
-12405.350605 -11994.616662 -4252.909319 -10359.534969 -12238.691214 -11533.809087 -7531.2243212 -6036.4413572 -6605.3926445 
-3154.0280453 -7760.2251472 -9474.8082999 -5989.9095557 -16953.732077 -5466.5843942 -12518.062102 -10624.956557 -10355.317133 
-9995.5810191 -6894.2533874 -7737.2581361 -14144.687879 -7203.6756577 -14315.778826 -12606.424981 -6683.380684 -8530.1461449 
-10829.053903 -13299.68274 5548.3216122 945.82102462 -16289.514952 -14727.05241 -7053.9163811 -7287.4181824 -13422.345971 
-4788.2858145 -17243.069974 -25275.137029 -14485.075826 -14581.162879 -11291.642864 -11158.207423 -7363.1978613 -4450.4239217 
-10325.368831 -9946.5316959 -9699.8193712 -7096.6863072 -9836.0096594 -9502.2666051 -9417.8420294 -9650.1185968 -10702.534117 
-10317.852622 -10014.195747 -11017.308333 -10441.667161 -10359.773059 -10626.217786 -6462.2212582 -10394.293869 -10393.984283 
-12160.438312 -16017.591091 -3595.5390589 -7204.9933183 -4441.7874307 -12544.513237 -13311.599652 -6692.7066943 -10216.304384 
-10447.335433 -9288.3352933 -9843.5122476 -9013.470697 -16298.496218 -14042.616066 -13574.427693 -14083.737287 -12871.274553 
-14130.187599 -46232.50907 -6354.7573882 -10093.293943 -10048.572832 -10562.392544 -6858.3902578 -9457.2891755 -8724.9027605 
-7800.9550602 -8727.4109386 -5371.6325324 -6384.6233481 -9534.7762952 -7470.8298127 -5367.6469869 -9486.5014799 -9325.9418686 
-7489.6308716 -10899.112126 -18021.577527 -5287.0502286 -8366.9595441 -8586.2332749 -8394.7192988 -10665.101827 -10519.652429 
-10966.445315 -12936.53275 -12370.116251 -7972.4702373 -10956.585082 -12065.823581 -10704.834375 -12558.106518 -10819.035189 
-5936.8233996 -12212.800219 -13790.0227 -4046.5925876 -2113.9756361 -6465.4462301 -5753.2196777 -9508.3155069 -10017.282756 
-16420.652658 -15499.844226 -17598.901246 -9596.6017861 -10351.92756 -8737.083911 -10160.884532 -14425.108909 -12711.714218 
-13543.151801 -12082.103955 -11634.485171 -12484.729161 -14367.925386 -13655.833005 -13831.814444 -12632.299273 -11087.399523 
-6358.976353 -8092.7839823 -8236.9091063 -7988.7355767 -8409.9589086 -9282.0125324 -11596.770814 -8193.5752179 -5280.2686569 
-9191.7829126 -8891.7691301 -9969.1548393 -10395.018224 -10561.634687 -10973.013121 -11720.550533 -23984.885832 -6143.6006267 
-10494.436342 -10802.66949 -10733.473397 -9450.7119972 -11737.635528 -8784.3699218 -13490.464598 -10892.72331 -11337.258725 
-8346.2594314 -14739.299195 -9811.0619125 -21730.562487 -10402.931735 -6989.7564906 -10118.295628 -8835.3024555 -7137.2623247 
-12940.026652 -9999.1335031 -12465.87573 -7056.1085423 -5560.7115057 -13604.004779 -11950.154944 -13963.85518 -14866.187492 
-13984.222157 -13067.162558 -11319.29861 -12136.813897 -9339.0536386 -9494.7350163 -9958.2517912 -10911.00672 -9880.262997 
-9591.8524804 -10832.366456 -9344.3147764 -13379.971248 -14341.656649 -12004.064287 -6277.3726021 -9813.8526313 -9468.5242522 
-1626.3173962 -2767.2616777 -7533.8801177 -10215.151673 -9440.5450604 -13043.408163 -10343.085575 -15329.392089 -5367.523827 
-10211.856795 -11476.004716 -7896.3481135 -6468.1395257 -12145.20797 -13033.702106 -10583.892279 -17779.163422 -16084.541895 
-8566.448332 -11461.654763 -10814.853941 -8876.376037 -8952.3554763 -9430.7099554 -8377.099192 -5445.4199421 -7972.0609704 
-9461.6182912 -6742.7989567 -19830.597717 -10696.043917 -9177.3352182 -12283.235779 -11634.582836 -11474.793459 -11365.444384 
-15028.048787 941.19673768 -15585.920848 -14174.221123 -15571.703589 14779.083539 -13755.143975 -12707.056057 -14929.385017 
-17715.359212 -10103.508416 -22453.24259 -5189.6647509 -11622.12322 -10909.43712 -10038.59455 -3857.7310905 -1425.7131725 
-12881.234001 -9496.62459 -13124.177174 -16059.321172 -14738.485552 -5352.3780618 -7620.9216455 -10500.800995 -12943.069387 
-11173.426858 -19302.547545 -7835.3858015 -9484.6483682 -10263.924591 -10618.324882 -6117.4312094 -10648.5581 -9977.3940784 
-9804.0346106 -9002.1382258 -10107.498526 -28875.910413 -18077.274639 -6750.0041207 -11760.552256 -10777.793185 -10967.137345 
-9692.6046421 -10366.075422 -9915.178655 -8270.5965497 -15215.186591 -14647.165212 -5807.0922817 -6053.8356306 -14516.535444 
-18761.805329 -12272.962354 -7714.8096683 -8518.4028417 -13355.600406 -14548.682596 -10183.445892 -9967.6101568 -10896.225749 
-10183.74687 -10984.73851 -13825.01418 -11139.477748 -5749.2689429 -5859.8455997 -13597.180665 -11113.834544 -17497.853863 
-8349.7145735 -10446.358584 -8488.5134368 -8392.6724916 -3221.8989511 -4652.557807 -7948.7938245 -1215.6041622 -37199.053784 
-56527.329123 -6689.0863091 -3000.1034295 -7880.7649493 -18567.230049 -7679.4306033 -8696.2392951 -8259.6332848 -10208.389935 
3607.6633255 -12682.26429 -11184.599576 -10800.275539 -10060.351338 -8346.2297775 -8376.8190748 -20101.061768 -8423.2231905 
-10022.862415 -6667.6585499 -12098.315012 -10475.538011 -10293.006677 -10187.945639 -11664.146058 -9604.5477904 -12618.020733 
-11024.396 -10563.265588 -9190.7558744 -6662.9166595 -12568.325731 -12703.251401 -12140.32755 -13770.407907 -15409.353983 
-16630.424222 -10353.672732 -12218.217375 -6981.2230511 15298.177598 -48994.542284 12647.207681 -21129.482546 -9847.834394 
-5595.4338684 -11032.860955 -3516.5514942 -9822.4781198 -9839.7079054 -7062.9745003 -9606.907927 -10798.248354 -10628.152051 
-12671.907827 -4522.9843515 -8680.1596807 -1446.0371312 -757.89183696 -6409.1289635 -4063.9393339 -8776.2775449 -11347.739973 
-17283.527052 -11750.288445 -12900.563314 -9294.6080771 -10838.016537 -10249.043051 -12509.442749 -13152.832622 -13266.569756 
-6122.726334 -7181.4586986 985.02758495 3509.3726353 4063.8284481 -15731.657869 -3991.4955515 -10893.230185 -7777.3335898 
-6795.5877419 -7291.3675711 -5268.5146185 -2712.8441005 -6552.5574788 -15320.844903 -13880.925845 -11773.935009 -11567.902541 
-10775.019679 -6963.7277687 -9813.8651426 -10545.975395 -9733.0604246 -10709.456757 -9961.8017874 -10714.596579 -10081.260735 
-9944.4254592 -10926.154588 -10344.671359 -8774.4501432 -9087.901627 -9258.3062609 -9970.9254174 -12995.419712 -12926.830284 
-9627.7971832 -9314.2613299 -10460.469184 -6747.2186027 -11403.703258 -9440.2361881 -9922.3472979 -9215.5564056 -12019.263214 
-10548.991208 -13636.328376 -8951.8664953 -5129.2238095 -5979.1078416 -5185.1864566 -5943.4925248 -12674.537105 -11276.425752 
-12617.730197 -13139.567094 -16745.143505 -10674.902261 -9558.0650465 -8766.9370433 -9706.3681895 -8601.8239062 -10343.229955 
-11954.405028 -6090.8453978 -14267.563692 -15030.579648 -14810.093569 -10189.317987 -4890.2860319 -15960.237415 -6417.7057986 
-110881.08658 -12570.237945 -12265.900746 -12718.609733 -5740.1414257 -10361.429468 -16666.474255 -12941.129901 -15657.555554 
-12994.161235 -13355.762259 -12853.865257 -10070.447199 -7380.2680432 -5592.2814166 -11908.485615 -19168.468818 -11010.684791 
-10710.774346 -8059.0658826 -9630.15523 -9765.3893647 -6391.222737 -9591.6668561 -10703.284591 -11960.785131 -10923.411525 
-10648.445566 -5857.2866343 -9212.8366952 -8940.3638679 -10492.226238 -15118.66955 -12380.577252 -10861.317859 -10529.35229 
-10549.771333 -3253.4067344 -5939.5469292 -6745.1681373 -3796.4736837 -10485.885791 -8085.7011494 -9906.8008275 -10291.541184 
-21577.422857 -9793.613897 -4230.236737 -22634.828009 -4897.1660659 -10945.890208 -11807.911906 -15912.793093 -3132.943943 
-12411.548976 -21189.10219 -15789.733284 -7486.2699955 -10119.037711 -12812.25784 -7035.828578 -5900.3103189 -22945.976608 
-3708.0142188 -11375.845045 -10769.591095 -11469.799024 -10636.790778 -3067.3555268 -7335.2464466 -10177.78815 -9613.4633031 
-15756.197856 -10716.249351 -11706.866546 -9938.9546811 -10872.805807 -9191.4332462 -11459.875752 -10709.013188 -11259.064677 
-8225.0515982 -4556.2825083 -4452.1371111 -1373.4757978 -10475.706601 -4877.6582494 -10013.595697 -8890.0553887 -10306.723177 
-19712.007632 -8640.8320814 -8869.7493923 -12994.940839 -14449.004775 -17793.944646 -5728.0190252 -17899.703296 -12316.61618 
-12016.590974 -10339.494689 -9735.0100962 -10914.57323 -9710.2887633 -9749.362984 -9956.0024869 -9895.2603547 -10129.170345 
-10404.857177 -12754.873193 -7874.7385834 -5526.1461435 -12049.111849 -11446.282831 -7616.1194022 -13434.42746 -11493.007753 
-11185.962446 -9239.5778062 -11306.183376 -7717.0911884 -9869.0280098 -10336.055849 -14287.392993 -11480.302988 -15810.946705 
-13587.549386 -9183.9365307 -8308.9834841 -5631.0126799 -914.08964034 -1887.0807674 -12695.845965 -10806.992316 -8905.3818254 
-10788.759996 -10567.306602 -8584.9494399 -5818.2731711 -7248.9735549 -14955.313066 -15303.414468 -5473.1262806 -9786.9597491 
-10359.242793 -9555.4303688 -9647.97489 -6712.47309 -12582.394564 -10582.104952 -9835.437732 -9924.3951578 -10636.02066 
-11167.460676 -7159.362258 81.49273501 -8566.3844876 -10090.525954 -10016.738741 -10166.554621 -10600.230341 -10580.919168 
-9762.0553577 -14353.291607 -14315.190429 7772.6855214 -7899.4228943 -10884.592923 -10111.391315 -9718.4799271 -9996.2984024 
-613.0887666 -3877.8884918 -9789.5256791 -9819.2052746 -10479.968339 -10598.508488 -10560.831603 -9075.6073432 -10900.491399 
-10352.178481 -11838.41373 -9364.034902 -10634.403585 -11881.938601 -9074.6217929 -13767.320442 -10524.013624 -12603.375285 
-11401.701854 -2920.6029059 -7185.2696514 -12862.272259 -14956.659107 -12795.386868 -12355.143476 -9837.5819896 -9848.5956449 
-9464.2455046 -12436.474414 -12743.182132 -7121.2546977 -11116.443615 -8299.3531359 -10148.419229 -11730.672543 -11690.497636 
-7412.7190448 -10607.719878 -12588.428042 -11842.247455 -11599.66301 -10394.303659 -13079.58082 -9964.3696189 -7387.356286 
-9339.4215888 -5610.0808422 -11889.432234 -10165.102095 -8753.2136221 -11466.509462 -7108.040783 -6664.6468211 -13177.15666 
-12212.283192 -13341.970592 -13060.031827 -12761.862764 -8801.642294 -8901.6301594 -50038.039648 -16863.168532 -8596.9892865 
-8958.8128567 -11968.783776 -10133.309826 -8683.7718764 -9688.893709 -10515.5294 -7581.0130913 -7334.1222721 -11126.37486 
-13757.359078 -12158.352125 -8769.0681593 -10174.138241 -8475.6484588 -6806.2235998 -4876.7721081 -10525.240463 -12027.764158 
-14755.475298 1467.9517596 -10258.869048 -8501.9241204 -8316.2277376 -10791.867084 -8797.0344761 -10859.59677 -8813.48832 
-6621.1348768 -5459.0956826 -13457.17124 -9897.1595748 -6171.1308215 -11374.600211 -25760.392672 -13706.687395 -11202.288359 
-6439.9924209 -7663.4234464 -9867.5008064 -9529.1350158 -15431.711198 -19929.054638 -17829.533184 -8394.0847269 -9918.1189235 
-12424.093968 -5593.0803395 -7087.0841127 -7351.2986993 -17575.600864 -8020.142153 -7057.9122391 -7554.072553 -15289.702293 
-1651.8891304 -3786.7080988 -10190.782187 -10597.944026 -11782.146258 -9576.6960649 -9363.7593958 -9068.1803861 -8539.128465 
-8994.9983897 -10147.071357 -10362.252389 -9605.7334932 -10260.573656 -5491.5898046 -13039.418355 -13987.733725 -13220.076172 
-13924.037137 -14104.343827 -11468.559771 -13487.97159 -12851.235853 -12100.790705 -21159.705206 -17738.849738 -10190.064457 
-19095.773469 -12005.38207 -11869.55699 -18879.845395 -21077.945934 -10127.711154 -14434.486544 -10222.210915 -11170.887453 
-8952.3806536 -13302.162982 -7095.6746495 -8188.0710084 -11489.643579 -9975.0770692 -3662.7874705 -2560.6551667 -13943.437083 
-15101.758154 -10369.167243 -495.04708093 -8690.7111493 -16082.420197 -8899.3268807 -8790.4401706 -10740.665976 -8608.7192859 
-13242.684899 -8816.460253 4509.8614054 -8570.4673692 -19164.949605 -10892.663555 -10034.690229 -10258.044236 -14890.700767 
-9888.8707541 -9678.2223166 -11877.873175 -9120.3562063 -12828.4947 -9472.5084226 -9232.2862417 -9400.7131697 -8545.8169754 
-7436.3451831 -8108.064792 -8125.6042068 -7758.6458957 -6342.1705754 -9271.9784517 -10345.387883 -7818.9339989 -6906.8995441 
-6684.8047826 -7087.7773862 3337.0713087 -8323.3599609 -15483.792902 -8459.6081219 -683.1953536 -4360.649281 -9495.601389 
-7398.354618 -9312.2778376 -9515.2973329 -8137.2315637 -9017.4531214 15197.994133 -8816.4341699 -8473.6306007 -13851.124176 
-10174.541877 -12864.389071 -11443.655869 -12161.542901 -9768.7229739 -8678.0639606 -13926.613966 -15213.841975 -13715.949594 
-20342.230278 -9778.741759 -8631.1208619 -10358.14512 -15835.701673 -6790.430348 -11068.948387 -7243.9088105 -12938.539082 
-9504.4138981 -15963.357457 -14417.904865 -10513.509265 -10630.4243 -11581.432241 -8232.9496093 -8149.4582438 -16850.620188 
-12720.931284 -9284.1072818 -9453.189157 -4467.1347819 -6702.2294542 -7983.8552984 -8401.2710311 -12656.033871 -15405.809667 
-43350.669771 -23167.022112 -9321.8667598 -10012.700604 -9549.8064336 -10579.50419 -9023.0524954 -8413.9512762 -9566.0533959 
-5889.2778508 -8502.9542609 -8768.0049285 -14436.471611 -13890.617674 -9856.2753637 -6991.9854999 -10341.884296 -1273.3157499 
-1008.1508754 -13430.099255 -14598.853821 -12432.703584 -5756.2793487 -9259.6780103 -9603.7309898 -9261.6122022 -5713.0496378 
-4913.9814623 -10931.406873 -6591.1914406 -11083.26761 -8946.4026304 -9122.6105187 -10792.123439 -13115.665466 -6587.1289714 
-7933.6231109 -8746.9173409 -9043.9281876 -9195.4818428 -12369.227045 -11904.810612 -8800.5639435 -11469.633171 -3188.4880669 
-10298.569347 -11228.80458 -7541.8307283 -10361.772794 -10009.51808 -8964.9650733 -7343.1283285 -6115.2826944 -7684.9049922 
-10437.441706 -17199.243198 -11232.676479 -11210.716497 -7183.4361858 -11103.894444 -14715.349996 -1176.1057084 -17085.766482 
-9246.1101683 -12357.032347 -24980.623371 -20195.030676 -21593.1682 -9766.0717083 -11029.960405 -8131.1203285 -8344.8686154 
-8423.1693535 -10035.065709 -1090.7068032 -6507.1614343 -8645.8238795 -20052.660598 -9771.3151059 -5201.7931525 -1644.5214263 
-15679.638608 -9634.9863574 -9659.0237911 -6808.9637381 -10649.884577 -10811.836699 -10322.613606 -14513.372982 -9096.5392426 
-10561.415153 -17894.951837 -4764.969978 -10067.249941 -9026.462944 -10736.16417 -13019.39765 -13485.724067 -5746.3296751 
-12375.659968 -11021.810668 -12055.492706 -11192.919588 -11381.698672 -10419.113485 -10921.072006 -12436.965473 -15457.425222 
-13319.252606 711.22000847 -6606.5109884 -10666.999294 -11408.421313 -14810.63612 -4391.826246 7264.9952699 -2335.1549973 
-5038.6295361 -6885.332519 -2917.6353845 -12142.434354 -12320.481912 -8875.0164329 -14158.223833 -14915.266459 -11623.196533 
-10850.132131 -9783.5239379 -8287.4611141 -27248.896667 -11300.58445 -9837.8932099 -11790.580705 -14791.692715 -9247.3794811 
-10791.341059 -9632.0964835 -10187.569889 -10199.450346 2583.2529192 -9378.9328132 -10688.243097 8533.4582008 -10886.523849 
-9374.5272601 -12933.008004 -8504.1285679 -12334.12174 -10387.411461 -16417.885967 -4889.1794465 -14340.420609 -7141.2036344 
975.96425112 -8694.4848792 -8243.3208129 -9491.9848792 -8774.2558963 -7962.7525813 -7711.9338044 -7410.4851791 -2370.4347888 
-557.3128565 -6098.7601525 5685.6225771 -11813.077269 -11989.651027 -11518.112303 -11004.740738 -11806.368386 -15065.975565 
-14197.990594 -11021.173652 -9804.5348918 -7668.6345938 -8601.6703567 -11043.257371 -5675.3092861 -10778.342531 -3997.2251849 
-4272.1261848 -12512.585038 -649.91045329 -9347.9403982 -4796.5315717 -4228.9924896 -5987.954843 -3379.0309879 -4537.3355308 
-21193.454951 -14942.056462 -14902.332096 -12467.491606 -11353.2654 -12557.982501 -4575.1023299 -11144.651864 -11218.297294 
-10893.234156 -7624.9693802 -13144.911993 -11354.00861 -13603.11682 1307.6600988 -10043.567053 -12670.637592 -11150.861689 
-8214.2143543 -15118.80637 -15527.593474 -17601.329207 -16609.855449 -10933.65003 -9046.1648469 -13863.341177 -9936.3271115 
-9695.8179641 -9813.4717824 -9472.6208282 -15077.793723 -11488.489595 -13619.403227 -11071.432936 -13363.426412 -9829.9626044 
-11519.84849 -10968.553722 -4229.0988515 89184.941474 -21089.219602 -8294.0829697 -14321.18083 -16715.932862 -13263.534743 
-12468.659794 -10792.138614 -13904.848081 -15210.456691 -8498.1335166 -9438.2633434 -17554.350312 -16082.768748 -6281.6880389 
-4551.0136842 -13067.812871 -16977.461084 -8037.8412653 -14509.053264 -8008.5157758 -10018.674207 -19233.877837 -10981.310457 
-13372.504607 -11751.146208 -9738.2415357 -11893.681594 -16300.476439 -8705.5903342 -6330.1278347 -11033.513555 -14460.391366 
-10068.101188 -16172.588698 -10800.832222 -10625.780949 -10535.623381 -8833.6638318 -8430.3209293 -9011.1551391 -12195.812404 
-6842.4197972 -11875.680564 -8019.9490149 -11601.899685 -11530.113765 -9653.0952145 -12225.927932 -11209.543658 -12320.244425 
-6727.1270577 -8661.5577738 -8323.4630509 -6079.7227592 -7922.9591988 -12323.15454 -9194.2841339 -12929.977319 -9648.170281 
-10642.161396 -11964.455768 -12357.361575 -12905.902383 -12916.155715 -12540.96839 -11817.432486 -10767.238873 -13956.4434 
-12441.378013 -9605.3551862 -17022.417025 -6383.3787776 -6981.4622294 -5171.964633 -13851.686616 -12984.862042 -9777.9435691 
-16252.103322 -11586.121007 -6026.6920894 -9750.786907 -12043.575365 -5168.712181 -9502.8406122 -11773.344744 -12739.228341 
-10829.97114 -14365.92119 -12136.657082 -9669.4940474 -9809.5655923 -11487.104765 -18854.198655 -12423.314119 -14528.313262 
-12632.250776 -10677.450432 -9880.38635 -9721.498079 -17609.748765 -14612.546203 -4282.1510661 -8958.3362291 -10051.297721 
-10414.080031 -11252.925932 -7419.0760178 -13831.690358 1293.8934473 -10590.434474 -11904.379221 -7548.7528693 -6411.730448 
-5799.0489552 -6843.8541276 -11759.867564 -13100.191327 -24190.711225 -20228.660343 -13345.414179 -18806.431805 -11482.846886 
-5227.5646099 -10034.042301 -7617.106573 -12226.715941 -43129.077937 -11232.132687 -8112.9114164 -2430.529227 -21931.025253 
-10108.910961 -10518.98149 -12785.678412 -11107.283759 -10732.771537 -11872.784857 -11477.454928 -10992.024788 -11982.631798 
-11344.286772 -10741.426588 -11813.755172 -9706.714102 -10717.59661 -8100.9336671 -13340.226538 -5526.9210985 -22062.864488 
-4939.5235103 -19112.908643 -12361.050045 -6874.2280807 -9572.0186014 -12398.59929 -12643.27502 -7115.0186426 -9856.8301755 
-12674.442012 -14512.253854 -15311.496417 -492.60376921 -9649.2306666 -10303.153847 -9939.881894 -9481.5421952 -10328.558132 
-11524.536823 -14570.799263 -12238.108392 -14594.657372 -9439.357176 -11035.438165 -9657.9521723 -9745.2996233 -9438.1214424 
-9553.1801908 -9768.053694 -13329.605723 -8805.7038143 -11886.003282 -14822.542342 -13887.936526 -12725.553792 -9450.7336966 
-11469.88559 -12336.158808 -8648.0169157 -11512.38372 -10120.278792 -8610.9476903 -9747.7519409 -10216.924597 -11083.321461 
-16640.470459 -10681.214021 -10341.335363 -5730.3744252 -16762.152012 -11535.581384 -9033.9573613 -10855.464516 -12541.271586 
-6468.7038071 -4093.9714347 -14201.160001 -8969.1039554 -11388.229539 -5759.2556761 -7849.6723401 -8958.0935629 -9150.3845796 
-1421.0442468 -9621.3659532 3648.8218821 -12652.376003 -10428.104106 -17713.832789 -16499.654821 -15802.248346 
Stress%20yz%20component 1 13895 double
-198.50968889 -21.935507098 141.71601581 21.939058788 670.61764125 -1.114192137 -529.15390473 2.2524129618 -23.815910169 
24.718490483 136.44851384 -23.359583207 30.235909088 58.902437019 974.47263692 -1032.9129613 -2.637830286 0.24890476723 
-5.663304123 0.46893566696 -7.9799590414 4.2653434714 1.2705494209e-14 -6.1939284268e-15 4.5263323119e-15 5.1986647138e-14 8.6079723265e-14 
-1.4060746924e-13 8.8091426514e-14 69.305201045 201.78475827 -38.999295612 136.62578736 -208.53041576 69.455497426 8.9700789114e-13 
-5.9080548071e-13 -3.1488449814e-13 3.7269449679e-14 -1.2729846406e-12 1.4247094173e-12 5.9165251366e-13 6.622264991 -0.15282102139 1.5633048116 
3.4838093285 7.0467179659 30.522907655 5.5917409409e-16 -1.6940658945e-15 -1.9587636905e-14 -4.0763460587e-14 -1.8178121141e-13 4.0022306758e-14 
3.69306365e-13 -2.1308172579e-15 -1.3340768919e-14 -4.1822251771e-15 3.3351922298e-15 5.4527745979e-15 -1.1699642584e-14 -7.8350547621e-15 -5.0027883447e-15 
4.2351647363e-16 -3.5998900258e-15 -1.7787691892e-14 8.4703294725e-16 -8.4703294725e-15 0.34006567141 -13.221798413 7.5716344811 -197.19329585 
-178.91955728 -10985.757511 -1.8527071299 -12.518056869 -11.556458917 -15.882607486 379.00457008 -7686.2899556 -3255.7501799 
-640.85688417 2031.222692 593.37272162 1663.7633698 -56.758764516 525.83741939 796.31518864 454.276795 588.5233408 
2010.566105 291.14143703 252.18350184 -314.44317896 -0.37625139231 -5.9466315056 10.722566125 -25.611122229 -608.26409673 
2240.080974 4.767518049 -1.1848004109 3.7989847524 -31.59955299 -124.41242032 -1466.4295812 1661.2420661 -9.7043028931 
-14.641933243 -9.9946902105 -3.6889212169 1.6352485474 4.4812643837 -3.3999352669 -11.448330242 -12.884308643 -6.8310859102 
-0.56346409594 3.2420761765 2.7541451333 -0.5169355886 0.60075957108 -0.3617768846 -0.27682378821 -0.64809341303 -0.59511717519 
7.1203707129e-15 9.5291206566e-15 4.2351647363e-16 3.8645878218e-15 -1.0984958535e-14 1.0534972281e-14 -8.4438596929e-15 61.880022845 65.407902221 
9.0962314453 -485.11130315 -3324.2543971 2141.2174494 140.91738159 30.362228834 2.9032165972 -325.32252103 -1352.92156 
-9044.9479246 4142.0092754 0.52763383073 0.029972481445 1.3619247157 0.0043358702255 -0.5448264951 0.64535294464 8.6556179298e-15 
-8.2056316765e-15 -1.4823076577e-15 -2.5741860663e-14 -4.1451674856e-14 1.6940658945e-15 1.0587911841e-15 -70.998737233 -53.181517137 -18.806425743 
709.72877494 2096.0705247 -2624.4050063 -170.22444084 5.0626836771 -50.043940818 426.64513009 -1212.6943824 8823.0186608 
-4457.005847 0.5512243924 -0.50964337864 -2.8400623901 4.1931830862 -13.900700394 8.5965752659 -3.8899988103e-13 2.6082262028e-12 
1.0280862397e-12 1.7317588607e-12 3.7501324949e-12 1.0664144806e-11 2.2625361752e-11 -4.3140324187 11.171733631 -156.70156242 -19.689868238 
118.76708732 -119.99890307 -2.4860417002e-12 6.0711086494e-13 -8.0468129989e-14 -3.7099196057e-11 4.8596397766e-12 9.1848017636e-12 3.8116482626e-12 
-0.56282062215 -1.8822876259 -2.3773109719 2.5602380794 -3.4115017562 68.489840456 -1.646208533e-12 -2.8608537794e-13 -2.4923944473e-12 
-9.5819278669e-12 -1.4924720531e-12 -1.9556296686e-11 -6.3798521587e-12 2.6893296075e-14 -3.7139747759e-13 -1.6750076532e-13 15.800157127 1.5971865012e-13 
-3.9021749089e-13 -3.9810548521e-14 1.4267211205e-13 -9.5058272506e-13 4.7613839548e-13 -3.0641416867e-13 -2.2393433543e-13 2.3716922523e-14 -0.34100252545 
-0.19117332174 0.012852439796 0.53880259726 1.5564753267 1.0422263009 1.5199740458 -0.28967545357 0.36413622241 1.0615175538 
-1.2969103983 1.9693516024e-13 -0.53409106461 -7.0641224312e-15 1.9693516024e-14 -2.2869889576e-14 3.6104779377e-14 -6.776263578e-15 1.4367796368e-13 
-9.9526371302e-14 9.1003102271e-14 -2.4140438997e-14 2.9646153154e-15 1.4399560103e-14 1.9841746789e-13 5.9927581018e-14 1.7491230361e-13 -125.81670686 
1433.8049887 614.96042061 -197.99904085 124.6354218 -36.678462158 -25.28231831 -146.65745285 -219.13100157 168.5192117 
69.92821955 65.520715681 -241.12059953 -166.08244362 -984.61932635 2294.5634022 573.90154461 218.9875496 -31.685071112 
-36.620992097 -13.581011174 293.98591199 -384.70473369 491.056399 16.270942494 -519.5417475 11.730084559 0.093716166007 
0.65756140661 -0.025017854611 0.43710185612 -1.1417647107 -1.032908407 -1.1144706374 -0.99521837004 -0.66842184716 -0.29656077929 
1.7290318672 -1.8211208366e-14 -2.6150472745 1.1636115113e-13 -4.3264854759e-14 4.4469229731e-15 4.7116207691e-14 8.3909201337e-15 9.0420767119e-14 
9.6561755987e-14 -3.6104779377e-14 9.2114833014e-15 -1.3340768919e-14 -2.2340493984e-14 -5.2939559203e-15 -1.1858461262e-14 -5.3892471269e-14 -697.50609702 
-1176.6477698 1392.5154946 2056.0377818 -250.9077116 387.26394332 65.282967838 146.04155104 -7.0360011396 733.26739542 
-23.734483336 -160.37169055 21.037889304 1680.0341299 904.58948476 -56.379884277 941.44220318 922.34750681 -831.58203017 
168.99451514 505.23010916 479.04760388 34.462846871 948.99305743 -297.8722598 13.169836962 179.97861644 -462.78706525 
2373.4135612 -1556.5098392 608.37009755 -299.3408219 -34.10460133 -370.38419808 1724.5269403 355.39229006 400.25380275 
342.31038267 -189.95846889 28.846545603 -121.01715345 197.0380011 -122.25356579 90.133557858 -133.80695171 42.776032636 
-33.953282355 -13.55846609 49.245355158 -14.175588291 -60.289970555 27.118814084 52.405984348 -699.55362559 -600.9278339 
-2158.3557261 1843.6460876 -205.18324772 46.765357731 -1188.7474741 -319.13217879 -1492.2951271 15.577178875 189.84616757 
-24.825970192 45.394467582 -2.9659523305 9.4419559161 6.8102962998 19.883693406 9.3363254684 -9.8589586523 3.9482587952e-12 
3.3584856359e-12 4.2847161637e-12 2.0087121646e-12 -8.0506246472e-12 -7.7740683899e-12 -2.8651994758 -97.571045662 -328.30733324 416.63501861 
214.16480757 541.36924353 396.76836203 -15.463097205 24.091006622 -0.22785293658 14.825637127 -24.182666935 -12.135373357 
52.242240609 24.368405107 -0.48988669166 -10.975831848 0.5824461691 -10.005062642 -109.6990866 -1.3281476613e-12 -5.8020062821e-11 
2.0506667653e-12 3.7692966153e-14 2.0181407001e-11 1.8372568142e-11 2.6700548637 -65.289227145 167.04044211 2073.321779 392.47953757 
-78.038607441 118.90360134 -311.09539045 16.869242805 50.768124564 535.26198774 -20.172238072 -89.808554048 -299.98695947 
-1.745681664 82.29679558 569.15301779 2660.616049 594.30583128 5.7963382162 126.95162772 -177.04095906 170.47585095 
-90.81173317 216.13641158 -74.126277349 82.715995473 -730.14201471 -124.40851901 -299.16379459 -1120.756647 582.55480581 
91.314450193 -10.394800503 377.39039126 74.826628005 -42.816757222 -242.52888916 -250.55908134 -82.987082603 121.16636668 
-16.094223066 -92.075676385 -592.01196696 -959.36988295 391.38186585 -67.105299308 20.45274877 198.89054124 225.78642527 
-315.68466349 -192.58101092 416.87352783 -70.549356856 810.13083669 8.2684642392 6.2814489888 -9.2958749634 11.455158996 
5.796647738 -9.1482933938 -16.021595404 15.988714025 -2.3661988079 -2.0625156657 2.0229089655 -1.3777520283e-14 8.5020932081e-14 
-10.054043238 0.15362998907 3.7298524654 -4.77136121 0.10261011239 -19.851620305 -2.5709213361 13.777698502 -2.5201899317 
-3.201694984 -4.3991531562 1.4441911751e-13 1.0863287574 -5.9674163451 -1.0805689944 -4.9259700765 -1.8410000282 -1.172008688 
19.167015263 -45.300654163 -8.8629421293 16.878097889 -4.7572843236 -1.4425151718 -0.405613374 -18.226703282 21.379351766 
-38.328189189 -6.1538722197 8.9014091268 0.20155567774 -7.0891706987 -17.690727809 -3.1937723132 -34.409258825 -35.240600535 
-148.37655275 13.604540926 27.021250094 9.1585437422e-15 -17.140514783 -5.0821976835e-15 98.93754993 -2.7560334521e-13 -0.81925689659 
-1.5815693312e-14 11.966672919 1.8180391527 -0.17367687911 1.5062606139 -13.704492101 -5.4405877855 1.4505439222e-14 -3.369221453 
5.6910026144e-14 -1.4635372102 2.456395547e-14 -7.4467478405 -3.3033285568 3.2417692825 2.1175823681e-14 9.2326591251e-14 -10.00421083 
-1.3650465341e-13 4.0851151947 1.1223186551e-14 -0.5911327787 0.56651699238 9.9526371302e-15 -0.65448564084 7.5326130207 -7.7476770698 
1.2683414107 -9.6879393342e-15 4.1292856179e-15 -4.0393060047 11.968355729 -2.0471465416 1.6654361625 -0.48946648473 108.36849346 
-1.2260801912e-13 2.0544784136e-12 -21.658351778 7.3755393882e-13 -51.5807366 60.527901536 -2.2594603868e-13 17.006604453 -3.1271397621e-13 
1.4156038131e-13 -18.049177072 39.44708179 -132.72249489 7.8467067952 -14.059242992 1.987624635 -1.3714099818 -1.3658406274e-14 
3.2028433318e-14 -5.5665946502e-14 3.8996991122 -1.2940516587 0.88639174976 12.172290679 -7.1488257259e-14 4.9534159541 12.310434192 
-2.6798004869e-13 13.08200524 -1.8585638597 1.4526615045e-13 1.919915302 3.4304834364e-14 2.4987471944e-14 -2.5410988418e-15 1.2493735972e-14 
-2.2833903726 3.8116482626e-15 4.4401804632 2.7528570786e-14 -5.8522008377 0.18495081226 -1.6703856987 -5.4633625098e-14 1.570187326e-13 
1.9481757787e-14 9.9420492184e-14 -1.5458351287e-14 -5.6448358893 8.4703294725e-15 7.6842639734 3.3626967727 0.083192876299 6.1409888676e-15 
-3.5961445598 -1.6093625998e-14 -1.0676279659 6.9880218148e-15 2.9646153154e-14 -6.9118196674 -51.613981638 54.674711891 1.5786576554e-13 
1.3552527156e-13 19.111776166 -15.651057346 5.4210108624e-14 -10.4745479 1.4018395277e-13 2.6533307073e-13 -2.2022856629e-14 -1.7685417555 
-7.1820217949 4.9895534549e-14 -0.35681931444 -2.594038401e-15 -4.1081097942e-14 7.3274014284 1.6305384235e-14 2.7591653807 1.1117307433e-14 
-6.0247240103 3.8964587198 -3.5998900258e-15 2.1599340155e-14 -3.9469601997 5.9292306308e-15 -1.4484263398e-13 -1.7554757832e-13 -7.5947565568 
2.2764010457e-14 2.0297026999e-13 4.1804711958 1.3181950242e-13 -19.172186829 7.4115382885e-14 5.2106157859 4.849263623e-14 -3.0281427864e-14 
7.6232965253e-15 -4.3751730079 0.60862861044 -1.6940658945e-15 -5.1146372681 3.3457801417e-14 -7.6232965253e-15 -2.3921152458 5.9292306308e-15 
-17.287564793 1.2942294325 4.6976442057 -8.3911848315e-13 21.64196652 19.943870953 3.2102548701e-13 -10.155469814 7.2844833464e-14 
4.6236087519e-14 -2.7319862481 -5.6857086584e-14 -1.8846483076e-14 6.6086046477 -3.2945990503 -6.0105333558 -78.585960363 1.7734752333e-15 
-3.2928405825e-13 167.12852865 -1.7227470706 -1904.4006812 29.873282867 105.87185982 11.705235848 -30.99963291 57.466537613 
17.855099448 -0.71967725154 -1813.9012209 12.362888537 -722.47987408 49.525190964 -6.8789440967 16.875851767 -39.64609583 
8.9862102616 490.68927235 -44.420412857 -177.41186731 44.427125352 38.268705674 110.21766276 727.1980927 -38.379326664 
45.294781118 435.58633672 187.53838465 -0.63089219261 1.5887540811 182.59060516 -3473.914322 5.6720120166 -465.80857449 
57.527322754 1590.485712 5.5838037568 -5.0588322898 17.634132813 205.59334334 3.7109614885 4578.1916464 -633.67463073 
593.68549189 -1.7203991989 4.3624273613 560.31441236 -387.21878924 481.66409285 -564.78346011 -3181.8663412 -8.8023402373 
-1.2466385861 4.5578535587 -1114.0421804 -2021.607292 -739.10649603 3.0364459989 5.8688869327 -1.2740799768 -10.117916219 
-6.6748961646 -7.4338704808 -7.2687917538 -12.641017487 -9.2643829404 -4.1402636321 -3.8505464185 0.16492684897 5.8675123378 
-1.0553043714 -0.91443499277 1.708689542 3.5842257252 11.83250843 4.9058756704 -1.8324067326 2.6337373883 0.3654943276 
9.0794954197 3.9056142668 11.678818766 27.193481776 7.0319919274 -16.790424349 -406.48099742 -62.028502289 -104.07793592 
1536.62995 -249.6851515 -401.45486413 -2154.8096374 378.73236159 387.28317896 -724.98970029 1082.9720452 318.45399926 
1568.875953 1915.9963697 710.70942919 -2213.2521296 2656.298603 494.97381837 -4677.0070082 6.7699025653 20.064052528 
371.54355226 -363.09375893 7.2646037712 2.3758420876 11.873126032 33.559121224 45.585459977 31.436509413 88.438699746 
5.8965638536 134.69496367 706.72127809 988.17669604 526.46485635 2947.6952845 -3427.7117222 1622.5761325 7054.3617103 
65.633484017 15.736376734 104.3362447 52.933807444 125.93760786 -118.077501 158.14368608 351.12042235 897.64717001 
70.871766977 168.87723997 125.08445376 182.80520519 867.68367734 505.45058687 371.04126657 -4.7741829902 -3.2252393208 
-9.4278337203 0.804733502 13.753134402 -19.597368482 -25.818481904 9.665429409 -0.15827492795 2.846007326 -3.0032613061 
12.300116406 21.674420734 -1012.1052354 -2599.1305392 -8338.6695434 -747.99605 -2207.8887022 1143.9284587 857.00537187 
3051.8828893 -623.87014368 -1349.9756218 -2210.0318457 -364.36701583 -273.66870306 7.2702904906 21.856822481 23.775941191 
15.371270427 6.7970123905 45.154518359 37.698226133 26.680976452 37.107616093 18.915249752 19.894742927 63.841282068 
83.8875607 -579.31942599 -904.92754044 -652.16420128 18.57365524 1538.3711074 3534.6759459 878.13846678 -1074.8830054 
315.77367878 3.4381720859 -52.248278897 531.57054523 1081.554259 4.7106613671 1.7026521343 10.088164644 20.685826973 
8.6780805906 27.319196972 21.519811209 53.255210911 35.420718257 -167.11811551 -291.82427846 -202.79152422 32.171774688 
44.838679807 45.533798649 112.235705 -19.064010976 68.332214645 1903.4118789 707.46659419 -3021.0236498 2425.3469012 
-688.49307771 196.97344472 1.0195293316 1592.7596416 7.4778423826 -68.078383699 9.2463569619 -5.8085627078 2.8207083702 
-11.688972366 113.33736815 0.97718729514 1.6216388983 -62.049661614 27.21482148 4.0473629679 -3.6453656211 31.340389078 
-1094.8594505 -3.9882531684 -1.5546226726 15.204473425 -7.6085891285 -0.60839333399 1.6359842533 -259.72790161 -920.04548513 
8.2337358832 -1.0621805839 -2.3313403171 -16.75457009 3.0606174815 -1.07372835 -6.4972323887 -14.911339064 0.3156342197 
0.46467794563 -25.752283299 -33.146161731 -4.9159616192 -0.38295079893 -15.129713185 -30.95030245 29.215172833 -2.1119946157 
1.9578594128 -1.6012968001 -26.908681925 0.25236727909 106.07876487 720.92645826 -10.823113513 59.148888279 1.7342205118 
1628.1082517 -68.459702762 -110.69862868 119.14469315 -22.578657139 -18.861990865 -2.9667057971 5552.3526986 1956.5276533 
1797.2271325 -0.44544959899 1.8113083246 1.1626204373 -2.4334798088 -1.1865880895 -10.433562473 -7.2025122707 -1.9729986842 
-1.6953385279 -4.6289664534 2.0069702977 7.6971930351 -3.7291089449 -0.1580035643 -6.0890011142 -44.198332857 -33.264457239 
-12.251828639 -29.507918438 4.8413932705 2.9324714463 -5.2996359456 0.49490585612 1.399040298 0.022082256275 1.1978634844 
1.1794988743 -0.71313484499 0.99668409402 1.563484301 1.2696687518 0.77594010064 2.545783157 4.3835471832 5.6162838145 
0.19360126939 97.951051545 5.2993779666 11.024565743 36.967730756 48.407999761 -4.6007242458 -260.20599709 59.671350499 
-796.72619372 -1456.500915 -31.782676587 -3217.0066814 -665.25603115 -181.48068895 -1412.0204454 -9.3687326467 -4.7283668834 
-2.2321651881 -23.13749485 -10.175917498 -0.82134434872 -222.17183754 -71.903878238 -31.530279394 63.39438574 -534.0784938 
-166.51288318 -3363.9616289 -519.69372479 -196.14352696 3790.7333914 10.334049547 5.5466436871 3.4467256592 4.4233974237 
-0.87200608144 9.9698811966 -1.0479988565 -3.7521719901 4.4858203493 8.038890156 -5.0084362989 -10.695102306 -29.934552197 
20.706935988 -6.5930145992 -24.460785801 -2.2684969439 -3.8656484816 6.4146283772 -2.0397175076 1.2613159185 -5.3929670582 
-1.5391367542 0.82214910023 -3.3111537321 -3.3456270895 -7.0611917286 2.9303231305 4.1876246098 -1.8730466464 -0.0776498243 
1.2913254627 1.0267968913 -3.041704515 10.052850139 15.454751684 2.7713878802 0.11074295433 2.2793800344 -0.75613938154 
-0.3292965691 -0.66282016477 16.909441013 -2.6661342758 -5.3858002351 -12.620461179 -6.6375553015 -22.52442752 -27.345489408 
-5.5553308471 -3.2559639616 3.5433991231 -2.7206295414 -17.939052419 -9.1906064503 265.09101311 -563.92138071 -505.0171196 
32.569342328 870.30048167 -61.828066324 -129.30039943 -5.5768752669 -439.66752038 16.042975292 -121.58983165 -148.67764137 
-38.095738049 -3.7770350626 -0.20782801793 -0.17805640463 -6.1462070305 1.067524482 5.6219677252 -1.4698111688 3.4748919964 
0.95701164137 -1.4731551493 -1.5140516746 0.65267415785 -1.6071897683 -70.401666228 -11.424838569 -115.29957778 -60.677025026 
-22.586254726 31.435441688 6.875698718 49.678571271 -0.6313778373 -3.7321620406 -16.152595866 5.5422129556 -0.49609721675 
45.942690495 -1166.5753139 -0.048950920063 0.056889416647 1.9844395759 11.486675506 -86.940578061 -2.7225621494 -6.1192341243 
14.979650409 15.393040346 0.84986892939 5.8317221453 0.38080056815 621.58880666 10.373499926 -1.6935789956 5.9220653251 
8.7173872601 -17.517036508 1.5605690235 174.93022738 -220.60114517 -3.8003725603 -1.1143189808 -18.925026698 -14.353845581 
1.5027386433 0.6538378204 -14.501196898 2.3384908902 1.2022394217 -5.0596405516 156.50274579 40.806536335 0.27946665679 
-1.1173614481 6.0292302566 -4.1223561347 -0.72135002973 2.7607632761 0.60596342491 -32.760307259 -4.7647952946 977.22507621 
10.773226755 513.57074086 1.713230828 -5.018793172 -13.760739417 -1163.4208857 -66.413893921 85.741197299 2.4530091188 
14.641746701 1.2437880882 5.0529291041 -2767.4052122 -1954.6169703 -6407.7817771 -2.2543117014 -1.5352995424 -2.4759750099 
0.50115094628 -1.2651472869 2.9788520457 -4.0658342677 -2.3909602236 0.12617079086 0.73186019311 -0.80322376962 0.82615887761 
-0.52578806067 -0.76668204695 -0.80664689037 -5.5876797682 -5.3305556461 -2.6606944304 -7.9936766119 1.0411623851 -4.1885977885 
-1.7358385932 -1.7801357292 6.118922812 0.91182554479 32.018381508 -10.537157865 9.7742152702 76.226476381 4.9584533531 
97.136565477 534.71446915 1399.9434337 268.56223637 -2086.9711713 -85.128780704 -64.040747134 -23.44908403 -34.396386603 
-40.485040088 -21.196437632 623.15337618 93.407537412 29.985238743 -2837.4265392 358.97530265 150.309305 382.1913433 
4258.5154869 515.26666837 2508.234382 3.4148950306 5.1007473949 -2.0269492602 11.113210674 7.9626848362 7.5825237583 
-15.549451521 -10.169183089 4.1299288074 6.6506717325 5.9293874841 -3.6269712305 40.011016111 18.167603213 -15.860634071 
-13.604899663 1.7958011132 -1.9503146053 -9.6622496829 -1.4657671417 -5.9536846189 1.6365807602 5.4940675223 -3.0852246357 
-10.353874157 -9.124831472 -9.3751153444 -5.2514767337 5.4734023185 -12.731691845 2.9023011463 -11.640971616 -1.6665570016 
0.40337836193 3.9197057299 2.7031187757 3.9509337174 6.1735070387 -1.0169956354 9.4536225646 0.87296868593 1.669710362 
0.65382498861 -5.5460145097 -5.1338776516 2.3203087222 1.7318963105 2.3161853528 0.79675894763 0.96461302531 -5.709853818 
0.11753050287 4.4165479214 1.2615872564 -0.2960153454 3.1337889025 -3.7574216781 -3.915506411 8.2018627572 19.900736963 
9.0065596648 8.7150441777 -0.040397938747 22.247645782 13.598927863 17.216553509 10.821184373 0.30123589745 -8.7210432846 
-3.5633325744 -14.745288491 240.63948857 944.25218886 236.96438078 117.35584158 86.069494528 54.492040932 -30.84769689 
-10.137675241 -37.257669222 -65.229705961 -96.555687897 -28.315274779 -12.565671655 -2.3804401927 0.41801561946 0.99001522895 
1.0072899163 -0.56133558014 -0.3771243407 1.078018392 -0.65669134223 -3.6844753352 -0.61084721972 3.5526388511 -1.6589349053 
1.130116066 9.9075714495 19.978724882 56.60520039 3.6344162074 -3.4007575314 38.709167938 18.494386841 8.3616708586 
9.9087407236 -33.813932666 -4.8942088886 0.90825934471 1.7622236882 -12.962699326 1298.454325 -13.726123243 -17.475463775 
-8.0540174668 -10.70113831 4.7270070671 -24.714134913 -10.924529158 -5.4103250824 3.025999047 -10.078296143 -6.8705748401 
-3.8360099353 6.7822068275 -20.671589926 -13.709605182 -3.6543278139 -2.5792478339 -15.273690207 -10.667511761 6.5171123204 
1.0075535811 -16.246016631 -12.027631098 -16.800964798 -2.4408010241 -17.170031146 -20.97835131 4.6383409467 1.3867274835 
-5.5245685096 -13.664759074 7.2731058064 -1.0831680703 -24.338641824 -5.747925744 -10.203819469 6.1095526332 -22.254353015 
-6.5319705545 -9.2119398578 -2.4577468992 -11.37420962 5.8203264275 -4.4825123426 8.2149534936 1.7420036027 -1.1448423 
-3.2248363779 3.2092302205 -6.4240055673 -8.280479551 0.34413615663 -0.086262075562 5.3522673301 3.5455375203 -0.66986417287 
-5.3525649204 -0.5055132992 2.0940766687 0.68995287612 5.6549352108 -2.2675120878 -2.2675120878 -0.89351648674 1.9737602566 
-1.5459985297 -7.2607930186 3.6357553288 4.5260099834 3.3026534473 2.0185496141 2.0185496141 4.3133644458 4.577889273 
3.3996504529 1.2414387118 0.30863728447 -11.00966868 -5.2307788433 -16.674305588 -12.523859602 -9.1817377149 -7.5753127923 
-9.4188426944 -9.4188426944 -26.479663327 -12.791130018 -3.6110081157 -6.8524971758 -4.5279765239 -4.5279765239 -19.120789597 
-2.5579669554 -9.4797655025 -10.536799715 -6.4182993295 -9.022880176 -6.7935009588 -6.5497536162 -6.2590497951 -3.0579236056 
0.096411048636 2.2512780665 3.2784578904 2.953342584 5.0705866837 6.0464892984 9.3139623958 7.9211766863 -8.1525779789 
-4.4528818874 -9.5304890605 -5.9449281003 -5.7998289787 -11.536996069 -2.727202608 -3.6958440373 -6.56430969 -5.0403034694 
-5.8593352202 -9.488308654 -2.5992582761 -3.1721772501 -6.4775659722 -1.8296974739 -14.361852837 -17.567344124 -11.149584376 
-17.661965094 -17.093885057 -14.523255559 -15.774532695 -6.4880509287 -4.6549661034 -14.593204712 -19.914879931 -2.1130841779 
0.21284698943 -9.5837743263 4.4055768085 0.30167446641 -15.151012574 -43.63958364 -17.229083829 -12.351839222 -7.160037344 
-19.731839137 -19.64637225 -23.33814311 -17.707422833 -19.673835524 -20.764479292 -16.189710882 -20.881970803 -8.5575855829 
-7.4570533875 -3.3550698275 -4.7825268068 -7.4171523429 -5.265835105 -3.2332940063 -1.2318471732 -9.3751351601 -9.0748909544 
-6.9649097976 -8.4074590718 -11.646368744 -8.4588036613 0.43683178251 -6.0832677076 -9.0778872557 -5.2265155642 -4.3384911484 
-4.2600491971 -8.8427367856 -12.145665812 -14.399392261 -18.405850613 -12.30147243 -9.8409522817 6.2226424428 6.1967280361 
4.2000249742 6.1335440085 8.2108105969 5.7231312699 4.1029048074 4.0097973871 0.47118061452 2.776191288 0.20278232287 
3.2018993971 6.2203899398 -17.468260267 -18.181069407 -22.957388496 -22.250923474 -21.274909656 -22.596337305 -15.830843543 
-13.361643015 -8.8708789688 -12.14941336 -12.689975417 -9.5517582792 1.532933176 5.1268683871 -4.4107857073 3.6175544321 
-0.13607951891 -9.6319451419 -0.16121292369 1.2571154031 0.86977662121 4.7975754619 2.4110707041 1.3990373157 9.2212980659 
-6.0397431524 -0.94949301597 6.9861380974 -114.60200525 -17.841802013 33.283573911 244.11037506 -175.1312174 6.3193227373 
18.922226632 -765.66431031 -37.931194401 -60.498393087 24.912775835 1353.1729379 -578.00311702 28.000099358 -43.482510719 
3034.8654745 -14.42034414 100.84830842 8.8589547874 -521.64839237 1490.3446849 -30.671713796 -9.2368311193 -221.92142734 
-123.03680084 10.83366686 -134.4366026 7.9190120807 -765.25719703 9.3954266083 -1258.3548657 -24.371899195 -11.514964305 
-12.72358539 -12.043046868 -191.67416875 -63.175626133 -316.10918592 44.15861304 -28.926327215 96.786004127 -31.482435864 
1942.3192942 -603.36120225 -333.20479507 27.198110223 1539.3203438 13.563588933 -1023.5381225 -58.160459393 -13.689738521 
116.29332705 10.365206625 -40.400950835 143.1114807 553.76509943 2352.3354255 3543.0051324 -2695.9232922 -962.98094312 
-3612.9498952 -270.14249552 -594.69892094 3212.3878459 1714.0485531 904.37472382 -227.68010764 2319.0256388 2507.8922219 
701.49663414 -746.0670156 1110.6448404 1840.8638258 -1023.5414114 -820.30709514 139.82389163 -1006.476148 59.586508309 
36.337755283 14.534808078 15.005865747 19.12635108 27.509606599 -43.698851912 349.24799016 -34.034408006 45.328500999 
-809.46398049 -258.20846544 2368.2416719 1479.6329439 -1067.2413779 -4965.2666127 71.786087496 185.21581908 -20.227927268 
137.92672235 -31.125871286 -11.875920888 -34.360985621 -28.679509704 15.31194584 116.7872371 -123.47960757 -71.66044061 
-160.08258476 -57.332884158 136.81679485 -62.234703109 -36.579763642 -62.829830143 -26.567513818 -11.219699272 -9.9199543441 
-62.835429781 -148.19564847 16.066171732 -59.499592524 -1028.3493063 90.058720413 147.45633447 -1383.0430022 211.92296018 
2320.8280264 3767.0556409 -22.610241738 -11.453634717 -71.040448458 -88.754651018 -157.83401117 -18.43072057 -30.84493873 
-15.727554806 3.4228184857 -216.59097801 -277.8228706 -367.89854798 -194.73789889 -19.664361084 -53.286212284 -296.22986488 
-58.01069796 41.100284187 101.64350879 -91.959522764 16.301153572 16.063435618 25.670023103 -18.102094668 -32.597014247 
-53.491498171 -55.554776912 -1.116299998 -16.500764023 31.694880717 54.989954863 52.917026525 -20.104656956 29.631919346 
32.168935572 -10.715130125 -6.1196354514 -116.10362595 51.91025232 37.415841967 31.432623005 14.216837341 4501.5474118 
-431.55944132 2815.0170931 1046.5474888 660.88908904 197.23594996 144.76704222 2857.5428994 -109.52947385 -341.1632717 
-215.41186017 -56.485804964 -18.334096189 6.6319325049 -168.33661854 -737.28488743 -279.87371201 2123.0388359 -258.74492788 
-56.814622892 -482.61291755 -266.03899311 -234.0870912 4.2499054918 -123.07022079 -126.99448816 -85.392023493 -11.797839106 
34.933178279 -68.474390615 -347.70179332 21.062307947 -31.893990475 -27.634816576 50.377051756 -4.5960419585 35.765207906 
-12.231762649 -1466.8084277 189.3229029 -1471.5048777 -1168.9511062 2471.7997096 -721.61819931 -21.961895644 -36.865327755 
30.943552232 -142.78845452 19.375944107 -92.419863028 -190.10153481 22.974518619 875.64915107 -1016.815941 21.519216363 
-1.2863598879 -8.0950496935 1.340271626 -11.837056469 1.1104151659 10.206117804 70.610356165 0.65020652875 -3.7008929483 
-22.588316268 2.1488525919 168.15388833 2.7920336203 -1.5670923189 -3.4916904515 61.566510267 -3.5135659523 -2.4852116505 
-77.674012293 -0.92741154568 10.405239029 43.508998812 14.047550948 27.609393032 9.0715813011 0.57150419159 72.600316517 
10.391498417 -10.105462039 5.3413079957 -8.6769627999 80.229036996 2.0781847409 34.242424049 8.3140535677 -42.582715416 
-8.02183371 -0.548922624 1.7910347289 -3.3577164173 17.62982747 -14.551033164 -25.401374984 -57.391661987 6.6344760418 
-6.6681459304 -39.3999467 63.359318816 5.0475670496 3.0146745276 3.7692436757e-12 15.211756909 0.18408671256 4.3765815298 
529.02444049 -304.51887834 -6.7203594035e-12 -0.1179613898 -11.750901626 -4.8432561241 4.0496115813e-13 -0.86884735931 -2.2607309362e-12 
4.3511023709e-13 -4.4302051352 2.8986868833 4.2718356988 9.5587668098e-13 1.685595565e-13 3.3041720056 -16.631976458 14.278068485 
8.7439211145e-12 -8.1250311976e-13 21.247742581 2.3971032407e-13 12.707908791 52.960101855 -91.926920837 2.585991588e-12 303.46156552 
33.034351835 351.9787579 1.4002513409e-12 4.2283884727e-12 -139.18941278 -448.70276642 -2.3746100586 1.2397174216e-11 -1.4770560534e-11 
-74.062596465 1.3264535954e-11 5.3691300944e-13 1.2865636375e-13 -2.8521187521e-13 -2.594038401e-15 -1.5753635696 -10.194790148 0.3968830599 
-2.3660411919 -3.1124744822 -16.579243485 8.8165541897e-13 0.32176971121 8.231053071 -2.8091847696e-12 23.635412338 119.44158404 
-8.1963672537e-13 -9.079663799e-13 2.4712186236e-13 4.0826988058e-13 -1.7039354824 -0.21522534899 -16.702745645 -7.0971793074 -3.4133258668 
-1.7697694642e-13 32.423905064 3.3457801417e-14 2.4458076352e-13 -7.762793286 -9.0627089334 -4.6798570336e-13 -1.2756316186e-12 3.7145907482 
11.648462753 0.664764037 1.4871780971e-12 31.349161527 8.3263785391 -2.0938654456e-12 -6.6407383065e-13 4.1609190913 1.359714193 
15.953362872 -1.2400562348e-12 33.53124383 12.703318869 2.4394548881e-13 -0.36778513549 5.7603557843 -0.29665182892 8.8186512617 
2.818502132e-13 1.5623522712e-12 3.841506174e-12 -3.7523559563e-13 -2.7069568686 -2.8705216561 3.5638911256e-13 1.9947625908e-13 16.150399843 
-3.8391768334e-12 68.983970039 -86.258193208 22.182031368 -2.0328790734e-14 -8.3386434399 -9.6900569166e-13 -15.348681477 1.0164395367e-14 
5.7494478877e-12 -2.761327408e-12 22.608421794 12.691109493 -3.4065329169 -1.3563115068e-13 3.444289997 1.3381002984e-12 -6.8076535088 
0.83865182105 0.81381234689 2.8441951396 3.9048218868e-13 4.9805537299e-13 -8.012931681e-13 -1.3459353532e-12 1.6840999894 -6.6068569886e-14 
-7.8222703715 -20.059189472 -101.13094095 -1.4331797468e-12 4.0657581468e-14 -5.8559191758 -8.639736062e-13 -1.4856957895e-12 3.2086383487 
-19.996407001 2.3886329113e-13 -0.44630078455 6.2606322714e-13 0.52924934443 -3.0916702575e-14 -0.25775579341 1.0704471204 4.3452790194e-13 
-11.764625612 10.621700397 6.9583756617e-13 -38.193378902 61.293013693 -2.1768746744e-12 61.287408894 1.0706496453e-12 -3.7947076037e-13 
72.4408474 -30.585286584 -1.1519648083e-12 3.4259752382 1.2827255195e-13 -1.6705342604e-12 -1.6674831005 -3.5405977195e-13 -4.0445823231e-14 
0.49098690277 -42.629297356 -3.1527772692 195.27166597 -2.7387526163 -0.22304726068 92.229592141 -0.060184315099 65.263441074 
-12.897614548 -1.4585793847 2.5177806473 201.68075793 -8.6032970072 -1906.0649537 1.0029006588 47.249522496 -6.960395717 
245.01770631 -139.26108946 5.2393145958 0.69155350033 86.727224836 -9.9000137143 7.6701833414 10.686702928 -0.21877995179 
107.28705396 3.0416046936 360.31418776 -35.408167041 -0.60651235159 -9.6876792676 -10.938156348 914.62848757 -0.55056901271 
-10.235594731 -4219.9724203 60.420556451 -1.5640727456 0.9928417563 28.685306895 -158.61914241 -11.071772915 -8.2465291226 
1.5676621512 -5.6025337933 -34.954639911 0.37929685952 313.83044224 5.8893825499 4.3155758737 3480.9337926 32.73547095 
79.475284196 -154.91578733 -8.6620047689 -4.7943647178 4.8914596947 -2.6168079458 -6.0262909902 -39.702145176 19.504517013 
1253.5965827 2.3826544751 28.368660404 15.086612955 5.3198015572 1207.1640339 -9.3412924713 20.606415247 -8.4377482963 
309.58556467 10.799533726 930.17069573 13.72692704 18.560580009 28.981909899 8.0429816169 24.148458965 3.1971079927 
-0.038643276727 102.9950778 2.4052688531 -4.7561996251 -119.53409217 1647.7323159 0.046743385283 71.493732425 -12.707372598 
-1.1612388756 -2.0725839471 -12.257639627 5.3325919248 5.5984419852 -1229.3274981 1.3098811435 -77.20153026 6.2616844838 
63.120595244 -4.4442926296 139.36813166 8.336962582 -0.75637048935 2926.5803997 100.12103304 -24.898724701 -511.3842081 
-44.358033736 228.26078007 -24.365750001 0.60452724835 -3959.8700065 720.96099771 1609.5868937 -0.91075058132 2.6910759116 
1.889563918 25.391444886 0.7266364166 346.61897672 6.0612054223 24.059261515 -2.5910569904 -8.8518100532 -11.375967789 
-6.35058628 -10.440146184 -10.736182301 -7.7125956912 3.0738815195 2.9079960195 -12.014131807 -48.996021622 -244.23012394 
127.81992628 1214.4422329 -4900.9674402 -956.03891165 -2032.5841662 9.8930959441 7.3199394346 6.1268513955 -3.8590934421 
3.4693478399 -2.6263700806 24.413005113 8.4522453448 -0.10126398029 18.264988012 0.11818815897 -9.7957044045 -15.765990134 
-63.402902509 19.277968277 2.23423832 5.9737685223 2.0988796889 2.2996046593 0.97300299385 0.39285409246 3.881730327 
6.28336005 7.1517483283 7.7615093773 -0.1709046838 1.0109842449 4.5641410179 -2.4493991536 0.65949943402 -1.1626347371 
-3.8526044979 -2.3245440782 -7.0449875109 -0.47280524968 0.65737856966 -4.0045905784 -6.7380877199 -5.6139289576 -3.4689636314 
0.51830556764 0.068195364073 -6.0021698003 -2.2677999614 0.31692162812 0.93305659499 -3.0952932628 -1.9212127848 -3.2611656425 
3.6594919381 1.8390630524 1.8861059976 -6.2001160865 -2.4688497382 -8.6946284905 -750.66742896 -1530.8864894 4584.5179479 
4099.3813436 2961.3470053 1839.9007297 2057.6863906 1050.5880441 652.97798459 193.24896665 158.7723541 148.43142692 
-43.518491475 -65.692739886 -2.8292861446 -35.818597882 -49.287933263 -61.96522968 -46.078579302 -122.91907997 -41.907946757 
-50.601776667 1156.1749221 110.41526928 2928.6891912 5054.127395 951.23745399 4571.9791773 4291.4560519 1402.0237765 
4544.5747168 5117.2012616 3779.3550529 1170.1740615 1059.6913154 1648.3171292 69.711945074 538.08352482 -54.49576253 
-15.401235583 6.1533361923 -9.794898806 -24.949114964 -19.324494284 2.6905062457 6.3286279376 2.2244290905 -7.6847747057 
8.7103755507 13.840307358 -4.01739735 -3.5126295093 31.361749106 34.762509892 1.5656964049 18.683106646 -2.2041434051 
-1.7542530366 8.7617186479 30.770408822 45.005616647 99.54691486 46.088708214 45.26813014 112.94514431 107.64271218 
25.414224154 7.885409473 49.273330957 18.14032359 58.340332421 19.970232238 48.39295762 38.770416815 6.5306761271 
0.24157102201 -2.9826247475 -0.66725205291 -3.6180496096 -1.0829552729 -0.59149896023 3.9119158424 1.4663884511 -5.3728046056 
-1.378028194 -4.6363955642 -0.26371921051 8.9222287599 11.624200956 26.602208362 26.534465181 -8.4759466131 47.673979484 
37.846885616 56.48260475 80.167391919 63.735615941 87.059969765 44.778703327 -19.27666437 13.260053483 -0.50954257498 
-31.844149701 35.557035581 79.217264546 60.5989324 34.005372147 -1.8441667132 -4.5738150748 -14.338021108 1.6112496249 
157.68701547 0.13795903983 -1.0425562965 -1.9472568016 -1.8688038873 1.4205776649 3.358604676 12.202203294 -2.3928699242 
0.36259504857 -5.0503475789 -0.16978253433 -3.4205735462 1.3799640658 0.074191252538 0.00058784838529 -0.32434754255 -2.8883879346 
3.0838863604 0.6486008526 5.6946430815 -1.073478273 0.96974963205 2.2763108311 1.5928350336 3.5170718643 4.6262244696 
152.83584214 382.72506346 133.75502409 19.672103448 365.67720279 364.63905426 174.91542512 84.288883004 68.325329492 
18.989684212 105.61443687 91.189751605 -7.0047480575 -5.471805262 -5.402371213 -1.7340121827 -0.048738745336 -9.3124447968 
-25.820024336 -21.943444424 1.2944583257 3.441417051 -2.8686272843 -9.3208868502 -28.630755844 -2126.7080243 -3651.1869827 
-1480.8346387 -856.6596048 -1406.7376761 -999.24305037 -413.90674687 -1380.5331832 1430.4960631 -559.24997716 -217.99371715 
-905.41644758 -139.89464429 -5.281287851 -2.2260680934 5.3879285875 -2.5124044737 3.9357968008 4.4766172282 1.3242303157 
-3.3903226534 -3.3216208973 -3.1179019511 2.8437346426 -8.9599428126 9.7777712494 14.751414583 18.860673859 18.466445117 
24.496221073 -0.10143774965 -32.339562211 61.613495766 29.220501189 -3.4034445894 -7.3572688667 0.70668684083 -2.2264692421 
-3.7908626767 0.045894330064 -0.99650032636 -5.6463814972 -7.9696562206 -2.8629256887 237.29587419 551.83253669 735.22935226 
187.49595471 96.152567963 162.29648648 164.94112685 232.31452622 161.94932923 90.308075569 405.11211802 501.1074187 
-32.659215863 -58.26588671 -398.98958321 -48.096740745 -64.587798181 -141.46778187 -73.396005554 5.9202302236 1.7950384343 
5.9779195898 9.5524224663 18.366747649 3.3235091812 -4.5529431429 1.9585828191 -0.10814435413 1.8511894335 4.2615563222 
2.4412043869 160.49772686 83.840180158 63.460948089 125.55636684 -86.387521328 -723.73602049 -18.028689243 5.1916734632 
-9.8125595865 -29.411278679 -18.027214198 -3.7171849465 -5.8057525585 12.919504639 -13.941163236 -3.0887411326 10.079641967 
10.519144354 -2.502579539 14.31355128 23.841537207 20.128326274 17.112033628 43.730831932 11.768543359 0.43688752258 
-0.43814809432 -3.5939126454 2.9350350581 -3.7120552202 -1.7037464267 2.4106799576 147.18100402 5.8949153219 98.959237577 
271.93969009 12.913549243 -1.7630164595 323.01181645 198.87438794 -5.3955444219 -242.99143895 -7.7307695071 -5.9505473278 
32.509504048 0.44336425726 -101.21253093 130.9850643 -0.068078874329 -2.6571517184 -262.5708341 0.53816699592 458.17699331 
-0.71966558146 -7.4999585393 -268.89887397 -1.8508271276 13.884754186 8.5975722725 -5.4056373648 256.3789488 10.63966218 
2.034224091 14.659004836 -0.85665383064 -360.61440612 -4.4242273791 -301.26185767 392.43695579 0.36585757452 2.8385247752 
-794.68973085 -1303.9439384 1.4817620632 4.8976766922 674.767104 52.683635609 2.6206977495 -2.6244616334 -31.419773265 
157.8766075 18.584375863 0.85182015199 -10.655681075 0.35330859579 26.842210139 -2.1035560899 185.70553586 4.3552473155 
-3.7285376844 2021.6616688 -58.918530653 -1.6384495563 23.621604306 -8.8508100648 -43.18522565 3.8186410281 18.329935976 
1.2805093583 -330.51916128 -14.891651227 7.6163233413 -1299.5307781 138.63626499 -5.810534044 -1694.8030907 1.9850460917 
29.996547716 1.6769295099 90.122355212 -1.1393423997 -62.330307261 5.0109600984 1.9839042469 3.9236502188 1.8426557907 
-18.830256597 -3.2792492817 -23.442328134 1.182624003 -2.7725235794 122.74442157 -0.9065299308 0.57395901858 -4.6789499924 
-1.9554041465 -1284.0173515 21.115194537 114.2520572 -1.4788281576 -4.5193010593 -152.29249889 -2.9222375965 -398.80449521 
-0.66643802535 -199.46721995 -6.8648398919 -727.12732658 -223.11313401 0.29882312825 0.10304594793 0.52961886135 1395.9173333 
3.9283401423 -7.2513332522 -1.4614503698 123.55362517 -2.9986734089 -262.8864491 -29.015772751 -4.9062448524 1003.1477992 
2583.2840649 783.20667837 -3.2213062064 1.0213898167 0.20496112018 -368.75162717 -1456.2269479 -4233.6572684 -21.171001082 
-10.711004543 0.86028282548 -7.4764793148 -1.8681530812 -3.0409171625 17.108399085 8.608654084 11.387846666 -9.6414910016 
23.661496454 28.370300406 -734.31173322 -282.97605369 -50.561468511 -3629.0699399 -3780.7282809 -383.31783269 2397.8071971 
-5.2882041639 -7.1706557743 -8.835686802 -3.9715108664 -5.5981213602 -0.086059465475 -1.7472857101 -2.3200018776 1.2396881452 
-37.478652808 -44.694860794 -8.5250207308 -62.447485614 -11.027325046 -52.050046082 -265.63258365 -1.9266538318 -2.4049555607 
2.4772807586 -2.4146144091 -1.9911988717 -3.3660087379 -0.41326689629 0.24202334507 -1.7038455597 -1.1675122746 0.16757105756 
-3.3135982823 -0.3043399109 1.206744389 0.82488160584 1.2457325582 2.5786034352 1.3453475215 0.15516260622 -0.81039724792 
1.9757209751 -0.38238556614 -0.35030538822 -1.7811009109 0.91764887832 0.64520913971 0.026482539082 5.8645082104 8.3558471028 
1.4523700447 5.9570559431 8.0276695512 0.81388874877 1.5834306787 3.8775158563 2.9147748565 -11.003925332 -2.0893410114 
13.90957663 1560.6699422 -1902.6815567 -2339.289989 4280.0683118 -888.95127438 3050.3639051 2824.8264067 139.82279102 
1591.3869251 413.25879432 1743.3578007 667.06418287 348.99561349 397.16763088 196.08731112 -712.30537591 -106.54509677 
-89.75050194 -484.19553662 -717.85672326 -243.93108307 209.95287921 -2.1953188254 -241.0159933 -4072.7609303 -2514.4212559 
-461.13541317 -4356.4828565 -4252.1718105 -1268.6884769 -6677.001344 -5238.9694286 -1212.3904353 -4363.5783455 -1302.7707874 
-4613.1687835 -1090.5729475 -3826.9159235 -646.60137108 -2.5834611657 -16.879811833 8.7699823884 -3.8503571029 10.017985086 
-10.620358611 -3.549523063 -8.4921497274 -3.4952055244 -2.8330335326 -8.4324465502 -3.3266879869 -2.8355778162 -1.2202798062 
-0.12878768073 -26.32895274 -22.249575422 -8.10506551 -39.088691289 0.45342055482 -9.1149001556 -6.0791264227 25.809262648 
17.805555461 41.444078758 64.176618824 111.0463871 10.449598127 12.502807348 2.9806410952 9.386809523 -0.88041285632 
4.9613630905 22.970603157 22.715033952 -13.109925306 0.19987458801 -0.14072212147 0.21031234198 -2.7919959634 -2.6362925594 
-0.14999333721 0.53327935946 1.0993403016 1.7608915945 1.0359849965 0.8101141774 -2.75201137 -141.45541318 -63.943923109 
-167.73759484 -134.36869029 -227.86041449 -27.219385082 -21.197835754 -56.955262449 -21.729804154 -71.219896837 3.9709511602 
-121.10636449 63.623732058 302.89611055 255.32297315 151.25946763 59.702517865 74.512695078 25.750727885 74.880597918 
23.167201423 14.692300133 93.751572703 62.333706986 205.32250263 -1.7556339517 -1.1953102135 -0.48640111767 -1.0108510374 
1.7548023507 -0.36208328119 0.39330864171 -0.14420480818 -0.5149854413 1.7453272715 -0.9272749411 -1.4824262499 -3.6388120526 
-4.007349658 -6.4117538859 0.66714136276 0.93060915153 2.6247695073 1.4756726282 1.069824599 -0.4095781644 0.84813367146 
-1.4759547357 2.6736760128 2.8454506099 3.9371184726 -594.12019562 -358.02970489 -285.772432 -186.01205702 -389.49792311 
-229.36374061 -422.6393373 -20.517218548 -115.24373684 -135.04887353 -122.14298958 -145.69130269 0.93839112786 4.7736731751 
3.253341392 -1.7416528636 1.607860621 5.976871008 2.6409285566 -1.5794333302 -0.89828975324 -2.7593695817 -2.1790659243 
-1.2292518705 4.4270096955 1298.5338645 4049.478086 197.14595751 -3255.6805153 -150.74435679 360.14764409 497.80052388 
66.280071076 576.57920667 253.89022585 973.74700101 273.79933302 82.348220543 1.2590511898 -0.57669970774 1.6698852067 
-2.2116132249 -3.8408310591 -0.0013921053528 -1.9629665403 -1.392715787 -2.0814775843 -0.3401755715 -1.0878298189 10.894964052 
-11.38257885 -10.880292161 -17.652760688 2.1996436502 38.267272404 26.328920902 -24.845735989 -49.038193783 -90.864354911 
-136.30800892 -300.0686523 -569.41483258 -582.64788577 -116.23808713 -150.45804741 -283.55623371 -36.928516107 -548.82162146 
-555.29209093 -0.6657951055 -5.518437155 1.1639732146 -2.011155078 2.0088145972 -0.5656632942 -1.2236250361 1.3924860242 
-0.53362537411 -0.37190396222 -2.9482362954 2.9432344693 37.150833158 91.302204821 31.006148885 17.210090885 4.8956490437 
7.138109337 30.228425097 11.695668873 2.696667723 4.3226632207 -0.95069665057 7.4769513095 5.9967886832 -1.987548121 
-3.0638439924 -5.3452705888 -3.6335379488 -4.915177567 -3.131411732 173.65369463 163.20178937 256.85609816 157.76668336 
366.22148297 659.49050022 12.718186312 12.099109028 3.225038834 1.8994856175 12.730441531 -3.0611319086 11.392363991 
9.4904537138 26.163702212 3.7968131393 0.24394291167 2.3943832143 3.3714149807 -4.9256517138 -2.282972043 0.086159200494 
7.5597856733 2.9332659434 -2.2968021956 0.91030492875 -3.4314137177 -0.04334795295 3.3468774037 16.799127089 -1.863056489 
-0.35252312836 -0.060778802105 2.671289283 -2.8659373073 -250.92208209 25.940746634 -262.60199172 -256.27686867 -102.35578236 
0.20683052694 -2.001157347 -300.03554113 3.3712634599 942.68955583 11.028046897 54.191974045 -43.540396221 28.982488607 
61.807948906 -11.338425398 -22.997313508 52.904524049 16.367865815 -39.980585068 -14.58082807 12.124791538 12.458239657 
55.963996122 19.046984389 -32.921805171 41.713933024 -43.435100079 -12.054512088 -20.329473963 41.884771855 61.020116708 
9.6201367033 33.752006142 16.113632658 64.443241673 -3.1084883024 -4.1953962571 29.309703078 13.419661518 45.962498308 
9.3023233202 -4.7687818606 -19.380581618 -24.302321326 -45.673714587 49.628406074 27.091039957 -10.600502085 -26.580742509 
25.828994427 42.940573206 1.7461186163 -7.0163458599 -22.190039506 -4.4230176194 59.757801168 -31.229076736 -3.4691468766 
41.806376579 36.966944866 -31.140108789 -48.219212559 58.793249613 59.494829773 -34.456413194 10.340153998 3.6416687226 
54.922081044 29.177830576 9.0699087795 -21.450574084 -47.838367677 17.664421225 13.640914494 63.262498307 -18.419885395 
5.1728954638 31.152159144 -22.761424997 -7.1600508108 35.379955529 -28.569290307 43.930349351 17.288639976 17.861251274 
61.805533956 -36.415421666 -14.401249265 52.813565009 -21.140083324 -0.39283335617 3.3460489466 34.837813181 47.250242352 
-21.05186785 1.4117100367 -10.834391229 21.859294507 27.386028919 -16.733628188 -1.6813221815 6.4430789075 14.269294721 
34.933947614 -13.409275483 46.69228652 17.058241619 25.417203921 -3.0187619422 -10.15739088 33.281191543 -6.7744105883 
-19.536847907 -36.731444488 31.305207368 11.474926637 36.925649719 -11.046982417 -3.0979307721 -6.6163920382 -2.8067985982 
2.2628735334 -1.3505552968 12.752274601 32.462560931 27.170512457 -22.368289588 -5.978786554 -15.945406877 -16.061024709 
-16.618980972 -19.056417207 -17.632109531 -19.861488748 -24.504109433 -8.989682115 -13.685094855 -23.459830332 -5.0882574359 
-6.2712177909 -13.767846217 2.1819428682 1.2060402535 -4.3573880423 1.1622022813 -6.8744619941 -9.0381508846 -10.155266021 
-14.663448657 -14.663448657 -26.585370732 -10.374249517 -9.4914123804 -27.244837497 -10.518107111 -6.7002108902 -23.454415129 
-3.6535126231 0.36752990789 -13.589829175 4.5377565514 7.3405761975 6.3041847453 7.3480723717 7.3480723717 11.015109308 
12.78843904 16.861666922 18.31916206 16.548335828 18.259897308 35.074042754 17.329394697 13.89112184 31.101111942 
6.4454068914 6.4454068914 22.992896487 41.138421629 33.005083581 6.4454068914 16.29016394 17.087063714 18.077148808 
0.4153794222 -0.72062380881 -3.174375842 -2.36867119 -0.87064175135 -4.9572224636 -3.0485438852 -3.0485438852 -5.5515747573 
-2.9655620441 -0.63524202523 -5.5260176087 -1.5620522639 -0.56571060992 -4.8705907342 0.29623448008 0.21343267244 1.2184064261 
3.1335320089 2.3871407021 5.925051161 2.3108935771 3.2607926523 7.7196172501 0.36973950153 1.9847153107 4.1550509505 
5.4344839417 1.4273344264 3.2374256246 4.3475584869 4.3475584869 4.3759923682 10.501846103 10.062603354 7.8501822425 
-0.68235439889 10.860408352 11.310016416 8.0533091992 22.709105727 48.257081839 21.796138103 33.159500536 30.383132247 
12.187525572 4.5512267419 47.666927859 38.708909899 23.421846052 19.794402517 13.408215507 11.384396444 33.146702642 
-16.657354945 6.6899254203 10.503227038 12.842549712 4.1156088697 -3.9691823916 17.350922902 15.536420087 13.746570597 
22.201928965 5.553864474 58.64179729 62.359358883 64.459928042 49.136429989 50.037736168 56.008903271 54.458716928 
59.747180245 62.871204205 47.282307253 47.121372199 51.64077879 -35.299068748 -29.883385935 -40.92119886 -34.727878551 
-24.810658663 -44.369792541 -42.249302929 -47.084231766 -46.446533088 -39.454120791 -45.752363917 -40.771372668 -26.808329016 
-49.502391053 28.870866269 34.954653097 37.328937387 18.856416016 20.043280313 30.343045593 35.372899198 33.454123614 
33.754791347 24.119924787 25.272506118 11.802006888 63.052547971 62.989648637 62.951207148 56.776292959 56.445904393 
54.162847804 51.651950501 57.540611776 52.001669648 42.465554495 54.237342997 45.289002569 -6.5853011472 -7.292520642 
-2.1251595053 -4.0097989487 -18.890368034 -20.180650734 -14.432198181 -16.693630479 -23.609722795 -3.709670902 -6.8352966468 
1.8006879981 -10.454838719 -13.331051741 -23.544258688 -16.078790634 -8.0866523356 -35.519632724 -37.539055734 -27.612574257 
-31.071387695 -42.503095181 -17.649170277 -13.331076753 -8.7588235979 -29.288634166 41.371631265 39.475993547 43.827775805 
45.654470335 55.354813002 57.420945181 55.346540144 53.568760153 58.837958229 55.993577925 56.507792625 62.150116168 
58.767337052 18.881600109 15.917806288 -1.8068892461 17.954846818 18.573186952 25.397795566 22.261605645 19.060099946 
38.210316709 37.728326388 30.526387582 35.371561414 -29.180127543 -23.956462656 -34.152909867 -29.78857927 -16.920852778 
-35.41692855 -29.767936697 -40.010805708 -35.686577798 -43.703919412 -40.842913408 -46.138015861 -45.196901491 -8.2408088761 
-7.7339628294 -0.87143453368 -3.2518745311 -8.0160529432 -10.778759084 -16.150991414 -15.058005595 -8.3351193603 -11.18498072 
-16.481168202 -20.525031354 -25.746245093 17.855514402 21.509570268 15.792214093 12.658122245 9.894546945 7.9510646887 
8.3215261049 1.3177556302 7.7280746213 8.2614053279 1.8155621545 13.132348157 0.96930741728 30.095258736 15.907177848 
31.565837315 24.19924608 3.4719131306 1.8048459724 16.297096823 24.893868952 59.311053716 63.047558204 48.973661994 
51.164027538 44.862094744 59.441187412 44.890495685 63.85838825 59.288775416 59.789699143 29.297934542 32.689719172 
25.056108503 31.308888003 40.37484346 26.008573593 13.822742397 13.629026898 17.87625201 18.779903187 -20.680581895 
-26.837894899 -25.197641074 -30.530234941 -36.874882249 -31.6376897 -39.666004269 42.647657627 28.780534844 55.031435364 
33.5749269 49.235352074 53.506283637 -47.059474376 -46.528421439 -40.354065652 -33.173670624 -34.882131721 -37.857104049 
-19.38024192 -17.448240913 -12.776768029 -9.1214575571 -9.4116619511 -6.4320351446 -12.892578265 -19.34190703 -14.609088215 
-15.393342921 -26.10635189 -9.2791749067 -25.964235754 -30.548220091 -28.610507205 35.8732279 44.251585237 35.833499995 
24.631298848 41.607758445 49.165910854 34.285607302 52.182495011 47.75559882 57.088972615 62.530160105 56.911669014 
8.2007131879 8.2774696957 8.7559176961 11.493445952 9.8052821875 32.091094455 24.118816327 42.597165721 42.265706585 
37.36738654 8.6255310849 12.39671421 12.24051226 24.127666403 47.64344038 -4.0342131959 -12.828061212 314.65824139 
-1502.7988339 515.99779857 383.3891415 -0.47609223464 -1353.1885245 441.60757532 -201.73069231 173.960113 -397.55059727 
979.02425976 7.378662382 -444.3881825 105.16455231 -669.69208444 295.41145013 2.2380452619 1063.2089372 825.24770586 
145.84317663 -480.03890526 -945.65865846 -273.86311818 -271.3873696 -1160.5334619 403.51955206 -182.14420648 -306.70566703 
-77.839559501 -109.63549465 480.21014674 -203.57052314 2812.9428473 800.72174803 1312.563073 663.80802423 -102.52446796 
295.14693561 -668.0153793 2111.6513619 -273.08794388 578.93661243 577.58279088 -473.82321003 129.19805237 -891.14645647 
-421.68651057 -1719.3559119 809.65006082 72.543696355 -298.74929953 -1169.8286085 669.02697631 -194.14137622 -366.59826584 
30.347169872 -54.499064166 -14.856453265 -404.85436375 488.64200071 -427.22274026 2740.4551403 2154.9828153 283.437937 
-258.16531998 -134.23278927 2907.4014655 -82.394340563 -27.988114359 -1411.4008966 -907.74555468 -36.222107062 980.64010096 
591.57365956 51.004822824 -2.1684606903 -487.20810199 322.6930173 1574.0226015 -903.26093593 -8.6494535549 -1134.9955139 
-864.28099458 1190.5416323 824.94693951 -22.063411208 -259.94585964 -564.92790667 -50.30416452 -13.419423319 -1294.7024289 
985.17427323 -669.98307963 -215.61388002 19.759009565 -1657.0036351 192.98692788 -1008.5752591 -12.336922388 800.97513216 
-760.35975723 451.93185936 -534.56516341 353.45413589 -493.56832125 505.05504344 29.224384958 708.99494219 -1145.1114483 
-15.083424981 -593.61048821 513.31830385 2647.7155798 -669.63302009 -9.8700910728 3.8700219824 124.43288377 -1729.2778132 
49.71428124 -4277.790109 -11.937182913 -46.665371141 -159.83366128 -100.53862131 -48.42832118 -113.82293003 142.43513942 
565.35597566 1559.5288375 -798.91364404 100.11697409 176.50850438 -157.23477973 11.238246699 -2747.8152189 1323.0213677 
-1251.3071749 -1116.7660058 -1092.1902193 -1570.0106668 -918.54036946 -2128.2902028 -1261.0677398 -801.57308014 -667.94559343 
120.59774392 -51.158007223 242.14012637 -93.621718398 -118.99067066 -9.5103313224 -25.904008437 -20.143840087 -298.12704893 
-192.96311792 -138.31785224 21.915606087 -78.779832396 -16.932827495 36.844184337 4115.3689292 2081.0473733 1172.4731753 
3973.8639567 4134.1131773 494.62037567 4007.9697698 3537.5610215 363.66347634 3306.6133235 608.44858634 1235.1908948 
-705.21393169 123.9452356 -29.462352563 1357.6923926 1985.9409399 3695.0295278 -1293.7137576 1036.6480954 1126.030604 
-107.89023083 1846.6446871 191.21254567 -477.46868529 -269.40156397 -434.99620406 937.68632124 504.66822248 1495.3777422 
323.8329722 -470.98707712 -302.63638186 -912.95254862 -1055.533249 17.169019908 -398.50399214 48.414139342 -763.63997821 
-2457.842577 -3721.5895537 -879.114559 -3526.7767943 -3750.0614122 -719.87645238 -3891.9825199 -4970.9444432 -333.57576892 
-3347.5569463 -477.04910789 -3470.1672976 -364.98435457 -3330.2562931 -889.63586043 399.12127424 850.75152909 20.454727459 
2686.5310026 1735.5113654 -693.31479893 2022.9865453 3017.6348268 1735.6890063 1766.0777597 -81.69612168 5233.3986592 
101.25037028 560.26023924 -1961.9357649 1363.5687098 286.15583836 386.13054283 436.07702796 676.60158901 536.3316877 
-100.898537 42.754696339 166.96775919 260.45015146 -440.80276637 -458.3510655 -337.97137663 -1547.4461909 -4499.1029168 
-3503.8368443 -428.59587772 -677.64289848 -352.45380772 -152.50651453 -2171.3286575 -4133.667877 754.68974671 393.78490535 
1017.9608037 530.32058162 2238.2042499 1965.9783941 -825.35548414 1158.7876988 1826.8159581 2865.7548115 1176.7986701 
1456.755908 -767.16459442 -290.48918553 707.36268821 151.22987918 135.90374585 102.43895996 58.729004636 -223.98367606 
-1292.3839325 684.39952824 2533.6896701 141.59408857 -241.50841423 247.61555968 -413.46085933 -63.412954102 -15.159255432 
126.48036649 242.92807438 365.87051745 -227.71318305 64.824170998 283.05936945 371.64857748 339.18875187 -350.37150068 
549.04312751 291.54564162 -694.52676902 -689.2831975 -393.44790687 2070.3712874 4509.435318 -94.3434813 1294.6270765 
-989.71250147 439.86424403 -143.44700059 344.37496204 -1676.3102255 -97.369822691 128.17494054 -799.8263552 256.69093839 
-668.78292555 -516.97682807 1114.2659916 185.79957246 857.3609423 378.16617533 -387.377968 -867.2740201 589.29457595 
-2119.8757125 98.789875061 -79.413908991 -98.58263493 757.70139767 -280.57371373 -1720.3241724 -93.775199978 2885.3641914 
-187.48212327 -667.78280365 1365.8480499 -250.53828387 -128.49769415 87.785180031 -627.435184 2552.6837683 161.20646866 
80.674620651 -626.72638451 500.23135151 -210.73832711 405.3221819 1578.90393 4467.9044952 -1178.9192089 1777.3733146 
-1049.652035 1136.4435112 -2115.9845921 542.7076027 2694.1495827 -367.57678445 1896.7161639 127.56371838 -1798.1306836 
1751.0423482 -1230.8862536 1197.4250847 -1186.2044043 1151.931546 1726.6351816 2043.7863982 1088.9487774 977.41211403 
-74.946425204 1680.3631598 1527.3247637 4388.1104593 -1177.9831394 -1013.8211534 -16.328250961 -116.72557329 -57.665549382 
5.3236911123 568.0722656 -50.54316541 30.953131817 -27.11680956 -198.46097867 -174.67538871 -331.06206911 -359.42078475 
-151.69340454 162.75415231 186.81500621 335.09863341 271.24242373 -290.98183301 -532.24541396 -275.04390021 322.64022434 
-98.227322549 163.29619753 563.20160052 243.19207762 -116.06629064 29.705080435 160.46857361 -43.998696419 -251.36332819 
-287.28504585 2935.6434013 2859.8939352 -71.688255556 532.09852425 2377.5006957 192.20357566 -291.58511209 89.711649166 
33.854343183 -237.23827123 1171.4507624 398.56843436 1226.3007825 1551.3288182 -1585.411105 -1356.6047976 -1412.5932335 
2160.7224675 161.03520155 -2883.5429525 1697.9013893 3175.0677246 -711.1316134 1385.9645121 1395.7597534 883.40475065 
216.7240543 700.09683445 1345.0181489 4054.32389 4511.7162647 749.46744834 -4045.3485453 -1306.6472425 -182.21617351 
-1391.2787042 -208.60050438 -462.39079295 2176.5960607 1027.7084223 -366.85265928 -840.08828183 -231.54427278 868.3450707 
1594.5970599 1540.7999487 -54.931211955 -63.392199743 -2163.633439 -1127.1551783 295.07002642 35.195581767 -79.29327878 
-2880.1433018 -264.16801705 -501.81019665 -343.42009797 -504.42430435 -1286.2492899 -2162.440683 -763.1756768 -224.83819249 
170.87703228 1689.7090303 1375.6200163 1158.8041822 -815.97224245 -1562.8585973 -901.94293476 313.4467735 1418.6438156 
1275.5389566 39.864299916 -537.26167332 -1894.6093286 -28.562991237 234.38184798 -232.52365294 -12.513869276 -1240.4472943 
-360.12817841 -1252.9252886 664.91490737 756.14393767 -30.582049735 198.11592597 69.066441536 -1278.7703515 -2200.0826307 
-45.939198553 506.14201354 -540.92430061 -1903.0959854 -155.28829238 -574.70232913 -1352.5984232 1326.5608643 115.04508351 
-228.92838197 460.34493091 390.70006767 -44.456302184 -28.299490225 1137.4591327 112.93261454 -1166.6023481 368.88003195 
313.98720269 -369.39169622 79.04834115 169.30451995 -106.86780094 1143.7011196 1084.9057992 -746.52478925 -162.7465704 
-221.13619044 -136.48543836 732.45736775 -78.09628705 1122.8929176 76.496232186 -36.679887855 -119.13849956 -96.033707891 
434.31618557 1714.5860653 -413.89910433 112.76904006 54.248994372 83.936049248 -489.41394535 90.366537318 975.39723459 
2282.7552449 97.737943367 1422.6487205 -1242.3123436 2301.6355903 426.84679738 1222.0304397 39.127800469 -365.56555025 
-297.84139854 204.24004471 1800.245798 -407.72940469 -673.50961541 -424.62009769 -227.67687508 131.56750602 -190.28676335 
-195.75733628 -24.130111462 245.73193953 338.44780073 56.913374106 -113.79820924 -170.37864753 -182.99478014 -23.963588667 
-66.291234021 105.80490104 -148.87704119 -263.83674806 138.68921066 688.13157098 600.81835216 1093.6887626 -1056.1940451 
-1153.4608732 261.15101098 -1105.7307808 1874.4287806 208.50658753 400.35155175 -193.45288586 -59.980438484 -126.08817608 
80.82700629 -462.86750532 83.387078682 -297.79870997 -3.0034778101 39.824785014 -1536.2938093 -3486.2864348 -756.45926043 
-759.62262834 -2968.303931 -1905.477199 -2890.4044091 -1036.7284752 -1440.0776406 87.258957791 998.47965158 -1211.5923907 
-133.75584386 -1179.7243417 -588.30441503 -1090.9023985 840.54872969 -53.879205601 1081.3697164 -67.056574446 -505.98899901 
-636.882432 -1152.8730698 203.77380429 -619.9674445 2418.7034524 -557.7678514 -122.02300258 252.65139587 -1458.3857854 
-338.6707866 -379.89585489 -807.3124211 -1996.1770721 -2171.0470811 130.82689091 -1811.9239171 337.78876576 354.46464645 
902.74244264 -1997.9054093 -1244.867224 -208.20197458 -182.32674032 -173.59792371 -115.19283912 326.14711001 683.79989058 
115.31296747 811.04956854 -429.37893527 -745.41633983 -2646.1944841 1261.0588282 -201.8964711 514.99026767 873.24155823 
1230.4575064 31.033552939 -319.93062421 589.09317674 831.21758598 399.28714952 -392.18187946 -1513.9630917 -658.72148288 
294.71642948 698.10663842 279.81008727 -150.62781824 241.3911051 115.97159362 -28.578630542 -238.48537323 -1165.5527958 
-613.49819755 -34.18501391 -57.813598112 201.70378419 337.42898463 400.64561912 -222.32968809 915.91376996 542.67685699 
-1591.2301097 -456.22310222 -347.78252009 -457.52682734 -285.27108435 -999.78955181 -1016.7064782 245.31091743 -2645.1462376 
-560.7221002 12.96943516 -214.95024793 -231.70207559 -422.85217128 -573.286706 -295.63010322 -553.16836162 -168.45273969 
-1175.8981497 -1088.1796337 247.87036323 803.44670107 1277.8515309 -83.855939059 101.89530706 20.988438362 -0.74322357101 
-46.871405953 5.5141343417 32.68202655 -95.850760455 -6.6878545142e-13 -34.203846584 -36.405512825 4.1664574706 32.54592132 
-115.51487201 120.58045927 6.8797684633 -47.052959158 -18.511494935 -3.6023605907 37.107824145 62.417888297 -70.030312527 
-133.00462402 -91.29813238 -17.220657397 35.317920137 40.827961278 -11.710647557 2.2375165295 -65.04174081 -73.424893895 
20.415329465 164.99286072 42.056767539 0.81422541245 -9.8461928182 40.340100203 -4.3762804253e-11 48.349488156 39.188988263 
-3.0599877807 -525.38410571 -8.7881089287 58.105260971 -305.8271803 133.63303533 63.256337653 32.595751562 132.18047922 
-94.34180743 -187.13879498 -20.99669127 598.58458486 11.695591 -8.6874216163 -6.0652279846 6.6785847296 206.96285394 
-670.29198123 -3.9971373883 50.297082394 303.50700367 -699.94671124 1.0055657512e-11 6.3527471044e-15 -2.1764352761e-11 -0.37556442354 
1.8888834724e-13 -5.6107459954 -2.2343037552 11.992434785 19.196113736 -1.7802126999 2.1627524804 4.0678757292e-12 -2.0225664473e-11 
-8.8611822381e-12 71.929272055 4.3461631101e-11 -103.86066944 1.1523585923 -300.25414198 -11.856398976 44.075236795 66.554177166 
-64.401693032 -692.80576133 151.09993004 1009.3304597 13.519455453 6.0950434073 418.62643755 31.677783966 -363.49304961 
71.382122909 -0.29414851847 1.9554814379e-12 2.1530518728e-11 -10.506702044 8.1018701405e-13 1.7845688471 -1.5077186461e-12 1.4920607654 
2.6227845816e-12 -12.025982729 -6.5687134335 8.319668107 68.000358444 -1.4129144835e-11 -76.426484266 -159.676837 -10.528932276 
3.1659973986e-12 -7.1891921398e-13 -248.63687104 -1.1051662379e-12 -49.495415149 -1.1654326321e-11 -389.5484648 -2.1955093993e-12 592.98913996 
108.22340393 53.140385875 -3.187808497e-12 7.9510982759e-12 85.406437873 9.6629518623e-12 5.2854855909e-13 2.585144555e-12 -9.1114548806 
-3.1484214649e-12 -74.023374813 2.2734364304e-12 -1.5975041385e-12 -1.6555809432 3.8963515574e-13 23.186593801 -1.4090393078e-12 -11.697398619 
-2.3623748899e-12 41.982856025 4.699584454 -7.3979857613e-12 6.5540827888 -1.3603349133e-12 -4.4752985768e-12 -2.9096140509 20.02862957 
-6.3040692826 -5.2939743076 3.9810548521e-14 -1.4501204057e-12 -0.13402468082 -10.045230981 2.0735366549e-12 -28.775777618 8.9514441866e-12 
-469.90041985 -94.651720184 84.149432371 81.191558321 -6.5983866591e-12 2.0255945901e-11 7.4860771878e-12 35.135458021 -94.823261509 
5.2088291091e-12 9.6481287857e-12 -1.8951515162e-11 -1.7050136956 -5.539595475e-13 21.789436902 1.2258260813e-11 48.117111257 -6.8524965433e-13 
-7.2084370376 -13.156327814 -6.4908134748e-12 1.0382929867e-11 1.0960606337e-12 1.4414246426 26.414074709 -1.8911334036e-12 112.89562726 
-209.93672124 361.40467312 1.0569277116e-11 -2.5012882932e-12 1.9206472079e-12 -8.334804201e-13 3.0344531819e-11 23.584253539 -20.028092812 
41.769661516 -3.6180658718 26.116978153 -4.4587814343e-12 1.8431436932e-12 -59.277867659 21.879533428 -77.217331569 -2.641472246e-12 
3.5894079931e-12 -6.1187211655e-13 -1.9352585262e-12 3.7673907912e-12 -1.9089343304e-13 4.9974943888e-12 -48.386839054 1.7351469925e-11 74.448207232 
5.7318719541e-12 -107.04032151 -12.944748965 -1.9786689648e-12 -8.6344421061e-13 -62.494523627 27.187177358 2.0544784136e-12 -21.733754412 
388.26297255 -93.86310646 -467.51693796 10.790718471 -2.5697687652 146.31441275 -493.6011612 15.502809911 26.685409354 
11.352959298 -1.9469581876 -72.054562071 658.85673151 -43.116065635 307.00718071 49.117382789 91.847179856 -151.61589556 
676.26810027 -3.8216255449 -146.09667221 -8.2704258795 -93.945584655 246.76208719 -142.11653649 -43.556091658 -188.85686869 
-83.119127575 -301.53362323 139.75910964 -4.3803949393 -103.93901976 -228.72827849 -856.56387861 95.461828196 -1706.0478704 
677.95274279 74.839138325 -13.457541177 44.113123136 -13.966533657 246.40882766 197.85873644 -570.74501749 151.03646096 
197.59316841 93.149418117 17.974689182 -341.60513815 -25.459109205 658.53581276 492.12064127 -8.0534132378 -24.344764034 
-440.52324412 -136.04894863 -53.301672172 -142.38239846 0.69899485625 -49.883558454 -99.867351833 27.948821401 250.94267031 
-689.83150343 256.35251696 -310.21710194 -528.01183883 16.286892209 113.15800078 -31.962201312 -522.64370527 -46.422280902 
426.04711847 -9.6922065091 -24.053401114 -76.546747145 -147.37458401 -51.038065496 647.70057675 349.05230143 -5.8249158329 
-307.73507103 112.19809156 255.30556239 -82.878779401 64.25174709 -1446.3725802 -203.64760543 171.29457499 0.69350650134 
-83.750361573 117.32007148 1.0021121634 -547.63987851 497.04118188 -112.13076573 69.447839401 -1.5753225187 -112.41836517 
122.10464686 -94.100825664 -185.06288907 -2537.2580194 164.26201705 -64.33191328 -6.744460634 -19.848826133 629.5664077 
18.667082206 -24.529972107 -66.812399468 -15.509579836 72.515943045 39.39205624 9.1111590176 -1504.2878112 -2098.7377265 
-2820.1385097 418.66905439 306.00252522 -1145.3164298 -3.0633746876 -44.746151003 -23.303882548 494.46475514 1005.3367527 
-1148.3097036 1045.4590208 -314.03097893 2.9010223416 -736.42865836 578.84169641 774.3026102 213.69840563 233.85227362 
31.591530818 -90.610713572 48.843202572 142.0080749 202.4916046 48.79214576 23.58334093 8.5655909572 7.677192716 
-10.688012174 2.4614199154 13.239781108 9.8040906827 -12.801110688 -2.8279578716 16.541402007 0.099116940915 27.412085295 
93.262721901 74.691393636 493.10407581 298.63845163 298.62115307 457.94000942 490.56838211 1010.6528552 716.09420095 
2034.2839804 580.6751224 188.53875494 -9.9688109246 -72.082511681 -525.12743817 112.83403352 75.147746115 12.845503248 
25.871255956 -211.58719215 35.677940359 -213.01257873 94.562034077 -45.561223509 -44.676662422 69.419868187 109.87836542 
-269.30499617 214.51086732 38.023831591 889.63950345 159.94231827 104.26103014 -52.411206119 -118.35647331 -123.18574848 
-181.71467991 104.6012569 36.042205195 -77.245962417 4.1842749516 -364.41598814 217.54981416 -639.78337322 -3371.6035799 
728.29828043 2668.9561851 813.06675018 -1208.383617 -437.71932243 209.32026952 -137.9845855 -218.40907551 566.18255531 
-97.847027589 112.90092804 -263.58786328 -39.777339969 -33.829702807 -97.352962416 28.865112588 -48.427484865 -132.23365641 
-1284.7766328 -294.10539712 -195.98201556 -4869.1851665 -3566.4440999 -909.1651624 -3946.832966 -4038.516794 -1133.3059831 
-4767.4998748 -4210.750819 -3782.093576 -555.97954558 -564.33825261 -3029.3208529 -478.23677116 -302.62183691 3.6195885382 
116.14787787 224.92811361 490.2049128 -17.539743033 71.78120207 168.13372823 545.60450189 809.10022468 469.27048788 
249.08740822 -4.2641562847 -8.6228134562 -1.4981594993 -2.4524647845 -30.392723478 -31.950667664 15.434054421 -21.397069232 
-35.961391653 -3.2162658271 -13.360543 -18.355024366 92.437863416 100.93014903 150.07533884 -66.535026452 -15.126165123 
89.697629862 -25.658471615 -20.54397087 -143.26378146 8.0800106532 -203.33378632 -59.392563024 158.07160564 -248.8414303 
-218.91735439 328.21611467 26.338369267 122.36769933 -273.76616025 -921.15257669 -356.685571 294.26782841 -426.68943646 
-109.88102574 453.90504851 -13.445561615 29.709725021 -29.485924434 -12.976057914 26.188581284 51.518622796 -47.847806978 
-61.93522763 -39.677322522 -43.470339283 -33.728323237 -72.779132252 -44.328356477 -21.019967205 -120.46323423 -82.762390487 
113.08086098 204.19335405 186.35625787 -68.191090198 308.13122045 98.733368629 -28.592045921 -48.034195122 155.86807629 
-297.90497555 -113.94161241 65.383363956 -340.50639714 -45.980082989 -58.513703759 -39.279080978 -5.594927401 17.985042505 
-16.280921381 -101.86086852 -199.74739721 -175.7752238 729.02896594 25.78495523 -18.274024078 49.234352098 -11.975774972 
109.23271093 -2.1356985825 23.442492961 71.89633244 13.127404355 36.983231426 12.716264666 25.499931554 -67.441438672 
-105.6745061 -56.868640069 -84.871108436 -256.45710191 -87.315424316 -293.80032554 -39.157991531 15.556780613 -29.915287007 
-14.551828744 -68.536188902 -31.673829492 1090.1720452 281.32478035 653.1399823 617.22567247 533.35280258 498.47161921 
217.18594661 1063.7199056 -205.68205901 -164.97094288 -261.44457737 -13.267826269 -254.93787407 -383.1685023 -287.83155132 
-1095.9805798 -1744.8063487 95.216383697 161.77669797 -141.32321709 -222.42337463 -65.830352032 -216.75751844 -209.68929751 
-109.12188573 0.98733335057 156.58644812 140.57657147 247.11093112 480.87188753 569.30260079 689.68050466 63.455155009 
486.80988306 161.5047124 68.162243477 172.06018403 69.372372009 -31.718975829 -6.6206302757 -236.73581999 390.96490977 
176.27456099 -55.844699725 -154.33054036 -151.3780775 -120.86588801 206.57707984 -220.21948059 688.85485291 66.474507561 
-50.798146328 -123.75733161 -3.5111885325 -244.66298037 311.89348375 -271.62102851 -193.15590315 -577.3686448 -472.59362485 
-97.450732591 -144.88566781 -292.6073555 -119.58766612 -322.72568296 -72.27506893 -94.240577872 -4.8125130498 -59.556283052 
756.00650667 1129.6815082 749.2619978 271.23719394 52.099644732 -144.34409641 77.729828422 31.163231613 5.7509226474 
3.3603733661 -10.891569224 0.15579745899 -6.5421110253 -129.8176988 -296.84554351 -93.476683606 164.86442877 376.18175405 
1.5493533808 -321.48826649 64.819883736 -457.4285922 -209.37642324 245.93563091 208.39204714 -54.15407267 -62.041847353 
-1.3246428867 16.782538006 -141.69311118 343.25463023 -39.476882328 36.038212475 108.31340149 -761.35563037 407.92296776 
-198.35030946 -251.12444687 175.8405246 1.8159706173 47.887216676 -392.08308205 -62.037611236 -170.82512672 -15.927794946 
-16.764346413 -215.00269667 -63.253820565 -168.36532983 -6.3850890469 -1.9423609371 92.904357436 183.38990425 104.09867732 
-271.37043996 -126.79108722 -281.49771616 -113.03991931 -113.29710069 210.0049156 -342.73265727 -146.41458097 -1550.113067 
493.03991113 238.66416303 53.526632865 -246.83161632 118.67852941 353.96513236 7.0233508961 -106.78754536 178.70238199 
44.96772865 254.89210492 -604.41568481 141.29455696 -193.35112795 343.38337743 -49.601472294 -18.820494051 19.629307032 
22.298708911 68.417197744 -58.182622362 84.520325797 -21.919560764 -50.325632426 304.3521656 -68.123518625 273.59587024 
-65.697552232 -492.65049187 938.440228 173.53525533 375.11061889 -266.34184272 -46.313476407 -223.7438669 57.26387176 
183.65525533 55.173789758 32.364833729 -60.172576027 42.830070211 -229.69536703 202.8657446 251.25020233 -175.97265048 
458.08508935 -41.824192782 24.447037597 -1440.9084504 -462.98667351 178.92959529 38.555960128 -3.3110822347 -11.606467087 
304.62119132 49.197624532 104.26898011 -29.757358616 202.32948547 -7.1612041891 -97.919613125 1597.4822671 27.381937733 
-200.88084218 1254.2015531 -76.591155366 -323.85819089 42.845251463 468.97203657 -541.46747526 340.49207275 14.495437413 
83.959132075 -128.41520318 14.73752834 129.07976992 -314.37681179 -12.347517993 47.948231994 -92.588468694 102.52160634 
-5.1291179657 76.101039966 -196.59519448 -95.586430308 812.11918512 151.8929788 116.89568311 84.41576857 156.47371856 
-120.81405004 -351.59505531 -303.37907513 145.39404323 -157.60023835 803.544222 438.89184516 -316.33348451 166.5348778 
267.08755778 2167.3372873 -116.99325629 34.258529106 43.208045615 -182.42871587 -187.45074513 -81.982467654 -174.60640425 
17.493826296 366.31352825 -3.5739480588 -27.227009141 -110.66597982 1754.8252253 2011.2253012 2900.6884445 -394.52460683 
-458.63688414 996.84809318 4166.917427 1634.5345752 587.02179786 -179.05619847 -218.15439515 1954.3637258 -354.8980223 
186.60328766 -99.03561022 677.4337843 -575.65411985 23.226191936 -392.02021569 149.53224429 -644.32464465 -24.065392363 
-105.98090624 -269.73021195 -173.79390006 -732.30922767 560.22199508 282.27119943 -2702.8086945 1124.9285949 -335.47862636 
-397.30281846 589.34242488 -948.36254686 -17.498250799 517.42265506 -638.3488122 -1129.0878705 60.742560082 32.815673387 
275.52468741 362.84472063 -159.3897355 641.874426 330.91845481 44.209060492 429.1860106 396.66154709 -9.1645334512 
1996.1816775 4370.3573159 605.80165941 5313.6000704 4963.221392 1101.1730974 4330.0507371 6257.7753721 955.38078926 
3378.8364593 827.22110113 4725.2926895 892.04831341 3998.4703113 733.73877436 53.928411759 44.185723311 458.59086402 
39.996875591 17.208226701 81.131900903 0.746032127 13.818094053 39.930779152 -14.079650171 0.78191319701 -8.4299326256 
-142.32897924 -83.731322677 -56.890001466 -76.157610352 -282.24190113 -128.89711103 -85.28837329 -850.30346695 -616.47122399 
-1195.5824536 341.9189469 -891.50293999 630.8296131 260.44695255 168.7475125 -4.1860672247 28.363798235 -4.6779846351 
72.991762871 357.15136772 -50.917839546 -19.578383866 12.116614954 550.25161096 506.39570867 88.664333222 110.80232957 
-44.457569677 -216.8690567 4.1096653686 117.40019082 -1012.982826 -39.975877125 202.18141663 -226.46230653 271.61265528 
-130.02832147 -407.94187802 -336.45917121 21.074604888 176.92256635 -60.969552243 523.92104281 14.512969965 -4.1844736564 
85.217110915 -83.387355839 -9.8236526984 -324.14870084 188.9487577 139.3413967 81.170477317 -108.47126206 31.549658648 
11.705879641 39.597334324 47.343499407 63.272279358 61.494224628 92.07267163 100.81916177 181.22004638 63.129745628 
52.988061693 92.164223386 -90.543428538 -363.97245447 -210.16183098 69.890019186 112.74305033 249.96137593 -55.139346273 
382.32391358 -216.27865118 -28.125096126 -124.85453295 40.425651484 124.04684113 -179.65818249 53.051355216 83.675789919 
105.39527687 190.07573152 291.60898863 29.466235629 79.115241459 40.137400456 63.871689361 125.82400351 144.96024783 
211.6864334 238.93066327 453.83065848 494.34012448 -232.71548459 -449.94956748 170.75987625 256.80190244 5.0483238493 
6.1241754665 -150.62433474 -90.600739962 130.41528781 -11.694719626 80.988629612 -43.17847796 108.60939447 98.934954949 
-230.41932952 -154.81256394 76.490482744 -1.232886889 215.6379807 195.38364691 246.66229712 -68.107454733 77.377097412 
-370.25065221 -421.40614129 158.8844135 -20.871502853 -31.177105281 130.78726589 172.42438212 59.450595508 -292.23439478 
-619.40462729 70.074436761 -346.59424162 444.73749527 343.11716242 208.86708834 376.92004897 135.18543399 91.365392574 
236.70074046 104.93809719 32.846092715 109.37941572 33.560494564 92.677228114 42.020535333 99.10758754 75.697184429 
52.8794531 31.243632581 102.99173912 62.632754833 -71.586869535 31.737083343 29.313533735 68.899589247 30.958879615 
152.33976396 -102.21191861 -249.72589234 -105.57915045 -138.22376143 -413.73130568 604.40118579 141.40946552 840.48159999 
696.08616443 608.76669555 312.09322153 631.07725238 -148.33289704 12.535122375 -498.84336926 -289.70292104 -478.36789014 
-139.36600487 -608.64748838 -92.045298319 -290.97863612 -234.3602566 -614.68849545 -705.37650762 -159.23299171 -91.768353019 
250.42049665 176.82018888 353.65463231 -512.05324065 -215.99156442 -183.16506269 35.343673804 293.1520657 262.8033824 
-66.601635416 -192.16395813 159.12513952 109.93585058 204.94687543 301.52697754 1062.2144115 -505.72400951 237.39530609 
-157.27657525 35.392706539 193.95757462 183.02541743 220.61185967 667.91621332 64.314529398 168.7950455 120.55140984 
125.75948115 73.643725597 359.2058105 261.7434163 233.35954102 -26.926974766 -173.56563876 145.426108 45.330057393 
113.28399883 -230.13975399 259.27527559 97.793946083 -265.19480479 -518.44802581 559.41445604 42.521596128 -264.01695328 
-14.663401117 30.19340179 44.965846565 17.602179496 36.623766854 31.486634118 -7.2094615712 6.8891360653 5.011455304 
221.71211154 394.90577468 117.67335622 -372.97116352 -393.99044661 -556.06127101 120.2986138 253.88930369 -49.40120538 
240.69601546 -110.34436946 138.47161837 129.42897309 119.33536109 -184.1230406 -128.424403 -875.37875111 -744.74024661 
164.55186693 38.439630929 147.04414222 235.63006476 500.61743849 228.36119079 -98.40984139 67.783822325 52.609858462 
356.2137258 8.4057918615 -78.94658199 19.549221192 80.166398726 50.59640398 138.69163778 195.37196987 -177.36169032 
-99.332768375 16.857802753 59.711110967 85.3818825 -191.38297452 -193.70931984 445.25016788 104.21731559 305.76482436 
287.45967189 -5.7335697657 437.06437324 357.92840309 204.72939051 123.42646977 377.56126085 -186.64977736 96.794842851 
-139.39721702 168.43157287 220.57570132 -926.52827725 304.379192 648.32768735 188.61471373 -7.2285378715 -1308.3308536 
675.53577032 -551.21642083 187.18533445 -314.17483289 -326.29518708 636.21747002 -137.49709405 -173.54207923 28.969759475 
110.19508252 -1957.6747764 240.100427 216.36850829 614.66713302 -43.440634724 26.370190673 -551.33380784 0.95868444344 
-82.64041623 1259.2242323 -240.24629285 -351.47830426 852.63021351 -929.72683108 567.42618293 -55.79497075 -141.71214316 
677.52836309 -1868.0899659 192.01712239 3422.6936563 246.74247911 -184.34102111 101.84541388 926.43236391 222.39010776 
-407.6248035 -617.88162241 658.54280221 -707.78938799 -93.085126307 300.45049006 -70.830495459 1255.4000805 -731.96456627 
363.74449356 -416.7297235 2232.6627926 -821.29448423 264.83011519 -1691.2421115 -1868.1200483 -433.70427951 401.06923192 
2386.3885853 3040.8543226 1677.0747627 1726.9294944 3973.8479187 -229.2095548 44.260299824 -1527.8097123 -1335.00014 
1082.0597105 398.82656598 -1655.7936756 963.58759403 2733.5532022 -1375.3162566 -2898.9252892 -662.77407083 -4876.3102924 
-1713.1771795 1087.6162897 -2337.6914558 -332.75812391 -818.70267721 -1193.6127882 137.69583037 59.020312603 -404.81588006 
572.58645702 511.13260917 -713.04767968 274.00505864 4405.9643953 2531.5155772 860.25689578 4166.7054998 4287.3352292 
689.69190876 5188.3447149 3771.0633439 3764.3901517 911.87789676 687.84522218 3852.4068928 3134.9363249 551.23392355 
473.85055387 -2410.3696199 -3997.6471692 -1112.1424601 -4016.7361515 -3964.4317694 -426.25441122 -3404.5804604 -3769.9467447 
-2991.2005283 -417.8354563 -79.42866535 -1480.2497421 803.63953048 -633.52907798 -70.787292167 -1543.258461 -198.65390577 
814.48997766 -47.489636467 2982.8011819 -1591.6508504 -181.77471911 -4.0214824072 -12.873642942 -63.580714008 78.930969573 
-55.784087926 -165.2608226 -119.56469362 509.21310461 -459.07344423 -44.872051711 172.59127445 132.30745352 3855.7027659 
3464.1094563 148.74167763 94.774783204 30.839696571 -692.79191866 -166.52925827 3900.3793662 2130.7438896 -32.076820387 
1373.7884802 2466.7967997 1816.3735 1410.4618497 -171.74340502 3330.7557923 308.09973713 213.37311203 609.0413523 
472.27560643 -232.10417881 76.558032433 -174.36210165 27.312945852 -96.268383089 171.37106794 61.862164917 -303.29480115 
34.313378896 364.37115395 332.71229767 414.42545183 -1008.0559619 1557.6625041 1051.6587147 -3492.361224 -115.70903638 
-498.77674304 -1049.7705171 -377.20434489 -2683.4630951 -149.97708104 -582.63698331 -1047.9992757 -3925.2073319 -242.41589656 
-2271.8638543 1271.5549607 165.19139141 -654.72669783 219.46745834 477.87052776 456.56377997 3377.5734947 3536.2082026 
785.85634197 1306.7238907 214.30691384 2269.0781501 1574.0886475 -4.5757432657 -1338.6356092 -3282.3107539 -21.740296273 
-2036.0372325 273.79002324 68.351357997 427.83259087 -2605.2316089 789.8787362 311.98337437 257.84942409 -624.25142359 
-56.83779171 426.63349664 -264.34198665 -600.71736886 -5148.2175226 -167.19525772 12.038970325 -74.219512036 -668.79805285 
-580.15281988 -764.73734185 -375.93704561 -1301.6696276 1189.2976515 2775.0437308 85.140829316 -49.401072601 -121.32520404 
-79.759555402 124.45256829 -147.86593182 -43.909101997 -296.12135159 -235.85563227 477.57797044 49.769917878 -135.59186615 
-33.719882631 70.23485462 -23.317323899 -377.16265615 -442.70496525 376.3368866 -1009.3994361 -605.11123475 -524.68871013 
142.70532734 54.639165784 82.615737508 -110.05379384 -93.392174439 65.851137325 -139.303331 -150.75307056 -117.99395697 
-84.853351245 -663.72864916 -461.46297257 -438.53839088 -1152.4078213 -837.98268412 -188.29739952 200.11866861 -1442.5034878 
-4703.7116556 -4281.0339797 -4216.1492588 922.25843984 377.79059473 -1798.4072831 2823.0591091 -2508.1883238 -2043.1966536 
315.15598151 -915.84173605 -706.6082582 2191.5112454 1430.1684627 -1234.8870872 -1890.7537401 1191.4455599 613.86711964 
2677.6137381 760.95566131 2803.3405869 39.279669504 -1450.979258 -1712.6741784 -1000.0844926 374.23685072 1045.1928612 
312.72769067 -429.13551936 -131.13510334 3188.1437323 523.77644955 89.060301786 35.152569107 -915.89319906 1039.691343 
2637.970198 2411.9169007 -1672.7113176 -1328.9073247 -1977.6541011 479.9463403 -314.13565486 214.24855024 -1095.3594533 
412.39500677 322.10723839 404.48897659 -585.02674604 -265.1810329 -179.93343584 -235.75074034 51.153611018 -49.248836062 
67.339307834 7.5917563952 38.245761265 95.902148038 348.08138391 201.30719891 481.24704462 -391.37523441 -145.89515219 
-133.15662456 39.282230235 377.32730466 -380.89299109 -163.48620801 613.46096829 71.412543625 3.89993346 186.28778517 
112.47478362 -379.04397006 -279.0585374 322.91537265 -216.74160628 78.812528342 236.41855827 -28.854105595 329.58928139 
-211.33156347 1129.4340191 -86.742479478 -105.77485348 79.228851161 -84.432615947 590.69560869 -93.263599769 121.46809305 
-406.9767643 288.29194783 -160.32166042 285.97681705 -258.29272006 424.94437045 20.589038687 86.125986723 -92.739686984 
241.92744764 57.061188018 -220.49623638 516.43727752 23.828605417 -512.6667725 -121.86480433 271.91592136 86.182863086 
-1178.2329612 -411.7831113 -37.328127761 147.46593168 -282.20460759 -9.2069131958 55.397207005 59.442679246 -275.93970174 
-140.1413196 114.39265783 360.8436579 -127.02250864 -336.76798085 -301.45186085 160.35828259 193.70099096 75.169735267 
-216.4543562 79.746444376 -77.856952633 -220.42564019 66.396135348 169.57321732 -1252.5741657 247.95739609 399.14964055 
235.94189273 654.27180384 -665.09047636 -80.173165358 48.511392371 -73.411748222 -530.12250531 142.12213605 -217.21114129 
30.748539673 -120.70000508 67.027071021 15.69541753 87.256397124 373.00252524 9.4352119846 364.91177128 5.7577484537 
270.7767586 -46.295998763 0.47194321846 10.892998377 -76.36207154 1.2636168674 47.386787352 -51.710788458 -37.776204297 
-319.81485771 -929.55778056 -55.520355617 -194.19943901 911.71948981 -72.413888345 99.961550829 127.79141207 3.4660138084 
-78.855130792 -13.876771935 -70.007215872 57.99031742 2.5101131227 32.540542845 -27.157727759 -44.367311341 -120.09538686 
8.4902088113 33.581996273 -34.854884217 103.39012993 39.518835189 1722.978203 67.90465009 6.3794525227 90.183931171 
-487.59926238 -329.90826717 -207.97456384 293.17405526 192.97944025 85.057725936 453.79062304 490.4064444 -502.85272409 
-177.4505284 -257.81256434 -428.56023438 -92.981258064 612.32347557 -292.14621448 -567.86345147 -183.15992185 -1653.8856135 
-2081.8499111 -36.703545984 -248.537917 570.95278279 -211.01640445 -110.00982514 360.17524926 -88.916003265 241.40747567 
-193.4229871 36.855261212 -4.4975617657 76.084001847 168.24217979 -13.914524259 -66.608275329 -178.70838117 -363.09295294 
219.91260456 78.252365704 -208.06179815 -642.31927686 54.081944724 83.991214944 356.54435708 14.727622804 18.290689241 
-53.117213399 281.1539137 1108.3550374 740.51753191 128.39562658 -230.51407832 190.21915009 216.21818899 -129.95447029 
293.69262576 623.28903369 77.345198553 1277.3029867 228.01008206 13.38585027 -1057.1336472 -517.92414993 -8.9537225397 
-23.201276948 -359.72364933 -202.98551596 -66.084797811 -85.172966618 -116.30555209 -400.02900582 10.175366729 56.850920894 
33.231106006 417.10491347 13.015893685 242.30102794 358.64946105 173.07478355 -773.66121489 447.76011638 -30.062326696 
207.45333015 80.623371652 541.31574197 -23.986727248 64.770062532 -857.46932289 -618.82894777 -395.23551195 30.390648236 
307.70191071 142.50080183 -391.04627416 64.654976353 84.017772482 27.739923792 -433.42175267 -360.08352776 1116.7382502 
417.04269258 1241.1694708 511.44658968 -10.878072698 -1019.5558576 -86.185703092 -295.0059705 226.21651916 -372.80084072 
-485.73885517 189.54558739 -120.59540024 208.33221791 -833.19814512 -1535.9240978 762.92397593 478.73732687 337.27536886 
-1359.9880949 -345.29497836 -44.724563285 -1322.007496 -406.17770552 -561.09736868 1201.4356889 746.37569964 141.73111532 
-347.13855585 -312.77718847 -348.2904736 -76.931503874 463.52680187 -23.350461646 -117.63742638 499.28899276 -197.87768637 
117.19742525 -542.59309885 -90.526148059 -69.930974544 -74.597842894 5.2230493821 -250.78075727 -185.36813831 -100.56627799 
-102.25060083 10.902866699 -241.31278219 69.988491779 -314.62555265 -561.45695268 194.97495138 -310.68266748 -210.60102655 
-7.8286271423 253.43721183 -643.95587997 -328.25229665 126.47874093 595.92535587 -12.367454975 102.70768801 73.768274843 
-145.6757167 189.29000173 613.50295406 408.16048365 1126.3352773 1040.193133 966.69685631 -688.53097227 263.24666407 
118.01806675 41.337559004 681.57261203 147.33811556 476.13676204 -171.7548821 234.43778891 443.08095169 -293.56769943 
225.78560082 108.07442377 1015.5492725 -203.2929735 -36.851323953 92.009701522 -54.884512765 -96.524813298 -763.27415384 
232.06809138 61.664972414 -73.563886896 81.542800871 215.10533021 -247.16564087 -137.58329177 -118.78844752 -196.88183066 
187.34457455 103.85301311 199.63626287 152.50298422 25.286989551 -45.96617692 -49.376768182 250.206816 159.26360834 
-1611.0905181 -757.08012882 496.63569276 -323.13093123 279.28995382 -15.896004766 198.59207141 369.11886503 223.22636127 
-110.61607673 119.91566116 117.92500024 -217.81132369 257.64210964 953.97209626 -108.80461232 -155.05383278 -67.159216634 
265.05356695 8.3446867972 332.29975951 -329.6704311 358.06069463 513.65736373 351.31069437 -259.46518619 -23.767516754 
228.99263438 117.88745287 66.062696189 -53.500015967 204.29002363 -48.481680374 26.577459866 114.01525655 18.515693692 
-131.08434406 86.164250874 -63.854016019 -677.42533511 1581.2213023 1057.1541961 297.11562663 -78.765147826 30.426470619 
756.88868202 -257.2500266 -1827.8093339 -677.45921809 553.10616284 -87.846353987 -127.81676524 -93.219629689 142.14498453 
-655.23017042 -309.65570594 -763.93898579 12.680465432 228.22004928 -295.93094131 -138.48473116 -147.52066638 -161.02006691 
-137.23639937 -78.030065166 -96.595082754 209.1154835 -173.28078689 -25.395930069 -237.48822404 191.3237946 116.53377625 
-3.1893311504 -191.53487715 -326.40917096 971.24098549 -17.651875234 1007.8475584 -247.55329955 -12.078860075 -1792.0109425 
314.14344051 1003.6126004 -166.92675367 291.51021567 254.98720433 -7.7945006797 -710.43892983 218.53800417 366.71063464 
326.69483759 -1001.0352071 -590.88447602 330.2133035 -452.58509007 -51.145803106 16.413006058 -258.37058443 225.71105771 
-152.10699075 -183.53999524 -67.694718304 -317.56969867 -444.43315929 136.5698968 359.23522345 134.53526513 -29.378588514 
-56.371719208 121.3568188 -36.034621799 -14.795237426 -6.2517153678 148.459094 41.468325462 -65.853026043 503.01571857 
42.055745741 75.121074741 18.079191795 112.63821204 558.79215022 -58.594683951 -204.15282107 -103.17661098 -98.813828286 
-43.924545952 -7.8936753609 -35.437244004 22.625943211 -137.55297287 -20.131805322 -16.333061167 -58.499122578 -43.422658478 
-64.622057545 65.262903665 22.406884986 15.018805726 -37.718083528 -50.231617913 -1.7992843747 84.267004746 -60.324985107 
-202.35072232 -13.316969785 -0.18626885929 -713.52632324 354.51574939 4.0653972662 -134.92762681 -18.01411634 -19.673237759 
10.132769231 -120.89724999 -74.690470385 -4.1776753464 -8.4461990821 -31.321781164 -56.581536969 -30.638075564 -10.703395372 
70.645697554 -40.647784965 -18.847222998 -34.287630948 -34.912868976 -62.334042266 -265.10320494 -484.75419834 13.556826142 
139.00762541 -3.9296009844 -44.344460292 -22.59134317 -14.837587718 -23.596891443 -32.866592135 -168.00057817 -72.698454334 
-117.97315306 -169.85944983 -20.25403573 -95.790271855 -112.45027477 -24.403762068 -6.5946166884 20.457888387 -6.6073071432 
263.4126362 -24.22175638 -259.29067735 -62.30055721 2.3451166486 -42.58274585 -32.296794246 -146.99729074 -7.8799745336 
-37.217818318 -42.060222554 49.993144314 -62.270578577 21.481510698 -41.333917393 -41.880859293 -7.8436343122 -58.650432302 
5.5089972254 -12.843194096 -18.510370423 29.991704656 -45.931518637 -123.03003799 -9.9564591924 -20.14251316 -75.332456816 
-17.021186927 -16.065441344 -24.747194067 -56.699135152 -75.962091043 52.609299832 -43.789503761 45.821617221 -19.652177689 
-15.428504736 -4.4538748465 -8.16791639 -11.816186134 -4.8112855774 -5.5255247694 -7.8786306621 5.5428421735 -0.89755451395 
-10.137540581 -12.701445333 -19.940358172 -61.497727253 -91.782255671 -89.003949897 -77.443575132 -115.43198105 -132.37894416 
-37.081100845 -91.7147547 -96.688690493 -62.021621844 -78.807054696 -74.876523098 -19.91298194 -19.44558593 -35.699082886 
-109.64257551 -141.37662354 -64.058702569 -144.71230429 -197.21219262 -179.70691541 -44.198824662 -18.430458241 -30.597809143 
-25.01277988 1.4876436431 -9.032428694 18.325146705 -23.553853453 52.251938799 -19.880824132 -20.951871629 -88.633313378 
238.46046132 169.00831297 -247.83409336 -438.2757663 1195.2476977 808.44025528 228.05333853 1054.5793365 284.19414909 
229.024072 1859.2679914 968.00678418 7.9494292577 10.477826165 17.324680477 9.3018906861 10.480862646 1.5609668805 
6.9853099508 8.783685176 7.1728737751 3.6493251382 5.4151879362 6.4102445419 -51.700148837 -141.30817836 -85.848564221 
56.325575882 -39.151068337 -27.212623288 30.643457985 -11.019784943 710.18660625 275.34559751 1442.7500308 781.41869158 
-84.745811701 117.68242612 -54.296498478 -68.417090756 -21.75956059 -35.795482372 -42.031727096 -2.3600003417 -4.6159146874 
-8.0253242379 -36.563527928 -29.952696261 -12.206378737 -53.442810707 -22.175557473 -8.8534432637 -13.828930216 -509.40418242 
-208.00485585 -354.74772531 -185.69481481 -129.69789156 -245.23922369 -212.13597308 -125.99007504 -125.1125336 -255.72347954 
-174.78358536 -131.99998905 -1.0572181408 14.978425777 -1.782527855 12.030582008 -60.170795902 -49.963735637 -22.913596478 
-81.710548191 -34.484730183 -38.532964407 -52.330363859 -26.324578672 -59.045991986 12.160852338 -5.8783153621 -20.697117848 
-38.987213236 -8.102426807 -16.833463663 -31.25038434 -26.504052398 -19.921820473 -75.528422857 -72.473208428 -28.833884183 
-47.514102288 -18.143702748 -45.618835168 -53.898421929 -56.647850445 -47.22060633 -48.259516163 -35.067242634 -49.880079066 
-25.905474193 -28.59416841 -30.587747998 -20.192801548 -18.283766629 -20.429379811 -18.969431208 -30.666755377 -254.7606222 
-322.96941301 -31.486722266 -11.074390664 -24.458741953 -56.312634112 -65.631616326 -80.693413055 -6.9585257772 -66.004582148 
-57.493105117 -64.278861481 -17.136203591 -13.622535094 -10.901105293 92.323304197 -290.09896128 138.56742633 68.197684789 
273.21499066 -1.1990083316 -39.621308299 -2.3459719882 -10.399464372 -39.221362164 -24.02124992 -3.6601592092 -38.381216611 
-51.245263397 -165.99978088 -65.950221672 -39.44483792 -19.134216722 -15.86018613 -19.23054075 -52.62486138 -48.585294336 
-29.758971177 -23.113588967 -24.39900505 -16.402812632 -29.951436511 1.0823366412 7.2716544461 6.095049547 4.3233658918 
7.643885817 1.4766231904 -175.71071936 -21.585815127 -9.799786601 -3.9746325068 -42.160653653 -7.312807001 -2.5256701487 
-11.865140342 -7.4259179894 2.6306003739 -1.0400139203 -60.305667393 -66.815893216 -71.069024313 -7.5815109052 -4.5013973736 
-5.4572787275 -43.046246819 -27.639008792 -34.47323532 -16.190706045 -21.950993462 -31.868309922 -5.354216486 -5.1905569097 
1.01100597 -10.085007425 1.9046317473 -376.92922056 -365.08357124 -498.54729496 -83.334999754 -72.540065855 -101.70657346 
4.7939023927 0.45831444448 -0.38342178048 -2.0937896463 -0.43057749992 84.252437502 88.427716369 -12.616633133 141.85218936 
54.252806418 240.21737828 -11.007031771 -10.177080459 -2.0709305415 -3.9028543467 -1.1976018361 -14.164547511 -2.2261094828 
1.0821843517 -17.880810816 -1153.9374785 -1798.0641681 -1742.0170923 -1598.54544 -28.472993071 -19.717156899 -11.968377863 
-14.588942895 -227.90321571 -156.4714106 -132.92782382 -44.727330295 -38.795513768 -51.937042783 2.2070637683 -11.50375797 
-84.302160111 -70.577831519 23.496182192 -178.52053507 -250.81999804 82.679815703 -8.075371225 -3.1491203434 -0.46600946232 
-19.021573412 -8.7946657179 -5.8322054874 -3.6399129475 -4.3745215527 -4.5648201993 -13.032943002 -85.913263579 -2288.4191023 
439.30095438 -2.3543717879 6.7333626528 -2.0700043747 -13.08569058 -19.789891574 -13.09649615 -17.88211097 -28.970650021 
-119.72003666 -123.9241694 -119.00367323 660.67309181 1544.2185486 367.81946475 -39.576973302 -65.81408346 6.7503754002 
-7.0672557629 -8.4550102785 -8.9569446728 -9.4036772414 -15.799742888 -34.36580667 -5.7956293906 -3.799355926 -202.14086517 
-136.76456173 -178.07700506 -134.39567881 -210.86503726 -2628.6629212 1954.1190912 21.793035636 1.9949318428 -12.687135081 
-50.92979316 -29.061429982 -39.397727095 -39.273637472 -27.405494967 -22.850633082 -5.5780259646 -2.6302952252 7.6974712382 
13.745416044 1.1533295658 -678.28009707 18.835251077 212.71267473 7.57714247 -569.86590274 -3.2879157232 -17.567092853 
-17.062617853 -14.205959286 -8.6483166778 -12.926185831 783.01354342 185.97227052 -54.574233499 -143.85413782 -221.41854286 
74.050861686 -41.160407405 -191.59987147 -31.980648932 -338.59007618 -8.4286204323 -3.7625007756 -15.730712643 -4.8185907743 
-18.642379105 -19.721551444 -109.13251824 -581.20658816 713.81614513 -738.79641366 -203.352597 58.62582025 -613.49875553 
523.00970173 673.94148422 430.81589722 5.4849591066 9.4950051547 3.7853303105 11.851621763 6.9783803015 5.905795129 
7.8318704257 3.1190393946 121.08099859 40.321685751 153.94038773 57.645005658 39.123045228 34.238491917 -838.59445239 
-34.681271761 -131.21785086 -363.75551469 -135.30570361 -110.34360658 -85.374716355 -139.34722046 -113.4250437 -5.927928076 
-17.028486344 -12.060515818 -3.7274404462 -2.3309675529 -4.3808657269 -2.5389431086 2290.460194 542.39516767 -339.90780566 
-393.46017501 -286.01526504 -85.078403149 34.738257479 21.498403734 39.551799379 -66.184427151 18.645876244 23.615652841 
-22.969552203 -0.70216605143 -0.022429385464 -24.331669836 -43.274262563 -59.291544326 -39.911866316 2.3669694956 -1.4000838122 
-3.0085146717 -19.885683113 -22.827774122 -19.018961846 -18.698565906 -7.0911528923 16.856765479 -10.534045135 45.240504113 
153.64642282 12.367382862 -29.945552204 -15.732610933 -9.8029979448 -37.010852604 -69.499647749 -22.608048876 -18.00204525 
-23.142593787 -86.410695906 -89.189235291 -0.79298361214 -549.82122754 -138.04984367 -75.023001093 -7.1321373512 -0.20004594199 
1.7371218044 4.499293568 14.975101287 2.753177352 35.875452096 -19.007972023 -16.516316549 -23.330653803 286.81669387 
118.68000756 -47.636443977 -22.846065489 5.607591168 -47.393082115 -4.8913259904 -50.307257052 -31.318453077 3.0566539736 
6.2343604209 -8.1880500794 -10.583680002 -0.54849854882 -8.1840760216 -104.35392629 -534.33673041 -26.779181987 -113.63897132 
-73.57139613 -76.752274163 -54.40014776 -104.94754519 -23.657694601 -22.123632931 -26.57111697 -32.947725889 -29.491893627 
-103.24161028 -10.117452996 -4.5558705221 -2.4814489224 -1.8880226338 -2.184021417 -4.6389999428 -3.0263093874 2.0508189354 
-3.9694289333 -16.719582051 166.13152248 73.07263537 54.545776788 89.215496613 -32.934705701 -27.774412093 -24.902695836 
-19.849201111 -28.500600202 -4.2775530561 -0.77223460631 2.4450404619 7.6675805851 -30.073079664 -33.176484805 -68.891425269 
-52.140847226 -26.911487122 -17.341322848 -34.371235404 -3.9402794275 -1.8928699869 41.670919731 32.797836888 5.6063996218 
-15.616351486 -234.82975329 -151.73351315 -34.474751932 -36.350084643 5.3508384087 -296.61896961 -14.883496967 -32.009653402 
-1500.9498059 1992.9890211 16.514859794 -18.563120047 -27.907251461 -71.941607953 -1153.8734486 879.81530573 -2788.2343214 
-111.91352863 -99.663144313 -16.632843323 -6.2917365712 -2.4148625929 -82.286286988 -56.7744796 -93.985840965 83.259765322 
-51.789849537 -7.7460077474 -14.77190868 -11.697692332 -8.3078217948 -1.4342927201 -11.720839353 -30.136031501 -12.595589159 
153.62669316 25.67865722 46.011620974 -0.85479181088 -32.160347665 -55.291720718 -14.053360767 -3.8022186805 -4.4876128539 
-21.987972487 -53.008037599 -51.293752495 7.2112124815 -26.166352688 -21.326108281 6.7425692971 8.237371322 -23.012514475 
-586.78285466 -71.840634346 -85.02364351 -214.33621087 0.72753745306 -16.928758919 -23.3961141 1.5807994893 -82.578714524 
-77.439001868 -69.31836829 -106.11448141 -277.03849522 -150.79224827 -10.76573054 -24.897709661 -5.6191974325 -6.5964432664 
-19.140793994 -56.340291338 -12.704366818 -8.5034906633 0.089228379578 9.2152132126 -17.806060067 2.6635785277 3.5575181092 
-1.5357059048 -3.6470299458 -6.3217417211 -3.3736132906 -33.707344676 -48.689178374 516.330357 -2607.9217003 19.897772554 
21.178265743 8.6114979106 1410.0875032 -789.25760977 0.43972198325 10.689818399 -20.710697662 -40.411358154 -24.219268031 
-10.799781672 -24.432036835 -21.634656369 -1039.0595138 -203.39286088 -347.07223554 -15.32417894 -14.433834355 -7.2121153463 
2.547606561 -33.722520619 139.80061063 28.975548391 -25.287608846 -10.065109435 882.97699316 -24.295813064 -4.7149715057 
-324.90663054 -1038.3363252 963.73622889 996.4103764 227.58110073 -8.490505352 -0.7554842919 -42.719533453 18.575933649 
-35.833790343 48.000998913 8.1474907621 -0.44793777868 -15.026939945 -14.801704667 -9.0332704409 -118.10331425 -100.19998226 
-1915.3174988 1896.4186844 -1791.3187419 -1314.0943201 -1.3705746075 -0.7461695435 0.29062107975 4.4172720294 -9.2793747317 
-2.1985646663 -12.044752212 -7.1495364016 -7.5075770186 -123.02098484 261.46963684 -10.890117377 0.19498112668 2574.8642567 
-32.591259727 -85.895492488 -24.354371288 -22.702685551 -9.5691201924 -10.817347798 -26.005107391 -22.843250561 -60.050053088 
-81.683034823 -71.540470143 -89.609179989 -72.402867616 -18.55339658 0.10956439877 4.8454334815 44.443274471 40.75123351 
142.062565 -22.817864157 -21.292719308 -32.685246241 -23.329637991 -26.154322871 -32.155266761 -25.327477426 -20.028816527 
-16.213455043 -32.936654366 -35.590990205 -27.300592178 -48.119529434 -32.123785906 -1427.7838379 -4013.0602564 -11.412073393 
-72.887230423 5.3604095183 6.2676149011 -61.719495797 -26.3092759 -43.062999398 -42.286819698 -31.328509621 -147.40312132 
-76.426545855 -201.48101314 -118.07616367 -88.918484592 -85.788727103 -37.292278493 -10.7059685 -9.9101240977 0.07966801926 
-7.7312567984 -4.7768985815 3.0344861479 -90.743335151 -69.255061915 -34.832260063 161.15988005 63.706135925 44.822066491 
-17.8470592 -30.629507497 -25.193115406 -273.57663632 -237.97591964 -188.04965227 -187.64097366 -202.65150679 -109.94742694 
-195.21319071 2104.4760984 980.77657292 -3174.9218329 -218.20442518 -31.640547138 1.7683171553 44.412804976 -24.193721155 
17.210863946 -22.753490049 -38.390642979 -31.527488502 -22.282932159 -160.77772425 -102.22951967 -143.41595251 -152.26461168 
-14.714947268 -4.8577908056 -59.217874669 28.772337708 -12.192583139 36.376756514 18.640453151 -21.99211684 -8.0346595098 
-3.6125186223 -38.971839454 1.3798523163 -10.899695595 57.014865273 220.32249872 -31.492063289 -17.059038174 -11.394548899 
-31.287174374 -46.484077198 -27.341993062 -38.986122628 -49.701961669 -50.222096503 15.026194242 -42.324063489 -5.992183045 
-19.086933231 -25.325000672 -5.4445966543 26.366461117 25.874067534 11.290349856 1.3002321125 -21.874950261 -19.886294051 
-37.622668084 -53.195982816 -178.55397881 -25.716560415 -0.32300743657 -13.152227063 13.117489299 -46.558015109 -66.921426387 
27.490864983 -41.338407701 -77.309533892 300.66312601 -883.70332484 9.4113597019 151.67138956 -38.717520662 -32.493531859 
-9.2603356125 -11.155026246 -85.842508038 -104.75156777 5.699329356 6.977511497 -41.050961192 124.32404156 62.390080227 
-146.36729372 -29.421740217 -27.682772596 -167.04229414 -49.855953183 -17.789475308 -43.620821692 -100.62875593 -104.1417949 
22.959660624 -17.871419857 -16.301518961 -7.624328745 -7.706781455 -27.082790825 -27.47625732 -3.5970958522 0.7324987393 
-188.6180151 -53.849493858 -38.772109513 8.2768756236 -27.391154584 -5.1964366717 21.105426487 8.6696099895 -54.29641199 
-10.071769966 -24.289357373 -15.073327111 -5.4580690636 -2.979043077 -5.7713100981 -7.0592366496 -11.352115525 -6.3440231533 
2.1087756594 4.0127794406 -7.2767595252 -18.52975025 -12.398139974 3.9409311305 -29.736151094 -52.657053451 -70.912922676 
53.946164312 -40.334288061 -87.264040065 -1.401379426 0.22906127599 445.16149733 412.53598938 283.65227181 554.51744028 
-96.58481299 120.0981098 122.9319168 9.7553427918 13.398001811 24.950446972 22.462011357 20.018703869 15.257398846 
-742.53996226 -1341.2119958 -7.6403381525 -130.8631897 -280.07725922 420.93507404 2.1646583238 14.164410861 0.91236014415 
1.9734381124 5.4309159724 7.9489899738 -16.424963313 -41.300429719 -15.890024228 -20.352322231 103.56203497 -26.796954185 
-110.13855178 -56.379279806 -72.663880039 -139.70184545 48.541770834 47.807475648 39.931477781 32.189078957 62.514187347 
20.124938981 24.434122314 -31.647690148 1.3615160248 -46.614081454 -30.748130341 -56.326703664 -26.958567734 -53.176029727 
138.62591297 42.108985227 18.38928006 -24.795493653 -20.105792488 -7.1973601952 -26.096562696 -49.144835208 1.5683305627 
29.952634925 31.966746613 12.87180847 -20.873849336 -4.0110789683 5.4602079345 -17.569710611 3.1653569125 -166.43344216 
-96.972639605 4.1034102075 2.7762994993 123.86135532 60.09022538 1033.7870755 0.37542706288 -9.8949141154 -3.0686812015 
175.87760514 258.38916646 163.33310502 1400.4372296 27.30475273 -17.799492448 -80.716444914 -32.708572446 112.00325145 
-19.861898438 8.6691343874 216.77569053 98.376353333 73.687852025 -221.39455706 -14.182207261 -16.933021681 -4.5569740775 
-12.232789138 -11.380890785 -66.580411359 -21.185775385 -53.665720665 -13.143535567 -42.451933448 8.3097306374 -5.394437867 
-5.6418618166 -21.027258681 -14.11183765 -71.377885557 -36.14195284 1.6035161799 -28.853896095 -169.10654491 -53.469372592 
-64.537269186 -151.03963669 -103.11933325 -19.230238745 -7.3389488696 -28.160076673 6.0080053599 -3.580726075 -3.3994583532 
-1.6931908838 -32.239587901 -25.489259263 -27.654069907 -98.379220043 3.168321384 2925.475884 2603.9067989 -16.508521362 
-10.094110749 41.012737884 242.41834968 162.02860138 85.622434157 63.515813417 -3.7025642188 -6.1451740482 150.7353687 
-3.3233842376 -10.292903895 2.6515265007 25.326863355 -15.338855061 -13.001601186 9.7110365057 56.452467725 -64.193013918 
21.727149501 -21.594445068 -0.82474086251 -61.074864433 -52.842874872 40.566676526 67.924515228 -3.8193789569 -14.212173966 
11.264166152 13.860096293 -8.9953197851 -25.935789779 -23.563760988 -24.676360497 -122.44376973 1.2793956377 42.713180412 
-1951.3483558 -2871.3717481 -22.866975005 1.1640695415 1003.4262514 0.38591291337 -1587.6698571 4.6100713506 -24.503759762 
-21.808766381 -22.473658705 -14.302559866 -23.094464165 -7.394357668 -9.1616460009 -5.7012107954 -1.2007853489 -3.4916997046 
-134.36646729 -147.36797913 -5.425707011 -96.545717126 -57.430394777 -72.794874912 -15.736625269 -51.342643783 -15.783868413 
-16.075625633 -16.262412722 -11.321136068 -189.24454124 -20.268640814 3.3044162376 -69.256739432 25.406796475 -53.895568312 
-20.326672653 -8.7675328784 7.899185743 32.057114471 -1.8593124728 -6.4004807283 -21.932549042 -3.0841144416 -97.936515192 
-17.908879622 -38.100475704 15.126219755 8.8700970679 -4.7892166492 -52.798085093 607.40485377 22.92170492 -32.155583853 
-19.552418721 -1488.4908822 -493.4644009 -18.132681425 9.7623022705 8.9433060646 -0.76029136865 -6.0686200647 -11.133463708 
-5.3358971935 0.88276974461 6.8114613602 -16.8102206 -85.572709051 -38.832789845 -19.72621146 417.3651853 1133.1130094 
-790.12495358 -33.248489215 -15.037891298 37.606854854 -15.19099255 -76.234911352 -97.034909452 1.2438852109 -0.22611427734 
-143.24042782 -74.729553764 -153.47927687 -112.96784694 -76.564923254 -248.142352 31.625962944 -0.80400839703 -12.134690753 
23.443493898 34.971658095 165.37553262 55.289933951 52.008868093 23.902605565 41.420946979 13.607763143 -245.99835263 
2.7988216072 -0.07962310639 -0.76848077483 -2.9363308155 -12.121578651 -26.336285375 -21.048035863 -18.040441013 -19.135659984 
-3.6712183563 -27.233454464 17.107403952 -80.216564177 -3.0186512749 -18.43980359 -29.639986741 3.815280161 3.3443819861 
-3.2355971545 -3.0377790947 -2.4700859738 -48.585650931 -13.198335931 -11.980463431 -5.7226392905 -15.688717501 -16.676370907 
-15.187167121 -16.381918222 -4.6514769544 -107.124367 -49.476289963 -89.52614408 -64.140400496 -75.803883637 4.6062310362 
-0.92127410023 -14.416869757 -50.262651225 2.6650101326 -28.855789813 -9.7049368171 44.235265606 -52.047623981 -23.17817397 
-46.217835578 -82.023924488 -95.547559373 7.4614770952 10.77727923 -459.56279277 -1.9793000071 -6.1681094893 0.039305087562 
-24.209981791 -0.51354587718 -31.261829648 -9.2348357844 6.4515551288 -263.00827161 -13.379542009 -10.694935573 -15.295557469 
1004.5747459 -5.435176637 -6.0316639033 1.3995045296 30.725272338 4.3369444673 2.414648372 -15.731952636 -28.028107873 
15.377088789 14.14582269 -29.590136743 -11.409040867 -19.493081081 -21.080725885 -14.555536772 561.64864043 797.68009563 
-18.825323264 -13.101280814 21.899366555 -20.634032801 -16.040606727 5.3395968212 -8.8709329862 -6.1471405946 1.0635926629 
-6.3985380427 -1.6966480231 4.525720669 -94.718351529 -143.04639956 -58.047597673 -35.820161051 -5.2950687602 4.4168015823 
8.3331165959 -27.19804219 -148.06293073 -0.61319756315 12.166693633 -98.272278278 -1490.7941622 -1065.3034929 2.9061309036 
8.7287128959 33.770599856 -16.751971596 -42.054458163 -9.0113589952 -8.847805976 -8.9458703849 -6.9583449734 -18.346677556 
-8.5958858342 -41.230601072 -12.598249713 -24.421812995 -4.2011367094 -12.965515036 -10.271103141 -1.3544169281 -2.9288840637 
-10.23908044 34.303649195 -21.747090937 -12.004876674 -53.253148949 -57.390293529 -76.95178032 -13.202611395 -52.031106672 
-12.474401379 -1.7795426905 -8.2392945017 -63.718625323 -21.710866561 -22.990773657 -54.525209825 -102.89441169 -83.187452931 
-57.445188004 -37.064098986 9.9191419445 -13.886627594 -6.6514196812 16.59040462 25.770258607 -18.403220494 0.93441599369 
-6.1194985082 23.0261319 3.2788367615 63.419236338 27.292624813 56.497862338 -47.534190991 -118.51715996 -65.089953168 
-47.556970614 18.080123229 -20.744745702 -20.994335216 100.25051919 -14.867316768 -6.67201689 -51.613719901 -20.304520268 
-19.632272775 45.030439857 38.786055701 28.446368115 -3.9174261167 6.3808800959 -29.164902564 59.297897922 -20.729506373 
-3.8553181622 -1.6084110014 1230.5717557 25.319694946 -16.229286207 -23.409835114 -72.206061519 -17.368620262 6.1913776036 
-165.30778484 -5.3372199351 -11.812723643 -9.1608905313 -34.450602853 -2.6631080749 -83.938280297 -84.576951678 -63.013420406 
3.1189947945 0.48981942063 -15.112187796 29.917206008 94.760444481 -6.2288729393 24.830551887 -1130.3769602 6.7198987109 
-7.6375867005 18.945557173 24.854118099 6.8521541882 6.3191522679 59.609448697 -7.2842639692 -1.0873493377 -21.509940572 
-9.4654471412 78.126568624 -20.695740182 -33.654644486 6.5768430672 7.0776582992 374.6683086 -21.080659477 -11.857172838 
-11.579422049 2.4476570603 0.083437076451 -3.7081028606 1.5310394606 106.36077644 -35.154229722 -24.456833473 -39.700594461 
-35.256048411 54.57255961 -67.480719999 -46.246538683 -4.6145168468 3.0470554395 -5.6344383586 -6.6097430225 0.70197808786 
-6.7433788689 -9.1627736328 -19.139733589 -1.1379082164 -2.5179873102 1.6713603821 3.0653290475 -36.374162831 4.3981805941 
-32.808070788 30.648462252 -14.73758619 -209.45188201 37.463782884 112.74929287 -11.603395252 55.062412667 34.405373653 
-131.13877345 -81.428961112 -499.79782619 112.29168982 10.712252411 5.998593498 526.3568528 -55.064505327 106.45675906 
395.85491837 406.671921 13.848491927 218.25099393 -116.75474935 -10.474497262 -49.39528129 1196.293685 -2.0986203118 
22.888542068 51.392153073 62.755196394 42.47051315 616.2107361 288.79966152 144.81476524 -135.33329768 15.177023569 
-280.65059543 523.22768812 62.073073003 609.24277078 156.98276163 199.92868425 54.222790135 1090.8897048 -174.42892963 
-93.281753103 6.8270247351 2998.3173408 -19.03409248 50.788929043 37.702366459 111.45941058 -179.65695731 -295.69844732 
-1025.4918835 -124.54434412 -313.30209604 7.6357694826 15.081269853 7.0248924464 111.50176863 83.256973829 -287.63356555 
-68.091528293 -171.69411895 8.9442757283 -36.27078943 333.988626 139.07166531 15.370924816 -330.51882685 43.430069368 
-17.051084439 327.5918492 66.637947414 -138.6691244 -19.080110906 40.479346883 241.49560244 192.14423311 26.353380131 
6.6575372678 -829.06337721 -84.716493047 -72.023430092 -152.21286499 -48.599714496 35.698573979 263.91024729 -34.210314774 
6.3109353652 864.09953227 1.3898643386 228.7497077 62.355310125 693.64002753 438.04081931 659.73916023 101.39521247 
-50.971303917 -13.928820902 54.306892943 30.029370046 -146.55620941 -90.977457767 -34.707054301 37.655879199 817.67867274 
60.865742675 161.06719554 31.994585848 -332.5638024 1129.4127079 127.40378311 14.983450605 -40.338671422 10.473176731 
-8.0394573832 -10.471222673 1.835251353 8.6497563968 385.59120543 111.75637337 -147.4805898 35.248155782 3.8773330621 
56.31081349 169.630267 280.53460033 57.154667172 61.753995724 -416.08026808 133.25955876 72.899833692 514.43723267 
15.256932689 41.371532086 503.27404344 -119.48886657 -61.933538867 -17.362483052 -1442.2132239 298.11590601 -294.20586433 
-271.39182239 -254.98685145 59.07266574 -58.711887168 126.92167935 82.855286271 -35.20491507 -72.112698145 696.46334169 
71.42474764 96.438464845 -86.900032874 -721.25748014 20.89654695 100.77572773 -136.15316455 40.810600962 362.92175065 
126.39361377 -1357.549874 69.470594243 123.40389887 187.6873261 -37.754835747 529.00742943 -9.0549613767 56.522168569 
-277.02518523 -142.24760911 312.07348116 -1.4273813716 -37.439340501 -241.58966902 480.43090124 -138.2995453 -45.215298489 
-10.477600086 69.569432974 -340.48080443 1415.6307215 58.24073688 -91.194118312 -37.230326028 -37.127154946 -33.010999548 
-2098.8794059 60.127776178 74.747531823 1170.6449898 -244.24262762 83.83250517 44.321986206 248.88496223 439.91475222 
588.39818402 29.967526774 99.061496943 473.6360685 -262.63035908 -125.60759633 -0.03879742165 -31.960185015 -20.886695304 
-36.001271345 -29.114848233 -1.4968185202 299.84201398 -314.60530809 -206.17820561 102.9650686 -1971.4798755 32.779205743 
1445.3355066 -58.270861943 -15.031587735 212.91800162 265.1153687 4.5731074888 65.771220896 26.531119851 -988.52078855 
50.335657449 87.073942996 28.54641983 23.947885869 -824.87931905 223.89327566 -53.6213893 33.557492437 1000.5117533 
-1498.4947938 -67.282934931 330.73419943 21.344214214 94.812946798 -217.83137332 79.551471638 -1534.0057272 175.79884064 
8.8502589048 121.77190369 203.19575447 143.87862736 145.51286232 316.72069424 301.70584784 -33.607245324 -10.501774904 
-55.050085032 -43.727179582 -21.738963487 -7.7767196931 -106.4571722 -100.21145752 -268.85860429 -294.73096514 -735.7711375 
-152.75076933 -4.4972596278 4.2752914984 -1.8790429161 -1261.2010491 -790.5827509 -303.05161841 -246.70917156 -270.70578037 
-829.13153207 2.4082518431 -102.91037398 -125.9216697 105.77443107 34.565009045 184.05786391 -14.202481146 -16.210727848 
1.2826004117 -10.832336173 -16.320818397 -37.701522882 -402.65105754 -724.262179 -547.01030184 74.231830492 789.21573172 
-186.11655699 -857.76438081 177.25637085 581.11250407 32.228330716 23.90730894 4.8453496033 3.9314153558 24.373570049 
10.887097042 26.434214649 46.445048926 -70.670788074 -66.549705685 -88.575807846 -142.91471669 -142.15941177 -108.3491478 
397.74101822 795.5661179 582.72727069 351.61877162 573.80068809 681.66308709 463.22851506 444.94088142 231.45936529 
191.99569394 293.46551606 427.43192965 30.489360572 -13.245703176 46.308210781 -9.1984945237 7.4815536673 8.8872949015 
22.46683129 7.5035830725 25.985916533 111.8056666 18.642531927 -52.244634469 -20.704069435 -1.8645055718 99.950839875 
81.875298999 32.299324806 67.885892404 43.316453112 118.63396732 378.51888595 470.86525726 791.46835973 -91.991046805 
-94.259142292 -139.84953794 400.69740536 19.578088091 367.84650045 -15.33654724 -410.77835149 2.6098142331 -475.0707445 
328.90852355 1137.8552669 -7.3797604867 -45.041813331 -46.758196313 10.438596694 -23.089738567 3.2360194851 4.3700826837 
-10.080783331 36.212749598 -32.600425995 -50.331646228 -0.58978059715 -548.02864838 151.31450137 -270.13607519 773.6984142 
1840.3948516 421.90219787 182.54989709 212.64408293 258.57783591 190.37339518 242.26675794 163.76647595 -91.482369022 
-77.098733798 -167.3170508 164.31943155 121.00559136 146.01324162 26.281895883 5.4425629415 35.344830791 80.52616528 
40.402437141 42.567236552 -113.48185014 -136.29362067 -185.69380171 -35.191614746 -31.067323452 -6.9387971902 -10.034108679 
-1.2795958267 -38.103892612 7.9958870479 -45.976741517 -99.30999057 -75.504694176 -25.344565478 -81.364187484 -52.430239302 
7.9868615906 7.165402856 33.997600994 1104.1669097 518.10927851 525.63481916 36.453804044 10.018454383 42.415297552 
-75.712754592 -69.056390903 -73.22755554 -66.108442613 -20.878213173 -88.099581934 -23.198808682 -19.501842984 -54.249841925 
-24.925238959 -6.4030671487 10.207619942 -5.7214459202 -4.796784869 86.423779223 42.492711842 298.45971713 268.33767027 
165.07725188 70.242584311 41.1749317 80.653478312 81.418579777 56.820411185 53.742601075 -29.3708702 76.471921694 
125.26942681 96.494581042 154.12924645 -107.77701542 -47.133215546 -25.467014255 -17.717096725 -46.768716142 -35.237976219 
92.009035534 53.184579124 63.318238589 18.742368559 -252.90128082 -381.46887973 -244.77350492 -322.9907591 -447.98456624 
-273.91624932 -2.063492653 -10.256165867 -43.659089353 239.21159078 128.02719421 78.468716094 -3.2361266803 58.347186407 
56.866688428 52.639144316 45.180751102 36.299180806 49.68712294 50.035662292 -253.37419543 240.62154908 128.63528499 
554.88108637 -61.909152683 810.37171969 274.49692937 291.90474846 53.458949606 -2606.8663631 -122.38493163 -86.103104166 
-136.85363397 116.39180222 88.573951817 81.13870692 99.818026161 140.19049676 20.703194992 -25.450254637 -49.557804121 
-17.95299543 -45.390975681 -42.043341936 93.666457753 52.511855053 47.870380187 277.02475624 191.54320918 289.01286921 
85.626042438 69.562852155 60.812208237 36.948459127 31.624329349 -417.88246818 -13.969317409 16.902318942 62.354070724 
-119.62661372 -68.864070029 83.649549939 -173.81090672 205.30416141 -293.49820812 70.642329122 38.788233771 32.452235651 
32.294105563 35.044088614 573.40399104 345.02467351 23.421558208 32.720338998 9.7800949884 16.329605973 -88.876451779 
-43.056702565 -16.738321649 28.094180322 -73.226980409 2.7362635819 -7.8090352226 12.464845906 16.594534849 3.3479936308 
17.918129119 -7.3247808812 5.9006097054 -7.8875251413 -9.7037162767 -16.271874051 -18.70767154 -15.753810239 19.347024619 
12.97623037 27.539069872 26.382409018 24.966688333 144.81151638 104.06642997 139.08130606 36.318152048 30.746777709 
38.745285736 41.684745132 564.99938204 571.04345371 698.79384921 922.42903114 831.00526617 187.52627617 47.000834956 
-820.4003101 23.001864217 41.362536841 13.814891125 15.403667006 25.367057815 34.322302381 -112.2408433 -172.76001456 
-92.395965133 983.28182252 -394.65284931 -1047.4586304 304.91156957 -189.79933016 -857.79189282 158.10552449 422.12236151 
-231.82335284 -302.70411396 105.52105613 76.633386411 -162.34263632 404.63387474 22.869292059 -90.667289226 298.82036616 
12.30244846 6.6444480238 265.33230004 517.06036158 263.09142888 -375.67612463 -1107.8803165 -1870.8226664 -40.072521086 
-136.48202183 -382.46581123 67.247939149 95.723349663 35.465830952 172.82450692 518.32177617 57.427654446 -793.6553528 
-927.82196427 -1015.2459785 -5.3102749577 -5.6797813282 -14.108768699 -8.1549073956 -17.495741592 599.98301418 633.86635334 
474.78465264 -233.6498866 37.591694032 -85.752626405 -3.8657838802 240.58017106 84.712071823 -347.65668024 -530.78627625 
-463.39241353 -467.96550386 -259.54017558 10.250655125 18.889968188 9.1304891706 20.775028906 15.164083786 3.7216840624 
7.0784960025 8.6314800489 5.9119937818 7.1210971382 55.193654933 45.597407396 54.21214499 45.997512222 27.957669627 
39.818486929 6.044523751 8.9944127526 -2.0477731127 1.8850149829 5.3665438923 10.364627632 -393.4317516 -579.4308503 
229.13861908 73.266758562 -7.1744262858 -12.318171053 93.683429026 -29.783253329 -0.14773642187 -11.667997062 -0.88056607864 
14.961839751 6.094646077 -21.240763822 172.15865283 -87.765233301 105.49662549 38.942371014 47.370262431 70.012285393 
34.767213335 37.839609173 68.291478725 103.41735803 -51.545459086 -183.71248421 1544.3060444 250.73106662 -85.13123691 
-264.43545453 -175.51028689 386.18186703 184.79580446 143.94022476 -17.050731239 -31.456640976 -14.594851108 -20.290205872 
56.598697462 -70.39912647 -9.1494237136 5.4557216542 39.923073126 336.33429673 182.73968174 -5118.6544802 1054.0480682 
1875.9465537 -414.19003681 -592.93711921 -397.877089 -376.13761794 -700.50828093 10.869235145 38.961874299 20.745555101 
-75.859519722 -26.03914277 32.919786421 -331.2106324 -737.68739347 225.52169184 -276.62528092 -308.96908552 -489.9576551 
-312.98119197 -150.70021449 -381.862112 -344.05094738 41.427733183 161.88744344 60.81313301 204.90100794 79.592057677 
15.833576361 12.934187222 24.9510366 33.862420677 32.40721638 -91.921499424 226.04429392 -162.73205452 -187.37806176 
-41.824064531 -151.39895289 -149.54673457 -275.18700755 -182.52460015 -12.283128411 -13.293291416 -13.994865104 -9.9287348441 
-20.754411485 -16.198293894 595.47485298 -83.523650567 127.9503358 7.6826974757 -602.43080168 -230.28345354 736.89906993 
865.83454819 1121.2992459 10.799387426 -43.613123081 -164.58226862 -201.20101022 -131.90029632 -143.54544319 60.300743903 
60.153051181 227.71221772 420.77444721 623.52398754 -69.738088438 -47.389940438 329.10817122 351.17698558 150.41240525 
537.84244219 664.97808358 772.30634868 -15.410750671 -16.18358865 -19.73754143 -5.0954876975 -0.34773924855 -204.48018421 
249.09864249 151.69866399 45.668019211 62.547402226 -119.78395558 -207.96003489 -122.81400267 -163.07351104 -164.69176159 
-314.60155725 -289.2052852 211.40133148 157.94958587 375.59988478 350.18060158 175.61939349 3.0285019369 -58.588180921 
541.96747505 -2705.0411646 -1201.2600676 242.28741469 -208.78585004 -198.37663309 201.99145903 83.776206408 -132.81180744 
-85.348649165 -207.82450244 -8.796851725 -5.8533400344 -30.51774264 9.0438515192 6.2238735137 -187.66756606 -111.37579287 
-92.16184278 -663.81324728 -178.06494976 123.53740698 315.59374448 503.74922671 21.616696307 41.614060615 38.94527593 
-345.94264193 -360.26626212 -311.81955403 -504.14178088 3.786597495 4.3482653115 6.0568094563 3.4114217804 12.835264177 
5.4293188124 -2.9070355015 1165.5893834 541.09907911 703.08906872 -0.19386328085 -22.491330307 -35.146580372 9.4040397927 
-190.08356013 761.76442883 934.58367268 923.86444239 413.32195898 753.43052799 128.01217081 39.218265297 68.999893558 
67.839321162 58.826465418 -252.03917763 -98.341847109 -255.22315598 8.5159170359 8.8882430191 28.232368633 35.495584969 
-19.548551535 -9.2064636355 -7.0336877796 -26.430157505 -28.494757771 -37.417866621 -24.039595657 7.6765668871 0.093044297082 
35.553402809 16.438286268 15.617477554 1865.2316124 811.27664493 102.00983668 85.133581703 264.33199858 -22.266042601 
-26.695893916 -22.510971156 -29.572968687 -44.47042011 26.931476279 103.82738348 -43.271312699 50.53221168 -80.261388712 
-358.75782333 -141.40045888 -191.36409712 -210.73757982 -400.16457178 -2.7999885641 -1.2840114869 4.2225783015 6.8568967726 
0.5286720505 19.810144704 19.266816985 28.186757267 55.481469577 191.67846591 168.06646786 393.95633917 -1295.4902144 
-585.65856659 226.78826539 -149.31175164 137.21843863 340.63905545 -50.624487186 30.113885846 -133.44860886 240.26525271 
403.46860675 -112.35210639 -44.708834351 -60.265573711 19.871537346 -9.6323332177 -12.578272248 -18.190531269 -57.77733927 
-6.3204324385 661.9869453 508.14572513 270.64458399 340.03797312 380.07736018 -465.31173364 516.64809368 -1374.7173757 
-47.879046129 -103.07620416 -331.27945387 -653.30205856 -763.41449304 67.178793081 55.521028374 51.589597711 12.463461345 
-28.248784449 10.938280578 24.649456312 35.127095313 -671.5307032 -480.34522434 233.85125716 16.215231549 44.206914168 
18.605325828 -8.1258768298 -10.845224436 -100.44173632 -90.0722608 -75.011412475 -1.8115770077 2.2382166438 7.0381283251 
13.695854285 -527.79757987 46.569232735 41.63781765 41.533198943 44.675432214 50.145611446 -4.1175864383 0.8739398987 
3.9714778281 2.4000668662 -2.20753417 29.67943292 42.577869338 17.182502041 401.76846642 174.81129676 23.603693866 
18.502168508 30.855183778 16.451549797 75.658018528 30.119078593 63.999920672 87.069921976 -150.93684123 70.760853283 
-30.868574818 -41.468674428 -47.117042552 -31.461679361 -36.537038327 -37.339620351 -44.78252349 -584.5385797 1322.9549335 
5.4321807981 33.69883991 -15.527447305 -75.01170637 -20.148773267 135.87334582 88.643018739 -11.062562354 160.41135274 
2.6749442069 24.186237587 21.97559996 5.3756065282 -2.4138041094 11.131501391 9.4559534464 168.47964846 952.9758509 
-350.86932884 152.1284478 -69.744798761 137.46974436 85.674133292 -312.58540876 -120.19837589 -105.8270422 -17.334597077 
-5.8529537095 138.54708574 97.541676904 -884.61839645 -2636.8135182 -355.9280097 840.44837069 14.212086797 22.483591406 
21.307796411 14.68011833 27.913433484 21.176557369 31.690918552 41.396967454 37.869498648 215.59310049 -52.296296697 
-219.62067501 -124.78891775 -231.21515749 13.555239784 -179.40556962 -189.54232777 -219.77569199 -117.72307008 -21.494546419 
-103.51567757 -83.117538833 -21.115321201 158.02312565 -429.83239602 454.42069081 687.4606925 -1412.4921021 1129.5221038 
-934.38426418 -555.33458393 -710.76616908 -903.4136502 392.30964405 466.58396178 1517.9401112 1053.1236077 1040.6985449 
309.50202815 3.1868173175 -15.281120024 -33.990313926 5.1957928988 7.586738613 12.280021005 8.492914509 15.864548835 
12.198257016 29.357253102 36.520344906 34.843134709 147.87502489 316.89616229 -82.628916085 106.12844252 81.258304617 
90.24746993 126.71758181 92.863360521 123.11926465 -851.70431136 -2986.9670854 -1735.6805183 279.10170442 304.71944445 
363.71826293 -132.47119451 -65.365747075 -85.608542882 -645.79389641 -584.75667668 107.34749646 112.07840385 138.24024029 
-126.41686039 -24.916197981 -33.798605115 308.45766403 277.08097165 160.41892507 148.31188142 101.38812463 265.88726971 
-1609.4185604 4170.0722706 -80.830420378 -38.181531343 -19.683532876 6.9410537251 9.0159845717 -285.78213934 9.2309065031 
9.9330204535 4.9626393648 7.250603225 10.421908458 -33.928959797 -45.509906972 -161.06472858 -98.204862001 19.025485818 
17.474892459 6.5831770874 18.290557985 -11.282559372 -4.1628774011 -0.26962452647 -10.761739396 -11.2183937 755.08281746 
-136.41793811 -206.33778011 -175.62897054 -57.3113534 -15.320165524 -30.75648483 548.11990779 696.82392926 -1172.8913108 
-587.87717531 -86.831700338 488.44302233 -3.9533464185 -10.009374691 258.15496181 111.4587132 94.139656418 123.12561648 
17.234373815 -11.252528919 -20.312000401 -553.51476036 -434.35284016 -560.80610271 -260.78371924 -489.27271626 29.671697805 
-234.7413252 334.40691768 -408.40365178 -167.22490934 -81.809492078 -173.51570661 -73.728726047 -36.206667939 -46.960683197 
-11.236989159 -40.886741416 27.448079218 149.15920177 372.84367381 53.827200436 -5.6399332611 201.45888035 139.91364449 
171.76564586 -3.3977042332 -8.3185153296 40.685328857 89.912572262 -47.841060494 -149.40757785 1134.8260644 806.54122652 
149.53999224 -2850.4111299 2288.5996389 1704.7817645 -1456.8503487 -171.19126702 771.99832526 368.70257754 38.784054691 
20.69937196 -12.958762778 2.7262215311 5.5524237397 38.346760021 318.49099481 56.591520676 -1446.6487376 -791.57185682 
-708.61636686 -1335.9034052 -989.51926974 -47.133976148 272.64483769 266.51140943 474.84482794 43.351985998 45.013991362 
46.68992903 32.034118526 43.151699284 30.279521083 47.311393297 -92.717196108 -112.88194033 114.14437027 -17.191446387 
-19.779976196 100.4887204 301.2264495 173.14191628 4.6149267833 -7.0346872836 -86.626559026 -215.47194142 395.60480493 
33.074774202 -346.2991073 542.25808537 6.1257350836 -68.270922799 135.53536253 71.041133235 6.6955273051 14.747469497 
11.269210724 69.996320281 8.1885080487 51.953479493 36.330327706 6.8850471235 497.73959313 1432.3749399 418.95862731 
-42.924895353 -7.4557974359 -21.807350273 -59.391725513 -28.951443017 -207.99143735 3.4063716243 6.1324792892 21.588386838 
24.639357872 413.90994655 161.79390129 45.712014344 561.45817209 32.953744445 39.141220926 37.832993416 12.068711309 
-32.631785624 5.0796299726 -130.96507736 604.80451084 460.42801869 -1142.6865047 303.80948543 228.42583989 2206.3953287 
366.46665719 -2.2484745578 -182.98627032 68.978322337 78.582663063 153.36790284 -56.975971338 1136.3369616 -7.0965163502 
-70.027134834 -185.26261344 464.6708564 977.4195872 997.25651281 950.90028171 3339.5018885 -248.83477708 -2.1181251502 
9.0272573418 52.689334237 28.819639151 32.731281559 63.842093222 63.49723766 3.6685955011 -15.133009973 6.0734382567 
1513.3565794 605.16482268 404.43317281 1314.9017173 32.744090144 16.403416517 45.035597519 23.111282116 28.064114136 
54.124995199 59.861498594 -1145.2500025 -811.42651903 294.4745726 173.83708302 230.16164642 -16.627058306 -21.507392706 
-1005.5076178 -2.8440827168 -16.618293097 54.030437793 45.114569308 83.795072302 188.96860249 121.97300295 133.39579529 
78.909618489 88.797124492 0.47010619706 -984.42844996 -900.75804391 360.15567691 368.86225306 335.41213944 150.55347016 
129.66686605 347.1561088 -26.916014022 -1133.2521979 6.9269806722 120.15753654 606.25155132 712.38393558 1.2273288809 
5.5045412505 -14.500830099 37.5193187 3452.4417655 343.05443119 -177.7545791 -98.43921642 -252.36532853 -297.26200577 
-150.80509429 -123.15268196 -58.224213975 144.67539129 124.78030053 203.78487007 -214.93147552 -238.18947488 -289.06029873 
257.43808105 190.99876916 183.26570406 223.67044982 185.42924057 246.6361721 81.351373801 86.37103119 -314.99214078 
96.253289282 504.55687359 6.3738115496 -3.5293852541 -2.5688571857 -3.8623011405 9.1887053039 363.74155564 364.97621251 
330.99308854 -262.51840832 195.36283686 167.43666522 -214.50136327 259.48158226 65.693497037 41.293056742 17.925200356 
29.167905713 78.538249031 32.346131561 38.849847976 -3.890442119 -44.512062283 229.62608476 86.848235401 138.49749132 
-98.47255864 85.270938193 66.356454196 54.114181063 28.299645509 162.16741609 -122.85538682 98.432460098 -4.5231051526 
-96.701232044 -87.003477432 -955.15220454 -603.57769174 -794.27230841 -100.17258853 -76.125380093 -57.515997417 -65.046027242 
-84.162200412 -2.1359113451 3.9885758711 4.4463302484 -10.343973208 62.694461415 41.570720618 6.0268114721 10.685188818 
-1.737796455 12.947940833 -12.363997494 19.754083021 -3255.087078 2011.5707117 2.7049478607 10.801161709 296.36977794 
229.10808989 26.167765058 33.819345699 -161.39399202 1693.6249148 -764.0897782 -12.371777027 1.7431622997 -9.2682088092 
-13.000709683 -15.023399099 200.4782587 433.60252659 194.2229029 496.63035749 4.2501357202 412.83012289 36.410483125 
-533.23246141 412.14762112 591.16163974 -27.619598947 -65.664226706 -115.76579278 140.64065987 152.30578012 477.13236463 
325.38720092 540.88921989 368.1379684 457.48114579 -7.7405862694 -4.4859385652 6.4872067368 61.327763076 92.199734725 
64.31969909 58.58302608 -235.06289925 37.098508114 42.228859626 19.79414351 27.865524849 42.113705621 432.99910764 
-659.54295075 79.666738176 69.799538448 -26.725771473 6.2735243618 -886.07319043 -1005.8004463 2439.1895428 64.452790901 
26.443142613 29.40852984 -49.573407336 6.7056755119 -74.780111876 1.2348689868 4.1419929601 4.103984309 12.199554379 
581.84821691 -2.6947322781 2.1346879847 30.96730139 55.297867147 -0.40242819854 -6.3169770588 -122.6463057 -134.9181413 
-69.620685111 -50.808537907 42.121335581 100.16016426 86.837241058 51.316116322 140.1058215 386.58589343 15.889814183 
27.255588068 29.414708249 25.085066659 30.650052888 49.826170365 34.604046459 97.870427377 7.0611209745 1.7364875812 
16.875463717 22.825501105 15.761854571 1028.4670201 139.44496066 -35.88307603 68.213050132 2.973261554 -2.3316863293 
-16.396895832 27.26432087 36.328833156 47.818381361 268.4250906 249.84542478 3.9193355539 -425.63913864 -1452.2133911 
-50.130178253 -7.6893259185 333.31344217 199.58134924 390.9570211 28.872193166 26.227350752 17.943682651 22.252451515 
-2.4176384568 7.2377847438 0.86937121533 -7.0268732059 -3.3622242936 -415.25038323 -8.2187803588 -3.3492541864 -74.570085524 
-103.64266551 210.91519345 149.0499095 -43.856546517 -7.8162270309 0.43669874978 56.836765373 49.52948987 12.343395229 
315.13657133 470.53426262 872.6796372 -209.92896243 -56.663277806 -207.14232242 4.378637628 15.928382697 3.0777044563 
-591.05612935 -278.37179249 10.166503543 -56.585887619 24.760032808 -357.58646592 -83.945634449 -103.64984484 50.593639617 
29.583910717 23.056183793 -114.48521807 -105.83846965 -79.966392453 11.747784535 -13.452375219 -896.29834558 -1264.2972919 
-1567.3593399 11.813360937 -401.35560575 19.590450734 36.604091415 -164.19611438 -101.8825439 -2399.1218702 1211.3498757 
611.95639952 2908.9646063 929.75583112 -13.387431126 -3.7160086099 -25.195936257 -43.403498317 -40.138051466 1.5485490539 
0.36305085933 -1714.8009203 -3.1104032019 -19.19952872 1639.2800514 -36.11802487 -15.363181417 -7.9962874378 -12.079339142 
150.15652852 229.8878175 169.13037997 -117.14830225 145.30403601 58.770746839 381.76385574 39.731050815 109.62230858 
-36.459953943 46.460769424 -51.439259101 -169.78848033 -94.465690694 -175.96022482 8.6980932861 -141.62145152 52.250932518 
52.139281756 27.720810234 173.69743381 -127.07606481 35.364492956 14.706253755 12.165782593 34.171598452 18.316523636 
20.890991662 226.96149156 388.48365181 17.768446982 -0.67054469183 6.1172481269 1208.6873377 301.91499232 -0.53434968248 
-12.772402451 -28.801922945 21.994467806 0.95717765549 12.204641066 24.682037587 -185.22897753 -48.069769609 -10.193887 
61.094324036 -22.636763774 -44.085797856 279.31878257 -178.45166133 -160.27345535 -111.571667 -69.201059001 77.563717121 
98.450137429 14.276527144 42.793823896 35.239943456 15.827510966 40.424018814 24.295220384 91.373574392 139.72065703 
1.0402910764 80.136398 -22.314196909 -183.91615607 725.26809971 294.34397048 -161.7528103 -104.34465129 40.053946351 
5.3461177973 1.8496767752 11.185662117 16.190755703 -57.868700796 264.90828851 141.29387235 -182.84390804 -527.42353653 
2.364666206 67.56312359 40.966719403 61.577699356 41.216266671 85.917002778 33.800310814 46.473161307 758.58261876 
-86.317503888 -233.92644607 -157.50738086 -119.54857327 -296.51286289 -182.68110928 181.33197973 32.348524408 -78.620636891 
-54.171551055 -153.98427951 392.11829888 260.95174295 106.0830492 -19.089856046 49.449927157 43.370231076 311.82115275 
-482.05516673 -184.01080898 6.45789121 776.68843842 345.34660676 -165.68045412 -56.644331512 -74.605824463 -94.866604335 
1446.6537886 98.02180041 -4.3600040966 108.71670658 124.09449359 2.4418464331 -38.009861329 127.45162371 152.72667014 
7.0829007166 226.98911155 830.08721696 -1.925427737 19.034380143 543.2816598 293.70682279 62.93813816 56.789289063 
60.120905865 -25.920870747 -173.98573283 54.893702095 -81.603954831 -228.32130067 -375.8144517 -276.59970475 26.127791933 
40.473537801 42.56654935 55.162271264 93.596834682 35.435665336 102.63962898 139.56414968 171.97779522 1.4415466001 
13.620229977 113.95889652 84.102924949 46.247240783 6.1670790425 -223.61683613 183.24094121 62.677288377 -14.443128088 
-27.359080427 -5.3038654539 -18.127004384 -30.70453782 -39.149993896 70.07746907 173.73560953 148.43900488 40.52603629 
66.317231541 -32.685797129 51.099613563 -1284.0708667 66.603354225 162.32940516 128.08675088 -9.9513151122 -21.262027363 
10.772106081 7.6320765111 -0.19769322456 8.0886915079 5.0778415415 -214.53523346 -260.10627641 113.12061452 -119.20404941 
-2.2422317049 -2.9219025065 1.4202706074 4.1948738309 -0.40577946448 -2.2730939286 -0.48435322037 37.752416955 56.114333744 
17.617330113 15.854362665 8.5307428924 13.960266508 7.3117855362 60.846787136 53.354852815 -143.23650557 -166.84949703 
-59.384355472 -56.230415584 371.62926504 -25.322291832 -675.88008789 -3224.1601494 242.60347559 474.63846195 -456.6888747 
34.841351244 56.894026778 92.599033526 66.591456063 86.166569188 151.30945342 112.02321093 111.33388417 51.486857861 
38.872513396 46.034184876 71.106413635 55.996886119 41.296277155 99.113048152 1914.8942219 83.821455523 8.4487811287 
-1.7249436913 260.08606198 56.268258292 57.743798032 -45.575239688 -11.978634336 -20.73519041 -33.049368014 -949.11045837 
-1243.3564785 -316.11918357 -1379.4023581 -83.549466258 -122.96210784 -1106.6426066 -3.7271110012 -0.90669601819 -195.57370141 
78.01317258 112.99299166 60.37805594 -121.70031383 -294.30538097 -144.95798429 -16.789140733 -16.452453773 -105.45130148 
538.20077375 55.716244363 60.368438 -1420.1034239 -850.08607675 134.80333089 7.2008567573 28.678760949 80.540704587 
6.2775838264 116.56161985 -9.1601300231 205.17140502 82.694428061 490.27941137 731.74077555 -11.213235053 1.5615243511 
-102.64198076 306.1839978 -390.97579417 112.29868231 190.31990357 119.31188614 285.38701353 18.481750517 71.750031492 
-1332.9517056 -583.46428542 373.7054118 1574.2332306 -644.47907528 19.808463528 12.633076341 43.678403812 107.57028211 
280.57539441 844.54531113 -53.294508481 -23.806248672 -71.515138221 1719.5060113 337.11066325 -548.96258565 -14.537717346 
-140.18026849 -109.7432921 285.02392344 106.97279421 -0.74989961029 2.5426049164 1917.2912887 3334.7188166 -27.83878648 
13.494352192 1.8191555632 20.267675529 13.023690854 221.31509297 176.54817819 165.6063212 56.25756491 54.059432783 
70.461031276 -1337.7918415 -253.89438254 -3703.5918381 211.71701619 3.1745512927 -2.8878226048 3.2541953725 5.441143042 
9.9265455636 235.30369939 1617.3237676 89.770155609 -2227.877993 -2724.5422729 -2875.9391748 96.628678419 236.22852728 
1406.7500344 -1895.5190734 1734.1527601 468.82863259 369.76539694 -329.97024646 -35.916581571 548.29743534 101.25213798 
526.489993 574.98173081 92.226617793 115.44702282 124.051259 11.12323594 27.943134851 -286.87757901 43.519213673 
51.993594567 21.462902074 -180.97675789 -84.679330728 -98.470536252 -134.76727101 -30.92618741 0.31272864312 99.882567231 
801.57463232 168.81985143 -205.56944249 11.53175053 836.48921617 706.21534438 579.3490451 652.43517356 174.32215363 
128.75347264 102.70931468 742.63687534 10.893685807 -414.51237551 0.063050802695 43.935204473 123.44381238 96.358871992 
108.69237125 -196.01168381 -1353.0560208 -1049.199968 -372.31471862 -849.34373835 -22.287568896 -500.00241003 253.28540934 
-20.892041131 -1136.4383601 63.865736308 -6.3759196362 -1.1264889916 0.10555566289 2.7872156534 183.03669989 176.30685879 
-131.89881283 132.52379281 179.25290363 -193.9218784 -545.63589564 -14.472466215 3.6391656075 -24.371296605 9.7503068136 
98.170835928 68.478426395 35.679357394 99.900432986 173.84717373 110.39593814 55.356145739 80.382818476 88.553036661 
49.691493858 200.8635992 192.21550683 11.221704249 31.914430082 -473.45552041 -267.83687353 -186.54480439 -126.12120256 
-400.26161613 -58.16262054 34.333187599 24.8876839 16.737599009 43.574905384 -1280.61132 5623.6832326 661.64767598 
634.54356816 57.203413779 55.234526967 57.274737972 -3.4440720288 41.556777421 -229.22053295 -90.799946853 154.25706962 
55.770022019 -228.42750892 -145.23256664 -44.748050189 -20.289967342 -137.58023683 60.667667036 78.338764797 2612.0318666 
511.18077804 974.63878743 -2735.5891613 2119.7464142 34.05140625 100.05123043 129.43302432 77.975635637 -122.98431169 
31.335558773 -121.68488387 -207.77739263 -234.79552279 33.557893509 22.589284309 56.736194305 1597.9268406 -430.47075837 
-132.36550158 -7.7872137545 5.9886782654 95.910675768 -14.816482123 -4.3737495115 -152.73125101 88.679211492 183.00452045 
21.886069653 203.39008082 -1785.4911312 749.97440075 243.24483724 -146.05303649 37.228162413 -146.6196382 -39.710965343 
33.0042936 30.384764972 43.732874622 31.27951372 33.079052758 25.907878029 76.353370059 72.38335286 0.92514225772 
-11.458531588 1329.5695529 -130.26915471 93.596212606 -14.735240084 3995.3287866 4951.1152476 9.3498860121 9.1438201739 
13.237602955 232.19645446 73.070741153 191.53022306 349.03585517 219.86475776 -10.440575892 5.772647197 84.943470392 
81.564876979 -408.33978208 -275.02482677 32.558690353 15.058489111 11.082251926 31.561891705 92.744327219 58.13473227 
-2103.1026776 -727.90552924 -709.19884415 -10.998213974 -294.70205224 29.466875812 34.916247186 -6.8152039943 -506.85839694 
-5.782436507 4.9809948961 162.47380452 113.40228494 367.4256733 162.25660725 361.08772621 260.35221919 26.699972034 
19.438411165 14.88924768 41.894763511 33.594791009 8.6517488976 24.397394004 -81.428986517 -99.228046982 -3.4322299534 
-25.517709754 417.58355211 201.72723242 656.90524599 167.23698871 -125.68003552 482.48788746 2347.4632335 4078.7072927 
-3.369750554 -231.2075196 3334.254901 82.083936657 71.765880658 93.444045634 54.588395175 67.414719039 278.02902411 
61.005250979 44.413779648 -2822.9206594 -806.89919568 -134.87114104 655.02408241 -5.3484513888 659.48968328 779.45606288 
428.1016816 384.1052446 87.866649278 61.619139942 659.89316502 586.24337531 53.893029636 43.738161021 425.04268823 
-110.05131783 187.71301672 38.873845509 42.595793981 -0.4161826721 42.054533721 5.4432225611 -342.82188929 -115.8211093 
146.71376008 -260.80025982 62.253675274 -11.933966382 -3.0206674954 8.5254116954 -4.0387390813 -10.325526156 3.0830147941 
-4.3366488768 45.06012417 45.093312053 3.4746030655 -8.569289238 -5.4293796703 64.673390942 36.301966643 -235.09309445 
-5.7691611468 2.5745698306 -236.75989475 2347.1427579 1225.0436608 81.760114024 57.890910239 15.920014813 52.54014058 
212.9805194 230.04168058 144.62105649 117.98352563 -347.33251605 47.290469574 39.69699684 54.08659524 -40.279335987 
-24.04600699 -60.72701601 -35.694665031 -34.017186399 -64.247235503 10.301957136 -803.66204546 -622.29673188 4735.9687338 
4773.892175 -8405.5099464 53.582008565 48.901316877 330.3432546 -385.52043528 -356.99040417 743.3435387 -3131.792541 
4619.8350798 40.774770251 77.869206104 45.555123566 69.147511074 -4.0005276263 -932.01066732 33.711591761 778.14412719 
316.26763237 538.28848137 223.9411035 464.2445996 28.855744962 34.082811055 1255.0471357 36.729064588 19.001573593 
-604.2323311 -246.82776922 -4.3032046649 121.70598247 38.898609763 -126.76887033 -82.947476074 -278.60179536 -209.4577674 
-991.46578232 -992.00355833 3.0694876883 8.697195027 680.79942078 9.4489381975 66.550586244 -395.8664014 188.32459978 
-365.85154488 -13.957998598 -34.314508942 142.496054 -758.62351112 -610.07416186 -279.40817801 184.27657135 77.188069188 
-2171.7296838 -4103.9739725 297.22206223 249.89223193 19.497201515 26.271677743 34.174029499 -841.19397098 -4152.2839244 
-2164.8758156 -0.42325237701 -417.58228039 -9.2745204942 110.08678609 -18.686073123 -102.46226524 -31.087942077 285.56840776 
175.46707857 -10.765596934 425.94955723 -309.75044339 -5.940557247 -16.417563249 -8.2183534702 -4.1733517455 -13.671191454 
-12.733255787 -9.7692623956 494.90728314 1038.7515435 68.756346644 118.58844958 99.842141649 71.319903249 -0.7442509761 
237.68055261 -307.69114915 337.80460532 400.85012613 26.893213176 49.451338884 131.79778304 37.073646024 47.699273559 
32.444694511 47.431052033 49.113489148 301.58839954 759.43212302 252.50190934 152.32329264 168.47419376 317.05610081 
31.606103597 18.285520095 25.179843878 41.00829508 52.747525558 -31.965681946 31.87081406 63.142048874 -23.261461619 
-27.487045654 -53.088471611 21.279977415 31.933638146 -186.45302209 -116.95686453 -205.2239551 -266.00793235 -399.86073932 
-96.50976749 -333.51245156 -228.59213705 -102.61378492 1169.7294022 322.89560514 735.38737567 54.149352366 -45.161185317 
-49.955178861 -38.926629813 -39.870227045 -36.08749127 -41.66508867 74.062464012 50.232390006 -37.599016757 -44.307316867 
4.8212058685 157.75951154 100.42375681 107.35952158 188.48634711 256.5699275 -773.9154358 -657.7122059 1223.3211298 
431.40184009 83.138247947 111.75284859 91.817957879 63.68031813 27.976961749 48.684078678 33.355280527 -3.3997275975 
50.616254653 44.951145751 119.09061427 56.987042298 44.711630196 -31.37712611 -29.684062618 -22.674992184 -23.330267018 
-22.776669999 512.33548772 322.8149897 -43.720512328 -55.543787299 636.58419344 1805.368666 -507.78972552 -199.24547645 
-774.39103248 -537.57050245 -1289.0177654 -16.904295512 -42.007144537 -44.270535371 -82.218920797 -8.6618530618 39.227708078 
-46.305227429 2207.4948741 -50.468326105 171.19685811 175.00377861 135.67345501 -177.71909383 0.17981381616 -2.1575777909 
-26.122650122 -10.721065016 -22.861361891 8.8767992099 8.3541950783 4.8798679254 38.868132094 -3.4409934848 29.210959155 
33.239440691 -1.5354462637 15.35311333 11.760035282 -9.2638647421 -145.57320961 -46.783187907 32.29582868 3539.7817456 
251.78585852 -76.972951547 -50.291516003 320.73735847 418.98985259 354.3535869 257.12498272 10.241810444 38.629266111 
-5.1862469913 128.24960132 -300.4515114 -105.20350774 -40.509538541 347.73021473 167.32118613 105.45940847 20.306828175 
15.685464038 -18.286793635 -23.750589439 -22.911411296 -25.878365374 -31.349657772 -33.12268096 -26.410473576 62.625432892 
586.13353101 48.657797711 84.845095852 116.90776134 131.33577821 0.77840873758 1.0855901948 1218.8036005 148.32704659 
5.9820973599 15.129818485 279.75386873 -13.575945012 64.6663049 15.242216092 682.56059191 132.63233046 1.6256510159 
4.9973681975 146.22989058 42.615222115 38.549084563 -1274.1556423 35.926392721 9.8976107144 101.70503738 46.106720451 
195.31457849 2.2684809142 1.4144127965 13.326361197 9.7295127339 8.4793455042 15.426904841 8.7088367638 39.335264376 
44.372583852 -36.010490346 15.619028886 109.80131318 11.630628955 -31.889461125 -14.796464588 -19.821544335 34.0189341 
-2.1304910653 47.954113916 24.475013534 12.451455495 1.1267388423 -24.103506026 -30.576538994 -22.965791587 -27.318675666 
164.61288987 -272.70763201 28.300287977 -876.78687376 -14.798768738 -23.457732424 -11.708050097 -17.804204637 26.011837955 
24.403106924 72.122075597 -780.26373382 -528.83763338 -410.16253415 11.468701174 -582.94141143 2267.9798668 968.73429596 
1100.3303846 39.324984384 83.925326595 17.315006538 204.11601793 -3.5017484904 -5.1018257496 -27.336283011 68.625304587 
54.101066083 87.914620699 38.85539475 -37.053519995 -21.833510365 -47.552655282 47.956728735 55.148553797 169.42838385 
114.65592117 48.693317365 97.535641941 110.35330831 18.473503171 17.240714393 22.670672225 6.0820444442 22.757758554 
8.4724567407 0.72838636685 19.392796715 6.1708970369 51.206136768 100.87286056 74.840476839 97.128528484 117.54488605 
152.12218767 -296.84076857 2358.5812144 -2097.6860404 52.578170583 122.24698804 1181.0035528 149.75493345 -36.629114816 
-43.692615108 -34.03297278 821.01674992 -26.88954273 -31.086766177 23.065277537 32.415957076 26.427909542 8.2610215449 
-8.8452302011 219.72675673 34.797915013 27.761189598 4.3618353769 9.7773033768 192.15484572 464.40768611 272.88532376 
-3.7005941627 3.6867295605 434.35479966 39.454542655 19.631342443 23.738060383 60.373051703 399.4740573 6.3193245082 
-49.61061727 40.465736945 122.85301439 -7.8910293825 54.073327655 62.34275968 62.737204468 -27.854936334 -51.533105476 
-17.725213024 -29.681047495 805.68425073 138.0242692 -72.747815805 120.75538462 -237.888966 -205.63735101 -93.049115551 
56.929171057 55.28353222 -162.11568323 -517.80819609 39.161512116 138.68746896 -419.68183698 -20.035607642 6.7012826602 
8.8845243899 101.54325906 170.11562114 169.81694563 10761.458914 75.530680623 22.628346596 31.82806691 95.17776404 
-5.9127597425 -9.2479950018 1067.4074334 634.6901818 -2.2154344963 -16.637302056 -3.0900560511 154.63327544 -1.0077420326 
-9.9596898223 1212.8680041 956.01791222 57.179765421 -8.8987246565 -18.087218896 181.14598205 -521.43405331 23.3124097 
32.75601405 26.232270071 -57.731504442 -414.57135808 -142.40054911 338.88249213 165.72351032 196.80571649 2971.9639518 
7.4584687354 -9.1261344967 -68.397939615 -35.3401501 -39.459030039 -39.737637265 -39.558904031 -44.494971503 -1225.0025988 
173.30050953 919.21476429 3228.41006 -42.528652187 59.321383737 64.950028979 11.880167418 13.33301164 26.280801789 
-14.502834677 -1.4802704205 14.416470339 86.004472501 108.79924112 -43.523073392 50.872852978 -23.151727483 -24.149291215 
-34.857072289 -37.130755668 3172.1987974 30.978522295 -27.155494536 -15.561652496 -4.0455443949 0.29919421652 -10.719191188 
40.58324119 20.023708033 -17.386978925 147.5001838 57.798965353 756.41992949 0.95738431291 -1.2370385409 -449.6537684 
-122.79229148 -10.004422909 -13.74860225 -39.276335086 -1978.7886095 -1107.2531815 407.43780782 -30.001788553 -56.485008757 
-7.8520874274 -10.984588978 1151.5371471 37.980362189 -46.431547899 -111.29209068 -22.766843961 -4.8082432421 88.951269868 
186.97274869 6.1627968724 85.146901648 20.427145985 15.922081616 30.867856749 54.238106591 -52.624789047 39.359197744 
-18.631115187 230.21627581 1283.4197797 911.3899855 32.197386693 63.885858419 23.514646924 29.984832545 32.636178345 
-37.300533503 380.69141552 93.998622981 498.20327893 -49.40980514 -47.919473376 1509.1835454 -458.19873997 -67.098985941 
37.374410646 -10.756053991 353.10969508 -301.22313597 -1682.392831 417.70999281 553.0057594 31.328042593 29.547460846 
24.956297334 39.619882647 55.7825326 -38.063729857 -1011.5770954 -330.02395451 -17.18583852 -36.666738856 -14.164392169 
-915.05623403 1065.9299713 -1444.6024912 -2039.0333184 -1197.8155768 470.8871631 6.435462808 2.4791335626 11.413989196 
15.48389635 5.1124947608 39.444438189 89.275765679 24.273689701 1213.9591416 20.427508203 -7.4037154687 42.291245701 
178.70676861 42.40950369 52.226807678 203.52943155 -28.835192458 -3.1831821692 -22.974267602 -26.829696177 -38.626408826 
25.632549003 -33.909089962 0.14208703197 6.3537240538 26.31567226 -643.98793843 -239.4261438 4078.5400708 63.195840797 
-37.301334222 78.053397134 281.09994591 174.26710877 2241.0343958 857.99848502 -716.08556528 -433.47101847 3.9000396877 
-126.49661354 68.715078096 29.147756924 28.945628937 -408.09383407 -382.85795957 267.54583978 -1641.2015812 300.78786269 
-70.421144901 -19.461285472 -804.49588125 -32.59244058 -51.476097767 71.616620573 38.164060857 251.18116562 32.9220468 
25.247077389 -267.19118229 65.823201885 -19.429991921 -356.98046793 -651.67131553 827.08460631 34.615922965 244.14337177 
746.86521688 -273.51593048 -22.6074359 68.918720884 3.790067274 -3.277623634 1237.4812566 199.13091878 234.92652322 
322.46200777 19.450104861 272.23175856 819.65792874 -26.651982417 -1.1562172659 -1.4896590673 5.6305281574 -350.59328005 
-62.639764349 279.11021032 89.227763785 -689.52661413 -63.289529656 -286.53228221 -80.515558736 13.391130294 19.476753695 
16.461611166 13.438470362 -467.8664279 -596.05621904 483.08946894 -56.54651449 463.69006574 220.75884007 -44.607025032 
-37.938854911 11.491555441 18.403583387 15.884663134 5.533294665 22.065324432 28.839308903 61.54938668 3291.3309813 
3.3805824701 1367.3397697 1304.3651217 19.153468663 23.622421978 20.101706949 11.837407961 13.000666847 -14.222983356 
138.55988168 -80.629136062 -2.15026764 -5.3987017213 -174.44990707 270.18391874 -121.06093801 -216.88689847 626.07913972 
731.7146643 16.758423977 20.895675817 17.204126177 -9.2885093832 -19.78072855 -37.026189044 -565.77504315 -40.34162675 
34.564460022 62.658309566 1253.7287208 817.12031772 -166.5918427 659.61426891 -39.612912329 -273.42794374 506.5875512 
246.55165745 344.45445427 23.723834209 203.4504241 12.317234153 18.341495208 16.974329625 113.83925949 964.66704755 
558.22790911 306.83391855 -35.120232967 -14.045779482 -31.57439944 238.88385814 30.584083768 124.36763226 -197.39116886 
-118.33002065 -28.595450333 -7.9334108963 -260.08743788 -92.189980112 -132.44983626 -30.218001765 -168.09271635 503.08052107 
3244.3707887 44.090024928 405.83295516 12.406420095 133.92213856 -2.4913145547 104.76333736 87.917423771 -4.3822661208 
17.739008792 24.246486008 269.41563448 1465.0471387 -2577.4555758 1599.7116063 29.096098405 17.079325358 -699.05584535 
1416.1034218 -248.93712164 1025.6259094 4.3408769615 1222.5344659 13.770530427 0.44233262832 -8.3144948691 -5.8713304381 
-7.6919429441 -10.523028265 875.92875062 1642.3226155 22.268851618 114.26794831 -10.469096642 13.430986244 58.81201448 
-0.16909903063 1698.9535529 -3624.2342922 408.51704156 21.249794621 258.12319587 61.027906244 185.70640209 537.38663622 
26.01607128 2.9775401068 26.942913663 23.514386607 -443.56372567 955.36567119 828.05883574 923.86627079 33.033172895 
687.89316838 1877.6553045 -2026.2473794 323.54038243 -2427.2650619 -3272.4704431 -1382.1335155 1092.5761864 -821.38969435 
25.13358859 7.5500836875 22.605684662 -2546.0930256 -18.688880595 5.032642776 -3.7752681155 6.5044320485 15.014909696 
-143.98957412 24.545453681 7.3313227409 20.871607916 8.3481143971 -1182.7213882 75.688484781 2502.0794912 4.008138689 
1034.3635527 1368.5300283 2.3441869581 -109.03960106 4.3251973006 -25.054593638 -28.52690737 53.815550374 164.26829689 
40.69910857 23.151914984 82.892242131 4.9335134352 -651.29374006 -199.5041937 68.805169328 21.020322107 22.450048851 
-679.51365012 33.592798993 5.4709162592 11.625389295 2031.1694325 4.4159888861 -20.824502835 -2.3672261115 -46.050893148 
-13.812376769 26.11743369 1.725855608 -316.85865194 30.37511443 204.64507047 139.76888082 239.94588184 185.84062008 
0.28035783657 -359.26274089 -333.14268822 -136.14294619 -95.921495701 -2.9792698795 -308.67726286 -250.46923237 145.22683611 
560.11376858 78.033238221 668.5943094 -78.922044037 -193.0560678 116.70070016 -191.91746789 105.77467244 20.836270119 
-275.42834565 732.57785478 -301.68109109 90.657626317 69.768622536 -439.80426446 371.40140708 91.772557305 156.37345807 
126.25177542 -22.225302473 -188.49679473 -262.60008272 189.11902294 14.075846249 622.62851109 40.791521739 94.23995718 
-152.87753721 -851.68646844 -899.1305249 -375.40936015 5.4176209753 48.015844388 477.98742458 205.80396111 -33.076894711 
-18.459812305 183.30831788 -63.974789799 -272.26844113 -245.87083168 -107.16293637 -76.066918972 -268.81501767 229.48455689 
120.5396663 -381.06425163 -28.424011544 -156.86243289 270.11467476 -329.50306447 674.4850885 250.9636244 792.09007513 
642.67834491 -182.9057574 44.015343095 -270.16592003 -210.0491733 6.585645157 323.90206513 133.11742812 -154.47392298 
89.769728648 152.57573332 243.52284992 -52.429867394 -339.04466227 170.6318077 -347.2811404 367.27643457 609.33144939 
-938.58853197 -305.14073012 586.03725801 87.971452154 -227.83801231 -447.89829653 -128.74591546 584.13456514 17.467792738 
-48.216346993 -239.43522406 -159.63251699 177.97672501 259.88285178 465.33199525 426.18762335 -174.38360484 -14.948541476 
-89.401723018 -1.1074983323 -64.645313358 -736.24684175 798.23304302 -302.8272782 161.94816058 -71.526522641 -50.17084095 
698.83840878 -27.881142634 -374.91160551 -128.03212866 -322.31325743 263.12337543 -207.92274082 3.0275627568 -215.90462721 
168.70488909 -110.85463777 205.46829365 56.662141377 145.67399889 -58.317439822 -3.4506143956 -381.8488902 -214.25956959 
-286.17570144 -257.71769281 -94.821367726 -319.04075866 -212.47685456 -166.55491873 -129.56371788 4.3493966662 271.32639419 
188.56097588 -201.05253264 -417.0782663 -73.785981341 146.61553989 -157.15842562 -49.466011217 -148.57020115 -392.93210891 
-1285.9936864 269.44607893 -101.7012886 -293.19647738 -1395.98701 -896.99930624 -351.74842163 -595.18754403 858.79431457 
136.7312802 21.838671312 -88.16394452 143.01732319 17.195093707 -176.6076549 -465.32418412 -111.97599101 -169.73923565 
57.782740714 -14.643073177 -128.06689894 -79.340400758 -10.301769686 -481.21294264 44.399894101 175.22809224 -34.909769977 
64.123937767 264.40204906 496.13727874 442.02611087 -263.26158727 -131.67831527 72.14307025 -99.351065713 -172.89070381 
-12.466536932 -245.30577158 -92.559488904 723.79443489 298.91535298 116.65454378 -703.55751451 108.84636563 68.416069149 
424.80440225 21.085067106 375.71582193 -1444.9524596 -116.3760878 -13.018326703 -149.77671088 259.15635731 34.357646405 
51.427585734 -383.85891751 -1.6219777246 -44.602482416 -570.94226504 209.11131675 -899.8323918 115.17390057 412.25510304 
535.75496267 -74.411206842 -227.26334609 16.329129891 89.583211485 200.41587282 -363.27900711 49.438934702 -55.975660075 
148.89450474 95.986808825 -90.676364996 556.01095362 219.78341671 -928.82860424 224.78170444 275.58971809 -583.28563417 
-455.10333211 -10.931197509 20.488322802 -104.80982106 18.117516519 -554.88719727 54.566324766 -510.19562809 445.34643057 
657.51287448 -19.565177034 130.37599767 -33.50991314 -141.13227825 -1451.149768 -449.85244433 -466.44542374 -52.143976199 
-257.05593362 -333.66795755 -628.13683051 -194.83058217 447.26830263 -18.854853975 -473.43230876 -105.45783204 -400.90237174 
-1129.0689904 -514.45590167 -812.41456176 -87.396898213 26.740005464 -204.40664824 206.91133328 -217.44830943 -126.27497549 
-23.960483717 -126.51824282 29.759941659 150.62475171 28.75826103 21.764803965 170.87874549 -53.301975427 2.2307459212 
-48.331414652 -97.157647725 62.916612273 -201.45974893 -56.006117452 -161.49946098 -373.52606388 -272.51822989 59.652347685 
-102.57605984 -297.21219023 -298.98611241 -342.98808327 -217.17984326 -108.25664303 -90.221959293 -205.86559331 -254.22943309 
-169.13508543 -261.92785807 -226.81118639 -123.49612875 -61.992393966 -222.74835173 -21.254465481 67.856352091 -84.686051364 
245.46738656 -37.443581896 132.05036546 8.6531204523 -137.25701066 -91.905253973 -353.29257816 -238.28534431 -41.384175081 
-7.2816425425 -163.1440854 -255.79632925 136.59340521 -261.85990255 49.584686885 423.3817719 -527.01982066 -104.86078673 
-491.32482917 -124.58963307 -66.267236391 70.992846007 366.33767896 -539.58061167 -147.31463117 212.38387611 366.87797318 
-809.95643365 720.32412872 462.98747628 -533.88646526 128.87539414 -210.97038803 76.610857762 94.59619953 685.48254742 
15.427874755 -62.821684743 -172.25886475 72.151109126 133.96552641 -215.07675159 -182.95995504 438.29978889 206.27802601 
663.458252 -738.18020598 -14.63202659 -235.18428316 -29.298415884 -63.32432006 10.999555219 100.56818265 192.1539972 
-236.16448488 -66.931193603 -361.15518013 80.647773122 87.310456606 -180.79495605 -23.08185088 -770.16593125 -219.07825545 
-728.47106028 -739.76632555 -124.152376 -418.053273 440.69287243 -352.99330132 96.048018009 78.051694823 -148.72885792 
28.082360649 378.24208137 210.33394875 102.9664023 226.38161717 -190.80174336 -248.84030743 -139.08275864 -202.38093752 
213.64723677 -129.81239935 577.73507128 -24.837780786 17.158714541 -121.53094059 -106.83418414 62.647095855 -245.37530679 
2.2358859788 120.93097234 -67.795888269 665.86778352 557.82061865 92.801635051 61.520934607 302.67896916 107.69222115 
158.04469 -623.50883814 230.34449991 -4.3025910171 -148.12040832 -326.38033252 -231.61169663 -146.10425713 -245.98731526 
35.863719883 41.68708421 52.416825368 57.459850506 142.73519317 -47.942305045 73.634558315 -380.22066652 46.365492389 
198.77952707 20.589208804 60.852533193 104.3184755 59.578789818 -713.76166524 -1870.5585895 -1059.9250377 -16.374449217 
309.76868787 -418.86077839 -531.60104382 -2579.5370836 -1029.558606 498.09112085 893.05486019 -548.36553443 -326.59505605 
-258.35252657 29.968510653 97.497470506 -68.700525799 84.0077642 -9.1691573228 -36.445442682 -274.88523758 -4.3851252666 
439.83028651 -135.38885059 -154.977509 19.510251771 -43.48277686 315.90514501 182.10725833 239.05040051 7.0765685092 
-506.36697963 -166.54388349 77.3858949 -457.03561676 472.81157238 -252.08166351 -623.53822218 257.48228027 -34.152850345 
85.476969804 -0.70486212325 -221.12809143 55.297970126 -83.931488542 121.70833015 149.05184735 8.446223422 -28.252431483 
-46.217906386 -411.46354819 -86.698281723 -55.496247454 -65.548917849 30.698734544 105.97931897 -298.34228344 -56.860421114 
608.52491842 828.24290368 -358.53016675 -274.22110893 -509.19407856 -228.81425109 266.63249089 -318.80055341 355.14431431 
-312.73592527 -441.56768118 -74.104106192 989.09798519 689.51326628 -4.3010179058 103.04005302 237.56699184 123.27912686 
-333.83566702 -16.429188565 -85.616586415 -411.08343987 -243.85512146 711.19935381 319.92346382 1039.1701648 47.999616775 
957.41005256 181.05934039 -18.05878309 229.5952436 327.92025022 -41.083331186 -105.65652485 -276.84883698 -31.631551859 
-64.520531389 109.04945631 72.665445857 -55.090727999 -404.31794309 -246.95093696 153.399316 -101.63953387 252.00760176 
-477.10227122 -273.07341059 -632.41395747 -43.179326262 -50.356618578 -99.199492275 -132.05809255 -149.91653316 130.19071262 
215.74139985 370.56092367 31.509130767 -296.32658176 -195.16498944 -318.3520309 466.76890413 -47.247175668 457.74188546 
107.80784284 120.19383848 49.284276025 -75.358575822 77.17428521 -80.168343863 -89.33977275 -121.16410819 -234.92370246 
-51.935728491 58.502187902 -109.76603579 85.326505206 144.49003292 405.01948116 30.37497766 159.44808201 181.20519776 
411.79474285 309.82996411 294.42391806 504.66762165 638.72229059 -467.98267222 -199.32114006 -425.27181163 -868.74723485 
-342.74898354 32.813262877 -270.45968755 221.70294917 -68.716837133 -212.91900086 -213.58026149 16.831639484 -206.48471399 
-61.40844092 -35.098837241 -37.221033613 -107.88872801 -73.994914198 -169.85996261 12.021460259 127.60390621 -103.09675549 
394.65292608 267.89238772 -258.88295762 -24.894538616 -27.654821869 11.821550146 75.409983887 -6.6767228453 -113.23109426 
-85.498241618 -72.041884603 12.669334266 -40.354578329 3.9676081327 62.216180083 7.6353269092 49.100043219 81.111157921 
-243.86752415 630.69177098 442.75369959 1296.0004275 931.37196719 959.43611708 155.628128 77.728094621 -75.648262295 
-114.30827385 -107.39336136 -170.78611873 61.713636717 -54.590105866 115.92367567 329.69915842 50.893955558 -0.18826673365 
1045.0688853 206.91399273 -1002.7118339 104.36240276 651.7354439 -82.338567283 65.344891885 201.46882778 78.319534202 
46.159797659 37.270649715 520.36437722 632.64265973 -430.63631145 130.14711048 195.34774264 -501.48912206 108.7859427 
-240.34307109 28.458902452 200.74345636 93.487238843 114.90062658 -251.9116234 -380.52814391 389.38035816 -18.903584049 
203.24616554 -167.08020736 -88.11289904 -78.511187967 352.76348223 137.88674807 -480.89832981 -263.30305945 -311.69459069 
-317.24447263 521.19178967 -464.8428079 -276.5794255 69.23434617 -472.14191618 464.00145127 66.482172232 186.75558096 
-898.05406048 -371.7365325 352.67634388 -803.76920375 -203.95556901 403.4449888 -155.89918985 102.57595679 239.68179477 
-107.83751636 29.284673226 -14.632262135 -174.12125124 -235.1603399 -233.83762638 -127.33203555 667.04143184 221.35785238 
-57.830246551 -49.370910738 10.989957105 -74.935969354 23.708695541 -294.79607453 -133.62511257 -104.68805038 201.22145748 
-193.22588614 -0.17720705959 -69.466376044 -471.97351326 -1502.8006184 -722.13199936 475.13730037 -97.807939206 321.678005 
-295.92021444 -734.57940314 244.73332053 -1767.8145673 310.9259667 -125.56066966 219.4390495 -468.35335034 -580.76808534 
389.10929444 55.826907191 -1411.0515472 -195.70855736 418.11818522 69.153852713 -64.428616877 83.037083967 -190.03077877 
92.068070416 320.42893488 -229.33527668 134.97459532 -126.44812377 168.31068861 -143.54855466 -22.737585953 -226.45993423 
-358.20156243 -397.3932979 46.987575144 -252.33193586 -37.508580101 -199.87543601 69.773801129 -108.3913536 225.07132314 
119.4804696 230.7861911 119.46248858 -126.9683879 163.56427043 349.50912466 -761.52335048 -303.70528167 -128.17613791 
-469.255917 -952.84098401 232.91908368 -26.465991108 -7.5011807316 -364.26061956 225.77564598 117.08041453 -18.545644577 
15.959559519 -54.795114182 -112.36233438 670.92949496 488.37088597 589.02514126 600.17503332 1047.5421432 -36.076304419 
-203.40454869 -186.0180207 -880.26918182 -249.21333351 44.955996164 46.736877977 -173.50415733 -275.91688589 14.454598453 
-343.09545344 -268.62695429 -846.81364121 -697.79106881 -162.41790211 371.81682782 20.773257503 427.19801256 51.238270585 
-29.828868374 -59.590684439 191.61372049 115.59135717 55.305124629 -453.55426927 -259.26596852 200.89416468 697.76989104 
-471.02649637 -91.250868563 -75.335386127 -154.57889379 214.66821071 202.87102087 150.42229134 -3.2524198067 105.55481015 
134.26828936 -342.59305625 -15.05042285 -152.7132868 706.60230651 -165.85621091 -442.63918651 -424.61906663 7.5233270068 
203.4466933 99.639269035 -93.634065828 21.266357757 12.160532085 -160.0581566 -170.95477157 -174.02008589 -1271.1780856 
-1129.37823 -649.0545782 -618.98427912 341.19672234 841.90451657 147.11857018 -138.5618297 -272.3632317 130.26356845 
-12.256143898 4.510677569 154.59077609 766.49663767 377.87639742 -580.18886556 463.8839285 51.552807115 84.741772787 
56.110483314 -111.65517207 118.79132533 236.26769065 627.70557719 -22.055311035 189.68948223 717.8286663 162.04170528 
632.10889473 -19.103567286 -281.74851818 -640.44082899 -806.35452288 -532.40633067 -86.409650362 -1006.8905619 -1128.2301274 
-343.17198188 -611.7973042 -520.41137544 182.0121657 -74.728498586 115.81367562 -468.45658221 397.71291444 768.89801903 
170.24655395 81.472564373 -632.55852487 -1868.7068335 -210.13936491 -353.27824855 -299.31285643 86.365733841 -329.88936553 
105.81476125 -925.99722529 -417.52949138 -334.48396263 765.15155474 964.66630012 -2.2221046271 158.1563917 71.667122604 
332.08379272 419.38193383 957.52442943 -346.79938777 6.8681057363 -224.10019234 -149.49919733 -140.23792042 -345.1085355 
-118.62942011 -192.68626038 -787.04396608 -229.64058271 -6.6902627477 81.25934354 177.90777588 -426.71704754 373.79847301 
170.75332104 -202.8949013 315.26627383 -73.963216097 442.61898514 91.287487625 58.380036659 53.568321844 53.662039009 
558.04043251 -28.523584379 334.48778886 58.146190353 565.71007686 -1.5350444914 599.09924748 111.32241743 1126.7988345 
223.57631177 177.51952781 216.11288999 449.09968242 -86.003601067 -212.24304243 120.55369292 -89.211551081 210.87985844 
764.39149668 339.68311302 625.70219045 140.21161262 225.16698558 -31.547628445 -84.788561307 254.2996668 -45.991931276 
59.802985386 -68.788361162 -89.848373881 470.75957404 -218.70524626 515.97596929 4.8191116204 -730.90059901 67.791299839 
-150.11840797 -193.25787908 -403.34696959 338.47848121 -97.149938996 -132.6426759 -138.04064784 -193.18982211 -648.28319221 
-810.27532233 -424.66277578 -24.395486886 486.48380896 -219.54922301 -2630.5117439 -714.48933053 235.96757124 438.83414978 
-235.15952722 189.36780278 465.92484739 253.83536618 -109.93328644 -29.071036449 102.35942537 -198.79304484 347.95966342 
-29.590482014 -65.915481707 -312.88559693 12.371361207 128.85224145 -227.36043843 -124.03778825 -16.686257699 499.70777498 
484.83989103 329.08502475 167.21476721 107.86385104 150.39835852 57.968435581 -338.67521356 -204.7070315 92.483951485 
588.75148067 -216.49285597 608.51667644 -476.96957542 -464.11728342 -388.11215295 -208.64156557 -518.67875469 49.150130018 
129.30611233 -58.030747793 -3.1063324597 -72.413788651 -187.21978818 -103.46286208 -83.850475882 -275.98573273 -119.40199247 
-894.46062977 242.86036802 62.660686408 -200.7395328 596.85499707 29.90164585 -575.48738506 -120.84999761 -66.08467143 
78.019246317 63.595096504 11.176726467 443.39738182 -42.709913856 -1245.9805647 -249.1902656 161.22489665 -316.4004084 
-393.57517367 -579.67733798 370.62548099 -664.09673021 -126.73337251 -483.43293589 436.64328855 639.19505404 -197.47296521 
-551.37107179 436.67652282 155.79922942 453.82591851 196.98902086 62.484490769 388.40002801 289.07045062 51.489398875 
-148.85845656 279.79320387 -195.24621529 139.94962305 -365.0340893 473.79643601 -220.05166497 -267.54396201 -199.95556128 
84.906729217 295.47983943 -21.654561061 -50.126411455 -168.34635443 818.03151923 732.83341373 -324.37281705 -81.163990664 
-78.845472056 -134.19312465 -137.16816926 -12.78471175 -57.795633795 34.145466122 -73.52324346 -227.3124624 -253.82253133 
-63.656401637 -99.119201356 -8.559455464 -269.71008128 -112.73184316 -83.701773939 62.362288606 11.738858816 257.03641461 
297.84693755 -80.409770426 11.508386508 -147.74705942 -183.47746436 -83.760896721 240.78985361 -40.999076131 -158.53569842 
106.27978463 481.74956881 -772.68049157 -165.02722316 614.90576988 -282.14515371 -368.52504072 -440.62523148 280.5715677 
54.559957586 -272.33541882 -753.8532037 -246.52330554 -66.685492923 357.98300976 -69.137943996 26.723026984 174.36235188 
66.746556755 283.74760419 -494.73035918 -130.29096485 30.647765936 35.84090099 54.154597617 86.515729305 100.32702596 
42.080402951 34.12609509 -316.94739399 100.15483476 -57.141220461 -683.50271568 169.32058529 69.311436216 163.76868826 
1670.6110197 -214.09655152 -204.53435998 -456.16548423 -2740.6575808 -64.569010339 -673.6931687 -18.889010145 -794.39918487 
-22.123092273 44.891759487 581.90466027 -514.01774031 47.809444354 33.358457432 732.11356944 442.10573981 852.71025458 
206.56818412 921.16366431 -251.41556507 -789.15309655 -208.63360607 -186.3378606 -299.34393709 -151.98274683 -1695.2806039 
-264.29204166 -1228.9420657 25.762192419 90.733536738 16.10478015 -67.036463685 -37.696135379 115.9949313 166.25738717 
296.07824856 224.34105645 589.10752197 -153.09607156 -46.327560799 158.02080122 49.73857499 -882.70407677 -282.01240826 
-560.30372605 517.86607559 137.46276893 -296.02754335 -101.89075816 76.760176044 -15.969873206 26.414098389 -611.17347563 
-239.69800755 -217.63000097 -115.43130325 -148.11176733 -93.661745045 291.72914639 -425.18170536 -2076.2611074 222.89745768 
-977.84015531 359.4778877 348.7269001 -755.03962962 -196.05877857 -600.33389345 -42.495288147 -316.14659466 -75.470649872 
-254.13402481 124.51636167 -9.5845031207 87.005491554 356.50540501 721.11056515 144.22008716 386.70862511 -63.059034893 
-159.71345635 198.18202414 -278.44164878 -179.84790561 710.51925576 1325.7845746 965.2588457 -338.87625249 -345.30381382 
-830.75891835 -518.27614736 -461.80414448 -330.62568957 2.6942022041 -112.63534074 139.38371466 757.82918974 -114.01454032 
-26.959992846 301.48330548 195.92580779 -341.19355132 -153.00208649 32.967269354 58.592135576 899.05227561 662.40264832 
-389.87272511 -119.02659012 -679.47782471 194.44725618 147.79916492 -357.33581792 135.44990497 59.747729754 -152.07127967 
62.684103125 63.713379636 206.28124375 -274.08538966 -209.89624403 43.746097527 -344.46278541 -429.15357808 -138.11603794 
-68.860506022 16.361426658 -133.73337076 852.05130688 -31.741718262 309.69488506 433.88896257 -50.385302001 -470.77758764 
-135.99862306 -313.15440069 -370.91322253 -200.54707409 -164.35160514 208.64495371 23.944492527 772.56244511 212.72480812 
-344.36051479 61.287086418 -280.16344303 202.39055584 -25.44118871 -311.76454825 -794.91414186 -193.34758533 20.767986013 
33.82931097 25.647455136 -393.56721066 61.678219467 24.923403901 211.40917178 387.71417525 -111.26986536 226.20247996 
464.98311054 1114.504188 -177.93471111 -372.9510178 7.5469698564 -242.77028978 -449.39999095 -253.32131783 -487.89109273 
-427.7536799 207.87730533 -145.56275737 389.24468904 445.11766749 1547.6695476 54.07571789 -39.59100159 -0.75139390365 
101.53268281 11.535493649 292.70398761 205.38486766 -335.40857686 88.024995051 -192.95271481 -161.02600464 -105.35921757 
-36.850579037 -87.375974684 -29.592007361 -203.3416526 -80.80057034 493.19333239 -155.04815233 772.62302159 -432.69357518 
166.6355535 -496.60853364 17.661865219 -148.25935316 355.24545352 -779.14660458 -175.46589834 170.7384805 224.82643022 
504.85225101 -172.76424868 -104.17519626 -224.94378407 734.31786958 409.08067495 -409.10106072 -160.00584742 953.84585163 
-154.67448285 -260.1896303 -563.20587306 -386.01779584 -250.05740231 -409.40856426 -454.63624217 -285.65137787 -277.82457008 
36.118026936 -547.37758295 -191.4083379 -1354.4326677 -201.37000808 -76.435590473 -2.1745232147 45.583680034 -46.766735645 
-133.29277974 341.13352311 -97.925834594 54.075802823 147.73064081 -1.9077615021 90.896629381 132.17823466 6.7043496142 
-26.424746305 0.53634850555 46.620850979 17.734366815 48.027640438 117.30388772 -244.44907273 92.072291195 81.701823609 
201.47515443 -11.732289865 -65.848043502 136.92534098 -34.958342551 85.054344701 -554.04833155 -1526.4750241 285.71813263 
149.05230857 -3.4316302856 -287.13459552 -152.79312114 -310.6989618 -100.88689879 -408.86854032 158.49700952 -395.67139178 
-77.575646476 -206.49803405 169.60187264 1367.535607 456.25068991 675.87338984 -716.00400174 18.462841971 -281.56622686 
-140.04485975 254.81199706 -374.61229801 -260.43286624 -627.44516322 -492.25693839 -311.54964051 112.57920738 -1422.9130858 
-206.24815745 -46.520475708 -266.73905794 -295.71905708 -266.21209033 -157.49317247 120.33960916 -21.615642627 -52.639449625 
42.428585365 -15.281203783 -83.373410983 168.07920697 85.758712283 279.20575658 343.61764709 109.29485997 -10.181669186 
101.18758741 255.33156342 -379.99462953 -212.82200479 -682.24240585 568.11626889 -2068.2312446 -1843.543875 539.37876749 
-1002.9447013 129.915939 22.590663202 159.8995372 97.5321027 -126.87170902 -206.87186457 -653.06178459 -109.99219592 
-879.96311986 -164.8625806 -632.57932983 255.81986684 588.48498842 -107.76204183 -891.55372759 -222.3206276 -150.28625525 
-93.970646355 -309.11157858 -112.33096665 -104.54972333 436.13040956 -189.06659202 -132.35765578 84.292703066 92.658064207 
160.25648354 -423.21995314 56.840632813 262.21716791 161.13225631 28.365536496 1014.8883516 -93.788192524 170.15217859 
-163.69197985 408.13449979 1022.5221722 -744.16480301 398.39298353 561.51341149 -368.456176 1.3682002012 -126.72421415 
-496.97877581 35.82379494 -86.12918942 27.20623307 -43.1829252 775.4237667 21.854266037 -57.062598041 110.1022406 
72.148680247 10.055251485 347.62146816 -38.019092092 -116.54451994 225.39023432 -58.423828126 162.76084248 152.26466254 
94.762995089 -281.43589625 -225.36293432 2007.7675473 202.98375872 331.32030045 112.64266616 235.5412381 20.701092373 
556.26932448 -8.1896902779 -2.8852606413 779.80174028 -261.97259569 -65.582795117 -172.14056939 45.548118678 -314.80018959 
-544.06189299 280.55661667 518.10246238 -456.38450995 -1046.1447255 -1569.7032363 -290.12302451 103.85831281 -2666.8091583 
-1873.1958709 -204.06214754 -223.29983313 812.34891559 31.688642263 -873.07710477 789.71343028 314.39876945 -114.51157694 
1465.8471892 -546.26387497 47.557838787 -217.05661869 -63.811474219 -323.61997363 125.08972667 -501.81104636 -121.82488805 
-428.37723723 858.37006141 879.36571175 1138.0355909 -146.35621664 -52.02758895 -118.55881963 -255.51238992 -380.08743444 
-510.43970372 -72.21815954 291.73975545 832.83420272 168.17298531 -370.36366657 -449.05848237 195.36807284 -105.3546126 
-53.974600395 -177.13997959 -114.4383942 -208.66580002 -24.317027954 -357.29001162 -714.46643534 -252.02076021 70.037311706 
160.48266262 -251.95766316 -157.52095284 272.25352789 606.85877547 578.10904931 927.63312062 528.65090254 184.17483283 
-52.001711378 -257.47114912 78.347658101 215.39451707 103.45712045 547.65873303 197.74048521 119.54016045 201.78233222 
137.12540452 99.869359473 -73.061907958 -8.4426458676 146.16645515 -442.77259692 -322.3621489 -81.141730484 -68.345111307 
-47.567908192 411.00397497 -742.14080378 -350.78588121 -986.2963114 -1734.3731195 1630.4861688 96.356079232 142.04511056 
348.44014222 102.71995683 161.64701379 -59.925579494 -137.01056067 -328.27437927 675.25066416 -1734.2749478 -238.25483291 
-265.02812455 -317.45583957 -30.669502251 -149.89823648 -863.98379507 186.70590911 -570.82134381 -15.361472384 -328.16650246 
-683.25860824 -37.04602686 -84.427568057 -91.018882898 -183.70134416 8.8906665369 -24.161609393 -278.9869742 167.84656792 
-270.57078249 420.38697293 211.50500196 -205.66521831 -318.6371785 -178.67490694 122.61369915 0.15979630796 741.12187518 
89.844241359 133.68651268 -196.30122614 -118.99184585 -259.82802919 -417.00136957 89.517818732 -214.60682112 -191.09109886 
-255.01927886 -197.59225013 594.38611335 288.33635654 -124.7572973 -1116.3442542 97.404693248 846.77355698 385.07988107 
459.52370982 1134.6339648 629.30093835 548.96071655 1905.4389185 26.480816048 19.718298794 -54.482052848 435.83469399 
209.46472424 290.82669217 56.837616184 296.02280374 130.62701654 -140.70997873 -165.30954332 -29.707611817 -93.335019379 
2.6922660773 -61.781325022 -212.61913798 142.35454949 85.963013233 438.65120024 -1611.7834462 -324.2949621 393.74898071 
90.037563688 -35.068910145 157.59606905 -77.694376471 -309.41840235 194.07097838 160.20352292 -8.944653973 -14.914186787 
116.19267306 -108.03505645 -126.80486114 388.40679925 -258.06722482 35.309724177 -239.84309882 -59.402300758 -69.478292992 
210.51763136 -116.02199536 -293.53879879 -184.9234223 521.71108742 77.511139112 -94.236965098 -381.75480022 -628.95155748 
-179.65734517 -449.87594255 -107.60542558 -111.87843721 -9.8688437344 203.78843783 181.25590783 258.42841285 1140.4784488 
-213.54568938 -756.02420688 -439.60043292 -292.23223928 105.36076216 -119.02471383 406.58429339 -177.73538067 -24.047740672 
-220.65632243 346.21838295 -96.785772232 -687.78031511 768.55573192 690.48402276 -132.56571399 -300.94877221 26.902402644 
-315.34970306 -149.97440936 -275.34002399 300.38533524 481.87460437 -399.48336459 -332.32777196 177.92232283 172.32281851 
291.35892844 -744.19690794 -211.78332297 99.350803728 116.59560752 346.26058269 -245.32354278 -201.21811937 -167.33800489 
83.313381727 -69.022565787 -338.67504042 -136.77628128 -213.85992995 -526.07336512 163.01817942 -550.1767262 -349.22148339 
-1168.9420931 -201.34780359 786.58120988 617.88764488 216.97623726 546.51889309 298.00336145 -118.5348499 -160.67750968 
-52.384410227 63.903623313 329.30411726 690.04156024 370.36297994 -233.75141537 -47.441140242 -315.5551667 496.93117634 
115.7869473 211.8996752 -4.9236400999 90.522246269 -71.842334758 -122.55224728 -215.54320895 -132.74425142 -516.97010599 
-463.58369145 -511.89461311 -111.32128383 119.87120639 171.99399934 680.94801543 1236.5053354 927.69807905 263.45650976 
313.05539583 -154.57262778 995.15975275 192.51514811 333.76423302 -1604.0504561 129.70846172 -93.080818464 -54.150161411 
-95.473171823 -58.76080206 73.31375501 46.350659297 110.45653709 46.367292396 -128.87399556 -33.47152726 -256.69375818 
171.00020764 682.09109295 -749.18410541 100.66303728 -80.878282386 -475.30075894 324.14690671 -203.03896229 -11.687650586 
83.484088005 517.38339964 412.8118325 -65.402318889 -122.82761323 15.525328576 798.64293666 938.01884255 141.74966463 
-494.00064691 76.281743395 -171.35371162 -211.13696948 132.87959531 401.35629916 -610.97954889 -119.76026216 79.781314421 
93.861731471 -251.62615921 791.95395947 169.66692714 76.372145645 -19.512385434 257.23611856 163.38423906 -82.171120072 
322.54237359 85.934441594 1117.0686366 -1045.8728208 -678.72177092 -388.46193834 -576.90189776 -131.51639462 -113.48364583 
52.78231192 36.311420045 -430.30453553 -361.34298055 -503.85710362 -477.50893912 32.687121012 -465.17008969 -266.31467731 
-246.86233004 -150.23196054 -89.946121844 543.28542733 552.21509049 -228.56957677 -17.560534008 -43.591279062 533.33190614 
199.67606126 33.575270533 6.1371151085 13.354188344 -32.127648424 7.9882252188 263.79973835 -2521.0044734 343.26682094 
309.42958015 631.11390453 202.8437749 766.69398392 -203.2648842 -24.10746604 9.0535722575 -872.58891054 -264.89896537 
-498.39219324 -552.23127583 -744.60972311 -1217.7463282 725.44971988 43.55607831 -16.253445382 -104.82142157 -160.40931405 
-166.19187552 346.5695251 442.10621683 -16.205754008 43.505785256 -66.554860234 1279.9634764 -344.28757561 -552.89853697 
-177.83503189 -147.62617703 302.27309144 559.56138203 447.91780369 -54.647195652 206.7424543 -579.63085656 -761.48858479 
-721.43622787 -278.57035773 -207.82883882 -317.064048 -166.09197461 -121.65051473 -286.78019088 -121.90065482 -177.86767076 
-216.02842743 -130.37584412 -93.737672367 -129.24910405 -38.759712149 -310.72546127 -268.22187359 -270.33216593 -301.3299589 
-540.55389434 -134.17888153 -119.65356399 -728.60941637 -749.00740241 720.88069432 160.14936313 -60.430113552 -51.687214334 
-587.63050467 -307.23607139 -208.84365132 53.364634842 67.697115526 -331.36220771 47.809729863 17.772217664 -158.97322769 
472.16864248 -1.0221634292 58.846559403 37.50481071 -46.41529852 -259.27392254 -71.300717151 -243.15516739 132.5580914 
132.44557937 500.61587758 896.19608594 467.01310215 196.68197469 61.705669158 -53.160864824 475.89276547 -752.14468009 
-60.61346326 -41.055006203 -427.96624751 -385.77856692 84.067978049 -8.1079773924 -547.67353479 -517.12378539 -338.00264213 
-308.01395226 -313.92243312 -178.49280669 -172.75204759 -328.01860717 260.68079478 -84.493212355 -190.48743964 116.63797712 
-422.82006818 431.35449688 1188.4589373 -576.27448554 975.41792136 622.93072474 -57.904779763 -1132.4011084 45.306122033 
-19.041426297 44.883744628 70.791195322 533.00588849 620.95128216 -32.311447232 -142.7412969 -293.5322001 32.92389841 
-100.25018891 85.379557181 -408.93219851 -150.54754855 234.63277699 -240.58592451 -8.187938364 687.76346636 5.2116884512 
290.28202822 78.850517492 -182.86052397 -450.12178529 463.51801696 83.515322179 -244.71764066 362.56696643 -15.948531493 
-553.49983974 -332.42301837 -387.7309214 -0.78976809913 -127.11431349 -73.538645354 -228.0759172 -39.563468937 249.17459722 
122.61781889 -429.63040668 388.92993201 186.38913999 -122.76446326 250.23937904 -32.899842982 -859.66027235 -218.94916601 
-128.22567363 -34.089179218 29.482760136 251.64129931 167.64470691 -6.6871361761 220.07024688 961.22687769 447.98976101 
317.64880428 176.64064031 920.54923906 637.19140515 -699.44971796 -452.1406457 97.754439671 -102.34810795 -128.28917336 
63.264871149 -617.28958214 -497.38088476 210.58656196 -350.72506227 -102.25253059 -174.09821596 -93.036573739 770.88671136 
462.80113846 -100.1141215 -4.0969319168 167.83979425 -390.77120557 505.97089517 1592.857363 -3.2304516054 607.81125934 
-67.010593258 905.32940678 388.41077091 -395.48392716 -407.1641646 -422.5707328 271.21231458 -221.09221511 664.37321625 
185.67382947 457.39870299 -168.43586697 -643.90770272 -331.68932567 -50.926816776 186.81336533 -34.39309119 96.711634077 
40.325350686 -43.570681076 -100.82783679 -300.14461675 -341.8418572 737.54386176 -30.594109501 -210.72692539 -98.017011119 
-65.4759631 -230.0642725 13.581048645 269.91412795 -184.52280925 -13.195830135 167.18247272 -186.47700234 -273.2230205 
-105.38093962 -861.12019684 -349.47711539 -1641.3257511 -168.00940127 -208.23609404 -57.398998348 -228.29578792 -124.35856331 
-139.02059637 -96.373485466 296.06768716 -183.22294244 -469.16906272 381.30518691 -628.01762043 66.394739708 -190.18792355 
-207.39434045 -122.25126516 -194.3149124 236.46736964 468.98033544 212.83397015 -162.25385639 -291.34886638 -879.80017888 
1032.7808713 595.68338986 744.99902872 -600.68900244 -718.04663512 -71.477589324 195.32569685 -207.06962767 611.85704522 
-161.19406063 222.08125858 -155.37092782 18.265749222 42.587866014 98.97159486 56.654901151 -734.44963587 -282.56799119 
42.150189293 -670.85148368 -263.59536228 471.45247921 -12.528824395 427.57022233 -14.187935805 467.77333021 14.495471653 
651.44661031 180.45901766 204.57406157 -398.70375074 60.296802074 -96.209448845 -588.37059436 -364.02464687 217.8737531 
36.573916862 -713.90034288 273.30853212 390.03578421 111.14880178 -1331.6558652 -488.96076854 -1619.3925135 -315.5492971 
-329.36457745 694.09340527 -274.37172703 24.08596787 60.454291969 -253.55653384 -478.8700113 4.0342510943 23.214153139 
20.602398997 359.63174117 365.0523957 -130.26757775 -221.87387302 -293.96395652 25.868116423 -456.04566399 -114.5218527 
197.95842648 43.200865678 -143.32455512 150.09764533 -481.7046638 114.2908982 -169.79589417 24.928415942 -279.64042503 
-263.11919548 3.3405156115 -2496.7388965 -1073.0729053 -218.15890679 -388.4922507 -245.94258145 -99.495232754 127.86088912 
-566.4885765 238.63493363 -124.19058176 212.61228813 -809.63005961 -117.82214089 -0.27229924544 -172.23412589 -236.34806431 
79.611924216 91.487546402 -104.26276197 -78.865044115 -38.695619185 -179.62870519 -19.61756996 -106.67702328 -129.17212432 
-66.831699144 -125.57739434 -67.33588132 44.800893194 137.01252436 -767.80942556 95.369692511 121.70039211 9.4259293104 
260.10235619 165.26961294 411.53958939 -448.60748027 -112.6400347 -143.42269482 -237.35061164 -51.456831972 13.571640588 
-89.057007534 -608.93214101 -403.82148241 26.927776345 -103.32086875 17.008047014 60.110786781 276.7507346 -218.1768348 
527.6528609 -965.27318836 -581.19744944 -648.84077988 -813.25719367 303.31280978 -131.31996043 87.73142687 -32.429252174 
74.442676684 393.28372584 -302.64495872 -49.682342074 -272.21931687 -28.924917383 66.423461096 -9.9863879184 1682.5067346 
-189.98039078 -109.94873805 -41.182663434 -44.639314562 365.3515476 -48.09416417 -170.09395118 -1.7777577074 133.85032035 
175.87260558 112.76882332 -49.433602269 -431.37147261 356.2748983 -233.22172979 -226.86775473 -163.07792614 234.21805766 
107.05344006 41.690336508 -41.431585459 -39.127185044 910.63491595 -61.363137448 100.24597728 4.3101630911 -62.674611745 
-29.847725785 773.84227393 -141.25957245 14.63082438 193.80319833 -665.51167667 171.59181014 69.77628023 -76.4896071 
251.2518512 1663.2963174 -230.22827892 2125.3867698 2222.2400941 334.60084899 246.60197583 -194.26461489 -66.701761458 
-743.92185525 -346.29376078 -479.24543303 -151.56995744 -621.25175692 16.072685908 1448.3212502 153.58654513 997.82904115 
-47.632472624 -793.11825628 -668.6088873 45.077218725 -3.2838087756 -135.40463928 -353.95160087 -36.841262461 210.70626299 
468.79009497 333.89661948 -31.972993056 -60.760001447 -112.02763694 -235.54192262 -508.20561136 103.89968155 765.48349486 
852.35458071 -121.77645054 -22.471753855 -83.43663605 65.013156563 420.1186865 42.018236648 56.811912841 2145.5854809 
63.232916194 -748.93810135 -332.70368682 -1130.0695363 185.40202101 164.17121997 -173.13911435 -164.52432389 138.69489209 
541.50159099 -25.999688 2.3441711878 -140.84302542 142.74906489 41.351363636 196.66004655 -1485.6686879 458.27738311 
15.540619638 -0.69597384187 -30.824848876 -181.18823495 -73.197893522 -102.58142901 -19.960018609 -49.583094019 -60.995279969 
23.717307818 -209.5269533 430.74950783 -286.50173732 142.68641275 -165.94209877 332.924441 27.587121847 -86.009013172 
-59.557584822 265.30864221 -37.962669951 -522.24165605 -228.68594713 -165.48838457 -180.07050998 -144.49617962 251.53939715 
-131.99342839 7.343319567 -209.55845378 -71.491069382 223.08190071 1266.9561265 334.11157844 105.91380983 654.9144092 
773.22990148 335.68603615 898.46624229 389.75505214 238.77601011 -14.299117992 -156.61125413 -184.0176299 65.504604993 
257.76960701 35.413735204 130.70071736 1186.799234 1293.1849306 -176.68398879 140.80390618 22.967832388 38.389552856 
801.81330481 -388.33058648 -899.0131431 379.33558832 53.852355296 10.279010988 -12.211568357 -38.357005245 -53.970923156 
-155.47109743 -344.69982894 -196.13013531 833.9372845 378.66652111 -1157.4524791 32.118237753 -0.14796921386 77.786505123 
337.21552775 -1130.9529714 -233.60392433 -163.21813191 -72.132507171 -117.24787442 -77.987195654 -213.89790606 143.04337484 
89.653130015 -353.40372937 817.418344 -302.97477475 166.75971461 354.92105845 33.44697236 341.77286091 265.10102484 
-192.63995946 1245.6632602 574.61286755 33.401198175 142.92727177 -236.8270519 512.40560717 9.5743200196 65.9217216 
-322.97601314 19.07527738 98.589356865 58.321066998 344.1507818 -358.63257824 349.79792033 -211.00354779 -46.898320561 
-456.7084868 -352.79540255 -457.17387789 -219.91603491 -126.76338615 168.6136383 -90.363849974 59.209919843 -184.4255805 
102.50101937 274.18241629 -701.65065046 -161.64843725 6.0118076117 52.931614338 -285.05450756 55.939766416 2.108197802 
-87.937096397 45.81857245 38.282573965 -85.862876071 10.140675653 -173.23337363 -805.60721001 -49.692293746 -31.702123497 
127.82017082 -316.93567433 6.1257705965 96.803017011 304.70442667 -184.23942411 211.30301432 424.40920017 -19.484469071 
-113.19335195 20.29775327 -7.165512843 -179.18428487 -28.37153386 -138.38957867 -32.609120076 167.53064306 -304.35622179 
-443.4117861 -308.5646467 446.13465808 -693.81272308 238.73856428 -403.77228062 -471.09723154 -257.49335695 -195.88396758 
-336.61647265 -132.6366929 387.63899433 589.04007235 325.13278321 966.94888889 -122.01269755 -309.79495253 111.10559459 
573.81265385 879.83545347 -169.1611131 -247.07892399 -1379.3545983 294.16641134 907.78029061 618.66633856 -678.14302898 
206.64246459 987.97779429 -52.553684894 -55.236777759 -500.54929571 -358.08514574 -520.38178702 -352.20656276 359.78371737 
107.34513719 -1097.1545471 61.275243454 345.53212494 68.638950658 -47.896360133 38.628924223 -32.117552838 33.41648258 
58.648059601 -275.00869411 -210.52277727 -313.60235109 -293.62360178 680.82043035 -174.19897203 554.46718564 -41.550920948 
-31.388550027 -68.930635368 -327.16238493 95.711054103 -167.93172002 53.512073896 17.100462269 -263.8352168 -907.67582026 
-1511.7953762 257.26870178 -122.0826908 -228.7160497 -727.37948163 -161.51444491 -127.44441764 -189.32746944 -91.364017995 
370.15135086 -426.80857113 -254.20158582 -659.67201462 255.39922886 93.103846772 -870.45846588 -723.76919937 620.4044933 
-1270.7394008 1094.3657367 -614.53727526 418.69441813 347.27599254 -17.312668188 135.9709221 -160.54963566 -69.495107411 
87.225465366 -57.640494497 -922.44665667 -241.27975953 -187.33941971 -435.20105254 -189.28872632 182.43595336 4.135807866 
-113.94094972 -45.129974077 60.41630762 29.688146083 -278.43181953 36.119923612 -330.80787479 -49.445816443 -465.15722874 
121.27434488 53.535913876 266.94734351 321.3335674 -745.66104867 -90.687822151 63.964442185 489.19499027 529.52189529 
-894.87093173 -1179.2463073 -137.71233593 -213.62342185 -220.50662264 358.23847486 237.01711393 86.066006036 21.4529349 
-1091.9901979 -467.33211204 -112.75482889 -221.9872296 31.214592191 1839.5348572 -103.79650607 28.562469531 102.44250411 
-183.68774793 -354.97184942 494.55790854 -246.27832965 -16.710984224 -6.7121113543 -92.336625112 -201.87646983 -103.08017228 
634.40715983 -180.32134166 -104.90960124 429.29644435 1406.6094402 880.07572428 -138.36714304 352.72725444 -102.19370141 
478.42664021 -737.56678893 -704.90260585 -856.96031077 4.8931012636 -286.00887593 243.29971323 238.18335285 -802.97926116 
-172.39095096 54.609574924 97.500562544 1017.869045 766.40126623 49.241376306 364.23464096 767.8123584 -5.0152672024 
944.64453244 -295.12796132 7.8140106129 -89.390711026 -12.313066504 -27.239995649 248.61629048 150.29009311 39.180078173 
-197.82139221 -47.49502041 238.31854378 -150.49869482 -324.39966586 266.41419469 793.42380352 -77.274751624 -1633.516959 
-762.81575501 -680.41662907 85.779764832 -561.81227293 -1843.2647361 38.582441773 17.646499076 133.29405263 -242.26359955 
-511.72546063 -91.205822241 1124.539587 700.54565248 152.42718764 -118.67106468 -24.859238115 -155.60605408 57.839897967 
-614.53644633 -449.1278349 -84.139707313 -56.789629469 -48.57848818 40.377415788 -293.13991602 105.8348761 158.31175519 
-249.03762789 -88.681515595 310.83078906 -24.167343411 -27.804422692 -11.971543727 -3712.2510609 -1045.8763963 579.88370903 
123.56466807 232.89712213 167.57953069 403.93390425 57.570707871 -121.25748901 315.06630218 252.24151437 520.79949679 
-5.6231968899 347.17441653 -36.417298102 696.19083736 332.3479409 -62.966591532 -120.39693097 509.40264171 343.11940321 
-81.046401082 -93.552205456 -726.45207426 -861.74870931 35.953327977 157.58918792 820.28259367 1371.4984919 -327.63421091 
248.7468756 -13.147366892 197.25971443 552.33676977 -207.53633193 -61.568938404 91.27172899 663.70684309 -572.99307126 
35.816085961 -338.60232515 -417.12223044 -87.88636815 1542.4696378 -31.266658855 -274.90052531 -31.183767398 -24.462356407 
73.191681289 -19.166703638 -129.35690832 -109.17851898 -92.453192931 -72.782513446 -39.222625415 34.075849336 108.85736655 
-32.578327509 624.52897221 459.85652568 -586.98486625 26.978245651 -71.674030104 1735.5844904 133.83498479 -1560.3427838 
-470.14318104 -764.4087664 -333.28985536 -128.23871051 -19.908608619 426.77509231 37.517396051 -274.44566783 -12.631396097 
-57.362850521 -3.9813388857 -106.15202351 -589.69609218 144.7170961 -80.359437475 409.94691176 -529.01410111 -2.0469493056 
-76.968065248 -38.457570592 -90.12591283 -198.45201931 -151.29937948 484.2035141 619.67231113 420.51566596 162.26941556 
839.03737922 -542.41416458 -248.24613349 -381.04816939 5.3336812665 5.2127796808 -230.28316249 172.85621862 -773.21898707 
-149.51818951 51.332647069 -793.85696828 -44.55247457 -161.70907161 230.38166421 419.88087922 -291.82105416 -174.17232228 
1840.0310006 106.19923468 -961.63218027 12.894593078 -116.42794987 -186.12941044 12.088491262 143.74996472 -551.84252037 
-76.336292568 -16.957458229 -726.54342892 93.391044362 -92.369420348 191.5993052 -298.59004271 -147.04282454 -77.075775781 
114.65126428 -266.44915329 -540.02912577 37.896182327 47.420075745 -78.396325072 6.9144034777 -200.62724027 -113.65924579 
-1198.2174219 -867.68200783 325.79045534 9.1401734552 -92.76030256 -3.8329196613 828.11928757 484.53365309 258.53841445 
-341.52604458 235.55178193 22.004254397 121.56088602 177.64213386 569.55954285 -1310.997671 -61.478355006 212.95782426 
-281.35717979 795.58052082 229.757235 -143.11010691 -232.13009405 20.769802028 -169.67540891 647.24254439 343.39333839 
427.2065021 75.638351205 88.07970724 279.91299379 195.61666778 73.022102235 81.608918188 -94.92949463 -43.196126494 
123.97522273 59.102627231 112.97603664 1326.7086399 -56.287330288 -48.352124784 -1200.4190546 410.61660274 -248.79324645 
-5.5109546857 20.307279031 125.12260337 -92.399857727 70.023215506 -15.88955957 201.790063 -300.3760669 -850.23897305 
-1138.3190707 -89.551821984 -600.41837466 -741.59912853 -399.47078675 83.00892113 121.5565606 -1798.7559694 188.39187717 
197.17896717 -53.055719598 -223.97906419 -24.290475431 484.32376349 -261.28726136 121.15870121 -78.815234729 -322.90689817 
-281.75198001 -1135.0813543 11.303894243 199.52510537 -17.809359715 79.314315101 76.650953453 -38.758098252 -109.43523867 
298.47800298 -468.63613664 -1395.5541697 173.7224478 56.116476561 136.42410686 -29.199423158 -75.786895137 293.4099232 
88.325486937 95.507872558 233.59837067 -392.2002686 183.50362908 -49.980520275 78.953180414 14.524308393 -55.636970195 
290.49245293 31.476502506 13.439709961 -1.3735911547 45.688218488 -16.508019389 -30.933678726 -174.82388958 694.48172417 
-201.16506484 93.630981893 50.157480063 1321.0437029 -207.30055499 54.074743453 1.3846629765 10.468853447 -73.567759074 
-513.88249582 -120.34405473 135.37444807 -71.297753577 9.1621140526 -500.67068482 281.66647246 175.06189258 -101.89382255 
-641.09720575 -442.30085454 343.12530516 497.19904983 481.04903591 402.79797708 227.31550083 41.676479518 435.52297471 
81.647844248 71.437622566 44.166437777 37.396188078 149.1705437 540.51920355 -141.81508878 342.83032551 39.969029825 
20.553124411 -33.014717284 -203.39845352 -1307.9389787 1286.0254119 230.3938214 -59.587797552 738.01488115 1267.3574024 
931.65122416 786.33922522 100.68206858 42.854019233 533.80940917 -2209.8047885 -317.51450422 146.92423243 46.31407444 
-32.323402064 -84.194614884 2.473836558 -1730.1193222 -504.06734775 -80.725139819 67.139036513 -2496.1824313 -930.0660803 
-11.1868228 -528.60201487 -2.3785836286 -49.415838677 -26.911655288 -48.44808229 -95.600134673 -56.738378816 -100.85483597 
-34.514129179 -7.3410188961 -31.540287419 -34.965407542 249.51582461 102.4493843 38.988292064 -7.8981778545 81.288539468 
-202.48268052 -28.567080256 361.34343126 -815.10352801 72.016942774 -313.20048597 10.189883039 1421.7072161 -3.3344673585 
7.7681176991 -126.6984573 169.24018443 -1798.8993647 -18.311452743 81.395679972 38.767560382 -371.25335202 -75.352149384 
-85.127814438 -95.282984273 -2.2536580052 -173.0355461 2482.7118756 -92.34653456 18.009493112 -11.101700576 -80.083902012 
-36.079243985 -136.40941413 16.080781483 -226.92268426 45.113983172 109.98961091 56.311661319 -54.39300365 -2113.7365728 
203.40468643 -86.902185873 -482.72654297 43.131759982 -102.79806268 -413.95997648 -6.8076968609 42.464200008 -990.54918638 
-306.45260835 54.599153206 -81.956298989 -1359.8347863 -216.46432915 80.412011001 431.10251948 89.106987107 -374.50140559 
32.824517022 -1160.3530481 -714.80423183 108.40531942 135.46252327 -67.674991933 150.88435677 486.99184031 375.9673973 
-273.3306556 -64.874219495 77.012173941 -16.345653395 96.158636188 -182.41348769 -479.11381627 158.02852604 
Stress%20zz%20component 1 13895 double
6786.1085549 1316.2839975 6354.2814266 1298.0629058 1734.5468348 2224.4634662 -7170.58842 2258.5398068 -9362.6009453 
-1522.4790164 -13308.982276 -1472.4742596 30.164571568 -11.471098162 -28414.12796 -28554.213923 2306.5833994 2739.7227223 
3218.8357415 3645.5268743 4157.5753538 4452.9416719 1940.1666427 2502.7012901 3010.8607754 3416.3396009 4001.2487279 
4507.7782094 5716.7681823 10189.875229 9808.863538 10175.515535 9695.286565 9533.9411781 9450.9796329 13090.153901 
10868.473824 10387.99221 11296.788836 9781.9555914 11527.566666 11782.655165 2250.3699857 2669.6281924 3046.0289745 
3460.8648341 3777.9673154 3975.635307 1923.0436109 2443.0408963 2847.5308816 3229.2451713 3801.8227593 4207.9039781 
5250.1127474 1.6263032587e-13 6.5052130349e-13 -3.2526065175e-13 -6.2341624918e-13 -2.4394548881e-13 -2.9815559743e-13 -2.168404345e-13 8.1315162936e-13 
-1.6263032587e-13 -5.9631119487e-13 -5.4210108624e-13 2.168404345e-13 -3.7947076037e-13 2261.6929798 2161.6888344 1932.0962591 1231.2084911 
-4739.749302 -6163.2029848 2249.5916401 2246.9519141 2084.733374 1998.2795757 1844.0998 41933.023482 129217.50388 
-8300.6253238 -8577.7892285 -5130.2784255 -8221.9405344 3429.085276 3026.5689987 70895.138056 85733.572891 14134.170145 
-36775.494429 -393.59773416 -9182.7891244 -13880.60786 2319.9243162 2321.6460275 2255.5896476 1646.8665022 -1962.9609782 
-5015.4707575 2284.2257794 2326.9357933 2275.287681 2219.0175772 1372.5874262 15891.582793 92328.137465 2211.5626571 
2208.4521739 2186.7183506 2195.6041439 2210.8246826 2212.8930357 2231.0489252 2213.2769612 2194.0055252 2190.3464628 
2206.7802778 2213.0988392 2243.3706628 2834.1294682 2962.2821084 2942.3192265 2851.8703892 2701.2750528 2510.1600443 
2436.9062878 2893.993865 3005.7807408 2911.4360752 2801.3798373 2629.0619197 2409.2905186 -325.35155029 24.244690777 
146.71192147 1162.6406556 -9396.5167372 -2340.7698132 81.142715093 -252.21862712 -168.14272281 -122.01988367 -4398.5037138 
-4872.5562628 -38181.475808 2750.6722487 2906.7983647 2939.045201 2871.7927665 2754.1284919 2564.513795 2387.863169 
2843.5320774 2969.2020108 2930.5868976 2841.0162106 2674.8837049 2449.3878125 -243.55962645 37.360644292 91.245928655 
-398.7583037 6482.5956369 -1580.958518 -98.957907699 52.364056071 -160.20038776 -664.03487633 -136.13299594 -6442.4849787 
-36745.384879 -2623.899471 -2953.0833971 -3345.864795 -3968.711792 -4813.2750498 -6215.7931204 -2278.8303166 -2776.9699725 
-3068.4303295 -3532.3875809 -4091.5001964 -5254.5649143 -8576.9413016 -10263.781767 -10473.914822 -9448.5534539 -11423.944447 
-7942.8960702 -12583.029439 -10030.197818 -10232.673056 -10721.502722 -13073.825015 -14682.949933 -14709.424012 -16796.916401 
-2555.0984461 -2874.0363837 -3249.3433897 -3771.8184753 -4474.971854 -5177.8059947 -2235.6762962 -2700.8122963 -3020.3458172 
-3468.9590169 -4116.1759942 -4832.0149785 -9298.6780125 9.6493993351e-12 1.8309464188e-11 6.1528473289e-12 -1294.494369 1.1926223897e-11 
8.5380921083e-12 8.3483567281e-12 2.3337451763e-11 1.2251484549e-11 1.2468324984e-12 7.9688859678e-12 1.8323016715e-11 2.7105054312e-12 1868.4554766 
1422.8910194 816.85568031 81.385772643 -751.48778811 -1558.6559113 -2310.2921108 -2883.5452266 -3350.1298169 -3680.0302779 
-3786.8115522 -3712.0347266 -3381.3227989 2042.6398167 1654.6082997 1135.8461632 449.39330797 -375.66489428 -1192.2479681 
-1982.2015939 -2619.7947569 -3142.7587727 -3554.8001212 -3759.750464 -3770.1847305 -3548.2043705 -2826.9945525 -3083.1662823 
7451.862052 1440.8967154 9859.7551717 3669.7936272 823.79214803 -1222.7966719 -3147.7957088 -12432.047465 -19744.192067 
-17590.817771 -21724.882563 -10946.815042 -114346.37873 -87225.487021 -9027.0505477 15799.818056 4183.9913262 1857.8579715 
-495.67425031 -2716.5639137 -6062.1155837 -18749.717712 -22963.886055 -24604.793827 -20899.337558 -9335.1652197 1812.9567942 
1260.1095033 606.50157274 -112.73767664 -878.26194564 -1593.8192185 -2240.6434126 -2798.2215873 -3204.6439503 -3456.0312002 
-3611.5075545 -3525.4736161 -3200.4726821 2042.5219013 1546.5834169 961.8069985 246.01243841 -514.44053977 -1264.2133075 
-1953.1373909 -2558.6335351 -3036.9894338 -3347.3668649 -3527.7305669 -3564.141976 -3345.8061355 -2754.5995875 -1774.5954406 
18681.926251 4561.8765177 12600.128797 5825.3343517 1352.838013 -3019.5454055 -4710.9483048 -11786.502423 -19425.00011 
-18797.058069 -27667.043981 -18582.766458 -131891.57238 -20869.560609 1670.178626 11867.58607 8049.5508084 3978.5770719 
-2182.6226677 -5329.2683254 -7628.8139646 -21096.716407 -23412.677061 -29033.534437 -28247.774291 -22379.046503 -11400.008912 
-4308.662262 947.57223353 1338.4787971 -485.59804441 -82.788897265 27640.448952 42063.96785 16890.125845 12809.81027 
124.08048584 259.72850002 75.820205446 -4.2730036946 115.74273119 -10.520619841 90.174414627 188.79792138 -70.972841305 
-57.982316947 -330.59072202 99.163762314 -37.371696637 177.49131596 -141.19084112 15.588373033 -12138.135494 -3524.4681693 
2456.7830468 -2634.4705361 -596.57924649 -114.79818642 68644.433815 58584.421172 12693.643339 -114.71910466 159.33657715 
-306.06474889 -28.926195204 -10505.658611 -11426.4205 -12791.654906 -14248.684656 -15936.040195 -18686.629843 -10497.276708 
-10879.037383 -11931.539132 -13687.83874 -15458.357589 -18340.792805 -29191.326521 -27897.316707 -28695.895572 -30294.067571 
-32736.550863 -28049.821218 -26740.603161 -44823.893585 -25565.43879 -33084.665013 -53869.654292 -46359.792071 -32125.386428 
-47526.942661 -9984.2409932 -11297.127168 -12871.966801 -14320.617407 -16137.179006 -18723.436533 -12899.88171 -10682.880685 
-12161.882291 -13630.957973 -15425.499714 -18171.915794 -30662.940594 -51.894003067 17.075814636 2516.2059011 -546.45723253 
-31.162562664 171.89690653 -162.0920883 91.13627071 -587.19630039 472.79249735 -120.86546533 -22.092943026 1548.2420441 
-484.27579083 -94.592084147 -796.29902149 1401.9367874 715.4339213 640.91804518 2157.6569167 713.80006305 -142.6623572 
-3106.1811465 -208.0098757 -467.78143932 329.40499894 1548.7062985 69.359531094 385.78573888 26.275445493 -1146.9667643 
174.41684402 -43.838999581 -392.15582775 -19.011448131 -459.1517498 -77.758543838 529.66390892 566.81099439 1380.4413237 
-189.97899614 -64.168058735 -2286.2827712 -862.03882505 -307.56316819 2177.4583519 1911.2164339 -508.87111068 -958.50784441 
-3540.8501416 -1609.5453003 -1965.3648014 1251.6006188 3109.9537839 3309.7255711 2696.5512899 3913.8290558 2667.1567449 
3805.6386768 2488.1771074 3403.2362704 4068.5381594 3240.2590824 2438.2592491 4301.2858586 2375.1588964 4068.5762781 
3015.3736032 2453.1396337 2905.3002705 3799.7321235 2390.996241 3870.1596199 3627.4598243 3603.4948431 2930.4495722 
3517.2340175 3131.0109745 3710.8463766 3168.5859122 2813.7086834 3904.594501 3395.1465404 2113.3833804 3379.1913836 
3235.1106828 4365.5498371 2544.2434771 3851.3043447 3033.8238978 3955.5505067 2588.6606596 2657.5664905 2129.3711634 
4414.6733793 4220.8302689 2184.3492436 3900.7718561 4018.3191526 2139.402078 2255.9879396 4459.0687952 3739.8499805 
5870.4322713 4607.1431404 6749.9855265 2185.7439254 1719.285526 1243.4455791 5627.4913379 5884.9645322 4189.7328264 
1370.7071226 1725.4686882 2175.2615374 2666.300062 2510.9355524 2398.409821 3091.0692186 2876.5557483 2894.8176349 
3582.3731197 3299.5584566 3160.8032448 3946.0515501 3773.4801031 3856.3123969 4554.5831938 4249.2772712 4089.8185409 
4640.7478355 1221.1642922 1313.8545784 1903.3008689 1417.902214 1456.9562129 2362.2089759 1050.0768443 1028.2664797 
2277.8936534 1465.9249214 1465.9249214 2232.4343525 1161.195861 1196.065377 2258.2312966 2245.5334377 7653.6253718 
7408.8506329 4792.34288 6166.411119 6027.9615501 4042.9162249 7443.5683982 6997.4388593 3896.8089491 5837.16712 
5879.0673328 3996.1160255 7088.1915315 7161.3252123 3678.0997757 3723.1804678 2428.1038041 2625.1052254 2412.0797792 
2765.6161628 3004.3416729 2646.9433837 3198.3167177 3310.4872855 3190.3013746 3595.694252 3671.7289432 3468.3737652 
3858.7174594 4039.1682866 3521.3651867 4135.3312794 3230.9731827 3013.176844 3279.7193861 3165.6649579 2839.8555676 
3437.7133288 3693.1226491 3797.4019909 3521.5033975 3239.1058914 3087.867403 3373.6063459 3167.2035679 3305.4205292 
3926.929245 3464.7605095 2589.7208841 2513.9261447 2716.6920843 2363.3153828 2354.5747571 2896.56201 3071.8247543 
2773.3170654 2500.7454553 2575.6404073 2412.3239692 2596.6715098 2633.8937403 4091.0996659 4140.1474451 5111.3455873 
4312.1712063 4598.7567647 4668.5454844 4237.6512576 4020.2851842 4067.5360592 3980.563294 3955.2367361 4006.5999992 
3685.9612101 2631.1089499 2586.5966008 2548.5226 2176.5628526 2386.8633121 2663.8299103 2797.6430404 2954.6116814 
2419.9301655 2534.1864498 2736.3721318 3014.9051488 3074.8630712 3951.5391151 3968.6169588 3851.5797958 4735.6066326 
4767.6459077 4100.6080214 3796.4626314 4344.3981909 3647.6852681 3592.9424224 4096.9735744 4084.0273859 4021.6691081 
2369.9303625 2170.5367398 2488.5250504 2278.8661552 2667.1838841 2567.5810908 3233.3654365 3355.7668098 3430.8849743 
3703.9326684 3664.4795042 3631.2384466 4607.3373618 4010.0333507 5145.9577952 4430.9050567 3966.2518105 4279.5675963 
3218.7984175 3209.9649089 3297.2730285 3535.5418685 3277.9674789 3215.1068552 2328.1701874 4738.4044839 2238.7160756 
4235.2905987 1824.8728376 2234.0897947 -4756.2981395 2296.9656781 2414.1389684 2257.9332373 2019.3670207 2175.1006059 
415.3269819 2271.5537683 -7035.5206297 2322.8924648 3114.0576068 2126.9882542 2257.567549 2265.9803574 -3093.1740137 
2283.4842034 4545.1754608 -3238.0833235 1710.1734836 2105.7003901 1251.3102036 2145.5068919 1531.565992 1932.9939541 
2229.1603339 -275.37085717 1998.7503383 2263.3120972 2000.0626801 1604.0748896 11379.359401 2233.6365679 1494.2025935 
2212.419094 -437.25457049 2326.2938637 2253.2187006 2205.7012035 7036.5066152 2284.7117147 878.26701022 353.73269435 
4555.9071399 2259.1889627 2307.0255343 3025.610803 -667.79728146 14570.145638 18436.287228 -34915.429228 2241.6490325 
2244.4555474 2271.1569354 21542.702404 -20745.252413 -6275.6115887 2277.4997071 2240.0104846 2323.5071333 2235.0375406 
2229.5582237 2246.8762306 2206.6703008 2223.8951717 2266.5585951 2227.0468218 2225.6982146 2247.8564012 2240.5139301 
2227.5210687 2278.3708536 2249.138061 2241.9610126 2300.8051558 2287.6608452 2346.9491413 2321.8580066 2315.7092005 
2208.6504995 2284.1969617 2285.911626 1762.2450245 2327.1037797 2276.2015092 2704.5981902 2090.4131385 1823.883828 
20456.57918 915.57433349 933.82391253 -2862.6191894 -51795.603651 -7149.4085923 31023.304596 -28645.906233 -16153.656512 
-10787.569616 31186.552955 -42062.154426 -39062.567139 971.54257292 2312.6776029 -17028.349784 -3120.0084117 28621.620529 
-22482.766586 -4119.0946468 2229.5045425 2158.0455592 2241.790854 2154.0935238 1894.682457 2228.4977735 1883.4232953 
762.54651819 2156.6917454 1991.0459402 1106.1683893 3226.1692937 -10662.944303 -15654.009506 10988.607575 4974.9579008 
1802.8900411 2059.5262982 1977.9180587 2196.3829018 1972.4061316 1263.3305613 1668.982731 2247.0238326 911.49312263 
2147.3602621 2054.3873525 2018.9861205 2056.8551315 -945.76285161 1611.0403941 1985.5470495 2245.3070338 2254.0013594 
2251.5706965 2237.1394613 2240.8456148 2105.461997 2096.9608389 2195.6517647 2214.1935285 2243.3259059 2218.8399552 
2165.2736927 2202.4167123 -24332.089522 -1267.2621227 6451.9849466 7090.5348915 2135.0356776 -3101.5415568 6741.0057868 
-12185.595059 3548.1286201 -2679.8056085 5624.5555129 -2657.4866357 840.57899096 2295.9794399 2297.8668334 2307.3458092 
2298.7450638 2280.3011085 2246.822302 2267.869279 2308.2648365 2283.1058343 2232.0281465 2278.995408 2240.5459302 
2205.0321367 1585.6887869 314.12534058 2168.0692074 6047.6355751 3497.5764664 14426.633084 1210.6605566 5287.0095242 
2297.0283362 1894.1323098 2636.428416 3180.4273361 670.31996945 2266.2090961 2256.4531073 2248.7297967 2233.6528939 
2264.5057734 2220.6078191 2156.2852757 2078.3059742 1791.1837788 2976.7054522 2112.4492904 1861.286944 2097.3231096 
2224.5531035 2151.0340907 2117.6850784 1667.1467454 2140.1828034 128.85899781 -18204.619032 14367.813678 -1786.0655675 
-8303.0853477 3710.3014725 2257.1698931 14609.692384 2312.8776537 -850.91407214 2319.8567361 2764.5297267 2562.9199359 
1233.2134599 2512.039744 2468.5906761 2768.6865386 1132.5924938 2253.4005038 2793.0365295 2535.7520216 1058.4792253 
11431.950515 2910.9385287 2797.024846 263.35514811 2290.7919251 2451.9056996 2748.3532509 1452.4989794 2969.1773469 
2428.9330187 2562.4862247 1722.5170552 2335.6358919 2635.2273222 2001.2262493 2395.4962887 2271.4775198 2900.9144161 
2867.6550479 425.5388649 1748.7692544 2580.8662254 2678.6650356 1063.5902222 2398.6889273 233.68532548 2720.758681 
2901.3498398 2365.4965561 2507.8638816 2649.3748267 -5471.0353186 -875.69404028 2617.5073508 1221.865724 2449.920996 
6754.1292936 2449.9230466 2450.188436 334.84072343 2213.3370693 2461.4471828 2739.1023984 -68794.805966 -10801.537461 
-85622.039711 2333.0954717 2467.7299384 2378.9144365 2537.7573297 2771.9414433 2660.2025448 2777.6166646 2998.8979736 
2761.2809758 3061.6549839 3292.694711 2831.1357119 2898.294246 3249.1156689 2739.6671112 3216.7591346 3378.275463 
2597.3172005 2391.0423383 2877.6754618 2851.4689069 2819.9356369 2910.415762 2951.6224664 2974.8817517 2851.4169115 
2886.0121306 2891.5961635 2725.8640943 2792.0383285 2837.2157353 2570.6928115 2660.267838 2719.8346382 2580.3092618 
494.18458232 203.11517746 328.4290454 302.03903682 106.54660841 67.025038745 431.02625561 145.8607015 549.92301704 
-1286.9585573 -3167.4710633 1986.154741 -54067.303889 3344.8431001 30458.987367 35665.573817 2238.7832534 2313.7695871 
2410.4836968 2042.8419532 2307.2487056 2375.5520894 1477.410059 2463.8458271 2357.1119132 3409.7843419 3064.4384521 
1605.7295054 50098.794613 -4617.1768352 -1787.1026226 -49138.987874 2345.7110697 2489.0026116 2450.801945 2169.9060544 
2237.0785947 2429.5259575 2621.9497986 2488.371646 2372.2504811 2043.9716045 1685.0122129 2100.2918977 1944.4712529 
2397.1795338 2251.1703753 2219.4411987 2821.3552106 2708.2073343 2697.4679343 2819.6108098 2806.8928012 2786.7861853 
2756.4314782 2740.8387323 2774.855544 2685.4940255 2674.4796315 2583.6736822 2504.184388 2537.392995 2471.4043667 
2459.7386946 2624.1121456 2597.5091644 2432.8162716 2276.7734479 2475.8656088 2643.8996663 2619.5513559 2696.7656027 
2570.3094644 2615.1319905 966.15635689 692.04552856 529.22720773 1777.3574029 1907.7380385 743.20821246 1074.5387408 
645.61116368 1790.6898221 2198.2726448 1687.0587467 1498.3754449 1402.9580471 -1539.1064615 -410.35644445 936.43492819 
4875.6417716 10340.986899 1881.8961072 2738.529094 2100.938402 4239.2351695 1692.9646211 2827.2580132 2840.5590318 
2551.374535 2627.8243366 2728.6819309 2511.6023998 2463.6844255 2185.1788744 2465.1711578 2865.7357713 2675.1125339 
2810.8139634 2734.0913403 2738.7093067 2638.8714548 766.458712 476.65974178 1233.1730403 1543.6802574 1718.0706642 
1342.1903903 2123.349345 2378.7642967 2092.233953 1815.3018657 2340.1157637 2300.4943151 2709.2968986 2494.2487763 
1228.6295322 10751.787327 2166.9819253 2657.9883458 2725.1017999 1009.6240825 2284.3895053 2761.0616427 2298.71513 
2641.5430027 853.92802304 2671.2624243 2659.3974329 1057.7726979 6914.4286371 2627.3845947 2835.1453677 2590.8626279 
191.7692055 2269.1211052 2824.1127203 3160.0268141 1144.475965 2292.0563436 2597.0678935 1468.4706766 2304.4740204 
2574.3869022 1808.0760928 2607.2559791 1726.5816666 2870.2051037 2769.8961636 607.11213466 2463.2509398 2441.5229549 
2726.7658449 907.89591105 2481.4867481 2637.239579 2826.2795156 2543.4843578 242.01081674 2734.3908238 1617.9735047 
2365.1851081 2819.9347032 2568.6853645 2541.9160962 957.82053499 7253.445467 197.0316863 2310.3305766 2265.2310841 
2144.2750409 2653.5922051 2420.9379556 -49859.550856 -7601.6445409 -76588.61108 2534.194193 2380.8758224 2457.7430057 
2770.1326383 2855.4159291 2732.1464218 2847.8137198 2851.7114275 2865.5736882 2888.7643351 2864.7519278 2874.9186033 
2843.6049235 2798.837285 2867.1914051 2700.9616013 2630.9256878 2818.9118678 2668.1384946 2425.3303725 2430.221134 
2524.9399373 2473.7886052 2415.5906081 2544.7398936 2436.4961935 2428.8062592 2536.756181 2825.9670347 2621.5084171 
2681.3870695 6166.2340265 10031.007457 3000.658275 -1883.8657948 200.82487098 436.39850067 362.61441676 51.606566525 
163.04430371 59.247349932 526.6668695 71.375261708 104.87721469 -22232.570399 -3834.0175531 2832.9668939 3078.0490031 
-12388.806156 12298.404774 41016.239479 2720.3574183 2477.8070349 2550.9388571 2832.6494106 2638.7078532 2651.6688291 
3080.5015854 2839.8442029 2686.7711289 2990.3065214 2901.6507059 2590.395048 2956.7019129 2920.6468313 2354.295574 
2170.2027277 2371.067778 2412.9978537 2187.4589663 2113.315987 1988.1745077 2615.5226167 2396.6395484 2436.4088266 
2584.5879858 1552.7304822 1875.3771589 1542.2382617 1880.0977801 2508.0195155 2231.6535274 2039.2279913 2624.0377239 
2653.3576734 2694.4571326 2721.4182754 2722.7162506 2541.8824171 2532.6931726 2611.1655674 2644.5972811 2669.9120772 
2704.2920595 2475.0460785 2352.7875716 2654.833616 2600.1174818 2684.0164278 2694.7861287 2762.4338615 2662.4977361 
2587.3025858 2661.1600332 2784.3522929 2730.2005883 2777.6639338 2663.7277065 2642.9194419 622.76952695 721.09910627 
941.41698685 1680.9773008 1834.6279683 657.30734847 899.32290803 602.0319049 1495.7570127 1986.0653376 1530.6933221 
1240.8376946 1234.4063669 1601.3304808 4710.4106417 2412.6042162 4967.4417959 3597.3042692 2774.9522713 2271.4221175 
2787.6823216 1923.7860566 1275.9947516 1567.8080393 2316.9254592 2353.8897647 2648.0582166 2832.2337463 2815.2478195 
2782.5252958 2749.0988743 2680.4322094 2590.5597875 2492.123818 2378.0792694 1988.4455652 2288.4338634 2301.6177598 
2646.8922159 2588.6884515 2559.0966945 2835.343749 2609.934421 2489.0858526 617.11942441 643.0791387 830.20166469 
1322.7924198 642.11827286 1214.0972596 2605.5901925 2612.4681099 1284.0460059 9755.8068235 2910.7766869 2992.0068249 
2716.5328062 2957.6132648 2788.8093966 2885.4359907 2917.0042002 2917.4017214 2602.4010715 3012.8549337 2568.9873984 
2818.4458318 2646.3343282 3127.148141 2989.8296799 2555.7133145 2964.187813 3100.8352621 2782.7559814 2531.5493557 
2857.8834701 2950.1463733 2894.6497828 2941.5308286 2809.9024069 2975.8094741 2927.8601814 2852.9230754 2774.53493 
2927.2824961 2828.0315408 2893.6865329 2465.1697851 2945.1260803 2898.9820831 2816.9279969 2732.776015 2856.049068 
2453.8532524 3001.4797643 2933.6542707 2839.1592866 2741.0769046 2684.9789503 2502.6401533 2823.6177143 2814.8298864 
2474.6606139 2531.8579524 1515.581696 2061.7568798 2776.2810347 2701.9634122 2154.5353155 1763.038072 2345.6873819 
2332.2761605 2506.5498341 2396.5861516 2587.1941386 2356.403949 2936.4830167 2843.8397326 2862.5381659 2971.486291 
2922.4252265 3027.6778329 2879.3128416 2948.845784 2941.1304667 2824.1055747 2866.0130491 2907.7688698 2660.7707324 
2753.2710942 2877.73453 2669.7467027 1529.698766 1635.1437696 3081.7363568 1951.6127688 1969.335432 2908.0324781 
1654.7111734 1654.7111734 2932.7652861 1871.3625619 1940.6170229 2983.5612937 1698.1760322 1698.1760322 3005.7950637 
2822.763936 2314.6960874 2315.8076948 2470.4213578 2360.1555256 2347.1940043 2529.6741368 2326.0376731 2318.4042945 
2524.462785 2357.7590524 2362.9389059 2485.0496002 2347.5996143 2356.8240608 2523.1176817 2489.4130415 2944.4016923 
2943.6044266 2908.0603959 3018.9710389 2957.54129 3098.9600124 2953.2168613 2880.4558848 3017.7312984 2844.0882171 
2743.8707978 2877.0463219 2711.276523 2594.8795983 2780.7778153 2566.0244322 2988.2296641 2952.2794201 3064.1655782 
2964.3817203 2961.736175 2898.7265161 3007.7799437 2929.0224734 2884.1210649 2961.2875558 3043.3214101 2919.342196 
2904.8148201 2914.4131557 2891.1334352 2809.4101282 3049.6414026 3086.2870228 2911.6483759 3006.4578259 3080.8817239 
2989.4403049 2949.4434864 2968.684078 3021.8588352 3004.3641065 2999.9838068 3011.0711731 3000.4753288 2674.5376476 
2670.0230413 2500.5966563 2668.5388628 2717.857724 2663.3729609 2752.8411354 2701.4357533 2788.1951849 2798.506893 
2772.7611532 2827.3485787 2871.5154224 2947.1189921 2899.2171342 3012.1356872 2870.1331652 2739.7479998 2995.3240355 
2935.1708264 2955.1498319 2936.4763966 2988.8218286 2982.7109827 2984.8592483 2928.2560303 2767.5660176 2776.9293785 
2730.361722 2587.1444788 2733.9617433 2705.9708438 2689.1352497 2753.5529298 2886.8651627 2916.4369757 2856.0871688 
2890.2656534 2776.3595534 2884.8500393 2811.3640718 2925.7704994 2874.7797989 2995.3391864 2959.0408516 2980.9704706 
2929.3246535 2938.7727186 2848.9347273 2848.9765034 2921.0415149 2957.3076316 2927.01157 2965.0760903 2871.3102245 
2841.5204453 2966.9645363 2638.626586 2696.6764457 2600.6319621 2606.3164932 2685.982438 2710.5819938 3108.3218493 
2534.5948908 2775.9548925 2605.0263789 -186.96172655 -279.35282558 -24.126597962 -688.52625204 132.84022739 -118.59160513 
-203.20601175 -2145.00768 -153.1807683 -762.70866561 -122.78444926 2640.6931293 -2593.3123461 -1890.0653565 -21.519220131 
-19095.150694 -249.5272298 383.66167785 -1603.2459092 -829.54442771 712.49549077 -62.19362983 -75.067093117 722.60319167 
-173.3217943 -75.443047955 -291.13858718 -36.803966695 874.79685208 -109.51199549 16953.406867 -1190.6211611 -163.21307807 
-30.306213588 -191.34216561 1449.0067734 -120.6424791 -1878.3043212 -957.84175682 -539.73715575 -223.58018797 -1080.4061883 
-1526.6377898 9352.9182314 -8535.8418923 -1863.8790845 3796.8833622 -1221.6769497 4671.5468798 2077.7219349 1929.9695406 
-745.97118751 1855.7002327 -358.27188983 2035.1885406 -45926.73394 42964.663873 28846.751321 48853.136676 -30424.989787 
31247.208154 -12379.405749 55398.61821 63073.544262 -50507.11465 -19672.345221 5253.2975586 52345.618775 -26346.065585 
-15433.343887 23697.750882 52678.630394 -235.30524992 -59013.415861 20305.605682 4407.0982087 36255.199135 47.664451812 
-61.96675953 -1085.6741501 -61.794572275 -34.003387747 -475.09840887 460.47714896 527.15210085 -499.6416782 2530.5646926 
5977.3860336 -1932.2799883 37071.41234 55395.857208 -35293.753246 -65481.36222 2716.0466407 1378.9944069 -1747.9520342 
1970.8620637 2022.1747388 -1724.9261646 3437.1913462 1627.6991182 -1227.55036 1987.8062009 2169.9267356 -1542.9747413 
966.99027264 1249.7634088 -1281.2068327 -1374.3591426 -293.91231709 179.49628677 -902.08381287 -152.72736539 69.773787561 
-529.27551875 890.65440676 206.74524369 50.477298289 11729.177045 3217.3198053 151.89778578 49303.915856 14984.446571 
-11524.359834 -61072.506568 -148.38698459 -126.53837524 -22.113052892 370.92308274 -239.76225885 -75.155603374 -133.81006728 
-78.722703333 -100.47113194 -421.65110658 -16.636835258 399.02839287 -69.237429523 65.860744917 -137.60432475 254.77446622 
-289.16923306 -965.2414188 -916.85969765 -786.45433817 -368.51408105 -96.455655334 -542.93017073 -525.76466336 -3.4421965316 
-225.41681535 -211.15406237 -300.45507933 -121.29300765 112.42299469 -269.83320749 -80.635022068 -12.742585612 134.75267675 
-3.9095462256 -61.394851489 -25.488560509 -458.12316669 -150.034374 -94.846704754 -125.39874274 -320.9168257 -72100.484083 
3781.9173928 -6727.7684878 -3690.9493671 30785.834894 -5874.1278176 1535.9353725 -6337.552772 1154.6932988 542.00737834 
1937.5552909 1100.1206719 2582.069801 3390.7092507 4775.6544371 687.90616223 18390.819147 5350.6198774 -66.817919935 
667.15908531 -2483.9790542 845.71645969 2875.0024211 207.82588417 272.60169901 -146.22036318 -151.66924983 4.1346248398 
-123.36907229 -140.96799858 -136.57446669 -69.216875683 -175.3649421 -409.63052415 -336.80633783 -952.14512708 -178.94539052 
-366.03437492 16002.423953 10793.319548 973.23705818 -4199.3544745 -11776.695884 -3786.892357 8.2574261786 -602.71917825 
0.31620110532 -764.60015861 -650.21101616 -225.7736613 -626.53053955 -732.08613847 8477.3830397 -3222.9828215 -3465.1990925 
-2896.7306129 -4618.6463586 -2839.4008673 -4309.7203619 -2737.7739607 -3587.3827219 -4270.5949683 -3479.4146046 -2719.8918622 
-5670.2643415 -2652.9402958 -3587.0712165 -3171.5543639 -2725.0086285 -3098.0609386 -6062.9872748 -2693.8128112 -4245.1195154 
-3882.8297175 -3899.3919709 -3078.8598963 -3803.1872603 -3274.7160536 -3919.9288718 -3308.9996319 -2978.9193595 -3972.7377217 
-3721.4333262 -2499.7934716 -3627.5153592 -3470.0084121 -5833.7893572 -2786.4428295 -4196.882775 -3224.2129304 -4571.9750046 
-2779.4232387 -2876.1012359 -2554.6578002 -7119.7329668 -4958.967837 -2534.1651106 -4074.870117 -8348.8992569 -2510.5006163 
-2446.923482 -7020.6036942 -4396.9136229 -6531.1604129 -8312.3410998 -8407.8675368 -2128.7641375 -2581.7498111 -1557.6597816 
-5211.1628435 -5881.6449282 -5021.9405369 -2499.3475427 -2020.0314718 -1528.3554223 -2713.3272162 -2926.7225364 -2670.0138936 
-3042.1523207 -3224.1796548 -2943.9456101 -3449.9193522 -3686.8401649 -3354.1168575 -4007.0055799 -4554.4389088 -3786.8721094 
-4705.0782764 -5254.041647 -4271.4389536 -5539.4665153 -8198.5718143 -8345.2134498 -7740.0753378 -7526.9741463 -8778.4307465 
-6596.3916095 -5110.4540117 -5754.3342089 -7097.5369293 -5425.0439584 -4853.3313341 -4524.9537548 -9788.2864767 -12612.27251 
-3850.8321528 -2155.1067042 -2828.2871584 -2662.7466362 -2617.783008 -3158.3386832 -2974.1316154 -2908.4055618 -3547.6963861 
-3373.1123271 -3294.481193 -4034.2620102 -3864.5759708 -3673.6486803 -4515.7874294 -4347.9187659 -3943.9434749 -5881.5732298 
-1410.3053741 -1410.3053741 -2784.7260728 -1637.178851 -1583.0969205 -2642.6044598 -1995.1154394 -1319.005028 -2634.6394416 
-1640.0500134 -2045.856852 -2442.9217577 -1217.6732657 -1173.6055916 -2615.3558942 -2537.419114 -3266.3912187 -3083.4612647 
-3245.1029869 -2997.1523208 -3105.3072034 -3355.1249342 -3644.3373956 -3631.8214018 -3703.6068541 -3112.1871816 -3327.2976751 
-3433.0743888 -3419.9190281 -3629.053654 -3680.9157712 -3691.9930222 -2883.5089462 -2642.7564806 -2762.5609547 -2646.1517611 
-2657.1749606 -2986.5722485 -3214.7867437 -2963.7740517 -2611.700997 -2857.4846261 -2725.9203989 -2913.0813568 -2921.4913936 
-5285.9577078 -5994.5524149 -5364.0538139 -5078.3118466 -4760.443198 -4234.8744616 -4938.5313022 -4633.8612078 -3876.27775 
-4306.4369574 -4335.614598 -3492.2331402 -4029.359913 -2651.6516335 -2813.5155798 -2709.1080054 -2655.3851535 -2586.2722875 
-3240.0042447 -2958.9889566 -2954.6608021 -2901.825216 -2768.5492307 -2698.2699224 -3083.2645344 -3174.1064082 -4121.7284123 
-3835.0758457 -3495.5109574 -3876.0466224 -2293.9757411 -5142.8789496 -4265.9178803 -5059.3128549 -4025.5463322 -3845.5826856 
-3971.2280508 -4027.8242901 -4191.1408398 -2573.5024923 -2630.0721894 -2705.1399905 -2851.0533744 -2665.4603002 -2877.113054 
-3470.6691732 -3327.9047729 -3491.3806599 -3821.1457657 -3749.7098261 -3243.284581 -4440.0731318 -5738.8664893 -6226.7125593 
-4913.0194897 -3610.6960314 -3779.8502789 -3486.5112733 -3252.32019 -3279.8036916 -3484.611857 -3734.1139735 -3329.7846618 
-2677.7459317 -5687.9308493 -2617.3681274 -4198.675218 -1852.7833526 -3694.7113158 1849.848416 -3249.622819 -3878.2512534 
799.88528158 -361.84018161 -3893.865206 -4731.137424 1763.404509 6530.1114245 -2043.7629509 -2022.0683777 -3791.3312458 
-3719.2144904 1798.8268154 -4207.7699471 804.9568192 4362.3819978 -224.3817997 -3013.6506597 -3514.0571029 -2871.8869984 
-3801.708216 -3501.355113 -5087.4049511 536.14217606 -1044.3810504 -3552.3438613 -6424.2371158 -4833.0923161 -3940.1432724 
1898.1725841 -11578.816379 2058.9960017 742.64192758 -3769.7024615 -4839.1909285 -1099.8956353 1912.6577967 -2703.1426223 
-2972.2570005 -1204.5249872 -966.88679721 -112.00396016 2291.0382476 -3975.8944758 1308.9411738 2082.417145 -3804.0233109 
-3609.5194684 2961.8469906 1962.1714141 -3576.5481934 -3904.8053981 1042.1106958 -1843.3161417 -1059.7157661 -4146.5902779 
-5266.8323447 -3805.5392642 2909.9828784 1396.7851052 -3813.4522687 -5163.760825 -3752.9622174 1372.3687474 -3175.3496506 
-6343.2438488 592.37365097 6184.3970376 -4154.4141641 192.11438196 -3403.5611617 -1999.8498634 -2163.4845558 -3929.7576502 
244.38862997 2544.8335513 -3264.2745931 2015.1348986 7978.3183973 -6284.0295041 -3623.6895368 -3603.0047025 621.9812629 
-615.37472135 -1336.6809825 -5994.531915 -3369.3752207 1644.9784166 3434.9034487 -2533.3346905 -2839.3999112 -3052.3179167 
-8190.7512814 -3215.91604 -4372.123627 -2470.5991322 2043.7809982 4591.1442373 -3598.4872005 -1180.5905455 3976.2620237 
1843.030031 -4160.3426056 -3135.2536991 -2654.0932182 91931.068848 -46850.471765 30063.451586 2094.2647114 2145.3946225 
1966.3535982 -8384.7658715 -7346.7413373 -10594.882554 -2817.8169367 -2543.9427375 -3243.2851584 2113.2103403 2068.4745869 
2030.3716048 1977.1108892 1867.1255231 2005.800199 1218.317886 348.08468147 1885.094201 -1424.3547305 -15685.780887 
2031.9665351 -9464.6759492 -137169.45247 9369.8182519 43619.477624 -3174.2195678 -2989.7086286 -3171.9178629 -3633.3735914 
-3388.5420187 -3511.1642998 -4120.9002998 -3799.9747843 -3834.2717572 -4918.6387387 -4761.7618875 -4471.7794973 -6047.7373049 
-5748.3050097 -4950.300849 -6682.3894951 1524.3869749 1733.6919942 1846.5392387 1049.6777725 1353.6470186 1514.3542921 
312.25722688 680.88694248 983.85949468 -466.24806584 -16.836152423 272.08515261 -1307.5574817 -865.01195049 -579.54480905 
-2071.0458437 -1655.9280443 -1475.0843318 -2697.9791661 -2395.949681 -2232.41696 -3240.868721 -2981.7414871 -2866.0191576 
-3618.8498081 -3468.6205642 -3445.1225816 -3762.1416013 -3710.7276341 -3771.6867831 -3757.4193729 -3805.8808146 -3822.8652846 
-3895.8751262 -3907.1804845 -3626.0817813 -3364.3723422 -3674.7316833 -3357.6809452 87466.512704 84210.026056 -68328.216232 
12881.287994 17947.254969 -63264.254534 3057.8340953 15084.127609 -3102.8222476 4082.5417829 4074.4674039 -962.26767513 
1838.0072011 1247.7973245 652.42720588 -179.09574627 -1133.5110128 -527.33129483 -2055.6029908 -2940.8400187 -2344.578272 
-4026.500936 -9549.0187042 -4437.2607608 -7550.840024 -14070.591494 -6102.2112656 -10819.409209 -11158.2748 -4868.5108414 
-12553.989455 -13383.482731 -11353.745989 -5159.0961674 -3955.6157164 -9073.4149579 -8186.574996 -4809.6325734 -7816.6544312 
-1376.9535678 -2022.9842147 -1659.6688487 -997.07613467 -1524.855658 -1885.5655712 -2213.6163211 -2201.2089423 -1627.0378111 
-2344.0029766 -3632.4498422 -3586.5324236 -3669.8396048 -3588.5095548 -3538.932818 -3764.2283681 -4013.5379672 -3909.6552968 
-3856.3846818 -3595.7358737 -3783.7617258 -3641.8189691 1766.8245629 1269.1764047 1496.0646968 1415.2827803 2717.4898653 
1082.957354 740.90865343 1389.3429423 1080.3024213 1912.2773292 2048.2924633 1997.4046524 3950.4057157 1684.4236949 
-3327.9027449 -3499.8375686 -3416.1481366 -3217.8516995 -3362.397674 -2989.6311988 -3202.805382 -2979.7570941 -2582.0291684 
-2937.3009254 -3416.8887856 -2967.4349068 -3282.1787778 -3243.8729506 -3292.0149778 -3721.7522501 -2825.9519036 -3566.2847981 
-3529.4110264 -3459.9278074 -3913.5730668 -3728.9408965 -3895.5400862 -3782.8275434 1017.3486764 1503.5748214 46.939359374 
226.23986231 1443.9127302 1354.2457493 2204.4968923 1208.2140284 742.4916582 -115.43485591 -229.55192077 -719.03530508 
3080.9672516 -712.69684289 -215.55996035 -1174.6292522 -843.35603692 172.82778296 -184.49181903 464.16451327 489.69825415 
-48.253037212 -774.5198249 -546.05761521 -1268.8412506 49.13572685 -3742.3399319 -3778.4982041 -3441.8760685 -3595.2244536 
-3889.9951928 -3942.260202 -3904.1422524 -3875.3173437 -3862.3432493 -3877.1440316 -3919.574923 -3909.0430665 -4013.4174091 
-5003.2542747 -6798.7429824 -5107.4756014 -6570.3744444 -4552.6146969 -4226.6954772 -4635.5825466 -5232.7295064 -4127.2880603 
-4691.273863 -4255.211643 -3770.4386974 1840.4750065 1951.370574 1948.1131511 1767.827367 1659.8730337 1863.750302 
1845.5083273 1848.0980649 1530.5885726 1275.2324446 1634.1823261 1761.9595973 1965.9702307 16499.212658 78650.080614 
-7582.6817828 15026.600824 17609.798491 9886.3731222 3799.70121 7043.2093917 9655.8907302 225.07221542 4330.2664211 
3952.7479391 4027.0256039 -2338.7571905 -2359.8614114 -1979.9690756 -2385.0370551 -1644.1700592 -1620.1553001 -1706.7776742 
-1893.4600057 -1593.7778149 -2285.5862317 -2563.9747651 -2590.3147403 -2024.5804415 -2615.1204216 -2622.1172031 -1311.8646715 
-1542.103824 -1330.6264926 -730.12211654 -2164.00102 -3277.0186234 -3668.3546252 -3639.1429115 -3534.297929 -3685.2722566 
-3869.9571047 -3830.2996056 -3783.5000563 -3764.9553416 -3691.0229044 -3793.7973737 -3519.4731196 -4120.1517671 -4689.773949 
-3550.0960932 -3611.80549 -3708.8872288 -3991.6885023 -3983.0369989 -3693.6940017 -3563.8960848 -3707.0194807 -4706.3052179 
1526.7450108 1683.2430471 2432.2259232 1914.4649375 1816.2530871 2603.2715836 1853.1258141 -3965.3329609 -4138.5653764 
-4023.0949597 -4430.6424449 -4200.1465432 -4134.3123297 768.42568669 1104.5706488 529.03472411 338.47509354 680.20672759 
1054.1761191 3766.549316 3623.3935649 2223.1985546 3139.1979483 7441.4597088 -5388.0391728 -752.46751111 60.678844242 
-1126.1497535 -789.91477051 -490.11526161 196.27906089 362.92834655 495.83341768 876.79925757 -2830.9818925 -3150.5433112 
-2741.6483129 -2552.8043836 -2889.7372479 -3210.9636257 -2679.5317147 -3295.1900374 -3543.2196221 -3463.1871743 -3537.4990617 
-3388.8055952 -3035.7238063 -2715.297881 -3144.2133813 -3003.6951799 -2727.0163412 -4359.4017765 -3421.1388488 -4536.4915531 
-5206.1122963 -2989.4498366 -3338.8795729 -4992.3029263 -4408.9000856 2001.2912052 -45354.333659 -1624.3899389 -3536.9492227 
1108.6742919 -2987.8660551 -3197.2028339 500.77409282 -647.61132908 -3579.6267103 -3964.0975971 1542.5689656 3125.0611976 
-1982.0319367 -1184.7756815 -3868.9678128 -3548.3434156 1940.146687 -3578.8705785 412.30667273 3652.7380761 -565.8688741 
-2597.4832406 -3269.4111215 -2705.5791484 -2826.2342449 -3289.3536057 -4036.2607757 -242.78757263 -1179.4378183 -3336.0054546 
-5301.171656 -5875.474926 -3671.8717042 1818.8358038 -13015.417013 1192.4158454 236.05750415 -3403.1362626 -3834.0554139 
1953.6452749 1989.7250621 -2427.6873492 -2113.0669567 -1291.2123931 -929.71923384 -390.27932548 5144.081207 -3600.3426755 
1031.4701799 4038.0433914 -3583.2658319 -3352.5200947 1884.2095568 1416.5196838 -3476.0252733 -3631.0381396 331.20525523 
-1839.2232429 -659.54203482 -3565.6676427 -3607.1361548 -6373.2199263 2572.5162018 938.13307168 -6648.067983 -3575.3824574 
1822.7860529 -3016.0338876 -5418.9016917 324.55779461 3308.6580361 -3572.3196167 -3538.7625306 -263.66327003 -2982.856273 
-3439.1345516 -1825.1774302 -1580.4968084 -3525.5648648 -109.58607855 1877.3231603 -2931.8603741 2051.7117956 1829.3700386 
-3440.5335234 -4579.3556484 133.04837926 -704.91904285 -1413.0933645 -3174.7083943 -4248.4007925 1488.4689001 10406.762164 
-2432.5547163 -630.58877824 -2938.7275982 -5942.0101277 -3603.3075159 -2997.1152411 -2074.4454937 2013.1840977 -7162.4084767 
-3289.8504358 -3468.1876454 -1212.5217439 2312.8593739 1719.0339421 -3854.3940804 -1980.4921972 -2493.3762005 -8773.3542511 
37111.395725 40914.526594 2173.1433354 2122.6285494 1907.8586244 -5203.5018172 -8373.6568482 -14122.026526 -2439.7778776 
-2745.0387962 -3108.9147769 2190.8617608 2161.9452346 2045.548567 2007.7733097 2102.2299248 2016.4447334 953.96296121 
1804.4317226 2061.5604038 -6328.473172 85.561026534 2921.8050742 -86818.976162 -27961.488228 10819.466631 78254.045669 
-2858.5614267 -3045.2763095 -3034.126354 -3143.7878138 -3351.2523833 -3265.5086237 -3388.6275891 -3762.8367032 -3418.6766993 
-3835.8713273 -4182.7423577 -3684.4335947 -4435.2393851 -5269.4618805 -4050.9328294 -4891.4712317 1641.0676503 1353.9257111 
1780.4348172 1138.8687402 798.05415332 1298.0401952 460.57700297 91.837208117 689.86386033 -235.04463579 -655.22755324 
-36.113403438 -1002.0611642 -1391.2256521 -794.05069823 -1689.8784285 -2042.5925007 -1536.1708498 -2309.4967014 -2605.0362795 
-2172.5795948 -2885.7247679 -3102.4536757 -2753.6428957 -3304.7951331 -3438.2791894 -3264.6389544 -3516.9059847 -3574.7298431 
-3583.9887668 -3568.6827984 -3543.8260758 -3685.2499589 -3650.6510282 -3694.6811898 -3418.7160546 -3504.2632529 -3223.5566728 
-3217.5388589 78926.971414 -6878.0629309 -61359.203133 28062.208391 -19518.772877 -222.44328001 7262.8483699 -5167.2955233 
1787.2335677 14048.088194 7177.690762 7318.7152606 -614.7591378 3143.9216408 1229.2771826 -2108.2744172 1101.3802394 
-127.99513919 -2491.8710356 -2239.1696165 365.96973665 -6193.2961463 -9121.4336574 -3558.1988114 -13145.41202 -8709.2669005 
-3797.4005836 -11956.29208 -12431.643218 -6010.906533 -16762.479398 -14165.640292 -5888.4044855 -11445.669175 -5097.2403072 
-13560.76795 -5399.8914704 -12480.754061 -5286.280235 -1304.2841917 -1678.9527077 -1228.4358499 -1416.8180624 -1020.5108147 
-1901.7167634 -1912.7966359 -1706.7415161 -1549.4010206 -1816.9455656 -3524.3455344 -3578.1655919 -3561.4404021 -3565.3620584 
-3498.2608152 -3456.6856028 -3524.7293386 -3505.5722734 -3445.0879676 -3520.0676405 -3528.6665326 -3396.8937039 669.80533352 
676.40151095 1151.8311785 1779.4920945 1711.3050767 287.19751437 689.2021633 578.41311779 968.55513509 1260.717337 
1545.3071028 1247.5943965 2132.7874917 1181.7421626 -2714.6653961 -2964.6240859 -2714.8593536 -2729.1938366 -2446.6827342 
-3178.6107913 -3169.9024167 -3311.8676589 -3154.3583987 -3154.682278 -2974.0164773 -2773.5464145 -3598.1729143 -3374.2815631 
-3460.1587435 -3175.1607944 -3668.4992235 -2935.3936865 -2614.143211 -2776.233033 -2034.2508793 -2547.6925251 -3117.2156902 
-2920.1392008 816.15974587 1561.8033442 -96.254798587 48.377746118 1833.5720401 845.02260234 634.82991922 500.35211157 
552.36775124 -543.64155887 -189.32321804 -529.26505367 2348.3742417 -512.94357786 -920.82329476 -1037.9120652 -1278.2812805 
-24.783353858 -491.35880753 -234.24734307 -370.93332022 57.03770943 -809.11840043 -974.91901946 -1346.9090751 -255.86753717 
-3559.307596 -3476.5573666 -3364.0190432 -3217.3659004 -3619.2676456 -3629.3521406 -3620.3278878 -3526.8698549 -3492.5065885 
-3480.7894501 -3593.0324522 -3559.8968708 -3561.1285451 -5293.8125138 -4508.2404777 -4848.9190401 -4225.6544982 -4615.4696043 
-3833.9602732 -4829.6326837 -3639.8659001 -3685.6881455 -3744.9449239 -3865.3608034 -3708.1883924 1908.6439024 1839.0225652 
1687.224541 1501.5181136 1666.3492279 1785.9374367 1847.2125926 1534.2251187 1276.7825281 919.36020681 1281.3572158 
1417.8268493 1596.6380337 -761.47552158 13511.976093 -3164.3537018 -6611.2134977 8057.8697055 3030.2124109 4755.690895 
1752.8789313 4869.6454827 2441.4373056 5474.5874144 3132.4052182 2150.9062028 -1899.392257 -2146.5610607 -2204.5273218 
-2262.0484281 -1574.5301469 -1638.5388948 -1713.1948027 -1629.2558414 -1880.9961673 -2197.3010186 -2450.8812499 -1736.5536048 
-1385.879471 -1534.4376443 -1360.0933758 -1233.5522611 -1274.9362716 -990.87722388 -1009.9495359 -509.67614264 -1089.5785936 
-3735.424384 -4286.4434961 -5269.200453 -4560.8635983 -3586.3790894 -3860.8606866 -3657.1986323 -3477.1903855 -4343.2429075 
-4845.1766723 -3484.3916004 -3356.7742602 -3439.6269926 -3259.9396542 -3435.1432767 -3597.8782661 -3623.0797429 -3552.8322109 
-3459.9218651 -3498.5093499 -3437.4711065 -3558.1655873 1971.6985286 2187.8542372 2057.0673186 1840.9432243 1756.7954341 
1607.1607663 1957.9812369 -3584.8881597 -3487.5650573 -3518.7603668 -3523.6643345 -3650.4776813 -3616.2214458 667.0985019 
324.8962493 154.98846501 359.03031924 6.2317498607 732.217124 3002.8506769 2442.6895832 2816.8350382 3498.6253965 
3780.2914945 2418.6828035 -400.27539495 -915.7027172 -884.06868681 -1255.2837667 -356.69425447 -770.84380664 5.3390421608 
-186.9263861 212.71782263 -2784.9031182 -2469.994496 -2231.6408867 -2356.6544188 -2750.002875 -2350.630564 -1974.4739034 
-2858.960471 -3095.2661151 -3266.6969688 -3360.8628702 -3394.8878321 -3343.8165939 -3165.2294904 -3116.7277934 -2582.8340763 
-2856.6649282 -2838.6836252 -2999.9019786 -2588.0328568 -776.0686836 -5099.6688148 -4542.5435951 -4136.3794962 -2708.7979211 
-3164.0857418 -3140.8781856 -4797.9711858 1922.2918153 -12499.868143 -1877.3292474 -3630.1244325 527.64128943 -3018.371339 
-3063.6172675 -796.21794688 -646.60930956 -3741.3202746 -3639.9465657 1480.1995005 1362.7078645 -1953.1019629 -2030.5085075 
-3678.3459888 -3620.11976 1598.2209763 -3474.4249481 496.31341705 280.24904437 -907.19265254 -2736.0156162 -3423.2107896 
-2698.2935516 -2801.9354712 -3251.0773131 -3403.8012845 -1206.4939423 -1199.6893877 -3640.8530604 -3546.0400541 -3843.6835272 
-3634.7035447 1715.220282 1797.4273414 -58.655537151 61.328044265 -3629.196164 -3501.5457606 1857.7202686 1871.9580809 
-2499.5104732 -2575.2542591 -1502.1231546 -1458.2932592 -260.86417677 -455.65363262 -3777.9463339 1073.5955393 930.72770496 
-3692.7485575 -3403.0020178 1104.5363079 1129.9535063 -3432.1729192 -3780.5079168 -204.89088926 -1922.7375263 -1872.0626954 
-3677.8955672 -3739.076318 -3654.1751995 662.99281739 793.58125235 -3814.0485588 -3648.9891166 -3569.4838016 1981.56175 
-2992.680159 -3163.8965889 523.07894873 276.48851994 -3258.7292638 -626.72798564 -3098.9615413 -2053.4485423 -2023.6709057 
-3598.5887838 -77.64607716 -257.32319092 -3077.5737588 1971.9305886 1950.2489982 -3377.6617134 -3501.1147384 -3548.460915 
-687.15547239 -1497.4092807 -1221.9830085 -3252.9893635 -3095.4620999 1594.0280615 1439.7399233 -2445.2523074 -2498.6292457 
-3180.2390418 -3059.3649243 -3104.7434155 -3015.848588 -2306.4317174 1956.2490388 1965.0353829 -3363.5766412 -1478.7782815 
1451.7896891 1523.5852407 -3658.0464898 -2484.9155107 -2597.1639744 2115.3173819 2115.4436968 1927.5332032 2110.8983398 
2097.3955729 1887.8185009 -3210.3758666 -2263.4417492 -1735.3769667 -2219.3276442 -3065.7174032 -1680.8808432 2134.7646033 
2103.7880123 1987.1896246 2066.4082056 2079.3697269 1923.4755145 2106.7252154 2128.5901044 1928.5376343 2077.3646495 
2079.0045793 1905.3246846 2109.8078341 2100.5833877 1896.428856 1970.2353653 1759.1202005 1491.413613 1821.2536509 
1264.9231891 966.39361995 1322.0667683 680.06722342 320.78695297 830.16039607 -76.302479224 -488.96255472 149.1372896 
-980.60432851 -1375.802104 -700.45737099 -1770.5333386 -2105.590401 -1539.3622905 -2402.4407869 -2704.9745888 -2231.4685561 
-3037.9525529 -3255.4765747 -2857.216697 -3446.0068527 -3609.1894764 -3357.2755358 -3739.0108022 -3790.8843591 -3645.3349895 
-3803.9219839 -3745.77198 -3826.9254733 -3825.2009988 -3961.876793 -3581.9416239 -3455.5175322 -3767.0575414 -3876.5776068 
1370.8820908 1627.6787521 1709.7986482 771.4833567 1098.1325492 1232.2792149 70.88513504 444.096275 634.92967683 
-662.04085301 -279.2954854 -91.075849601 -1399.8917461 -1048.7934028 -807.93522686 -2040.7873339 -1747.656051 -1588.3444325 
-2612.5877017 -2333.791776 -2181.3260347 -3089.6732371 -2901.0619603 -2726.7894931 -3416.0042182 -3315.8768692 -3213.5701802 
-3629.8066519 -3588.2454516 -3591.9569757 -3613.9337146 -3652.6020745 -3640.9547621 -3739.3659352 -3747.8817943 -3444.52634 
-3279.127131 -3636.2425267 -3636.405176 -1849.9989715 -1899.3029238 -3427.0792526 -2334.9140223 -2259.8761875 -3443.4095702 
-2012.2288836 -2353.2567385 -3495.724192 -2592.7973827 -2331.7526398 -3271.9257223 -1899.1374964 -1765.8483531 -3232.4998528 
-3287.5981252 -1681.2057558 -1774.9083864 -1980.3359882 -1679.3047676 -1478.0368965 -2225.6337388 -2122.626998 -1951.4996523 
-2208.297049 -1766.1417605 -3594.8497611 -3605.3251148 -3501.575063 -3537.6982274 -3572.7443434 -3791.8945445 -3751.6699052 
-3671.0872857 -3711.1248304 -3807.3536566 -3737.333214 -3649.6108248 236.90665063 -134.06679306 176.99152576 624.69552205 
306.42311886 301.37685038 -81.033690345 432.02015402 658.96973101 853.69010674 854.29282505 1152.8732424 899.48063159 
972.10417878 -2788.6888878 -3081.7599302 -2831.682945 -2477.3537871 -2800.2516658 -3300.4045797 -3306.3535995 -3282.154608 
-3355.5316605 -2997.8542356 -3238.9631991 -2833.1847847 -3270.9594339 -3293.8841447 -3470.2954788 -3318.7512412 -3090.1148522 
-2858.6190005 -2873.4010905 -3093.210142 -2888.726636 -2586.5176852 -3326.4160399 -2933.7320894 -1001.687388 -636.95376554 
-1377.6565982 -1160.452942 -437.13242884 -160.32798408 -570.69032492 -742.3217242 -372.02565139 -1183.1371692 -1177.1267388 
-1492.3371199 -382.04560783 -944.03920247 -390.83131861 -931.70352142 -1234.3186895 -262.13932287 -272.97245614 -644.36342979 
-318.04986918 13.434934152 -1116.5568916 -1051.0530709 -1384.8470098 -154.26889461 -3698.4446 -3844.5065186 -3506.7474156 
-3549.9541459 -3841.7383643 -3842.6082569 -3836.6310218 -3619.8222161 -3675.9169252 -3510.1881862 -3828.5906878 -3784.342306 
-3840.5090514 -3621.2367073 -3672.2043928 -3455.9228476 -3399.7084972 -3675.0017543 -3709.3737986 -3653.0529012 -3473.5464845 
-3539.2366011 -3691.639545 -3723.8625451 -3670.8997372 1773.6004582 1876.165799 1767.3128679 1552.4371496 1777.706273 
1655.682039 1725.6205412 1507.9477245 1256.9449976 1153.9077514 933.90921464 1309.1913515 1333.9375244 1595.51962 
1708.7634605 1843.929648 1627.5731121 1450.3991054 1673.5505623 1402.9922989 1687.7872458 1168.2184272 804.61592408 
1030.6475634 1270.3414631 1335.4532822 -2272.8184122 -2298.9619297 -2015.4420708 -2269.833581 -1733.5066564 -1733.635917 
-1936.8418278 -1701.9414314 -2237.5829225 -2554.3145406 -1621.333247 -1979.4053389 -1733.156622 -2352.7513409 -2028.9594938 
-2348.7637295 -2377.2224917 -1795.2090794 -1788.2932992 -2296.3576249 -2606.1326913 -3601.8206952 -3589.9210394 -3574.7957934 
-3457.1411948 -3883.059153 -3833.9475368 -3716.9703715 -3526.1632473 -3659.5966946 -3729.2945095 -3745.4903032 -3620.3214789 
-3780.1766874 -3539.8825721 -3539.4837069 -3542.8875082 -3653.0458444 -3538.5417732 -3774.818471 -3372.0389758 1757.3604703 
1852.8580536 1552.3920259 1810.2696514 1549.9695309 1382.3359761 1380.6356895 -3491.164655 -3377.9375665 -3542.5173287 
-3445.4931625 -3705.0538234 -3818.2249835 297.69961199 661.40490776 208.78274475 106.68706333 530.24861323 798.36785404 
109.798823 459.73322091 17.683172174 -89.307355454 284.67073993 641.27761964 -1252.6053145 -815.79533501 -1178.5131159 
-1148.7783649 -755.52298306 -1458.9645109 -538.3273862 -405.07996949 -443.8290459 -2624.4028297 -2981.1483412 -2580.5159746 
-2393.3940465 -2680.9661823 -2937.9769437 -2467.0980824 -3054.5075822 -3457.2593206 -3337.2016517 -3471.5450106 -3410.9675844 
-2882.241207 -2610.1048696 -3073.0251185 -2938.7318965 -2578.7164166 -3032.6790476 -2682.2921979 -3005.8262099 -3235.6169332 
-2704.897702 -3136.5205198 -3372.2236739 -3141.2307094 -3366.8702608 -3336.9892548 1854.8831244 1897.9955305 74.029912565 
1766.3245755 7022.9397361 -162.2133799 238.63044381 -2466.5903321 3559.5342474 -10706.905194 1984.6926274 -368.2937647 
-1083.5875485 -49.784615404 -429.28248315 572.80750058 3410.8965266 3698.5008421 -14381.139247 2254.7786331 9839.7896254 
2311.9543132 -5078.5015873 2720.6977477 -5221.9204197 -5235.3835114 -206.13757195 428.8881205 -2063.1836953 1904.9534024 
-9653.6997736 2860.491771 2641.5969602 2205.4128436 -4534.8197046 2631.4637922 -879.62437991 9298.9508928 -11374.697965 
1813.1429969 7611.5444492 -21692.466007 1174.7417932 1023.056299 964.6370343 -222.96586175 4988.8415669 6152.6250537 
1686.2909049 2893.2599334 3482.701638 -17940.227516 -10358.256822 3410.7469417 283.85168987 482.4319473 1188.2496856 
-3344.5566235 -411.02854955 203.881762 1356.7766792 3225.3842803 3810.1004692 662.27201843 1093.9644117 4327.1214581 
5767.7934539 169.77411305 -14152.495323 -5735.2694523 -6159.1752148 4483.8239042 -2062.579469 3439.4265892 -439.05256662 
231.66189782 -179.71083531 -273.2565704 2140.8947765 7158.4235266 7863.6159442 -585.0885239 1932.6129272 -13004.009002 
2858.1572696 2000.2914286 -20268.311451 -311.81035344 -162.73571397 -1362.5217245 -9306.5641333 -12411.360638 1597.8529394 
296.63706593 590.42310238 -2824.3625503 -9042.7730623 4339.185121 269.95925003 -1228.3916703 913.41698993 -7406.9172128 
-17691.263593 -319.37251252 -36.546319581 656.2124359 2523.6222571 1561.6362797 1415.1075718 -783.22366151 -38520.430155 
-72958.228487 -47095.057188 -99441.842044 -2493.2895669 17644.431169 -9886.691262 -8941.6512096 -10217.345424 -2103.5954606 
3544.9650334 -6165.503202 -10266.788144 -9916.9604517 -9763.709465 -10284.060091 -10091.959356 -11476.268877 -399.24799333 
37.850812777 -1149.6752494 439.1549547 30.734141891 3689.3017135 -14590.429547 -6241.2222891 -1568.6106278 -1139.5821758 
122.57559345 3591.5809304 40416.328966 -4041.5790888 -2221.307404 13003.548929 5988.8738317 -4132.295493 3675.2462114 
4454.986786 2524.097164 1370.4834167 1342.4899272 2188.8462443 2699.5826187 -743.58291879 -9.192604727 243.87462958 
-2757.5677745 -1618.5429 -2319.5114787 -12651.522695 -4505.3592195 -3226.0024174 -3688.6538427 -2490.2722208 -3400.3586734 
-4133.3192786 -5845.5346422 4470.0093284 -1002.0962621 -5421.2386981 3276.2909672 -3236.6203297 2970.894383 413.87121992 
-328.50512941 -8323.2573015 -9375.5268025 -30018.036232 25083.766414 -49843.503044 -14919.138861 2417.0287459 -21806.913566 
4904.390362 6782.7042669 -2415.2089379 11939.49298 4513.1354716 10962.229934 1400.9873375 -3463.8593417 -3154.7124861 
1056.9951479 -1760.3770508 -969.60834485 513.86513054 11.656013437 1882.8065829 -5245.1835248 -8322.6010597 -662.36500069 
2034.211564 -4645.4208419 2186.3002575 -1700.8189409 -4305.4245698 2789.008072 -4870.0401677 -1873.1288575 2798.5128537 
-3534.0252649 2656.9558871 -1378.4021312 3253.8169879 -2582.3964673 4123.4376651 -56555.349044 17921.782217 10012.991626 
-60355.782977 -151408.27004 -31425.172816 -23959.447486 -50026.65861 -41486.762038 2981.4898867 -15839.079904 -61589.157997 
-8091.0087389 70310.988778 -18511.247645 -62370.880656 -46.947356947 813.98015981 -950.00773377 1904.0284521 2181.968945 
1645.0605767 717.07523654 -2145.6509331 -722.08781204 -1861.3850864 187.59865431 -71.243133287 1494.5952068 -9741.1166439 
-5612.2444536 1854.3732187 -542.81596715 886.73486197 397.09156508 -6304.9213136 -5990.7597136 -22408.416076 -9828.395201 
701.89868048 3538.1737452 1328.1911308 5052.6764085 -814.01490867 3651.9906691 -2236.5731864 -8471.1406746 16599.917422 
2895.0526103 -24288.860772 -15377.62177 10448.405752 -1048.2109391 -104.69329199 -1035.3527576 -901.08293336 1940.1808714 
-347.29080765 2043.2614935 -517.80316472 274.31834145 -1010.5040741 -144.84402444 1231.5966021 737.05212239 851.23466338 
208.39642269 -173.35497654 636.16157473 211.2846256 3393.3510608 -132.42823073 587.1614327 -559.93680225 -1210.7156252 
-1093.8407753 -3204.2066636 -2246.367965 -3698.0789065 -2000.001606 -13455.210573 3825.7990357 -627.12502982 -2003.7404721 
461.85924318 184.97872999 345.28281963 687.31190651 13592.232152 3555.1260829 3440.723029 -1630.832799 -5510.7991836 
413.25873266 -5746.9343891 6039.132241 11370.506032 1429.4167581 -332.14418551 -3321.099724 -2661.8479117 5995.9970906 
-1914.5789515 -13621.662871 -9032.9319425 -12793.332183 -1009.8873901 1021.3246755 -302.10427581 -3457.8652621 -893.13213989 
-11709.425289 2193.7771509 -529.78007516 1878.4015743 477.80490086 801.6899638 132.22538285 -3100.5441527 587.28848921 
2805.1887697 3184.678006 4378.1873089 1595.262 646.70941944 -1336.6905829 -4912.9895121 -22626.675957 52783.1922 
-21729.68637 -38959.045805 -18708.195479 -53294.536204 15653.558373 -2839.6907857 542.00906172 -20319.993873 605.60584534 
-2290.691301 -36297.64337 -30173.136594 1570.8543707 -6650.7619639 13316.418429 26816.24857 -6869.629698 12259.161661 
-637.07720264 -13550.583597 7783.0260425 3558.6437964 9718.3500276 -444.34354442 -409.68426691 260.5285837 389.16777704 
1306.2378003 383.94674854 -732.81370895 -111.30686902 285.92094745 1172.6505139 -720.0233527 22.478410865 833.13550431 
6914.0387036 486.65124313 -41.093528352 -1640.5794724 -9202.6301093 -1807.752326 1745.3132521 -3412.602599 -1479.9706993 
519.00561107 486.40801204 361.54954783 215.1002485 1223.7867682 1454.8275892 962.46095283 427.68316794 396.15302415 
1203.0792476 -457.64285824 -2156.9096988 2940.4874786 -19529.350155 771.10814525 226.77086579 445.17026588 1500.3975862 
1367.4539722 680.93014215 -32205.435635 36180.305171 -5670.1529865 -30265.032153 2263.639298 23109.825434 -335.92601725 
-3481.2440767 -21547.820579 -4122.3853808 -3394.2797992 -4937.5123231 206.68175488 3188.3823618 5821.9744179 2700.9550277 
1736.9627882 3270.2156682 -1376.2323639 7909.3730472 -7295.1707265 7761.0768456 3734.5904916 1669.3341462 1667.2893036 
7735.7166918 -3920.4327403 -13267.000672 10311.797402 -7216.991224 270.54236027 -6343.7208803 -2187.2525066 -4594.9721698 
-9896.6673425 3425.4743806 1130.5983423 8473.2338567 -13796.207771 -436.32988755 -2612.0594635 1984.2354626 -296.93232259 
-5468.7235742 252.51215585 65.418476838 8749.7133751 -4165.0231104 -10837.460105 -4037.1520767 7693.2786762 -3637.5831435 
-5795.5987044 -1899.2321211 -4856.371589 2338.3161367 -1391.365944 -7224.8112608 347.12314828 1042.2381141 -1512.9852563 
-53473.61004 750.2642683 -685.67768614 -994.97057157 724.30100099 270.46319754 -745.27711442 3508.9066204 -4651.7662395 
53.415462539 572.59462215 1886.977603 -2629.5521268 665.00644617 139.96677904 -21.867531295 -2257.8015671 -5502.5887814 
-1252.7198843 -2557.7182949 1120.9895232 -2045.963617 771.03190938 944.61503563 1735.3042663 -1231.2559286 -1065.8864907 
1044.9134985 3898.4839212 310.18907827 634.01329022 393.93460902 2381.4396409 -1034.2433337 6697.1181287 -1383.4807994 
-701.24090898 -886.16280269 -413.29040866 -28383.222007 -38.922593325 -12432.716639 -2985.7851196 213.63039626 383.67938089 
388.97478313 -679.5082011 1915.6028394 241.75065944 -542.50791304 -0.33150527466 164.05268081 -143.57970526 315.05204499 
14856.558589 14871.619223 -50069.782329 193.60863596 195.08829678 -164.00744389 24518.919181 -3138.4647395 12923.08748 
-15211.587377 -9096.0095643 -48118.634579 1589.741293 12752.748402 -7925.485737 2101.5083236 10351.190913 6655.8431038 
-74.197014507 -511.43451238 -54.028179685 1854.2101764 -523.31139473 5933.5529079 2094.891626 789.17505673 740.35373107 
163.75069727 81.717801257 178.71684984 -248.50230488 437.07188555 352.35879497 -68.065963646 591.83370959 594.13623796 
362.32606524 591.89238974 660.62584396 187.69141553 581.53540762 -27166.953822 8341.0465731 -7611.9367788 -19607.34961 
3348.8779047 5268.4493423 2337.5204401 -240.65309151 9856.2806953 681.8798455 -279.02603952 4524.6052072 -923.99790301 
465.96772309 -83.791884295 454.17073453 3465.3514855 -11674.983313 -24052.802041 -37329.839741 42795.884003 -12267.355426 
81088.265814 -11876.472261 -835.18362844 6878.9925447 2249.9443328 18540.61799 5820.1931578 -576.0945565 2127.0094498 
-5873.0734811 3801.8878937 8972.8786109 10835.50903 5428.6905086 7373.6732441 3204.686124 9965.1655519 7940.2439374 
11875.66422 7616.5248757 14044.170837 9211.866486 11547.940194 4523.7868507 -1107.530325 -25.073980504 6884.4802387 
-16931.60126 -2551.6768439 9812.2833584 -14420.969662 -4844.5483165 10299.381251 19325.50625 -16051.051593 10514.649309 
2738.045711 4729.3538342 -1262.6328035 2935.7327507 478.89201176 2582.6847061 -1239.0808027 808.41678905 367.58937415 
-1042.9065964 1104.3800562 4555.7968459 12028.277552 -94.016385363 5534.9866568 4072.2733326 -1605.9018259 -4531.4634024 
6958.4402666 -5796.4531074 -11474.644233 -2329.0425341 20855.807588 -2990.4600144 10312.968297 -2245.5754904 -4291.6271939 
-11974.354644 -2712.0023315 568.02980575 1361.9088072 121.86797616 464.61076372 -873.70969158 -219.91377566 555.30894344 
1171.5080794 1267.2953426 -1053.7425743 2460.8599745 3179.2815509 7069.1154828 3494.1264695 16307.698734 7073.1311534 
4323.1047437 5752.3192369 2448.0904049 4303.3611984 1996.9636043 -10186.232758 -51279.910529 6839.8274412 6806.9075056 
-462.87485793 -974.64440914 1472.9311206 1799.9361717 -390.56465413 6429.0822335 9895.0252231 2697.6603659 1737.9513595 
3133.130314 5595.9097558 -1555.4247238 -18149.453931 -5614.9747859 1110.0510056 202.5354661 -13483.200836 -11274.827515 
-16739.608649 -10862.084632 -15296.736597 -9861.4590066 -13536.255775 -17156.550885 -13509.545084 -10630.542138 -18594.902736 
-9174.3308642 -17386.042253 -12305.419967 -10363.131868 -19983.69646 -12284.911124 -8953.9316085 -14579.501026 -14977.622401 
-18224.409679 -12784.790687 -11953.390163 -14811.276359 -14208.997527 -12686.555955 -11396.102159 -14173.587255 -15232.008761 
-13543.19583 -18749.73589 -8332.3462759 -13512.15732 -12634.700867 -11060.048961 -16842.475579 -14887.637348 -10153.848125 
-10704.324054 -23381.797238 -11011.426752 -11029.014109 -15845.694849 -16679.222946 -23103.647782 -10228.452497 -21186.904037 
-9023.581931 -21675.469399 -19335.043009 -28352.252074 -25899.1882 -9997.0266843 -10288.013198 -10205.480746 -24818.568418 
-27986.765444 -22699.210512 -9304.2859071 -10504.223313 -11872.03368 -10659.950309 -11161.117365 -10506.440865 -11884.929441 
-12474.248538 -11268.801097 -13258.502091 -14042.790143 -12897.743991 -14844.261455 -15315.63676 -14663.420736 -16131.735422 
-18693.236055 -16446.296443 -19794.019753 -28501.376125 -31213.153898 -31047.816687 -28917.892352 -27902.843936 -21739.553887 
-22313.664478 -31372.01581 -17873.439931 -28012.324827 -19120.246776 -21570.738262 -30586.914592 -32742.2539 -18629.953036 
-32452.519842 -11034.834534 -10318.945379 -10222.277795 -12585.021091 -11735.969935 -11520.80191 -14082.450992 -13204.926747 
-12921.779188 -15358.036541 -14729.184915 -14708.66752 -16681.793933 -16736.49881 -15959.463516 -20352.914763 -10831.979382 
-10271.180543 -10386.548675 -11539.674953 -10679.434476 -9761.586624 -12080.243579 -9497.2764941 -10776.330583 -11199.861093 
-13196.193106 -7774.3377421 -13486.32832 -10662.342286 -9004.2562643 -9924.5800686 -12497.389654 -12918.419324 -13140.042152 
-13745.137148 -13340.684511 -12376.687442 -13576.712638 -13332.773524 -11845.834028 -14299.689893 -14120.766848 -14508.6496 
-15462.182148 -13968.819092 -13741.876651 -15369.748561 -10470.747033 -10926.871891 -11135.152669 -11311.046897 -10681.52594 
-11507.857606 -12569.244463 -11466.648172 -11452.206511 -11154.442329 -10898.421884 -11872.859167 -12651.685793 -20690.784268 
-20817.354082 -20555.870778 -20380.500853 -16309.872378 -17070.295461 -19621.931073 -19849.750955 -13796.076766 -16083.793588 
-17420.77087 -15392.018298 -15164.198416 -10237.456671 -11040.327578 -10041.440392 -8753.6937593 -9192.2103603 -12624.367934 
-11745.28986 -11536.557614 -10755.566262 -10847.958863 -11046.504116 -11221.316511 -11630.336261 -16635.95409 -17392.957823 
-16739.991669 -18262.591843 -22109.614271 -15616.358456 -15374.543984 -15871.529194 -16452.91898 -15360.316283 -18555.14068 
-15982.765282 -14466.372206 -10891.630081 -11229.29021 -10654.092882 -10504.21208 -9864.786328 -11087.134797 -13643.984979 
-12655.362051 -12837.77238 -13982.312306 -14555.691532 -13112.40201 -19280.007005 -19646.026113 -17475.55452 -16476.72025 
-19278.658293 -16529.393514 -12872.76219 -13102.611079 -13665.348725 -14262.79232 -14220.103712 -14419.717117 -10394.031386 
-21085.436962 -9586.7082356 -20984.898986 608.94054005 -1313.3972297 205.21989563 1849.535741 -630.1805012 444.33573039 
1210.7503302 -2106.9552933 -5742.9922932 126.75188702 -4221.2340233 461.20794403 1549.3369652 343.58228408 -2027.9351015 
-501.93776744 -6831.7933824 23.614118825 931.81715151 187.35608996 198.50562903 217.0878185 329.89823638 -1137.0625833 
1115.5979877 -2180.2855759 -374.42680159 3596.3162687 -8662.3656015 -2432.7961886 -4835.6157222 -105.13293626 -3897.9598981 
431.08089565 693.82533173 -328.05304297 -8566.0616639 -8964.1623852 833.52210337 1002.2333929 2861.2965025 461.98337455 
395.49116887 2610.9192605 4257.2404195 535.84306435 -3720.3006025 1618.3676432 35.329874025 -1061.0657451 -551.00675411 
-1322.2623082 1505.7859944 472.71503361 -3240.4758605 -45.210059362 992.34581171 669.02414163 -3608.8258089 590.83513908 
-4580.7385914 185.35346931 -448.44608187 -6319.7923196 -571.12625784 -1124.4278713 -64.059445692 -4946.7921589 3535.9259174 
889.29984775 -10435.332609 -1540.3048437 -85.192741743 198.56001793 -220.11926376 -716.01112292 932.68295643 -6188.8929114 
1256.8940717 745.70465677 622.57870397 -1711.7820581 -449.62262575 -5850.2777958 953.62766337 89.324408526 -1178.7509523 
5070.4572308 -9719.388209 -9666.561343 -5699.2779997 -474.28210343 -1245.6847722 -39.094759183 -9496.5243821 -5156.0434069 
-343.49380523 -1755.7639919 1895.6678273 3074.7112416 49.170879156 -1295.7807031 -571.27308236 1835.97364 372.40272252 
2148.5419964 -352.40009834 -472.43246014 -284.47073205 -174.59028279 140.88047461 125.16224713 -2869.5838783 -30024.048786 
37650.301612 -10226.987383 -9093.1357535 1184.7808816 -10056.282264 -9524.7152166 -9459.1280302 -31606.485333 -20982.550202 
18159.421069 -8731.844485 -8865.5723986 16421.423946 -4997.2985381 -2089.4013657 10400.906296 -616.66510326 224.73336242 
4289.5482774 -921.75158211 -875.26592161 2170.2432581 34.594787135 -10664.561757 -10182.666042 -9505.3641164 -10921.689002 
-10258.963213 -9285.720233 -12225.621293 -11433.320989 -9709.4400594 -12392.080183 -11251.352626 -9833.33269 -14480.630092 
-12605.399518 -9470.938556 -10712.844569 151.63765267 706.48863668 -1216.1226718 992.4507939 3615.4950202 -2403.5721765 
4510.9193799 -4665.8920525 -6077.8568404 -654.9582983 -40.253107357 -5995.3060212 1005.0391319 -1323.2402481 -333.72603431 
1608.2605147 -1154.5380669 441.79606652 -704.08545914 684.52023582 2309.0272809 -142.39018048 106.85103708 2126.2673823 
161.75257455 625.89945981 -2167.9832423 1262.7434212 648.9562355 -3020.6203547 -420.68787115 -293.93748931 1031.3290895 
-306.68431176 -196.69955266 -771.849056 -2422.9618444 -351.64332711 -2972.3331126 -6.1460781255 53436.187722 -64495.652026 
2734.6806271 11902.497163 1372.2235313 10055.340078 7288.0531564 249.9093342 4087.6855706 7985.4520231 2083.7051337 
2140.8745539 5277.4815311 3479.8377376 -251.30212031 1288.4112626 808.43525929 -2173.0976776 -968.37707707 -513.41168598 
-7735.8954675 -2570.9516594 -3032.1283257 -14471.202632 -9649.4045774 -5389.2827335 -12008.486674 -12052.340702 -5338.9530664 
-14704.883925 -12773.375964 -10449.927038 -4524.082647 -5481.8852481 -10721.532733 -8725.0185375 -7532.6792922 -9477.2297117 
1237.0359809 -2332.2445597 -995.66123909 48.364990574 -207.26500829 -614.13837984 311.82043348 7191.2754842 3442.2996513 
-1429.5318363 -2302.1491425 -3934.7205598 -2078.6590731 -1504.9049579 -2412.9826375 -1278.6586452 -2361.276429 -536.41594118 
-880.67159022 -828.72172044 -1069.1344991 -381.53470728 1386.8941789 2065.988363 -1985.2147155 711.36698864 -4177.3244624 
-808.04010546 482.72791958 -5921.7037185 2031.4871736 633.91904393 -677.46507127 2450.1752338 -725.56409106 -50.033750829 
1840.1614072 637.40386006 1010.9353739 -825.14462927 2614.2527561 -5373.5984902 -4891.9667299 4843.004481 -744.13034165 
5393.1538679 746.85876166 -1438.7358849 -238.0545858 168.18289868 -735.54905233 371.69896315 -629.36919865 -427.6732344 
176.52914329 -956.61179027 -794.41525628 -1018.6217687 -1414.2740913 -1075.652134 2835.9018555 677.72894162 -181.87440496 
107.95752857 4497.310055 2234.5552294 2091.1200065 3356.7220034 -769.67228471 -603.08569326 -516.79577743 29.980759029 
1915.4826406 3928.2965086 3593.9503131 5793.0471207 1453.1344536 -743.82574185 1952.6039211 2154.1015009 -1255.830057 
-692.32608688 2983.9462753 -110.56974628 6359.6542914 4463.0998375 -2135.2713992 -1187.1679511 -6247.0811924 -5916.7191154 
-1430.8369728 -312.2359424 -1247.5057277 -5243.7402849 -3189.0145751 -5914.5900121 -1476.7412811 -652.72716084 -6614.4324058 
-6039.3103181 -9053.6165272 -7419.5942564 -5187.8607357 -4354.2292595 -4453.8343698 -7494.7293468 -7621.6942301 -6097.8929832 
-4733.9031086 -3464.8551888 -4948.7339087 1216.9086836 -555.25410961 -69.545751688 1543.7678556 -1194.2286865 -3496.5106039 
-566.19571482 -2589.0480002 2917.2694453 3682.6320793 5971.7488869 2264.2651825 -1923.8673184 -8513.9122321 -3652.3900723 
-15922.919132 7641.9933446 -28224.338826 -238.56728121 -12913.508059 568.0892807 -2981.2427879 -14695.681758 3079.7947251 
3227.3523836 12887.854971 2129.3692008 -2214.904927 -2262.0580105 10170.361334 -923.93840999 -628.29371244 2868.5929641 
-204.53231254 290.95644252 -2151.299909 1173.0140608 720.91972978 4800.0011437 228.3782794 1137.2992189 -4408.2504735 
1626.9119357 2837.2505204 3838.5099648 353.15734722 -797.54465723 -3290.6945775 965.93066602 -1618.0601879 2772.7161538 
-239.17268237 955.24005491 -343.47830264 75.550194621 5024.6466715 1320.8160432 -2030.7986867 -3855.0773011 -3387.4446428 
-1583.1194575 -1515.5140039 -2799.675886 -2342.1565186 -3381.0959837 -1004.4951352 -1648.6989194 -1104.4035963 -2282.2776539 
1811.0825918 -2738.7516111 248.79034741 4215.7023152 1931.7773722 -883.58947635 -4175.9244445 -7590.616484 -5097.4957557 
-8829.2109541 -8031.9305079 -6520.1809875 -5206.6852868 -1853.5652182 -741.40308653 1093.0938773 2178.9703018 -219.90960942 
32138.390651 -10160.481205 5975.3779371 700.02334988 1484.4721842 2447.9977646 -1813.2741236 -635.61893537 -665.78461057 
-106.92293109 5553.0560629 -168.59421429 6927.7383468 5918.1124897 2.3252228511 405.50571984 6528.1306392 -449.80637472 
6329.0059487 -4804.0866829 2568.2517653 81.530927237 -173.77453392 2610.4393427 202.11493463 279.66795695 -564.02817006 
-138.74811368 1348.5653795 -107.94443761 -59.147578184 -1222.5054376 418.26874397 -1738.6025992 1391.0677373 909.57320684 
-2943.3843354 -1592.766166 -3491.5735463 -2189.9740385 -1138.5613141 -268.1579501 -2861.8955088 -1758.7063103 23465.392696 
937.03769776 453.42703313 -1250.4200179 -222.75173562 -935.0141452 2132.923967 80.614050604 2799.1432795 -4691.6274037 
-1836.6751621 414.15721896 -2991.7736463 185.24503252 545.00535136 -2301.3916302 273.81979013 -240.25059469 -6171.9215215 
1926.3104689 -1112.0528027 380.38311317 -423.54890199 -371.09773154 -53.110864799 -2071.856525 857.20975033 -2260.3121542 
-239.7080583 4602.6064315 -7311.6654766 -2242.4415617 -4355.2905465 202.3635254 467.11073918 -120.97617154 -892.63994291 
1272.0065342 -8172.0473723 -8087.0681094 -51.846365383 1330.5217727 1323.1629718 935.87028966 586.69800945 1776.4592701 
3851.6557323 -163.8106681 -3090.552033 595.27571477 -204.97817936 -1289.6288621 -1080.0868928 -648.18026879 -300.75860731 
162.76687775 -2596.5778438 1032.5517931 1375.8974815 353.04970202 -3270.4768319 64.17036095 -5537.9955522 -545.14925057 
-127.70731527 -6321.9412454 -827.50075658 -164.69561388 67.194153962 -5398.7122664 6575.2961612 2188.9440645 -9945.2374426 
-1568.8194468 1154.8152388 -413.56936861 -351.50290363 116.57408919 2471.142191 -5315.6829894 485.7339224 2071.8162475 
-182.35697789 -1159.0114385 -60.727137215 336.28945585 -3296.6035609 -66.787089103 -38.187704543 3381.8066745 -8464.6526452 
-9869.4570176 3591.5493908 155.0638821 815.1358086 -1873.6376998 -8340.9328193 -5406.1518455 247.56705283 -1847.5438613 
2019.4458721 -4698.1073112 -93.961285922 -1786.7096146 -864.55443661 753.1829341 914.93217444 193.04100885 -565.00797458 
-256.20193223 -601.97559117 -67.719370785 -513.97176929 59.079458508 -37720.549092 7952.3201605 15355.860206 -11404.71264 
-10208.415743 -1686.9740422 -13655.264348 -10463.894706 -8993.5854381 -8535.4272257 -15996.745648 19107.97743 -5249.4744628 
-6786.716994 5708.4693396 -2003.3628898 -2967.6808534 3881.1093451 420.57267971 -2120.7062927 5391.3042652 -105.52336869 
-1296.0271592 2359.921132 158.44605939 63490.027336 4074.1889171 -34238.507358 26199.550635 -6937.1139487 -1116.4085243 
3808.7007048 11419.425172 -15602.042159 12953.364701 -6414.8384377 -2602.4095659 7398.81427 4269.9886422 3085.5621966 
807.22742664 -444.94683108 94.263289148 -2573.5093424 -1129.3053179 -957.11527938 -3863.6005378 -10360.165736 -3779.2467571 
-7556.0271085 -11236.581008 -2396.2402321 -15173.700163 -15411.087471 -3916.4456199 -13243.672378 -17710.573898 -4658.6662387 
-11032.093811 -5454.5352825 -14234.930455 -6295.7773752 -12638.975702 -7503.3293293 -9528.8619448 -10057.938758 -7843.4816616 
-9595.5123074 -10438.655066 -8594.9704772 -11358.437228 -12164.415958 -9069.435962 -10971.512264 -12139.30017 -9180.4631499 
-12680.345932 -13412.890685 -9160.0666202 -8920.3374085 831.83875062 110.69702525 -17.803199428 2085.7726072 2446.9431411 
-1314.3857575 -141.35507059 4129.7311281 -7297.0943501 484.26814609 1445.4152261 2431.2638603 -1386.1818914 381.31738212 
2478.7443398 494.54199887 -625.06032495 -575.79005031 301.32157188 -795.86309227 1334.1739073 334.41751678 1408.3942016 
-1518.1810781 1058.8007224 325.13784782 -3967.3627232 540.38341641 -389.01498732 -555.04559979 524.6888576 1628.1931633 
-287.99805975 1909.8520794 -1602.7274885 -157.72361758 -1639.5828287 -1676.6049394 -4060.4537223 436.30522186 841.92949642 
2800.0206129 -2612.8995006 -12.680727268 -412.50600192 -5060.2742991 3065.370627 8256.5173242 2227.2193482 -1971.5427223 
-3293.7255257 -2060.6317323 -2081.2005889 -1489.2752129 -2168.5082491 -1083.5234154 -718.35089738 -819.60895678 -1218.5028335 
-1007.065744 -545.29210485 -2982.3074165 4602.3586044 -985.45640707 -242.06259861 -1803.7044681 -6059.7309003 3120.9275748 
6816.2841469 -6128.0621223 -935.81483171 162.75591448 1276.9278906 -309.66958847 673.3956314 -464.06513916 -563.87790955 
-484.29315318 -983.83628938 622.92025384 -1036.3502066 -925.66612243 -1350.9275923 -1226.3342302 -1575.4105333 -1372.18228 
-1521.8648853 2011.5412065 3045.9164113 -121.03864088 5189.2585023 -111.24158792 5178.4362478 -4260.9489279 -7599.8435892 
9443.8675307 9724.7203887 146.01769168 -7434.7305233 4263.5023628 -3725.975798 -366.28156729 1947.4051546 -1044.3151416 
214.5365215 -1995.4165759 -1230.30498 735.63831674 4571.9053901 679.75187099 959.82323878 -3978.9565728 7157.9009775 
843.41939335 4674.7226724 9526.5583589 1534.5146247 -5152.6867263 9089.1702214 -941.82860094 4728.9360586 2258.5911128 
-8296.9152105 8061.8912423 9987.7924434 -5137.1317253 -5839.2006229 -6711.0630605 -7512.5752765 -2735.0733623 -3645.6298894 
-3915.4534562 -5245.9400527 -6741.0965481 -6115.3544183 -2785.6678279 -4018.0884368 -4168.3432073 -798.44798641 -2028.8492755 
-6574.6465495 -6133.3135049 -797.38155833 -842.9549033 573.2775465 -5441.7911914 -2712.2002483 -4754.0562811 -1586.4806706 
-580.14375434 -468.06860211 15.238336513 861.45058277 -682.00207205 391.4589538 -4811.656356 5483.7013716 -4978.0866968 
-277.46929812 -4843.8556852 -1038.4520725 431.43249519 885.44710791 -5921.9399253 3105.7289097 -30166.406168 1616.448157 
-17732.963846 4902.8460743 28.797451624 6815.0501075 10823.808585 -13100.890824 -184.08024778 -1253.8204312 -46.810806107 
785.60688308 1467.9289593 -338.15654067 -5351.3600794 2775.7438053 4495.5104815 -3244.8653007 -1118.5616274 -1529.5845289 
5862.9953624 3507.0145593 1281.8992376 432.65103598 -357.74524523 -3791.4210265 5493.2525433 -5004.8891699 3417.6172263 
632.00789007 -812.023982 -1688.852664 -2582.0760812 -3483.9437681 -3963.5417035 -1344.3498264 -2250.0865936 -1791.9496548 
-2058.7022826 -2028.3789827 -2863.1253609 -2870.3282811 768.19486977 -72.549706793 2335.5211998 365.18603676 393.55069561 
-1156.8006372 -1803.0620844 -108.79448693 2653.3992035 -1845.9964128 -2915.6675581 2894.4055122 1031.3497455 2721.3255054 
-290.61408354 484.63453552 -4289.1964302 -8242.73365 -7252.1854355 -5750.1040248 -4567.9369333 -7111.08834 -4691.5562944 
207.73852782 -2181.4703295 3150.3266225 4217.4045004 -2326.4244875 9205.9372275 -179.0272367 -1109.829888 -1457.6347924 
10691.941084 -4105.770657 -875.34705538 -1232.0184546 -357.57644982 -68.503843462 -3765.7983847 4766.9742563 1990.6318742 
7557.693395 6520.4304785 1619.7231916 -851.08706094 4515.0115358 -1129.3526479 7047.587845 -1522.3435571 1835.1139316 
2361.3530856 1223.1635988 -303.20819702 -613.90550534 -671.14491686 -1031.3939869 -395.94606514 780.20415198 -517.09499307 
432.90432164 -6.6101495709 2746.2388327 -1999.1817029 -2311.6628388 -4979.2761268 -4960.6424499 -558.42578241 -3911.736453 
-1979.1954008 -1527.4100432 -3477.6283009 -3025.4303616 -2093.7289543 -1807.8017661 7441.9076169 -120.58289551 -727.51513844 
1557.2031912 360.24244299 1241.9042744 -2941.1444987 2420.0568783 354.37246077 60.102504143 348.948637 2792.2936221 
1847.8126717 10.901560838 66.541815902 -1710.2905551 2811.7095036 2249.1339243 1836.835457 -1988.9759621 -10431.827985 
3693.4424948 -1822.2515612 293.5511685 -77.927663978 206.74003726 -1316.676813 1718.1767603 -1925.0485729 738.57994667 
1066.0439538 1661.4608896 -184.74405991 1173.2466676 2714.1709404 2867.4431949 -2034.1255271 377.05735247 4242.9494534 
4509.8831233 -3589.2688688 4061.7713222 340.70186419 1101.8044526 -498.66660368 -649.0323018 1690.9017845 -190.39952057 
4102.8679526 4128.7001568 2702.5369613 -7329.5805769 -817.03934064 -572.12394999 1012.8610629 5697.0004902 2277.1496598 
485.73503748 653.12121089 -2052.3729226 343.86365459 1759.1649543 427.1007248 -42.431394811 334.84532222 389.20237674 
-30673.095604 1153.7326819 2854.4665329 -3278.7641573 -4921.4317604 223.61812305 3793.1748251 16534.729765 -24591.571937 
1590.626873 -394.64284933 -11473.463775 -434.0912391 -16665.653873 -5240.3069436 24636.48153 2915.3675558 -9928.1228054 
17372.083698 -28479.251188 -30432.219235 1382.1643402 366.22860113 2936.3303095 -424.1139803 666.07816631 -2603.2018821 
-779.73898162 -1649.3128587 1185.1615687 -2066.5290623 -5465.5122637 -1431.5281536 1516.1634924 -2572.6155145 -2431.0553096 
3131.7473097 -1338.3781846 -1067.4692942 -3812.6553015 1853.0479688 2176.2415591 -3774.8104341 -2821.8961995 3817.6574277 
4869.1373094 -2495.6916248 -2604.618361 -414.62332066 -4656.939115 -6093.355276 4254.6059005 -3115.47917 -1114.2886022 
-3256.2443044 2365.8961689 2521.1252087 -1719.460972 -3444.7492279 -2066.5714177 -4716.0390406 -96.041088326 -1553.662345 
-376.84172354 5453.7628153 -1899.7657274 -1226.4995465 2113.8559489 131.72174273 -1768.090818 -4790.7003489 -3259.0609966 
-895.35243742 1027.1062573 -927.24428582 1181.6825615 1443.4773398 3382.3035608 521.49568514 469.72908827 -3952.7648719 
-2778.9318292 -231.80016102 1440.2686637 1204.0778941 3641.7903194 2041.3333462 -3033.9324701 -7278.8145729 1466.9680044 
2133.2778411 -20452.21997 10121.253272 4110.6206484 -9798.7907958 11426.022059 -4724.0258855 1195.3227773 -2430.2178552 
-2639.0334469 105.36829765 -798.20249435 193.39335963 589.6766991 182.68199192 118.54671129 1836.3036331 788.31738666 
1907.0759895 -288.75509063 -655.42677682 529.01828836 -1528.7102357 -91.786677609 2735.3743631 -4885.7318834 275.77552683 
1711.421285 615.63838792 -409.54748741 -2756.3654063 -1102.0852116 -1255.1183189 -12808.501132 -19140.712115 7834.3157082 
-4906.9835703 -24626.169153 94.875927844 911.42047168 -1159.6797807 7658.1502267 2205.5166116 6426.0679557 -795.67124243 
-109.38188242 -1782.4028508 -1847.238583 -4271.1430902 -2560.4923754 346.55466037 -3647.7544245 -1703.0374389 -5938.0905501 
-923.02805653 1312.6301635 1636.6131758 905.8891167 -4341.9915289 -2160.650367 1597.3999772 1827.7596428 1265.9668492 
2958.630372 2185.3023509 3297.7518867 2204.0564209 -10440.162556 -5078.1452094 10482.329165 1586.6628096 -17204.993521 
-723.45644286 -5616.1643537 11229.36708 2609.2138782 -1345.3499651 6519.4097813 -4623.9435824 -140.45619061 3312.7944117 
1304.2223323 532.07953837 383.11053995 117.260504 -946.30807075 -734.33747442 -216.34084319 -138.63141325 -795.37455376 
188.86943129 5947.5962752 -7030.7583142 -524.69650218 -818.37521918 -1172.4848251 5765.4203527 -2197.2611468 -1478.9015018 
-187.04813404 349.52002235 509.83223466 -150.97704328 -24.878806373 568.16733128 951.51882098 679.03820546 1128.5772066 
772.56031857 -117.05148788 520.29610578 150.92477135 19.462414989 -325.92701807 980.34049742 823.55891261 2503.8592554 
-5570.1363686 -3955.6440264 -4432.8399699 -32531.028201 880.6210477 -548.88065631 -6045.5990577 -1054.2681728 -7609.2252015 
-1500.4864791 15074.145953 -10591.533316 -1427.3821356 5448.173627 1666.0649999 -4748.0738716 17061.769499 -14509.806331 
2420.0709614 -3892.8913176 -24647.592286 -1571.378274 -2234.6484058 3723.5033915 -8389.657631 2529.5659381 -2346.9267621 
7478.7688093 1505.9608217 -2243.0285632 -4129.8019146 1398.6293065 495.87301342 140.61505161 -12093.758588 -1943.9918443 
9560.6262766 -13193.539519 640.73820738 -1998.5297461 -4242.7195358 1948.4042987 434.47052574 20.738464138 805.29196513 
-5803.2191018 -190.27192452 -188.20346656 182.10604924 -901.82732434 -963.98737113 -251.17279645 1775.5714688 1034.1853991 
103.48387342 -112.55986808 59.273384664 -1062.0246434 229.01044378 -9.190486189 -1839.3253532 -1290.639068 -813.39544694 
-310.17457158 8.432179115 -768.52734215 642.84722537 -590.93272196 -584.87117703 -1357.1175738 49.8616454 -2503.5849575 
118.77478843 16.812314594 -449.67036693 6174.5543729 4007.3574564 454.66909315 569.93274055 -135.11519906 -89.138681672 
7.6859389572 1851.8844123 5235.6835592 5324.3048457 -346.11813752 -120.26781708 7.0862413402 -114.27986714 -415.09181618 
531.31953909 -1041.2977644 854.98107098 -143.86380508 -598.83913116 -546.92452388 879.38867223 -868.26469899 460.9749107 
1091.5819861 643.21412229 268.69319624 400.66242074 -29.12171283 394.61179288 98.88898091 -718.39346701 -841.93362198 
-1321.389788 -5479.4381508 812.69560993 198.43354986 573.43530819 -202.95359903 -806.83139751 157.95077512 -339.5908538 
-2555.5302815 6807.9058359 -491.14235315 -1335.7810542 -567.0174924 416.72279488 320.21019467 -16.190616987 -648.90400129 
-1725.7412757 -281.73288971 -178.46875971 -491.16204642 -348.32028095 -1046.0748094 1476.2516809 -1480.2887735 393.96747693 
4847.3981848 6354.5579537 -1058.8733958 -1650.722933 26.466433127 -198.33020737 4993.0177104 8301.4743511 -1072.1201857 
209.593315 1064.3316013 -188.28342633 52.902765782 58.432229415 515.42438587 -1044.3445003 226.43710414 458.12722704 
-1672.1996602 362.49513967 -169.8353594 -292.69985673 -193.07055049 -146.87629623 -110.52991202 205.0503568 -6483.1324316 
-8079.2508696 1437.852964 -7396.6294098 878.22463579 4158.2736047 -266.33354983 -310.09383485 -283.75258565 -147.90390115 
-84.026167185 -274.79798643 -316.68816897 -182.53622646 -30.549744802 -374.61806923 -392.30335718 -166.5389488 -123.75730149 
-315.221363 -238.27637507 -103.30631323 -5174.7969326 -1781.8911466 12378.92637 -486.00573348 -1585.4419977 3897.4943922 
-5522.1335816 -5619.2062487 7946.9607871 -2605.9929227 -6211.7254862 -3194.6151944 -2544.3687466 748.24333688 2838.7779452 
2367.8050916 -299.01056266 -1517.8353889 -908.72633733 146.96258029 -591.18863305 -3016.6946247 2783.7548826 -4661.9845647 
-14307.854787 -744.42185534 536.89652477 -9988.014681 -1035.3498047 -275.53972692 -1994.2273545 -164.03312925 -116.38742805 
454.77845354 -199.50624365 429.31622002 1431.5912377 25.726051489 -174.24499569 1979.7801827 647.61665274 -1389.9702694 
-829.30388979 -1272.9630275 -431.99031725 -2386.5045632 197.20844123 328.07760022 -415.27467563 223.18515393 573.86349468 
397.31220302 4736.4573345 17.224409494 7602.1058746 -527.34153958 -362.84761547 -956.50979331 380.97246503 -763.84749096 
-2540.7415906 -4747.3037937 -2006.6838635 -8884.1551026 77.303396129 -318.44122784 384.95363505 -1212.85863 1585.0895484 
3776.973025 1466.3173261 391.14781756 1771.8018454 -1288.9563015 -160.19358754 2816.9755609 -528.37818521 -1561.7222694 
-2807.604088 -824.6978061 -502.76265632 -4245.3397117 1262.3827388 -3137.0309446 -3861.4153658 1752.5836961 276.22792496 
-853.22364134 422.87935344 685.20423918 652.88220471 2799.7170403 -1484.0681113 7171.7003943 3351.3091979 -1778.626522 
157.96047347 2117.3511049 -1773.5474109 1705.7290813 1948.58634 -6582.8098397 4322.0866103 862.21121006 525.01956397 
-2438.7916036 -9068.3415703 -2669.1480219 -702.85833 -2785.2448349 299.98240717 -1072.7126572 1192.0523202 -3.0134178408 
-3144.2830026 1398.4211435 -3635.7882425 23.221672745 -2940.4521662 -7552.8985215 -3860.4910402 -2104.1749451 581.25105246 
-3988.1335316 -6521.1490393 2440.9885547 -5752.092016 -6041.7257702 85.263804603 -6395.2433794 2997.654322 -961.12541999 
-4096.1051105 -9403.3009271 -2609.9742808 -845.31631265 -2351.960102 -1193.0683824 -4672.8499487 265.48524861 -5389.6665513 
-3465.0825745 -2146.1641872 -1681.8596515 128.4319096 34.783685894 1177.2258289 -2534.830374 -2050.6109564 -594.42920761 
66.747569417 173.58457922 1306.1522816 1326.6203504 3507.7928914 -3882.8222602 2294.6864029 583.6429956 -549.6164699 
671.33078596 369.55464823 -1821.7565296 740.18628025 -2962.9355871 7660.7929868 -4112.3458265 246.2615449 251.08807701 
1272.5787272 -304.44339727 -103.66741504 193.11402634 1284.2801375 6991.9790817 984.82736986 5190.7702608 3996.9198062 
-1292.0366371 589.60715703 -639.43657896 -430.51287068 2270.0663254 635.00817361 6541.3056496 973.24621664 452.04766838 
1166.3118301 831.88292245 4290.2134648 2347.6011445 -536.00502817 843.36495601 -27.846609514 12.61328097 2848.1523797 
4574.7387469 620.79364515 -258.44058617 -344.07051364 1106.0404797 688.09477691 313.50929451 1203.7866991 -804.95015053 
1010.7480577 -102.65645621 -303.08227052 -794.05294071 -282.21914927 1777.1687079 60.952448743 -578.36076134 109.81670277 
1572.6135045 -1126.1820734 587.05746643 2082.7572538 157.20306819 36.347235126 -1261.7659932 -817.81967382 -672.93974211 
-2187.5584243 -128.1677134 -806.59689747 -645.76134388 -6092.6583007 -2518.302353 -1191.8995633 -1271.3009386 -2243.6300328 
-305.58503782 2762.7142147 175.57349028 -2874.3526516 422.93491253 1703.9587419 2468.68233 935.32855309 -1682.6581058 
2125.4422984 -3014.0201736 99.252931787 -1359.6500674 -174.33504034 1564.330202 854.45922243 -45.776149139 727.43864651 
2112.7504243 1269.2966639 -1497.5993781 -5745.1845659 -11239.658225 -5102.8236054 -4606.8440988 -6689.1456182 -3515.9530045 
228.01498516 -2860.0379669 -442.51299702 357.47797437 -851.24280746 -380.8343226 12.769083283 -1133.7575312 1004.1494182 
-3588.2546784 -712.22429574 -6101.1002176 -7540.5684213 -3046.5601573 -1883.1733031 -2070.4719028 -543.78868692 -166.6799543 
-511.40841251 -335.32088626 570.35074177 -674.98724718 -491.0458579 396.90703274 1792.5743573 2207.5335801 3485.607757 
-786.37079832 -163.58395878 -4002.1944344 -2271.5461693 -557.27846555 -1429.3366985 -2955.939628 24.662186417 -1884.736103 
-5440.75351 -2657.9840828 -1226.2088696 2456.6539221 -1514.0866926 449.09486481 6219.7119465 -2118.5483433 1164.9087276 
8157.4904515 2913.4957277 -7746.5863324 8702.2070078 -2336.6457213 -1301.2914401 -641.5833762 -732.35150012 -2928.198178 
-385.73360184 1890.6868453 -350.78763786 -3686.5923585 369.72264481 -1115.2782656 -3519.07124 -2114.9051241 -2302.9642939 
-4608.7235049 1394.7079575 -989.12217234 -572.79144903 252.47235453 -274.20533776 -228.38123578 2339.7891189 -3274.5330435 
-300.33798627 -1121.304713 6.5719785703 -51.745583113 -3174.6498263 2222.7003419 1972.5315692 1307.0597191 1242.6072932 
2370.6005048 2569.5977349 2671.337359 2626.1602552 2226.7828089 2701.118986 2722.6945902 1753.6151693 1038.356662 
2327.4478147 2556.1105283 2915.9948318 2697.5632906 922.70948156 2248.0355746 2717.2805288 2259.6958491 2252.0234543 
1311.9893307 2790.6159201 2568.2860247 2146.5674874 1737.3498652 2579.5120989 980.56101 2749.1538319 2774.5959517 
2307.0014603 1297.0974521 1800.9553716 2438.6850419 2738.3759318 2620.0137177 769.40513071 2560.6020542 2796.9953492 
2543.5060699 2054.6726372 2741.827878 2317.1145233 1206.3980888 2246.7021249 1570.7754915 2149.6730137 2602.8314324 
1855.0239778 2729.5958852 2327.5617276 642.37220903 2387.7558874 2602.3148004 2473.077494 2172.361305 1904.3631871 
520.36930999 509.15945224 2828.0198967 1940.6157583 1667.7909867 2664.2288935 2297.1613885 2654.4301412 2792.6125681 
2273.2181938 2481.3912271 989.9427058 1875.9587016 2529.7421051 2645.3408943 2686.2656899 1399.9878518 2726.2292364 
2152.5181812 2537.8409018 2436.4274523 2261.6869191 2733.0213509 2144.2549885 1915.4898323 2844.4921355 2377.8470728 
2774.0607128 2523.5664006 2729.2953454 2570.7099818 752.813015 633.85443263 2608.5717747 2849.537913 333.10546887 
2346.3387456 2843.7304552 2497.4114294 2150.4057221 1369.24892 2476.2959075 1513.2344937 2803.5953754 2779.1773145 
2796.7735047 2860.4136291 2826.5081413 2807.9451745 2866.8523878 2822.1525474 2415.8580519 2343.0879034 2562.6300115 
2516.0418449 2504.0823297 2445.8073809 1146.2374067 1001.228375 640.97449492 526.31208835 540.92604042 866.31553641 
584.24121336 1034.9885665 656.01683484 1994.320752 1400.5866318 2000.6227494 2377.0225043 1931.3449313 2139.6774272 
2022.7488208 1279.9876407 1364.3779561 1495.0870197 792.30973583 1593.5505188 2476.4543609 2547.9507052 2289.1974255 
2383.1211544 2473.9733468 2657.9095595 788.56347181 784.94467897 111.70537687 361.46385859 585.2330974 564.56452228 
359.56635417 3202.1382656 -1216.9732231 5990.6416903 207.50419053 14331.756603 5371.6772073 6065.843895 2601.3834478 
5161.6618315 5172.9781916 8297.4623248 2472.5068269 2460.4075966 2556.4640127 2636.8992419 2525.2908595 2417.0324019 
2515.8957539 2680.696329 2641.9857233 2611.8344649 2640.1040908 2607.1796086 1981.1044961 1744.06634 2160.8368219 
1934.8688401 1423.7972204 2187.6997712 621.4947788 2337.9530796 280.00068657 2561.7924423 8316.9966591 2355.4888899 
2645.1468894 2577.2104496 436.96320628 252.86167229 265.14610602 801.19452202 301.19291543 1171.7809271 603.9732183 
2717.9865435 2560.3354519 2486.1501781 2579.6615338 2448.6344415 2605.6702215 2781.6058008 2816.7358924 972.58866236 
1101.5429433 4842.700268 3778.7045132 2392.6680256 1341.692106 732.09114191 1038.6579411 1428.1383395 1125.1349232 
967.52731883 1778.496714 267.26009469 2526.8834874 2663.1005901 2559.7280715 1967.2933396 1655.6302667 2053.9808295 
2096.5102645 2535.5088671 2770.3803176 2472.5818313 2998.9284433 2452.4860399 2393.580636 2561.368679 2491.7991182 
2549.3694243 2725.8894611 2797.2651455 2703.9126823 2800.5454673 2835.6299201 2108.9248702 2040.4332947 2708.7068431 
2489.6407683 2711.0249744 2385.6073276 2385.4442479 2206.72005 2359.239631 2369.96675 2529.1415254 2488.4223433 
2624.4302729 2625.1000079 2641.9826197 2711.7972218 2717.2037013 2620.7088461 2790.0541462 2724.3396399 1852.4348262 
3813.4750188 2361.606539 1963.3951468 2846.8444961 1983.2271474 1777.0759297 2131.2474916 2904.145391 2203.4231567 
2367.9126711 2245.9362083 2625.2520253 2617.6065301 2672.416114 2062.2473949 3656.2582923 1203.2406037 78.326828002 
1815.5721234 1081.2695203 1554.7712524 1916.1031331 2062.8714405 1870.5874663 2721.5433889 2753.6247139 2725.8421947 
2362.1248691 633.80300137 465.40099876 2366.4025229 2522.2980191 2449.6370528 2778.0702962 1868.5382298 2074.646656 
2646.7426977 2663.6311761 2638.4278153 2664.0772973 2546.5670111 2742.5972699 2761.0534978 2657.5368683 2757.0482508 
2787.8640598 2754.5082341 689.87237948 2647.2718355 2595.5499972 348.29256668 420.51966887 2864.4009653 2805.5434933 
2832.394515 2838.1054697 2727.8172948 2849.8798084 1259.0606806 1741.8668884 1757.3076389 2788.9091409 2873.9946367 
2870.0097981 2427.7910897 2598.158033 2443.103923 2813.7198323 2733.1632797 2690.3516664 2793.4424426 2798.4072766 
2725.950518 2770.5404311 2826.5033054 511.12974508 4000.5215164 1690.2111788 1690.2638473 1096.4101708 1304.4325765 
2352.2661596 2413.4036597 2460.4266973 2541.4150913 2492.74914 1607.4472988 2000.1517517 2173.8015566 1343.4392258 
1603.0224052 1583.1050021 2842.5341965 2821.0975688 2888.9495199 2808.8448998 2810.4209944 2762.6236941 2688.5872445 
2636.4381296 2589.0855183 2720.6776199 6911.2644308 9753.1739778 22569.417842 2533.343971 2783.4116816 2781.4387037 
2829.7383027 1583.3753931 2001.9780148 2643.8911495 2622.4666884 2647.0060211 2524.7370349 389.43636954 841.59032385 
434.5772057 2152.4501772 2431.4616698 2994.3242629 2255.5343479 1910.4594908 1929.5429217 2617.6876676 2469.6800365 
2649.0299363 2624.3719019 2403.0310135 2355.213696 2519.990032 2533.2972515 2648.3317639 -20030.280551 16601.805083 
35803.790153 2528.8657701 2393.7071977 2432.3511232 2649.5496212 2601.5351436 2506.2997693 1009.333811 727.14638456 
1206.0486486 1602.5047198 1354.0096491 45925.649031 -39755.253631 7901.9892915 -9661.8335543 1743.576646 2702.1763517 
2654.3546373 2756.5923557 2534.6695721 2454.2673613 2695.8364207 2456.0243033 2547.3268148 2512.5671937 264.67023197 
342.34713644 465.00976362 605.71936905 2216.0574717 10125.78188 -12340.345556 2917.218097 2468.0696372 2355.1534198 
977.21020831 2270.6186343 2032.0513018 2414.8440207 2684.4401505 2581.882335 2555.3996002 2801.4022681 2637.932814 
2644.8653553 2751.1606631 1429.2998171 -4854.5130767 -13367.023109 263.16583866 3330.4110037 2633.4073139 2762.7177723 
2637.3649706 2753.3966895 2648.7309402 2741.1534763 -2103.3140904 -2153.7047278 680.3329021 150.94008526 2025.3934523 
780.82585981 1313.7869082 189.98834123 1754.9229714 1895.0081481 2538.300483 2706.3534475 2551.8820288 2517.1054471 
2769.6882567 2653.2877964 2182.4652203 2259.7685533 5676.6665439 482.14941421 2446.8993004 -15166.785318 -1164.6690299 
1866.4786043 1970.006132 791.35960762 2432.4619603 2626.6071312 2465.1242056 2499.3654619 2684.9865831 2667.2386877 
2626.7403713 2732.237025 2373.2518334 2593.0374922 2486.4191966 2414.2684009 2481.6810885 1784.2489386 -2887.4413874 
932.11021709 1986.8921929 1230.2050062 1205.6660156 1489.4253713 1581.5066885 861.91314923 1360.0412609 2664.8743852 
3427.0307711 1683.0658873 2888.566476 2852.2737407 2755.0418808 2763.0499269 38.608031596 705.13868902 907.7085688 
875.98773394 1318.130691 2085.9789946 2213.051417 2372.4086413 2358.8104889 1169.8028238 2631.2929886 2653.6060313 
2401.2333368 2852.8011467 1134.1318839 932.08171627 238.25150093 817.49009618 674.06396053 2422.2443369 2434.2607781 
2441.9536735 2812.18061 2806.7086181 2813.6626784 2831.7504504 2777.2532924 2230.2579317 2242.2852428 2341.8247429 
2170.498535 2377.6987199 2397.4860257 2564.3089451 2156.3951604 2324.0771669 2093.4331714 2817.9646688 2855.3638964 
2796.7159702 1729.6299632 1619.4646964 2441.4959381 6644.4278485 -751.41724577 2100.9779779 2775.4561032 2717.1769529 
2677.9608708 2677.1828099 2591.4916492 2693.2573302 3033.3200038 2809.1303672 2846.5098984 2664.1714097 3169.7991715 
3853.7200335 520.70619171 530.21696141 100.42855063 425.43069165 529.98695078 630.76071987 2934.8244852 2674.8143244 
2714.0132565 2789.9829086 2348.6554806 2467.557491 2279.6366431 2606.3636174 3408.4410225 1436.1445371 669.18378664 
142.66406071 482.42952668 108.23365227 330.95327246 2680.6401955 2795.0717066 2702.8524609 2663.2786146 2674.7511173 
326.41388409 2819.6792678 2654.5280667 2770.287476 2530.130902 2430.7878263 2398.8850499 2550.5495722 2583.9141687 
2918.0014396 2826.0905711 2486.2411428 2493.6242092 2605.6359163 2637.2820268 2670.3102298 2731.1314015 2744.449317 
2885.1759173 2726.0034928 2516.3345368 2568.6499236 2596.7181998 2588.1350672 2571.8809213 972.53519652 1380.3859918 
1661.2798226 2496.818562 2651.2618137 2586.9642157 2588.6021779 2590.3494199 234.20669404 115.35278146 560.4480094 
443.26364903 1832.550442 9108.3306785 1949.1532339 578.40056791 2184.6141274 1155.0740545 2700.6681509 2684.7809727 
-16443.177101 -1881.2302399 921.76771397 805.46031161 2672.98033 -19046.794901 5937.264979 3917.2889524 15725.586745 
2284.8633564 1299.9057892 2756.9565144 2755.8084809 2617.2241451 1479.3860386 1625.9000354 957.84821893 1787.0597541 
2450.0153281 2541.4872285 2547.5750695 2598.9597857 2913.7192048 2751.582202 2796.0568645 2767.7438708 2699.3614254 
2047.6266851 2114.6309469 1279.9079154 1464.7076978 1744.1560221 1312.9017125 1196.1062406 2922.6453489 2786.3250749 
2850.9441908 2154.4981113 2522.9310843 2669.733673 2770.108607 2925.5126077 2395.3173735 2402.8523601 2676.7011182 
-620.23958693 2452.7922931 1456.0434979 31.588614915 2787.2281801 2614.5013775 2863.723331 2427.7602704 1774.1307064 
1704.2731297 1539.4637209 884.12453101 -25287.708709 1717.5585622 2652.4845548 2609.9435062 2629.8883889 2587.4159148 
2586.459548 1494.2248401 2849.3932627 2811.8934845 2671.863705 2744.2779477 2206.2539849 2196.2622895 2337.3101863 
2421.7290146 2672.1731358 2623.3660627 2673.043099 794.46414463 -148.75685254 46679.495915 -26660.681732 2670.7721678 
2639.3110094 2656.8842825 -301.7643021 -11416.201553 2542.678083 2575.837407 2081.9289577 2018.4896286 2216.1861975 
2398.8031499 2311.9762473 2241.7216939 234.03768452 2677.4020799 632.13479913 2710.2905095 2652.0689304 2331.4468465 
2510.5289142 2306.7243966 2016.2125175 2686.9970438 2435.9506282 2433.3854881 -1774.8677877 2703.1061844 2760.6407925 
19830.827105 -20190.951837 5383.9273355 32599.312956 44089.526952 2818.5083294 2286.1074241 1028.6147334 2713.102615 
1802.9701433 3158.5409779 2331.0957554 2578.811296 2805.7496225 2844.0417404 2782.6510888 1749.2727815 1994.2592384 
38219.056409 35174.030603 -8495.2614481 5963.527009 2347.3841098 2345.6342614 2524.4104866 2453.8475536 2396.6411733 
2350.4676986 2696.1357987 2598.8969046 2655.8185384 1207.8751697 -54620.657197 2513.311725 2474.1858791 24781.976267 
1167.0161991 2112.281436 1832.6188774 2767.2474377 2875.4886757 2731.3403801 2462.4683209 2451.5950786 2281.3316865 
2047.517787 2077.4739614 2042.1820587 2316.5820459 2871.1605536 2797.7969989 2774.0314913 2363.9478266 2597.5762589 
2539.9787537 1111.6311019 1588.6597157 1210.8925843 2454.1430525 2506.0165773 2101.794028 1852.369253 1944.9297682 
1925.6830817 2066.297692 1518.6677225 1677.1311124 1810.1088658 2086.9991679 745.95614645 38001.776469 880.22334644 
1037.7981948 2535.6480181 2451.2767325 1851.3762189 2166.7776863 2140.2171165 2253.8768859 2256.1157643 1774.811604 
2078.7395895 1622.8747657 1783.1205328 1945.4850121 2034.5784152 2168.8589908 2731.9170548 2708.3529213 2725.9584789 
2349.2189931 2348.8137112 2435.6921357 1854.5705084 2029.9490371 2129.4582832 2407.2184937 2538.3821806 2568.8242505 
2683.1267265 2469.3324114 2025.8162878 3555.2926982 1120.4385888 988.53239262 602.28928215 979.92217704 247.43125302 
1292.5575134 34767.97846 12814.522695 -9146.0633229 230.32868084 670.68888597 905.96526454 -96.88686752 158.90572733 
706.70026884 2342.2859194 2406.8332195 2182.3806975 1948.5958476 1052.6795106 100.09942429 203.23851057 459.3619411 
2630.7715855 2550.4427087 2118.0671428 2515.854998 2210.3390637 2527.566483 2355.6657193 2119.7893901 2776.3489057 
2750.5825177 2419.8497567 2596.7736362 2540.9798015 2547.3484845 1718.5525754 2726.4831749 2571.8950961 2829.75391 
2503.973005 2607.4798603 2651.0347309 2589.4222676 2380.2982826 2665.121075 2605.3421527 2325.095996 2445.2906774 
2760.1603733 2757.703767 2287.1880855 2470.4090312 2319.5540933 2413.2412081 1992.5360367 2753.1397628 2194.5724317 
2877.7291523 1953.7303471 450.24473448 2366.6248439 2508.5205095 2654.0775196 2512.6380585 389.34084595 556.95912296 
705.97341669 292.23519311 435.25245885 -1357.4484208 -10491.0586 2550.2490427 4008.0075646 706.49312536 -2.3136895767 
2652.7097166 2531.8835467 1903.9961426 1641.6465551 2534.8265013 2345.372345 2296.1200726 2123.8410931 2311.3343767 
1927.3593855 872.87037901 1553.6927803 1047.2106182 2703.5441089 2971.2330363 2294.9881112 1754.6632418 1528.3297014 
2459.7027083 2677.575845 2703.7745972 3062.8206142 2412.6550628 2134.3134887 2466.6496602 2832.233743 2779.8234775 
176.58639074 2249.0092399 2829.2808197 2394.080841 -911.64471459 2493.4145729 2545.1114314 2550.1340983 2522.878041 
2050.3317912 2355.022406 2566.8367112 2701.3809214 2492.8793191 2571.1732553 2718.4181988 2672.4279368 2731.020577 
2623.1694551 2706.320195 2509.2730667 2686.1432241 956.32551425 120.23292465 2599.1928524 2283.202834 2051.1671019 
2362.8089053 1692.5186802 2266.0841283 2827.8362151 2740.7561581 2395.0538591 3199.8372963 2716.4770671 2205.3207405 
2286.5192056 2633.9010651 2817.85921 2609.0691178 2632.6133602 2579.6163321 2622.3566916 2558.8647713 -904.2457773 
-1151.5129758 1734.6729836 1602.3836487 1428.4244726 8807.5929332 6787.7132721 2453.4894899 2538.2737123 2709.84062 
2727.2168928 2366.5345248 2572.7506929 2772.8761867 2690.173042 2867.6568355 2649.600656 2407.785901 2098.5478353 
1945.1945577 2137.2015056 2003.1557822 281.61440223 2602.6212809 2625.5361201 2521.387971 2536.9043796 2516.9149386 
2540.75073 2430.3376312 2403.674636 2614.0756427 2231.9711627 2438.2234993 2379.7094623 3247.4564377 2296.7751389 
2395.0345437 2466.7370371 2352.4733792 2838.0239032 2840.1982035 2812.6194028 1184.9681199 1447.966652 2839.0518227 
404.77743223 2015.8434898 2695.0294737 2479.9325884 2621.1038793 2975.5409572 2695.782413 2828.4931888 2276.0506646 
2069.6600835 2557.7869167 2352.2438717 495.52589385 311.1274406 2997.7388343 2655.0983406 2621.596092 2600.8765791 
2327.0532249 2009.2590599 2314.6925535 50136.32057 2515.0773564 2912.6321098 177.09555364 135.63206549 3343.1894492 
2515.7368528 2777.2241697 2311.8156994 2373.1120791 2405.5718817 2924.9343566 2806.6516094 2843.0210904 2859.4358567 
2765.2917841 2799.7115029 2124.3218445 2429.6609882 2701.2118912 2287.9444853 2231.77305 2572.1792969 2867.2987956 
2739.5856581 1490.1452911 2577.1656933 2184.1246884 2667.4814283 2554.3355553 2719.1767046 1665.1684409 2249.4168398 
2231.7935581 1380.311096 1691.4183151 559.52805344 566.30211064 24.250530294 458.96660951 254.4899155 2650.7940906 
2622.794588 2657.7594195 2652.8383913 2690.8909241 1495.7631429 2534.1879227 -1948.9671857 -1445.6786189 2551.7375458 
2465.79579 2600.5577474 2379.3970268 2807.1830985 2344.5515997 2477.200647 2580.6321703 2712.5182889 -592.69862368 
2933.2458162 2835.272091 2375.1410912 2475.2577974 2268.7594781 2342.3296028 2559.0262181 2452.9408632 224.8494937 
2484.4252544 2273.8664259 2647.567098 369.04701013 934.69888598 2243.8682776 2377.2840712 2702.8204896 2585.5870514 
2451.7849207 2448.5546728 2379.8482571 2605.4366878 2475.1175452 955.83469068 1079.2798592 2625.6289869 2520.8140383 
-9726.3755451 -2699.9348551 3471.9500972 2655.8639684 39751.617144 2410.261423 445.92115596 2392.8803155 2870.209186 
2783.1309852 2867.7823158 2882.7128545 2863.0958946 2683.7229381 2580.7487027 2687.1265794 2628.2944035 2735.4000316 
2085.7239397 1589.1312144 2735.2364674 1509.2694658 1872.1447684 1881.4334967 863.48045492 188.82566505 2834.5353753 
2828.0190224 2815.9048366 2860.4929912 1153.8389636 2384.4852484 2275.1674899 2199.6521021 2094.4612372 2150.7869816 
2106.2507105 2406.8173401 2280.1700548 2215.1207465 2488.3185428 2784.3434747 2664.9702634 2372.3818244 1811.8551372 
2644.2890697 2724.7384994 599.37109669 293.56458012 2762.9554405 2558.0433473 2225.9315339 2417.3680933 2862.5177722 
2124.7162666 -5774.77306 11157.723064 2654.6171585 2482.2741869 2547.9199226 2770.8883755 2639.1821749 2776.0797574 
2478.6138291 2642.8883387 2650.1741377 1874.941796 2149.7271712 283.71148494 3044.4875633 -15727.217909 -7969.2430147 
-68.615992452 1143.726647 2332.9561537 1229.486166 770.79151206 1621.3633745 2164.4993642 2703.6681391 2735.7307695 
1938.4635645 1292.908953 1229.1221918 874.21029223 1098.761133 1786.9830587 2343.6526969 2916.0187425 2824.5623369 
2533.4364824 2403.4661841 2027.1523829 2295.6380026 2407.3852876 2452.7346647 2527.5518514 -9.0497348199 278.37163314 
2770.901553 2706.0978419 3119.9298973 3373.172051 2795.1012268 3193.9206999 2940.9191446 2820.8147952 2840.0777618 
2403.0213752 2853.9929915 755.77111396 239.98651532 2697.5272185 2670.5479281 124.80650344 2872.7285707 2842.5242664 
2864.9915961 2841.6588351 2851.22808 2357.363518 3060.9404376 2775.0610751 2767.3565802 2832.9568169 2856.6755558 
2880.3247493 2841.1138351 2796.4092755 2023.3952898 578.6157309 321.84366429 2236.2038631 2426.9806337 2848.5135806 
2472.7923084 2707.724555 2079.5918644 2769.9898865 2078.0969073 2259.5395224 2292.2275872 2238.1438836 2858.6606493 
2249.8081387 834.62772182 2906.0414112 2714.961607 2685.9606591 -914.58069769 2706.1125379 2708.9404482 2207.3159666 
2050.0755995 2695.7561606 2245.7778841 2372.7977911 366.3442582 328.3485937 2832.8162401 2863.7913769 2837.0299509 
2303.5243983 2711.1708841 2648.4044109 2445.7256665 3119.2525942 2732.4302975 2783.3640001 2816.5376519 3063.5718974 
2506.5523542 2454.1230716 2810.9670032 2889.0708411 1312.2217724 1863.4281136 820.68864453 1320.7421596 -9404.1100887 
2622.4119513 2775.5924877 2597.5840255 2823.4026481 2833.69872 2737.3948902 2840.050444 2780.4993648 2879.6699289 
2805.115761 2541.4380945 2538.5927305 1707.7756744 1752.6485952 1961.1559804 2819.5307879 2726.3378647 2607.2885262 
2771.5120094 2489.5472824 1256.4461755 2455.9173063 2666.9876077 254.43048983 -3814.485299 4901.5252547 2376.025567 
2569.0440626 2502.7313981 2868.2285356 2259.5847449 2664.1769614 2810.4914793 2983.8788632 2501.774528 -85.922321591 
479.83224301 399.66117299 2868.9713843 1194.5212039 1131.2460337 2076.2979995 2789.6416452 2869.7579163 2600.8634696 
2671.5424923 2517.7878252 2145.978852 2845.8298073 2137.144224 2069.7289649 1827.4526823 2832.5991444 2089.8990672 
2665.4365756 2761.4973524 2203.8892914 2040.8815124 2746.3794575 2874.6521252 1730.2496385 1281.3299905 966.19907928 
2218.129598 1339.6293233 495.58065494 2248.103093 2282.2934201 2639.8618327 2567.8626818 2871.0215007 2493.3213979 
2752.0979406 2770.4013113 2649.0433825 2383.198564 2417.1360612 2364.4843195 2347.2355407 2280.1116147 2191.3001926 
2197.4461078 2926.2997423 2857.6260497 2862.8410539 692.61184921 2900.5312289 2776.3690966 288.78926387 549.30127349 
1961.5783104 2393.6389414 2580.6932289 2500.9609105 2844.9366182 160.99137369 181.06416864 2394.380174 2846.2189458 
2696.0360136 2960.9907016 -3021.0438705 1149.0934964 2753.5268674 2735.33084 856.96293575 2861.625736 2409.2767516 
16.108317249 2729.5985818 2677.8004083 3047.6956462 3023.5563147 2342.2010278 2403.6967796 2164.9970675 2106.81308 
2739.4652141 2817.2676832 2775.6163649 2250.5081 2345.0649884 2439.6999899 2414.4565773 24249.403293 2390.0999929 
3067.5099361 2369.7073966 2489.4837141 2395.2358342 2788.4591947 1038.6620865 2332.6094636 559.81386686 2839.5882604 
2683.2842042 3408.1484446 8.3138372962 2388.2528038 2394.6619831 2447.6333356 -14720.600711 2819.6405085 3042.7117509 
2628.4888488 1254.9361735 -18.925505182 2868.3610058 2799.1955307 1215.9308864 627.73295244 1179.5879538 2500.4117252 
3215.7070006 272.16615012 423.26516307 1328.0943576 2691.04756 2616.6972935 2567.0925434 2393.522069 2768.9234385 
2598.1295263 2622.7709479 3021.0599385 2436.9190804 2379.5024411 2956.5810939 3048.4228819 2277.6271444 2550.6166164 
1597.0408159 2596.9479947 -87.232571934 6244.4479984 181.88045271 2278.0835102 2705.4885425 -1559.8017377 -3027.9141857 
1063.0775489 10.65047273 856.32898341 -3789.5916105 -3593.3790312 -258.2298538 2058.6517081 1573.6122844 -2790.8795821 
-2221.8403912 -183.10915977 -2647.7467875 -2854.2849037 -1910.1345949 1392.7612924 -3140.8577186 22.650538096 -3456.5820014 
-1764.6541764 -1677.3848934 -1506.9894235 1419.0708067 -1903.5410684 -1317.3940964 -3429.8101693 -3221.041445 -1688.434929 
-2977.8814306 -2033.9085272 -3385.3375482 -2859.4846968 -3554.6366112 -4259.7727119 -3544.7463453 -3092.7393199 -184.2057762 
709.26810545 -2847.6772712 -2127.422265 1852.9934555 -3023.9051331 -3641.2075266 -2467.2681927 1526.3200939 -576.05039081 
-1948.3589811 -5884.6264846 -2331.9603128 1754.4617812 -1266.5930257 1716.8255341 -775.6636365 793.00670818 1123.5869739 
-3506.4402343 4433.1135785 24.461289933 304.2899246 905.99155221 -597.99330934 1744.736167 -1323.1752307 -3696.17846 
1822.9755556 -3229.8371781 -3818.8530127 -108.16279431 -639.30125096 -2648.2079893 -2730.9396459 -1537.1343488 -1916.384748 
-3467.5447627 -2297.5892809 -2615.4868918 -3485.1574878 -2447.1048655 -997.71439214 -3491.8744432 -2792.6763401 -3188.9210999 
-3661.250141 5220.1419496 -3379.4709293 -1020.7657264 1498.3713094 -1731.6889759 -4481.2872296 -1750.3554969 -3953.8219058 
749.18882188 545.55713408 -2033.9122767 -3114.7303157 -2547.6482584 1207.6877215 -1076.5543668 -1158.3889393 -3136.172967 
-3494.4293473 -1719.8944134 -3596.0100343 -1157.3752761 3828.2622833 -3303.091341 -2162.1129023 1198.3753177 -1576.9901996 
1777.5036044 -3553.6440451 -1473.6921061 1005.560355 6077.6759696 -3714.3964651 2463.5519856 -3068.8142744 60.519741907 
-3767.3239467 -2171.7589834 44.719335673 -2003.2737112 -1261.2372596 -1090.5665855 -3211.5761039 -2497.6795368 -3100.1561974 
1853.7878028 -2437.7103313 -2570.4684217 -890.92198571 -2680.430999 -804.05527544 4269.9463985 750.44414784 2174.8031209 
1781.4344802 -3214.0247587 -2333.6985354 -3132.8274638 -3084.4302913 -3552.9157746 -3514.9859088 -1061.9661114 853.3926576 
-3541.9394288 -1061.7401602 1716.8142836 11806.634194 -2269.8016171 1723.5498672 -1912.3824182 -3516.9003035 -2642.2397556 
-3762.4738753 3187.7534228 -3642.1428982 -3539.6898378 -3700.4925247 1239.8733808 -363.31335761 -374.23132025 -3066.8537761 
-3066.5264759 1022.2681133 -3717.4691279 1896.0150908 -217.93522133 566.02682751 1639.1916055 -3070.9186957 -492.38488639 
-2652.0050717 37.08683774 -920.75717431 -6163.7989849 -3976.4971729 -387.98469391 1280.7130547 238.40580156 1409.8330458 
3896.9294981 -3688.1562219 -3625.5021317 -1723.9517328 595.47465948 1671.3835041 -1100.709163 -3358.2351114 820.11114824 
-5558.5083129 -3189.4564765 -1168.9439449 -1308.0477415 -2837.6298152 70.350025381 1845.1451655 -813.91925606 -3634.5887021 
-2048.4639214 -3319.3450784 -3424.9543199 484.28196302 1769.3072398 -2760.2164049 -5391.8044974 2162.5608743 -1583.1179381 
68.419173187 1697.0947022 1187.2682127 1427.8737112 -1786.2368969 -3519.8792604 -2450.0478237 -2140.1956153 -1276.841518 
-3911.6688996 -1257.6316684 -3415.3129719 -2647.5531381 1882.1063146 -2680.8645688 1403.4357254 -3737.7885923 -3315.3875521 
3300.3009712 1837.9452162 -1012.6831716 -3294.6372749 -2159.2064255 922.769813 -3797.5813613 1075.5944667 -575.80339347 
-1008.4821987 -1208.9763816 -1821.6587275 -1054.5546091 -487.14613275 -501.86754427 -1040.4763934 -839.64721248 -1336.447364 
-538.69308615 -397.0335365 -923.68655441 -1212.8905817 970.47156044 1071.2166623 1279.7786649 1928.7752481 -527.21521317 
-2900.023534 -1355.3975371 -1630.8274326 -1248.2924018 -2066.8452202 -3126.7133954 -1510.317459 -1092.2485931 -2672.116787 
-3086.1052886 -1350.9439735 -1158.9417668 -650.13579095 -1821.512651 -1680.6231336 -2089.2852599 -3589.4594772 -3466.4099546 
-3570.8666109 -3512.7568094 -3376.0888448 -3393.1171015 1066.5697413 -929.78805506 1744.1435743 3804.8597275 13.565948024 
-1046.79834 -780.66740508 -933.4409028 -251.64853776 -3625.4832364 -3591.8817815 -3617.2113376 -3617.5415894 -3704.0013747 
-3445.0850158 -3593.6284763 -3602.7896906 1247.8592054 1455.9478722 909.33308452 726.67215959 1065.8302683 1373.7727078 
4264.1101082 2006.3154474 2541.9429886 2161.399763 646.89509709 2346.6434364 -2949.4281013 -2696.9878836 -3305.1815577 
-3494.5930173 -3329.1193082 -2815.6826032 -1743.7392398 -1143.0034807 -1821.3068593 -1058.3557829 -1515.2230901 -1832.0765401 
-1973.1028842 -1565.4739655 -1171.6845536 -1152.9422095 -1513.8317463 -1781.1991843 -1701.5069562 -1404.1730817 -2048.1611468 
-1848.2353944 -1793.7491454 -2265.9575008 -2003.2764724 -2312.5399957 -3390.8115789 -2954.4849667 -2407.1831202 379.42696757 
568.05931208 446.80791678 -1030.0463244 -1934.1690445 -2710.1710935 -3562.8474826 3529.4940746 13532.926313 2299.4694538 
-1386.3371679 1784.8550143 -2364.042243 -2604.778821 -2405.481891 -1858.5125529 -2162.5975181 -2120.0381307 -2295.2493567 
-2330.7837788 -1752.8839898 -816.18771709 -315.41168115 -1117.8243384 3266.8953749 2470.3870426 15862.588122 18360.87751 
7040.3176374 -1853.1573492 -3970.8103286 -3601.2304639 -3867.1947289 -4116.7471621 -3388.4977659 -3716.6545377 1589.3743035 
1401.7504617 1347.9207537 -4050.7893596 -3842.891278 -3770.896323 273.31465663 403.95486759 885.96730023 390.19283789 
537.95340917 -124.1219324 1269.0646559 1855.0688384 1125.9664947 -3542.8037975 -3546.4234539 -3526.4999456 -3521.6000263 
-3573.4672203 -3495.697396 -3399.0710063 -3528.1329522 -3376.9513487 -3367.6939648 -3469.89677 -3343.357038 -3502.58597 
540.26289181 -127.83536792 23.535286754 1289.1586734 3105.6983439 255.07566113 -1882.2063805 -1565.7395057 -2093.8813526 
699.51489774 398.46701189 939.57913551 -3314.569677 -3172.3591799 -3195.4195575 -3336.6025947 -929.04141345 -102.04573813 
-513.10336043 168.0633506 673.90075352 786.09848183 -305.52086255 -1257.290883 -616.62703441 -3407.0601374 -4104.4392654 
-3622.2822325 -2657.0635953 -2839.9870499 -2950.3333482 -2874.2673342 -3051.1015836 -2897.766906 -447.22885234 -3079.3394791 
-2991.3425589 -3068.954734 -3905.8373347 -2256.9910104 -1995.2187417 -1741.815352 -3500.4931818 -3428.312278 -3404.4725765 
-3180.3851618 -3159.6358602 -3328.414088 994.84873586 2247.1009329 1555.1724353 -1841.1338859 -2778.7316218 -3686.812977 
-2830.5503511 1195.6842009 722.97856787 1357.7420959 1510.0361878 1457.0827497 1291.8894834 272.42692606 -3379.3807682 
-3304.9150373 -3162.725407 -3532.6032675 -3436.047902 -3619.4221045 5.3794652247 -173.61363042 -755.34558327 120.6869312 
910.02860021 1182.1365915 1288.0819163 -699.3709091 -271.18702651 -3051.5424296 -2045.0269304 699.26253473 -906.04536277 
-160.93689722 -2996.3003626 -3289.7979926 -3165.4014172 -3275.0856122 -3138.818495 1143.9419326 764.18169341 1065.2888744 
954.52279834 581.02601138 208.38916891 -2632.6583645 -2527.1372817 -2821.6849055 -3474.5649428 -3656.3649095 -2806.6113188 
-2965.6587476 -2801.7273666 -3300.371551 -3033.1500344 -3453.6931439 2523.4502895 -1285.7534389 -1608.4706013 -1680.4038183 
2805.4134658 1180.9846667 5238.161831 9114.3871095 4327.6088031 579.33372067 -3456.5974165 -3491.4265648 -3415.637552 
-3297.1781938 -3403.4271742 -2873.7312462 -3310.5667605 -3133.9592869 -3298.0114729 -3497.6850642 -3622.8763072 -530.39996183 
-908.45087966 -1208.9960528 -1503.6163514 -867.13489182 -1243.0240402 -1091.7212419 -1572.0357537 -1657.015191 -1515.8566451 
-1407.9142835 -833.62344213 -1254.609067 1926.4491469 1864.1498476 1887.5009331 1755.0658368 1878.9975209 -3560.1612688 
-3486.5429098 -3531.3575303 -3476.5320371 -3590.2355761 -3383.8365361 -3441.998612 -3306.9362742 -3619.2970507 -3619.827942 
-3585.2188684 -3700.8681113 -657.69112916 -1713.8564878 -861.00147957 -1618.5695618 -2206.4075249 12954.054379 4542.2197464 
20045.388665 1586.6201623 1812.2172716 1863.6832831 1803.2889779 1962.369153 1727.6104425 -262.22168113 223.28640435 
-780.67545648 -3557.0353447 -1403.4527835 -7338.4923604 -1236.2323724 -2217.3452948 -2796.8153068 -841.6900346 -1747.6209574 
-1081.9683324 2810.8959782 -2422.6890603 -2715.5595993 -655.03063672 1747.6380792 1545.8346325 1572.9897057 1561.2804077 
-3252.1817209 -3211.9976628 -3716.2676582 -4072.9535564 -3875.0430435 23039.935522 2258.2221647 -6337.6914125 1013.7340775 
1583.7684993 2066.4731037 1913.3695471 1592.0983722 1750.8435486 -2507.8050548 -3565.9742842 -3368.7462811 12521.78759 
10784.477389 4858.5305517 2070.28405 2060.5363704 2081.628765 2098.1286393 -3271.3188681 -3082.3371281 -1809.823374 
-2899.1781326 -653.4396646 -969.07437786 -1174.585799 -1385.7048643 -1443.5076714 -1432.5757541 -2608.871223 -932.22885503 
-2611.206262 -2207.2234253 -2084.0092768 -1364.384622 -1513.8891353 -1821.9289123 -1951.8460031 -1768.9445435 -1842.6724107 
-1549.5521533 -1565.2275189 -1985.578187 -2007.9518962 -3683.6379262 -3741.2083159 -3619.1975794 -3635.8849026 -3579.7488775 
-3719.2584182 -847.32000803 -813.47455438 -421.48080914 -236.0860926 -179.14411003 -631.50345746 -1336.714219 76.327177752 
-273.18884201 -2136.9945281 2030.7116483 1995.7278175 -2805.9759048 -3502.6353441 -3529.5036084 -3473.4822321 -3389.3748723 
-3468.7535822 -3628.5982991 1174.5155181 763.61524519 799.49745512 455.38153608 450.24711196 -3302.9455286 -3522.8129993 
-3221.0131461 -3327.4891189 -3529.0312174 -3750.5917129 985.97538343 -4235.717148 -11235.088598 -1558.4727268 -763.0104719 
57.193220759 -913.65537261 1068.2260774 775.81824901 306.29281273 -914.12050171 -676.95434032 -1097.8840632 -3441.175456 
-1111.320099 -1525.9421381 -923.39736068 -1674.8386992 -3495.6593344 67974.560014 -70764.460519 -46017.430379 -18803.190291 
-10747.605022 -3021.6480478 -3305.9391598 -2381.2200799 -2429.037902 -2018.2770559 -3138.7576359 -3599.2646017 -3691.2609818 
1006.7329662 1356.4002937 912.17096913 27473.222276 -7374.280032 -3352.3107804 168.08467587 853.01831205 1695.0217479 
217.41779573 -25.215448523 170.15193448 1313.5412935 -1852.9109635 -2395.3782268 -2137.9785849 -2304.7160963 -1843.2567567 
-2824.4048566 -3002.7354674 -2959.4579174 -2856.0878317 -1920.3217491 -1537.0247236 -2540.0835967 -3355.0538516 -3152.4999943 
-3236.526122 -3405.0572128 -3146.5912879 -3194.2887106 367.52312778 2071.02817 1868.4584416 2113.6740027 2086.5974297 
1899.4784466 1841.0161686 768.71111935 -2022.0897706 -1220.719935 -852.44830692 -2458.1593047 -2611.753333 -1900.7282731 
-2126.1653973 -3208.4711189 -1157.3770344 -3679.5510062 -3199.7450258 -3446.1500066 -3604.4374858 -3375.1367051 -3614.4182714 
-3508.4991436 -119.3392312 -1287.1301997 1250.0732648 -3432.0206386 -3518.7395817 -5093.7530799 -4800.8693717 -5941.3520862 
-6183.6790425 -6777.1335963 -4080.5270213 -538.29483584 -516.95346515 -645.60406294 -812.82319034 -700.37905798 -635.16747697 
-845.85104585 -665.97849384 -3458.0431889 -3544.1318712 35.73121288 550.19039698 -61.774055515 698.95191873 -154.3197656 
1592.9038649 435.35168797 -2170.9006282 -2505.9730044 -2561.0215685 -2080.2376788 -1847.2479056 -99.510129055 418.23860147 
8293.1363657 -39427.540263 -80878.104891 -4747.9005684 -4351.5389363 -2188.8000399 -944.62525242 -649.59281724 1318.393267 
2144.8198943 1697.3125534 -3601.2989546 -3613.0719233 -3598.7362448 -1363.7774519 -1817.1830346 -9371.7894898 -8484.4466836 
-6490.1941791 -8013.0107464 -6887.4193468 967.12946964 -696.41835201 -1924.8523447 -1557.4422801 -3095.1899814 -2518.9341652 
-1307.4508776 -4666.2952816 -4394.1513881 -3408.5965559 -2697.3465362 -2560.511095 -2635.4464723 -2782.6836526 -2727.6030034 
-6052.8507177 -4458.9253291 -4178.0332731 -4172.8725254 -4121.3682996 -1376.5002224 -957.55695337 -6680.7689222 -7196.1182407 
-6095.4825456 -3234.6879331 -1687.8640069 -1057.9674041 -788.96873298 -88.2490468 -31.472008261 -3564.9978663 -3354.8531965 
-3547.4509242 -3339.4494061 -1983.5748192 -3129.7196132 -3012.2638411 -297.73822574 -950.11348735 -293.63780678 -632.27340548 
1887.4207682 1843.0287749 1843.2457043 1810.0216769 1697.4433739 1761.6837034 -3589.75193 -3021.1752114 -3030.4189037 
-3418.7033635 -3237.4632363 -3240.9876581 2529.4290622 -889.47327209 -1462.9813499 384.63409565 1776.6213366 265.2027647 
514.74663277 -84.646615829 169.64467181 -49.996078395 -3169.5393279 -2937.5876555 -3235.5615029 -3641.2441591 -292.55398514 
-1635.5297143 -2631.4148998 -3187.9943109 -2537.7380624 -2318.6001091 1840.505797 1777.5864856 1861.6512228 1782.1811003 
1684.4476605 -3431.5503117 -851.16866178 -1177.9816784 -539.11667331 -1243.0869513 -1582.4851263 -1536.9647422 -2835.5627204 
-2034.6458844 556.69754462 -2599.1700397 -2429.6913257 -3043.8565367 -3178.0328785 -3126.9402991 -422.83512911 2131.2021471 
2950.0528202 -2971.1874995 -3002.8987632 -2886.4053334 -2901.3581088 -3122.750419 -2961.3394683 -2687.6136767 -2926.3972535 
-2846.2921155 818.70099748 2148.3407328 1448.84372 1502.5644718 809.74587081 -2709.8145638 -3158.6628551 -25109.081703 
-3085.6894582 -2925.744509 2959.4537644 5575.6923477 935.94688572 -3695.6551505 -3695.5657646 -3738.0363652 -775.23395863 
-3152.779966 -3406.6754282 -3273.3980718 -3372.4141306 -2925.1031526 -2027.7402991 -3638.5443212 -3072.0669451 -3553.6650833 
-3162.6995978 -2018.9729612 -2334.6539775 -2276.2829677 -2273.7197371 -2654.005053 -2422.1177819 -3039.6124409 -3123.0159787 
-3638.866633 1715.4843067 -3249.4728076 -3287.8683929 -3055.2817142 -3002.1431463 -3070.8317034 297.95681787 141.92620842 
184.16156037 661.27526632 615.4096402 -1640.8600158 -1787.6494613 313.75852225 -308.48477071 -145.18298543 2041.5404196 
2072.7288558 1947.396052 -2215.0588381 -2268.1632344 -2618.4071537 -1217.6094289 -934.42023474 773.5395454 -27.832725391 
50.373869082 316.04276611 557.36620461 66.025815366 -155.01771771 57.027670559 287.54272519 -2243.2643383 -2425.955957 
-2674.8107945 -2761.4188729 -515.56658368 -45.653300104 -403.72817699 -2018.4618199 -1787.6573012 586.34333158 335.06119142 
1934.3074597 1934.0055414 1808.0319821 1990.8936256 2019.0297098 2082.392414 2069.5551786 5101.5391725 4915.0725753 
-1832.6636139 -2101.4735006 -2542.414757 -2209.3188453 -2282.8060957 29.643896558 -389.37149904 -662.85180642 2031.5425462 
2083.9241585 -3470.3738102 -2551.1532102 -1693.7736494 -7002.2579908 -1454.6524097 -3433.3005429 -1820.0735514 -1930.8985631 
-2159.4575493 -2320.195911 -1828.0759181 -2249.4282072 -2306.2499281 -1891.8084835 -1926.4277991 -1321.8633125 -224.71493953 
-826.65313396 -2886.2267573 -2959.4620661 -2566.1079107 -3192.7760181 -2923.9666449 -3171.2277249 -1835.7207 -1901.268305 
-2925.2225157 -3300.4919632 -1412.0705156 -1768.1128206 -2300.0432765 -1829.4647318 -3034.3037047 -6673.7899327 -2250.6102283 
-2036.9932972 -3179.9628075 -3540.3517168 -4013.8617255 -8172.9748927 -4006.7929349 -4808.7012403 -8534.366894 -5750.4646832 
-7085.0055336 -3513.248305 -3401.1811182 -3448.2362628 2062.5999264 2073.9898423 -1872.6853126 -1763.5917671 -3336.5425186 
-3253.8287869 -3211.8711034 -3391.607398 -3385.2279227 1730.2837673 1931.5190592 -3361.4574674 -3712.7079129 -3627.7746546 
-3807.5487409 -3765.8557847 -3770.8181899 -3662.9038681 -6652.4301522 684.43193466 -21048.238572 -3058.0236351 -2163.763156 
-2858.8592219 335.2587824 -381.94429791 -527.85152443 -1205.6709107 187.37727601 -3590.0091126 -3456.1596403 -3640.1474568 
-3657.2762246 -3961.3309442 -3844.6308441 -4155.8984553 -4481.6981418 -4124.5281336 -3949.250872 -3965.9845624 -3905.3619912 
-19386.702984 -17245.818868 -3223.162577 -3275.2225207 -2569.911069 -1635.0684552 -2062.5057577 388.59414418 -3572.9215707 
-3602.1816411 -3685.1671602 -3516.7559107 -3474.2974571 375.05084253 597.72156633 1069.9149242 1328.2085181 -2399.5614461 
-2003.0495794 -1931.4822205 -1573.9823993 139.08254165 -107.46271833 -176.40397504 -294.52244885 88.598368376 2369.9353828 
-3184.2326799 -3081.1566082 -2634.9525735 38.351704831 -448.17956117 -693.91468832 10122.489251 14870.265658 -1369.7954693 
-1438.1028972 1297.0949422 -1326.8623833 1980.0047828 1959.459568 -3942.2800409 -3581.6910231 -3607.0760338 -3570.0625274 
-1885.1411533 1760.5537347 1662.5341786 -1065.0412535 -2987.2794807 -3085.9670845 -3416.2390791 -3444.0083172 -3448.5244912 
-6125.3858065 -7020.5762552 252.20974285 -3308.7258055 -3460.0876867 -3418.0698803 -3505.3973051 -3557.7616345 -3594.8949986 
-3582.5517653 -3492.3253206 -2587.8791874 -2701.3211736 -1607.3263932 -1709.7519523 -1814.14956 -2435.1039932 -2573.5029428 
-2481.3805866 149.78118294 398.95874213 -1280.1610346 -1666.2048624 2255.2251115 237.21054119 -15431.508776 -13064.202556 
4462.1374386 -5554.7801319 -14302.517612 11528.835058 4439.858309 -49896.759366 -891.41779924 -241.14277524 -3341.9272815 
-3569.0616197 2099.2362187 -2129.7756097 -2296.1918262 -2378.477969 -1023.7013668 -3069.4915578 -1166.7128549 -553.57478095 
-2549.9434232 -718.43912723 -2751.3856138 -3550.9903479 -1923.6584988 -1941.1610646 -1422.8686087 987.26842652 -3792.9129514 
-3744.4633809 -3607.0060783 -3852.1561318 -3761.3135047 -3837.9598098 -818.53617813 -1004.0182971 -1074.4645761 112.98369492 
-287.15612845 -3666.8488129 -3975.6353269 -3455.1373038 2042.1965866 2041.8299574 -30.443545159 415.00423179 -1057.0612315 
-678.0722319 2099.3889731 -5252.7428982 -2072.161388 -1121.6928325 -1061.9493467 -634.51469239 -2257.9500766 -2592.0179854 
-2396.5609328 -3443.578206 970.94874472 901.47729741 516.8575987 -1347.4534321 -267.59672672 435.59144166 -873.09171743 
-3565.0836286 -3566.8771017 -0.83117180893 461.89121793 -192.64519781 -385.02109785 228.69161323 -38.904332829 227.29662021 
-30.325739869 -3330.5065768 -2569.6062809 -2675.3796113 -2447.9903882 -691.97640945 -3185.0228681 -3420.0626408 1549.3238255 
1567.4483177 1940.2731922 1616.8786595 -729.9251902 -275.44954571 -10257.584469 -3223.2748478 -3968.034405 -7076.2729132 
-1029.7673999 2140.2588502 2280.4887604 -4066.5076962 -3926.3132071 -4048.982962 129.91852926 -3209.574313 2116.5424175 
-7613.0355226 -8021.4527337 -7005.6599151 4835.0522935 -968.96379815 2136.834672 19181.793116 -3585.068081 -802.72936505 
-1219.6771318 -1776.0204376 -1893.3513263 -1635.3135705 -1818.5836874 -2002.420233 1979.8055765 1886.9741846 1865.1489083 
1225.4925547 11405.494705 3326.692364 8654.2587429 -2285.4176109 -3334.2830839 -3689.1914879 -3462.5584025 -3388.2743315 
-3893.2748217 -3561.3872392 -483.66257481 -3114.4200146 -3750.8400285 -4743.9834598 -3634.179962 2058.9989547 1810.3427558 
-216.66750499 2057.2315788 1899.7841742 -3210.0245381 -3008.1071264 -781.4089014 -489.76737401 -974.81852494 -2453.5102486 
-2449.1789863 -2664.9942361 1187.320865 620.75048773 -3197.8316672 -679.73952042 -2453.468752 -1180.0270346 -1527.0774986 
-1132.6602023 -3098.3579673 -3488.2507249 34582.17065 -1296.0521396 -1978.1269316 -845.45030192 244.36233598 1998.3090377 
2061.4728277 1987.9153986 31244.577552 -51698.225323 337.88923531 -3259.0469311 -3316.9387714 -3070.7433615 -32.620052216 
-471.74484683 -409.7988117 -2794.1738226 677.28326896 1686.1186317 1315.1614878 2030.2056074 1778.7970878 -1962.9314128 
-3075.5141549 -3295.8009544 -2922.1828994 -2736.6056368 -2969.0678432 -2976.138311 -2894.8711137 -3083.4978483 1855.3717926 
-3316.2158692 -1872.0624763 -2325.6901447 -2694.5852796 -2558.3313442 -2734.5652397 -2376.8167837 -2882.7833363 -3092.5566804 
-2785.12496 -8362.5437855 -1460.3298512 -1257.0051239 -712.07850277 -1210.4155302 -3792.502954 -3893.7107278 -3652.6935793 
-3840.2974715 -4021.0338455 -2918.5459574 -2868.180682 -1196.4497755 -918.98159373 -2360.7533712 -1940.3638834 -2018.3696693 
576.20688141 -1223.7242855 1485.1390664 1932.6191799 1964.1633343 -3804.3105364 -3061.848785 -3410.8250163 625.38450943 
-659.82059181 -624.63848606 -1747.7732351 2219.7600531 3497.2902686 468.23521563 522.87705945 172.03389882 -257.58995045 
212.00621747 -392.52459667 -997.84246801 -831.04152768 -584.28964459 -3306.4247771 -3056.0171162 -3131.0585998 -1821.9017642 
-1426.637917 -2107.0510389 -1325.0772919 -1712.31107 -9226.0855517 42337.091892 2081.5227347 2051.1467045 -3292.3446497 
-4297.1473751 -3575.0806875 -3567.5884326 -2306.3390394 69813.862772 -7681.5203624 -3250.1515168 -3324.9835534 -3235.8758097 
-3423.4617386 -3435.0835174 -3580.062571 -3342.363808 -3797.606021 -3266.5064812 -3443.9068476 -4015.2887475 -1881.132833 
7223.9538751 -116.83482864 -1345.9830537 390.08222871 732.71596005 1162.3400974 1085.4009302 1764.9355322 -2206.4909032 
-2551.7866771 -2666.5604901 -2880.3335167 -2604.2496758 -1019.1688182 -1131.2322433 -1722.6581606 -3774.6901592 -3482.7781266 
-3698.1656147 -3738.6511718 882.64143698 -2553.6994242 -2131.0567929 -2624.5091049 -2203.3099679 -2500.3134827 -1995.9922857 
-962.69633132 -3519.4759863 -3600.2817732 -3589.873159 -3563.5763509 24529.256671 -27688.977791 4213.2797775 1194.1010576 
1237.4930521 1241.0114306 -3012.1973916 504.89496798 909.44769924 1612.1265213 1541.5493077 -1501.8531193 -1814.1550423 
-2274.7621716 1974.8408257 1846.6910962 -1239.5053431 -1497.1007865 -1579.5634003 1828.1519427 1557.3621039 1759.8353054 
1441.2731112 1491.0321547 -3804.0066864 -4033.3231678 -4111.0630979 -3824.755214 -3892.4667474 -28074.986205 -1766.2819287 
-2186.442305 -2096.5444398 -2055.7417402 -3132.3353747 -3224.7561081 -3441.866131 -3430.6572998 -3179.6298737 -3215.0378106 
-2896.6088685 -3028.7339038 -3016.5097228 -1752.2990439 -1733.0478245 -1834.4512429 -2219.6208046 -3479.9120013 -3635.7821486 
-3524.358318 -1447.6832478 -1321.2916997 -1600.6936078 -3101.1384031 -2720.9089813 -2417.7556884 -7326.3752451 -4430.9358967 
-2644.7171845 -2587.0051074 -2203.5127077 -1787.6723166 -1256.605236 -2233.0837912 -2638.7647822 -2091.7103181 -2078.1425439 
-3633.3042955 -3649.4653392 -3535.0645049 -3625.4555779 -3540.5922829 602.08173174 -3445.9383373 -3494.2270004 -179.92390697 
257.96708062 505.75861932 -1683.3510455 496.45571348 -3076.0746198 -3222.5210741 -3342.7743796 -3426.7915041 -2279.6922692 
1969.1443513 1126.4128104 1013.0010859 637.5701932 1582.4143472 -4438.6430152 -1150.5951621 -1475.2036916 -1318.4821049 
-3217.9229069 -3545.9852138 1859.9739157 1600.088104 -3095.9168032 102.95078995 -190.17086341 -888.025214 -3959.7965683 
-3985.5798801 -2458.8405548 -2051.4969467 -2786.4462054 -2416.7750831 -2409.9558431 -1911.2679705 -620.38325253 -2058.7238342 
-195.45831127 -3303.7801599 1693.5678839 -1189.7543574 -1579.7206716 311.678922 911.52708407 12122.530483 9012.7605938 
121993.37657 13922.208175 -15089.783789 -782.62925605 -322.09103654 -74.285254766 362.52927757 -75.485612963 2012.0450977 
2060.9531613 4471.7190345 -1507.8792152 1716.6632571 18076.599241 20.093014912 735.24187505 1088.9594048 920.52880166 
-3451.6430127 -3180.9413066 -3557.0846931 -8.2723960791 -1340.9930608 -2238.8322466 -3989.9536187 -4039.1181532 -3624.8297788 
-4157.2829198 -2530.2451601 1748.5626202 1953.0751984 1694.5324639 1395.8712035 -2135.8901215 1623.4787459 -3470.5077355 
-3073.0195873 1361.977006 1129.8363009 1504.2084253 -3586.7677874 -3732.856534 -3813.3157666 -3711.3739741 -3878.2509645 
-3798.8459144 -1991.0757706 -525.28564397 -3695.8329062 -1198.6742296 -1210.0092948 -4378.7874358 -2990.4926458 1727.3238569 
-435.73844777 -225.07061077 -2857.7484633 -3103.5094338 -3617.3553237 -3517.5064024 -1322.0388719 -896.71473932 -1300.362723 
-1300.334913 -1007.207765 -600.29227006 68.914901197 -2401.0166771 -2652.3123809 -2402.5124743 2.4467929043 -3027.4657357 
-3300.5033784 -2981.7907762 -3421.4605351 -3181.4954275 -3014.4929233 -3423.8484068 -3209.4896017 -1237.2484967 -1111.0114237 
-1192.9580041 -1491.2860843 561.60399045 -2645.056859 -733.12602385 -3780.2498643 -2768.9955141 -936.90062801 -918.58893251 
715.68459066 2111.3194861 -3049.5517907 -3524.7302541 1028.5344818 -3937.8161086 -3668.1169478 1815.6356386 795.93672057 
2161.9713977 -3490.6733756 -3320.9919089 -3493.9807977 -3309.3133936 -3619.6587484 -1791.6923306 -3908.7079317 1440.6357783 
1143.9452173 1229.2368244 1544.0213234 1060.0937743 1253.5123014 857.57829448 -3018.4351067 -2910.327532 -2478.4718307 
-2783.0586922 -2961.3631228 -3620.3140032 -4539.4049997 -3858.7818611 -3327.0228726 -3587.2572686 -3594.1487736 -5569.9817796 
-2365.1924544 2876.9715864 -990.20715703 -2451.2351039 -2754.1987038 -1890.284156 1435.6931829 1059.4852364 1593.4129865 
-1287.3918594 1065.1079933 1528.050799 1464.9484927 825.54101642 1600.5708222 1678.9700154 -3524.9584093 -3672.8258872 
-1344.1810421 -6031.5342509 -5614.8983343 -2633.0101495 -1054.4331651 -2816.0338885 -3720.5029573 -3709.632705 -3719.0202689 
-3840.9012074 1849.5794783 -4083.5803404 -4081.8881008 -4163.5431698 -2146.9682199 -2970.4183474 -3364.6014665 -3613.5492316 
-2346.9449126 -3519.1017666 -3800.6466916 -3655.5579879 -3703.7296571 -3589.4796935 -3478.2949518 -3572.6935839 -1882.5916557 
-2080.9454165 -3979.3760658 -3589.4692869 -3675.4801758 -3140.0967869 -432.15538429 -1665.5407648 -3609.2300981 475.82625685 
397.97429811 527.75385577 949.79194345 863.33292033 813.61145203 -3756.5074716 -3551.9015088 -3824.3226293 -3620.3922173 
-3411.5252187 -3369.7176838 -3152.0644776 -1709.6749083 1214.1933105 1151.3430647 1385.8622857 -3594.8834768 -3634.5302753 
-3108.8858658 -3258.1319242 -3350.7367129 -3283.027301 -3235.8470683 2904.4897096 4474.4037408 3659.0977426 1621.3612279 
-2864.7988181 -2975.0666136 -3430.5082698 -3064.3060503 -3114.5607924 631.93971401 934.21415893 -3406.9207063 -3486.990464 
-3546.0686477 -3382.892769 -2917.7355496 -2955.9411677 -3274.9856707 -3403.0098909 -3231.8818501 -3370.0567245 -3250.4512167 
-3576.5498215 -3550.7642879 -759.95711239 -1207.4459227 33171.688778 127362.47064 -1619.8024809 -1968.010212 -2492.6755368 
153.11153595 -3674.2339305 -2089.0437439 -2002.5591343 -2454.9296053 -2358.3764278 -1874.6304142 -2257.8035621 -3846.5468842 
-3894.6131719 -3797.7682362 -3728.0384523 -3752.1694255 -3797.5713926 -3828.8357289 16584.0438 -1082.9614222 -3350.6333577 
-3402.3105462 -319.42625778 -610.81195485 -2944.6285398 -2629.3289405 -1089.2041253 -649.68346609 -432.73864104 -1516.8477635 
-2129.5412964 -5631.3302283 -2604.8302487 481.05451394 537.67411623 3829.2543533 -3351.1825839 -3370.1780546 -210.04999064 
-1110.6616746 -1546.0958749 -1396.0678355 1794.7458497 1948.3446541 1017.4981018 227.47422208 -198.2688454 -3444.6947398 
-3439.9214678 -3985.4826714 -3905.7946134 -1443.8064717 1179.0231855 -1569.5530712 1661.9837469 1523.7815801 -7138.0338701 
-8326.8548199 -8493.8432353 -7444.2077968 -3510.7485798 -4489.6470101 -3512.1655102 -2968.1695199 -2999.1891302 -2919.2078723 
-1929.534804 -698.76193727 -3258.4066675 -3473.9680097 -3353.1289341 -5300.373179 -5314.4562744 -5559.6954217 4020.5364604 
2827.0084674 -5916.4524244 -974.6764956 -1504.1639403 86531.290306 -2626.7135074 -2293.7236287 -3484.7654455 -2390.1294502 
-4857.4485659 -2708.6016435 1038.2055786 1027.0868965 1172.4451385 -8584.8299204 -5462.4470861 -772.11908265 -1900.1355905 
-572.97834958 -1507.0363784 -865.18026677 -4352.9100825 -3548.4476172 -3644.8816568 11160.944698 9933.2654913 -3388.9470268 
-2710.5751372 -3440.5046139 -2826.4482372 -2997.5197192 -687.54339967 -809.89171065 -1045.9533979 -2437.0055559 -2221.5379254 
-2617.2213335 1140.518585 2968.7704388 4243.6670188 -3448.0237341 1650.2407301 1442.6907698 1247.3084968 1191.4957718 
1431.8858044 -2279.6862072 -2499.2961773 -1553.917566 6184.6292344 6107.6460449 -6354.8953257 1868.6578704 1862.0818036 
9303.5793781 1192.1256391 -1132.704152 199.56623324 -248.57695931 99.30810903 -3130.3167714 -1773.5692358 -1612.9454414 
-1985.8081286 2112.2204285 -4843.830825 -5001.8410303 -4589.0786102 -3505.7128062 -3569.9550213 -1918.0664634 -3568.0708456 
-3656.0648749 -3794.3082564 1291.8927788 1681.5425168 1473.4226388 1287.8773334 1567.7463601 -1512.6652241 1075.0035523 
603.4598437 -1914.4349984 -3484.6682434 -3043.3440341 -2385.8341817 -612.42843233 -434.77406913 -2387.2842556 -1129.1851589 
-1141.4756497 -1189.2496736 -368.00283109 -2015.9836871 -15409.339426 -3202.3038211 -3552.1117735 -3556.4983091 -3476.3464218 
-4176.3287312 -2836.5898772 -3033.9408014 -495.09447101 -1498.7172643 -3101.0130836 -412.5250394 3328.5351812 5860.8104007 
-487.83793032 -1178.516008 747.95670333 -3160.6246124 -3259.3726619 -3233.1626808 -3444.1032254 -3070.2292313 -2842.1696588 
-636.47081549 -1480.8270709 -508.18708962 -485.36448797 -241.56797875 -1123.718008 -1456.217473 -834.75402373 -922.51699127 
-2756.3405031 -3016.6874244 -2620.3208216 -2887.6314053 -3213.555726 -1075.0662939 -1334.1698533 -902.31713274 -1129.1223802 
-1392.4184663 -3121.4644743 -2975.1377522 -3171.8535939 -3008.3147961 -2561.3920258 -2741.2306007 -3061.9843989 -2790.8532971 
-258.01852852 -2308.9652339 -3300.1472217 -3288.777368 -3149.3086632 -3398.7818797 20653.30673 176.97870543 13424.589581 
-22209.765121 -3876.1913518 -3737.1271163 -3947.0113532 -863.26994804 1665.425064 -3148.9379775 -3231.0543039 -2691.7208658 
-3388.9932199 888.87218653 1118.1599803 -2821.5555954 -3089.5620512 -6261.3543094 -5704.16144 -6100.0085563 2049.7648941 
2374.9751591 4499.6998502 176.65975815 -17143.411023 -3620.1085082 -3483.7773001 -2944.772202 -3136.7716142 -3472.188406 
-2351.7412361 590.55196811 -3705.5409114 -3919.8803235 -3558.4590974 -3333.4481929 -6389.3016017 -3864.0688141 -2007.0762084 
1250.3558564 2016.8390901 2077.5388102 -3881.7826805 -787.12254839 -3234.2409008 -2997.6438509 -4429.1350243 -4645.295135 
-4691.0245176 -4184.2625483 27846.723203 -8716.4428972 -3953.0772479 1607.0360171 2207.8729273 1779.2976298 1967.8069579 
-2441.9056301 -2323.3504045 -2575.3042504 -2426.8330335 -2275.998577 -2191.8021004 -1572.3485658 -1590.3011563 -3637.2051687 
-3605.8548369 -4067.5573354 -3365.7385513 -1309.250835 -571.65875462 8724.9849481 -1779.5572775 -3456.5177852 -3564.2437706 
-3628.9799869 -256.9887475 -281.38844218 2.7948303989 575.10823558 -78.575055002 2032.8082029 2044.0398514 -3813.3852506 
-3870.6771654 -3204.7027477 -3119.8202779 -3176.2060893 -2895.891786 -3003.5728405 -3320.5231633 -1105.2635055 -1175.1148845 
-7766.6481455 13396.497932 7738.2718977 -3543.2417745 -3199.025651 -3829.3650929 -3726.6950912 -3639.3828335 2963.4736212 
6219.8619142 -2715.1947088 1776.1082117 1815.9004609 1648.7000893 -603.91730238 -1549.4195623 -938.39417717 1557.9502814 
-3115.8056938 -3027.0214304 -3198.0531659 -3042.5252011 -2854.4670347 -3044.8862485 249.0181642 709.93511537 -1316.1572907 
-847.85271659 -300.723332 -79.902287323 -2675.2991351 -2800.4537615 -3527.06146 -4667.0432547 -5662.0366573 19204.751857 
-1221.9747567 -20.090989125 27809.98032 -3731.5223413 -3714.3650171 -3709.0869194 -3652.8787718 -3680.9341409 -2152.7112417 
-3604.2419384 -1646.415975 472.72912496 1327.6291869 2450.3717532 -2901.4035557 1800.6817822 -208.57412523 580.5811881 
-1291.4344017 -1753.8491684 972.81610497 569.17336697 485.75036049 1905.0296776 -383.06697519 -3541.100589 1245.8909509 
-2853.5896514 -3634.5060378 -3472.413658 -3570.2944016 -3551.6072555 -3493.2581817 -3421.2417645 632.24014475 1541.6640119 
1760.8195965 2776.6135334 -3515.6262595 -979.8455615 2016.2100763 2065.6523048 1609.7758621 1766.6775089 -3212.0328405 
-3243.1229825 -3438.2555021 -3749.1286297 1322.1941897 1035.8789102 1493.6013744 -3272.5302232 -3451.4168933 4239.3968502 
-2926.0667138 -3333.4728655 3717.2686632 -4095.4906768 -5162.6198631 -3714.4421876 -3480.055044 -3520.4103466 -1640.4691173 
-1848.0723909 -3414.4631502 -3338.8201744 1280.9857344 -1525.7654442 -3258.4117509 -2985.024956 -3051.173244 -2571.4553064 
1590.9118164 1340.268594 1732.4444441 1817.3568942 -921.65138078 -504.39193521 19755.435854 -33943.424413 29819.534565 
32658.362165 14908.178314 -1060.2234612 -2955.0120419 -1698.2777694 2431.9336213 3033.0611846 3409.7445568 -6874.3710039 
-11457.938148 -1113.0434539 -792.61753607 -1337.5191828 1662.0920682 1570.7296017 1411.3515973 -1541.9659237 -2855.7027905 
-3636.7254404 -3568.2844056 -3448.7639637 -3000.9307594 -3646.2633424 -3636.7172312 -1500.9549308 -3253.0999422 -1992.0188027 
-1721.9410695 -1038.9489636 -2990.0003029 -808.42688999 -518.53058644 -3870.6604311 -3861.0974885 -3641.1022438 -4194.5440259 
1331.7990738 -2028.3791097 2190.6436527 1922.5365123 188.02570673 -2844.2250426 -3414.0984642 13746.606758 3897.2599626 
-137.38807545 1800.0715703 1723.6447436 -1131.1762914 -1780.2931342 -1622.6580899 -982.53431931 -5586.8478467 -3849.2855552 
-7252.4891166 5671.0607015 1102.8378847 1202.3374416 -2339.2159167 -2496.3082609 -2721.6413271 -513.19166035 -24334.096073 
8390.3229045 -3382.4727751 -26.341765419 -3524.8424312 -4916.9106699 -899.02607987 -333.49073573 -365.84090753 -375.35990159 
-750.27925557 558.77843111 538.12832329 -388.1440378 2046.1137519 1868.6700984 2109.3667063 2053.1249445 1854.4392533 
1811.9052367 2108.7720012 -2124.6432723 -265.11991875 -3212.996187 -3181.3041592 -3473.7215643 1854.55115 2191.6706835 
-431.55810625 7999.0431797 704.290059 -2700.7769061 -2146.6333811 -2331.773266 -4465.6379448 -2473.8693921 -2773.6973474 
-2753.6589577 -2813.3907119 -2856.0839594 -3480.4747957 -4333.745662 -3242.0476736 -2872.4115442 -2818.7122638 -2583.8931076 
-3904.1918752 -3850.7766739 -3927.2729223 -3795.7094649 -3760.0301118 -3620.4079336 -3739.8414122 -3842.6371048 1525.2257511 
1564.4160877 1520.5835637 -3329.8336871 -3248.8518242 -520.27309404 1202.8867419 -305.16314589 1724.6654669 1793.9419264 
-372.47559686 1516.9053472 1760.7246955 -1944.5397524 -4030.2954402 -5314.231899 -4243.0932062 -617.60241356 912.23135115 
1020.9201743 1148.276779 1239.0447474 1308.8796434 1153.4365714 -3662.312327 -3500.8545915 844.56860898 1002.3917477 
-3564.4862705 587.2801979 -95.394131239 -51.472675255 -657.42813262 -76.550855907 -3185.7262792 -106.9140409 -9695.436879 
-2592.5213436 -3703.0027382 -3799.1991532 -3894.095682 -1142.6708372 -3928.9946433 1949.6950152 1979.3863049 1835.1206525 
1954.4718819 -2045.1545861 560.43010693 1737.2065112 -2428.4970594 1093.385948 893.47941042 810.41260127 1111.9236992 
1202.3791331 -3654.6337554 -4306.681803 1331.6606645 1279.6512493 1508.200901 9687.7459463 11350.012816 4679.1829024 
7043.1446202 653.56628512 991.36299493 1784.0525183 1791.0332391 1812.4105476 1768.0427402 -2877.4584168 -2710.6984512 
-2947.629993 8993.0073062 -1763.776827 1022.8091593 317.17339305 -3458.822101 -1393.2366901 -3678.0221996 -3625.3019954 
-28.323289101 -221.33035724 -525.53654319 -3056.8463753 -3371.3938541 -3424.24051 1777.8799414 1829.1861483 1952.7187626 
1961.6160634 1859.2682988 1745.9072804 2034.2303596 1812.2573743 2355.7627766 1505.7139216 -2072.9452383 37907.9197 
-13702.24905 -3195.2754491 -3342.3220784 -2491.8045876 -2275.3988956 -2188.2261895 -2241.0673109 -1762.8222622 -2271.2843818 
2503.5731416 1830.6486236 2359.5647308 2024.4661199 299.24923618 -86.780216876 434.87992808 -312.88239328 1869.5289114 
1596.1796065 1789.2510413 1321.0643033 1695.3608994 1643.7836631 1465.3731447 1443.2857297 1616.2815615 -2610.618716 
-4030.6289682 -3567.8444861 -3541.3225253 -3555.6503191 -3675.2513072 2099.4347405 1840.7033203 4691.6790127 -694.81003845 
-3627.7228697 1429.1988753 11255.303723 -128.19722624 -2727.8013922 -2928.7882593 -2170.9356817 -2840.4973388 -3385.174892 
-3326.4340605 -2134.1663225 -2579.6666898 -2451.1936121 -2795.6293892 -3457.8558081 -578.66126761 78.234781331 -2783.9853613 
-1188.4913037 2663.5718846 -2953.7795622 -3260.0269057 -2845.9204176 -2919.6201448 -3078.9784341 2169.5105154 -2629.3827621 
-2829.654202 1770.6885681 1691.6458268 1825.0140672 1832.2610276 1401.6757782 585.87787303 919.15934539 -3025.8652888 
-2985.1328292 -3571.7890798 -3464.7456684 -37044.417863 2112.216121 1538.6070573 1357.1922863 1653.7117224 1537.1349415 
1390.4341404 -2589.5399277 -671.41051448 -617.91891272 1569.0924945 1444.8425304 1512.5474812 1283.0759247 -2173.5629787 
-2055.1521402 -3762.5505266 3714.564211 1005.3841126 1453.6042988 -8628.3082603 -6219.2671776 -8177.9889414 -13734.345769 
-3442.118257 1518.4419666 1510.2593833 -1769.7696938 -739.38455574 -2547.4115854 -2272.5746462 -436.36577459 -3359.6819939 
-4095.7272383 -4199.6839809 -4100.212515 1662.4836926 1641.1820344 1432.7056505 -3592.7977176 -3610.9491316 -469.63559641 
-2755.7859121 -50.661322957 -3525.2635833 -3532.5574537 -1537.6089896 -1233.5471184 -1194.1033597 1819.9963792 2072.426269 
1996.7110862 1765.4973789 2074.0582212 1842.5099287 -3628.9634348 -191.51290593 -3238.1679252 -3223.3157716 -3417.4656597 
-3428.8254628 -4127.8644957 -4196.8894921 468.23672862 206.30197428 -2613.0456318 16684.207192 33801.389717 1623.4370598 
1692.2937709 1697.8765215 -4464.8377984 1622.6966741 1549.4212686 -3405.3269471 -3439.2556336 -3251.7896398 1301.264175 
6576.9042495 1276.1985777 -2863.3313987 -2947.9847885 -3612.5662179 -3596.3946902 -308.44368921 2047.8973534 443.68401331 
967.48149379 1025.2427774 -957.4295163 -3571.8382 -711.55631599 -592.74141492 -399.65143948 -3890.9634568 -1318.957734 
1351.503401 -4264.8887389 -4419.859138 -632.15841921 -3706.8630825 -3706.9493468 -3706.6984043 1607.263819 1706.7298448 
-739.50387307 -430.26415397 -4989.528405 -1061.1609777 -129.86805239 1511.2328902 2785.189744 2405.2187452 1545.6331577 
-3228.0338398 -3022.9793958 672.31059228 -731.06903706 -3591.1262383 -3736.0041673 2375.4039401 -3496.138166 -3564.9576548 
-643.84964721 -2726.0277434 -2551.8182653 -2487.9950747 -59154.807381 -2840.5733887 -3665.4637259 -3678.4128468 -3905.3735367 
2045.7613201 1768.703303 -1758.6290331 -3253.2922777 1502.2957236 1245.9357541 1203.9251905 -903.88408883 -2890.8585073 
-3103.3118172 -1627.1668294 -2806.9287977 -2321.5422524 920.50459997 1289.2792845 1874.4475904 6077.909453 -3331.8621325 
-3434.1358769 -1051.0408656 -8645.8131992 -655.47310648 -2199.7727233 -504.57065653 -2758.0288251 -2499.5653801 4909.5513286 
-2995.8329982 205.33078615 975.84449183 1279.6650839 836.88318169 588.72994137 382.16236111 743.62443583 -2364.3261213 
-4785.1120153 1753.2631232 3418.0440455 3277.442133 -3668.7792898 -3644.6857033 -2896.2702618 -2949.3849716 -2441.1318107 
1594.7155791 1779.1061483 2017.1160729 1922.9046096 1850.1675121 1959.4488378 1677.9023719 1869.6368754 -413.43289301 
-220.32212311 -2827.7322009 38856.365137 -2664.8618233 1376.3817152 1458.1291651 1837.9058519 2062.8065046 1732.6454644 
1554.5392715 1366.6779644 1702.936439 1481.140136 -3485.0522203 3905.2479648 -2322.5657247 -65.872845191 3650.7383217 
-6185.4909772 -5603.8796118 -5515.0856104 -218.40518307 -7594.6874649 7952.478361 4063.0687282 525.20878252 1077.8901849 
-3119.6497049 2120.5358271 22858.184177 -3436.4351744 1679.1955009 -118.82297856 -286.900011 -3447.79182 -3266.9912176 
-1300.3808461 2015.4963342 -3737.5001762 -2357.8662698 -4674.3765611 -4228.6605262 -4982.3894827 -884.54471512 -3547.2980385 
25422.592197 9109.9232107 -2521.7870696 -2589.3109239 -3493.0928802 -3549.3501917 -3412.1771596 -3503.943004 -2858.5226194 
-955.04788084 902.27126147 1671.4759388 2363.0383283 1284.4776119 1342.4228177 2142.8397437 1584.0978496 1458.1103379 
-3137.5044957 1543.9523811 4632.4429252 2115.7163417 -2669.0557857 -3752.7864597 -4082.60614 -3277.3214361 -3453.6186827 
2078.320839 -2912.0765891 -3502.7529328 1613.8120968 -7594.9303815 2656.5358627 -3535.3699217 -3538.3488436 -3607.0407166 
6744.4615022 -2947.7406345 7860.8007583 -1151.5828843 4946.4741117 14812.357408 2013.8679191 2075.2474106 -1608.3755002 
-3434.319296 -3474.1991491 -852.56152485 -568.23040215 -1083.9299143 -1435.4561169 -3847.5012238 -3549.728443 -3664.37362 
546.09698866 15.716360662 -3519.194984 2149.9170218 1636.9010454 -2840.1247847 -2982.1263645 -3125.2026156 -3239.061216 
-2381.6133431 1.2224916251 -2830.9258384 -3798.4282747 -3838.6942275 8512.0681895 3564.1353054 2684.7194728 1685.9862236 
-789.7209215 -473.70846574 1081.3357714 1669.7437618 -3468.0331611 -1719.6030242 -1432.6322089 1479.111334 -2740.8684138 
-4330.7768372 -2557.5636144 -3962.8239257 868.63690615 -556.9719778 -572.72518591 -73.965070587 -8083.9794638 -2450.6118998 
87.5825136 -145.13210843 961.92897352 1304.6935542 2178.0049876 -335.09192047 -85.997930253 763.53520633 -3352.0622657 
-693.24092601 -704.82001783 -2725.9716172 1494.6703341 1599.345619 743.41849489 -5024.8362438 -2588.7807224 -2235.2229574 
-4477.0886281 -2112.3112436 1481.1226299 -3612.9520817 1591.4923379 1619.2991326 -3541.0772863 1043.9532191 1085.4231096 
-87.949269912 -3846.5405181 -1342.1167847 -2175.3588183 -1039.2595822 1784.8200636 1797.0166388 -695.83008809 -620.14967724 
692.49637258 2355.8587817 1489.6024733 -5849.1692783 10935.478799 5148.7338079 5483.6978627 -3424.1497883 -2750.5851663 
-2626.2401806 -2471.9058982 -924.54296303 -801.5217271 -1777.8676901 1768.5726453 -3521.8224421 717.26564234 737.34878205 
985.71972922 2029.7625011 2066.5216889 -3340.1035785 -3426.8161692 -3814.1603209 -3914.5774987 -3590.2425326 -4273.7848405 
-2930.5752442 -1831.0157085 -3232.0891382 -2317.601784 -2548.9385295 -1481.7932967 -1857.9718195 -1675.627351 1628.7317865 
253.94679723 -2042.2679407 1563.007715 -916.44979908 -721.52487721 -561.8857111 -151.0717572 -889.84632441 -1604.3887745 
-3778.6210074 -2525.5929969 -2800.4926937 -3551.1528571 -2830.1446257 -3550.6815754 1429.9327496 2633.3772189 143.59436649 
1972.8187384 1828.3114945 -3734.5025625 -3554.3050623 2187.4257871 10294.636546 1098.3368988 4429.5417206 2290.0710524 
1262.1989287 -3453.1801225 2001.8869548 -2811.4244299 -3408.3591279 -3262.0927754 -3254.2637151 1253.3111826 -5324.3671582 
-172.44824824 -1233.4450564 1330.7866329 1184.5091839 1123.8557757 -443.37649442 1901.2339495 -3537.5303623 -591.89773203 
-1010.5429396 64.615822092 -3606.3656626 2169.6269556 -490.75297142 547.41252559 -1245.0685308 -1087.588957 -2856.4459541 
63.990133779 -2066.7112686 15979.156814 -3754.7977264 1651.7417124 2074.3943147 -1220.0259371 -1958.6098497 2054.0488596 
-3962.6066859 -4208.6125771 1826.457001 -10396.652232 -6891.5466872 -12854.33537 -1163.2569611 -1413.1604845 37.210782679 
129.01902452 -329.46172341 7136.9547449 1764.7860726 -2459.4311541 -2948.6120599 -2719.0221589 -2819.6579485 -2685.0604573 
1424.2078435 1289.5277854 -398.59536994 -13449.102722 -4030.1442611 -520.40683122 -2740.6278823 -2644.3515893 1934.5121218 
-6142.6420799 -9679.3794062 143500.83618 -276.24900115 -1399.822034 -3340.0898146 -864.47419567 -193.27716514 -18722.239506 
-2790.7051719 -2995.1441495 -2299.3851787 -3159.3723417 -637.54952569 -1201.6257571 -2205.4316626 -1045.6625179 -3909.3729314 
-5387.6940465 -5422.2614291 9361.7752448 -28401.981237 -15262.860357 -70174.261396 840.26273036 38829.554907 28505.51438 
-3143.3753715 -2960.1611108 -3726.1955132 -6155.1479478 -5351.1164181 -3150.5952741 -2932.7278242 -2208.2331605 -2408.3390562 
-1482.1315883 -2634.503765 -2492.2192507 -3690.6097442 2141.5319554 14504.269708 -9938.1344068 21042.867418 -3539.7396467 
-1182.8406374 -2955.2848304 -3345.866845 -9328.3058713 -3399.3803515 -1922.9382504 1721.4942308 1261.7176197 -3138.2704309 
-2764.8870424 1942.1195192 -3629.2987004 -2479.7004595 249.55060286 -3267.6473403 -3667.7930949 -3344.4747974 -3045.5318237 
-1394.128317 -2882.3429773 -2854.0007838 -2860.5824393 -13932.891369 -3210.1651059 -2851.73828 -3186.2150053 -8604.6034749 
-6039.8962336 -2470.2555633 -3443.6740806 -3998.6892572 -2814.1625106 4428.3389056 111.58771408 -296.46320788 729.39362786 
-452.25820533 2120.3017468 -4181.2009005 -2544.3999413 225.06867723 3764.3462261 65.253086886 -875.49291184 154.58800589 
-977.50806661 -1298.7577911 -218.41478157 2087.2366797 -921.4567801 -1994.2768267 -257.73723382 -128.10987947 -305.65608954 
283.12861529 2710.0178074 2040.8989689 3976.3829019 836.44345249 -1407.7939645 -1691.7710366 52.014227042 23.337526016 
-917.28314214 -2739.7984213 -4548.0880638 510.5711323 -545.71661283 -5429.0106293 4920.4860737 1097.6999992 -1035.4127749 
2417.6985861 -4362.7811522 -1135.3216869 1453.9737285 863.57611764 -650.88246643 114.04381669 -4035.3895573 -2197.5969296 
-2149.8567076 206.76434634 531.81010172 -1992.7640407 303.85132396 -6144.1268578 877.93072251 739.48731182 -1573.6942189 
-1853.0529901 240.41194233 200.96632758 3146.9529802 5172.792635 2360.965786 -2054.4368657 231.33371092 1164.2969338 
-543.39535186 918.68739184 -1355.0752149 -2101.8926872 -1120.6567083 -1591.576453 1825.7193086 -7819.2719995 -1544.6309019 
-1272.9491424 -73.333274337 1752.3954389 -1582.2174274 -236.13048399 401.08134397 222.58468784 2383.2057133 975.1064796 
-4917.3467796 -1227.2311858 -3098.0942881 -3853.5915897 -837.38459062 2050.7770427 -7317.3873093 3008.8436736 -968.54473261 
-6157.1739431 -49.747778933 656.20763226 -79.927475418 811.23693756 -127.99600108 987.1294196 -6476.0301157 178.51506884 
1244.4478003 606.9865848 -18.315204122 -156.13904413 -88.328224468 -1516.0887888 1518.331662 -788.80447478 517.86274171 
-161.39163019 -652.77833778 -1136.286667 444.51473507 1371.6346368 -895.70876589 1315.5200828 -939.32047213 51.269476903 
-687.68113038 278.79710957 1503.6969323 -510.45933826 873.03205619 1074.0751094 -281.99659053 817.26833153 1730.9519092 
-84.761419453 422.70479402 -1414.5800778 4023.8955613 549.63681559 460.52473374 -348.42182343 -320.86746953 -408.34518924 
-348.9808081 -113.58829893 1.4606023129 -1883.117635 -623.48714428 -130.0548349 -3179.5916948 -447.98649582 -7402.4378003 
-1673.8439288 -518.36614608 157.01686886 -4018.2025531 838.61801988 -4452.7576498 -656.41787088 1180.7994115 4131.6846244 
1030.1284871 -28.343285746 22.9963493 -444.56082808 1082.4489281 -791.87194803 -245.26266632 -2000.1119145 -755.15645259 
1764.5025294 183.3722792 623.50563853 -3967.0488017 -487.35615473 116.6422334 -8128.6738611 8.7267059378 2015.8509019 
-142.16933159 -1011.5358622 -6724.0857195 914.55424936 -3669.0720003 484.31553151 -1132.6788939 -2171.15209 -2914.0522951 
974.27049855 -706.05379613 281.39011562 -2729.5173808 -570.42543573 1102.6022667 -253.06077282 -1137.8773513 -1768.4658081 
2113.6435471 -259.25520148 379.94394696 -7589.2408573 -7651.4537862 -697.91074866 384.5036983 -266.16426144 -223.07458729 
-250.42197225 -1029.014154 224.57125179 1345.361885 -1615.2480808 -752.79968935 587.2244874 -648.8196179 404.48877792 
-4559.1451326 -498.63353283 1330.53219 -7031.2196039 553.07226063 -128.45479916 3091.382181 -8102.4235329 873.37529187 
742.3291829 203.84880479 -4053.0741778 -2567.0705082 -154.26703255 4900.5813684 825.74493769 -5977.0053493 -1283.1857044 
-1268.0725985 -9522.6092548 767.90655505 -6035.8825783 -1165.7706468 171.92888682 623.47688863 -295.14209626 572.89689703 
-939.0973595 -2224.7256387 -44.413392169 199.5429508 1345.3894021 3972.3790394 -9155.7313946 -6077.0459796 -9677.881905 
-9662.3423772 -7377.7436358 -6329.5264593 -886.06297152 664.04573817 3523.2314568 -1169.8219877 1317.1167043 -657.25538282 
-7710.7535075 -9533.8177938 -7262.7957642 990.84201227 391.61572785 834.2844347 5239.7484302 952.47081697 1508.8264061 
-38.75700719 82.921965791 -233.27699147 -253.15267652 -496.25526844 -473.07689381 -3746.078726 3064.1484785 4840.5103791 
-876.97355808 -929.69510741 -1134.529564 -5632.0824737 -7446.3786454 -5755.2054321 -5619.4844893 -7699.6038317 -3033.9536366 
-3324.2534289 -605.96409575 -2746.5503251 -3063.0796186 -5469.8268881 -9411.546712 -10028.047727 -10583.511607 -2036.9313607 
-981.73097414 -3011.207695 -2721.9463289 -1396.170831 -837.83928091 -824.99256834 -609.50811228 -701.17650984 -2273.7293192 
-1387.4744584 -660.60412693 137.37346182 -88.599347612 -175.26420693 -49.975008294 -2969.1035414 -737.83156247 -999.17554731 
164.11529098 -285.58897684 75.787230464 30.148721543 -665.72605986 -168.84852086 972.97945219 714.0600471 2332.5929218 
410.62892767 3213.8060497 -2000.8892294 1294.6721421 495.18074516 2214.526709 -357.6198974 -233.1508147 -524.18536241 
-311.99889336 2248.7503442 -350.7744389 -8879.3299895 -3003.5632231 666.17498703 1745.7050938 187.34686164 -3601.9291983 
1594.030524 -967.82009846 -351.50519839 -2133.6379598 1203.4218721 167.86370637 -370.21411748 1674.8909523 -6549.9407736 
1934.3267004 -292.78968646 1318.9253388 5402.6451789 4699.7480968 -2452.7853476 -2521.1657558 6896.3228876 553.71869906 
-617.48095666 -1742.9234353 3651.155686 -4378.2353315 159.86094608 -2956.3016294 -5763.2221363 -628.98666836 -1534.2235069 
-458.27657222 -1568.441063 -1025.6680058 40.381095125 -652.9871811 -513.30930043 -891.17373821 821.55890521 145.59682987 
136.81706789 88.312422164 -60.13317979 -2880.5800416 2215.1270745 3055.4387215 82.125147646 3091.7939641 4285.7944758 
4487.5270748 2443.9450636 856.43531981 -495.54035379 -325.06905524 -828.26268553 -1681.6363371 2895.5942243 -164.98100349 
-1431.3074212 3953.3153348 272.10007952 -735.97685598 -6196.6543355 -3735.5427346 -1950.1483867 -1570.1615732 1913.712208 
8031.4042826 1382.7302979 279.04628727 -1047.1257153 93.967063358 187.26040151 -2053.3977012 -9709.5154911 -10330.850718 
565.56034823 -2435.0823601 2949.390373 4608.0254843 1189.9121961 -2857.700834 -100.4326509 2142.6092406 1124.4436978 
7.748316356 -218.81070935 85.164194768 853.24507116 -966.88805233 5851.1332439 -3953.7179857 -9157.2032583 -9029.9762273 
-3563.9787215 -2869.0058194 -5200.4196149 37173.931871 -42961.856169 40243.096406 19483.495435 3728.7753853 -4431.0680963 
2134.0416735 8031.2821217 11232.076815 -5090.211235 -5925.3823029 4392.8863273 -1930.3838354 587.02894838 770.44989992 
1941.4062141 -686.8280262 -3004.362028 687.17865847 -329.19427253 -2985.6536889 -2877.8107682 -4977.9139923 2189.2395937 
-775.21756948 1859.1495299 -372.30899693 2704.7565202 1685.5419809 7139.4171606 184.21147815 -967.41122692 3632.5007472 
-27.464788829 428.41523627 -3038.5968977 -5580.195827 -8668.7264298 -7962.0677286 -6464.341987 -9506.3044832 -7351.6545893 
5232.3039918 2953.0702739 -2414.2863633 -1776.7060625 -4142.5249918 2690.6456407 2780.1413843 15875.513955 -27526.291017 
41160.177788 -2631.7782225 -774.69865753 -1518.5080302 -1595.5954195 -1176.3083672 -2819.1207755 536.42116979 320.08046055 
2339.0120946 -3599.7440425 483.89752657 -1080.6346755 -1187.5240765 -97.109286683 203.11073512 -492.30284039 2049.4585901 
2948.5843832 736.96274299 636.36212727 -5466.2788438 3887.3690292 25695.596669 -20188.911943 7118.6441089 4938.1657486 
-1623.1225722 -485.56130471 -1939.3622591 1708.424388 5932.1535281 -660.63655467 -1498.2208151 -2479.3669341 -430.9674163 
-345.75570522 3633.5259871 2237.2379208 -3142.1728068 1308.6698771 -4967.2519061 -3467.278758 -2248.0019854 721.89767796 
4400.4104437 -3709.1355107 -3766.6694756 -6857.0601046 -2937.1259232 -5848.76196 -1034.1622216 -1253.8986854 -873.51240637 
-313.32322207 -630.82054334 -504.62980713 -3859.8130239 -2569.3511273 -2278.5522186 -640.26460088 -822.77277747 -1135.866851 
-931.90438177 -36.256702084 -473.68314271 2072.3779773 -3037.9852699 -1730.9969023 -1837.9073261 -827.90957838 -1305.9111349 
-224.97047731 -1677.4796668 293.46177856 -676.88371566 -7067.3715994 -105.44245207 3084.067318 -2292.3574865 1080.1974389 
-923.27475711 -7191.6007984 -8060.2899464 -4768.4879894 -55.675185741 4005.6648212 -5547.2162831 5669.9106597 -4636.5113072 
-5338.2546874 -3068.4440148 -3001.2832874 2170.3864962 -7500.4566542 -1289.2385284 1132.0076829 -910.94908368 4157.2222235 
-1920.9548998 -5154.3504415 -3532.6154351 -3894.5282308 -6812.41065 -6411.9180374 960.37319355 -10566.085662 1345.4943442 
3497.4785769 2479.1069853 -2018.9953356 3093.8654229 3863.4117158 1276.5255366 -3541.229595 2369.5343942 1115.7524498 
8353.921957 -2139.8142781 -2678.6316281 -7489.7975466 -4902.1621781 -2054.0159248 4451.9472234 -7992.1220316 517.37753524 
-8916.6181947 -1873.7270246 -1592.7728085 -682.91352239 -2742.3944018 -2513.8886449 -1448.9475837 9066.1722682 2599.2801939 
3381.7789887 2073.4172342 -2945.1435484 -1520.8300248 -1813.3907778 -860.49314765 -945.64421681 -745.38297941 -1713.7626598 
5485.5983529 4694.3438074 4813.809532 2467.5733205 8059.2380683 -5071.6657581 -10523.169714 -6724.4546154 -3493.3728035 
-9911.6290145 -6208.2322954 4590.4365405 -70.796130444 5766.3097538 4286.9947535 1651.5249175 2146.8227351 2730.8110534 
52.584211237 11270.469412 -5098.2926415 -6906.3058391 416.02946312 243.81025703 -1081.2187823 -1328.2190819 -2348.3815575 
-1440.2077189 -5490.741891 -1400.0085137 -4993.6973226 3152.4178354 -6681.9408685 4313.3386229 846.73592716 -586.4851235 
-705.23230795 11967.851567 14501.622749 -1265.4989266 5976.1074682 1279.7344563 -2135.9565649 2273.7820148 296.11727527 
3125.6173842 -10061.3276 -5258.0700661 1260.315234 10386.612823 1127.7712215 7787.235259 -8630.0719097 -4903.6521935 
-6711.9282918 45.78484558 -445.26758557 1340.7223106 197.73327223 -68.580622249 3585.8075198 103.06285142 -163.80492727 
-784.57733342 -1531.3655207 -971.07134682 -2669.5155245 -221.76309133 -347.10349096 -120.06403174 354.05012376 377.09575683 
69.914030473 -4771.9474767 -4681.4061939 -396.31666486 -4015.018783 -2102.83038 -3191.9790362 -2336.6365003 -2832.4841412 
-1421.8487583 3456.7020892 829.8454543 11096.714671 -13484.196606 3210.2599782 -2765.0954815 1347.8496955 8330.5822614 
-477.44576931 6310.1571697 5712.6898809 -558.62560463 3541.2639655 -5856.4113165 -4135.8924284 -7979.2053371 -1596.2457794 
-7399.7065448 -7789.548429 -4097.3958732 -8777.468574 -7535.461904 -1526.8980911 -1467.5930816 697.47093961 144.09045441 
-2446.2581775 622.96186849 -9139.8536338 -9223.381602 -2757.2730131 -2585.4945883 4558.3933426 1578.244611 210.46209091 
-1743.689642 -6001.0643711 -673.77779324 5621.6057763 6023.9881601 -745.43941265 -9054.4506102 -568.7307781 -876.18154335 
-983.53779784 -1418.3462646 -11479.453384 -9962.6696811 -1044.7100087 7037.3855208 4674.3588881 4383.482068 20.509331254 
300.64808047 -1200.781492 138.77809235 -1732.9210531 6255.7783557 -5130.8257753 8462.6577832 -7829.9551777 2813.1785569 
-1904.8661431 -363.79263064 661.25635058 4491.5883483 -1318.7729318 2793.7674764 5094.4558674 -1728.3856504 -3258.1122874 
-3622.5294719 -32.29164143 -142.11562968 -575.79657431 2466.5469964 2581.5295081 -1730.1194515 -2489.4082118 -294.00431401 
820.08854921 5506.3916027 -4411.6319248 -3080.1338684 506.51559773 -271.85647956 293.62492385 5098.3287605 -2346.5608593 
1651.2209245 9944.3958527 1771.7563618 2830.1182024 -387.64782419 -676.57190518 -678.26589282 -966.41788293 -752.87637437 
-949.35936047 -3855.183623 2153.5634574 2666.4259006 -2098.8591543 -7634.5472868 -2709.1978829 5286.4826627 -10004.60288 
-507.07544584 1278.8942155 1600.0683761 1996.577935 771.40760606 -7121.1010657 -9510.343213 -7196.7980109 -1437.0635524 
-170.03471865 -2777.9003717 -2881.3605766 2081.8954145 185.27711765 -24.610088319 159.90811907 2031.4185119 -783.62331305 
1601.5762199 731.78765477 3535.5004805 1012.6515577 -2471.850572 -1495.3751142 -1203.5479933 752.32430507 1229.3452699 
-1670.4307918 1238.3945492 -1217.5897026 -926.96619408 -717.6514133 -3156.2186275 -4322.4634764 6179.8503766 1518.2966415 
1907.2230587 -1007.7066314 -3176.0476442 -2027.3036028 246.95123185 -2347.0960381 -2635.2317141 -1129.7394929 -2120.3715609 
351.3126332 -627.92551461 -1385.4901593 2518.8203212 2661.0845611 11750.802088 -2861.2887179 -8218.6364598 8573.4486471 
6230.6696123 56.493628868 -1079.312255 -2683.1258489 -2685.177521 2882.8549646 3797.2544219 -4512.1592837 -7069.0489342 
-1289.0778857 -3122.4676367 -826.22679683 -2741.5225786 14838.078422 746.66318237 -5179.1546042 -4326.8799026 -6128.8331756 
-6705.2859249 737.17430291 7480.7807528 2758.035683 935.0124024 1473.1886436 668.02095744 2124.633151 2724.9081959 
-1993.0219821 -1920.8527452 364.37824837 2469.0316828 -2293.4514726 240.93373773 -111.99551741 3283.822511 -2459.4030106 
-1050.1854156 52.944614585 960.9213696 161.79396634 -3193.2786957 -4459.4895696 -5896.7413602 -6660.6556889 -8351.0825875 
-2460.2735116 2390.3197476 -1680.8297148 -4204.8907042 4142.8955978 -2198.9845246 -173.08440383 326.11392389 -6145.2136058 
-336.26153721 -1085.9829852 -662.23609204 -130.17117358 482.04986624 127.76762997 -409.75965371 -584.58141483 -6769.6500612 
2602.0435267 -6442.5255702 1029.7070214 1887.8022162 4159.966252 -1206.5388165 -2306.4443929 -1734.2677962 -1926.803128 
3534.3287259 -3839.2888431 1097.6060254 -661.8094219 12868.119279 19130.576336 -1316.8018047 -6646.5660754 -218.74859994 
855.16931165 2770.4284423 5543.1266681 695.91584264 -1507.0184466 -493.63148892 -2097.7046366 -2060.1937865 -2430.8049373 
-1297.2026819 -4073.0634149 192.13513459 1695.6687958 645.24600368 -26611.846934 11855.328432 534.88125467 -1941.0249272 
4014.4821811 -3888.2993138 1070.9958663 5037.5242637 -14.036241118 -1177.2484639 -4535.5518789 -824.53127693 -1578.8077403 
241.16234086 382.73267506 4007.0958278 -150.75261934 1177.5463398 1096.6549199 5355.1997382 -2224.8509838 -3048.745473 
-1703.5075312 1126.989833 1441.197704 -1076.0917773 -571.49100587 -1215.4524551 -814.0290394 -527.70699915 192.23948831 
-2472.8279463 -686.35734981 6180.6901166 -1302.8328845 3587.3784753 1654.7225056 2975.433681 5256.2313875 -2297.7406245 
-4840.5053633 -5045.1331531 -10021.026623 -8989.8310953 -5837.5402255 -9765.2738462 -6868.9787685 -1528.1260638 -611.3736273 
-6480.178655 3734.8840918 130.899355 3192.8163823 -2325.1611742 -3988.3820528 -917.43713292 -2630.8213257 -1501.4171005 
-1168.9787738 -1443.5443358 -3970.5125196 10526.338512 -3369.1744144 1930.6940771 15944.595567 -10272.446873 100.37960028 
1886.7156071 2915.385977 -3281.1672304 -745.55589705 6237.2709962 -2223.0388538 3735.0307625 930.48594411 -778.66022096 
691.23191135 1058.9596542 882.37380764 171.19754632 -804.54013075 -1062.8922454 -1876.0064991 -9197.9306087 6547.9748329 
-2902.6162728 -3901.3805699 702.95789585 2002.2935914 304.83180187 -1182.6787764 -2391.836033 -2839.7877241 -210.86249716 
-320.7709444 1280.9968455 -237.85838676 -1236.2388109 -3.1974784507 -5322.5910426 -6892.2692563 2454.5161049 -280.89260962 
-444.94489327 498.80985135 144.13284026 226.0166367 -504.77336213 708.51934121 317.6020906 -1782.870068 844.30806722 
2135.666561 4527.4977924 4114.1406536 40.484997368 69.340098441 -137.35523639 -435.44363435 -415.66356283 1465.8726062 
2122.0452312 507.96870396 -1719.0553418 1415.9299739 -250.90278425 -821.16976649 -2007.3736819 -214.06204714 -298.87216167 
-7234.9463738 2260.4727426 -3593.3186884 -585.86701045 273.7646403 -365.42561972 -448.09470962 238.80927787 -9413.9103125 
-3175.7936768 6959.4702469 -5384.2621552 1958.0923872 6725.1105583 623.12391005 1567.6792704 -522.15176027 -966.33923154 
-977.25939429 585.28958081 -1890.2058343 130.39266008 -6675.4154652 -4742.1756962 -3379.56629 -7016.9429714 -5805.4965736 
-8391.4616119 789.1958046 -261.53312836 -5246.9357663 -3468.9358967 -3441.3047874 -750.33056057 1726.86699 -548.00745072 
-8130.9066978 5420.4562271 -3837.2541832 -5470.3198201 5537.7306635 375.61613925 2032.9978645 1853.8898155 281.68400475 
-28458.054482 759.11202368 -1246.7857048 5664.9278288 -148.49436038 2.9433656563 118.15125656 102.0426269 -2889.2692349 
1753.9975499 -535.77136302 -2662.7824777 -2402.8920007 -3233.1119572 -2286.2093247 -2390.7861693 -2242.4237363 -7101.2327552 
-9560.0720224 -9217.0605918 1244.3790529 -1293.3391385 273.04125696 367.10131442 -1137.6082896 3494.6750088 3481.3100345 
1732.7763725 -3032.7564145 14437.288772 -3951.6555841 3626.2550751 -368.47496004 -750.83307513 -3268.1256601 -271.0094031 
161.52734009 -5904.6253474 -3590.9819713 2477.8042872 -3440.4981175 1351.8939037 1932.4256436 -360.97006031 -285.2777785 
-2066.1759453 2324.4389902 -2649.2639267 3442.0656143 3699.8487707 -8062.6923565 1579.2625966 1656.8980235 -7703.3742383 
-7447.7992935 3719.7058219 145.89635508 2257.0368155 91.633323046 1939.8258156 -1262.1881686 -454.01602484 -6545.2395648 
-4793.304342 -205.94854756 378.05755007 1142.0569768 3401.0653976 -4626.7761341 -8285.8373825 -7559.354348 -7355.6271482 
-1039.3020841 -449.33998845 -270.70336858 0.25092597005 -11499.49302 6387.3422681 63.887722688 1578.0356708 7778.0172948 
5260.672837 -546.23745268 -161.14758354 147.49424157 -939.26219102 -597.37504031 -2049.683394 -5551.1236866 -46.38780396 
860.55311232 2781.883531 4692.704646 57.972930428 -3226.047725 472.14214716 1023.8338311 520.79547492 2912.755013 
-198.68330299 -1352.8832752 -3416.6701371 2945.6460148 -6037.5285517 5500.8691538 -349.44106693 144.59550046 144.35402552 
-1086.3947404 -719.84561092 4415.2132689 -2150.1234693 -4033.7468945 -3106.041101 -3430.414517 -5639.0082613 -4360.6930371 
-2496.0913852 -2392.2983811 -633.56734669 -1592.7725964 -909.82895463 4875.1843402 -760.27162867 -4464.4249126 -1273.3132982 
-712.45062211 -1418.2264741 -713.96391685 6753.0693566 1524.367631 -1742.123486 -2129.21943 5629.0714883 -347.46710485 
167.21828803 2465.6557421 5265.2771952 -951.79139461 1564.0918794 128.1883647 649.07526243 7012.5633793 -825.91930141 
-658.81367725 -494.15528363 404.4603941 -4836.0296505 57.980975751 1806.2173541 382.45336459 1136.9073719 1976.4029407 
-1358.4986789 -11096.138501 -4712.7227663 -2874.9695176 -4170.7923172 -784.44693081 353.16158758 1209.1467926 -975.88882991 
-457.26498992 550.27378885 -893.2929553 -830.55987521 7595.4702225 -781.88198174 625.44535671 405.24888434 109.15878287 
4307.7207511 -6688.9359298 -7534.8425174 -8097.0148879 -2858.7095954 -11279.882311 -7032.774256 -10341.584151 -10034.646145 
-6208.7902978 -7620.9373602 -10836.929953 -6258.6110087 -7087.7827702 3804.3743015 -4414.3048675 2297.2414435 2631.7486474 
2029.8604215 1512.2721846 -1450.25668 -49.659869407 921.4577234 -2828.8116189 -5286.8783542 -903.17170164 -2588.7996755 
-559.87636276 -6655.0023715 -507.6149846 -1287.9530859 -4158.5576528 8651.7586812 -3423.1034525 9196.076141 315.74051471 
-4300.8334932 3053.992239 -2705.5034683 307.83836558 9.3696367202 706.43494809 -2254.7365303 -1982.5482829 -2630.932239 
-351.35533404 -8037.1005088 -5381.1781709 -2092.8335048 -3215.5356186 -1135.9918352 -949.44822265 -2429.5971478 -2568.1865607 
-1744.5450101 4136.0630942 -73.89692869 -1109.1230499 -1590.8314352 -2171.3890498 291.52546149 -1368.8111827 -3549.0013141 
-2499.6370852 -4340.002818 -4722.8137649 -3792.6825892 -2588.2722849 -3281.2887222 -4905.4256486 -2888.4219256 -3887.4894583 
-1012.7823927 2516.6865832 -816.95227163 -938.8730473 -1271.4434655 -353.71164625 7692.5605323 -3067.5083137 -3373.0975298 
-4270.403837 -2760.4796892 -549.06581143 1842.6090313 2470.1111771 1802.0679264 -2915.6576485 -692.6087615 -5096.3245608 
-1872.8564555 -2967.2716846 -6284.6847538 -15583.478723 -329.40725337 2865.8461919 -6515.9887182 1345.292946 -3436.974218 
-865.78061908 15696.792492 7874.1131919 -9141.9763779 -9684.2110493 -624.69475233 -615.70110412 -1084.6534831 4809.5684006 
2863.469544 -633.59192248 2271.9631559 2550.9367119 1037.1599879 -1708.0806148 4510.034429 -9647.4524802 -6339.0101999 
-9757.529743 -10063.641862 -6135.4920341 659.59483611 -833.11541296 -500.74870918 -2727.9530003 281.65310718 -902.84945059 
-42.824913393 3638.8447666 4863.0235292 663.46207506 -855.19395517 -3743.7281736 -16585.592906 -4502.0589175 14345.664965 
26753.869491 1405.5419999 -102.99692349 -1700.1347863 885.68840227 -10810.842144 -7796.3930717 -2360.6246626 -143.08043898 
-8996.7383104 -6282.0695979 19.98812477 -2025.3277344 -5735.695588 2761.7439418 116.21522107 1476.0812078 1298.7711535 
-3579.8051822 5069.2258621 -1308.8392449 -4326.8540061 -7468.4746032 -3064.5978 455.80670353 -5381.9454535 -1645.0904498 
-8640.052643 -8296.9083338 -37.075755282 4623.4406138 1509.7424306 4658.1908582 5733.4146839 5684.5486161 -3112.5561805 
372.34119104 -1531.981809 3258.7932771 3113.6329861 -229.59242882 981.47739473 -881.33243554 -2127.4477304 -1331.7971257 
-1757.1551103 -316.40416824 -182.12168252 -1161.8007107 -178.14895393 2366.188202 -1389.1620008 -3738.5968849 -2558.7482918 
-1385.9945841 -4196.5007019 227.56653002 -967.54798208 -4775.4517656 -3498.5690483 3793.8553272 -3337.98043 880.62324772 
-5981.2111505 50.188170189 -157.72942593 508.90988486 4932.8863229 1348.2302504 -8708.3528002 -6363.590137 -22.864156738 
-131.99597232 -2277.0211817 -1254.2247247 -2161.5686099 1737.4334772 -1702.122087 6538.8456487 1483.42891 418.04193722 
-3802.7027066 -559.93965419 2186.8207654 5948.7361328 2121.2120474 4413.3947952 -1109.8679639 703.48926462 -8424.1399776 
-5318.1068021 7803.8273385 1953.6257134 -640.49664095 2623.0816176 1551.6639242 -3571.7198008 -7046.3209173 -1148.5541783 
4181.6385964 -92.966315634 750.65059195 1509.6783973 -3499.649666 6004.0878431 -236.94560306 291.93714384 823.94898435 
1289.303503 -949.6100033 -1675.3049989 -444.03562233 2121.4255701 -1230.1525523 -2659.7943735 -205.14458129 -429.387715 
1823.0447532 7220.3514212 -12187.987993 -295.19798337 -6349.8568947 -731.62334405 2662.4788828 3539.4981777 3877.0293476 
6146.8662016 -4447.1012172 2227.0236757 3957.4612809 2149.5004543 4530.7730824 -9766.9058816 12427.103445 -46.527990236 
584.05236011 -401.76628437 2108.7622952 772.10914767 -1121.4853721 30.089617124 -1531.9824213 -25.40505654 8468.2540726 
6815.9081967 3594.763965 -1760.5004035 -331.3748109 -2123.7359043 -527.72300275 -915.3363381 -513.35370112 -484.98870453 
-421.75625842 -1254.9327346 -1632.0695737 -9983.9204422 -9398.4462879 -9131.6963368 -1458.5249546 -251.15537178 -1645.0713919 
-3248.7996393 -262.63444249 -606.84910746 -1837.0296971 -1069.1040834 -3075.8130175 -2158.706607 1217.5882401 2428.419848 
-7307.7027564 2546.3084831 -718.58391517 -1099.49336 496.66895171 -63021.625633 -10715.24571 -17920.014981 7998.4733528 
-5003.1081506 1215.5151174 -805.37564521 156.21403212 -2880.4697411 -4307.2003786 -9170.5066139 -697.36019584 5512.8302057 
-3668.5261532 42.85841891 -122.05773283 -52.797595413 -1039.1528876 -1418.9844578 -1854.8536912 -1062.8950888 2629.5992228 
945.15069316 -329.09783183 868.46091816 310.5569165 -5897.8165369 -4386.5310731 -9522.6876939 -9733.6307421 -9664.5511841 
-9409.4738397 -9370.2714045 -5671.9826867 -115.89161588 -2545.3983052 -10372.474992 926.44825454 -3395.8762805 -1548.0036775 
-3084.9230709 -3180.1439614 8863.0814299 -1434.1655708 -4565.2862168 2656.9539749 -289.37649821 -5588.1540133 -3181.23406 
-6533.7749844 -1997.5752755 -1556.0148415 -5189.472513 -7069.1662488 -11164.939934 -6269.9436465 -6603.5045844 726.11724894 
865.36883717 -891.03377509 -224.38926355 1380.7934792 -2804.2553116 900.23916722 328.31120375 -2978.3258384 -9407.7224022 
-10306.038367 -1566.6069349 -654.1231416 2302.748873 -3264.9508436 1014.8541266 -10567.894336 -7056.906268 6810.7779047 
3798.159378 978.5309268 -1699.1059283 5065.0535396 -4877.6804046 4205.1867952 3572.1425482 -9241.5393729 -9749.419611 
-7812.9242141 1113.1296112 8383.5764967 2527.7141841 -24.483101162 624.89159229 -453.25206837 -8018.4631988 -11518.749693 
-4147.8005032 385.65294268 -517.58129825 2445.8534776 -1686.6141928 -1538.016145 -1463.5431992 -83.160484901 2111.469722 
-3139.1424061 -4509.8016447 -2321.5187091 -513.28392409 1126.6595814 -744.06479521 -1893.5999534 -43.200387282 -11523.421852 
-8481.4375814 -8366.2795208 563.06052373 3592.7617578 -1946.5001577 23.903486067 1513.6787669 1574.461712 293.75673868 
1820.7931053 4200.1762694 -5008.5759293 4192.6262708 1041.4570604 3485.8805363 5701.7827861 2714.923376 3004.096414 
-5917.4890902 -10091.315628 -6911.4142836 -1979.1673908 -858.29435573 2065.6611695 4289.0491089 3234.3897995 -1733.743929 
-13726.90154 8271.4301521 -58.106080825 -4960.1567232 -1855.8037409 -179.2913223 1062.6815396 -3264.1031535 -1112.8780213 
793.162583 4341.6190613 -575.08974794 412.12880001 -4146.3283733 3661.1875855 -11617.778432 -1056.9530467 -5588.6706255 
-4064.5964186 -782.38887045 405.19716645 -6144.6503139 -54.40972016 350.87076507 -854.4460266 -2472.1563323 -3940.1365619 
-1167.1787992 -1436.5153212 -423.38713221 -1618.9578487 230.44292945 -2813.6004521 -333.96321308 655.38057772 -1257.3937521 
834.21116743 1425.6755793 -1620.091171 -509.62818169 -378.08288235 -1478.3246677 -1734.4493693 6760.0422187 1402.3783194 
6363.4395275 2063.3458524 -1100.6238609 -2698.5334257 46.591121314 -2088.0898654 -4364.886196 -3270.3003376 -8336.0013758 
1428.4104769 -4232.5208091 -2557.744008 -12168.519521 -167.43195723 -4399.2281968 2405.262075 1973.4834418 -733.83301752 
-5636.3853117 -5958.4483803 -1116.5847243 -1087.9844202 504.82891261 -440.27109429 -778.2127869 -1766.0798465 1152.9682525 
1368.2190726 -1064.8182017 -5232.6626084 -8163.5797573 -2278.6887756 -9323.4265303 -5659.3465599 930.02407 -63.032360291 
-701.21320977 -1567.1570873 623.13895747 -1306.0162546 -5152.5076947 -2431.5102183 -1274.4050295 -1829.7808296 5142.9273768 
9811.3247709 4787.4787667 -2518.9296379 6175.146013 -5606.772566 3906.5331471 -1287.7167636 567.44095295 -9563.4284184 
-7826.1998852 1048.1997046 3255.3771 -4215.2291369 3396.1626089 -2336.7546164 -1384.7466236 5238.8760495 -2590.7837277 
489.23893502 -1445.7570781 19134.58445 12115.720287 -5082.7878206 -3695.1192525 -1348.9087373 -689.05766349 -2155.0563938 
6996.5603415 -6001.2768339 -13435.029269 -1818.8841261 -1747.3710172 929.3289617 -9472.9003367 51.308533574 2360.9674919 
-3940.1080995 -2165.0419484 -1992.7402223 -675.97264958 603.3069778 -1385.8873377 114.76682172 202.96334355 -1204.4525689 
138.84497838 1638.9629614 664.03853602 -864.04493018 -867.13394348 -304.52113803 4790.5464979 -9716.3242397 -9009.4297325 
-674.88404946 -5496.8322042 -455.29855498 -647.62427178 2003.1430175 -9324.2823767 -9836.9026616 187.04159556 -8384.3142195 
-6504.3653012 -6626.8356568 -8554.0937906 -5541.4283792 -5368.2250749 -11439.392559 -10947.250337 -11773.546441 -9952.7545118 
-11401.048996 -37001.764661 1875.9463881 -193.88272266 -123.19522792 917.31233011 4578.4116553 3394.467894 649.36193748 
2674.3678037 1923.3133453 4168.2703899 5132.58412 1836.1424711 -3816.6974497 -1306.0519971 -7200.0920259 -7463.5792805 
-3556.512123 1316.3437384 -5863.693676 7239.6149426 -34.426565392 -612.50799517 -975.55196541 -4105.9215371 -2094.8421396 
-4295.0054074 -1556.0111057 -1093.9707179 3232.7791266 744.5798749 -58.177115167 109.59949524 -1223.1321269 531.83877111 
5723.6054414 -733.76786939 -2839.4063154 3983.5160177 10211.922006 -1146.7913505 288.52922375 346.34216708 -512.78628006 
-4217.5904797 -4079.6410754 -6375.6774913 239.51610685 -699.31232232 2384.5051479 1300.5606302 -2701.6057208 -1088.0120563 
-2510.8260905 -8969.5632373 -6837.7931453 -4587.1204654 -11284.591272 -9082.0037193 -10964.746807 -3704.5175081 -1033.4939668 
-686.83694336 -2718.1763296 -2762.346203 -2610.0170211 -2288.2593307 2914.8480633 -29.119506283 2550.3074765 347.68975472 
-716.00306584 -704.16178831 -7406.2681345 -7862.5688752 -8765.532954 -9234.6053974 -1577.8921822 -12355.347541 302.2936363 
811.93787108 -5277.2807794 -3699.1317503 797.3715648 -2384.813901 -4410.6135263 -1854.9928719 817.15293269 429.4784357 
-832.63391973 -3796.8327935 2112.1038623 -11202.87121 2889.199654 5235.1010986 -707.57737544 1609.0587294 4425.3031671 
-1440.3263259 1498.8108993 -5142.432545 65.641247714 342.11098889 -5921.0426506 -4371.2606779 -8387.2576835 -11372.483161 
-10732.404542 -1082.0954564 88.830218527 -895.06778206 2168.1161952 2333.7569116 1740.1758401 642.44781425 1742.823341 
78.936985756 -1109.8198119 551.59704467 -3507.5349492 -2447.9712066 872.48591313 -592.77730556 87.847815644 -1226.0386376 
5382.325103 640.11421908 2990.6625623 1518.5063038 2141.9313675 -1748.8915131 672.60845034 -4120.3448894 6489.5585378 
-559.09196836 -3188.301608 -315.96194039 691.99036103 -463.33490504 -1138.1967636 1083.7447952 -7282.2847482 -3251.3162359 
1934.8725828 347.31903505 494.18474081 -132.3910846 -552.58823152 -352.00458646 -492.99165422 -641.08055852 -3761.8136522 
507.73861069 -1804.7306664 -8803.673563 -564.5852524 2530.9901456 -863.27780966 -83.448393291 -24.32653936 108.17296261 
-3633.8321109 13294.418027 -4029.6515092 -2225.3616746 -4576.851225 25193.28408 -2145.7717273 -974.1035115 -2328.4483351 
-6223.3021745 -525.52818522 -11043.954422 388.4367609 787.92830247 452.95252164 734.06519269 7776.0681676 9884.0339903 
-1178.8664245 1626.5465422 -2808.3091375 -5474.9142776 -3294.3590334 7548.684798 3845.400178 1625.1588315 -1400.5524802 
119.05050954 -7215.1564791 2428.4751682 -823.53960727 -304.85984376 -2016.6133129 -4.7856834923 -1476.3227646 -321.84000794 
-854.42375321 893.10896411 -1077.256567 -16825.622935 -6350.4016889 5762.1209846 -259.13518967 635.83669434 -883.2671032 
-662.05618899 -906.38585089 268.58888296 1054.0070978 -9676.3258141 -11444.632461 -122.00988632 -189.97296421 -3451.1236356 
-7109.5827401 -990.08557978 -6566.1159308 -4856.6619664 -1777.6818949 -3302.7913579 -1704.1732024 -1184.8331638 -2830.8488727 
-2832.7749424 -3287.395295 -1791.0677901 369.48048083 1151.6939142 534.41001866 -2355.3991489 140.67140181 -6329.0369407 
2932.3600567 -3482.7271389 -2722.9743495 -3380.6659091 797.65254061 504.49262276 376.68670049 10812.642242 -25205.906428 
-47560.844679 656.05964965 4911.1440052 1449.2937569 -9084.8922415 2217.1441105 2669.3069913 2147.3536226 -392.21351287 
15027.482243 -1671.3589674 273.13832245 -10406.311922 -8527.405077 -518.93267004 -1103.1863173 -9221.5047064 2409.5527687 
760.82230136 -1311.4053695 -721.76572935 811.42674969 1003.749984 -1304.9910528 -3861.3099277 -1245.7887192 -10797.902214 
-443.50674512 -1719.3876251 -1070.5015162 -1187.1152841 -1117.0050293 -1045.7414591 -582.96231733 -6318.2023919 -11957.695915 
-12198.984653 125.97353558 -1169.2741957 1827.5401263 27463.614925 -36906.996627 23522.989242 -11161.88844 714.01916146 
5460.9305424 368.77192128 6571.9558078 -2319.5202775 -3556.4815708 418.96831607 421.04019728 -10364.353004 -9849.1537955 
-9163.3840946 4815.4435302 1337.8295503 6823.7389759 7697.5734337 3426.9923584 6182.4898037 592.34960101 96.817453082 
-5523.4964169 -315.07750394 -1157.7939656 2432.4433714 -814.05098462 -781.00295998 -2823.6149566 -2234.9167138 -4887.9270164 
195.57466042 -2138.6659942 10413.074323 11905.485639 16476.991063 -4444.127851 4414.8665388 1243.9357899 3742.1812853 
-1969.1700606 -1977.4572163 -463.6981489 5892.520361 -114.16235082 -3504.6486667 -2708.3597638 -1301.8572074 -9659.0515264 
-928.52215219 39.972498671 119.79349436 -64.270557924 473.51184033 -300.65756666 -1294.5131173 -2509.6550944 -2793.7657388 
-2363.1812582 -3914.8940264 -1929.7509016 1242.9318019 453.84400661 -912.48470457 1492.568238 -1527.7800505 -1476.9186788 
254.1845491 1027.6503825 -196.33456302 -1352.3009976 -8965.5952421 567.42706853 -140.01110788 1965.0752367 -358.26071016 
1266.9880226 -2762.089467 2385.7422943 847.47974347 -349.23135204 457.87740623 -351.32029923 -1370.7641864 264.42525889 
-2021.6274849 -1637.7184344 -5077.3100781 464.56875135 742.30783293 3123.9066687 2098.9676967 2955.5362458 1059.841987 
-414.04034998 1569.505842 -3543.5871922 -3518.1013495 -2609.5207051 1344.0471934 7164.8012329 -5826.5903721 4391.046722 
-97450.813037 -1022.3741313 -572.73602635 -874.15110141 -1126.7230541 -1856.1055222 -10305.502148 -3829.345358 -10933.06412 
-7591.2216993 -7715.2066412 -2041.8217546 1231.0155633 4159.2850148 6226.2857383 -413.13143716 -7471.158088 608.47860305 
680.4259806 3774.277905 -756.3922225 -1936.7051556 154.64458847 -163.37419079 -8426.8776022 -10190.251597 -9484.6357905 
-8479.9649506 -1812.3357211 618.58354213 722.39025914 -1132.4608685 -4772.5544152 -3149.9198593 -1672.4285718 -1268.6405513 
-1052.6729439 5857.6209797 4687.4394951 2159.4918366 4054.5527673 626.95902452 4375.682345 -4202.6011201 -4011.4415367 
-11306.349425 1660.2957943 9638.4098297 -13909.14971 6666.1795571 -1368.0165478 -2749.7820865 -5870.3751962 5213.1358521 
-2640.2282485 -9329.4863151 -5476.6411799 2133.3561864 1209.9573515 -1410.6139564 4349.5448141 -1598.5078401 -11347.574467 
8001.7436516 274.33862162 -3986.1801191 -4527.48698 -4616.1774013 8150.8672997 4110.102036 -850.00503456 1611.46238 
-6739.2003441 -616.42562735 -1551.6300749 -2990.7270215 805.7905386 2710.0948606 -5751.6523996 -5122.2713041 -10379.857144 
2932.9119468 2297.5257277 980.23288991 1503.732763 921.12981535 6370.1370855 -3408.9279445 -2405.3519956 -1169.137357 
-8422.25485 3352.9133036 2597.9814042 -1389.0099852 -2799.0099278 -6742.8109344 6088.3864267 -6183.884376 -579.30059693 
-504.25412325 -1650.6250161 -984.98768446 257.22462904 -1522.3243506 -748.65280051 -895.8360208 -2409.403339 -1799.1372801 
-812.63866404 -4008.5223444 -284.70318024 6029.5631053 -750.46954251 5.0629740663 -685.81469487 -11148.602487 -1994.3533784 
-2032.7475003 2718.3765609 482.00469235 4608.610903 1180.6953682 1293.4332329 -2618.8183434 20.678490088 -4107.7280731 
-2054.2137891 2367.7859538 3553.8805116 1934.5523191 9489.0192821 5975.1939546 -1425.1446289 -1317.307433 2897.1466111 
1236.5830527 1127.5830113 3068.4344661 4070.3049995 1035.0999787 -11295.390303 -11463.212826 106.51641343 128.53867426 
-176.55250229 537.00784551 410.05845865 -2708.0161362 -2776.5252651 78.468941687 -240.34660943 -1001.4808033 -1403.6095907 
549.28315074 648.19958866 13092.068512 1350.8349835 -279.7769813 -513.01890215 -585.68925328 -1457.0753328 -2675.9999736 
787.94220991 -9276.9087914 -5403.1126007 18832.861229 -649.46407598 -11880.773169 -3317.2947521 177.06410653 707.07045397 
10726.192388 7233.5864303 -5542.6633615 -5254.4543145 -6565.4844094 -5615.8706226 -5222.6282839 2831.0721184 -1313.4980293 
-858.54932846 -2641.2321625 1347.4682574 -740.02988019 -257.46243216 1897.9549898 -2656.9548646 908.35681479 -888.06125296 
-1326.8736507 8357.1436443 4921.5609235 -3059.458507 -6542.5208563 -1149.3257092 -1017.7372481 -149.53582104 683.7440453 
255.09373317 -8371.4819332 -8700.2906524 3992.7449928 -1446.4251013 1321.2297788 -453.38172026 -1556.9163386 -10143.296938 
4203.8633926 865.78393795 -958.97198928 -75.547379477 -348.14125437 1002.6822635 -1890.0731903 -1043.8089254 3991.8454473 
296.31536947 5844.8055133 -702.15643064 -4247.7887709 887.09701912 -7155.540931 -1424.9119084 -799.74890913 -10082.230496 
-8010.7612731 -11712.572537 -9489.5361344 -8381.8627496 297.06658983 -368.38894351 -40387.340507 -5627.5726837 2600.0059929 
2577.7366444 -397.33180255 -60.604729332 1531.5719185 2271.9958211 1139.3342352 -1436.2672467 -1649.7555853 -1515.3795465 
-2291.5585379 -602.78508938 1384.0415774 -1047.0597341 2385.8363349 5149.0630758 166.63458886 -689.07188307 -2452.0451045 
-4496.7442035 12743.87749 -261.19949529 1389.1709851 1969.0686462 -770.63120006 1261.3244083 -1340.8299635 390.53178479 
848.10815419 -52.469098533 -3291.056094 1486.1377773 4566.8791051 807.15050538 -14848.692333 -3419.8166819 -240.88043292 
-1674.4532462 -1610.4177027 -281.6183278 270.99648871 -5480.7961812 -10505.705028 -6938.9111912 2292.3396649 1097.228813 
-1339.1523199 5679.5560191 4110.9173477 4084.2910421 -6599.4234762 2480.6368498 -1303.4614987 -1717.9299249 -6314.9141119 
8918.1689762 4834.1455415 1200.463674 412.80012743 -338.6948695 -2157.2939858 -1650.9003694 -2226.4855393 -1375.5346451 
-1201.1106716 -4123.1459931 -4154.205251 -3867.2112546 -5579.3693791 4672.5470003 -1722.8133793 -3264.9196228 -11234.860725 
-11445.639452 -11339.165812 -2734.3345579 -9569.7074962 -1398.9550388 321.43739656 -8661.4541321 -7118.1902914 2328.3313845 
-7953.7663654 -583.46545244 -886.39161359 -7887.5331683 -9704.4665962 808.60989354 -2610.9994289 -3541.2604878 187.76538044 
2331.4023698 -2279.6586869 -3195.3088918 -3386.0122869 -196.56919158 1505.3957015 8750.5997406 10684.039502 -1157.9378121 
-2615.1887925 1945.2361169 10689.864435 2892.6621518 -5114.4809216 1695.8524389 1551.0241413 -1059.70932 2864.7522656 
-1955.956808 2530.5962503 16721.740054 -3565.5734083 -7290.0678055 702.13533856 1696.1736176 884.27919864 -3527.0652736 
-26.493895019 -686.40586836 -177.24192703 2782.1416287 -1341.1042308 -1186.2702692 359.54408244 969.97935385 -5093.6792193 
-1073.5767418 -1552.7802318 -1413.4574449 -1815.7014788 5457.4360943 1692.9951923 348.56150377 -1944.4258692 -1535.0051095 
-2151.6738751 -1651.9771095 11828.4087 2903.8266292 -4067.6557207 -5904.0469139 6094.0907099 3936.3591992 1130.6424699 
3736.7123098 1558.6123937 -288.74952693 1084.5468183 -425.86970115 24766.072163 -1007.4272274 -322.32727122 -3288.4092533 
-647.11954345 -1535.8919136 -1106.2817747 175.54256678 -87.36820282 631.20128571 -6907.2074109 -13033.396699 -8931.7594845 
-9813.2249359 1481.1554959 1464.5285631 -2056.0925059 -6336.2692203 2921.4631972 -1271.6633473 -1174.3908541 -2240.6539002 
1842.3078575 -3838.6036899 -4554.6293759 1329.4164466 -2204.8307459 -2880.5937054 3529.8232848 3829.8876296 -6271.0769679 
-953.0603254 -2443.646228 -2806.2369735 431.88006635 -3490.6333086 476.70899919 4021.5210635 -2783.9312295 -10611.044051 
-32755.292539 -12273.367979 -6417.6736838 -6441.5103455 -652.05823453 -2029.9400422 -3101.1311917 -2261.5727484 2183.7473545 
3344.806963 -1738.3295439 -2401.8965411 -3349.626193 -3104.6477352 1514.4684137 -3638.1956429 -258.06688615 6866.5721458 
9024.20247 -1668.7496928 -4354.4625903 -2353.5921088 3772.8272873 -210.01992664 -1056.6200972 348.8216791 610.76911512 
-222.2612466 -4926.1644842 4737.7872725 1225.7694463 1368.9098903 142.4657393 -1207.7006665 -3967.1934512 37.142201033 
-27.590648179 3803.6716813 -604.18845645 -866.41104881 -880.22008993 -453.27857018 2528.872429 -1150.9326971 8686.6409356 
-5161.5195622 -1643.4406626 2789.6011947 -542.46629205 -297.57201607 -1105.7237808 3445.2722409 -1787.1798041 3696.4826636 
1768.053615 -5806.2533827 560.81875671 -1240.3744231 4842.8989544 -954.13705218 -2968.3437422 11080.948765 -5602.5894539 
-7026.8409759 -583.29466834 -13406.729521 -10219.486558 -10375.291158 -38.406216177 -868.77708408 -4277.6268802 -3523.9118463 
-1538.0950964 1544.3002935 4727.155077 1131.5786549 -534.02398304 -8977.8454881 1405.1633309 6564.100135 10775.377163 
-5150.6265601 -111.57828105 63.096806369 -366.93093991 407.05359146 -1192.1317745 1067.0396684 -3044.2855019 -4400.4432451 
-2216.0392284 -6272.5571667 6926.8036909 -359.42988426 -12377.596076 -1252.4297511 -2045.3696266 -2041.6801045 4913.6032912 
-1167.8574292 490.29629346 -513.53967429 463.3174967 -3668.2501466 -1113.0239381 -2846.8557499 -4971.6345191 -13082.564613 
-7872.4075184 12391.051271 74.811328824 -307.44449716 -10940.781204 -4939.4244085 2768.1108703 16631.440384 4829.1986317 
7038.5158055 3401.2853345 8754.9099013 -952.07814464 -10441.312871 2569.3252665 -11512.735936 -3905.5985393 -10555.283415 
-8020.7500003 -1465.0040387 2670.6200914 -17121.149821 314.74073898 1115.2030114 -625.619799 -2507.4760668 -1170.900224 
-1036.5570794 1623.7749538 1021.8354392 1285.0428505 10444.407141 2085.2300368 -212.06574377 20562.483481 907.77266075 
-3462.0672457 -2855.3149711 2455.956626 -835.41175681 -2608.0201146 -5092.1536949 -2547.9811728 -2742.6338854 -678.41527737 
12881.911598 -41.660238103 2043.6044398 -911.01989866 2755.5411733 -1627.5901458 -2351.2336796 -3988.4628936 278.50680896 
4165.8304072 4981.2488596 12544.342671 -272.58904771 -390.38538128 105.81534146 538.78455593 -299.05092904 -4799.2014098 
-2832.6125382 829.83095213 1871.9500189 3970.3651947 3103.7692278 521.12810406 5765.6427019 -2697.0119125 2136.9406517 
3154.5884434 -1983.040067 6745.49277 -1703.9688644 408.9432171 1305.6175423 811.23808304 2486.5376617 1409.9057722 
-10732.117385 -4673.1966251 -2473.9006002 -11219.526169 -8183.2175492 -11246.712328 7192.7795182 -1105.0695192 -355.15505435 
0.54049168783 1834.5932599 -11584.887592 636.7059202 -1935.5717876 10980.523958 2025.5401293 -1049.8030992 -10177.289948 
-3287.6475147 -5269.4560452 -5236.8254803 -7070.154964 -2371.5441001 -1820.0130376 -4772.2952199 -5655.3428747 76.389870584 
404.81732206 -130.20718847 -48.343877121 -4049.870718 -107.74440082 -2337.987431 537.13006837 -1931.3363624 1900.1346967 
257.43246668 255.36671766 2111.6194284 98759.683064 -9773.2083999 3288.9303606 -2689.310318 -5052.8309658 -1486.6036251 
-863.7091862 924.58102433 -2508.3660205 -2926.6186041 -1275.2311369 172.92931433 -7736.9373093 -4714.6050904 -1962.3308243 
151.520249 -5372.5107963 -4608.79872 2821.8482295 -2929.1634258 2341.8027977 1589.9555838 -10831.883783 913.73485231 
-2007.688337 -203.55823582 1584.3510369 -4205.1145237 -9548.1745093 2853.160606 4899.6316889 793.92596421 -2946.9327336 
274.94228728 -6332.2237156 -1023.684451 -602.57436613 -922.03520752 -1652.4112117 -1166.5316669 -873.72234275 -4367.0163305 
3672.1105541 -1357.7447073 -7266.8932585 -15887.925785 -325.63320367 1637.4324654 -689.94081469 -1597.6134429 -765.504183 
3341.5182083 -2187.4653654 -2746.2337099 335.76564589 -1545.7985656 -2257.0952361 -3210.481672 -11529.648221 105.94823174 
533.33236977 33.673341674 -11085.026009 -11739.72034 -11476.476676 -10119.536256 -9362.4898996 630.5489067 -1284.6528374 
-838.0679097 1808.4130814 -7361.9294973 -2073.6593838 4193.8927106 6518.6944123 -12447.124771 -11674.779689 -1857.851594 
-8301.6165294 42.438149643 487.35245855 105.8848144 -8988.5153891 6782.2340146 1972.7616624 -380.09664571 -1246.4363448 
414.00391914 -2738.7397157 49.209946185 1110.4006289 670.61162452 -316.79132218 -6644.1929284 -1395.0566646 -3209.8328517 
-1609.3179034 -10235.869098 -9389.2360312 -8755.5900851 -9840.6368631 -2811.4346682 1145.5706917 2467.7241782 -9765.6478209 
-9989.6960068 -7662.2710544 3891.0469893 -2334.3590726 15545.146564 -916.45191153 -349.2833989 -950.62087115 -4563.4172747 
-510.55709361 -2241.4270546 -136.91634386 -11639.332289 -12429.669358 -8896.3449936 -1855.9807047 -15557.125591 -122.59056289 
7717.7027755 1857.0152781 37.038623169 -13044.685557 -31789.184431 -4797.7394884 -290.71112879 8897.2199767 -9036.5828482 
372.20884417 926.46104031 -1193.26395 -2919.6592916 -3794.4439317 -8201.4635489 -6764.7922765 -5362.8123111 -6604.2243443 
126.98288091 556.59498048 -271.47292479 631.96095214 25.429770439 -1028.7229304 -1522.9777116 -913.81737368 -13520.524233 
2218.7109903 -8077.428683 -2032.1327571 4635.5091737 2964.7201717 -1036.5099048 -1073.23081 -2182.4285822 -184.81925759 
-9075.8349547 -10682.576787 -6242.536705 7119.9611491 -40.088866499 -351.54404032 -236.1600964 -30.816296528 -600.9795317 
-4725.1415096 -11500.014504 -10473.657226 -12430.990919 -9342.4128776 347.35937172 -5.8423542688 -209.8608941 638.37286804 
-9048.6990428 -8938.454256 -1438.8188355 1888.210877 -245.26691427 -12627.592797 -11603.062325 -7345.0057658 -7429.749274 
477.12687228 -848.55942895 -73.763476374 -10110.378922 -10716.839131 829.18805329 -164.42865571 -10470.01554 -974.60024652 
-8334.1631634 -9339.5304895 1283.3767445 -753.47336558 -5263.4234446 -279.21157828 1552.2278241 -1454.7709107 -1219.9242772 
-117.2150845 -1006.9003012 -3057.6937423 2580.047706 161.52023107 -1478.7562873 -1464.1939241 1130.9035822 1430.4326707 
10129.966502 2132.4247541 14798.479686 -11176.666946 -10006.188585 -9306.8997625 -12388.237668 -13319.246395 
