# vtk DataFile Version 4.1
vtk output
ASCII
DATASET UNSTRUCTURED_GRID
POINTS 3545 float
7.18e-13 50 10 0 100 10 0 100 0 
7.18e-13 50 0 200 100 10 200 0 10 
50 -1.2e-14 10 200 100 0 200 0 0 
50 -1.2e-14 0 0 60 10 0 70 10 
0 80 10 0 90 10 0 55 10 
0 65 10 0 75 10 0 85 10 
0 95 10 0 100 5 0 60 0 
0 70 0 0 80 0 0 90 0 
0 55 0 0 65 0 0 75 0 
0 85 0 0 95 0 0 50 5 
10 100 10 20 100 10 30 100 10 
40 100 10 50 100 10 60 100 10 
70 100 10 80 100 10 90 100 10 
100 100 10 110 100 10 120 100 10 
130 100 10 140 100 10 150 100 10 
160 100 10 170 100 10 180 100 10 
190 100 10 5 100 10 15 100 10 
25 100 10 35 100 10 45 100 10 
55 100 10 65 100 10 75 100 10 
85 100 10 95 100 10 105 100 10 
115 100 10 125 100 10 135 100 10 
145 100 10 155 100 10 165 100 10 
175 100 10 185 100 10 195 100 10 
200 10 10 200 20 10 200 30 10 
200 40 10 200 50 10 200 60 10 
200 70 10 200 80 10 200 90 10 
200 5 10 200 15 10 200 25 10 
200 35 10 200 45 10 200 55 10 
200 65 10 200 75 10 200 85 10 
200 95 10 60 0 10 70 0 10 
80 0 10 90 0 10 100 0 10 
110 0 10 120 0 10 130 0 10 
140 0 10 150 0 10 160 0 10 
170 0 10 180 0 10 190 0 10 
55 0 10 65 0 10 75 0 10 
85 0 10 95 0 10 105 0 10 
115 0 10 125 0 10 135 0 10 
145 0 10 155 0 10 165 0 10 
175 0 10 185 0 10 195 0 10 
49.0393 9.75452 10 46.194 19.1342 10 41.5735 27.7785 10 
35.3553 35.3553 10 27.7785 41.5735 10 19.1342 46.194 10 
9.75452 49.0393 10 49.7592 4.90086 10 47.847 14.5142 10 
44.0961 23.5698 10 38.6505 31.7197 10 31.7197 38.6505 10 
23.5698 44.0961 10 14.5142 47.847 10 4.90086 49.7592 10 
10 100 0 20 100 0 30 100 0 
40 100 0 50 100 0 60 100 0 
70 100 0 80 100 0 90 100 0 
100 100 0 110 100 0 120 100 0 
130 100 0 140 100 0 150 100 0 
160 100 0 170 100 0 180 100 0 
190 100 0 5 100 0 15 100 0 
25 100 0 35 100 0 45 100 0 
55 100 0 65 100 0 75 100 0 
85 100 0 95 100 0 105 100 0 
115 100 0 125 100 0 135 100 0 
145 100 0 155 100 0 165 100 0 
175 100 0 185 100 0 195 100 0 
200 100 5 200 10 0 200 20 0 
200 30 0 200 40 0 200 50 0 
200 60 0 200 70 0 200 80 0 
200 90 0 200 5 0 200 15 0 
200 25 0 200 35 0 200 45 0 
200 55 0 200 65 0 200 75 0 
200 85 0 200 95 0 60 0 0 
70 0 0 80 0 0 90 0 0 
100 0 0 110 0 0 120 0 0 
130 0 0 140 0 0 150 0 0 
160 0 0 170 0 0 180 0 0 
190 0 0 55 0 0 65 0 0 
75 0 0 85 0 0 95 0 0 
105 0 0 115 0 0 125 0 0 
135 0 0 145 0 0 155 0 0 
165 0 0 175 0 0 185 0 0 
195 0 0 49.0393 9.75452 0 46.194 19.1342 0 
41.5735 27.7785 0 35.3553 35.3553 0 27.7785 41.5735 0 
19.1342 46.194 0 9.75452 49.0393 0 49.7592 4.90086 0 
47.847 14.5142 0 44.0961 23.5698 0 38.6505 31.7197 0 
31.7197 38.6505 0 23.5698 44.0961 0 14.5142 47.847 0 
4.90086 49.7592 0 50 -1.225e-14 5 200 0 5 
0 95 5 0 55 5 0 65 5 
0 75 5 0 85 5 0 52.5 7.5 
0 52.5 2.5 0 57.5 7.5 0 97.5 2.5 
0 97.5 7.5 0 92.5 7.5 0 92.5 2.5 
0 57.5 2.5 0 67.5 7.5 0 62.5 7.5 
0 60 5 0 62.5 2.5 0 77.5 7.5 
0 72.5 7.5 0 70 5 0 67.5 2.5 
0 72.5 2.5 0 87.5 7.5 0 82.5 7.5 
0 80 5 0 77.5 2.5 0 82.5 2.5 
0 90 5 0 87.5 2.5 86.5007 50 10 
144.301 49.2374 10 55.6644 66.0252 10 115.75 66.6252 10 
114.795 33.475 10 169.167 30.8333 10 169.167 69.1667 10 
27.9007 72.4238 10 72.1258 27.0212 10 78.603 74.0537 10 
139.641 25.5189 10 139.698 74.9477 10 94.8332 22.6195 10 
57.423 42.8454 10 178.626 50 10 99.1787 79.0705 10 
124.951 50.3402 10 105.858 49.9855 10 44.7787 81.4609 10 
36.3608 57.3288 10 156.218 17.9037 10 156.108 83.1076 10 
181.576 83.4881 10 183.768 16.5687 10 69.7256 55.8018 10 
62.9725 82.6685 10 123.496 82.961 10 123.948 17.4483 10 
161.813 53.6198 10 153.04 35.0433 10 15.9253 84.0824 10 
96.9839 62.8898 10 184.522 34.9102 10 184.649 65.2763 10 
152.524 66.6773 10 15.104 63.621 10 96.6898 38.2782 10 
109.559 15.5562 10 81.3464 15.5409 10 64.7793 14.374 10 
73.8401 41.582 10 57.5113 28.498 10 130.755 62.8214 10 
128.621 33.7869 10 86.9167 86.5816 10 31.438 86.2371 10 
112.059 85.8438 10 169.12 13.5789 10 169.747 86.7403 10 
44.1559 45.2582 10 143.931 12.7368 10 145.649 86.3725 10 
84.269 30.6613 10 66.9849 68.4161 10 81.1833 59.6594 10 
39.1224 69.325 10 72.6274 87.7777 10 25.4042 57.4207 10 
169.159 40.7853 10 141.792 61.4077 10 141.457 39.153 10 
95.1703 10.8703 10 104.284 29.5377 10 52.8439 55.9648 10 
189.185 44.3283 10 54.3956 89.2059 10 88.4262 71.9522 10 
10.1461 74.1976 10 135.268 89.8813 10 134.584 8.82114 10 
115.229 55.3578 10 105.335 70.4671 10 114.87 44.5409 10 
49.6234 36.0168 10 171.484 58.5025 10 190.117 25.5687 10 
190.032 74.0834 10 54.2312 76.3466 10 96.4349 88.0697 10 
65.2829 35.7208 10 154.717 45.724 10 189.452 10.548 10 
189.834 89.2301 10 134.911 53.9377 10 189.369 56.1143 10 
72.3841 10.39 10 106.614 39.6429 10 114.677 76.1787 10 
124.405 72.0983 10 116.884 9.70735 10 114.46 22.6686 10 
149.603 26.2255 10 129.846 25.8542 10 159.484 28.1279 10 
96.774 52.971 10 106.235 59.7813 10 152.333 56.7981 10 
178.773 72.492 10 178.444 27.2944 10 39.7631 89.632 10 
24.4432 91.3785 10 36.8216 45.6975 10 160.601 73.7323 10 
153.074 7.28536 10 67.166 46.1259 10 153.817 92.4479 10 
64.2851 91.8742 10 148.423 76.5393 10 85.1773 40.0962 10 
177.44 9.32794 10 177.842 90.6449 10 133.225 42.4809 10 
161.775 63.0767 10 30.7842 64.2249 10 35.2611 78.5908 10 
60.8329 58.8886 10 9.39452 90.6055 10 118.867 90.6507 10 
46.0315 61.9531 10 55.5806 18.5519 10 177.53 41.1906 10 
77.2589 50.4311 10 161.245 37.8189 10 17.0806 54.3229 10 
19.4255 73.6708 10 69.9588 77.3313 10 132.397 80.0601 10 
165.649 21.999 10 171.181 77.8157 10 8.38827 57.6443 10 
104.227 8.64393 10 79.2733 25.0029 10 86.7124 8.06884 10 
57.5582 8.29152 10 64.367 23.2913 10 105.097 92.542 10 
89.0387 58.2339 10 125.091 7.0823 10 72.3793 19.2701 10 
23.7237 66.2722 10 122.668 60.8101 10 192.765 34.9615 10 
192.913 65.0677 10 163.303 92.3556 10 76.8524 33.8263 10 
161.682 7.75359 10 6.72769 65.0926 10 180.033 59.0029 10 
7.90607 82.4603 10 49.7908 26.329 10 121.771 38.4439 10 
25.2701 81.4403 10 135.544 18.5943 10 103.241 20.3085 10 
107.048 78.8937 10 92.1463 30.9327 10 75.1537 64.722 10 
121.518 27.8362 10 48.3331 70.0852 10 93.1568 45.458 10 
80.9156 91.9904 10 89.1373 16.3006 10 134.735 70.4476 10 
64.9443 6.61111 10 61.8267 74.4691 10 80.0317 82.9522 10 
176.596 64.9548 10 192.385 17.8863 10 192.385 82.1137 10 
27.3448 49.3147 10 170.086 48.4162 10 174.091 19.7463 10 
95.7142 71.3724 10 125.885 92.9209 10 44.5295 52.6562 10 
143.893 69.7285 10 89.3293 79.1503 10 144.669 32.738 10 
164.188 82.7503 10 136.562 32.467 10 148.455 41.379 10 
100.462 44.6325 10 59.4655 50.3745 10 103.686 85.0368 10 
33.2246 93.4062 10 42.0474 38.0801 10 57.4601 35.7702 10 
87.4186 24.1708 10 16.1065 93.5369 10 46.7789 92.8841 10 
144.987 20.1958 10 144.822 5.51954 10 79.0516 7.19462 10 
89.9889 92.6385 10 82.5479 67.1377 10 144.962 93.9877 10 
128.393 56.5541 10 162.976 45.5947 10 139.826 81.7255 10 
51.3402 47.186 10 184.023 5.90405 10 184.067 94.1354 10 
112.578 93.4367 10 175.698 34.4354 10 194.479 5.52096 10 
194.479 94.479 10 89.2715 65.2769 10 4.19413 53.8221 10 
4.19413 58.8221 10 9.07139 53.3418 10 4.69726 90.3027 10 
4.69726 95.3027 10 9.69726 95.3027 10 197.24 97.2395 10 
197.24 92.2395 10 192.24 97.2395 10 197.24 2.76048 10 
192.24 2.76048 10 197.24 7.76048 10 58.7791 4.14576 10 
53.7791 4.14576 10 53.2987 9.02302 10 3.36385 62.5463 10 
3.36385 67.5463 10 7.55798 61.3684 10 5.07307 72.0988 10 
5.07307 77.0988 10 8.43692 69.6451 10 3.95304 81.2302 10 
3.95304 86.2302 10 9.0261 78.329 10 8.65029 86.5329 10 
67.4721 3.30555 10 62.4721 3.30555 10 61.2512 7.45131 10 
79.5258 3.59731 10 74.5258 3.59731 10 68.6642 8.50054 10 
71.192 5.19498 10 75.7178 8.79229 10 88.3562 4.03442 10 
83.3562 4.03442 10 82.882 7.63173 10 97.5852 5.43517 10 
92.5852 5.43517 10 90.9414 9.46959 10 107.114 4.32196 10 
102.114 4.32196 10 99.6988 9.75713 10 118.442 4.85367 10 
113.442 4.85367 10 110.555 9.17564 10 127.546 3.54115 10 
122.546 3.54115 10 120.987 8.39483 10 137.292 4.41057 10 
132.292 4.41057 10 129.837 7.95172 10 147.411 2.75977 10 
142.411 2.75977 10 139.703 7.17034 10 156.537 3.64268 10 
151.537 3.64268 10 148.948 6.40245 10 165.841 3.87679 10 
160.841 3.87679 10 157.378 7.51947 10 178.72 4.66397 10 
173.72 4.66397 10 173.28 11.4534 10 169.56 6.78946 10 
165.401 10.6663 10 187.011 2.95203 10 182.011 2.95203 10 
180.731 7.61599 10 189.251 5.71251 10 52.3099 14.1532 10 
50.8873 18.8431 10 56.5694 13.4217 10 47.9924 22.7316 10 
45.6821 27.0538 10 52.6857 22.4405 10 41.8104 32.9293 10 
38.7013 36.7177 10 49.7071 31.1729 10 45.5984 31.8977 10 
45.8354 37.0485 10 36.0885 40.5264 10 32.3001 43.6355 10 
39.4345 41.8888 10 27.5617 45.4441 10 23.2395 47.7543 10 
32.0832 47.5061 10 18.1074 50.2584 10 13.4175 51.6811 10 
22.2127 51.8188 10 12.7344 55.9836 10 196.193 18.9431 10 
196.193 13.9431 10 190.919 14.2171 10 194.726 10.274 10 
191.965 8.03449 10 195.059 27.7844 10 195.059 22.7844 10 
191.251 21.7275 10 196.382 37.4807 10 196.382 32.4807 10 
191.441 30.2651 10 194.593 47.1642 10 194.593 42.1642 10 
190.975 39.6449 10 194.685 58.0571 10 194.685 53.0571 10 
189.277 50.2213 10 196.457 67.5339 10 196.457 62.5339 10 
191.141 60.591 10 195.016 77.0417 10 195.016 72.0417 10 
191.473 69.5756 10 196.193 86.0569 10 196.193 81.0569 10 
191.209 78.0986 10 191.11 85.6719 10 194.917 89.6151 10 
192.157 91.8546 10 13.0532 96.7684 10 18.0532 96.7684 10 
12.7505 92.0712 10 22.2216 95.6893 10 27.2216 95.6893 10 
20.2749 92.4577 10 31.6123 96.7031 10 36.6123 96.7031 10 
28.8339 92.3924 10 43.3895 96.4421 10 48.3895 96.4421 10 
36.4939 91.5191 10 39.8815 94.816 10 43.271 91.2581 10 
52.1978 94.603 10 57.1978 94.603 10 50.5873 91.045 10 
62.1425 95.9371 10 67.1425 95.9371 10 59.3404 90.5401 10 
75.4578 95.9952 10 80.4578 95.9952 10 68.4562 89.826 10 
71.3137 93.8888 10 76.7715 89.884 10 85.4578 95.9952 10 
89.9944 96.3192 10 94.9944 96.3192 10 85.4522 92.3144 10 
102.549 96.271 10 107.549 96.271 10 100.766 90.3058 10 
98.2174 94.0348 10 93.2119 90.3541 10 111.289 96.7184 10 
116.289 96.7184 10 108.838 92.9893 10 122.942 96.4604 10 
127.942 96.4604 10 122.376 91.7858 10 119.433 95.3253 10 
115.722 92.0437 10 132.634 94.9406 10 137.634 94.9406 10 
130.576 91.4011 10 142.481 96.9939 10 147.481 96.9939 10 
140.115 91.9345 10 151.908 96.224 10 156.908 96.224 10 
149.389 93.2178 10 161.651 96.1778 10 166.651 96.1778 10 
158.56 92.4017 10 173.921 95.3225 10 178.921 95.3225 10 
173.795 88.6926 10 169.874 93.3701 10 166.525 89.5479 10 
182.033 97.0677 10 187.033 97.0677 10 180.954 92.3901 10 
189.273 94.3072 10 79.2211 55.0452 10 81.8798 50.2155 10 
83.842 54.8297 10 87.7697 54.1169 10 85.111 58.9466 10 
92.9064 55.6024 10 91.6374 51.4855 10 89.8287 47.729 10 
94.9654 49.2145 10 81.2181 45.2636 10 85.839 45.0481 10 
89.1671 42.7771 10 138.351 57.6727 10 139.606 51.5875 10 
143.046 55.3226 10 148.317 53.0178 10 147.062 59.1029 10 
138.763 45.8591 10 137.341 40.8169 10 142.879 44.1952 10 
144.956 40.266 10 146.378 45.3082 10 153.525 51.2611 10 
149.509 47.4807 10 151.586 43.5515 10 134.068 48.2093 10 
58.2486 62.4569 10 63.9089 63.6524 10 61.3246 67.2207 10 
64.4058 71.4426 10 58.7455 70.2472 10 56.8384 57.4267 10 
54.2541 60.995 10 50.8479 63.9891 10 49.4377 58.959 10 
51.2822 73.2159 10 51.9987 68.0552 10 54.9478 71.1859 10 
58.029 75.4079 10 47.1823 66.0191 10 110.992 63.2032 10 
110.732 57.5695 10 115.49 60.9915 10 118.949 58.084 10 
119.209 63.7177 10 115.213 71.4019 10 110.006 73.3229 10 
110.543 68.5461 10 105.785 65.1242 10 120.078 69.3617 10 
119.541 74.1385 10 123.537 66.4542 10 110.704 36.559 10 
105.449 34.5903 10 109.54 31.5064 10 109.372 26.1032 10 
114.627 28.0718 10 110.742 42.0919 10 114.832 39.0079 10 
118.283 35.9594 10 118.32 41.4924 10 117.989 25.2524 10 
118.156 30.6556 10 121.644 33.14 10 165.202 39.3021 10 
165.206 34.3261 10 169.163 35.8093 10 172.432 32.6344 10 
172.428 37.6103 10 160.365 32.9734 10 164.325 29.4806 10 
162.567 25.0634 10 167.408 26.4162 10 171.629 25.2898 10 
176.268 23.5203 10 173.806 29.0638 10 177.071 30.8649 10 
169.87 20.8727 10 165.471 66.1217 10 166.63 60.7896 10 
170.325 63.8346 10 174.04 61.7286 10 172.881 67.0607 10 
174.977 75.1538 10 170.174 73.4912 10 173.97 70.8293 10 
177.685 68.7234 10 161.188 68.4045 10 164.884 71.4495 10 
165.891 75.774 10 29.3424 68.3243 10 34.9533 66.7749 10 
33.5115 70.8744 10 37.1917 73.9579 10 31.5809 75.5073 10 
25.8122 69.348 10 27.254 65.2485 10 30.2656 80.0155 10 
26.5854 76.9321 10 21.5746 69.9715 10 23.6631 73.0473 10 
22.3478 77.5555 10 64.8249 29.506 10 68.2464 25.1563 10 
68.7043 31.371 10 74.4891 30.4237 10 71.0676 34.7735 10 
72.2525 23.1456 10 75.8263 22.1365 10 75.6996 26.012 10 
78.0628 29.4146 10 68.3732 21.2807 10 74.2809 75.6925 10 
68.4719 72.8737 10 72.7939 71.2349 10 71.0693 66.569 10 
76.8783 69.3878 10 88.8778 75.5513 10 83.9661 76.602 10 
83.5146 73.0029 10 80.5754 70.5957 10 85.4871 69.545 10 
79.3173 78.503 10 74.9953 80.1417 10 78.8508 65.9298 10 
84.6805 81.0513 10 147.136 29.4817 10 142.155 29.1284 10 
144.622 25.8722 10 142.314 22.8573 10 147.295 23.2106 10 
132.695 22.2243 10 137.592 22.0566 10 134.743 25.6865 10 
138.101 28.9929 10 133.204 29.1606 10 140.266 19.3951 10 
140.616 32.6025 10 141.796 72.3381 10 146.158 73.1339 10 
144.061 75.7435 10 144.124 79.1324 10 139.762 78.3366 10 
133.566 75.2539 10 137.216 72.6976 10 136.048 77.5039 10 
136.111 80.8928 10 139.314 70.0881 10 99.2058 15.5894 10 
99.0372 21.464 10 95.0018 16.7449 10 91.9853 19.4601 10 
92.1538 13.5855 10 103.763 24.9231 10 99.5588 26.0786 10 
98.2154 30.2352 10 93.4898 26.7761 10 89.7824 27.5517 10 
91.1259 23.3952 10 88.2779 20.2357 10 53.5417 35.8935 10 
57.4416 39.3078 10 53.5232 39.4311 10 54.3816 45.0157 10 
50.4818 41.6014 10 66.2244 40.9233 10 62.2945 44.4857 10 
61.3529 39.2831 10 61.3715 35.7455 10 63.3157 48.2502 10 
58.4442 46.61 10 55.4028 48.7803 10 183.998 53.0571 10 
183.906 47.1642 10 178.078 45.5953 10 183.357 42.7594 10 
179.329 54.5015 10 175.758 58.7527 10 175.055 54.2512 10 
170.785 53.4593 10 174.356 49.2081 10 184.701 57.5586 10 
173.808 44.8034 10 106.192 74.6804 10 103.113 78.9821 10 
102.257 74.7688 10 97.4465 75.2215 10 100.525 70.9197 10 
92.8821 83.61 10 94.254 79.1104 10 97.8068 83.5701 10 
101.432 82.0536 10 100.06 86.5532 10 105.367 81.9653 10 
92.5218 75.2614 10 115.049 49.9493 10 119.91 47.4405 10 
120.09 52.849 10 123.81 55.5752 10 123.361 44.392 10 
129.088 46.4105 10 129.931 52.1389 10 131.652 55.2459 10 
126.672 53.4472 10 127.498 40.4624 10 125.531 58.6821 10 
110.364 47.2632 10 110.544 52.6717 10 106.047 54.8834 10 
106.236 44.8142 10 103.16 47.309 10 103.538 42.1377 10 
101.504 56.3762 10 101.316 51.4783 10 98.618 48.8018 10 
40.0199 80.0258 10 41.9505 75.3929 10 43.7278 69.7051 10 
46.5559 75.773 10 49.5049 78.9037 10 54.3134 82.7763 10 
49.5872 85.3334 10 45.7788 87.1725 10 37.5121 84.1114 10 
42.2709 85.5464 10 33.5725 60.7768 10 37.7416 63.3269 10 
41.1961 59.641 10 42.5769 65.639 10 28.0942 60.8228 10 
30.8825 57.3748 10 26.3745 53.3677 10 31.8528 53.3218 10 
36.5912 51.5132 10 40.6755 49.1769 10 40.4451 54.9925 10 
45.2805 57.3047 10 167.384 17.789 10 160.934 19.9513 10 
162.669 15.7413 10 158.95 12.8286 10 148.502 10.0111 10 
154.646 12.5945 10 150.074 15.3202 10 150.603 19.0497 10 
144.459 16.4663 10 157.851 23.0158 10 154.543 27.1767 10 
152.91 22.0646 10 154.962 87.7778 10 149.733 89.4102 10 
150.878 84.74 10 147.036 81.4559 10 152.266 79.8234 10 
154.512 75.1358 10 158.354 78.4199 10 162.394 78.2413 10 
160.148 82.9289 10 159.705 87.7316 10 163.745 87.5529 10 
179.709 87.0665 10 175.662 85.1142 10 170.464 82.278 10 
176.379 80.6519 10 180.175 77.99 10 184.403 73.2877 10 
185.804 78.7857 10 186.981 82.8009 10 185.705 86.3591 10 
186.951 91.6827 10 182.822 88.8117 10 184.281 26.4315 10 
181.106 21.9315 10 186.943 21.0687 10 188.077 17.2275 10 
186.61 13.5583 10 183.895 11.2364 10 186.737 8.22604 10 
178.929 18.1575 10 175.765 14.5371 10 180.604 12.9483 10 
65.2792 57.3452 10 68.3552 62.1089 10 72.4396 60.2619 10 
73.4922 53.1164 10 75.4544 57.7306 10 78.1685 62.1907 10 
72.2124 48.2785 10 68.4458 50.9638 10 64.5955 53.0881 10 
60.1492 54.6316 10 63.6288 87.2714 10 67.7999 85.2231 10 
66.4657 79.9999 10 71.2931 82.5545 10 58.6019 79.5076 10 
58.6841 85.9372 10 62.3996 78.5688 10 65.8928 75.9002 10 
113.368 81.0113 10 119.086 79.5698 10 117.778 84.4024 10 
121.181 86.8058 10 115.463 88.2473 10 127.946 81.5106 10 
133.833 84.9707 10 129.382 86.4211 10 124.69 87.9409 10 
123.951 77.5296 10 128.401 76.0792 10 124.52 12.2653 10 
129.266 13.1347 10 135.064 13.7077 10 129.746 18.0213 10 
119.204 20.0585 10 115.672 16.188 10 120.416 13.5778 10 
122.733 22.6422 10 126.897 21.6513 10 125.682 26.8452 10 
161.794 58.3483 10 166.649 56.0611 10 165.95 51.018 10 
157.073 55.209 10 158.265 49.6719 10 158.846 45.6594 10 
162.395 49.6072 10 157.054 59.9374 10 166.531 47.0055 10 
157.143 36.4311 10 157.981 41.7714 10 153.879 40.3837 10 
150.748 38.2111 10 156.262 31.5856 10 151.322 30.6344 10 
148.855 33.8907 10 146.562 37.0585 10 14.7858 73.9342 10 
17.6754 78.8766 10 13.0357 79.14 10 11.9157 83.2714 10 
20.5977 82.7614 10 24.8567 86.4094 10 20.1843 87.7305 10 
16.0159 88.8096 10 12.6599 87.344 10 101.609 61.3356 10 
101.159 66.6784 10 96.3491 67.1311 10 96.879 57.9304 10 
93.0113 60.5618 10 93.1277 64.0834 10 89.1551 61.7554 10 
92.4929 68.3247 10 181.026 38.0504 10 186.854 39.6193 10 
188.643 34.9358 10 181.483 31.1023 10 187.32 30.2395 10 
180.11 34.6728 10 176.614 37.813 10 181.711 68.8841 10 
187.341 69.6798 10 188.781 65.172 10 187.009 60.6953 10 
182.341 62.1396 10 180.623 65.1156 10 178.314 61.9789 10 
152.428 61.7377 10 147.158 64.0425 10 148.208 68.2029 10 
142.842 65.5681 10 157.15 64.877 10 150.474 71.6083 10 
156.562 70.2048 10 16.0923 58.9719 10 21.2424 55.8718 10 
20.2541 60.5209 10 24.564 61.8465 10 19.4139 64.9466 10 
17.2648 68.6459 10 12.6251 68.9093 10 10.9159 64.3568 10 
11.7462 60.6326 10 101.652 38.9605 10 100.487 33.9079 10 
94.4181 34.6054 10 98.5759 41.4553 10 88.6618 35.5145 10 
90.9336 39.1872 10 94.9233 41.8681 10 96.8094 45.0453 10 
112.009 19.1124 10 113.221 12.6318 10 106.893 12.1 10 
108.85 21.4886 10 106.4 17.9323 10 103.734 14.4762 10 
76.8628 17.4055 10 72.3817 14.83 10 76.8652 12.9655 10 
80.199 11.3678 10 80.3098 20.2719 10 84.3825 19.8559 10 
83.3459 24.5868 10 87.9249 12.1847 10 85.2418 15.9208 10 
84.0294 11.8049 10 68.5793 16.822 10 68.5817 12.382 10 
64.8618 10.4926 10 61.1687 11.3328 10 60.1799 16.463 10 
64.5731 18.8327 10 59.9738 20.9216 10 70.5031 43.8539 10 
69.5615 38.6514 10 75.3463 37.7041 10 75.5495 46.0065 10 
79.5087 40.8391 10 81.0148 36.9612 10 53.651 27.4135 10 
53.5673 32.2574 10 57.4857 32.1341 10 60.9392 25.8947 10 
61.3971 32.1094 10 56.546 23.525 10 132.833 58.3795 10 
136.273 62.1146 10 138.263 65.9277 10 132.745 66.6345 10 
129.574 59.6878 10 126.712 61.8158 10 127.58 67.4599 10 
129.57 71.273 10 125.07 30.8116 10 129.234 29.8206 10 
132.592 33.1269 10 125.196 36.1154 10 130.923 38.1339 10 
134.894 37.4739 10 88.123 82.866 10 91.6758 87.3257 10 
88.4528 89.6101 10 80.4737 87.4713 10 83.4742 84.7669 10 
83.9161 89.286 10 33.3496 82.4139 10 35.6005 87.9345 10 
32.3313 89.8216 10 28.3541 83.8387 10 27.9406 88.8078 10 
109.554 82.3688 10 110.862 77.5362 10 112.318 89.6403 10 
104.392 88.7894 10 107.873 85.4403 10 108.578 89.1929 10 
171.605 16.6626 10 166.968 84.7453 10 167.685 80.283 10 
43.1016 41.6692 10 46.8896 40.6375 10 47.748 46.2221 10 
44.3427 48.9572 10 40.4888 45.4779 10 47.9348 49.9211 10 
139.738 15.6655 10 139.257 10.779 10 144.377 9.12816 10 
145.306 90.1801 10 140.459 88.1269 10 137.547 85.8034 10 
142.737 84.049 10 80.5607 32.2438 10 84.7232 35.3787 10 
88.2077 30.797 10 81.7711 27.8321 10 85.8438 27.416 10 
85.2274 62.4682 10 81.8656 63.3986 10 85.9097 66.2073 10 
76.3295 85.365 10 169.623 44.6007 10 173.344 40.9879 10 
166.067 43.19 10 162.111 41.7068 10 139.01 35.81 10 
143.063 35.9455 10 56.1547 53.1697 10 48.6867 54.3105 10 
52.092 51.5754 10 92.0702 71.6623 10 88.8488 68.6146 10 
5 100 5 195 100 5 15 100 5 
25 100 5 35 100 5 45 100 5 
55 100 5 75 100 5 65 100 5 
85 100 5 95 100 5 105 100 5 
115 100 5 125 100 5 135 100 5 
145 100 5 155 100 5 165 100 5 
175 100 5 185 100 5 2.5 100 7.5 
2.5 100 2.5 7.5 100 7.5 7.5 100 2.5 
197.5 100 2.5 197.5 100 7.5 192.5 100 7.5 
192.5 100 2.5 17.5 100 7.5 12.5 100 7.5 
10 100 5 12.5 100 2.5 27.5 100 7.5 
22.5 100 7.5 17.5 100 2.5 20 100 5 
22.5 100 2.5 37.5 100 7.5 32.5 100 7.5 
27.5 100 2.5 30 100 5 32.5 100 2.5 
47.5 100 7.5 42.5 100 7.5 37.5 100 2.5 
40 100 5 42.5 100 2.5 57.5 100 7.5 
52.5 100 7.5 47.5 100 2.5 50 100 5 
52.5 100 2.5 67.5 100 7.5 62.5 100 7.5 
57.5 100 2.5 60 100 5 62.5 100 2.5 
77.5 100 7.5 72.5 100 7.5 72.5 100 2.5 
70 100 5 67.5 100 2.5 87.5 100 7.5 
82.5 100 7.5 77.5 100 2.5 80 100 5 
82.5 100 2.5 97.5 100 7.5 92.5 100 7.5 
87.5 100 2.5 90 100 5 92.5 100 2.5 
107.5 100 7.5 102.5 100 7.5 97.5 100 2.5 
100 100 5 102.5 100 2.5 117.5 100 7.5 
112.5 100 7.5 107.5 100 2.5 110 100 5 
112.5 100 2.5 127.5 100 7.5 122.5 100 7.5 
117.5 100 2.5 120 100 5 122.5 100 2.5 
137.5 100 7.5 132.5 100 7.5 127.5 100 2.5 
130 100 5 132.5 100 2.5 147.5 100 7.5 
142.5 100 7.5 137.5 100 2.5 140 100 5 
142.5 100 2.5 157.5 100 7.5 152.5 100 7.5 
147.5 100 2.5 150 100 5 152.5 100 2.5 
167.5 100 7.5 162.5 100 7.5 157.5 100 2.5 
160 100 5 162.5 100 2.5 177.5 100 7.5 
172.5 100 7.5 167.5 100 2.5 170 100 5 
172.5 100 2.5 187.5 100 7.5 182.5 100 7.5 
177.5 100 2.5 180 100 5 182.5 100 2.5 
190 100 5 187.5 100 2.5 86.5007 50 0 
144.301 49.2374 0 55.6644 66.0252 0 115.75 66.6252 0 
114.795 33.475 0 169.167 30.8333 0 169.167 69.1667 0 
27.9007 72.4238 0 72.1258 27.0212 0 78.603 74.0537 0 
139.641 25.5189 0 139.698 74.9477 0 94.8332 22.6195 0 
57.423 42.8454 0 178.626 50 0 99.1787 79.0705 0 
124.951 50.3402 0 105.858 49.9855 0 44.7787 81.4609 0 
36.3608 57.3288 0 156.218 17.9037 0 156.108 83.1076 0 
181.576 83.4881 0 183.768 16.5687 0 69.7256 55.8018 0 
62.9725 82.6685 0 123.496 82.961 0 123.948 17.4483 0 
161.813 53.6198 0 153.04 35.0433 0 15.9253 84.0824 0 
96.9839 62.8898 0 184.522 34.9102 0 184.649 65.2763 0 
152.524 66.6773 0 15.104 63.621 0 96.6898 38.2782 0 
109.559 15.5562 0 81.3464 15.5409 0 64.7793 14.374 0 
73.8401 41.582 0 57.5113 28.498 0 130.755 62.8214 0 
128.621 33.7869 0 86.9167 86.5816 0 31.438 86.2371 0 
112.059 85.8438 0 169.12 13.5789 0 169.747 86.7403 0 
44.1559 45.2582 0 143.931 12.7368 0 145.649 86.3725 0 
84.269 30.6613 0 66.9849 68.4161 0 81.1833 59.6594 0 
39.1224 69.325 0 72.6274 87.7777 0 25.4042 57.4207 0 
169.159 40.7853 0 141.792 61.4077 0 141.457 39.153 0 
95.1703 10.8703 0 104.284 29.5377 0 52.8439 55.9648 0 
189.185 44.3283 0 54.3956 89.2059 0 88.4262 71.9522 0 
10.1461 74.1976 0 135.268 89.8813 0 134.584 8.82114 0 
115.229 55.3578 0 105.335 70.4671 0 114.87 44.5409 0 
49.6234 36.0168 0 171.484 58.5025 0 190.117 25.5687 0 
190.032 74.0834 0 54.2312 76.3466 0 96.4349 88.0697 0 
65.2829 35.7208 0 154.717 45.724 0 189.452 10.548 0 
189.834 89.2301 0 134.911 53.9377 0 189.369 56.1143 0 
72.3841 10.39 0 106.614 39.6429 0 114.677 76.1787 0 
124.405 72.0983 0 116.884 9.70735 0 114.46 22.6686 0 
149.603 26.2255 0 129.846 25.8542 0 159.484 28.1279 0 
96.774 52.971 0 106.235 59.7813 0 152.333 56.7981 0 
178.773 72.492 0 178.444 27.2944 0 39.7631 89.632 0 
24.4432 91.3785 0 36.8216 45.6975 0 160.601 73.7323 0 
153.074 7.28536 0 67.166 46.1259 0 153.817 92.4479 0 
64.2851 91.8742 0 148.423 76.5393 0 85.1773 40.0962 0 
177.44 9.32794 0 177.842 90.6449 0 133.225 42.4809 0 
161.775 63.0767 0 30.7842 64.2249 0 35.2611 78.5908 0 
60.8329 58.8886 0 9.39452 90.6055 0 118.867 90.6507 0 
46.0315 61.9531 0 55.5806 18.5519 0 177.53 41.1906 0 
77.2589 50.4311 0 161.245 37.8189 0 17.0806 54.3229 0 
19.4255 73.6708 0 69.9588 77.3313 0 132.397 80.0601 0 
165.649 21.999 0 171.181 77.8157 0 8.38827 57.6443 0 
104.227 8.64393 0 79.2733 25.0029 0 86.7124 8.06884 0 
57.5582 8.29152 0 64.367 23.2913 0 105.097 92.542 0 
89.0387 58.2339 0 125.091 7.0823 0 72.3793 19.2701 0 
23.7237 66.2722 0 122.668 60.8101 0 192.765 34.9615 0 
192.913 65.0677 0 163.303 92.3556 0 76.8524 33.8263 0 
161.682 7.75359 0 6.72769 65.0926 0 180.033 59.0029 0 
7.90607 82.4603 0 49.7908 26.329 0 121.771 38.4439 0 
25.2701 81.4403 0 135.544 18.5943 0 103.241 20.3085 0 
107.048 78.8937 0 92.1463 30.9327 0 75.1537 64.722 0 
121.518 27.8362 0 48.3331 70.0852 0 93.1568 45.458 0 
80.9156 91.9904 0 89.1373 16.3006 0 134.735 70.4476 0 
64.9443 6.61111 0 61.8267 74.4691 0 80.0317 82.9522 0 
176.596 64.9548 0 192.385 17.8863 0 192.385 82.1137 0 
27.3448 49.3147 0 170.086 48.4162 0 174.091 19.7463 0 
95.7142 71.3724 0 125.885 92.9209 0 44.5295 52.6562 0 
143.893 69.7285 0 89.3293 79.1503 0 144.669 32.738 0 
164.188 82.7503 0 136.562 32.467 0 148.455 41.379 0 
100.462 44.6325 0 59.4655 50.3745 0 103.686 85.0368 0 
33.2246 93.4062 0 42.0474 38.0801 0 57.4601 35.7702 0 
87.4186 24.1708 0 16.1065 93.5369 0 46.7789 92.8841 0 
144.987 20.1958 0 144.822 5.51954 0 79.0516 7.19462 0 
89.9889 92.6385 0 82.5479 67.1377 0 144.962 93.9877 0 
128.393 56.5541 0 162.976 45.5947 0 139.826 81.7255 0 
51.3402 47.186 0 184.023 5.90405 0 184.067 94.1354 0 
112.578 93.4367 0 175.698 34.4354 0 194.479 5.52096 0 
194.479 94.479 0 89.2715 65.2769 0 4.69726 95.3027 0 
4.69726 90.3027 0 9.69726 95.3027 0 4.19413 53.8221 0 
9.07139 53.3418 0 4.19413 58.8221 0 197.24 92.2395 0 
197.24 97.2395 0 192.24 97.2395 0 197.24 2.76048 0 
197.24 7.76048 0 192.24 2.76048 0 53.2987 9.02302 0 
53.7791 4.14576 0 58.7791 4.14576 0 50.8873 18.8431 0 
52.3099 14.1532 0 56.5694 13.4217 0 45.6821 27.0538 0 
47.9924 22.7316 0 52.6857 22.4405 0 38.7013 36.7177 0 
41.8104 32.9293 0 45.5984 31.8977 0 49.7071 31.1729 0 
45.8354 37.0485 0 32.3001 43.6355 0 36.0885 40.5264 0 
39.4345 41.8888 0 23.2395 47.7543 0 27.5617 45.4441 0 
32.0832 47.5061 0 13.4175 51.6811 0 18.1074 50.2584 0 
22.2127 51.8188 0 12.7344 55.9836 0 196.193 13.9431 0 
196.193 18.9431 0 194.726 10.274 0 190.919 14.2171 0 
191.965 8.03449 0 195.059 22.7844 0 195.059 27.7844 0 
191.251 21.7275 0 196.382 32.4807 0 196.382 37.4807 0 
191.441 30.2651 0 194.593 42.1642 0 194.593 47.1642 0 
190.975 39.6449 0 194.685 53.0571 0 194.685 58.0571 0 
189.277 50.2213 0 196.457 62.5339 0 196.457 67.5339 0 
191.141 60.591 0 195.016 72.0417 0 195.016 77.0417 0 
191.473 69.5756 0 196.193 81.0569 0 196.193 86.0569 0 
191.209 78.0986 0 194.917 89.6151 0 191.11 85.6719 0 
192.157 91.8546 0 3.36385 67.5463 0 3.36385 62.5463 0 
7.55798 61.3684 0 5.07307 77.0988 0 5.07307 72.0988 0 
8.43692 69.6451 0 3.95304 86.2302 0 3.95304 81.2302 0 
9.0261 78.329 0 8.65029 86.5329 0 18.0532 96.7684 0 
13.0532 96.7684 0 12.7505 92.0712 0 27.2216 95.6893 0 
22.2216 95.6893 0 20.2749 92.4577 0 36.6123 96.7031 0 
31.6123 96.7031 0 28.8339 92.3924 0 48.3895 96.4421 0 
43.3895 96.4421 0 39.8815 94.816 0 36.4939 91.5191 0 
43.271 91.2581 0 57.1978 94.603 0 52.1978 94.603 0 
50.5873 91.045 0 67.1425 95.9371 0 62.1425 95.9371 0 
59.3404 90.5401 0 80.4578 95.9952 0 75.4578 95.9952 0 
71.3137 93.8888 0 68.4562 89.826 0 76.7715 89.884 0 
85.4578 95.9952 0 94.9944 96.3192 0 89.9944 96.3192 0 
85.4522 92.3144 0 107.549 96.271 0 102.549 96.271 0 
98.2174 94.0348 0 100.766 90.3058 0 93.2119 90.3541 0 
116.289 96.7184 0 111.289 96.7184 0 108.838 92.9893 0 
127.942 96.4604 0 122.942 96.4604 0 119.433 95.3253 0 
122.376 91.7858 0 115.722 92.0437 0 137.634 94.9406 0 
132.634 94.9406 0 130.576 91.4011 0 147.481 96.9939 0 
142.481 96.9939 0 140.115 91.9345 0 156.908 96.224 0 
151.908 96.224 0 149.389 93.2178 0 166.651 96.1778 0 
161.651 96.1778 0 158.56 92.4017 0 178.921 95.3225 0 
173.921 95.3225 0 169.874 93.3701 0 173.795 88.6926 0 
166.525 89.5479 0 187.033 97.0677 0 182.033 97.0677 0 
180.954 92.3901 0 189.273 94.3072 0 62.4721 3.30555 0 
67.4721 3.30555 0 61.2512 7.45131 0 74.5258 3.59731 0 
79.5258 3.59731 0 71.192 5.19498 0 68.6642 8.50054 0 
75.7178 8.79229 0 83.3562 4.03442 0 88.3562 4.03442 0 
82.882 7.63173 0 92.5852 5.43517 0 97.5852 5.43517 0 
90.9414 9.46959 0 102.114 4.32196 0 107.114 4.32196 0 
99.6988 9.75713 0 113.442 4.85367 0 118.442 4.85367 0 
110.555 9.17564 0 122.546 3.54115 0 127.546 3.54115 0 
120.987 8.39483 0 132.292 4.41057 0 137.292 4.41057 0 
129.837 7.95172 0 142.411 2.75977 0 147.411 2.75977 0 
139.703 7.17034 0 151.537 3.64268 0 156.537 3.64268 0 
148.948 6.40245 0 160.841 3.87679 0 165.841 3.87679 0 
157.378 7.51947 0 173.72 4.66397 0 178.72 4.66397 0 
169.56 6.78946 0 173.28 11.4534 0 165.401 10.6663 0 
182.011 2.95203 0 187.011 2.95203 0 180.731 7.61599 0 
189.251 5.71251 0 83.842 54.8297 0 81.8798 50.2155 0 
79.2211 55.0452 0 85.111 58.9466 0 87.7697 54.1169 0 
91.6374 51.4855 0 92.9064 55.6024 0 94.9654 49.2145 0 
89.8287 47.729 0 85.839 45.0481 0 81.2181 45.2636 0 
89.1671 42.7771 0 143.046 55.3226 0 139.606 51.5875 0 
138.351 57.6727 0 147.062 59.1029 0 148.317 53.0178 0 
142.879 44.1952 0 137.341 40.8169 0 138.763 45.8591 0 
146.378 45.3082 0 144.956 40.266 0 149.509 47.4807 0 
153.525 51.2611 0 151.586 43.5515 0 134.068 48.2093 0 
61.3246 67.2207 0 63.9089 63.6524 0 58.2486 62.4569 0 
58.7455 70.2472 0 64.4058 71.4426 0 54.2541 60.995 0 
56.8384 57.4267 0 49.4377 58.959 0 50.8479 63.9891 0 
54.9478 71.1859 0 51.9987 68.0552 0 51.2822 73.2159 0 
58.029 75.4079 0 47.1823 66.0191 0 115.49 60.9915 0 
110.732 57.5695 0 110.992 63.2032 0 119.209 63.7177 0 
118.949 58.084 0 110.543 68.5461 0 110.006 73.3229 0 
115.213 71.4019 0 105.785 65.1242 0 119.541 74.1385 0 
120.078 69.3617 0 123.537 66.4542 0 109.54 31.5064 0 
105.449 34.5903 0 110.704 36.559 0 114.627 28.0718 0 
109.372 26.1032 0 114.832 39.0079 0 110.742 42.0919 0 
118.32 41.4924 0 118.283 35.9594 0 118.156 30.6556 0 
117.989 25.2524 0 121.644 33.14 0 169.163 35.8093 0 
165.206 34.3261 0 165.202 39.3021 0 172.428 37.6103 0 
172.432 32.6344 0 164.325 29.4806 0 160.365 32.9734 0 
167.408 26.4162 0 162.567 25.0634 0 173.806 29.0638 0 
176.268 23.5203 0 171.629 25.2898 0 177.071 30.8649 0 
169.87 20.8727 0 170.325 63.8346 0 166.63 60.7896 0 
165.471 66.1217 0 172.881 67.0607 0 174.04 61.7286 0 
173.97 70.8293 0 170.174 73.4912 0 174.977 75.1538 0 
177.685 68.7234 0 164.884 71.4495 0 161.188 68.4045 0 
165.891 75.774 0 33.5115 70.8744 0 34.9533 66.7749 0 
29.3424 68.3243 0 31.5809 75.5073 0 37.1917 73.9579 0 
27.254 65.2485 0 25.8122 69.348 0 26.5854 76.9321 0 
30.2656 80.0155 0 23.6631 73.0473 0 21.5746 69.9715 0 
22.3478 77.5555 0 68.7043 31.371 0 68.2464 25.1563 0 
64.8249 29.506 0 71.0676 34.7735 0 74.4891 30.4237 0 
75.6996 26.012 0 75.8263 22.1365 0 72.2525 23.1456 0 
78.0628 29.4146 0 68.3732 21.2807 0 72.7939 71.2349 0 
68.4719 72.8737 0 74.2809 75.6925 0 76.8783 69.3878 0 
71.0693 66.569 0 83.5146 73.0029 0 83.9661 76.602 0 
88.8778 75.5513 0 85.4871 69.545 0 80.5754 70.5957 0 
74.9953 80.1417 0 79.3173 78.503 0 78.8508 65.9298 0 
84.6805 81.0513 0 144.622 25.8722 0 142.155 29.1284 0 
147.136 29.4817 0 147.295 23.2106 0 142.314 22.8573 0 
134.743 25.6865 0 137.592 22.0566 0 132.695 22.2243 0 
133.204 29.1606 0 138.101 28.9929 0 140.266 19.3951 0 
140.616 32.6025 0 144.061 75.7435 0 146.158 73.1339 0 
141.796 72.3381 0 139.762 78.3366 0 144.124 79.1324 0 
136.048 77.5039 0 137.216 72.6976 0 133.566 75.2539 0 
136.111 80.8928 0 139.314 70.0881 0 95.0018 16.7449 0 
99.0372 21.464 0 99.2058 15.5894 0 92.1538 13.5855 0 
91.9853 19.4601 0 99.5588 26.0786 0 103.763 24.9231 0 
93.4898 26.7761 0 98.2154 30.2352 0 91.1259 23.3952 0 
89.7824 27.5517 0 88.2779 20.2357 0 53.5232 39.4311 0 
57.4416 39.3078 0 53.5417 35.8935 0 50.4818 41.6014 0 
54.3816 45.0157 0 61.3529 39.2831 0 62.2945 44.4857 0 
66.2244 40.9233 0 61.3715 35.7455 0 58.4442 46.61 0 
63.3157 48.2502 0 55.4028 48.7803 0 183.906 47.1642 0 
183.998 53.0571 0 183.357 42.7594 0 178.078 45.5953 0 
175.055 54.2512 0 175.758 58.7527 0 179.329 54.5015 0 
174.356 49.2081 0 170.785 53.4593 0 184.701 57.5586 0 
173.808 44.8034 0 102.257 74.7688 0 103.113 78.9821 0 
106.192 74.6804 0 100.525 70.9197 0 97.4465 75.2215 0 
97.8068 83.5701 0 94.254 79.1104 0 92.8821 83.61 0 
100.06 86.5532 0 101.432 82.0536 0 105.367 81.9653 0 
92.5218 75.2614 0 120.09 52.849 0 119.91 47.4405 0 
115.049 49.9493 0 123.81 55.5752 0 123.361 44.392 0 
129.931 52.1389 0 129.088 46.4105 0 126.672 53.4472 0 
131.652 55.2459 0 127.498 40.4624 0 125.531 58.6821 0 
110.544 52.6717 0 110.364 47.2632 0 106.047 54.8834 0 
106.236 44.8142 0 103.538 42.1377 0 103.16 47.309 0 
101.316 51.4783 0 101.504 56.3762 0 98.618 48.8018 0 
41.9505 75.3929 0 40.0199 80.0258 0 46.5559 75.773 0 
43.7278 69.7051 0 49.5872 85.3334 0 54.3134 82.7763 0 
49.5049 78.9037 0 45.7788 87.1725 0 42.2709 85.5464 0 
37.5121 84.1114 0 37.7416 63.3269 0 33.5725 60.7768 0 
42.5769 65.639 0 41.1961 59.641 0 30.8825 57.3748 0 
28.0942 60.8228 0 31.8528 53.3218 0 26.3745 53.3677 0 
36.5912 51.5132 0 40.4451 54.9925 0 40.6755 49.1769 0 
45.2805 57.3047 0 162.669 15.7413 0 160.934 19.9513 0 
167.384 17.789 0 158.95 12.8286 0 150.074 15.3202 0 
154.646 12.5945 0 148.502 10.0111 0 144.459 16.4663 0 
150.603 19.0497 0 152.91 22.0646 0 154.543 27.1767 0 
157.851 23.0158 0 150.878 84.74 0 149.733 89.4102 0 
154.962 87.7778 0 152.266 79.8234 0 147.036 81.4559 0 
158.354 78.4199 0 154.512 75.1358 0 160.148 82.9289 0 
162.394 78.2413 0 159.705 87.7316 0 163.745 87.5529 0 
175.662 85.1142 0 179.709 87.0665 0 176.379 80.6519 0 
170.464 82.278 0 185.804 78.7857 0 184.403 73.2877 0 
180.175 77.99 0 186.981 82.8009 0 185.705 86.3591 0 
182.822 88.8117 0 186.951 91.6827 0 186.943 21.0687 0 
181.106 21.9315 0 184.281 26.4315 0 188.077 17.2275 0 
186.61 13.5583 0 186.737 8.22604 0 183.895 11.2364 0 
178.929 18.1575 0 180.604 12.9483 0 175.765 14.5371 0 
68.3552 62.1089 0 65.2792 57.3452 0 72.4396 60.2619 0 
75.4544 57.7306 0 73.4922 53.1164 0 78.1685 62.1907 0 
68.4458 50.9638 0 72.2124 48.2785 0 64.5955 53.0881 0 
60.1492 54.6316 0 67.7999 85.2231 0 63.6288 87.2714 0 
71.2931 82.5545 0 66.4657 79.9999 0 58.6841 85.9372 0 
58.6019 79.5076 0 62.3996 78.5688 0 65.8928 75.9002 0 
117.778 84.4024 0 119.086 79.5698 0 113.368 81.0113 0 
115.463 88.2473 0 121.181 86.8058 0 129.382 86.4211 0 
133.833 84.9707 0 127.946 81.5106 0 124.69 87.9409 0 
123.951 77.5296 0 128.401 76.0792 0 129.266 13.1347 0 
124.52 12.2653 0 129.746 18.0213 0 135.064 13.7077 0 
120.416 13.5778 0 115.672 16.188 0 119.204 20.0585 0 
122.733 22.6422 0 126.897 21.6513 0 125.682 26.8452 0 
166.649 56.0611 0 161.794 58.3483 0 165.95 51.018 0 
158.265 49.6719 0 157.073 55.209 0 162.395 49.6072 0 
158.846 45.6594 0 157.054 59.9374 0 166.531 47.0055 0 
153.879 40.3837 0 157.981 41.7714 0 157.143 36.4311 0 
150.748 38.2111 0 151.322 30.6344 0 156.262 31.5856 0 
148.855 33.8907 0 146.562 37.0585 0 13.0357 79.14 0 
17.6754 78.8766 0 14.7858 73.9342 0 11.9157 83.2714 0 
20.1843 87.7305 0 24.8567 86.4094 0 20.5977 82.7614 0 
16.0159 88.8096 0 12.6599 87.344 0 101.159 66.6784 0 
101.609 61.3356 0 96.3491 67.1311 0 96.879 57.9304 0 
93.0113 60.5618 0 89.1551 61.7554 0 93.1277 64.0834 0 
92.4929 68.3247 0 186.854 39.6193 0 181.026 38.0504 0 
188.643 34.9358 0 187.32 30.2395 0 181.483 31.1023 0 
180.11 34.6728 0 176.614 37.813 0 187.341 69.6798 0 
181.711 68.8841 0 188.781 65.172 0 187.009 60.6953 0 
182.341 62.1396 0 180.623 65.1156 0 178.314 61.9789 0 
147.158 64.0425 0 152.428 61.7377 0 142.842 65.5681 0 
148.208 68.2029 0 157.15 64.877 0 156.562 70.2048 0 
150.474 71.6083 0 20.2541 60.5209 0 21.2424 55.8718 0 
16.0923 58.9719 0 19.4139 64.9466 0 24.564 61.8465 0 
12.6251 68.9093 0 17.2648 68.6459 0 10.9159 64.3568 0 
11.7462 60.6326 0 100.487 33.9079 0 101.652 38.9605 0 
94.4181 34.6054 0 98.5759 41.4553 0 90.9336 39.1872 0 
88.6618 35.5145 0 94.9233 41.8681 0 96.8094 45.0453 0 
113.221 12.6318 0 112.009 19.1124 0 106.893 12.1 0 
106.4 17.9323 0 108.85 21.4886 0 103.734 14.4762 0 
76.8652 12.9655 0 72.3817 14.83 0 76.8628 17.4055 0 
80.199 11.3678 0 80.3098 20.2719 0 83.3459 24.5868 0 
84.3825 19.8559 0 84.0294 11.8049 0 85.2418 15.9208 0 
87.9249 12.1847 0 68.5817 12.382 0 68.5793 16.822 0 
64.8618 10.4926 0 60.1799 16.463 0 61.1687 11.3328 0 
59.9738 20.9216 0 64.5731 18.8327 0 69.5615 38.6514 0 
70.5031 43.8539 0 75.3463 37.7041 0 75.5495 46.0065 0 
79.5087 40.8391 0 81.0148 36.9612 0 53.5673 32.2574 0 
53.651 27.4135 0 57.4857 32.1341 0 61.3971 32.1094 0 
60.9392 25.8947 0 56.546 23.525 0 136.273 62.1146 0 
132.833 58.3795 0 132.745 66.6345 0 138.263 65.9277 0 
129.574 59.6878 0 127.58 67.4599 0 126.712 61.8158 0 
129.57 71.273 0 129.234 29.8206 0 125.07 30.8116 0 
132.592 33.1269 0 130.923 38.1339 0 125.196 36.1154 0 
134.894 37.4739 0 91.6758 87.3257 0 88.123 82.866 0 
88.4528 89.6101 0 83.9161 89.286 0 83.4742 84.7669 0 
80.4737 87.4713 0 35.6005 87.9345 0 33.3496 82.4139 0 
32.3313 89.8216 0 27.9406 88.8078 0 28.3541 83.8387 0 
110.862 77.5362 0 109.554 82.3688 0 112.318 89.6403 0 
108.578 89.1929 0 107.873 85.4403 0 104.392 88.7894 0 
171.605 16.6626 0 167.685 80.283 0 166.968 84.7453 0 
46.8896 40.6375 0 43.1016 41.6692 0 47.748 46.2221 0 
40.4888 45.4779 0 44.3427 48.9572 0 47.9348 49.9211 0 
139.257 10.779 0 139.738 15.6655 0 144.377 9.12816 0 
140.459 88.1269 0 145.306 90.1801 0 142.737 84.049 0 
137.547 85.8034 0 84.7232 35.3787 0 80.5607 32.2438 0 
88.2077 30.797 0 81.7711 27.8321 0 85.8438 27.416 0 
85.2274 62.4682 0 81.8656 63.3986 0 85.9097 66.2073 0 
76.3295 85.365 0 173.344 40.9879 0 169.623 44.6007 0 
162.111 41.7068 0 166.067 43.19 0 139.01 35.81 0 
143.063 35.9455 0 56.1547 53.1697 0 48.6867 54.3105 0 
52.092 51.5754 0 92.0702 71.6623 0 88.8488 68.6146 0 
38.6505 31.7197 5 31.7197 38.6505 5 44.0961 23.5698 5 
47.847 14.5142 5 49.7592 4.90086 5 23.5698 44.0961 5 
14.5142 47.847 5 4.90086 49.7592 5 2.45338 49.9398 2.5 
2.45338 49.9398 7.5 7.33652 49.4588 7.5 7.33652 49.4588 2.5 
49.9398 2.45338 7.5 49.9398 2.45338 2.5 49.4588 7.33652 7.5 
49.4588 7.33652 2.5 48.5016 12.149 2.5 47.0772 16.8445 2.5 
49.0393 9.75452 5 42.8864 25.7051 2.5 45.1995 21.3778 2.5 
46.194 19.1342 5 37.0476 33.5779 2.5 40.1604 29.785 2.5 
41.5735 27.7785 5 33.5779 37.0476 2.5 29.785 40.1604 2.5 
35.3553 35.3553 5 25.7051 42.8864 2.5 21.3778 45.1995 2.5 
27.7785 41.5735 5 16.8445 47.0772 2.5 12.149 48.5016 2.5 
19.1342 46.194 5 9.75452 49.0393 5 47.0772 16.8445 7.5 
48.5016 12.149 7.5 45.1995 21.3778 7.5 42.8864 25.7051 7.5 
40.1604 29.785 7.5 37.0476 33.5779 7.5 29.785 40.1604 7.5 
33.5779 37.0476 7.5 21.3778 45.1995 7.5 25.7051 42.8864 7.5 
12.149 48.5016 7.5 16.8445 47.0772 7.5 200 5 5 
200 15 5 200 25 5 200 35 5 
200 55 5 200 65 5 200 75 5 
200 95 5 200 45 5 200 85 5 
200 97.5 7.5 200 97.5 2.5 200 92.5 7.5 
200 2.5 2.5 200 2.5 7.5 200 7.5 7.5 
200 92.5 2.5 200 7.5 2.5 200 17.5 2.5 
200 12.5 2.5 200 10 5 200 12.5 7.5 
200 27.5 2.5 200 22.5 2.5 200 17.5 7.5 
200 20 5 200 22.5 7.5 200 37.5 2.5 
200 32.5 2.5 200 27.5 7.5 200 30 5 
200 32.5 7.5 200 47.5 2.5 200 42.5 2.5 
200 37.5 7.5 200 40 5 200 42.5 7.5 
200 57.5 2.5 200 52.5 2.5 200 52.5 7.5 
200 50 5 200 47.5 7.5 200 67.5 2.5 
200 62.5 2.5 200 57.5 7.5 200 60 5 
200 62.5 7.5 200 77.5 2.5 200 72.5 2.5 
200 67.5 7.5 200 70 5 200 72.5 7.5 
200 87.5 2.5 200 82.5 2.5 200 77.5 7.5 
200 80 5 200 82.5 7.5 200 90 5 
200 87.5 7.5 55 0 5 65 0 5 
75 0 5 85 0 5 95 0 5 
105 0 5 115 0 5 125 0 5 
135 0 5 145 0 5 155 0 5 
175 0 5 185 0 5 195 0 5 
165 0 5 197.5 0 7.5 197.5 0 2.5 
192.5 0 7.5 52.5 0 2.5 52.5 0 7.5 
57.5 0 7.5 192.5 0 2.5 57.5 0 2.5 
62.5 0 7.5 67.5 0 7.5 60 0 5 
62.5 0 2.5 72.5 0 7.5 77.5 0 7.5 
70 0 5 67.5 0 2.5 72.5 0 2.5 
82.5 0 7.5 87.5 0 7.5 80 0 5 
77.5 0 2.5 82.5 0 2.5 92.5 0 7.5 
97.5 0 7.5 90 0 5 87.5 0 2.5 
92.5 0 2.5 102.5 0 7.5 107.5 0 7.5 
100 0 5 97.5 0 2.5 102.5 0 2.5 
112.5 0 7.5 117.5 0 7.5 110 0 5 
107.5 0 2.5 112.5 0 2.5 122.5 0 7.5 
127.5 0 7.5 120 0 5 117.5 0 2.5 
122.5 0 2.5 132.5 0 7.5 137.5 0 7.5 
130 0 5 127.5 0 2.5 132.5 0 2.5 
142.5 0 7.5 147.5 0 7.5 140 0 5 
137.5 0 2.5 142.5 0 2.5 152.5 0 7.5 
157.5 0 7.5 150 0 5 147.5 0 2.5 
152.5 0 2.5 162.5 0 7.5 167.5 0 7.5 
160 0 5 157.5 0 2.5 162.5 0 2.5 
172.5 0 7.5 177.5 0 7.5 170 0 5 
172.5 0 2.5 167.5 0 2.5 182.5 0 7.5 
187.5 0 7.5 180 0 5 177.5 0 2.5 
182.5 0 2.5 190 0 5 187.5 0 2.5 
31.7496 68.5708 4.22118 60.5839 46.4648 4.18688 117.325 28.2543 4.34669 
167.93 83.1747 5.30025 158.872 57.5457 5.36189 146.639 23.0503 5 
65.1881 35.8916 5 154.307 17.8432 5 161.694 92.0924 5 
35.9791 79.8103 5 21.8394 65.6855 5 105.568 27.367 4.82293 
50.4238 48.7858 5 152.623 66.6002 5 123.213 36.6841 5 
163.678 74.6046 5 154.726 48.2081 5 161.794 58.3483 5 
161.813 53.6198 5 160.343 55.5827 7.68095 160.343 55.5827 2.68095 
160.324 60.3112 7.68095 161.775 63.0767 5 160.324 60.3112 2.68095 
142.314 22.8573 5 139.641 25.5189 5 143.14 24.2846 7.5 
143.14 24.2846 2.5 145.813 21.6231 7.5 30.7842 64.2249 5 
34.9533 66.7749 5 35.436 68.9479 2.11059 31.2669 66.3978 7.11059 
31.2669 66.3978 2.11059 144.987 20.1958 5 145.813 21.6231 2.5 
63.3157 48.2502 5 67.166 46.1259 5 60.0247 48.4197 7.09344 
63.875 46.2954 7.09344 63.875 46.2954 2.09344 117.989 25.2524 5 
121.518 27.8362 5 119.421 28.0452 2.17335 119.421 28.0452 7.17335 
115.892 25.4615 2.17335 59.4655 50.3745 5 60.0247 48.4197 2.09344 
69.9721 3.30555 2.5 73.692 5.19498 2.5 68.6642 8.50054 5 
69.9721 3.30555 7.5 64.9443 6.61111 5 114.46 22.6686 5 
115.892 25.4615 7.17335 39.1224 69.325 5 35.436 68.9479 7.11059 
67.4721 3.30555 5 64.9721 3.30555 2.5 64.9721 3.30555 7.5 
100.766 90.3058 5 100.049 96.271 2.5 95.7174 94.0348 7.5 
100.049 96.271 7.5 105.097 92.542 5 69.6425 95.9371 2.5 
69.6425 95.9371 7.5 64.2851 91.8742 5 68.4562 89.826 5 
73.8137 93.8888 7.5 73.692 5.19498 7.5 72.3841 10.39 5 
167.374 93.3701 7.5 164.151 96.1778 7.5 163.347 96.0462 5 
162.499 92.224 7.5 165.721 89.4164 7.5 167.374 93.3701 2.5 
164.151 96.1778 2.5 165.721 89.4164 2.5 162.499 92.224 2.5 
196.457 67.5339 5 196.457 70.0339 7.5 196.457 70.0339 2.5 
192.913 65.0677 5 196.457 65.0339 7.5 196.457 65.0339 2.5 
196.457 60.0339 2.5 196.457 60.0339 7.5 191.141 60.591 5 
194.685 55.5571 2.5 194.593 49.6642 7.5 189.277 50.2213 5 
189.185 44.3283 5 194.593 49.6642 2.5 5.07307 74.5988 7.5 
3.36385 70.0463 2.5 8.43692 69.6451 5 6.72769 65.0926 5 
3.36385 70.0463 7.5 194.593 44.6642 7.5 194.593 47.1642 5 
194.593 44.6642 2.5 196.457 62.5339 5 196.382 39.9807 7.5 
196.382 39.9807 2.5 190.975 39.6449 5 192.765 34.9615 5 
194.685 55.5571 7.5 189.369 56.1143 5 53.5417 35.8935 5 
57.4857 32.1341 5 57.4601 35.7702 5 125.531 58.6821 5 
123.81 55.5752 5 126.672 53.4472 5 128.393 56.5541 5 
127.546 3.54115 5 130.046 3.54115 2.5 125.046 3.54115 2.5 
191.441 30.2651 5 196.382 29.9807 7.5 195.059 25.2844 2.5 
196.382 29.9807 2.5 196.382 34.9807 7.5 196.382 32.4807 5 
196.382 34.9807 2.5 116.933 95.3253 7.5 119.433 95.3253 5 
118.867 90.6507 5 116.933 95.3253 2.5 121.933 95.3253 7.5 
121.933 95.3253 2.5 131.652 55.2459 5 61.2791 4.14576 2.5 
61.2512 7.45131 5 3.36385 67.5463 5 3.36385 65.0463 2.5 
3.36385 65.0463 7.5 67.1425 95.9371 5 64.6425 95.9371 2.5 
64.6425 95.9371 7.5 125.091 7.0823 5 130.046 3.54115 7.5 
125.046 3.54115 7.5 195.016 74.5417 7.5 191.473 69.5756 5 
85.2418 15.9208 5 84.3825 19.8559 5 88.2779 20.2357 5 
89.1373 16.3006 5 57.4416 39.3078 5 172.881 67.0607 5 
174.04 61.7286 5 176.596 64.9548 5 59.6425 95.9371 7.5 
59.6425 95.9371 2.5 59.3404 90.5401 5 54.6978 94.603 7.5 
102.549 96.271 5 105.049 96.271 2.5 105.049 96.271 7.5 
169.747 86.7403 5 196.382 37.4807 5 187.417 94.6151 7.5 
189.74 97.2395 7.5 192.157 91.8546 5 187.417 94.6151 2.5 
189.834 89.2301 5 132.833 58.3795 5 129.574 59.6878 5 
73.8137 93.8888 2.5 72.6274 87.7777 5 110.862 77.5362 5 
107.048 78.8937 5 106.192 74.6804 5 103.113 78.9821 5 
166.531 47.0055 5 162.395 49.6072 5 162.976 45.5947 5 
194.479 94.479 5 189.74 97.2395 2.5 95.7174 94.0348 2.5 
96.4349 88.0697 5 80.3098 20.2719 5 75.8263 22.1365 5 
79.2733 25.0029 5 72.3793 19.2701 5 76.8628 17.4055 5 
92.1538 13.5855 5 95.0018 16.7449 5 91.9853 19.4601 5 
29.1123 96.7031 2.5 24.7216 95.6893 2.5 28.8339 92.3924 5 
29.1123 96.7031 7.5 33.2246 93.4062 5 20.5532 96.7684 2.5 
20.5532 96.7684 7.5 20.2749 92.4577 5 16.1065 93.5369 5 
122.376 91.7858 5 125.442 96.4604 2.5 81.8656 63.3986 5 
82.5479 67.1377 5 85.9097 66.2073 5 173.28 11.4534 5 
176.22 4.66397 7.5 172.06 6.78946 2.5 176.22 4.66397 2.5 
177.44 9.32794 5 5.07307 74.5988 2.5 10.1461 74.1976 5 
18.0532 96.7684 5 15.5532 96.7684 7.5 15.5532 96.7684 2.5 
151.908 96.224 5 149.408 96.224 2.5 154.408 96.224 2.5 
104.392 88.7894 5 107.873 85.4403 5 103.686 85.0368 5 
162.111 41.7068 5 166.067 43.19 5 186.951 91.6827 5 
184.533 97.0677 2.5 46.9434 24.9494 2.5 47.9924 22.7316 5 
49.7908 26.329 5 46.9434 24.9494 7.5 194.917 87.1151 7.5 
197.24 89.7395 7.5 194.917 87.1151 2.5 72.3817 14.83 5 
83.3459 24.5868 5 45.6821 27.0538 5 64.8618 10.4926 5 
84.0294 11.8049 5 87.9249 12.1847 5 154.408 96.224 7.5 
153.817 92.4479 5 149.408 96.224 7.5 195.059 25.2844 7.5 
190.117 25.5687 5 194.726 12.774 7.5 197.24 10.2605 7.5 
194.479 5.52096 5 197.24 10.2605 2.5 191.965 8.03449 5 
189.74 2.76048 7.5 187.226 5.27401 7.5 189.74 2.76048 2.5 
173.97 70.8293 5 177.685 68.7234 5 109.614 4.32196 2.5 
107.114 4.32196 5 104.614 4.32196 2.5 113.221 12.6318 5 
115.672 16.188 5 109.559 15.5562 5 112.009 19.1124 5 
197.24 89.7395 2.5 105.367 81.9653 5 109.554 82.3688 5 
144.669 32.738 5 142.155 29.1284 5 144.622 25.8722 5 
147.136 29.4817 5 85.4871 69.545 5 80.5754 70.5957 5 
16.0159 88.8096 5 101.432 82.0536 5 194.726 12.774 2.5 
189.452 10.548 5 187.226 5.27401 2.5 100.462 44.6325 5 
103.538 42.1377 5 106.236 44.8142 5 103.16 47.309 5 
81.3464 15.5409 5 167.06 6.78946 2.5 163.341 3.87679 7.5 
165.401 10.6663 5 161.682 7.75359 5 163.341 3.87679 2.5 
144.981 96.9939 7.5 149.389 93.2178 5 115.942 4.85367 7.5 
109.614 4.32196 7.5 104.227 8.64393 5 110.555 9.17564 5 
184.533 97.0677 7.5 165.95 51.018 5 170.086 48.4162 5 
170.785 53.4593 5 31.438 86.2371 5 28.3541 83.8387 5 
27.9406 88.8078 5 169.623 44.6007 5 49.7071 31.1729 5 
125.442 96.4604 7.5 125.885 92.9209 5 62.1425 95.9371 5 
139.314 70.0881 5 138.263 65.9277 5 143.893 69.7285 5 
142.842 65.5681 5 150.748 38.2111 5 148.455 41.379 5 
146.562 37.0585 5 148.855 33.8907 5 78.8508 65.9298 5 
165.649 21.999 5 162.567 25.0634 5 159.978 19.9211 2.5 
156.895 22.9855 2.5 159.978 19.9211 7.5 87.4186 24.1708 5 
39.8815 94.816 5 42.3815 94.816 2.5 37.3815 94.816 2.5 
184.067 94.1354 5 87.7697 54.1169 5 89.0387 58.2339 5 
92.9064 55.6024 5 90.8562 4.03442 7.5 90.8562 4.03442 2.5 
86.7124 8.06884 5 90.9414 9.46959 5 95.0852 5.43517 7.5 
106.893 12.1 5 142.411 2.75977 5 139.911 2.75977 2.5 
144.911 2.75977 2.5 76.8652 12.9655 5 144.981 96.9939 2.5 
144.962 93.9877 5 100.06 86.5532 5 139.981 96.9939 7.5 
139.981 96.9939 2.5 142.481 96.9939 5 52.6857 22.4405 5 
192.24 97.2395 5 194.74 97.2395 2.5 184.701 57.5586 5 
180.033 59.0029 5 179.329 54.5015 5 180.623 65.1156 5 
32.3313 89.8216 5 194.74 2.76048 7.5 192.24 2.76048 5 
115.942 4.85367 2.5 116.884 9.70735 5 149.733 89.4102 5 
154.962 87.7778 5 135.134 94.9406 2.5 140.115 91.9345 5 
64.7793 14.374 5 61.1687 11.3328 5 56.5694 13.4217 5 
60.1799 16.463 5 104.614 4.32196 7.5 118.442 4.85367 5 
120.942 4.85367 7.5 53.651 27.4135 5 61.3241 35.8309 2.5 
61.3497 32.1948 7.5 61.3241 35.8309 7.5 166.649 56.0611 5 
12.6251 68.9093 5 10.9159 64.3568 5 57.5113 28.498 5 
53.5673 32.2574 5 195.016 74.5417 2.5 170.325 63.8346 5 
169.167 69.1667 5 151.586 43.5515 5 24.8567 86.4094 5 
25.2701 81.4403 5 20.5977 82.7614 5 20.1843 87.7305 5 
100.525 70.9197 5 96.3491 67.1311 5 95.7142 71.3724 5 
130.442 96.4604 7.5 135.134 94.9406 7.5 130.576 91.4011 5 
130.442 96.4604 2.5 61.3056 39.3685 7.5 34.1123 96.7031 2.5 
34.1123 96.7031 7.5 36.4939 91.5191 5 159.484 28.1279 5 
156.895 22.9855 7.5 139.911 2.75977 7.5 144.822 5.51954 5 
144.911 2.75977 7.5 178.314 61.9789 5 175.758 58.7527 5 
120.942 4.85367 2.5 172.428 37.6103 5 172.432 32.6344 5 
175.698 34.4354 5 173.795 88.6926 5 172.374 93.3701 2.5 
176.421 95.3225 7.5 177.842 90.6449 5 176.421 95.3225 2.5 
99.1787 79.0705 5 102.257 74.7688 5 171.484 58.5025 5 
172.06 6.78946 7.5 169.12 13.5789 5 194.74 97.2395 7.5 
106.614 39.6429 5 110.742 42.0919 5 110.704 36.559 5 
114.832 39.0079 5 22.3478 77.5555 5 17.6754 78.8766 5 
110.544 52.6717 5 115.049 49.9493 5 110.364 47.2632 5 
105.858 49.9855 5 85.111 58.9466 5 97.4465 75.2215 5 
108.578 89.1929 5 186.737 8.22604 5 184.511 2.95203 2.5 
54.6978 94.603 2.5 54.3956 89.2059 5 194.74 2.76048 2.5 
93.0113 60.5618 5 57.423 42.8454 5 53.5232 39.4311 5 
50.0236 42.4013 7.5 53.9234 45.8156 2.5 53.9234 45.8156 7.5 
144.956 40.266 5 143.063 35.9455 5 149.603 26.2255 5 
31.6123 96.7031 5 101.652 38.9605 5 105.449 34.5903 5 
120.987 8.39483 5 17.2648 68.6459 5 19.4255 73.6708 5 
20.6325 69.6782 7.5 20.6325 69.6782 2.5 18.4717 64.6533 2.5 
184.511 2.95203 7.5 184.023 5.90405 5 24.4432 91.3785 5 
24.7216 95.6893 7.5 113.789 96.7184 7.5 115.722 92.0437 5 
68.5817 12.382 5 68.5793 16.822 5 110.543 68.5461 5 
105.785 65.1242 5 105.335 70.4671 5 108.789 96.7184 7.5 
108.838 92.9893 5 138.101 28.9929 5 134.743 25.6865 5 
124.69 87.9409 5 49.4377 58.959 5 54.2541 60.995 5 
52.8439 55.9648 5 144.124 79.1324 5 139.762 78.3366 5 
139.698 74.9477 5 144.061 75.7435 5 145.649 86.3725 5 
150.878 84.74 5 169.874 93.3701 5 172.374 93.3701 7.5 
7.55798 61.3684 5 4.19413 61.3221 2.5 49.6234 36.0168 5 
94.8332 22.6195 5 93.4898 26.7761 5 100.2 24.9932 7.41147 
98.8569 29.1498 2.41147 100.2 24.9932 2.41147 165.471 66.1217 5 
188.781 65.172 5 190.032 74.0834 5 110.006 73.3229 5 
114.677 76.1787 5 61.2791 4.14576 7.5 57.5582 8.29152 5 
169.159 40.7853 5 165.202 39.3021 5 169.163 35.8093 5 
89.2715 65.2769 5 85.2274 62.4682 5 115.229 55.3578 5 
55.5806 18.5519 5 44.5295 52.6562 5 40.6755 49.1769 5 
40.4451 54.9925 5 108.789 96.7184 2.5 112.578 93.4367 5 
188.643 34.9358 5 127.942 96.4604 5 157.981 41.7714 5 
153.879 40.3837 5 157.143 36.4311 5 161.245 37.8189 5 
98.5759 41.4553 5 137.216 72.6976 5 141.796 72.3381 5 
187.32 30.2395 5 184.522 34.9102 5 181.483 31.1023 5 
169.56 6.78946 5 167.06 6.78946 7.5 134.792 4.41057 7.5 
129.837 7.95172 5 115.49 60.9915 5 110.732 57.5695 5 
180.175 77.99 5 178.773 72.492 5 184.403 73.2877 5 
147.208 64.0039 2.5 148.258 68.1643 7.5 148.258 68.1643 2.5 
166.63 60.7896 5 129.846 25.8542 5 133.204 29.1606 5 
46.0315 61.9531 5 50.8479 63.9891 5 33.5725 60.7768 5 
37.7416 63.3269 5 167.408 26.4162 5 169.87 20.8727 5 
110.992 63.2032 5 115.75 66.6252 5 106.235 59.7813 5 
58.6841 85.9372 5 62.9725 82.6685 5 58.6019 79.5076 5 
129.266 13.1347 5 124.52 12.2653 5 14.7858 73.9342 5 
98.618 48.8018 5 96.8094 45.0453 5 175.055 54.2512 5 
184.281 26.4315 5 186.943 21.0687 5 139.703 7.17034 5 
157.986 43.0135 7.5 158.851 46.9014 7.5 154.721 46.9661 7.5 
190.919 14.2171 5 196.193 16.4431 2.5 101.316 51.4783 5 
94.9233 41.8681 5 89.1671 42.7771 5 93.1568 45.458 5 
56.2791 4.14576 7.5 58.7791 4.14576 5 89.8287 47.729 5 
94.9654 49.2145 5 153.04 35.0433 5 154.543 27.1767 5 
151.955 22.0343 2.5 151.955 22.0343 7.5 71.0693 66.569 5 
75.1537 64.722 5 72.4396 60.2619 5 136.048 77.5039 5 
133.566 75.2539 5 4.19413 61.3221 7.5 4.19413 58.8221 5 
4.19413 56.3221 7.5 158.851 46.9014 2.5 158.269 50.9139 7.5 
106.4 17.9323 5 103.734 14.4762 5 114.87 44.5409 5 
113.789 96.7184 2.5 187.341 69.6798 5 44.1559 45.2582 5 
46.8896 40.6375 5 47.2898 47.022 2.5 47.2898 47.022 7.5 
114.795 33.475 5 181.711 68.8841 5 184.649 65.2763 5 
196.193 83.5569 7.5 191.11 85.6719 5 160.365 32.9734 5 
165.206 34.3261 5 181.106 21.9315 5 183.768 16.5687 5 
178.444 27.2944 5 15.9253 84.0824 5 138.763 45.8591 5 
142.879 44.1952 5 141.457 39.153 5 137.341 40.8169 5 
120.09 52.849 5 92.1463 30.9327 5 98.8569 29.1498 7.41147 
182.341 62.1396 5 88.123 82.866 5 92.8821 83.61 5 
91.6758 87.3257 5 86.9167 86.5816 5 182.011 2.95203 5 
179.511 2.95203 2.5 151.322 30.6344 5 72.7939 71.2349 5 
76.8783 69.3878 5 136.562 32.467 5 140.616 32.6025 5 
134.792 4.41057 2.5 115.463 88.2473 5 121.181 86.8058 5 
164.188 82.7503 5 166.059 82.9625 7.65013 166.059 82.9625 2.65013 
162.941 87.4213 2.5 164.812 87.6335 5.15013 162.941 87.4213 7.5 
30.6246 80.6253 2.5 33.7085 83.0237 7.5 33.7085 83.0237 2.5 
115.213 71.4019 5 106.047 54.8834 5 101.504 56.3762 5 
156.262 31.5856 5 164.325 29.4806 5 50.0236 42.4013 2.5 
96.9839 62.8898 5 101.159 66.6784 5 94.254 79.1104 5 
92.5218 75.2614 5 42.3815 94.816 7.5 39.7631 89.632 5 
37.3815 94.816 7.5 197.24 92.2395 5 197.24 94.7395 7.5 
197.24 94.7395 2.5 183.998 53.0571 5 183.906 47.1642 5 
156.108 83.1076 5 182.033 97.0677 5 179.533 97.0677 7.5 
88.4262 71.9522 5 83.5146 73.0029 5 91.6374 51.4855 5 
86.5007 50 5 13.0357 79.14 5 177.071 30.8649 5 
180.11 34.6728 5 186.854 39.6193 5 128.621 33.7869 5 
129.234 29.8206 5 125.682 26.8452 5 125.07 30.8116 5 
187.009 60.6953 5 122.668 60.8101 5 63.6288 87.2714 5 
174.356 49.2081 5 192.385 17.8863 5 196.193 16.4431 7.5 
181.026 38.0504 5 157.199 64.8385 2.5 157.199 64.8385 7.5 
162.726 68.8407 2.5 162.726 68.8407 7.5 158.151 70.6024 5 
197.24 7.76048 5 197.24 5.26048 2.5 197.24 5.26048 7.5 
3.95304 78.7302 2.5 9.0261 78.329 5 3.95304 78.7302 7.5 
7.90607 82.4603 5 119.91 47.4405 5 35.6005 87.9345 5 
132.592 33.1269 5 130.755 62.8214 5 127.58 67.4599 5 
123.537 66.4542 5 126.712 61.8158 5 110.181 30.421 2.41147 
106.091 33.5049 2.41147 110.181 30.421 7.41147 15.104 63.621 5 
18.4717 64.6533 7.5 101.609 61.3356 5 178.626 50 5 
129.57 71.273 5 128.401 76.0792 5 132.397 80.0601 5 
56.546 23.525 5 147.062 59.1029 5 148.317 53.0178 5 
152.333 56.7981 5 45.2805 57.3047 5 89.1551 61.7554 5 
59.0035 44.6551 7.09344 66.1771 41.0088 7.5 62.886 41.1782 4.59344 
48.6867 54.3105 5 84.7232 35.3787 5 88.2077 30.797 5 
84.269 30.6613 5 88.8778 75.5513 5 83.9661 76.602 5 
124.405 72.0983 5 41.1961 59.641 5 42.5769 65.639 5 
104.926 28.4523 7.41147 104.926 28.4523 2.41147 100.487 33.9079 5 
96.6898 38.2782 5 137.592 22.0566 5 124.951 50.3402 5 
129.088 46.4105 5 124.082 43.5121 7.5 128.219 39.5825 7.5 
124.082 43.5121 2.5 130.923 38.1339 5 50.882 47.9859 7.5 
50.882 47.9859 2.5 134.735 70.4476 5 32.0832 47.5061 5 
36.5912 51.5132 5 36.8216 45.6975 5 59.0035 44.6551 2.09344 
61.3056 39.3685 2.5 95.0852 5.43517 2.5 95.1703 10.8703 5 
55.6644 66.0252 5 149.037 3.64268 7.5 151.537 3.64268 5 
154.037 3.64268 7.5 20.3252 49.2095 2.5 17.0806 54.3229 5 
20.3252 49.2095 7.5 18.1074 50.2584 5 146.378 45.3082 5 
139.826 81.7255 5 66.1771 41.0088 2.5 139.606 51.5875 5 
134.911 53.9377 5 134.068 48.2093 5 26.5854 76.9321 5 
31.9399 76.117 2.5 30.6246 80.6253 7.5 145.306 90.1801 5 
64.5731 18.8327 5 78.1685 62.1907 5 179.511 2.95203 7.5 
191.209 78.0986 5 192.385 82.1137 5 186.981 82.8009 5 
185.804 78.7857 5 132.695 22.2243 5 81.7711 27.8321 5 
80.5607 32.2438 5 176.614 37.813 5 51.7138 16.5331 2.5 
52.7026 11.4029 2.5 51.7138 16.5331 7.5 37.8711 84.7211 2.5 
196.193 83.5569 2.5 96.879 57.9304 5 88.8488 68.6146 5 
83.842 54.8297 5 181.576 83.4881 5 96.774 52.971 5 
185.705 86.3591 5 126.897 21.6513 5 146.158 73.1339 5 
129.931 52.1389 5 31.8528 53.3218 5 27.3448 49.3147 5 
68.3732 21.2807 5 63.9089 63.6524 5 68.3552 62.1089 5 
65.2792 57.3452 5 60.8329 58.8886 5 93.1277 64.0834 5 
173.344 40.9879 5 152.478 61.6992 7.5 147.208 64.0039 7.5 
152.478 61.6992 2.5 28.0942 60.8228 5 119.004 35.0796 7.5 
119.041 40.6125 2.5 119.004 35.0796 2.5 97.8068 83.5701 5 
118.32 41.4924 5 88.3562 4.03442 5 85.8562 4.03442 2.5 
85.8562 4.03442 7.5 58.7455 70.2472 5 61.8267 74.4691 5 
64.4058 71.4426 5 78.0628 29.4146 5 43.1016 41.6692 5 
42.0474 38.0801 5 45.8354 37.0485 5 81.8798 50.2155 5 
85.839 45.0481 5 92.4929 68.3247 5 75.6996 26.012 5 
73.8401 41.582 5 75.5495 46.0065 5 81.2181 45.2636 5 
79.5087 40.8391 5 52.7026 11.4029 7.5 132.745 66.6345 5 
72.2525 23.1456 5 176.379 80.6519 5 174.977 75.1538 5 
133.225 42.4809 5 128.219 39.5825 2.5 67.7999 85.2231 5 
36.3608 57.3288 5 157.378 7.51947 5 153.074 7.28536 5 
157.995 12.7984 7.5 153.69 12.5643 7.5 153.69 12.5643 2.5 
85.8438 27.416 5 99.6988 9.75713 5 99.6136 4.32196 2.5 
141.792 61.4077 5 143.046 55.3226 5 56.2791 4.14576 2.5 
9.69726 95.3027 5 7.19726 95.3027 2.5 12.1973 95.3027 2.5 
134.894 37.4739 5 136.273 62.1146 5 25.4573 46.7054 7.5 
25.4573 46.7054 2.5 179.533 97.0677 2.5 111.289 96.7184 5 
125.917 35.2355 7.5 122.365 32.2601 2.5 125.917 35.2355 2.5 
22.2127 51.8188 5 113.368 81.0113 5 119.086 79.5698 5 
8.38827 57.6443 5 147.036 81.4559 5 112.059 85.8438 5 
94.4181 34.6054 5 142.737 84.049 5 119.541 74.1385 5 
133.833 84.9707 5 127.946 81.5106 5 120.078 69.3617 5 
119.209 63.7177 5 173.808 44.8034 5 177.53 41.1906 5 
183.357 42.7594 5 139.01 35.81 5 158.95 12.8286 5 
4.19413 56.3221 2.5 112.318 89.6403 5 99.0372 21.464 5 
72.1258 27.0212 5 68.2464 25.1563 5 64.7776 29.5915 7.5 
68.657 31.4564 2.5 68.657 31.4564 7.5 129.746 18.0213 5 
135.064 13.7077 5 135.544 18.5943 5 99.6136 4.32196 7.5 
169.167 30.8333 5 154.512 75.1358 5 148.423 76.5393 5 
150.523 71.5697 2.5 150.523 71.5697 7.5 156.612 70.1662 2.5 
11.9157 83.2714 5 54.3134 82.7763 5 54.2312 76.3466 5 
71.2931 82.5545 5 66.4657 79.9999 5 60.9392 25.8947 5 
61.3497 32.1948 2.5 64.7776 29.5915 2.5 171.181 77.8157 5 
174.091 19.7463 5 171.629 25.2898 5 156.612 70.1662 7.5 
162.139 74.1684 7.5 162.139 74.1684 2.5 58.2486 62.4569 5 
180.731 7.61599 5 92.0702 71.6623 5 59.9738 20.9216 5 
182.822 88.8117 5 152.266 79.8234 5 158.354 78.4199 5 
12.7505 92.0712 5 144.301 49.2374 5 56.8384 57.4267 5 
15.7974 51.085 7.5 15.7974 51.085 2.5 136.111 80.8928 5 
118.949 58.084 5 123.951 77.5296 5 191.251 21.7275 5 
196.193 21.4431 2.5 196.193 21.4431 7.5 138.351 57.6727 5 
102.114 4.32196 5 61.3246 67.2207 5 122.733 22.6422 5 
148.948 6.40245 5 90.9336 39.1872 5 154.037 3.64268 2.5 
149.037 3.64268 2.5 29.8251 70.4973 7.11059 29.8251 70.4973 2.11059 
27.9007 72.4238 5 31.9399 76.117 7.5 33.8643 74.1905 4.61059 
135.268 89.8813 5 178.078 45.5953 5 68.4458 50.9638 5 
148.121 24.6379 7.5 148.121 24.6379 2.5 150.473 20.4467 5 
41.9505 75.3929 5 40.3789 80.6356 7.5 37.5507 74.5676 7.5 
37.5507 74.5676 2.5 44.7787 81.4609 5 40.3789 80.6356 2.5 
43.7278 69.7051 5 46.5559 75.773 5 48.3331 70.0852 5 
81.1833 59.6594 5 74.4891 30.4237 5 71.0202 34.8589 2.5 
117.778 84.4024 5 160.148 82.9289 5 163.933 78.6774 2.5 
159.893 78.8561 7.5 163.933 78.6774 7.5 26.3118 64.9552 7.5 
26.3118 64.9552 2.5 26.7945 67.1282 4.61059 89.3293 79.1503 5 
148.502 10.0111 5 149.119 15.29 2.5 80.199 11.3678 5 
83.4742 84.7669 5 80.0317 82.9522 5 74.9953 80.1417 5 
76.3295 85.365 5 69.9588 77.3313 5 158.901 87.6 7.5 
103.241 20.3085 5 99.2058 15.5894 5 137.547 85.8034 5 
183.895 11.2364 5 186.61 13.5583 5 68.4719 72.8737 5 
74.2809 75.6925 5 44.3427 48.9572 5 75.7178 8.79229 5 
140.459 88.1269 5 69.7256 55.8018 5 66.9849 68.4161 5 
157.756 92.2702 7.5 157.756 92.2702 2.5 196.193 78.5569 7.5 
196.193 78.5569 2.5 77.0258 3.59731 2.5 122.365 32.2601 7.5 
160.841 3.87679 5 158.341 3.87679 7.5 23.6631 73.0473 5 
78.603 74.0537 5 75.4544 57.7306 5 58.029 75.4079 5 
40.3489 34.8999 2.5 40.3489 34.8999 7.5 44.1369 33.8682 7.5 
40.4888 45.4779 5 123.496 82.961 5 129.382 86.4211 5 
64.5955 53.0881 5 166.422 71.8856 2.5 166.422 71.8856 7.5 
85.1773 40.0962 5 77.2589 50.4311 5 50.8895 96.4421 2.5 
50.8895 96.4421 7.5 46.7789 92.8841 5 50.5873 91.045 5 
36.8835 38.3653 2.5 39.4345 41.8888 5 34.2706 42.174 7.5 
36.8835 38.3653 7.5 122.492 37.564 2.5 167.384 17.789 5 
162.669 15.7413 5 180.954 92.3901 5 76.8524 33.8263 5 
71.0202 34.8589 7.5 49.5872 85.3334 5 49.5049 78.9037 5 
62.3996 78.5688 5 91.1259 23.3952 5 123.948 17.4483 5 
134.584 8.82114 5 79.3173 78.503 5 84.6805 81.0513 5 
88.6618 35.5145 5 26.3745 53.3677 5 25.4042 57.4207 5 
30.8825 57.3748 5 170.174 73.4912 5 116.06 30.8647 2.17335 
116.06 30.8647 7.17335 111.446 27.8106 4.58481 51.6338 52.3753 7.5 
47.4766 50.721 2.5 47.4766 50.721 7.5 45.7788 87.1725 5 
178.929 18.1575 5 176.268 23.5203 5 51.6338 52.3753 2.5 
64.367 23.2913 5 173.806 29.0638 5 158.269 50.9139 2.5 
60.1492 54.6316 5 188.077 17.2275 5 79.0516 7.19462 5 
21.2424 55.8718 5 23.6218 61.5531 7.5 19.46 60.0042 7.5 
19.46 60.0042 2.5 82.882 7.63173 5 82.0258 3.59731 7.5 
76.7715 89.884 5 77.9578 95.9952 7.5 2.5 97.5 5 
7.19726 95.3027 7.5 4.69726 92.8027 7.5 4.69726 92.8027 2.5 
47.1823 66.0191 5 149.647 19.0195 7.5 149.647 19.0195 2.5 
45.8895 96.4421 2.5 43.271 91.2581 5 45.8895 96.4421 7.5 
22.7816 65.9789 2.5 24.87 69.0547 2.5 24.87 69.0547 7.5 
22.7816 65.9789 7.5 158.341 3.87679 2.5 75.3463 37.7041 5 
3.95304 81.2302 5 3.95304 83.7302 2.5 3.95304 83.7302 7.5 
77.0258 3.59731 7.5 4.69726 90.3027 5 4.69726 87.8027 7.5 
175.662 85.1142 5 122.492 37.564 7.5 16.0923 58.9719 5 
155.603 57.1719 2.68095 155.748 62.0729 5.18095 153.529 52.5031 7.5 
153.529 52.5031 2.5 149.513 48.7228 7.5 72.2124 48.2785 5 
70.5031 43.8539 5 69.5141 38.7368 2.5 69.5141 38.7368 7.5 
65.8928 75.9002 5 155.603 57.1719 7.68095 9.07139 53.3418 5 
11.4513 52.7456 7.5 11.4513 52.7456 2.5 81.0148 36.9612 5 
54.9478 71.1859 5 29.5322 43.9826 7.5 29.5322 43.9826 2.5 
34.2706 42.174 2.5 180.604 12.9483 5 175.765 14.5371 5 
8.65029 86.5329 5 4.69726 87.8027 2.5 155.262 17.8734 2.5 
155.262 17.8734 7.5 23.6218 61.5531 2.5 44.1369 33.8682 2.5 
9.39452 90.6055 5 165.804 78.8896 5.15013 158.901 87.6 2.5 
56.1547 53.1697 5 27.5617 45.4441 5 55.5038 47.6253 4.59344 
6.64456 53.7017 2.5 6.64456 53.7017 7.5 108.85 21.4886 5 
196.193 18.9431 5 51.9987 68.0552 5 37.8711 84.7211 7.5 
159.893 78.8561 2.5 79.2211 55.0452 5 110.014 25.0178 7.41147 
92.4944 96.3192 2.5 92.4944 96.3192 7.5 93.2119 90.3541 5 
89.9889 92.6385 5 12.7344 55.9836 5 77.9578 95.9952 2.5 
80.9156 91.9904 5 110.014 25.0178 2.41147 143.931 12.7368 5 
149.119 15.29 7.5 120.416 13.5778 5 35.6201 79.2005 7.5 
35.6201 79.2005 2.5 144.377 9.12816 5 196.193 81.0569 5 
82.0258 3.59731 2.5 104.404 23.8377 7.41147 11.7462 60.6326 5 
179.709 87.0665 5 53.2987 9.02302 5 80.4578 95.9952 5 
82.9578 95.9952 7.5 51.2822 73.2159 5 104.404 23.8377 2.41147 
119.204 20.0585 5 120.269 32.4692 4.67335 88.4528 89.6101 5 
140.266 19.3951 5 12.1973 95.3027 7.5 42.2709 85.5464 5 
89.7824 27.5517 5 149.513 48.7228 2.5 48.3895 96.4421 5 
53.6587 6.59619 2.5 53.6587 6.59619 7.5 83.9161 89.286 5 
158.347 96.0462 5 79.5258 3.59731 5 54.9446 49.5801 2.5 
73.4922 53.1164 5 12.6599 87.344 5 38.7013 36.7177 5 
151.59 44.7935 7.5 54.9446 49.5801 7.5 167.43 76.2102 2.5 
144.459 16.4663 5 160.847 96.0462 2.5 160.847 96.0462 7.5 
156.799 52.8769 5.18095 139.738 15.6655 5 85.4522 92.3144 5 
152.574 66.6387 2.5 152.574 66.6387 7.5 171.605 16.6626 5 
65.2355 35.8062 7.5 65.2355 35.8062 2.5 80.4737 87.4713 5 
2.45043 52.3796 5 52.3796 2.45043 5 167.43 76.2102 7.5 
82.9578 95.9952 2.5 87.4944 96.3192 7.5 87.4944 96.3192 2.5 
168.838 84.9575 2.65013 168.838 84.9575 7.65013 139.257 10.779 5 
197.5 2.5 5 197.5 97.5 5 169.555 80.4952 2.65013 
169.555 80.4952 7.65013 89.9944 96.3192 5 154.721 46.9661 2.5 
174.753 83.3314 7.65013 161.713 15.7111 2.5 158.846 45.6594 5 
153.883 41.6257 7.5 156.051 75.572 7.5 48.8189 20.4216 2.5 
44.2206 29.0243 2.5 101.129 32.8226 2.41147 
CELLS 1750 19250
10 294 1296 378 2350 2364 2363 975 2365 2366 2367 
10 1296 1380 378 2350 1978 2368 2363 2366 2369 2367 
10 276 1278 456 2351 2371 2370 784 2372 2373 2374 
10 1323 379 1381 2346 2376 2375 1748 2377 2378 2379 
10 1278 1458 456 2351 1787 2380 2370 2373 2381 2374 
10 448 370 1372 2347 824 2383 2382 2384 2385 2386 
10 1425 423 1358 2348 2388 2387 1719 2389 2390 2391 
10 1450 448 1372 2347 2392 2382 1827 2393 2384 2386 
10 1353 2259 1431 429 2395 2394 1619 2396 2397 2398 
10 356 1358 423 2348 2399 2387 716 2400 2391 2390 
10 1323 321 379 2346 2401 746 2376 2377 2402 2378 
10 89 429 1431 2259 498 2398 2403 2284 2397 2394 
10 89 2258 1431 429 2281 2404 2403 498 2405 2398 
10 344 1159 1403 401 2408 2407 2406 623 2409 2410 
10 1374 372 1156 322 2413 2412 2411 2414 614 2415 
10 2259 429 1353 351 2397 2396 2395 2416 503 2417 
10 1166 409 314 2354 2419 650 2418 2420 2421 2422 
10 1316 1411 1166 2354 1608 2424 2423 2425 2426 2420 
10 2204 408 178 1410 2428 2427 2246 2429 2430 1529 
10 2203 178 408 1410 2240 2427 2431 2432 1529 2430 
10 1410 408 2202 1352 2430 2434 2433 1530 2435 2436 
10 1352 330 2202 1332 2438 2437 2436 1527 2439 2440 
10 333 1414 240 412 2443 2442 2441 493 2444 2445 
10 176 330 2206 1332 2447 2446 2230 1523 2439 2448 
10 2202 330 176 1332 2437 2447 2236 2440 2439 1523 
10 2202 177 408 1410 2235 2449 2434 2433 1528 2430 
10 177 2203 408 1410 2241 2431 2449 1528 2432 2430 
10 2206 330 407 1409 2446 576 2450 2451 2452 2453 
10 73 2206 176 330 2239 2230 2238 574 2446 2447 
10 330 176 73 2202 2447 2238 574 2437 2236 2237 
10 330 2202 350 1352 2437 2454 579 2438 2436 2455 
10 1454 307 339 452 2457 1077 2456 2458 1078 815 
10 1408 282 462 1464 2460 858 2459 1862 2461 2462 
10 176 1352 2202 1332 1525 2436 2236 1523 1527 2440 
10 73 350 330 2202 578 579 574 2237 2454 2437 
10 95 1405 198 2265 2463 1634 2316 2314 2464 2318 
10 198 1405 95 2264 1634 2463 2316 2317 2465 2310 
10 1343 2200 407 1409 2468 2467 2466 1521 2469 2453 
10 407 71 2201 1409 572 2229 2470 2453 2471 2472 
10 407 2200 71 1409 2467 2227 572 2453 2469 2471 
10 383 143 1161 1385 2474 1233 2473 2475 1589 2476 
10 143 383 1162 1385 2474 2477 1235 1589 2475 2478 
10 1353 192 1431 2259 1618 1614 1619 2395 2288 2394 
10 429 2259 89 351 2397 2284 498 503 2416 504 
10 282 349 462 1464 856 857 858 2461 2479 2462 
10 1431 2258 1401 429 2404 2480 1615 2398 2405 2481 
10 240 1414 11 412 2442 2482 255 2445 2444 489 
10 239 11 1414 412 250 2482 2483 2484 489 2444 
10 36 1156 1374 372 1207 2411 2485 610 2412 2413 
10 1157 36 1374 372 1201 2485 2486 2487 610 2413 
10 95 403 1405 2265 518 2488 2463 2314 2489 2464 
10 95 2264 1405 403 2310 2465 2463 518 2490 2488 
10 408 2204 342 1410 2428 2491 585 2430 2429 2492 
10 304 1455 1429 427 2494 1816 2493 1061 2495 2496 
10 1454 452 339 279 2458 815 2456 2497 816 817 
10 1274 1342 432 1434 1735 2499 2498 1738 1739 2500 
10 372 1374 1155 331 2413 2502 2501 611 2503 2504 
10 141 1403 401 1160 1580 2410 2505 1225 2506 2507 
10 141 1159 401 1403 1223 2409 2505 1580 2407 2410 
10 75 408 178 2204 580 2427 2248 2249 2428 2246 
10 178 408 75 2203 2427 580 2248 2240 2431 2247 
10 1166 314 1316 2354 2418 2508 2423 2420 2422 2425 
10 407 175 2206 1409 2509 2231 2450 2453 1520 2451 
10 175 407 2201 1409 2509 2470 2225 1520 2453 2472 
10 471 1168 348 1350 2511 2510 591 2512 2513 2514 
10 383 1162 41 143 2477 1232 632 2474 1235 1234 
10 41 1161 383 143 1226 2473 632 1234 1233 2474 
10 1310 462 349 1464 2516 857 2515 2088 2462 2479 
10 1156 1324 1374 322 2517 1573 2411 2415 2518 2414 
10 71 1409 174 2201 2471 1519 2228 2229 2472 2226 
10 174 1409 71 2200 1519 2471 2228 2220 2469 2227 
10 1422 420 1355 1339 2520 2519 2109 1842 2521 1703 
10 1422 1283 420 1339 1841 2522 2520 1842 1840 2521 
10 192 1431 89 2258 1614 2403 2286 2287 2404 2281 
10 89 1431 192 2259 2403 1614 2286 2284 2394 2288 
10 436 294 463 1465 977 981 983 2523 2524 2525 
10 1350 471 1168 1473 2512 2511 2513 1539 2526 2527 
10 1403 1159 344 1346 2407 2408 2406 1582 2528 2529 
10 304 404 1399 397 1053 2531 2530 1057 763 2532 
10 1406 1399 1306 404 1765 2059 2057 2533 2531 2534 
10 1280 327 1429 427 2536 2535 1809 2537 807 2496 
10 1368 1152 1452 450 2539 2538 1558 2540 2541 2542 
10 408 177 74 2203 2449 2243 581 2431 2241 2244 
10 408 74 177 2202 581 2243 2449 2434 2242 2235 
10 1152 1368 1456 454 2539 1555 2543 2544 2545 2546 
10 1441 1162 383 1385 2548 2477 2547 1590 2478 2475 
10 1322 1462 1474 460 2137 2138 2136 2549 2550 2551 
10 1315 2268 375 1377 2554 2553 2552 1651 2555 2556 
10 1414 240 1335 333 2442 2557 1545 2443 2441 2558 
10 1414 11 21 240 2482 256 1540 2442 255 258 
10 1414 21 11 239 1540 256 2482 2483 257 250 
10 31 454 1456 1151 593 2546 2559 1177 2560 2561 
10 31 1152 1456 454 1182 2543 2559 593 2544 2546 
10 1373 146 44 1164 1599 1249 2562 2563 1248 1241 
10 1373 1165 44 146 2564 1247 2562 1599 1250 1249 
10 449 1314 1403 1451 2566 2112 2565 2567 2113 2114 
10 1390 463 1465 1326 2568 2525 2142 1723 2569 2143 
10 348 1168 1469 1350 2510 2571 2570 2514 2513 1927 
10 1417 118 2153 415 2573 2188 2572 2574 545 2575 
10 2207 471 348 1350 2577 591 2576 2578 2512 2514 
10 1306 1353 1406 404 2055 2056 2057 2534 2579 2533 
10 304 1399 1455 397 2530 2060 2494 1057 2532 2580 
10 119 1417 2153 415 2581 2572 2189 546 2574 2575 
10 429 1353 1307 1431 2396 2065 2582 2398 1619 2067 
10 304 1429 1400 427 2493 2064 2583 1061 2496 2584 
10 1332 330 2206 1409 2439 2446 2448 1524 2452 2451 
10 44 1165 1373 371 1247 2564 2562 640 2585 2586 
10 1373 1164 44 371 2563 1241 2562 2586 2587 640 
10 2200 407 341 1343 2467 573 2588 2468 2466 2589 
10 470 2199 347 1472 2591 2590 567 2592 2593 2594 
10 470 347 2269 1472 567 2596 2595 2592 2594 2597 
10 1274 432 363 1434 2498 741 2598 1738 2500 2599 
10 196 2263 93 1398 2308 2304 2306 1628 2600 2601 
10 196 93 2262 1398 2306 2300 2307 1628 2601 2602 
10 1305 1358 355 303 2050 2604 2603 2605 2606 1048 
10 471 1350 2207 1473 2512 2578 2577 2526 1539 2607 
10 1451 1314 420 449 2113 2609 2608 2567 2566 848 
10 1445 276 443 1359 2611 782 2610 1785 2612 2613 
10 1334 1462 1277 460 1777 1778 1774 2614 2550 2615 
10 1307 1431 1401 429 2067 1615 2069 2582 2398 2481 
10 1368 1298 1456 454 1998 2001 1555 2545 2616 2546 
10 449 281 420 1451 846 839 848 2567 2617 2608 
10 1349 347 2199 1472 2619 2590 2618 1515 2594 2593 
10 1349 2269 347 1472 2620 2596 2619 1515 2597 2594 
10 1449 352 447 1285 2622 866 2621 1868 2623 2624 
10 1399 404 304 1306 2531 1053 2530 2059 2534 2625 
10 1315 411 2271 1413 2628 2627 2626 1652 2629 2630 
10 420 1314 1451 1422 2609 2113 2608 2520 2110 1850 
10 1164 461 371 1373 2631 642 2587 2563 2632 2586 
10 420 1451 1283 1422 2608 1849 2522 2520 1850 1841 
10 396 2263 355 1398 2634 2633 517 2635 2600 2636 
10 1343 174 2200 1409 1517 2220 2468 1521 1519 2469 
10 341 2200 71 407 2588 2227 568 573 2467 572 
10 350 2202 408 1352 2454 2434 582 2455 2436 2435 
10 133 1456 31 1152 1550 2559 1184 1185 2543 1182 
10 31 1456 133 1151 2559 1550 1184 1177 2561 1183 
10 1350 1168 1469 1473 2513 2571 1927 1539 2527 1612 
10 471 467 348 1168 654 924 591 2511 2637 2510 
10 294 436 340 1438 977 834 976 2638 2639 2640 
10 1313 1419 1368 311 2108 1999 2107 2641 2642 2643 
10 436 1465 463 1326 2523 2525 983 2644 2143 2569 
10 415 119 1417 339 546 2581 2574 550 551 2645 
10 72 407 175 2206 571 2509 2233 2234 2450 2231 
10 175 407 72 2201 2509 571 2233 2225 2470 2232 
10 1162 383 439 1441 2477 631 2646 2548 2547 2647 
10 1155 35 1374 372 1196 2648 2502 2501 609 2413 
10 1157 1374 35 372 2486 2648 1202 2487 2413 609 
10 1443 1327 428 441 2027 2650 2649 2651 2652 802 
10 1448 446 1297 1445 2654 2653 1989 1993 2655 1992 
10 1297 446 443 1445 2653 991 2656 1992 2655 2610 
10 1424 1277 1462 460 1772 1778 1781 2657 2615 2550 
10 409 314 46 1166 650 649 644 2419 2418 1251 
10 148 1166 1316 1411 1258 2423 1606 1601 2424 1608 
10 1395 1361 393 2353 1729 2659 2658 2660 2661 2662 
10 1455 427 304 453 2495 1061 2494 2663 814 1058 
10 1429 1455 304 1306 1816 2494 2493 2063 2061 2625 
10 135 1367 33 1154 1561 2664 1194 1195 2665 1192 
10 33 1367 135 1153 2664 1561 1194 1186 2666 1193 
10 1469 1168 348 467 2571 2510 2570 2667 2637 924 
10 1268 1404 1362 402 1661 1663 1662 2668 2669 2670 
10 372 36 1156 322 610 1207 2412 614 615 2415 
10 138 1324 1374 1156 1572 1573 1567 1208 2517 2411 
10 398 1400 2261 327 2673 2672 2671 511 2674 2675 
10 1305 355 396 303 2603 517 2676 2605 1048 1049 
10 276 1359 1445 1278 2612 1785 2611 2371 1783 1784 
10 1459 2265 96 199 2678 2315 2677 1639 2322 2321 
10 1459 96 2266 199 2677 2319 2679 1639 2321 2323 
10 11 333 240 412 491 2441 255 489 493 2445 
10 21 1335 1414 240 1544 1545 1540 258 2557 2442 
10 404 1306 351 304 2534 2680 1054 1053 2625 1055 
10 1373 1164 461 1463 2563 2631 2632 1600 2681 2682 
10 1403 344 449 1451 2406 847 2565 2114 2683 2567 
10 1163 461 43 1463 2684 637 1236 2685 2682 2686 
10 1164 43 461 1463 1242 637 2631 2681 2686 2682 
10 385 118 1417 415 543 2573 2687 547 545 2574 
10 1334 1474 1462 460 2150 2138 1777 2614 2551 2550 
10 150 48 1150 1473 1266 1175 1176 1483 2688 2689 
10 150 1168 48 1473 1267 1261 1266 1483 2527 2688 
10 1455 453 304 397 2663 1058 2494 2580 1059 1057 
10 1306 1399 1455 304 2059 2060 2061 2625 2530 2494 
10 350 413 280 1415 836 831 827 2690 2691 2692 
10 74 408 350 2202 581 582 577 2242 2434 2454 
10 177 1410 2202 1352 1528 2433 2235 1526 1530 2436 
10 299 363 432 1434 1016 741 1021 2693 2599 2500 
10 311 450 1368 1313 1104 2540 2643 2641 2694 2107 
10 101 2270 470 204 2274 2695 483 2344 2278 2696 
10 470 2269 101 204 2595 2340 483 2696 2345 2344 
10 1357 355 2263 1398 2698 2633 2697 1632 2636 2600 
10 351 1353 1306 404 2417 2055 2680 1054 2579 2534 
10 1373 287 317 371 2700 906 2699 2586 904 905 
10 1336 461 1163 1463 2702 2684 2701 1597 2682 2685 
10 305 1401 1307 385 2704 2069 2703 1067 2705 2706 
10 93 2263 396 1398 2304 2634 512 2601 2600 2635 
10 396 2262 93 1398 2707 2300 512 2635 2602 2601 
10 94 355 197 2264 515 2708 2311 2309 2709 2313 
10 94 2263 197 355 2305 2312 2311 515 2633 2708 
10 339 307 1417 415 1077 2710 2645 550 1076 2574 
10 1454 307 452 2352 2457 1078 2458 2711 2712 2713 
10 1355 1314 420 1422 1958 2609 2519 2109 2110 2520 
10 340 1296 294 1438 2714 2364 976 2640 1979 2638 
10 1414 333 1303 412 2443 2715 2039 2444 493 2716 
10 461 371 44 1164 642 640 638 2631 2587 1241 
10 146 1164 1373 1463 1248 2563 1599 1595 2681 1600 
10 1454 1309 1341 307 2080 2078 1819 2457 2717 2718 
10 75 342 408 2204 584 585 580 2249 2491 2428 
10 178 1344 2204 1410 1531 2719 2246 1529 1533 2429 
10 340 432 272 1274 736 737 735 2720 2498 2721 
10 1297 1348 446 1448 1986 2722 2653 1989 1681 2654 
10 417 1419 1368 296 2724 1999 2723 996 2725 2726 
10 438 1299 1339 1440 2728 2003 2727 2729 2005 1843 
10 334 1163 439 1441 2731 2730 636 2732 2733 2647 
10 452 279 1454 2352 816 2497 2458 2713 2734 2711 
10 1153 1367 1452 450 2666 1562 2735 2736 2737 2542 
10 393 1361 359 2353 2659 2738 726 2662 2661 2739 
10 2265 96 457 1459 2315 525 2740 2678 2677 2741 
10 2266 457 96 1459 2742 525 2319 2679 2741 2677 
10 1408 462 1310 1464 2459 2516 2090 1862 2462 2088 
10 432 413 299 1434 1022 1020 1021 2500 2743 2693 
10 1342 413 432 1434 2744 1022 2499 1739 2743 2500 
10 355 94 403 2264 515 519 520 2709 2309 2490 
10 197 1357 1405 2264 1631 1635 1633 2313 2745 2465 
10 324 271 469 1471 721 722 723 2746 2747 2748 
10 376 1167 1316 1378 2751 2750 2749 2752 2753 1607 
10 420 1283 281 1339 2522 2754 839 2521 1840 2755 
10 340 1342 1296 1438 2756 1977 2714 2640 1837 1979 
10 1417 415 307 385 2574 1076 2710 2687 547 1081 
10 313 2268 375 1315 2757 2553 535 2758 2554 2552 
10 471 1150 48 1473 2759 1175 481 2526 2689 2688 
10 48 1168 471 1473 1261 2511 481 2688 2527 2526 
10 352 1285 1354 1340 2623 1866 2760 2761 1864 1715 
10 1354 1340 270 352 1715 2763 2762 2760 2761 707 
10 1342 432 340 1274 2499 736 2756 1735 2498 2720 
10 417 1392 1419 296 2764 1758 2724 996 2765 2725 
10 338 1338 283 1285 2767 2766 861 2768 1863 2769 
10 1322 1268 402 1404 1657 2668 2770 1660 1661 2669 
10 1440 438 1283 1339 2729 2771 1844 1843 2727 1840 
10 93 355 396 2263 516 517 512 2304 2633 2634 
10 2263 196 1357 1398 2308 1630 2697 2600 1628 1632 
10 312 449 1403 401 1111 2565 2772 1112 1110 2410 
10 407 2206 72 330 2450 2234 571 576 2446 575 
10 1332 2206 175 1409 2448 2231 1522 1524 2451 1520 
10 1313 1368 1452 450 2107 1558 2106 2694 2540 2542 
10 1468 2269 347 1349 2774 2596 2773 1933 2620 2619 
10 1333 1155 1374 331 2775 2502 1569 2776 2504 2503 
10 1472 470 2270 204 2592 2695 2777 1486 2696 2278 
10 1472 2269 470 204 2597 2595 2592 1486 2345 2696 
10 1362 1299 402 1404 2006 2778 2670 1663 2007 2669 
10 339 1281 279 2358 2780 2779 817 2781 2782 2783 
10 1328 443 446 1445 2785 991 2784 2145 2610 2655 
10 446 1448 1328 1445 2654 1678 2784 2655 1993 2145 
10 443 276 357 1359 782 783 781 2613 2612 2786 
10 1153 1452 134 450 2735 1557 1190 2736 2542 2787 
10 1452 1152 134 450 2538 1188 1557 2542 2541 2787 
10 302 328 352 1354 1040 708 1039 2788 2789 2760 
10 403 1405 355 2264 2488 2790 520 2490 2465 2709 
10 390 1392 1303 2356 2792 2038 2791 2793 2794 2795 
10 43 145 1163 1463 1244 1243 1236 2686 1596 2685 
10 145 43 1164 1463 1244 1242 1245 1596 2686 2681 
10 347 466 2269 1468 932 2796 2596 2773 2797 2774 
10 1438 294 436 1465 2638 977 2639 1985 2524 2523 
10 450 1368 1152 366 2540 2539 2541 600 2798 2799 
10 1161 468 383 1385 2800 633 2473 2476 2801 2475 
10 305 1406 1353 404 2803 2056 2802 1063 2533 2579 
10 269 361 1339 337 695 2805 2804 702 703 2806 
10 454 1152 1368 366 2544 2539 2545 597 2799 2798 
10 1159 401 344 39 2409 623 2408 1216 621 624 
10 1346 1159 141 1403 2528 1223 1581 1582 2407 1580 
10 352 1449 1354 1285 2622 1867 2760 2623 1868 1866 
10 141 401 39 1160 2505 621 1224 1225 2507 1222 
10 39 401 141 1159 621 2505 1224 1216 2409 1223 
10 1160 401 468 1403 2507 628 2807 2506 2410 2808 
10 339 1281 1454 279 2780 1818 2456 817 2779 2497 
10 1278 358 445 276 2810 790 2809 2371 788 789 
10 439 292 334 1441 962 961 636 2647 2811 2732 
10 1386 1270 1331 329 1691 1688 1690 2812 2813 2814 
10 1466 277 373 1279 2816 795 2815 1798 2817 2818 
10 317 287 1373 1319 906 2700 2699 2819 2820 1907 
10 1166 1316 46 148 2423 2821 1251 1258 1606 1259 
10 1166 314 46 1316 2418 649 1251 2423 2508 2821 
10 1167 46 314 1316 1257 649 2822 2750 2821 2508 
10 1316 1167 46 148 2750 1257 2821 1606 1260 1259 
10 36 138 1374 1156 1209 1567 2485 1207 1208 2411 
10 138 36 1374 1157 1209 2485 1567 1210 1201 2486 
10 412 239 1397 1414 2484 2824 2823 2444 2483 1542 
10 339 307 1454 1341 1077 2457 2456 2825 2718 1819 
10 1445 443 1297 1359 2610 2656 1992 1785 2613 1990 
10 283 352 338 1285 864 712 861 2769 2623 2768 
10 378 294 340 1296 975 976 734 2363 2364 2714 
10 278 1423 1280 2357 2827 1812 2826 2828 2829 2830 
10 340 272 378 1274 735 733 734 2720 2721 2831 
10 1301 1352 408 1410 2021 2435 2832 2020 1530 2430 
10 1344 342 2204 1410 2833 2491 2719 1533 2492 2429 
10 353 420 1339 1355 1108 2521 2834 2835 2519 1703 
10 399 1401 2258 429 2837 2480 2836 500 2481 2405 
10 1326 1390 324 1273 1723 2839 2838 1721 1722 2840 
10 460 1474 1322 472 2551 2136 2549 1136 2841 2842 
10 336 283 338 1338 862 861 850 2843 2766 2767 
10 1307 1401 1387 385 2069 1492 2068 2706 2705 2844 
10 1442 1369 1287 440 1892 1890 1891 2845 2846 2847 
10 1160 1403 468 1470 2506 2808 2807 2848 1586 2849 
10 407 1300 1343 1409 2850 2014 2466 2453 2013 1521 
10 463 1390 324 1326 2568 2839 1140 2569 1723 2838 
10 42 1162 439 1441 1231 2646 630 2851 2548 2647 
10 439 1163 42 1441 2730 1237 630 2647 2733 2851 
10 1348 295 388 1390 2853 984 2852 1987 2854 2855 
10 302 352 447 1449 1039 866 1042 2856 2622 2621 
10 2269 1472 1468 204 2597 1656 2774 2345 1486 1654 
10 466 2269 101 470 2796 2340 538 541 2595 483 
10 428 441 277 1279 802 793 799 2857 2858 2817 
10 341 298 364 1300 1013 1012 926 2859 2860 2861 
10 202 1315 99 2271 1650 2862 2336 2338 2626 2330 
10 99 1315 202 2268 2862 1650 2336 2334 2554 2337 
10 2268 313 99 1315 2757 536 2334 2554 2758 2862 
10 2271 99 313 1315 2330 536 2863 2626 2862 2758 
10 438 281 1283 1339 841 2754 2771 2727 2755 1840 
10 2265 335 403 1405 2864 523 2489 2464 2865 2488 
10 1363 336 1271 1338 2867 2866 1699 1698 2843 1697 
10 1392 296 417 390 2765 996 2764 2792 993 756 
10 353 337 1339 420 701 2806 2834 1108 838 2521 
10 288 363 342 1365 919 920 921 2868 2869 2870 
10 1327 441 1443 2359 2652 2651 2027 2871 2872 2873 
10 378 1342 340 1274 2874 2756 734 2831 1735 2720 
10 358 1360 1278 1447 2875 1788 2810 2876 1791 1792 
10 329 1386 1270 384 2812 1691 2813 689 2877 2878 
10 296 1368 417 366 2726 2723 996 998 2798 997 
10 1323 285 1381 379 2880 2879 1748 2376 880 2375 
10 1307 1353 429 305 2065 2396 2582 2703 2802 1065 
10 1395 393 1273 1439 2658 2881 1728 1734 2882 1732 
10 1307 1406 1353 305 2066 2056 2065 2703 2803 2802 
10 454 1368 296 366 2545 2726 999 597 2798 998 
10 1339 361 269 1271 2805 695 2804 1702 2883 2884 
10 361 1271 1339 1363 2883 1702 2805 2885 1699 1705 
10 291 1293 331 343 2887 2886 951 950 2888 875 
10 1295 403 335 1405 2890 523 2889 1968 2488 2865 
10 333 296 1392 390 994 2765 2891 992 993 2792 
10 378 1296 340 1342 2363 2714 734 2874 1977 2756 
10 447 360 425 1449 869 663 1046 2621 2892 2893 
10 413 1415 1342 280 2691 1834 2744 831 2692 2894 
10 341 1343 1366 1291 2589 1930 2895 2896 1928 1929 
10 335 2265 457 1459 2864 2740 526 2897 2678 2741 
10 2269 1349 1468 1472 2620 1933 2774 2597 1515 1656 
10 347 2269 466 470 2596 2796 932 567 2595 541 
10 1401 1431 191 2258 1615 1613 1489 2480 2404 2283 
10 88 399 2258 429 485 2836 2280 499 500 2405 
10 420 281 337 1339 839 840 838 2521 2755 2806 
10 294 1438 1296 1465 2638 1979 2364 2524 1985 1982 
10 388 463 346 2362 1141 980 985 2898 2899 2900 
10 347 2199 1435 1349 2590 2902 2901 2619 2618 1514 
10 1449 447 360 1285 2621 869 2892 1868 2624 2903 
10 447 352 283 1285 866 864 865 2624 2623 2769 
10 374 1427 302 425 2905 2904 1044 666 2906 1045 
10 1401 305 399 385 2704 1066 2837 2705 1067 544 
10 2257 191 88 399 2279 2282 2277 2907 2908 485 
10 191 2258 88 399 2283 2280 2282 2908 2836 485 
10 266 360 1427 425 661 2910 2909 662 663 2906 
10 295 1390 1348 1297 2854 1987 2853 2911 1988 1986 
10 311 1419 1368 417 2642 1999 2643 1105 2724 2723 
10 1359 357 1361 2353 2786 2912 1904 2913 2914 2661 
10 422 1424 319 290 2916 2915 770 938 2917 937 
10 150 1469 1168 1473 1609 2571 1267 1483 1612 2527 
10 467 471 48 1168 654 481 652 2637 2511 1261 
10 1394 428 277 1279 2919 799 2918 1800 2857 2817 
10 304 1400 398 427 2583 2673 1062 1061 2584 1060 
10 239 20 10 395 253 252 251 2920 2921 474 
10 238 10 20 395 244 252 249 2922 474 2921 
10 463 1465 294 2362 2525 2524 981 2899 2923 2924 
10 1305 303 396 1421 2605 1049 2676 2052 2925 2926 
10 1285 338 1338 1340 2768 2767 1863 1864 2927 1854 
10 1385 1161 468 1470 2476 2800 2801 1591 2928 2849 
10 1307 429 1401 305 2582 2481 2069 2703 1065 2704 
10 1301 408 342 1410 2832 585 2929 2020 2430 2492 
10 1317 339 315 2358 2931 1117 2930 2932 2781 2933 
10 1354 1272 270 1340 1711 2934 2762 1715 1714 2763 
10 1429 327 1400 427 2535 2674 2064 2496 807 2584 
10 1365 299 342 1301 2935 1017 2870 2019 2936 2929 
10 324 1471 1326 1273 2746 1724 2838 2840 1725 1721 
10 378 1380 1342 1274 2368 1736 2874 2831 1737 1735 
10 1443 441 428 1279 2651 802 2649 1797 2858 2857 
10 2207 348 434 1350 2576 589 2937 2578 2514 2938 
10 1361 388 1390 1273 2939 2855 1727 1726 2940 1722 
10 364 289 341 1291 927 928 926 2941 2942 2896 
10 341 1366 364 1291 2895 2943 926 2896 1929 2941 
10 1368 1419 1298 296 1999 2000 1998 2726 2725 2944 
10 1429 1400 1306 304 2064 2062 2063 2493 2583 2625 
10 326 1269 377 1328 2946 2945 673 2947 1674 2948 
10 1338 282 338 336 2949 851 2767 2843 852 850 
10 421 1423 278 2357 2950 2827 811 2951 2829 2828 
10 443 295 446 1297 990 987 991 2656 2911 2653 
10 350 299 413 1415 1019 1020 836 2690 2952 2691 
10 1444 344 310 1312 2954 1097 2953 2099 2955 2956 
10 1361 357 359 2353 2912 902 2738 2661 2914 2739 
10 296 1298 1368 454 2944 1998 2726 999 2616 2545 
10 203 1468 100 2268 1653 2957 2341 2342 2958 2335 
10 100 1468 203 2269 2957 1653 2341 2339 2774 2343 
10 1341 1417 307 1309 1499 2710 2718 2078 2079 2717 
10 1361 1297 357 1359 1991 2959 2912 1904 1990 2786 
10 319 1277 1424 422 2960 1772 2915 770 2961 2916 
10 1342 378 1296 1380 2874 2363 1977 1736 2368 1978 
10 445 358 1278 1447 790 2810 2809 2962 2876 1792 
10 449 344 1403 401 847 2406 2565 1110 623 2410 
10 449 344 281 1451 847 845 846 2567 2683 2617 
10 276 443 445 1445 782 792 789 2611 2610 2963 
10 403 95 335 2265 518 522 523 2489 2314 2864 
10 1337 2265 198 1405 2964 2318 1636 1638 2464 1634 
10 1316 1167 376 314 2750 2751 2749 2508 2822 648 
10 1314 383 1385 1294 2965 2475 1959 1956 2966 1960 
10 1446 2349 444 2354 2969 2968 2967 2970 2971 2972 
10 1419 311 1313 2355 2642 2641 2108 2973 2974 2975 
10 353 1339 1271 1355 2834 1702 2976 2835 1703 1704 
10 336 1271 361 1363 2866 2883 696 2867 1699 2885 
10 336 269 361 1271 697 695 696 2866 2884 2883 
10 1363 360 283 1285 2978 868 2977 1865 2903 2769 
10 295 357 359 1361 989 902 988 2979 2912 2738 
10 2271 313 411 1315 2863 537 2627 2626 2758 2628 
10 1303 333 1392 390 2715 2891 2038 2791 992 2792 
10 1361 359 388 1273 2738 724 2939 1726 2980 2940 
10 1341 1281 339 2358 1817 2780 2825 2981 2782 2781 
10 297 438 1299 337 1003 2728 2982 1002 842 2983 
10 1339 1299 438 337 2003 2728 2727 2806 2983 842 
10 1440 442 1283 438 2985 2984 1844 2729 849 2771 
10 1462 1322 1424 460 2137 1943 1781 2550 2549 2657 
10 1419 1392 1298 296 1758 1995 2000 2725 2765 2944 
10 1154 1367 33 365 2665 2664 1192 2986 2987 604 
10 1367 1153 33 365 2666 1186 2664 2987 2988 604 
10 1390 388 324 1273 2855 719 2839 1722 2940 2840 
10 77 471 1473 2205 480 2526 2989 2210 2990 2991 
10 77 2207 1473 471 2256 2607 2989 480 2577 2526 
10 1297 357 295 1361 2959 989 2911 1991 2912 2979 
10 1352 280 330 1332 2992 828 2438 1527 2993 2439 
10 1152 32 134 450 1181 1189 1188 2541 598 2787 
10 32 1153 134 450 1187 1190 1189 598 2736 2787 
10 348 77 471 2207 590 480 591 2576 2256 2577 
10 1350 180 2207 1473 1537 2250 2578 1539 1481 2607 
10 1373 287 1289 1319 2700 2994 1908 1907 2820 1906 
10 149 467 47 1168 2995 651 1264 1265 2637 1262 
10 47 467 149 1167 651 2995 1264 1256 2996 1263 
10 1277 332 1334 460 2998 2997 1774 2615 776 2614 
10 360 1268 402 266 2999 2668 660 661 3000 658 
10 296 1392 1298 333 2765 1995 2944 994 2891 3001 
10 1339 353 269 337 2834 700 2804 2806 701 702 
10 1471 364 469 1300 3002 731 2748 2016 2861 3003 
10 1300 1409 407 330 2013 2453 2850 3004 2452 576 
10 358 1311 309 1425 3006 3005 1091 3007 2093 3008 
10 408 1352 1301 299 2435 2021 2832 1018 3009 2936 
10 462 282 1408 406 858 2460 2459 860 853 3010 
10 1374 331 372 291 2503 611 2413 3011 951 946 
10 340 436 280 1438 834 835 833 2640 2639 3012 
10 1435 2199 347 433 2902 2590 2901 3013 3014 565 
10 386 298 330 1300 1009 1010 830 3015 2860 3004 
10 1380 378 2359 2361 2368 3017 3016 3018 3019 3020 
10 463 388 324 1390 1141 719 1140 2568 2855 2839 
10 313 99 375 2268 536 534 535 2757 2334 2553 
10 202 2268 1315 1377 2337 2554 1650 1648 2555 1651 
10 172 2199 470 1472 2217 2591 3021 1485 2593 2592 
10 172 1472 470 2198 1485 2592 3021 2215 3022 3023 
10 1335 240 1416 414 2557 3024 1548 3025 3026 3027 
10 338 282 1338 1340 851 2949 2767 2927 3028 1854 
10 311 1313 1367 450 2641 2104 3029 1104 2694 2737 
10 309 358 445 1311 1091 790 1092 3005 3006 3030 
10 1310 354 308 1408 3032 1088 3031 2090 3033 3034 
10 1272 1354 270 2357 1711 2762 2934 3035 3036 3037 
10 390 1303 301 2356 2791 3038 1035 2793 2795 3039 
10 361 337 1299 1339 703 2983 3040 2805 2806 2003 
10 1299 361 297 337 3040 1001 2982 2983 703 1002 
10 463 324 436 1326 1140 1138 983 2569 2838 2644 
10 280 1352 1282 1332 2992 1830 3041 2993 1527 1829 
10 330 280 1352 350 828 2992 2438 579 827 2455 
10 428 1356 1394 392 3042 1966 2919 798 3043 3044 
10 270 338 352 1340 713 712 707 2763 2927 2761 
10 1417 385 307 1309 2687 1081 2710 2079 3045 2717 
10 425 360 1427 1449 663 2910 2906 2893 2892 2048 
10 1285 352 338 1340 2623 712 2768 1864 2761 2927 
10 446 1348 1297 295 2722 1986 2653 987 2853 2911 
10 305 1353 351 404 2802 2417 1064 1063 2579 1054 
10 351 429 1353 305 503 2396 2417 1064 1065 2802 
10 1341 1281 1454 339 1817 1818 1819 2825 2780 2456 
10 337 281 438 1339 840 841 842 2806 2755 2727 
10 443 446 326 1328 991 675 1143 2785 2784 2947 
10 325 267 362 1364 669 670 671 3046 3047 3048 
10 317 371 461 1373 905 642 1125 2699 2586 2632 
10 1338 1363 283 1285 1698 2977 2766 1863 1865 2769 
10 440 1386 1287 1442 3049 1885 2847 2845 1893 1891 
10 1322 1474 1404 402 2136 2008 1660 2770 3050 2669 
10 1299 1474 402 1404 2009 3050 2778 2007 2008 2669 
10 1309 1387 1417 385 2083 1495 2079 3045 2844 2687 
10 279 370 2347 2352 821 2385 3051 2734 3052 3053 
10 1386 1442 440 329 1893 2845 3049 2812 3054 1145 
10 1342 413 1434 1415 2744 2743 1739 1834 2691 2024 
10 322 1374 372 291 2414 2413 614 947 3011 946 
10 1434 413 299 1415 2743 1020 2693 2024 2691 2952 
10 1376 1423 1320 318 2046 2133 2131 3055 3056 3057 
10 427 1280 327 278 2537 2536 807 806 2826 805 
10 1334 1277 442 332 1774 3059 3058 2997 2998 772 
10 1394 277 1466 1279 2918 2816 1803 1800 2817 1798 
10 1298 1392 1335 333 1995 1996 1994 3001 2891 2558 
10 1300 407 341 298 2850 573 2859 2860 1011 1013 
10 272 432 363 1274 737 741 740 2721 2498 2598 
10 392 354 428 1356 964 1089 798 3043 3060 3042 
10 285 1323 1386 384 2880 1884 3061 882 3062 2877 
10 1356 354 1310 1408 3060 3032 2089 1708 3033 2090 
10 406 308 354 1408 1087 1088 706 3010 3034 3033 
10 421 278 328 2357 811 809 810 2951 2828 3063 
10 1280 1423 1330 2357 1812 1813 1810 2830 2829 3064 
10 1386 1442 329 1331 1893 3054 2812 1690 2147 2814 
10 328 302 1304 1354 1040 3066 3065 2789 2788 2042 
10 358 418 276 1278 786 787 788 2810 3067 2371 
10 1429 1455 1280 427 1816 1814 1809 2496 2495 2537 
10 282 377 1284 2360 855 3069 3068 3070 3071 3072 
10 445 377 309 1311 1095 1094 1092 3030 3073 3005 
10 137 1374 35 1157 1568 2648 1204 1205 2486 1202 
10 35 1374 137 1155 2648 1568 1204 1196 2502 1203 
10 339 279 465 2358 817 818 819 2781 2783 3074 
10 1341 1467 1281 2358 1820 1821 1817 2981 3075 2782 
10 1394 1356 428 1430 1966 3042 2919 1802 2091 3076 
10 1437 1287 1369 367 1888 1890 1506 3077 3078 3079 
10 1343 341 1366 1300 2589 2895 1930 2014 2859 2015 
10 1283 1451 420 281 1849 2608 2522 2754 2617 839 
10 1281 279 2347 2352 2779 3051 3080 3081 2734 3053 
10 1415 299 1301 1352 2952 2936 2022 1838 3009 2021 
10 1349 2199 172 1472 2618 2217 1513 1515 2593 1485 
10 347 69 2199 470 566 2219 2590 567 484 2591 
10 1329 2261 1400 327 3082 2672 1626 3083 2675 2674 
10 373 277 441 1279 795 793 794 2818 2817 2858 
10 329 1270 268 384 2813 3084 687 689 2878 688 
10 97 369 2266 200 528 3085 2320 2326 3086 2327 
10 200 97 369 2267 2326 528 3086 2328 2324 3087 
10 1301 1365 299 1434 2019 2935 2936 2023 1743 2693 
10 1417 307 339 1341 2710 1077 2645 1499 2718 2825 
10 1391 2156 225 389 3088 2180 1508 3089 3090 3091 
10 1328 446 1269 1448 2784 3092 1674 1678 2654 1677 
10 408 342 299 1301 585 1017 1018 2832 2929 2936 
10 1390 295 388 1361 2854 984 2855 1727 2979 2939 
10 464 277 373 1466 797 795 796 3093 2816 2815 
10 1372 1281 2347 2352 1823 3080 2386 3094 3081 3053 
10 1271 1339 353 269 1702 2834 2976 2884 2804 700 
10 1445 445 276 1278 2963 789 2611 1784 2809 2371 
10 281 1283 442 438 2754 2984 844 841 2771 849 
10 364 1366 341 1300 2943 2895 926 2861 2015 2859 
10 267 349 377 1351 668 680 672 3095 3096 3097 
10 1311 358 1360 1425 3006 2875 2092 2093 3007 1976 
10 1341 339 1317 2358 2825 2931 2118 2981 2781 2932 
10 1419 1275 417 2355 1754 3098 2724 2973 3099 3100 
10 1386 440 285 384 3049 890 3061 2877 891 882 
10 417 1368 311 366 2723 2643 1105 997 2798 1106 
10 1339 1299 361 1363 2003 3040 2805 1705 2004 2885 
10 428 1327 1443 1430 2650 2027 2649 3076 2087 1804 
10 1463 1373 317 461 1600 2699 3101 2682 2632 1125 
10 385 1307 305 400 2706 2703 1067 1069 3102 1068 
10 320 1424 422 290 3103 2916 941 940 2917 938 
10 1414 1335 1303 333 1545 2037 2039 2443 2558 2715 
10 1386 329 440 384 2812 1145 3049 2877 689 891 
10 100 466 1468 2269 539 2797 2957 2339 2796 2774 
10 100 2268 1468 466 2335 2958 2957 539 3104 2797 
10 1447 358 1360 1311 2876 2875 1791 2094 3006 2092 
10 1436 434 342 1290 3106 588 3105 1924 3107 3108 
10 1360 358 1278 1420 2875 2810 1788 1790 3109 1789 
10 1399 1412 1320 318 1767 2132 2134 3110 3111 3057 
10 469 386 324 1471 1015 1139 723 2748 3112 2746 
10 1303 1335 1392 333 2037 1996 2038 2715 2558 2891 
10 77 1473 180 2205 2989 1481 2255 2210 2991 2214 
10 180 1473 77 2207 1481 2989 2255 2250 2607 2256 
10 1297 443 357 1359 2656 781 2959 1990 2613 2786 
10 440 1369 1287 367 2846 1890 2847 889 3079 3078 
10 1465 436 1438 1326 2523 2639 1985 2143 2644 2141 
10 1401 2154 1387 385 3114 3113 1492 2705 3115 2844 
10 311 1367 1313 2355 3029 2104 2641 2974 3116 2975 
10 1367 1313 1452 450 2104 2106 1562 2737 2694 2542 
10 434 1436 2207 1350 3106 3117 2937 2938 1538 2578 
10 1368 1456 133 1152 1555 1550 1554 2539 2543 1185 
10 454 31 1152 366 593 1182 2544 597 595 2799 
10 359 388 295 1361 724 984 988 2738 2939 2979 
10 1299 360 297 361 3118 1004 2982 3040 867 1001 
10 460 332 1474 472 776 3119 2551 1136 1148 2841 
10 69 470 172 2199 484 3021 2218 2219 2591 2217 
10 172 470 69 2198 3021 484 2218 2215 3023 2213 
10 320 402 1268 266 659 2668 3120 657 658 3000 
10 342 1290 288 1365 3108 3121 921 2870 1923 2868 
10 342 1344 1290 1365 2833 1921 3108 2870 1922 1923 
10 283 1363 1338 336 2977 1698 2766 862 2867 2843 
10 402 1362 1268 360 2670 1662 2668 660 3122 2999 
10 348 1469 1290 1350 2570 1926 3123 2514 1927 1925 
10 1295 358 1360 1420 3124 2875 1975 1969 3109 1790 
10 1375 1279 441 1443 1795 2858 3125 1796 1797 2651 
10 1464 282 349 1351 2461 856 2479 1860 3126 3096 
10 144 42 1163 1441 1239 1237 1240 1587 2851 2733 
10 144 1162 42 1441 1238 1231 1239 1587 2548 2851 
10 1358 1421 303 1305 2053 2925 2606 2050 2052 2605 
10 367 1437 285 435 3077 3127 888 558 3128 887 
10 1297 295 1390 1361 2911 2854 1988 1991 2979 1727 
10 404 305 1406 400 1063 2803 2533 766 1068 3129 
10 331 1374 1293 291 2503 1949 2886 951 3011 2887 
10 1322 402 472 1474 2770 1007 2842 2136 3050 2841 
10 282 1284 1338 1340 3068 1852 2949 3028 1853 1854 
10 1363 1362 360 1285 1870 3122 2978 1865 1869 2903 
10 319 1292 1383 381 3131 1939 3130 682 3132 3133 
10 1474 472 297 402 2841 1006 3134 3050 1007 1005 
10 363 1365 1274 1434 2869 1740 2598 2599 1743 1738 
10 324 386 436 1326 1139 837 1138 2838 3135 2644 
10 1354 352 302 1449 2760 1039 2788 1867 2622 2856 
10 362 325 1364 2359 671 3046 3048 3136 3137 3138 
10 1381 285 323 379 2879 885 3139 2375 880 884 
10 1372 2347 370 2352 2386 2385 2383 3094 3053 3052 
10 348 1290 434 1350 3123 3107 589 2514 1925 2938 
10 270 1340 1272 2360 2763 1714 2934 3140 3141 3142 
10 299 342 363 1365 1017 920 1016 2935 2870 2869 
10 1283 442 344 281 2984 843 3143 2754 844 845 
10 280 1342 340 1438 2894 2756 833 3012 1837 2640 
10 357 443 1297 295 781 2656 2959 989 990 2911 
10 283 360 1363 361 868 2978 2977 863 867 2885 
10 282 338 416 1340 851 715 854 3028 2927 3144 
10 1400 2261 194 398 2672 2298 1622 2673 2671 3145 
10 194 2260 1400 398 2297 3146 1622 3145 3147 2673 
10 1270 1432 1321 430 1686 1687 1683 3148 3149 3150 
10 397 1399 318 410 2532 3110 1132 765 3151 1129 
10 1453 451 1317 339 3153 3152 2119 3154 552 2931 
10 1268 374 387 266 3156 664 3155 3000 665 656 
10 1474 438 297 472 3157 1003 3134 2841 1008 1006 
10 1399 404 274 397 2531 762 3158 2532 763 764 
10 1434 299 1301 1415 2693 2936 2023 2024 2952 2022 
10 306 1389 1308 374 3160 2075 3159 1074 3161 3162 
10 399 2154 1401 385 3163 3114 2837 544 3115 2705 
10 332 1474 1334 460 3119 2150 2997 776 2551 2614 
10 1447 445 358 1311 2962 790 2876 2094 3030 3006 
10 428 354 308 1310 1089 1088 1085 3164 3032 3031 
10 1399 1276 404 1406 1764 3165 2531 1765 1766 2533 
10 143 1162 1441 1385 1235 2548 1588 1589 2478 1590 
10 383 439 41 1162 631 629 632 2477 2646 1232 
10 301 1303 333 412 3038 2715 1036 1037 2716 493 
10 1429 1280 1329 327 1809 1805 1808 2535 2536 3083 
10 1396 363 288 1365 3167 919 3166 1742 2869 2868 
10 1284 377 1379 2360 3069 3168 1858 3072 3071 3169 
10 1471 469 386 1300 2748 1015 3112 2016 3003 3015 
10 1293 1374 322 291 1949 2414 3170 2887 3011 947 
10 414 1335 240 333 3025 2557 3026 496 2558 2441 
10 1368 450 311 366 2540 1104 2643 2798 600 1106 
10 390 1303 333 301 2791 2715 992 1035 3038 1036 
10 1300 330 407 298 3004 576 2850 2860 1010 1011 
10 350 1415 280 1352 2690 2692 827 2455 1838 2992 
10 1282 280 1415 1352 3041 2692 1835 1830 2992 1838 
10 285 1287 1437 367 3171 1888 3127 888 3078 3077 
10 309 423 358 1425 1090 974 1091 3008 2388 3007 
10 413 280 1342 340 831 2894 2744 832 833 2756 
10 460 1424 1277 422 2657 1772 2615 779 2916 2961 
10 429 399 1401 305 500 2837 2481 1065 1066 2704 
10 411 369 1371 2353 532 3173 3172 3174 3175 3176 
10 393 1273 1361 1395 2881 1726 2659 2658 1728 1729 
10 1320 1455 1399 318 2135 2060 2134 3057 3177 3110 
10 1284 282 1408 1464 3068 2460 1855 1859 2461 1862 
10 360 402 1299 297 660 2778 3118 1004 1005 2982 
10 327 1329 2261 1398 3083 3082 2675 3178 1629 3179 
10 317 1373 1463 1319 2699 1600 3101 2819 1907 2128 
10 1362 360 1299 1363 3122 3118 2006 1870 2978 2004 
10 325 1364 1327 1269 3046 1672 3180 3181 1673 1669 
10 1401 191 2257 399 1489 2279 3182 2837 2908 2907 
10 2258 191 1401 399 2283 1489 2480 2836 2908 2837 
10 30 1384 132 1149 3183 1477 1179 1171 3184 1172 
10 132 1384 30 1151 1477 3183 1179 1180 3185 1178 
10 1447 377 445 1311 3186 1095 2962 2094 3073 3030 
10 325 428 308 1310 1084 1085 1083 3187 3164 3031 
10 428 1310 1356 354 3164 2089 3042 1089 3032 3060 
10 312 468 401 1403 1109 628 1112 2772 2808 2410 
10 361 1299 360 1363 3040 3118 867 2885 2004 2978 
10 1299 438 1474 1440 2728 3157 2009 2005 2729 2010 
10 389 2156 122 435 3090 2194 559 561 3188 557 
10 1437 2156 225 1391 3189 2180 1504 1509 3088 1508 
10 361 283 336 1363 863 862 696 2885 2977 2867 
10 149 1167 467 1469 1263 2996 2995 1610 3190 2667 
10 149 1469 467 1168 1610 2667 2995 1265 2571 2637 
10 40 468 1470 1160 626 2849 3191 1221 2807 2848 
10 40 1161 1470 468 1227 2928 3191 626 2800 2849 
10 445 1278 1445 1447 2809 1784 2963 2962 1792 1794 
10 1356 1310 428 1430 2089 3164 3042 2091 2086 3076 
10 349 308 462 1310 1082 1086 857 2515 3031 2516 
10 1427 360 266 1268 2910 661 2909 1665 2999 3000 
10 309 1425 1311 2360 3008 2093 3005 3192 3193 3194 
10 1406 305 1307 400 2803 2703 2066 3129 1068 3102 
10 389 1391 2156 435 3089 3088 3090 561 3195 3188 
10 353 1294 1314 1355 3197 1956 3196 2835 1957 1958 
10 1397 239 412 395 2824 2484 2823 3198 2920 490 
10 373 287 317 1319 908 906 907 3199 2820 2819 
10 1403 449 312 1314 2565 1111 2772 2112 2566 3200 
10 302 1304 421 328 3066 3201 1041 1040 3065 810 
10 464 373 317 1466 796 907 1128 3093 2815 3202 
10 1385 383 1441 1294 2475 2547 1590 1960 2966 1964 
10 341 407 1300 1343 573 2850 2859 2589 2466 2014 
10 353 1356 1355 1271 3203 1706 2835 2976 1707 1704 
10 1294 392 1336 1394 3205 3204 1961 1963 3044 1962 
10 266 1427 374 425 2909 2905 665 662 2906 666 
10 1271 354 1356 1408 3206 3060 1707 1700 3033 1708 
10 1271 406 354 1408 3207 706 3206 1700 3010 3033 
10 1438 436 386 1326 2639 837 3208 2141 2644 3135 
10 386 1332 1388 1300 3210 1831 3209 3015 2011 2012 
10 318 1455 1399 397 3177 2060 3110 1132 2580 2532 
10 142 1470 40 1161 1585 3191 1229 1230 2928 1227 
10 40 1470 142 1160 3191 1585 1229 1221 2848 1228 
10 1328 445 443 1445 3211 792 2785 2145 2963 2610 
10 411 1315 1288 1413 2628 1894 3212 2629 1652 1897 
10 20 239 1397 395 253 2824 1480 2921 2920 3198 
10 238 20 1397 395 249 1480 3213 2922 2921 3198 
10 468 1470 1403 1314 2849 1586 2808 3214 2111 2112 
10 1376 1320 1412 318 2131 2132 2077 3055 3057 3111 
10 1425 358 1360 1295 3007 2875 1976 1974 3124 1975 
10 278 1280 327 419 2826 2536 805 804 3215 803 
10 1287 285 440 367 3171 890 2847 3078 888 889 
10 1355 353 1294 1356 2835 3197 1957 1706 3203 1965 
10 438 472 1474 332 1008 2841 3157 1147 1148 3119 
10 1310 428 1430 1327 3164 3076 2086 2084 2650 2087 
10 400 1276 274 2352 3217 3216 758 3218 3219 3220 
10 1317 451 315 339 3152 1116 2930 2931 552 1117 
10 1314 420 353 1355 2609 1108 3196 1958 2519 2835 
10 293 335 418 1420 966 967 968 3221 3222 3223 
10 2261 396 327 1398 3224 514 2675 3179 2635 3178 
10 303 355 356 1358 1048 970 1047 2606 2604 2399 
10 1305 1357 355 1358 2049 2698 2603 2050 1972 2604 
10 388 359 271 1273 724 725 720 2940 2980 3225 
10 330 1332 386 1300 2439 3210 830 3004 2011 3015 
10 1375 373 1370 2359 3227 3226 1912 3228 3229 3230 
10 1335 1416 1298 414 1548 1997 1994 3025 3027 3231 
10 1345 331 1293 343 3232 2886 1953 3233 875 2888 
10 1345 1333 1293 331 1877 1952 1953 3232 2776 2886 
10 322 1393 1293 291 3234 1951 3170 947 3235 2887 
10 307 1309 1402 2352 2717 2082 3236 2712 3237 3238 
10 394 363 288 1396 738 919 918 3239 3167 3166 
10 437 271 393 1439 728 727 732 3240 3241 2882 
10 1273 393 271 1439 2881 727 3225 1732 2882 3241 
10 368 2359 378 2361 3242 3017 742 3243 3020 3019 
10 1380 2359 1370 2361 3016 3230 1745 3018 3020 3244 
10 1299 402 360 1362 2778 660 3118 2006 2670 3122 
10 1383 268 319 381 3245 683 3130 3133 681 682 
10 1468 2268 375 466 2958 2553 3246 2797 3104 540 
10 282 377 349 1351 855 680 856 3126 3097 3096 
10 442 1440 1334 332 2985 2149 3058 772 3247 2997 
10 283 360 447 1285 868 869 865 2769 2903 2624 
10 1307 1387 1402 385 2068 2070 2071 2706 2844 3248 
10 1290 348 467 1469 3123 924 3249 1926 2570 2667 
10 1361 393 359 1273 2659 726 2738 1726 2881 2980 
10 332 442 1440 438 772 2985 3247 1147 849 2729 
10 1289 373 287 1370 3250 908 2994 1911 3226 3251 
10 282 1464 1284 1351 2461 1859 3068 3126 1860 1857 
10 417 1392 1275 1419 2764 1756 3098 2724 1758 1754 
10 1474 1440 332 1334 2010 3247 3119 2150 2149 2997 
10 354 1356 353 1271 3060 3203 705 3206 1707 2976 
10 1464 349 1310 1351 2479 2515 2088 1860 3096 2085 
10 311 1419 417 2355 2642 2724 1105 2974 2973 3100 
10 406 354 269 1271 706 704 699 3207 3206 2884 
10 438 332 1474 1440 1147 3119 3157 2729 3247 2010 
10 325 441 428 1327 1026 802 1084 3180 2652 2650 
10 1413 2271 1315 202 2630 2626 1652 1646 2338 1650 
10 99 313 411 2271 536 537 530 2330 2863 2627 
10 396 355 1305 1398 517 2603 2676 2635 2636 2051 
10 1326 324 386 1471 2838 1139 3135 1724 2746 3112 
10 1384 1151 1456 454 3185 2561 1552 3252 2560 2546 
10 1364 325 267 1269 3046 669 3047 1673 3181 3253 
10 461 43 334 1163 637 635 639 2684 1236 2731 
10 1336 1163 145 1463 2701 1243 1592 1597 2685 1596 
10 1331 1270 1383 329 1688 1685 1689 2814 2813 3254 
10 389 225 1391 2157 3091 1508 3089 3255 2182 3256 
10 277 464 392 1466 797 801 800 2816 3093 3257 
10 282 1408 336 1338 2460 3258 852 2949 1701 2843 
10 354 1294 353 1356 3259 3197 705 3060 1965 3203 
10 450 1153 1367 365 2736 2666 2737 603 2988 2987 
10 1269 326 446 1328 2946 675 3092 1674 2947 2784 
10 1290 1436 434 1350 1924 3106 3107 1925 1538 2938 
10 1443 441 1375 2359 2651 3125 1796 2873 2872 3228 
10 302 447 425 1449 1042 1046 1045 2856 2621 2893 
10 341 2200 1435 433 2588 3261 3260 570 3262 3013 
10 312 449 420 1314 1111 848 1107 3200 2566 2609 
10 1365 363 299 1434 2869 1016 2935 1743 2599 2693 
10 267 325 349 1351 669 667 668 3095 3263 3096 
10 324 388 271 1273 719 720 721 2840 2940 3225 
10 308 349 325 1310 1082 667 1083 3031 2515 3187 
10 195 1398 92 2261 1627 3264 2301 2302 3179 2295 
10 92 1398 195 2262 3264 1627 2301 2299 2602 2303 
10 319 1383 1270 268 3130 1685 3265 683 3245 3084 
10 10 412 239 395 488 2484 251 474 490 2920 
10 20 1414 1397 239 1541 1542 1480 253 2483 2824 
10 1425 423 358 1295 2388 974 3007 1974 3266 3124 
10 369 457 2266 1459 529 2742 3085 3267 2741 2679 
10 1304 1376 1427 302 2045 1668 2047 3066 3268 2904 
10 2267 369 200 1371 3087 3086 2328 3269 3173 1642 
10 200 369 2266 1371 3086 3085 2327 1642 3173 3270 
10 273 1275 2346 2355 3273 3272 3271 3274 3099 3275 
10 1364 325 1327 2359 3046 3180 1672 3138 3137 2871 
10 282 406 336 1408 853 698 852 2460 3010 3258 
10 461 1163 334 1336 2684 2731 639 2702 2701 3276 
10 372 1155 35 331 2501 1196 609 611 2504 607 
10 1333 137 1374 1155 1564 1568 1569 2775 1203 2502 
10 386 1332 1282 1388 3210 1829 3277 3209 1831 1832 
10 355 1357 2263 197 2698 2697 2633 2708 1631 2312 
10 1357 197 355 2264 1631 2708 2698 2745 2313 2709 
10 1372 448 290 370 2382 944 3278 2383 824 943 
10 357 1359 2351 2353 2786 3280 3279 2914 2913 3281 
10 284 321 1323 2355 871 2401 3282 3283 3284 3285 
10 1286 284 1323 2355 3286 3282 1872 3287 3283 3285 
10 432 413 1342 340 1022 2744 2499 736 832 2756 
10 321 284 1426 424 871 3289 3288 872 873 3290 
10 402 1268 1322 320 2668 1657 2770 659 3120 3291 
10 96 457 335 2265 525 526 521 2315 2740 2864 
10 2265 199 1459 1337 2322 1639 2678 2964 1637 1641 
10 1276 1412 274 2352 1763 3292 3216 3219 3293 3220 
10 1408 1271 336 1338 1700 2866 3258 1701 1697 2843 
10 1351 377 267 1269 3097 672 3095 1670 2945 3253 
10 1379 377 1351 1269 3168 3097 1682 1676 2945 1670 
10 1287 1323 1386 285 1882 1884 1885 3171 2880 3061 
10 1268 1362 1427 360 1662 1664 1665 2999 3122 2910 
10 1314 353 312 1294 3196 954 3200 1956 3197 3294 
10 353 269 354 1271 700 704 705 2976 2884 3206 
10 1446 287 444 2361 3295 912 2967 3296 3297 3298 
10 2156 1391 1437 435 3088 1509 3189 3188 3195 3128 
10 460 472 1322 320 1136 2842 2549 1135 1134 3291 
10 1275 1323 2346 2355 1747 2377 3272 3099 3285 3275 
10 379 1381 2346 2356 2375 2379 2378 3299 3300 3301 
10 1440 1444 1283 442 1851 1846 1844 2985 3302 2984 
10 1318 1371 369 2353 1900 3173 3303 3304 3176 3175 
10 330 280 386 1332 828 829 830 2439 2993 3210 
10 351 1306 458 304 2680 3305 505 1055 2625 1056 
10 327 398 1400 427 511 2673 2674 807 1060 2584 
10 1275 273 417 2355 3273 753 3098 3099 3274 3100 
10 1444 1433 1312 310 1782 2102 2099 2953 3306 2956 
10 273 2346 321 2355 3271 2402 747 3274 3275 3284 
10 431 1393 1433 322 3308 1779 3307 1137 3234 3309 
10 1393 322 431 391 3234 1137 3308 3310 949 778 
10 287 1446 444 2354 3295 2967 912 3311 2970 2972 
10 1378 1167 1316 148 2753 2750 1607 1605 1260 1606 
10 46 314 376 1167 649 648 646 1257 2822 2751 
10 364 469 271 1471 731 722 730 3002 2748 2747 
10 419 1280 327 1421 3215 2536 803 3312 1806 3313 
10 1329 327 1280 1421 3083 2536 1805 1807 3313 1806 
10 414 296 1298 333 995 2944 3231 496 994 3001 
10 317 334 464 1466 1126 1127 1128 3202 3314 3093 
10 347 289 1468 1349 930 3315 2773 2619 3316 1933 
10 1271 336 406 1408 2866 698 3207 1700 3258 3010 
10 1289 287 373 1319 2994 908 3250 1906 2820 3199 
10 391 1393 1321 1277 3310 1770 3317 3318 1771 1769 
10 1270 430 319 268 3148 684 3265 3084 685 683 
10 1442 1317 1369 440 2122 2121 1892 2845 3319 2846 
10 1351 1310 325 349 2085 3187 3263 3096 2515 667 
10 469 364 298 1300 731 1012 1014 3003 2861 2860 
10 1306 1460 1353 351 2058 1620 2055 2680 3320 2417 
10 355 1405 1357 2264 2790 1635 2698 2709 2465 2745 
10 1336 317 461 1463 3321 1125 2702 1597 3101 2682 
10 291 322 1393 391 947 3234 3235 948 949 3310 
10 1282 1332 386 280 1829 3210 3277 3041 2993 829 
10 355 1305 1398 1357 2603 2051 2636 2698 2049 1632 
10 1323 1287 1381 285 1882 1883 1748 2880 3171 2879 
10 319 1424 1292 290 2915 1940 3131 937 2917 3322 
10 1292 1321 1424 319 1938 1773 1940 3131 3323 2915 
10 353 420 1314 312 1108 2609 3196 954 1107 3200 
10 1468 289 347 466 3315 930 2773 2797 931 932 
10 287 371 1373 2354 904 2586 2700 3311 3324 3325 
10 1281 1454 279 2352 1818 2497 2779 3081 2711 2734 
10 342 2204 434 1436 2491 3326 588 3105 3327 3106 
10 1459 2266 369 1371 2679 3085 3267 1644 3270 3173 
10 1365 342 1344 1301 2870 2833 1922 2019 2929 2018 
10 310 344 1444 442 1097 2954 2953 1096 843 3302 
10 418 358 293 1420 786 973 968 3223 3109 3221 
10 1460 2259 1353 351 3328 2395 1620 3320 2416 2417 
10 280 1282 1342 1438 3041 1833 2894 3012 1836 1837 
10 292 383 1441 439 957 2547 2811 962 631 2647 
10 1278 358 418 1420 2810 786 3067 1789 3109 3223 
10 309 423 1425 2360 1090 2388 3008 3192 3329 3193 
10 344 1283 1444 442 3143 1846 2954 843 2984 3302 
10 442 1277 1334 1444 3059 1774 3058 3302 1775 1776 
10 1471 324 271 1273 2746 721 2747 1725 2840 3225 
10 1317 1341 1453 339 2118 1500 2119 2931 2825 3154 
10 326 267 377 1269 674 672 673 2946 3253 2945 
10 1269 1379 377 1328 1676 3168 2945 1674 1675 2948 
10 2271 411 98 201 2627 531 2329 2333 3330 2331 
10 2267 98 411 201 2325 531 3331 2332 2331 3330 
10 417 273 1392 390 753 3332 2764 756 755 2792 
10 1284 1351 377 282 1857 3097 3069 3068 3126 855 
10 1335 414 1298 333 3025 3231 1994 2558 496 3001 
10 1466 373 317 1319 2815 907 3202 2129 3199 2819 
10 288 1290 1396 1365 3121 1919 3166 2868 1923 1742 
10 425 1427 302 1449 2906 2904 1045 2893 2048 2856 
10 275 1277 319 422 3333 2960 769 771 2961 770 
10 1424 1321 1277 319 1773 1769 1772 2915 3323 2960 
10 1354 302 1304 1449 2788 3066 2042 1867 2856 2044 
10 285 440 1386 1287 890 3049 3061 3171 2847 1885 
10 307 1454 1309 2352 2457 2080 2717 2712 2711 3237 
10 299 350 408 1352 1019 582 1018 3009 2455 2435 
10 1292 1424 1322 320 1940 1943 1941 3334 3103 3291 
10 377 445 326 1328 1095 1142 673 2948 3211 2947 
10 377 309 1311 2360 1094 3005 3073 3071 3192 3194 
10 1290 342 1436 1344 3108 3105 1924 1921 2833 1536 
10 288 342 434 1290 921 588 922 3121 3108 3107 
10 1375 373 1289 1370 3227 3250 1909 1912 3226 1911 
10 1270 1345 1432 430 1692 1695 1686 3148 3335 3149 
10 381 319 1292 290 682 3131 3132 936 937 3322 
10 1321 1292 1383 319 1938 1939 1684 3323 3131 3130 
10 269 336 406 1271 697 698 699 2884 2866 3207 
10 1310 325 428 1327 3187 1084 3164 2084 3180 2650 
10 1455 318 453 397 3177 1133 2663 2580 1132 1059 
10 280 1415 1342 1282 2692 1834 2894 3041 1835 1833 
10 1314 312 383 1294 3200 958 2965 1956 3294 2966 
10 392 1394 1294 1356 3044 1963 3205 3043 1966 1965 
10 1328 377 445 1447 2948 1095 3211 2144 3186 2962 
10 1283 281 344 1451 2754 845 3143 1849 2617 2683 
10 277 428 1394 392 799 2919 2918 800 798 3044 
10 330 1409 1332 1300 2452 1524 2439 3004 2013 2011 
10 2151 451 1453 339 3337 3153 3336 3338 552 3154 
10 315 1317 440 367 2930 3319 1119 1120 3339 889 
10 1441 334 1163 1336 2732 2731 2733 1594 3276 2701 
10 1441 292 334 1294 2811 961 2732 1964 3340 3341 
10 334 1336 1441 1294 3276 1594 2732 3341 1961 1964 
10 1279 428 1443 1430 2857 2649 1797 1801 3076 1804 
10 1292 1372 1450 448 1944 1827 1946 3342 2382 2392 
10 1274 272 378 2361 2721 733 2831 3343 3344 3019 
10 1299 297 402 1474 2982 1005 2778 2009 3134 3050 
10 1308 1389 1376 374 2075 1667 2076 3162 3161 3345 
10 1389 306 387 374 3160 1073 3346 3161 1074 664 
10 1457 455 1155 331 3349 3348 3347 3350 608 2504 
10 1449 360 1362 1285 2892 3122 1871 1868 2903 1869 
10 385 1309 1402 307 3045 2082 3248 1081 2717 3236 
10 1351 325 1327 1269 3263 3180 1671 1670 3181 1669 
10 2152 367 1453 451 3353 3352 3351 3354 555 3153 
10 1294 354 392 1356 3259 964 3205 1965 3060 3043 
10 1463 1336 317 1319 1597 3321 3101 2128 2127 2819 
10 360 1362 1427 1449 3122 1664 2910 2892 1871 2048 
10 274 404 1399 1276 762 2531 3158 3216 3165 1764 
10 443 445 1328 326 792 3211 2785 1143 1142 2947 
10 1340 1418 1272 2360 1716 1717 1714 3141 3355 3142 
10 313 393 286 1315 892 893 894 2758 3356 3357 
10 297 438 1474 1299 1003 3157 3134 2982 2728 2009 
10 467 1167 376 1469 2996 2751 653 2667 3190 3358 
10 1387 1309 1402 385 2083 2082 2070 2844 3045 3248 
10 274 1412 410 2352 3292 3359 760 3220 3293 3360 
10 92 2262 396 1398 2299 2707 513 3264 2602 2635 
10 396 2261 92 1398 3224 2295 513 2635 3179 3264 
10 428 1279 1394 1430 2857 1800 2919 3076 1801 1802 
10 381 1383 268 329 3133 3245 681 686 3254 687 
10 1415 350 299 1352 2690 1019 2952 1838 2455 3009 
10 1345 1286 1333 331 1878 1876 1877 3232 3361 2776 
10 331 1345 284 343 3232 3362 876 875 3233 874 
10 1293 1432 1345 430 1954 1695 1953 3363 3149 3335 
10 1399 410 397 274 3151 765 2532 3158 760 764 
10 1435 2200 341 1343 3261 2588 3260 1518 2468 2589 
10 1421 1329 327 1398 1807 3083 3313 2054 1629 3178 
10 327 396 419 1421 514 1052 803 3313 2926 3312 
10 1445 1328 445 1447 2145 3211 2963 1794 2144 2962 
10 278 427 1455 453 806 2495 3364 813 814 2663 
10 1371 369 411 2267 3173 532 3172 3269 3087 3331 
10 322 1374 1293 1324 2414 1949 3170 2518 1573 1948 
10 293 403 335 1295 965 523 966 3365 2890 2889 
10 335 1337 1295 1405 3366 1967 2889 2865 1638 1968 
10 194 398 91 2260 3145 506 2296 2297 3147 2290 
10 91 398 194 2261 506 3145 2296 2294 2671 2298 
10 1385 1314 468 383 1959 3214 2801 2475 2965 633 
10 1338 282 1408 1284 2949 2460 1701 1852 3068 1855 
10 1277 442 431 1433 3059 780 3367 1780 3368 3307 
10 421 1376 1304 302 3369 2045 3201 1041 3268 3066 
10 323 1325 1437 285 3371 1889 3370 885 3372 3127 
10 272 363 1396 1274 740 3167 3373 2721 2598 1741 
10 270 2348 1272 2357 3375 3374 2934 3037 3376 3035 
10 285 1437 323 435 3127 3370 885 887 3128 886 
10 1346 1444 1312 344 1847 2099 2098 2529 2954 2955 
10 329 1442 440 2358 3054 2845 1145 3377 3378 3379 
10 455 1457 1286 331 3349 1879 3380 608 3350 3361 
10 1346 1283 1444 344 1845 1846 1847 2529 3143 2954 
10 1459 335 2265 1337 2897 2864 2678 1641 3366 2964 
10 1293 1374 331 1333 1949 2503 2886 1952 1569 2776 
10 1341 1317 1467 2358 2118 2120 1820 2981 2932 3075 
10 465 315 339 2358 1118 1117 819 3074 2933 2781 
10 364 437 289 1291 729 933 927 2941 3381 2942 
10 364 1291 1366 1439 2941 1929 2943 3382 1935 1731 
10 1289 1319 373 1375 1906 3199 3250 1909 1910 3227 
10 1427 374 1268 266 2905 3156 1665 2909 665 3000 
10 450 33 1153 365 599 1186 2736 603 604 2988 
10 1452 135 1367 1153 1556 1561 1562 2735 1193 2666 
10 1442 329 1331 2358 3054 2814 2147 3378 3377 3383 
10 1276 400 1402 2352 3217 3384 1760 3219 3218 3238 
10 364 1366 1273 1439 2943 1730 3385 3382 1731 1732 
10 268 1383 1270 329 3245 1685 3084 687 3254 2813 
10 1376 1389 1268 374 1667 1658 1666 3345 3161 3156 
10 387 374 1268 1389 664 3156 3155 3346 3161 1658 
10 294 1465 1296 2362 2524 1982 2364 2924 2923 3386 
10 377 1351 1284 1379 3097 1857 3069 3168 1682 1858 
10 289 1468 375 466 3315 3246 935 931 2797 540 
10 419 396 303 1421 1052 1049 1051 3312 2926 2925 
10 1421 327 396 1398 3313 514 2926 2054 3178 2635 
10 325 1310 1351 1327 3187 2085 3263 3180 2084 1671 
10 1323 384 285 321 3062 882 2880 2401 883 881 
10 1424 460 320 422 2657 1135 3103 2916 779 941 
10 1275 1392 417 273 1756 2764 3098 3273 3332 753 
10 1403 1346 344 1451 1582 2529 2406 2114 1848 2683 
10 1274 378 1380 2361 2831 2368 1737 3343 3019 3018 
10 1433 1393 1324 322 1779 1950 2139 3309 3234 2518 
10 1291 364 437 1439 2941 729 3381 1935 3382 3240 
10 1336 1466 317 1319 2130 3202 3321 2127 2129 2819 
10 1468 1377 375 2268 1655 2556 3246 2958 2555 2553 
10 1437 1325 1287 285 1889 1886 1888 3127 3372 3171 
10 271 437 364 1439 728 729 730 3241 3240 3382 
10 364 1273 271 1439 3385 3225 730 3382 1732 3241 
10 381 1292 1383 448 3132 1939 3133 945 3342 3387 
10 298 386 469 1300 1009 1015 1014 2860 3015 3003 
10 1301 342 1344 1410 2929 2833 2018 2020 2492 1533 
10 1268 387 320 266 3155 655 3120 3000 656 657 
10 1351 267 325 1269 3095 669 3263 1670 3253 3181 
10 271 359 393 1273 725 726 727 3225 2980 2881 
10 1337 335 2265 1405 3366 2864 2964 1638 2865 2464 
10 289 341 1435 433 928 3260 3388 929 570 3013 
10 1277 442 1433 1444 3059 3368 1780 1775 3302 1782 
10 280 386 1438 436 829 3208 3012 835 837 2639 
10 458 1460 1306 351 3389 2058 3305 505 3320 2680 
10 323 389 1391 2356 1031 3089 3390 3391 3392 3393 
10 1400 398 2260 458 2673 3147 3146 3394 508 3395 
10 1321 1383 1270 319 1684 1685 1683 3323 3130 3265 
10 1324 1393 1293 322 1950 1951 1948 2518 3234 3170 
10 1156 426 1324 322 3397 3396 2517 2415 616 2518 
10 277 1466 392 1394 2816 3257 800 2918 1803 3044 
10 284 1286 1345 331 3286 1878 3362 876 3361 3232 
10 320 1292 1424 290 3334 1940 3103 940 3322 2917 
10 2268 1377 203 1468 2555 1649 2342 2958 1655 1653 
10 100 466 375 2268 539 540 533 2335 3104 2553 
10 1327 325 441 2359 3180 1026 2652 2871 3137 2872 
10 307 1402 400 2352 3236 3384 1079 2712 3238 3218 
10 1293 343 291 430 2888 950 2887 3363 693 952 
10 458 1400 398 304 3394 2673 508 1056 2583 1062 
10 1 1149 237 382 1169 3398 246 477 3399 3400 
10 237 2 1384 1149 245 1475 3401 3398 1170 3184 
10 1307 385 1402 400 2706 3248 2071 3102 1069 3384 
10 1426 1270 1386 384 1693 1691 1696 3402 2878 2877 
10 1298 1384 1456 454 2002 1552 2001 2616 3252 2546 
10 456 2351 1458 2353 2374 2381 2380 3403 3281 3404 
10 1367 1154 1457 455 2665 3405 1563 3406 3407 3349 
10 1381 1407 1275 2356 1752 1753 1749 3300 3408 3409 
10 379 273 405 2356 745 750 751 3299 3410 3411 
10 421 1423 1376 318 2950 2046 3369 1131 3056 3055 
10 1438 386 1388 1326 3208 3209 1839 2141 3135 2140 
10 302 1376 1427 374 3268 1668 2904 1044 3345 2905 
10 456 276 418 1278 784 787 791 2370 2371 3067 
10 285 379 1323 321 880 2376 2880 881 746 2401 
10 1371 2267 411 1413 3269 3331 3172 1647 3412 2629 
10 1421 396 1305 1398 2926 2676 2052 2054 2635 2051 
10 458 1306 1400 304 3305 2062 3394 1056 2625 2583 
10 1308 374 410 306 3162 1075 3413 3159 1074 1072 
10 1381 379 323 2356 2375 884 3139 3300 3299 3391 
10 1274 363 1396 1365 2598 3167 1741 1740 2869 1742 
10 323 1381 1325 285 3139 1887 3371 885 2879 3372 
10 1323 1286 1426 284 1872 1874 1875 3282 3286 3289 
10 284 1426 1323 321 3289 1875 3282 871 3288 2401 
10 240 22 1416 414 262 1547 3024 3026 3414 3027 
10 22 241 1416 414 263 3415 1547 3414 3416 3027 
10 1412 318 1399 410 3111 3110 1767 3359 1129 3151 
10 1276 400 404 1406 3217 766 3165 1766 3129 2533 
10 1303 1397 1414 412 2040 1542 2039 2716 2823 2444 
10 458 2259 1460 351 3417 3328 3389 505 2416 3320 
10 442 332 1277 275 772 2998 3059 773 774 3333 
10 2266 97 457 369 2320 524 2742 3085 528 529 
10 200 2266 1459 1371 2327 2679 1640 1642 3270 1644 
10 468 1314 1385 1470 3214 1959 2801 2849 2111 1591 
10 373 1375 1466 1279 3227 1799 2815 2818 1795 1798 
10 13 237 23 382 247 248 264 476 3400 3418 
10 241 13 23 382 259 264 265 3419 476 3418 
10 1304 1376 421 1423 2045 3369 3201 2043 2046 2950 
10 1366 364 1471 1300 2943 3002 1733 2015 2861 2016 
10 1277 275 332 460 3333 774 2998 2615 775 776 
10 335 1420 1295 1337 3222 1969 2889 3366 1970 1967 
10 1295 335 293 1420 2889 966 3365 1969 3222 3221 
10 286 411 313 1315 895 537 894 3357 2628 2758 
10 1450 1383 1292 448 1947 1939 1946 2392 3387 3342 
10 1396 288 1316 1290 3166 3420 1920 1919 3121 1917 
10 1284 1379 1418 2360 1858 1861 1856 3072 3169 3355 
10 282 416 377 2360 854 859 855 3070 3421 3071 
10 472 402 1322 320 1007 2770 2842 1134 659 3291 
10 288 348 467 1290 923 924 925 3121 3123 3249 
10 431 1277 1393 391 3367 1771 3308 778 3318 3310 
10 1433 1277 1393 431 1780 1771 1779 3307 3367 3308 
10 1277 319 391 275 2960 768 3318 3333 769 767 
10 391 1277 1321 319 3318 1769 3317 768 2960 3323 
10 334 392 464 1466 960 801 1127 3314 3257 3093 
10 1368 134 1452 1152 1553 1557 1558 2539 1188 2538 
10 450 1152 32 366 2541 1181 598 600 2799 596 
10 1391 323 435 389 3390 886 3195 3089 1031 561 
10 319 430 1270 1321 684 3148 3265 3323 3150 1683 
10 1391 389 301 2356 3089 1030 3422 3393 3392 3039 
10 1364 1380 2350 2359 1984 2369 3423 3138 3016 3424 
10 362 1364 267 2362 3048 3047 670 3425 3426 3427 
10 440 1317 1369 367 3319 2121 2846 889 3339 3079 
10 387 306 1372 370 1073 3429 3428 942 1070 2383 
10 2261 1329 195 1398 3082 1625 2302 3179 1629 1627 
10 92 327 2261 396 509 2675 2295 513 514 3224 
10 348 288 434 1290 923 922 589 3123 3121 3107 
10 410 1308 306 2352 3413 3159 1072 3360 3430 3431 
10 1293 430 1393 1432 3363 3432 1951 1954 3149 1955 
10 378 362 2350 2359 982 3433 2367 3017 3136 3424 
10 395 1397 226 2157 3198 1479 3434 3435 3436 2183 
10 1403 312 468 1314 2772 1109 2808 2112 3200 3214 
10 410 374 1308 1412 1075 3162 3413 3359 3437 2074 
10 430 1270 1345 268 3148 1692 3335 685 3084 3438 
10 1336 334 392 1294 3276 960 3204 1961 3341 3205 
10 392 334 292 1294 960 961 959 3205 3341 3340 
10 365 1154 1367 455 2986 2665 2987 605 3407 3406 
10 1325 1381 1287 285 1887 1883 1886 3372 2879 3171 
10 367 121 2152 435 554 2192 3353 558 556 3439 
10 2152 1437 224 1369 3440 1505 2177 3441 1506 1501 
10 1369 2152 1437 367 3441 3440 1506 3079 3353 3077 
10 289 1468 1349 1291 3315 1933 3316 2942 1934 1932 
10 1291 437 375 1377 3381 934 3442 1936 3443 2556 
10 311 450 1367 365 1104 2737 3029 1103 603 2987 
10 1384 241 414 1416 3445 3416 3444 1549 3415 3027 
10 1444 1440 1334 442 1851 2149 1776 3302 2985 3058 
10 467 47 376 1167 651 647 653 2996 1256 2751 
10 1469 1167 1378 149 3190 2753 1611 1610 1263 1604 
10 375 289 437 1291 935 933 934 3442 2942 3381 
10 1395 1288 1361 2353 1895 1905 1729 2660 3446 2661 
10 286 393 359 2353 893 726 901 3447 2662 2739 
10 377 1447 1379 1311 3186 2097 3168 3073 2094 2095 
10 1455 1320 1423 318 2135 2133 1815 3177 3057 3056 
10 323 1391 1325 2356 3390 2033 3371 3391 3393 3448 
10 1396 363 272 394 3167 740 3373 3239 738 739 
10 312 353 292 1294 954 955 956 3294 3197 3340 
10 410 1412 318 374 3359 3111 1129 1075 3437 1130 
10 1439 437 1291 1377 3240 3381 1935 1937 3443 1936 
10 1310 308 462 1408 3031 1086 2516 2090 3034 2459 
10 410 1412 1308 2352 3359 2074 3413 3360 3293 3430 
10 1453 1341 2151 339 1500 3449 3336 3154 2825 3338 
10 460 1277 275 422 2615 3333 775 779 2961 771 
10 290 448 1372 1292 944 2382 3278 3322 3342 1944 
10 1307 1402 1406 400 2071 1768 2066 3102 3384 3129 
10 1372 290 387 370 3278 939 3428 2383 943 942 
10 1149 1384 237 382 3184 3401 3398 3399 3450 3400 
10 354 292 353 1294 963 955 705 3259 3340 3197 
10 444 2349 1446 2361 2968 2969 2967 3298 3451 3296 
10 1289 287 1373 2354 2994 2700 1908 3452 3311 3325 
10 1155 1333 1457 331 2775 1566 3347 2504 2776 3350 
10 1319 1466 373 1375 2129 2815 3199 1910 1799 3227 
10 1372 1389 1308 306 1945 2075 2073 3429 3160 3159 
10 1331 1383 1450 329 1689 1947 2146 2814 3254 3453 
10 1437 2152 121 435 3440 2192 3454 3128 3439 556 
10 341 1435 1343 1291 3260 1518 2589 2896 1931 1928 
10 1281 2347 279 2358 3080 3051 2779 2782 3455 2783 
10 1397 226 2158 395 1479 2162 3456 3198 3434 3457 
10 356 303 1421 419 1047 2925 3458 1050 1051 3312 
10 462 308 406 1408 1086 1087 860 2459 3034 3010 
10 421 318 1376 374 1131 3055 3369 1043 1130 3345 
10 291 430 1393 1293 952 3432 3235 2887 3363 1951 
10 367 2152 1437 435 3353 3440 3077 558 3439 3128 
10 1333 1286 1457 331 1876 1879 1566 2776 3361 3350 
10 323 1391 1437 1325 3390 1509 3370 3371 2033 1889 
10 2152 1369 1453 367 3441 1503 3351 3353 3079 3352 
10 1455 427 278 1280 2495 806 3364 1814 2537 2826 
10 173 2200 433 1435 2221 3262 3459 1512 3261 3013 
10 173 1435 433 2199 1512 3013 3459 2216 2902 3014 
10 1413 411 2271 201 2629 2627 2630 1645 3330 2333 
10 1413 2267 411 201 3412 3331 2629 1645 2332 3330 
10 268 1270 1426 384 3084 1693 3460 688 2878 3402 
10 1378 376 1167 1469 2752 2751 2753 1611 3358 3190 
10 1326 386 1388 1471 3135 3209 2140 1724 3112 2017 
10 302 421 1376 374 1041 3369 3268 1044 1043 3345 
10 1437 1391 323 435 1509 3390 3370 3128 3195 886 
10 1303 1391 301 2356 2034 3422 3038 2795 3393 3039 
10 1436 342 2204 1344 3105 2491 3327 1536 2833 2719 
10 1453 367 1317 451 3352 3339 2119 3153 555 3152 
10 310 1433 431 442 3306 3307 1100 1096 3368 780 
10 1367 311 365 2355 3029 1103 2987 3116 2974 3461 
10 1289 1370 287 2361 1911 3251 2994 3462 3244 3297 
10 1358 423 1425 1295 2387 2388 1719 1973 3266 1974 
10 431 442 1277 275 780 3059 3367 777 773 3333 
10 1441 1163 144 1336 2733 1240 1587 1594 2701 1593 
10 334 42 439 1163 634 630 636 2731 1237 2730 
10 306 1372 370 2352 3429 2383 1070 3431 3094 3052 
10 1322 1268 1389 320 1657 1658 1659 3291 3120 3463 
10 1435 341 289 1291 3260 928 3388 1931 2896 2942 
10 270 356 2348 2357 711 2400 3375 3037 3464 3376 
10 1429 1329 1400 327 1808 1626 2064 2535 3083 2674 
10 241 22 12 414 263 261 260 3416 3414 494 
10 240 12 22 414 254 261 262 3026 494 3414 
10 1159 1346 1461 459 2528 1583 3465 3466 3467 3468 
10 1402 400 385 307 3384 1069 3248 3236 1079 1081 
10 395 1391 1397 2157 3469 1510 3198 3435 3256 3436 
10 459 1159 1346 344 3466 2528 3467 625 2408 2529 
10 1324 1156 1428 426 2517 3470 1574 3396 3397 3471 
10 1399 1276 1412 274 1764 1763 1767 3158 3216 3292 
10 1295 293 358 1420 3365 973 3124 1969 3221 3109 
10 1289 287 1446 2361 2994 3295 1913 3462 3297 3296 
10 375 1468 1291 1377 3246 1934 3442 2556 1655 1936 
10 389 1391 395 2157 3089 3469 562 3255 3256 3435 
10 1272 2348 1358 2357 3374 2391 1712 3035 3376 3472 
10 292 383 312 1294 957 958 956 3340 2966 3294 
10 1291 1468 375 289 1934 3246 3442 2942 3315 935 
10 369 316 1318 2353 896 3473 3303 3175 3474 3304 
10 287 1289 1446 2354 2994 1913 3295 3311 3452 2970 
10 1295 355 403 1405 3475 520 2890 1968 2790 2488 
10 1460 1306 1400 458 2058 2062 1623 3389 3305 3394 
10 273 321 380 2355 747 748 749 3274 3284 3476 
10 1382 1323 1275 2355 1751 1747 1750 3477 3285 3099 
10 457 369 316 1459 529 896 1124 2741 3267 3478 
10 1471 386 1388 1300 3112 3209 2017 2016 3015 2012 
10 179 2207 434 1436 2251 2937 3479 1534 3117 3106 
10 2204 179 434 1436 2245 3479 3326 3327 1534 3106 
10 2260 1460 1400 458 3480 1623 3146 3395 3389 3394 
10 326 446 267 1269 675 676 674 2946 3092 3253 
10 384 1426 268 424 3402 3460 688 694 3290 691 
10 278 1280 419 2357 2826 3215 804 2828 2830 3481 
10 310 1444 1433 442 2953 1782 3306 1096 3302 3368 
10 456 357 2351 2353 785 3279 2374 3403 2914 3281 
10 320 1292 1389 1322 3334 1942 3463 3291 1941 1659 
10 70 433 173 2200 563 3459 2223 2224 3262 2221 
10 173 433 70 2199 3459 563 2223 2216 3014 2222 
10 344 1346 1283 1451 2529 1845 3143 2683 1848 1849 
10 455 1286 284 331 3380 3286 877 608 3361 876 
10 301 1391 1397 395 3422 1510 3482 1038 3469 3198 
10 367 315 1317 451 1120 2930 3339 555 1116 3152 
10 376 1290 467 1469 3483 3249 653 3358 1926 2667 
10 220 2154 1401 399 2167 3114 1487 3484 3163 2837 
10 139 426 37 1158 3485 613 1214 1215 3486 1212 
10 37 426 139 1156 613 3485 1214 1206 3397 1213 
10 395 301 1391 389 1038 3422 3469 562 1030 3089 
10 343 1426 284 424 3487 3289 874 690 3290 873 
10 290 1292 381 448 3322 3132 936 944 3342 945 
10 441 1279 1375 373 2858 1795 3125 794 2818 3227 
10 1286 1367 1457 455 1880 1563 1879 3380 3406 3349 
10 356 419 1421 2357 1050 3312 3458 3464 3481 3488 
10 1372 306 1308 2352 3429 3159 2073 3094 3431 3430 
10 1393 430 291 391 3432 952 3235 3310 953 948 
10 1459 369 1318 1371 3267 3303 2126 1644 3173 1900 
10 1304 302 1427 1449 3066 2904 2047 2044 2856 2048 
10 355 293 356 1358 971 969 970 2604 3489 2399 
10 1295 1358 355 1357 1973 2604 3475 1971 1972 2698 
10 423 2348 1425 2360 2390 2389 2388 3329 3490 3193 
10 392 1466 1336 1394 3257 2130 3204 3044 1803 1962 
10 344 1312 459 310 2955 3491 625 1097 2956 1098 
10 1400 1329 194 2261 1626 1624 1622 2672 3082 2298 
10 398 2261 91 327 2671 2294 506 511 2675 510 
10 292 354 392 1294 963 964 959 3340 3259 3205 
10 69 347 2199 433 566 2590 2219 564 565 3014 
10 1435 2199 172 1349 2902 2217 1511 1514 2618 1513 
10 303 1421 1358 356 2925 2053 2606 1047 3458 2399 
10 1403 1160 142 1470 2506 1228 1579 1586 2848 1585 
10 40 401 468 1160 622 628 626 1221 2507 2807 
10 391 431 1277 275 778 3367 3318 767 777 3333 
10 404 400 1276 274 766 3217 3165 762 758 3216 
10 1376 1412 1308 374 2077 2074 2076 3345 3437 3162 
10 1420 456 1278 1458 3492 2370 1789 1793 2380 1787 
10 378 2350 1380 2359 2367 2369 2368 3017 3424 3016 
10 430 1345 343 268 3335 3233 693 685 3438 692 
10 386 1388 1282 1438 3209 1832 3277 3208 1839 1836 
10 320 460 1424 1322 1135 2657 3103 3291 2549 1943 
10 293 358 423 1295 973 974 972 3365 3124 3266 
10 1383 329 381 448 3254 686 3133 3387 1144 945 
10 30 1151 1384 382 1178 3185 3183 478 3493 3450 
10 30 382 1384 1149 478 3450 3183 1171 3399 3184 
10 1412 410 1399 274 3359 3151 1767 3292 760 3158 
10 284 365 1367 455 879 2987 3494 877 605 3406 
10 347 1435 289 1349 2901 3388 930 2619 1514 3316 
10 1455 421 453 318 3495 812 2663 3177 1131 1133 
10 1427 1376 1268 374 1668 1666 1665 2905 3345 3156 
10 1386 1323 1426 384 1884 1875 1696 2877 3062 3402 
10 377 1328 1379 1447 2948 1675 3168 3186 2144 2097 
10 267 1364 1269 2362 3047 1673 3253 3427 3426 3496 
10 1290 376 1316 1378 3483 2749 1917 1918 2752 1607 
10 1437 121 2156 435 3454 2195 3189 3128 556 3188 
10 34 1155 1457 455 1197 3347 3497 602 3348 3349 
10 1154 34 1457 455 1191 3497 3405 3407 602 3349 
10 456 1278 418 1420 2370 3067 791 3492 1789 3223 
10 320 1268 1389 387 3120 1658 3463 655 3155 3346 
10 362 1364 2350 2359 3048 3423 3433 3136 3138 3424 
10 1397 412 301 395 2823 1037 3482 3198 490 1038 
10 2155 220 1401 399 2166 1487 3498 3499 3484 2837 
10 1323 321 2346 2355 2401 2402 2377 3285 3284 3275 
10 1428 1312 1433 310 2101 2102 2103 3500 2956 3306 
10 34 1457 136 1154 3497 1559 1199 1191 3405 1198 
10 136 1457 34 1155 1559 3497 1199 1200 3347 1197 
10 179 434 76 2204 3479 587 2253 2245 3326 2252 
10 76 434 179 2207 587 3479 2253 2254 2937 2251 
10 365 33 1154 455 604 1192 2986 605 601 3407 
10 135 1457 1367 1154 1560 1563 1561 1195 3405 2665 
10 318 1412 1376 374 3111 2077 3055 1130 3437 3345 
10 355 1358 1295 293 2604 1973 3475 971 3489 3365 
10 419 1280 1421 2357 3215 1806 3312 3481 2830 3488 
10 1438 386 280 1282 3208 829 3012 1836 3277 3041 
10 1273 364 1471 1366 3385 3002 1725 1730 2943 1733 
10 1345 343 1293 430 3233 2888 1953 3335 693 3363 
10 329 1383 1450 448 3254 1947 3453 1144 3387 2392 
10 371 1165 1373 2354 2585 2564 2586 3324 3501 3325 
10 1303 1391 1397 301 2034 1510 2040 3038 3422 3482 
10 430 1321 1393 1432 3150 1770 3432 3149 1687 1955 
10 2259 193 90 458 2292 2291 2285 3417 3502 501 
10 2260 90 193 458 2289 2291 2293 3395 501 3502 
10 1331 329 1450 2358 2814 3453 2146 3383 3377 3503 
10 387 1292 320 290 3504 3334 655 939 3322 940 
10 461 317 1336 334 1125 3321 2702 639 1126 3276 
10 382 1298 296 454 3505 2944 1000 594 2616 999 
10 1453 223 2152 451 1496 2176 3351 3153 3506 3354 
10 364 1471 271 1273 3002 2747 730 3385 1725 3225 
10 289 347 433 1435 930 565 929 3388 2901 3013 
10 356 1421 1358 2357 3458 2053 2399 3464 3488 3472 
10 1316 288 376 1290 3420 915 2749 1917 3121 3483 
10 1389 1292 320 387 1942 3334 3463 3346 3504 655 
10 1375 441 373 2359 3125 794 3227 3228 2872 3229 
10 312 383 468 1314 958 633 1109 3200 2965 3214 
10 41 468 383 1161 627 633 632 1226 2800 2473 
10 1385 143 1161 1470 1589 1233 2476 1591 1584 2928 
10 1458 2351 1359 2353 2381 3280 1786 3404 3281 2913 
10 284 1345 1426 343 3362 1694 3289 874 3233 3487 
10 379 2346 273 2356 2378 3271 745 3299 3301 3410 
10 387 1389 1372 306 3346 1945 3428 1073 3160 3429 
10 1453 1369 1317 367 1503 2121 2119 3352 3079 3339 
10 389 395 123 2157 562 475 560 3255 3435 2196 
10 226 1397 1391 2157 1479 1510 1507 2183 3436 3256 
10 382 30 1151 454 478 1178 3493 594 592 2560 
10 132 1456 1384 1151 1551 1552 1477 1180 2561 3185 
10 223 1453 2151 451 1496 3336 2173 3506 3153 3337 
10 377 1311 1379 2360 3073 2095 3168 3071 3194 3169 
10 387 1372 1292 290 3428 1944 3504 939 3278 3322 
10 434 77 348 2207 586 590 589 2937 2256 2576 
10 1436 180 2207 1350 1535 2250 3117 1538 1537 2578 
10 317 1466 1336 334 3202 2130 3321 1126 3314 3276 
10 301 412 1397 1303 1037 2823 3482 3038 2716 2040 
10 1381 323 1325 2356 3139 3371 1887 3300 3391 3448 
10 1441 383 292 1294 2547 957 2811 1964 2966 3340 
10 457 316 335 1459 1124 1123 526 2741 3478 2897 
10 1378 1290 376 1469 1918 3483 2752 1611 1926 3358 
10 1389 1372 1292 387 1945 1944 1942 3346 3428 3504 
10 1428 138 139 1156 1571 158 1570 3470 1208 1213 
10 37 1156 36 426 1206 1207 56 613 3397 612 
10 237 1384 23 382 3401 1476 248 3400 3450 3418 
10 241 23 1384 382 265 1476 3445 3419 3418 3450 
10 376 314 288 1316 648 916 915 2749 2508 3420 
10 1382 1275 1419 2355 1750 1754 1755 3477 3099 2973 
10 380 417 273 2355 752 753 749 3476 3100 3274 
10 399 117 2154 385 487 2187 3163 544 542 3115 
10 220 1387 1401 2154 1491 1492 1487 2167 3113 3114 
10 1426 1286 1345 284 1874 1878 1694 3289 3286 3362 
10 273 1392 390 2356 3332 2792 755 3410 2794 2793 
10 270 1272 2348 2360 2934 3374 3375 3140 3142 3490 
10 382 1151 1384 454 3493 3185 3450 594 2560 3252 
10 321 1426 384 424 3288 3402 883 872 3290 694 
10 1381 1275 2346 2356 1749 3272 2379 3300 3409 3301 
10 267 1269 446 2362 3253 3092 676 3427 3496 3507 
10 414 241 1384 382 3416 3445 3444 497 3419 3450 
10 1450 448 2347 2358 2392 2384 2393 3503 3508 3455 
10 1426 1345 1270 268 1694 1692 1693 3460 3438 3084 
10 1402 1276 1406 400 1760 1766 1768 3384 3217 3129 
10 1274 1396 272 2361 1741 3373 2721 3343 3509 3344 
10 456 1458 1420 1318 2380 1793 3492 3510 1901 2125 
10 1373 1165 147 2354 2564 1253 1598 3325 3501 3511 
10 371 45 1165 2354 641 1246 2585 3324 3512 3501 
10 1455 278 453 421 3364 813 2663 3495 811 812 
10 376 288 467 1290 915 925 653 3483 3121 3249 
10 284 455 1367 1286 877 3406 3494 3286 3380 1880 
10 430 391 1393 1321 953 3310 3432 3150 3317 1770 
10 240 11 12 333 255 16 254 2441 491 492 
10 22 1335 21 240 1543 1544 26 262 2557 258 
10 1296 2350 294 2362 2366 2365 2364 3386 3513 2924 
10 1420 456 316 418 3492 900 3514 3223 791 1122 
10 1384 2 132 1149 1475 151 1477 3184 1170 1172 
10 1149 1 30 382 1169 49 1171 3399 477 478 
10 1291 289 1435 1349 2942 3388 1931 1932 3316 1514 
10 393 1315 1439 1395 3356 2115 2882 2658 1896 1734 
10 418 335 316 1420 967 1123 1122 3223 3222 3514 
10 193 2259 1460 458 2292 3328 1617 3502 3417 3389 
10 2260 193 1460 458 2293 1617 3480 3395 3502 3389 
10 2206 175 176 1332 2231 185 2230 2448 1522 1523 
10 72 2206 73 330 2234 2239 82 575 2446 574 
10 362 294 378 2350 978 975 982 3433 2365 2367 
10 423 270 2348 2360 717 3375 2390 3329 3140 3490 
10 423 356 293 1358 716 969 972 2387 2399 3489 
10 448 1450 329 2358 2392 3453 1144 3508 3503 3377 
10 343 268 1426 424 692 3460 3487 690 691 3290 
10 1312 1428 459 310 2101 3515 3491 2956 3500 1098 
10 74 350 73 2202 577 578 83 2242 2454 2237 
10 2202 176 177 1352 2236 186 2235 2436 1525 1526 
10 22 1416 1335 240 1547 1548 1543 262 3024 2557 
10 12 414 240 333 494 3026 254 492 496 2441 
10 91 2261 92 327 2294 2295 106 510 2675 509 
10 1329 195 194 2261 1625 209 1624 3082 2302 2298 
10 1423 421 1455 318 2950 3495 1815 3056 1131 3177 
10 45 1166 147 2354 1252 1255 1254 3512 2420 3511 
10 1165 45 147 2354 1246 1254 1253 3501 3512 3511 
10 2200 173 174 1343 2221 183 2220 2468 1516 1517 
10 70 2200 71 341 2224 2227 80 569 2588 568 
10 1275 273 2346 2356 3273 3271 3272 3409 3410 3301 
10 1416 1384 1298 414 1549 2002 1997 3027 3444 3231 
10 1275 1392 273 2356 1756 3332 3273 3409 2794 3410 
10 1364 1327 1302 2359 1672 2025 2026 3138 2871 3516 
10 300 325 362 2359 1024 671 1023 3517 3137 3136 
10 1458 1318 456 2353 1901 3510 2380 3404 3304 3403 
10 1275 1323 1381 2346 1747 1748 1749 3272 2377 2379 
10 1315 375 437 1377 2552 934 3518 1651 2556 3443 
10 2151 222 1341 1453 2174 1498 3449 3336 1497 1500 
10 119 451 2151 339 548 3337 2190 551 552 3338 
10 400 274 345 2352 758 759 757 3218 3220 3519 
10 1276 1402 1347 2352 1760 1761 1759 3219 3238 3520 
10 1272 1330 1354 2357 1709 1710 1711 3035 3064 3036 
10 1296 1364 2350 2362 1981 3423 2366 3386 3426 3513 
10 1318 316 369 1459 3473 896 3303 2126 3478 3267 
10 279 2347 448 2358 3051 2384 825 2783 3455 3508 
10 1357 355 1295 1405 2698 3475 1971 1635 2790 1968 
10 423 1358 293 1295 2387 3489 972 3266 1973 3365 
10 1302 1375 1370 2359 2031 1912 2030 3516 3228 3230 
10 300 368 373 2359 1029 909 1028 3517 3242 3229 
10 426 1156 36 322 3397 1207 612 616 2415 615 
10 1324 138 1428 1156 1572 1571 1574 2517 1208 3470 
10 1315 437 1439 1377 3518 3240 2115 1651 3443 1937 
10 1433 431 426 310 3307 1099 3521 3306 1100 1101 
10 1336 1466 392 334 2130 3257 3204 3276 3314 960 
10 1272 1425 2348 2360 1718 2389 3374 3142 3193 3490 
10 1159 344 459 39 2408 625 3466 1216 624 619 
10 141 1346 1461 1159 1581 1583 1576 1223 2528 3465 
10 294 2350 362 2362 2365 3433 978 2924 3513 3425 
10 382 1384 1298 454 3450 2002 3505 594 3252 2616 
10 2158 238 1397 395 3522 3213 3456 3457 2922 3198 
10 137 1333 136 1155 1564 1565 156 1203 2775 1200 
10 35 1155 34 331 1196 1197 54 607 2504 606 
10 2257 2155 1401 399 3523 3498 3182 2907 3499 2837 
10 356 1358 2348 2357 2399 2391 2400 3464 3472 3376 
10 1327 1443 1302 2359 2027 2028 2025 2871 2873 3516 
10 300 441 325 2359 1025 1026 1024 3517 2872 3137 
10 272 1396 394 2361 3373 3239 739 3344 3509 3524 
10 307 400 345 2352 1079 757 1080 2712 3218 3519 
10 1402 1309 1347 2352 2082 2081 1761 3238 3237 3520 
10 1317 440 1442 2358 3319 2845 2122 2932 3379 3378 
10 459 1158 1428 1461 3526 3525 3515 3468 3527 1578 
10 1367 365 284 2355 2987 879 3494 3116 3461 3283 
10 32 1152 31 366 1181 1182 51 596 2799 595 
10 1368 133 134 1152 1554 153 1553 2539 1185 1188 
10 414 1298 296 382 3231 2944 995 497 3505 1000 
10 2 1384 23 237 1475 1476 28 245 3401 248 
10 237 13 1 382 247 18 246 3400 476 477 
10 1364 362 2350 2362 3048 3433 3423 3426 3425 3513 
10 1446 1316 2349 2354 2117 3528 2969 2970 2425 2971 
10 1426 268 343 1345 3460 692 3487 1694 3438 3233 
10 403 355 1295 293 520 3475 2890 965 971 3365 
10 1455 1423 1280 278 1815 1812 1814 3364 2827 2826 
10 411 286 369 2353 895 897 532 3174 3447 3175 
10 384 1323 1426 321 3062 1875 3402 883 2401 3288 
10 76 342 75 2204 583 584 85 2252 2491 2249 
10 2204 178 179 1344 2246 188 2245 2719 1531 1532 
10 1364 1380 1296 2350 1984 1978 1981 3423 2369 2366 
10 459 1312 1346 1461 3491 2098 3467 3468 2100 1583 
10 1317 315 440 2358 2930 1119 3319 2932 2933 3379 
10 1346 1312 459 344 2098 3491 3467 2529 2955 625 
10 1281 1450 2347 2358 1826 2393 3080 2782 3503 3455 
10 455 34 1155 331 602 1197 3348 608 606 2504 
10 1333 1457 136 1155 1566 1559 1565 2775 3347 1200 
10 1460 192 1353 2259 1616 1618 1620 3328 2288 2395 
10 458 89 2259 351 502 2284 3417 505 504 2416 
10 430 391 1321 319 953 3317 3150 684 768 3323 
10 314 444 2349 2354 1114 2968 3529 2422 2972 2971 
10 1397 3 20 238 1478 24 1480 3213 243 249 
10 238 0 10 395 242 14 244 2922 473 474 
10 1276 1347 1412 2352 1759 1762 1763 3219 3520 3293 
10 274 410 345 2352 760 761 759 3220 3360 3519 
10 191 2257 9 1401 2279 2275 205 1489 3182 1488 
10 6 2257 88 399 2276 2277 102 486 2907 485 
10 284 380 321 2355 870 748 871 3283 3476 3284 
10 1286 1323 1382 2355 1872 1751 1873 3287 3285 3477 
10 323 301 389 2356 1032 1030 1031 3391 3039 3392 
10 1303 1325 1391 2356 2032 2033 2034 2795 3448 3393 
10 278 1455 1423 421 3364 1815 2827 811 3495 2950 
10 94 355 93 2263 515 516 108 2305 2633 2304 
10 2263 197 1357 196 2312 1631 2697 2308 211 1630 
10 431 1433 426 322 3307 3521 1099 1137 3309 616 
10 1420 335 316 1318 3222 1123 3514 2125 3530 3473 
10 316 456 1420 1318 900 3492 3514 3473 3510 2125 
10 149 1167 1378 148 1263 2753 1604 168 1260 1605 
10 46 376 47 1167 646 647 66 1257 2751 1256 
10 1343 2200 173 1435 2468 2221 1516 1518 3261 1512 
10 433 2200 70 341 3262 2224 563 570 2588 569 
10 1372 1347 1281 2352 1824 1822 1823 3094 3520 3081 
10 279 345 370 2352 822 820 821 2734 3519 3052 
10 147 1165 1373 146 1253 2564 1598 166 1250 1599 
10 44 371 45 1165 640 641 64 1247 2585 1246 
10 1318 1459 335 316 2126 2897 3530 3473 3478 1123 
10 328 278 419 2357 809 804 808 3063 2828 3481 
10 1330 1421 1280 2357 1811 1806 1810 3064 3488 2830 
10 323 379 405 2356 884 751 1033 3391 3299 3411 
10 1325 1407 1381 2356 2036 1752 1887 3448 3408 3300 
10 1439 1315 393 437 2115 3356 2882 3240 3518 732 
10 2198 5 8 2270 2212 236 2211 3531 2272 2273 
10 4 2205 7 1150 2208 2209 171 1174 3532 1173 
10 335 1318 1420 1337 3530 2125 3222 3366 2124 1970 
10 459 426 1428 1158 620 3471 3515 3526 3486 3525 
10 375 437 313 1315 934 1113 535 2552 3518 2758 
10 1359 1361 1288 2353 1904 1905 1903 2913 2661 3446 
10 286 359 357 2353 901 902 903 3447 2739 2914 
10 3 1397 2158 238 1478 3456 2159 243 3213 3522 
10 0 238 2158 395 242 3522 2160 473 2922 3457 
10 1413 1371 2267 201 1647 3269 3412 1645 1643 2332 
10 369 98 411 2267 527 531 532 3087 2325 3331 
10 1428 1156 139 426 3470 1213 1570 3471 3397 3485 
10 139 1158 1428 426 1215 3525 1570 3485 3486 3471 
10 335 1459 1318 1337 2897 2126 3530 3366 1641 2124 
10 1401 2257 9 2155 3182 2275 1488 3498 3523 2164 
10 2155 2257 6 399 3523 2276 2163 3499 2907 486 
10 273 379 321 2346 745 746 747 3271 2378 2402 
10 334 43 42 1163 635 62 634 2731 1236 1237 
10 144 1163 145 1336 1240 1243 164 1593 2701 1592 
10 316 456 1318 2353 900 3510 3473 3474 3403 3304 
10 284 1286 1367 2355 3286 1880 3494 3283 3287 3116 
10 203 2268 202 1377 2342 2337 217 1649 2555 1648 
10 100 375 99 2268 533 534 114 2335 2553 2334 
10 314 2349 1316 2354 3529 3528 2508 2422 2971 2425 
10 417 380 311 2355 752 1102 1105 3100 3476 2974 
10 1419 1313 1382 2355 2108 2105 1755 2973 2975 3477 
10 76 434 342 2204 587 588 583 2252 3326 2491 
10 179 1436 2204 1344 1534 3327 2245 1532 1536 2719 
10 1446 2349 1396 2361 2969 3533 2116 3296 3451 3509 
10 223 1453 2152 1369 1496 3351 2176 1502 1503 3441 
10 367 2152 120 451 3353 2193 553 555 3354 549 
10 362 378 300 2359 982 1027 1023 3136 3017 3517 
10 1364 1302 1380 2359 2026 2029 1984 3138 3516 3016 
10 1324 426 1433 322 3396 3521 2139 2518 616 3309 
10 1150 471 2205 1473 2759 2990 3532 2689 2526 2991 
10 1433 426 1428 310 3521 3471 2103 3306 1101 3500 
10 286 316 369 2353 898 896 897 3447 3474 3175 
10 1318 1288 1371 2353 1898 1899 1900 3304 3446 3176 
10 414 1384 1298 382 3444 2002 3231 497 3450 3505 
10 1161 143 142 1470 1233 162 1230 2928 1584 1585 
10 40 468 41 1161 626 627 60 1227 2800 1226 
10 2270 2198 470 1472 3531 3023 2695 2777 3022 2592 
10 1407 1325 1303 2356 2036 2032 2035 3408 3448 2795 
10 323 405 301 2356 1033 1034 1032 3391 3411 3039 
10 1308 1412 1347 2352 2074 1762 2072 3430 3293 3520 
10 345 410 306 2352 761 1072 1071 3519 3360 3431 
10 444 394 2349 2361 1115 3534 2968 3298 3524 3451 
10 1416 23 1384 241 1546 1476 1549 3415 265 3445 
10 414 13 241 382 495 259 3416 497 476 3419 
10 2259 90 89 458 2285 104 2284 3417 501 502 
10 193 192 1460 2259 207 1616 1617 2292 2288 3328 
10 459 1428 1312 1461 3515 2101 3491 3468 1578 2100 
10 368 378 272 2361 742 733 743 3243 3019 3344 
10 1274 1380 1370 2361 1737 1745 1744 3343 3018 3244 
10 307 345 452 2352 1080 823 1078 2712 3519 2713 
10 1454 1347 1309 2352 1825 2081 2080 2711 3520 3237 
10 369 97 98 2267 528 112 527 3087 2324 2325 
10 2267 1371 200 201 3269 1642 2328 2332 1643 215 
10 394 1396 2349 2361 3239 3533 3534 3524 3509 3451 
10 38 1158 37 426 1211 1212 57 617 3486 613 
10 140 1428 139 1158 1575 1570 159 1218 3525 1215 
10 1330 1272 1358 2357 1709 1712 1713 3064 3035 3472 
10 356 270 328 2357 711 709 710 3464 3037 3063 
10 393 313 437 1315 892 1113 732 3356 2758 3518 
10 368 444 287 2361 911 912 910 3243 3298 3297 
10 1289 1446 1370 2361 1913 1914 1911 3462 3296 3244 
10 368 300 378 2359 1029 1027 742 3242 3517 3017 
10 1380 1302 1370 2359 2029 2030 1745 3016 3516 3230 
10 31 1151 30 454 1177 1178 50 593 2560 592 
10 133 1456 132 1151 1550 1551 152 1183 2561 1180 
10 140 38 1461 1158 1219 3535 1577 1218 1211 3527 
10 38 140 1461 1159 1219 1577 3535 1217 1220 3465 
10 96 335 95 2265 521 522 110 2315 2864 2314 
10 198 199 2265 1337 213 2322 2318 1636 1637 2964 
10 1428 1433 1324 426 2103 2139 1574 3471 3521 3396 
10 1382 1313 1367 2355 2105 2104 1881 3477 2975 3116 
10 380 365 311 2355 878 1103 1102 3476 3461 2974 
10 444 409 287 2354 914 913 912 2972 2421 3311 
10 1446 1289 1411 2354 1913 1915 1916 2970 3452 2426 
10 134 135 1452 1153 154 1556 1557 1190 1193 2735 
10 33 1153 32 450 1186 1187 52 599 2736 598 
10 1281 1347 1454 2352 1822 1825 1818 3081 3520 2711 
10 452 345 279 2352 823 822 816 2713 3519 2734 
10 346 294 362 2362 979 978 677 2900 2924 3425 
10 1364 1296 1348 2362 1981 1980 1680 3426 3386 3536 
10 1400 194 193 2260 1622 208 1621 3146 2297 2293 
10 90 2260 91 398 2289 2290 105 507 3147 506 
10 416 309 377 2360 1093 1094 859 3421 3192 3071 
10 1418 1379 1311 2360 1861 2095 2096 3355 3169 3194 
10 459 38 1159 39 618 1217 3466 619 58 1216 
10 140 141 1461 1159 160 1576 1577 1220 1223 3465 
10 2199 70 69 433 2222 79 2219 3014 563 564 
10 173 2199 172 1435 2216 2217 182 1512 2902 1511 
10 1159 1461 38 459 3465 3535 1217 3466 3468 618 
10 1158 38 1461 459 1211 3535 3527 3526 618 3468 
10 362 267 346 2362 670 678 677 3425 3427 2900 
10 1348 1269 1364 2362 1679 1673 1680 3536 3496 3426 
10 23 1416 22 241 1546 1547 27 265 3415 263 
10 13 241 12 414 259 260 17 495 3416 494 
10 118 2154 117 385 2186 2187 125 543 3115 542 
10 1387 220 221 2154 1491 228 1490 3113 2167 2168 
10 198 197 1405 2264 212 1633 1634 2317 2313 2465 
10 95 403 94 2264 518 519 109 2310 2490 2309 
10 1411 1289 1373 2354 1915 1908 1603 2426 3452 3325 
10 371 287 409 2354 904 913 645 3324 3311 2421 
10 191 1431 192 2258 1613 1614 206 2283 2404 2287 
10 2258 89 88 429 2281 103 2280 2405 498 499 
10 2207 179 180 1436 2251 189 2250 3117 1534 1535 
10 77 434 76 2207 586 587 86 2256 2937 2254 
10 273 390 405 2356 755 754 750 3410 2793 3411 
10 1275 1407 1392 2356 1753 1757 1756 3409 3408 2794 
10 1443 1375 1302 2359 1796 2031 2028 2873 3228 3516 
10 300 373 441 2359 1028 794 1025 3517 3229 2872 
10 1428 459 310 426 3515 1098 3500 3471 620 1101 
10 267 446 346 2362 676 679 678 3427 3507 2900 
10 1400 193 1460 2260 1621 1617 1623 3146 2293 3480 
10 398 90 2260 458 507 2289 3147 508 501 3395 
10 276 456 357 2351 784 785 783 2372 2374 3279 
10 2152 224 223 1369 2177 231 2176 3441 1501 1502 
10 2152 120 121 367 2193 128 2192 3353 553 554 
10 226 2158 3 1397 2162 2159 234 1479 3456 1478 
10 0 2158 123 395 2160 2161 131 473 3457 475 
10 1425 1358 1272 2348 1719 1712 1718 2389 2391 3374 
10 316 286 456 2353 898 899 900 3474 3447 3403 
10 1318 1458 1288 2353 1901 1902 1898 3304 3404 3446 
10 239 10 11 412 251 15 250 2484 488 489 
10 21 1414 20 239 1540 1541 25 257 2483 253 
10 1372 1281 1450 2347 1823 1826 1827 2386 3080 2393 
10 201 2271 1413 202 2333 2630 1645 216 2338 1646 
10 99 411 98 2271 530 531 113 2330 2627 2329 
10 1278 1359 1458 2351 1783 1786 1787 2373 3280 2381 
10 1296 1465 1348 2362 1982 1983 1980 3386 2923 3536 
10 463 294 346 2362 981 979 980 2899 2924 2900 
10 142 141 1160 1403 161 1225 1228 1579 1580 2506 
10 39 401 40 1160 621 622 59 1222 2507 1221 
10 42 41 439 1162 61 629 630 1231 1232 2646 
10 1441 144 1162 143 1587 1238 2548 1588 163 1235 
10 306 370 345 2352 1070 820 1071 3431 3052 3519 
10 1308 1347 1372 2352 2072 1824 2073 3430 3520 3094 
10 1407 1303 1392 2356 2035 2038 1757 3408 2795 2794 
10 405 390 301 2356 754 1035 1034 3411 2793 3039 
10 75 408 74 2203 580 581 84 2247 2431 2244 
10 2203 177 178 1410 2241 187 2240 2432 1528 1529 
10 279 370 448 2347 821 824 825 3051 2385 2384 
10 1450 1281 1467 2358 1826 1821 1828 3503 2782 3075 
10 465 279 448 2358 818 825 826 3074 2783 3508 
10 423 270 356 2348 717 711 716 2390 3375 2400 
10 356 328 419 2357 710 808 1050 3464 3063 3481 
10 1330 1358 1421 2357 1713 2053 1811 3064 3472 3488 
10 71 2201 72 407 2229 2232 81 572 2470 571 
10 2201 174 175 1409 2226 184 2225 2472 1519 1520 
10 100 2269 101 466 2339 2340 115 539 2796 538 
10 1468 203 2269 204 1653 2343 2774 1654 218 2345 
10 2155 6 117 399 2163 124 2165 3499 486 487 
10 220 1401 9 2155 1487 1488 227 2166 3498 2164 
10 140 1461 1428 1158 1577 1578 1575 1218 3527 3525 
10 426 38 1158 459 617 1211 3486 620 618 3526 
10 48 471 4 1150 481 479 68 1175 2759 1174 
10 7 150 1150 1473 170 1176 1173 1482 1483 2689 
10 1472 2270 8 204 2777 2273 1484 1486 2278 219 
10 470 101 5 2270 483 116 482 2695 2274 2272 
10 47 467 48 1168 651 652 67 1262 2637 1261 
10 150 1168 1469 149 1267 2571 1609 169 1265 1610 
10 396 92 93 2262 513 107 512 2707 2299 2300 
10 196 2262 195 1398 2307 2303 210 1628 2602 1627 
10 136 1457 135 1154 1559 1560 155 1198 3405 1195 
10 34 1154 33 455 1191 1192 53 602 3407 601 
10 444 368 394 2361 911 744 1115 3298 3243 3524 
10 1446 1396 1370 2361 2116 1746 1914 3296 3509 3244 
10 1382 1367 1286 2355 1881 1880 1873 3477 3116 3287 
10 380 284 365 2355 870 879 878 3476 3283 3461 
10 46 45 409 1166 65 643 644 1251 1252 2419 
10 1166 1411 148 147 2424 1601 1258 1255 1602 167 
10 1373 147 1411 2354 1598 1602 1603 3325 3511 2426 
10 409 45 371 2354 643 641 645 2421 3512 3324 
10 97 457 96 2266 524 525 111 2320 2742 2319 
10 2266 200 1459 199 2327 1640 2679 2323 214 1639 
10 43 461 44 1164 637 638 63 1242 2631 1241 
10 145 1164 146 1463 1245 1248 165 1596 2681 1595 
10 471 77 4 2205 480 87 479 2990 2210 2208 
10 2205 180 7 1473 2214 190 2209 2991 1481 1482 
10 456 286 357 2353 899 903 785 3403 3447 2914 
10 1288 1458 1359 2353 1902 1786 1903 3446 3404 2913 
10 172 2198 8 1472 2215 2211 181 1485 3022 1484 
10 2198 69 5 470 2213 78 2212 3023 484 482 
10 36 1157 35 372 1201 1202 55 610 2487 609 
10 1374 137 138 1157 1568 157 1567 2486 1205 1210 
10 2205 4 471 1150 2208 479 2990 3532 1174 2759 
10 7 1150 2205 1473 1173 3532 2209 1482 2689 2991 
10 2270 8 2198 1472 2273 2211 3531 2777 1484 3022 
10 470 5 2198 2270 482 2212 3023 2695 2272 3531 
10 1418 1311 1425 2360 2096 2093 1720 3355 3194 3193 
10 416 423 309 2360 718 1090 1093 3421 3329 3192 
10 444 314 409 2354 1114 650 914 2972 2422 2421 
10 1316 1446 1411 2354 2117 1916 1608 2425 2970 2426 
10 394 368 272 2361 744 743 739 3524 3243 3344 
10 1274 1370 1396 2361 1744 1746 1741 3343 3244 3509 
10 423 416 270 2360 718 714 717 3329 3421 3140 
10 1272 1418 1425 2360 1717 1720 1718 3142 3355 3193 
10 226 1391 225 2157 1507 1508 233 2183 3256 2182 
10 122 389 123 2157 559 560 130 2197 3255 2196 
10 1166 45 409 2354 1252 643 2419 2420 3512 2421 
10 1411 147 1166 2354 1602 1255 2424 2426 3511 2420 
10 120 2151 119 451 2191 2190 127 549 3337 548 
10 222 2151 223 1453 2174 2173 230 1497 3336 1496 
10 2257 6 9 2155 2276 235 2275 3523 2163 2164 
10 1450 1467 1331 2358 1828 2148 2146 3503 3075 3383 
10 448 329 465 2358 1144 1146 826 3508 3377 3074 
10 2158 0 3 238 2160 29 2159 3522 242 243 
10 221 2153 222 1417 2171 2170 229 1494 2572 1493 
10 2153 118 119 415 2188 126 2189 2575 545 546 
10 1331 1467 1442 2358 2148 2123 2147 3383 3075 3378 
10 329 440 465 2358 1145 1121 1146 3377 3379 3074 
10 2156 225 224 1437 2180 232 2179 3189 1504 1505 
10 2156 121 122 435 2195 129 2194 3188 556 557 
10 237 1 2 1149 246 19 245 3398 1169 1170 
10 1316 1396 1446 2349 1920 2116 2117 3528 3533 2969 
10 314 444 394 2349 1114 1115 917 3529 2968 3534 
10 1442 1467 1317 2358 2123 2120 2122 3378 3075 2932 
10 440 315 465 2358 1119 1118 1121 3379 2933 3074 
10 1359 1278 276 2351 1783 2371 2612 3280 2373 2372 
10 357 1359 276 2351 2786 2612 783 3279 3280 2372 
10 1316 288 2349 314 3420 3537 3528 2508 916 3529 
10 1316 2349 288 1396 3528 3537 3420 1920 3533 3166 
10 394 2349 288 314 3534 3537 918 917 3529 916 
10 394 288 2349 1396 918 3537 3534 3239 3166 3533 
10 1354 270 328 352 2762 709 2789 2760 707 708 
10 270 1354 328 2357 2762 2789 709 3037 3036 3063 
10 1288 1371 411 1413 1899 3172 3212 1897 1647 2629 
10 1371 1288 411 2353 1899 3212 3172 3176 3446 3174 
10 1395 2353 1315 1288 2660 3538 1896 1895 3446 1894 
10 411 2353 1315 286 3174 3538 2628 895 3447 3357 
10 411 1315 2353 1288 2628 3538 3174 3212 1894 3446 
10 393 1315 2353 286 3356 3538 2662 893 3357 3447 
10 1315 393 2353 1395 3356 2662 3538 1896 2658 2660 
10 1348 463 1465 1390 3539 2525 1983 1987 2568 2142 
10 463 1348 1465 2362 3539 1983 2525 2899 3536 2923 
10 463 1348 388 1390 3539 2852 1141 2568 1987 2855 
10 1348 463 388 2362 3539 1141 2852 3536 2899 2898 
10 446 295 2362 1348 987 3540 3507 2722 2853 3536 
10 446 2362 295 346 3507 3540 987 679 2900 986 
10 388 2362 295 1348 2898 3540 984 2852 3536 2853 
10 388 295 2362 346 984 3540 2898 985 986 2900 
10 1348 1269 446 1448 1679 3092 2722 1681 1677 2654 
10 1269 1348 446 2362 1679 2722 3092 3496 3536 3507 
10 2361 373 287 368 3541 908 3297 3243 909 910 
10 373 2361 287 1370 3541 3297 908 3226 3244 3251 
10 373 2361 2359 368 3541 3020 3229 909 3243 3242 
10 2361 373 2359 1370 3541 3229 3020 3244 3226 3230 
10 416 270 1340 338 714 2763 3144 715 713 2927 
10 416 1340 270 2360 3144 2763 714 3421 3141 3140 
10 2360 1340 282 416 3141 3028 3070 3421 3144 854 
10 385 2154 1417 118 3115 3542 2687 543 2186 2573 
10 2153 2154 1417 221 2172 3542 2572 2171 2168 1494 
10 2153 1417 2154 118 2572 3542 2172 2188 2573 2186 
10 2157 389 2156 122 3255 3090 2184 2197 559 2194 
10 2157 2156 389 225 2184 3090 3255 2182 2180 3091 
10 2157 395 2158 226 3435 3457 2185 2183 3434 2162 
10 2157 2158 395 123 2185 3457 3435 2196 2161 475 
10 2156 1437 2152 121 3189 3440 2181 2195 3454 2192 
10 2156 2152 1437 224 2181 3440 3189 2179 2177 1505 
10 2152 451 2151 120 3354 3337 2178 2193 549 2191 
10 2152 2151 451 223 2178 3337 3354 2176 2173 3506 
10 2155 399 2154 220 3499 3163 2169 2166 3484 2167 
10 2155 2154 399 117 2169 3163 3499 2165 2187 487 
10 339 1417 2151 119 2645 3543 3338 551 2581 2190 
10 2153 2151 1417 119 2175 3543 2572 2189 2190 2581 
10 2153 1417 2151 222 2572 3543 2175 2170 1493 2174 
10 421 1304 2357 328 3201 3544 2951 810 3065 3063 
10 1354 2357 1304 328 3036 3544 2042 2789 3063 3065 
10 1354 1304 2357 1330 2042 3544 3036 1710 2041 3064 
10 1284 1340 2360 1418 1853 3141 3072 1856 1716 3355 
10 1284 2360 1340 282 3072 3141 1853 3068 3070 3028 
10 1423 1304 2357 421 2043 3544 2829 2950 3201 2951 
10 1423 2357 1304 1330 2829 3544 2043 1813 3064 2041 
10 1417 1387 2154 385 1495 3113 3542 2687 2844 3115 
10 1417 2154 1387 221 3542 3113 1495 1494 2168 1490 
10 2151 1341 1417 339 3449 1499 3543 3338 2825 2645 
10 2151 1417 1341 222 3543 1499 3449 2174 1493 1498 

CELL_TYPES 1750
24
24
24
24
24
24
24
24
24
24
24
24
24
24
24
24
24
24
24
24
24
24
24
24
24
24
24
24
24
24
24
24
24
24
24
24
24
24
24
24
24
24
24
24
24
24
24
24
24
24
24
24
24
24
24
24
24
24
24
24
24
24
24
24
24
24
24
24
24
24
24
24
24
24
24
24
24
24
24
24
24
24
24
24
24
24
24
24
24
24
24
24
24
24
24
24
24
24
24
24
24
24
24
24
24
24
24
24
24
24
24
24
24
24
24
24
24
24
24
24
24
24
24
24
24
24
24
24
24
24
24
24
24
24
24
24
24
24
24
24
24
24
24
24
24
24
24
24
24
24
24
24
24
24
24
24
24
24
24
24
24
24
24
24
24
24
24
24
24
24
24
24
24
24
24
24
24
24
24
24
24
24
24
24
24
24
24
24
24
24
24
24
24
24
24
24
24
24
24
24
24
24
24
24
24
24
24
24
24
24
24
24
24
24
24
24
24
24
24
24
24
24
24
24
24
24
24
24
24
24
24
24
24
24
24
24
24
24
24
24
24
24
24
24
24
24
24
24
24
24
24
24
24
24
24
24
24
24
24
24
24
24
24
24
24
24
24
24
24
24
24
24
24
24
24
24
24
24
24
24
24
24
24
24
24
24
24
24
24
24
24
24
24
24
24
24
24
24
24
24
24
24
24
24
24
24
24
24
24
24
24
24
24
24
24
24
24
24
24
24
24
24
24
24
24
24
24
24
24
24
24
24
24
24
24
24
24
24
24
24
24
24
24
24
24
24
24
24
24
24
24
24
24
24
24
24
24
24
24
24
24
24
24
24
24
24
24
24
24
24
24
24
24
24
24
24
24
24
24
24
24
24
24
24
24
24
24
24
24
24
24
24
24
24
24
24
24
24
24
24
24
24
24
24
24
24
24
24
24
24
24
24
24
24
24
24
24
24
24
24
24
24
24
24
24
24
24
24
24
24
24
24
24
24
24
24
24
24
24
24
24
24
24
24
24
24
24
24
24
24
24
24
24
24
24
24
24
24
24
24
24
24
24
24
24
24
24
24
24
24
24
24
24
24
24
24
24
24
24
24
24
24
24
24
24
24
24
24
24
24
24
24
24
24
24
24
24
24
24
24
24
24
24
24
24
24
24
24
24
24
24
24
24
24
24
24
24
24
24
24
24
24
24
24
24
24
24
24
24
24
24
24
24
24
24
24
24
24
24
24
24
24
24
24
24
24
24
24
24
24
24
24
24
24
24
24
24
24
24
24
24
24
24
24
24
24
24
24
24
24
24
24
24
24
24
24
24
24
24
24
24
24
24
24
24
24
24
24
24
24
24
24
24
24
24
24
24
24
24
24
24
24
24
24
24
24
24
24
24
24
24
24
24
24
24
24
24
24
24
24
24
24
24
24
24
24
24
24
24
24
24
24
24
24
24
24
24
24
24
24
24
24
24
24
24
24
24
24
24
24
24
24
24
24
24
24
24
24
24
24
24
24
24
24
24
24
24
24
24
24
24
24
24
24
24
24
24
24
24
24
24
24
24
24
24
24
24
24
24
24
24
24
24
24
24
24
24
24
24
24
24
24
24
24
24
24
24
24
24
24
24
24
24
24
24
24
24
24
24
24
24
24
24
24
24
24
24
24
24
24
24
24
24
24
24
24
24
24
24
24
24
24
24
24
24
24
24
24
24
24
24
24
24
24
24
24
24
24
24
24
24
24
24
24
24
24
24
24
24
24
24
24
24
24
24
24
24
24
24
24
24
24
24
24
24
24
24
24
24
24
24
24
24
24
24
24
24
24
24
24
24
24
24
24
24
24
24
24
24
24
24
24
24
24
24
24
24
24
24
24
24
24
24
24
24
24
24
24
24
24
24
24
24
24
24
24
24
24
24
24
24
24
24
24
24
24
24
24
24
24
24
24
24
24
24
24
24
24
24
24
24
24
24
24
24
24
24
24
24
24
24
24
24
24
24
24
24
24
24
24
24
24
24
24
24
24
24
24
24
24
24
24
24
24
24
24
24
24
24
24
24
24
24
24
24
24
24
24
24
24
24
24
24
24
24
24
24
24
24
24
24
24
24
24
24
24
24
24
24
24
24
24
24
24
24
24
24
24
24
24
24
24
24
24
24
24
24
24
24
24
24
24
24
24
24
24
24
24
24
24
24
24
24
24
24
24
24
24
24
24
24
24
24
24
24
24
24
24
24
24
24
24
24
24
24
24
24
24
24
24
24
24
24
24
24
24
24
24
24
24
24
24
24
24
24
24
24
24
24
24
24
24
24
24
24
24
24
24
24
24
24
24
24
24
24
24
24
24
24
24
24
24
24
24
24
24
24
24
24
24
24
24
24
24
24
24
24
24
24
24
24
24
24
24
24
24
24
24
24
24
24
24
24
24
24
24
24
24
24
24
24
24
24
24
24
24
24
24
24
24
24
24
24
24
24
24
24
24
24
24
24
24
24
24
24
24
24
24
24
24
24
24
24
24
24
24
24
24
24
24
24
24
24
24
24
24
24
24
24
24
24
24
24
24
24
24
24
24
24
24
24
24
24
24
24
24
24
24
24
24
24
24
24
24
24
24
24
24
24
24
24
24
24
24
24
24
24
24
24
24
24
24
24
24
24
24
24
24
24
24
24
24
24
24
24
24
24
24
24
24
24
24
24
24
24
24
24
24
24
24
24
24
24
24
24
24
24
24
24
24
24
24
24
24
24
24
24
24
24
24
24
24
24
24
24
24
24
24
24
24
24
24
24
24
24
24
24
24
24
24
24
24
24
24
24
24
24
24
24
24
24
24
24
24
24
24
24
24
24
24
24
24
24
24
24
24
24
24
24
24
24
24
24
24
24
24
24
24
24
24
24
24
24
24
24
24
24
24
24
24
24
24
24
24
24
24
24
24
24
24
24
24
24
24
24
24
24
24
24
24
24
24
24
24
24
24
24
24
24
24
24
24
24
24
24
24
24
24
24
24
24
24
24
24
24
24
24
24
24
24
24
24
24
24
24
24
24
24
24
24
24
24
24
24
24
24
24
24
24
24
24
24
24
24
24
24
24
24
24
24
24
24
24
24
24
24
24
24
24
24
24
24
24
24
24
24
24
24
24
24
24
24
24
24
24
24
24
24
24
24
24
24
24
24
24
24
24
24
24
24
24
24
24
24
24
24
24
24
24
24
24
24
24
24
24
24
24
24
24
24
24
24
24
24
24
24
24
24
24
24
24
24
24
24
24
24
24
24
24
24
24
24
24
24
24
24
24
24
24
24
24
24
24
24
24
24
24
24
24
24
24
24
24
24
24
24
24
24
24
24
24
24
24
24
24
24
24
24
24
24
24
24
24
24
24
24
24
24
24
24
24
24
24
24
24
24
24
24
24
24
24
24
24
24
24
24
24
24
24
24
24
24
24
24
24
24
24
24
24
24
24
24
24
24
24
24
24
24
24
24
24
24
24
24
24
24
24
24
24
24
24
24
24
24
24
24
24
24
24
24
24
24
24
24
24
24
24
24
24
24
24
24
24
24
24
24
24
24
24
24
24
24
24
24
24
24
24
24
24
24
24
24
24
24
24
24
24
24
24
24
24
24
24
24
24
24
24
24
24
24
24
24
24
24
24
24
24
24
24
24
24
24
24
24
24
24
24
24
24
24
24
24
24
24
24
24
24
24
24
24
24
24
24
24
24
24
24
24
24
24
24
24
24
24
24
24
24
24
24
24
24
24
24
24
24
24
24
24
24
24
24
24
24
24
24
24
24
24
24
24
24
24
24
24
24
24
24
24
24
24
24
24
24
24
24
24
24
24
24
24
24
24
24
24
24
24
24
24
24
24
24
24
24
24
24
24
24
24
24
24
24
24
24
24
24
24
24
24
24
24
24
24
24
24
24
24
24
24
24
24
24
24
24
24
24
24
24
24
24
24
24
24
24
24
24
24
24
24
24
24

POINT_DATA 3545
FIELD FieldData 24
Displacement 3 3545 double
0 -3.15148e-05 -2.1655e-05 0 -5.41969e-05 -3.35865e-07 0 -5.34493e-05 0 
0 -2.50962e-05 0 8.46509e-05 -2.51147e-06 -7.08354e-07 9.10694e-05 0 -1.01769e-06 
7.24691e-05 0 1.38015e-06 8.46554e-05 -2.50717e-06 0 9.10349e-05 0 0 
7.21585e-05 0 0 0 -4.47606e-05 -1.57936e-05 0 -5.11084e-05 -9.68005e-06 
0 -5.27972e-05 -4.26575e-06 0 -5.34848e-05 -1.71229e-06 0 -3.90129e-05 -1.85976e-05 
0 -4.85973e-05 -1.28014e-05 0 -5.22755e-05 -6.67134e-06 0 -5.32017e-05 -2.77997e-06 
0 -5.38426e-05 -1.0036e-06 0 -5.36187e-05 -1.43128e-07 0 -4.19348e-05 0 
0 -4.89191e-05 0 0 -5.12788e-05 0 0 -5.25744e-05 0 
0 -3.54112e-05 0 0 -4.62098e-05 0 0 -5.03286e-05 0 
0 -5.20381e-05 0 0 -5.30781e-05 0 0 -2.72548e-05 -1.19717e-05 
1.54833e-06 -5.19071e-05 -4.8797e-07 4.18182e-06 -4.56949e-05 -9.02496e-07 8.71592e-06 -3.69262e-05 -2.13529e-06 
1.69296e-05 -2.79307e-05 -3.87128e-06 2.58212e-05 -2.11711e-05 -3.08885e-06 3.31463e-05 -1.62834e-05 -2.35486e-06 
3.93863e-05 -1.2535e-05 -1.85816e-06 4.47509e-05 -9.9056e-06 -1.5234e-06 4.95812e-05 -7.99019e-06 -1.40118e-06 
5.41266e-05 -6.60596e-06 -1.31806e-06 5.83669e-05 -5.67554e-06 -1.22086e-06 6.22697e-05 -5.0849e-06 -1.12072e-06 
6.58422e-05 -4.72775e-06 -1.02556e-06 6.91139e-05 -4.50942e-06 -9.38135e-07 7.21104e-05 -4.34448e-06 -8.62683e-07 
7.4876e-05 -4.16706e-06 -7.98299e-07 7.74544e-05 -3.91491e-06 -7.51775e-07 7.99035e-05 -3.55745e-06 -7.20978e-07 
8.22785e-05 -3.07299e-06 -7.10691e-07 7.01927e-07 -5.3575e-05 -3.78923e-07 2.66824e-06 -4.91963e-05 -6.74089e-07 
6.15205e-06 -4.15591e-05 -1.31708e-06 1.24925e-05 -3.23131e-05 -3.36738e-06 2.14913e-05 -2.4256e-05 -3.62549e-06 
2.96317e-05 -1.85659e-05 -2.6759e-06 3.63625e-05 -1.42752e-05 -2.1034e-06 4.21413e-05 -1.11263e-05 -1.65607e-06 
4.72114e-05 -8.87403e-06 -1.44292e-06 5.18894e-05 -7.23454e-06 -1.36155e-06 5.62875e-05 -6.09039e-06 -1.2703e-06 
6.03592e-05 -5.34405e-06 -1.17068e-06 6.4095e-05 -4.88414e-06 -1.07216e-06 6.75128e-05 -4.6063e-06 -9.80304e-07 
7.06435e-05 -4.42321e-06 -8.98699e-07 7.35191e-05 -4.26009e-06 -8.28934e-07 7.6185e-05 -4.05323e-06 -7.72493e-07 
7.86916e-05 -3.75173e-06 -7.33854e-07 8.10947e-05 -3.32989e-06 -7.13445e-07 8.34622e-05 -2.79557e-06 -7.09598e-07 
9.09408e-05 2.88141e-07 -1.00891e-06 9.05682e-05 5.21332e-07 -9.849e-07 8.99803e-05 6.48968e-07 -9.46753e-07 
8.92291e-05 6.37289e-07 -9.00262e-07 8.83735e-05 4.55287e-07 -8.48111e-07 8.7481e-05 9.87192e-08 -7.9595e-07 
8.66264e-05 -4.24e-07 -7.52044e-07 8.58629e-05 -1.0698e-06 -7.21545e-07 8.52182e-05 -1.78772e-06 -7.1059e-07 
9.10362e-05 1.47177e-07 -1.01534e-06 9.07836e-05 4.13797e-07 -9.99101e-07 9.02976e-05 6.00115e-07 -9.67415e-07 
8.96219e-05 6.62706e-07 -9.24993e-07 8.88094e-05 5.67104e-07 -8.74894e-07 8.7927e-05 2.97496e-07 -8.21652e-07 
8.70454e-05 -1.43917e-07 -7.72148e-07 8.62314e-05 -7.3426e-07 -7.34689e-07 8.55262e-05 -1.42436e-06 -7.13751e-07 
8.49312e-05 -2.15237e-06 -7.09533e-07 7.31467e-05 0 7.81423e-07 7.33093e-05 0 3.64445e-07 
7.3484e-05 0 6.42308e-08 7.38623e-05 0 -1.52813e-07 7.44758e-05 0 -3.16369e-07 
7.53477e-05 0 -4.42221e-07 7.6451e-05 0 -5.41594e-07 7.77741e-05 0 -6.19668e-07 
7.92936e-05 0 -6.84413e-07 8.09884e-05 0 -7.40297e-07 8.28328e-05 0 -7.90831e-07 
8.47995e-05 0 -8.40375e-07 8.68568e-05 0 -8.91754e-07 8.8965e-05 0 -9.49758e-07 
7.29193e-05 0 1.05728e-06 7.32364e-05 0 5.54023e-07 7.33726e-05 0 1.99881e-07 
7.36416e-05 0 -5.30244e-08 7.41373e-05 0 -2.41249e-07 7.48818e-05 0 -3.84472e-07 
7.587e-05 0 -4.95485e-07 7.70864e-05 0 -5.82859e-07 7.85104e-05 0 -6.5411e-07 
8.01208e-05 0 -7.13432e-07 8.18934e-05 0 -7.65959e-07 8.38026e-05 0 -8.15541e-07 
8.58191e-05 0 -8.65456e-07 8.7907e-05 0 -9.19887e-07 9.00214e-05 0 -9.82929e-07 
7.16436e-05 -4.51348e-06 1.25635e-06 6.92911e-05 -9.15481e-06 9.9469e-07 6.54083e-05 -1.4162e-05 5.38945e-07 
6.02243e-05 -1.96572e-05 -2.79414e-08 5.37757e-05 -2.56649e-05 -6.59367e-07 4.62784e-05 -3.18132e-05 -1.45535e-06 
3.00634e-05 -3.2642e-05 -9.82754e-06 7.2239e-05 -2.24255e-06 1.34146e-06 7.06317e-05 -6.80174e-06 1.14697e-06 
6.75241e-05 -1.15994e-05 7.87696e-07 6.29641e-05 -1.68354e-05 2.77736e-07 5.71043e-05 -2.25969e-05 -3.48866e-07 
5.02182e-05 -2.87611e-05 -9.11724e-07 3.99241e-05 -3.29304e-05 -4.1423e-06 1.59664e-05 -3.14193e-05 -1.72601e-05 
1.43063e-06 -5.12157e-05 0 3.926e-06 -4.51233e-05 0 8.18432e-06 -3.67864e-05 0 
1.68932e-05 -2.8709e-05 0 2.61467e-05 -2.15953e-05 0 3.33847e-05 -1.65504e-05 0 
3.95638e-05 -1.26986e-05 0 4.48192e-05 -9.99878e-06 0 4.96195e-05 -8.06186e-06 0 
5.41669e-05 -6.6696e-06 0 5.84088e-05 -5.72576e-06 0 6.23106e-05 -5.12117e-06 0 
6.58814e-05 -4.75052e-06 0 6.91483e-05 -4.51986e-06 0 7.21409e-05 -4.34545e-06 0 
7.49e-05 -4.15983e-06 0 7.74727e-05 -3.90262e-06 0 7.9914e-05 -3.54426e-06 0 
8.22848e-05 -3.06402e-06 0 6.44145e-07 -5.28642e-05 0 2.49955e-06 -4.85782e-05 0 
5.76701e-06 -4.11063e-05 0 1.20141e-05 -3.27609e-05 0 2.17812e-05 -2.48861e-05 0 
2.99208e-05 -1.88919e-05 0 3.65742e-05 -1.4496e-05 0 4.22589e-05 -1.12507e-05 0 
4.72546e-05 -8.9528e-06 0 5.19274e-05 -7.30331e-06 0 5.63292e-05 -6.14748e-06 0 
6.04013e-05 -5.38773e-06 0 6.41359e-05 -4.91363e-06 0 6.75504e-05 -4.62265e-06 0 
7.06759e-05 -4.42933e-06 0 7.35466e-05 -4.25689e-06 0 7.62062e-05 -4.04258e-06 0 
7.8706e-05 -3.7383e-06 0 8.11026e-05 -3.31748e-06 0 8.34673e-05 -2.78971e-06 0 
8.46533e-05 -2.50918e-06 -3.52931e-07 9.09084e-05 2.94695e-07 0 9.05394e-05 5.3333e-07 0 
8.99586e-05 6.66156e-07 0 8.92148e-05 6.57331e-07 0 8.83679e-05 4.76192e-07 0 
8.74843e-05 1.17946e-07 0 8.66363e-05 -4.07968e-07 0 8.58757e-05 -1.05932e-06 0 
8.52276e-05 -1.78138e-06 0 9.10021e-05 1.50689e-07 0 9.07519e-05 4.23492e-07 0 
9.02722e-05 6.15205e-07 0 8.96031e-05 6.8208e-07 0 8.8799e-05 5.88167e-07 0 
8.7926e-05 3.18604e-07 0 8.70529e-05 -1.25661e-07 0 8.62432e-05 -7.20804e-07 0 
8.55381e-05 -1.4164e-06 0 8.49371e-05 -2.14737e-06 0 7.2909e-05 0 0 
7.31323e-05 0 0 7.33563e-05 0 0 7.37685e-05 0 0 
7.44026e-05 0 0 7.52933e-05 0 0 7.64064e-05 0 0 
7.77394e-05 0 0 7.92633e-05 0 0 8.09624e-05 0 0 
8.28083e-05 0 0 8.47743e-05 0 0 8.68294e-05 0 0 
8.89345e-05 0 0 7.26419e-05 0 0 7.30321e-05 0 0 
7.32223e-05 0 0 7.35325e-05 0 0 7.40554e-05 0 0 
7.48187e-05 0 0 7.58208e-05 0 0 7.7047e-05 0 0 
7.84784e-05 0 0 8.0093e-05 0 0 8.18684e-05 0 0 
8.3778e-05 0 0 8.57933e-05 0 0 8.78783e-05 0 0 
8.99884e-05 0 0 7.13769e-05 -4.63741e-06 0 6.90838e-05 -9.37335e-06 0 
6.53793e-05 -1.44524e-05 0 6.02773e-05 -1.9909e-05 0 5.39699e-05 -2.59027e-05 0 
4.68273e-05 -3.22486e-05 0 3.55567e-05 -3.31046e-05 0 7.19393e-05 -2.31247e-06 0 
7.03989e-05 -6.9762e-06 0 6.73951e-05 -1.18753e-05 0 6.29589e-05 -1.71304e-05 0 
5.72337e-05 -2.28296e-05 0 5.04973e-05 -2.89972e-05 0 4.26988e-05 -3.42265e-05 0 
2.1403e-05 -2.86963e-05 0 7.22018e-05 0 6.85302e-07 9.10424e-05 0 -5.08748e-07 
0 -5.32863e-05 -4.91061e-07 0 -3.65619e-05 -1.0746e-05 0 -4.67706e-05 -7.11029e-06 
0 -5.06689e-05 -3.36695e-06 0 -5.23114e-05 -1.44539e-06 0 -3.39049e-05 -1.62512e-05 
0 -3.09309e-05 -5.69147e-06 0 -4.09479e-05 -1.39204e-05 0 -5.3342e-05 -1.61859e-07 
0 -5.37351e-05 -4.89112e-07 0 -5.33237e-05 -1.00446e-06 0 -5.2897e-05 -3.28248e-07 
0 -3.95178e-05 -5.25799e-06 0 -4.89032e-05 -8.85603e-06 0 -4.57624e-05 -1.16046e-05 
0 -4.28254e-05 -9.19355e-06 0 -4.45073e-05 -3.99119e-06 0 -5.16951e-05 -4.00104e-06 
0 -5.07281e-05 -6.30032e-06 0 -4.92661e-05 -4.84048e-06 0 -4.78766e-05 -2.91704e-06 
0 -4.97415e-05 -2.03934e-06 0 -5.28872e-05 -1.65379e-06 0 -5.23968e-05 -2.63509e-06 
0 -5.15843e-05 -2.22391e-06 0 -5.09148e-05 -1.43014e-06 0 -5.17533e-05 -9.10258e-07 
0 -5.28243e-05 -8.67653e-07 0 -5.23888e-05 -5.77711e-07 6.24901e-05 -2.48446e-06 -6.41204e-07 
7.58404e-05 -8.30139e-07 -7.86459e-07 4.58608e-05 -1.23534e-05 -1.00077e-06 6.5663e-05 -1.97287e-06 -8.78291e-07 
7.248e-05 -2.03538e-07 -6.1316e-07 8.32568e-05 -3.24332e-07 -8.26433e-07 7.93719e-05 -1.77878e-06 -8.01986e-07 
2.96017e-05 -2.97686e-05 -1.94209e-06 6.82679e-05 -2.2916e-06 -4.96913e-08 5.13513e-05 -6.56512e-06 -1.06998e-06 
7.78857e-05 -1.43799e-07 -7.11704e-07 7.10573e-05 -2.33478e-06 -8.70539e-07 7.17841e-05 -2.91021e-07 -3.46423e-07 
5.87579e-05 -8.02491e-06 -3.17657e-07 8.35417e-05 -6.83744e-07 -8.24712e-07 5.75678e-05 -4.14786e-06 -1.05803e-06 
7.12974e-05 -7.99138e-07 -7.61424e-07 6.7039e-05 -1.1029e-06 -7.12218e-07 3.31403e-05 -1.99682e-05 -1.54948e-06 
4.34005e-05 -2.13022e-05 -9.07729e-07 8.1571e-05 -1.39927e-07 -7.76221e-07 7.47263e-05 -2.88084e-06 -8.29117e-07 
8.12116e-05 -2.31955e-06 -7.57912e-07 8.72695e-05 1.21491e-08 -9.01656e-07 5.56144e-05 -6.13804e-06 -7.14455e-07 
4.1552e-05 -1.20006e-05 -1.37324e-06 6.51417e-05 -3.19913e-06 -9.77661e-07 7.61181e-05 1.93792e-08 -6.00264e-07 
7.92989e-05 -1.0637e-06 -8.08435e-07 7.9488e-05 -4.21244e-07 -7.7844e-07 1.09363e-05 -4.60205e-05 -2.84748e-06 
6.11567e-05 -2.65449e-06 -8.53786e-07 8.62427e-05 -1.25854e-07 -8.70383e-07 8.34483e-05 -1.11679e-06 -7.91129e-07 
7.54929e-05 -1.7608e-06 -8.23445e-07 2.52396e-05 -3.82656e-05 -4.8053e-06 6.82891e-05 -8.26106e-07 -5.33123e-07 
7.44456e-05 2.50756e-08 -4.711e-07 7.20416e-05 -6.13296e-07 -5.45959e-08 7.15224e-05 -2.00466e-06 4.08864e-07 
6.2888e-05 -3.48465e-06 -3.99713e-07 6.61187e-05 -5.82895e-06 2.13983e-07 7.04555e-05 -1.49778e-06 -8.35074e-07 
7.48698e-05 -2.1785e-07 -6.8724e-07 5.098e-05 -6.68518e-06 -1.22445e-06 2.18768e-05 -3.13721e-05 -2.42516e-06 
6.08481e-05 -3.92582e-06 -1.0653e-06 8.43408e-05 -9.36362e-08 -8.33518e-07 7.80393e-05 -2.92889e-06 -7.81846e-07 
5.41118e-05 -1.46319e-05 -4.21242e-07 7.96126e-05 -4.82593e-08 -7.13373e-07 7.15425e-05 -3.2231e-06 -8.76676e-07 
6.85424e-05 -1.20782e-06 -3.05764e-07 4.90804e-05 -8.666e-06 -1.01127e-06 5.74981e-05 -4.25333e-06 -8.02125e-07 
3.72623e-05 -2.16197e-05 -1.13813e-06 4.43419e-05 -9.89506e-06 -1.34479e-06 3.88163e-05 -2.86506e-05 -1.17228e-06 
8.2341e-05 -5.59248e-07 -8.20844e-07 7.34881e-05 -1.42499e-06 -8.21334e-07 7.66196e-05 -4.51083e-07 -7.52483e-07 
7.35909e-05 -7.72257e-08 -2.71489e-07 7.15855e-05 -2.29628e-07 -5.06877e-07 5.0161e-05 -1.19936e-05 -7.37598e-07 
8.64581e-05 -1.26324e-07 -8.55662e-07 3.4406e-05 -1.63859e-05 -1.97657e-06 5.56617e-05 -4.59546e-06 -9.98544e-07 
1.07368e-05 -4.76158e-05 -5.24227e-06 6.81411e-05 -3.6343e-06 -9.44152e-07 7.82657e-05 -3.1371e-10 -6.5605e-07 
6.79808e-05 -1.17695e-06 -7.82205e-07 6.1689e-05 -2.7655e-06 -9.35284e-07 7.02749e-05 -5.97481e-07 -6.93353e-07 
6.11352e-05 -1.02925e-05 -5.00335e-09 8.10227e-05 -1.18273e-06 -8.09349e-07 8.81405e-05 1.49697e-07 -9.16236e-07 
8.39525e-05 -1.32937e-06 -7.60042e-07 4.02178e-05 -1.44401e-05 -1.29942e-06 5.45508e-05 -5.50657e-06 -1.18956e-06 
6.38587e-05 -4.60263e-06 -1.60047e-07 7.86219e-05 -7.5043e-07 -7.94762e-07 8.86981e-05 8.86506e-08 -9.404e-07 
8.28374e-05 -2.31928e-06 -7.30072e-07 7.297e-05 -9.90483e-07 -7.92632e-07 8.54008e-05 -4.83655e-07 -8.15632e-07 
7.25352e-05 -8.32162e-07 2.24702e-07 6.97459e-05 -5.32087e-07 -6.13307e-07 6.34202e-05 -2.83664e-06 -9.64505e-07 
6.71172e-05 -2.22677e-06 -9.01317e-07 7.57869e-05 3.88197e-08 -5.24074e-07 7.41835e-05 -8.07613e-09 -5.48141e-07 
7.96768e-05 -2.22859e-07 -7.55539e-07 7.61428e-05 -8.02311e-08 -6.63527e-07 8.14683e-05 -2.94772e-07 -7.93787e-07 
6.4047e-05 -1.79672e-06 -7.21395e-07 6.46127e-05 -1.78277e-06 -8.17239e-07 7.66866e-05 -1.21428e-06 -8.08151e-07 
8.14001e-05 -1.73081e-06 -7.83808e-07 8.55091e-05 -1.59064e-07 -8.62818e-07 2.49296e-05 -2.47806e-05 -2.49507e-06 
1.24894e-05 -4.04726e-05 -2.08365e-06 5.19557e-05 -1.93016e-05 -5.46828e-07 7.67734e-05 -2.17198e-06 -8.14608e-07 
8.14452e-05 -4.15629e-08 -7.57261e-07 5.93895e-05 -5.48912e-06 -4.65604e-07 7.3458e-05 -3.65043e-06 -8.39863e-07 
3.89161e-05 -1.29617e-05 -1.72606e-06 7.32729e-05 -2.4323e-06 -8.48483e-07 6.56497e-05 -1.78171e-06 -4.66728e-07 
8.61972e-05 -2.9226e-08 -8.75536e-07 7.98354e-05 -2.96293e-06 -7.51098e-07 7.44421e-05 -4.95851e-07 -7.40341e-07 
7.82071e-05 -1.52409e-06 -8.10571e-07 3.65389e-05 -2.6052e-05 -1.1682e-06 3.00042e-05 -2.57698e-05 -1.61595e-06 
5.13094e-05 -9.25919e-06 -7.9712e-07 4.4248e-06 -5.13596e-05 -1.69586e-06 6.26124e-05 -4.11518e-06 -1.0617e-06 
4.43207e-05 -1.6358e-05 -9.35564e-07 6.99386e-05 -4.7411e-06 6.48775e-07 8.41498e-05 -4.43696e-07 -8.38823e-07 
6.00231e-05 -3.86001e-06 -6.11477e-07 8.09213e-05 -5.13459e-07 -8.0244e-07 3.66287e-05 -3.38817e-05 -2.64911e-06 
2.12312e-05 -3.84507e-05 -3.55699e-06 4.66744e-05 -9.10541e-06 -1.18016e-06 6.82931e-05 -2.79114e-06 -9.18506e-07 
8.31857e-05 -1.95817e-07 -8.1677e-07 7.90779e-05 -2.27392e-06 -7.89975e-07 2.05535e-05 -4.01676e-05 -1.13411e-05 
7.45191e-05 1.52015e-08 -3.86803e-07 6.9631e-05 -1.28781e-06 -1.41061e-07 7.33437e-05 -1.72931e-07 -1.08321e-07 
7.24464e-05 -2.02854e-06 8.32888e-07 6.88702e-05 -3.24158e-06 2.12518e-07 5.72233e-05 -5.16519e-06 -1.18335e-06 
6.03171e-05 -2.9924e-06 -7.82373e-07 7.69623e-05 2.32356e-08 -5.87646e-07 7.06707e-05 -1.56595e-06 9.84866e-08 
3.12307e-05 -3.1287e-05 -1.98841e-06 6.87224e-05 -1.4172e-06 -8.27476e-07 8.8046e-05 2.09558e-07 -8.98596e-07 
8.5395e-05 -6.70876e-07 -7.8245e-07 7.60352e-05 -3.49389e-06 -7.95133e-07 6.64508e-05 -2.24238e-06 -2.64566e-07 
8.30564e-05 -5.36493e-08 -7.98873e-07 1.17994e-05 -4.63026e-05 -1.01997e-05 8.29696e-05 -9.96252e-07 -8.07955e-07 
5.51134e-06 -5.09519e-05 -3.31747e-06 6.64514e-05 -8.64809e-06 4.83865e-07 7.28332e-05 -3.25015e-07 -6.80524e-07 
2.06144e-05 -3.59426e-05 -2.82206e-06 7.78152e-05 -4.27358e-08 -6.76264e-07 7.31121e-05 -6.62221e-08 -4.28937e-07 
6.03662e-05 -3.49603e-06 -1.02169e-06 6.9539e-05 -6.95709e-07 -4.02823e-07 5.35787e-05 -6.05101e-06 -9.05775e-07 
7.45123e-05 -7.50216e-08 -6.22772e-07 4.08277e-05 -1.64262e-05 -1.12682e-06 6.55049e-05 -1.4881e-06 -6.03975e-07 
4.70131e-05 -8.56115e-06 -1.35052e-06 7.24228e-05 -3.11465e-07 -2.0789e-07 7.03031e-05 -2.01286e-06 -8.65866e-07 
7.28716e-05 -9.32936e-07 5.19693e-07 4.43807e-05 -1.12087e-05 -1.18164e-06 4.90656e-05 -7.48725e-06 -1.21035e-06 
8.1578e-05 -1.38319e-06 -7.99057e-07 8.90486e-05 2.03425e-07 -9.45986e-07 8.39088e-05 -1.6975e-06 -7.37558e-07 
4.62231e-05 -2.63481e-05 -9.05333e-07 8.17662e-05 -7.92051e-07 -8.17162e-07 8.50671e-05 -1.25264e-07 -8.52922e-07 
5.83364e-05 -3.64218e-06 -9.70181e-07 6.48278e-05 -4.11538e-06 -1.02416e-06 4.9362e-05 -1.56219e-05 -6.87078e-07 
7.28743e-05 -1.95462e-06 -8.44334e-07 5.38957e-05 -5.34658e-06 -1.10346e-06 7.80544e-05 -3.12229e-07 -7.4739e-07 
7.68949e-05 -2.75175e-06 -8.02789e-07 7.65268e-05 -2.42152e-07 -7.16233e-07 7.77933e-05 -5.70808e-07 -7.75806e-07 
6.72771e-05 -1e-06 -6.31584e-07 5.52459e-05 -8.44532e-06 -5.62078e-07 5.79466e-05 -4.41324e-06 -1.10752e-06 
1.69754e-05 -3.19633e-05 -2.7582e-06 5.86539e-05 -1.49206e-05 -9.22522e-08 6.25383e-05 -6.94236e-06 -6.4365e-08 
7.06682e-05 -6.55187e-07 -2.60784e-07 6.58179e-06 -4.78195e-05 -1.45155e-06 2.75452e-05 -2.09596e-05 -2.63986e-06 
7.93213e-05 -1.14569e-07 -7.2722e-07 8.00298e-05 -1.75776e-08 -7.13622e-07 7.31199e-05 -3.26932e-07 6.80463e-08 
5.09266e-05 -6.98819e-06 -1.29257e-06 5.52074e-05 -4.92439e-06 -9.35336e-07 7.08333e-05 -3.88714e-06 -8.91997e-07 
7.09606e-05 -1.12186e-06 -8.01477e-07 8.04714e-05 -7.47517e-07 -8.08087e-07 7.02932e-05 -2.87215e-06 -8.92668e-07 
5.47715e-05 -1.12364e-05 -4.61334e-07 8.76527e-05 1.32082e-08 -9.12535e-07 8.11669e-05 -2.95414e-06 -7.29816e-07 
6.00001e-05 -4.73088e-06 -1.13341e-06 8.43555e-05 -3.22616e-07 -8.43889e-07 8.98716e-05 9.37751e-08 -9.77268e-07 
8.36448e-05 -2.43183e-06 -7.15913e-07 5.80578e-05 -3.71172e-06 -8.94083e-07 1.21314e-05 -3.69337e-05 -1.70681e-05 
9.71995e-06 -4.28105e-05 -1.49772e-05 2.51029e-05 -3.65126e-05 -1.08298e-05 2.21465e-06 -5.29598e-05 -1.69441e-06 
1.51332e-06 -5.3354e-05 -1.00092e-06 3.21186e-06 -5.16965e-05 -1.08002e-06 8.41485e-05 -2.47097e-06 -7.11471e-07 
8.44293e-05 -2.11319e-06 -7.13437e-07 8.29586e-05 -2.75462e-06 -7.13627e-07 9.04827e-05 6.282e-08 -9.97423e-07 
8.94285e-05 3.68458e-08 -9.63997e-07 9.04136e-05 1.75182e-07 -9.93358e-07 7.29492e-05 -9.34873e-07 8.22329e-07 
7.26979e-05 -1.37678e-06 1.09973e-06 7.21152e-05 -3.00333e-06 1.05124e-06 6.44924e-06 -4.6275e-05 -1.34336e-05 
5.27543e-06 -4.92783e-05 -1.02609e-05 1.54638e-05 -4.35621e-05 -1.10161e-05 6.05906e-06 -5.02515e-05 -7.403e-06 
4.63294e-06 -5.14001e-05 -5.28361e-06 1.14603e-05 -4.7265e-05 -7.5076e-06 2.91808e-06 -5.234e-05 -3.8624e-06 
2.27204e-06 -5.27897e-05 -2.49109e-06 7.70367e-06 -4.95058e-05 -4.2868e-06 4.9894e-06 -5.12211e-05 -2.44616e-06 
7.31805e-05 -3.91344e-07 4.45778e-07 7.31025e-05 -5.58423e-07 6.50465e-07 7.26856e-05 -1.38532e-06 6.70051e-07 
7.33853e-05 -1.55455e-07 6.95187e-08 7.32734e-05 -2.39784e-07 2.0783e-07 7.27141e-05 -9.05179e-07 3.65161e-07 
7.31091e-05 -4.50979e-07 3.03858e-07 7.28478e-05 -5.38217e-07 1.44969e-07 7.36901e-05 -6.97479e-08 -1.28052e-07 
7.3486e-05 -1.19767e-07 -2.21967e-08 7.32157e-05 -2.44782e-07 -2.42356e-08 7.41723e-05 -1.55264e-08 -2.87907e-07 
7.38469e-05 -5.02056e-08 -2.08008e-07 7.3446e-05 -1.25368e-07 -1.92967e-07 7.49997e-05 1.48397e-08 -4.13649e-07 
7.45641e-05 3.17452e-09 -3.50552e-07 7.40452e-05 -1.8506e-08 -3.30343e-07 7.61914e-05 2.18834e-08 -5.30547e-07 
7.56217e-05 2.35807e-08 -4.82551e-07 7.51047e-05 3.371e-08 -4.59296e-07 7.73973e-05 1.0076e-08 -6.03378e-07 
7.67328e-05 1.48982e-08 -5.63932e-07 7.63666e-05 3.19202e-08 -5.56804e-07 7.88205e-05 -2.41155e-09 -6.69288e-07 
7.80584e-05 5.6514e-09 -6.37164e-07 7.75915e-05 1.38343e-08 -6.22807e-07 8.05194e-05 -1.08555e-08 -7.26667e-07 
7.96717e-05 -6.24801e-09 -6.99123e-07 7.91347e-05 -1.15825e-08 -6.85079e-07 8.21555e-05 -2.26061e-08 -7.73637e-07 
8.12386e-05 -1.87852e-08 -7.48636e-07 8.07249e-05 -2.93151e-08 -7.35823e-07 8.39445e-05 -2.54415e-08 -8.19234e-07 
8.29689e-05 -2.60591e-08 -7.94883e-07 8.22387e-05 -4.88629e-08 -7.78355e-07 8.65583e-05 -9.61493e-09 -8.8402e-07 
8.55237e-05 -2.19759e-08 -8.58036e-07 8.52709e-05 -6.15254e-08 -8.54404e-07 8.46398e-05 -4.1623e-08 -8.37086e-07 
8.37021e-05 -7.6028e-08 -8.1664e-07 8.83204e-05 1.67075e-08 -9.31082e-07 8.72656e-05 1.83253e-09 -9.0243e-07 
8.69272e-05 -5.38008e-09 -8.93538e-07 8.87618e-05 4.92827e-08 -9.43355e-07 7.10303e-05 -4.80928e-06 9.42356e-07 
6.9592e-05 -6.59121e-06 8.12527e-07 7.14269e-05 -3.3885e-06 7.55584e-07 6.79905e-05 -8.92963e-06 7.26385e-07 
6.58747e-05 -1.1132e-05 5.32679e-07 6.83585e-05 -6.5893e-06 5.87881e-07 6.22224e-05 -1.45253e-05 1.97008e-07 
5.92822e-05 -1.70988e-05 -5.08003e-08 6.39393e-05 -9.50732e-06 2.35503e-07 6.31321e-05 -1.18971e-05 2.55009e-07 
5.99117e-05 -1.24706e-05 -3.24323e-08 5.59249e-05 -1.92811e-05 -3.17459e-07 5.25977e-05 -2.22928e-05 -5.74974e-07 
5.54464e-05 -1.7094e-05 -3.27505e-07 4.9873e-05 -2.59065e-05 -7.99793e-07 4.62637e-05 -2.91287e-05 -1.03324e-06 
4.92335e-05 -2.2794e-05 -7.17121e-07 4.13292e-05 -3.27784e-05 -2.04346e-06 3.47692e-05 -3.48565e-05 -5.46347e-06 
4.194e-05 -3.01863e-05 -1.3305e-06 2.99829e-05 -3.70296e-05 -6.15846e-06 8.98121e-05 3.39931e-07 -9.65725e-07 
9.00199e-05 2.68897e-07 -9.76822e-07 8.88892e-05 1.40509e-07 -9.44303e-07 8.98245e-05 1.74325e-07 -9.73546e-07 
8.92942e-05 1.00211e-07 -9.58398e-07 8.90647e-05 3.5422e-07 -9.3286e-07 8.93708e-05 3.32023e-07 -9.48458e-07 
8.86124e-05 1.87652e-07 -9.30849e-07 8.86388e-05 3.96837e-07 -9.00183e-07 8.90242e-05 4.25877e-07 -9.22178e-07 
8.81104e-05 1.82452e-07 -9.08238e-07 8.74121e-05 1.13241e-07 -8.53653e-07 8.78538e-05 2.18213e-07 -8.75488e-07 
8.72682e-05 5.74339e-08 -8.76225e-07 8.64365e-05 -2.37497e-07 -8.08024e-07 8.68965e-05 -5.2526e-08 -8.28834e-07 
8.5934e-05 -2.82699e-07 -8.35398e-07 8.60039e-05 -5.56121e-07 -7.67444e-07 8.64403e-05 -3.04584e-07 -7.88151e-07 
8.53904e-05 -5.69241e-07 -7.99809e-07 8.48987e-05 -1.21248e-06 -7.41906e-07 8.52914e-05 -9.0882e-07 -7.55587e-07 
8.46664e-05 -9.92654e-07 -7.70568e-07 8.45524e-05 -1.73805e-06 -7.2191e-07 8.48851e-05 -1.39817e-06 -7.29382e-07 
8.39186e-05 -1.50723e-06 -7.48741e-07 8.33655e-05 -2.00671e-06 -7.33558e-07 8.40295e-05 -2.06266e-06 -7.20241e-07 
8.32394e-05 -2.37648e-06 -7.22759e-07 3.80757e-06 -5.00987e-05 -9.88382e-07 5.63783e-06 -4.68079e-05 -1.16039e-06 
5.62746e-06 -4.97911e-05 -1.56028e-06 8.19652e-06 -4.33642e-05 -1.49918e-06 1.08759e-05 -3.87711e-05 -1.91644e-06 
9.26019e-06 -4.44656e-05 -1.73231e-06 1.27536e-05 -3.45967e-05 -2.51126e-06 1.67147e-05 -2.9666e-05 -3.28812e-06 
1.46611e-05 -3.62977e-05 -2.30205e-06 2.25704e-05 -2.41263e-05 -3.28599e-06 2.6632e-05 -2.10326e-05 -2.88071e-06 
2.10904e-05 -2.8149e-05 -2.74353e-06 2.09364e-05 -2.6198e-05 -3.18946e-06 2.61363e-05 -2.27115e-05 -2.61537e-06 
3.03946e-05 -1.85566e-05 -2.46907e-06 3.36767e-05 -1.62531e-05 -2.19603e-06 3.11701e-05 -1.85157e-05 -2.27142e-06 
3.61802e-05 -1.45096e-05 -2.03471e-06 3.90911e-05 -1.27099e-05 -1.80119e-06 3.66843e-05 -1.45519e-05 -1.85795e-06 
4.34425e-05 -1.03563e-05 -1.52208e-06 4.58791e-05 -9.20428e-06 -1.43153e-06 4.17618e-05 -1.13145e-05 -1.49765e-06 
4.1938e-05 -1.11194e-05 -1.56001e-06 4.56541e-05 -9.17214e-06 -1.34611e-06 4.82117e-05 -8.22318e-06 -1.37494e-06 
5.02185e-05 -7.48242e-06 -1.34746e-06 5.24412e-05 -6.742e-06 -1.31026e-06 4.89905e-05 -7.71604e-06 -1.31899e-06 
5.56773e-05 -5.85453e-06 -1.24989e-06 5.77223e-05 -5.41004e-06 -1.20524e-06 5.58599e-05 -5.3002e-06 -1.18833e-06 
5.41918e-05 -6.04105e-06 -1.25525e-06 5.2767e-05 -6.21067e-06 -1.24059e-06 5.91625e-05 -5.19089e-06 -1.17642e-06 
6.10839e-05 -4.89589e-06 -1.13082e-06 5.86246e-05 -4.92428e-06 -1.1592e-06 6.3541e-05 -4.57831e-06 -1.06911e-06 
6.52887e-05 -4.42178e-06 -1.02569e-06 6.3723e-05 -4.10596e-06 -1.04325e-06 6.23602e-05 -4.59328e-06 -1.09166e-06 
6.13261e-05 -4.40516e-06 -1.09669e-06 6.69425e-05 -4.15939e-06 -9.81698e-07 6.8546e-05 -4.07255e-06 -9.44614e-07 
6.65175e-05 -3.85478e-06 -9.8231e-07 6.99613e-05 -4.18976e-06 -9.14027e-07 7.14534e-05 -4.12008e-06 -8.78859e-07 
6.949e-05 -3.76002e-06 -9.19651e-07 7.27555e-05 -3.99208e-06 -8.50316e-07 7.41474e-05 -3.917e-06 -8.21435e-07 
7.21653e-05 -3.76823e-06 -8.64819e-07 7.54283e-05 -3.82859e-06 -7.96928e-07 7.67374e-05 -3.71662e-06 -7.74597e-07 
7.47643e-05 -3.58037e-06 -8.16232e-07 7.86155e-05 -3.44327e-06 -7.50609e-07 7.98514e-05 -3.26226e-06 -7.36702e-07 
7.89423e-05 -2.95933e-06 -7.65894e-07 7.76885e-05 -3.41915e-06 -7.67765e-07 7.70325e-05 -3.21165e-06 -7.87237e-07 
8.05247e-05 -3.25831e-06 -7.25224e-07 8.1727e-05 -3.01931e-06 -7.18667e-07 8.05033e-05 -2.96583e-06 -7.40345e-07 
8.24104e-05 -2.70646e-06 -7.2165e-07 5.87039e-05 -4.04687e-06 -7.0959e-07 6.12749e-05 -3.10098e-06 -6.26173e-07 
6.00661e-05 -3.30382e-06 -7.17745e-07 6.1374e-05 -2.73096e-06 -7.13463e-07 5.89348e-05 -3.56972e-06 -7.91221e-07 
6.22399e-05 -2.3371e-06 -7.4976e-07 6.32409e-05 -2.09016e-06 -6.83707e-07 6.40456e-05 -1.94101e-06 -6.20597e-07 
6.47515e-05 -1.63363e-06 -6.63976e-07 6.29897e-05 -2.69982e-06 -5.31846e-07 6.40735e-05 -2.1169e-06 -5.54688e-07 
6.55308e-05 -1.6113e-06 -5.39574e-07 7.31998e-05 -1.20101e-06 -8.0899e-07 7.44312e-05 -9.02061e-07 -7.88132e-07 
7.46807e-05 -1.10103e-06 -8.02921e-07 7.62396e-05 -1.01918e-06 -7.99033e-07 7.51128e-05 -1.31578e-06 -8.13197e-07 
7.51034e-05 -6.5614e-07 -7.66079e-07 7.55429e-05 -4.69705e-07 -7.46051e-07 7.62307e-05 -6.24881e-07 -7.70001e-07 
7.71971e-05 -5.11371e-07 -7.64744e-07 7.68391e-05 -6.90793e-07 -7.80021e-07 7.76698e-05 -9.6315e-07 -8.0054e-07 
7.72453e-05 -7.92302e-07 -7.89187e-07 7.81988e-05 -6.61275e-07 -7.85881e-07 7.371e-05 -7.20969e-07 -7.6673e-07 
4.86213e-05 -1.07609e-05 -8.98632e-07 5.00841e-05 -8.92846e-06 -9.09503e-07 4.74576e-05 -1.033e-05 -1.00657e-06 
4.67609e-05 -9.90026e-06 -1.09462e-06 4.50213e-05 -1.17317e-05 -1.09389e-06 5.07124e-05 -1.05367e-05 -7.66773e-07 
4.79275e-05 -1.21789e-05 -8.72424e-07 4.50588e-05 -1.42211e-05 -9.67272e-07 4.72939e-05 -1.40949e-05 -8.38379e-07 
4.04726e-05 -1.5387e-05 -1.20971e-06 4.33862e-05 -1.42988e-05 -1.06536e-06 4.30191e-05 -1.34152e-05 -1.14001e-06 
4.23312e-05 -1.2747e-05 -1.23756e-06 4.2519e-05 -1.6404e-05 -1.02905e-06 6.50819e-05 -1.85373e-06 -8.50746e-07 
6.63418e-05 -1.44038e-06 -7.98247e-07 6.68013e-05 -1.55124e-06 -8.30224e-07 6.83204e-05 -1.28583e-06 -8.06653e-07 
6.7227e-05 -1.66908e-06 -8.50999e-07 6.45221e-05 -2.38689e-06 -9.20671e-07 6.25121e-05 -2.77621e-06 -9.52797e-07 
6.37291e-05 -2.31678e-06 -9.04693e-07 6.31344e-05 -2.2507e-06 -8.75712e-07 6.63561e-05 -2.08533e-06 -8.9225e-07 
6.53101e-05 -2.49779e-06 -9.3139e-07 6.78802e-05 -1.80167e-06 -8.65069e-07 7.11677e-05 -3.36187e-07 -6.11595e-07 
7.06903e-05 -3.62819e-07 -5.59816e-07 7.19907e-05 -1.99368e-07 -5.63723e-07 7.29484e-05 -8.40786e-08 -5.25233e-07 
7.33931e-05 -8.40175e-08 -5.78798e-07 6.99768e-05 -5.50863e-07 -6.55503e-07 7.14165e-05 -3.74526e-07 -6.52007e-07 
7.26346e-05 -2.55949e-07 -6.48432e-07 7.15967e-05 -4.39693e-07 -6.85222e-07 7.43312e-05 -3.37606e-08 -5.87158e-07 
7.35312e-05 -1.24761e-07 -6.16772e-07 7.37175e-05 -1.78801e-07 -6.50147e-07 8.16244e-05 -5.44386e-07 -8.12137e-07 
8.21075e-05 -4.18481e-07 -8.13264e-07 8.28191e-05 -4.30694e-07 -8.23848e-07 8.38031e-05 -3.30608e-07 -8.35681e-07 
8.33612e-05 -4.40052e-07 -8.31298e-07 8.12146e-05 -3.94887e-07 -7.98572e-07 8.23522e-05 -3.19813e-07 -8.10825e-07 
8.2342e-05 -2.44492e-07 -8.04607e-07 8.32374e-05 -2.55748e-07 -8.22178e-07 8.4202e-05 -2.12988e-07 -8.38967e-07 
8.52998e-05 -1.44271e-07 -8.58523e-07 8.43855e-05 -2.50343e-07 -8.44018e-07 8.49456e-05 -2.34497e-07 -8.53169e-07 
8.41237e-05 -1.6561e-07 -8.34417e-07 7.87776e-05 -1.65829e-06 -8.07506e-07 7.96288e-05 -1.36207e-06 -8.09117e-07 
8.01912e-05 -1.46453e-06 -8.05074e-07 8.12914e-05 -1.28507e-06 -8.04934e-07 8.0483e-05 -1.58643e-06 -7.99623e-07 
8.02449e-05 -2.00686e-06 -7.86185e-07 7.92075e-05 -2.01944e-06 -7.96483e-07 8.03863e-05 -1.77334e-06 -7.93328e-07 
8.14792e-05 -1.55178e-06 -7.91689e-07 7.74753e-05 -1.83182e-06 -8.12746e-07 7.80853e-05 -1.97989e-06 -8.0673e-07 
7.79252e-05 -2.24187e-06 -8.03079e-07 3.32019e-05 -2.77222e-05 -1.46737e-06 3.68612e-05 -2.37938e-05 -1.13557e-06 
3.37857e-05 -2.54196e-05 -1.31543e-06 3.37997e-05 -2.35664e-05 -1.29196e-06 2.98435e-05 -2.77695e-05 -1.73546e-06 
3.03458e-05 -3.04982e-05 -1.95537e-06 3.41633e-05 -2.85421e-05 -1.44229e-06 2.57964e-05 -3.03082e-05 -2.18805e-06 
2.52782e-05 -3.25889e-05 -2.45656e-06 2.64349e-05 -3.44601e-05 -2.86869e-06 2.57998e-05 -3.37831e-05 -2.74061e-06 
2.09718e-05 -3.71907e-05 -3.0958e-06 6.6505e-05 -3.927e-06 2.72395e-08 6.85355e-05 -2.72357e-06 7.43924e-08 
6.62367e-05 -3.32842e-06 -9.3546e-08 6.73484e-05 -2.26292e-06 -1.60406e-07 6.51991e-05 -3.24986e-06 -2.11219e-07 
6.95452e-05 -1.91907e-06 2.74458e-08 7.01343e-05 -1.42394e-06 -2.73113e-08 6.89699e-05 -1.73456e-06 -9.5069e-08 
6.81409e-05 -1.72665e-06 -1.98253e-07 6.98299e-05 -2.2907e-06 1.58048e-07 4.90642e-05 -7.75568e-06 -1.1226e-06 
4.77991e-05 -8.8778e-06 -1.09961e-06 5.01494e-05 -7.49376e-06 -1.0436e-06 5.13829e-05 -7.27717e-06 -9.55732e-07 
5.23842e-05 -6.29754e-06 -9.91229e-07 5.47461e-05 -4.96654e-06 -1.0518e-06 5.25811e-05 -5.88112e-06 -1.08836e-06 
5.3558e-05 -5.49579e-06 -1.03246e-06 5.32956e-05 -5.71694e-06 -1.00163e-06 5.54001e-05 -4.74083e-06 -9.68189e-07 
5.01458e-05 -7.02315e-06 -1.14241e-06 4.78167e-05 -8.21491e-06 -1.19547e-06 5.43806e-05 -5.44308e-06 -9.21154e-07 
5.15379e-05 -6.33858e-06 -1.15516e-06 7.88865e-05 -2.63964e-07 -7.50665e-07 7.79714e-05 -2.21058e-07 -7.30095e-07 
7.87652e-05 -1.8501e-07 -7.34205e-07 7.86199e-05 -1.2772e-07 -7.18902e-07 7.95024e-05 -1.64506e-07 -7.41677e-07 
7.70139e-05 -5.63174e-08 -6.68776e-07 7.78593e-05 -8.66862e-08 -6.94063e-07 7.70004e-05 -1.10801e-07 -6.88389e-07 
7.72315e-05 -1.86887e-07 -7.13231e-07 7.63246e-05 -1.53245e-07 -6.90847e-07 7.85491e-05 -7.76728e-08 -7.02651e-07 
7.72825e-05 -2.77618e-07 -7.32271e-07 7.19714e-05 -2.13772e-06 -8.56754e-07 7.30517e-05 -2.19045e-06 -8.4727e-07 
7.21698e-05 -2.3838e-06 -8.59838e-07 7.18025e-05 -2.64345e-06 -8.68534e-07 7.06578e-05 -2.59768e-06 -8.81816e-07 
6.9279e-05 -2.3845e-06 -8.91665e-07 7.06656e-05 -2.17177e-06 -8.69093e-07 6.96942e-05 -2.54925e-06 -8.9314e-07 
6.92968e-05 -2.82821e-06 -9.05874e-07 7.16015e-05 -1.97971e-06 -8.54862e-07 7.33701e-05 -6.70615e-08 -3.51678e-07 
7.24542e-05 -1.55399e-07 -3.88602e-07 7.28285e-05 -1.59535e-07 -3.0312e-07 7.21055e-05 -2.99787e-07 -2.79006e-07 
7.30532e-05 -1.68044e-07 -2.38274e-07 7.24005e-05 -1.33727e-07 -4.66371e-07 7.16455e-05 -2.44955e-07 -4.31514e-07 
7.05638e-05 -4.11372e-07 -4.5745e-07 7.07384e-05 -4.67354e-07 -3.71939e-07 7.01011e-05 -6.71758e-07 -3.33381e-07 
7.12305e-05 -4.47909e-07 -3.04699e-07 7.16251e-05 -4.63718e-07 -2.31185e-07 6.18312e-05 -8.48024e-06 -2.75566e-08 
6.0669e-05 -7.48015e-06 -1.93268e-07 5.98306e-05 -9.03942e-06 -1.7022e-07 5.68289e-05 -9.55466e-06 -3.8428e-07 
5.79275e-05 -1.07435e-05 -2.46666e-07 6.16283e-05 -5.0425e-06 -3.17438e-07 5.90261e-05 -6.6297e-06 -3.9395e-07 
6.14447e-05 -6.17293e-06 -2.26644e-07 6.31982e-05 -5.66812e-06 -1.11506e-07 5.73874e-05 -6.86138e-06 -5.08299e-07 
5.69701e-05 -8.23104e-06 -4.4442e-07 5.49673e-05 -9.7357e-06 -5.12202e-07 8.44651e-05 -6.15875e-07 -8.22013e-07 
8.50107e-05 -4.26214e-07 -8.38463e-07 8.38512e-05 -5.54671e-07 -8.32111e-07 8.53006e-05 -3.25593e-07 -8.48007e-07 
8.32535e-05 -8.30318e-07 -8.16749e-07 8.1998e-05 -1.10542e-06 -8.08783e-07 8.22956e-05 -9.2961e-07 -8.15522e-07 
8.13929e-05 -9.75003e-07 -8.13524e-07 8.26518e-05 -7.53118e-07 -8.21361e-07 8.41912e-05 -7.61963e-07 -8.11209e-07 
8.29731e-05 -6.17643e-07 -8.26606e-07 6.09855e-05 -3.12322e-06 -9.7922e-07 5.89845e-05 -3.79047e-06 -1.03984e-06 
5.9658e-05 -3.41098e-06 -9.94091e-07 5.79017e-05 -3.88828e-06 -1.01546e-06 6.0042e-05 -3.1537e-06 -9.52077e-07 
5.4127e-05 -5.40468e-06 -1.14873e-06 5.57605e-05 -4.68586e-06 -1.08076e-06 5.60377e-05 -4.80697e-06 -1.12286e-06 
5.77175e-05 -4.27247e-06 -1.08414e-06 5.62795e-05 -4.92399e-06 -1.14743e-06 5.91568e-05 -3.9395e-06 -1.06366e-06 
5.61518e-05 -4.44417e-06 -1.0348e-06 6.91362e-05 -8.63336e-07 -7.3756e-07 7.07423e-05 -6.81845e-07 -7.30553e-07 
6.96841e-05 -9.56838e-07 -7.70226e-07 7.00284e-05 -1.08192e-06 -7.92815e-07 7.20674e-05 -5.36012e-07 -7.20921e-07 
7.2922e-05 -6.2406e-07 -7.48909e-07 7.21121e-05 -8.86977e-07 -7.78575e-07 7.19779e-05 -1.0495e-06 -7.96584e-07 
7.11144e-05 -9.54595e-07 -7.82093e-07 7.36016e-05 -3.98231e-07 -7.13314e-07 6.98618e-05 -1.25681e-06 -8.13424e-07 
6.87106e-05 -8.10051e-07 -7.01101e-07 6.74678e-05 -1.11941e-06 -7.50058e-07 6.58211e-05 -1.42372e-06 -7.64339e-07 
6.84242e-05 -7.91777e-07 -6.61076e-07 6.71332e-05 -1.04297e-06 -6.73426e-07 6.85507e-05 -7.39423e-07 -6.21073e-07 
6.42672e-05 -1.76143e-06 -7.72737e-07 6.55801e-05 -1.40527e-06 -7.15282e-07 6.57094e-05 -1.36616e-06 -6.74203e-07 
3.1622e-05 -2.27071e-05 -1.53054e-06 3.51856e-05 -2.08121e-05 -1.29513e-06 3.9069e-05 -1.89014e-05 -1.12984e-06 
3.70743e-05 -1.81829e-05 -1.30642e-06 3.67978e-05 -1.70359e-05 -1.42281e-06 3.72755e-05 -1.53102e-05 -1.60531e-06 
3.35268e-05 -1.79412e-05 -1.801e-06 3.0364e-05 -2.02837e-05 -2.06075e-06 2.75711e-05 -2.52489e-05 -1.95581e-06 
2.93647e-05 -2.21382e-05 -1.96799e-06 3.99892e-05 -2.36631e-05 -1.02514e-06 4.01638e-05 -2.14492e-05 -1.0253e-06 
4.38108e-05 -1.87172e-05 -9.16416e-07 4.0836e-05 -1.89132e-05 -1.03741e-06 3.7567e-05 -2.72987e-05 -1.17044e-06 
4.11735e-05 -2.49106e-05 -1.00901e-06 4.24392e-05 -2.74684e-05 -1.03181e-06 4.45389e-05 -2.36683e-05 -8.96137e-07 
4.75098e-05 -2.02304e-05 -7.48859e-07 5.04566e-05 -1.73019e-05 -6.13463e-07 4.64591e-05 -1.83744e-05 -7.98811e-07 
4.67562e-05 -1.59871e-05 -8.16092e-07 8.37894e-05 -1.3995e-07 -8.2496e-07 8.23673e-05 -1.71838e-07 -7.96954e-07 
8.29486e-05 -1.23908e-07 -8.04347e-07 8.23567e-05 -9.31473e-08 -7.87154e-07 8.05337e-05 -4.82216e-08 -7.35161e-07 
8.15485e-05 -8.32295e-08 -7.66655e-07 8.05675e-05 -9.25375e-08 -7.46396e-07 8.0434e-05 -1.31022e-07 -7.51965e-07 
7.94907e-05 -7.66002e-08 -7.20113e-07 8.1548e-05 -2.08874e-07 -7.85317e-07 8.0558e-05 -2.6433e-07 -7.75231e-07 
8.0655e-05 -1.78584e-07 -7.64619e-07 7.40591e-05 -3.25688e-06 -8.3462e-07 7.24881e-05 -3.44267e-06 -8.60086e-07 
7.31592e-05 -3.05084e-06 -8.5145e-07 7.23797e-05 -2.81382e-06 -8.62338e-07 7.39802e-05 -2.661e-06 -8.40025e-07 
7.5049e-05 -2.31006e-06 -8.29993e-07 7.57375e-05 -2.51374e-06 -8.21476e-07 7.68072e-05 -2.45798e-06 -8.10314e-07 
7.58207e-05 -2.82349e-06 -8.15568e-07 7.53496e-05 -3.19422e-06 -8.148e-07 7.64313e-05 -3.11605e-06 -7.99683e-07 
8.05144e-05 -2.63809e-06 -7.54613e-07 7.96416e-05 -2.64534e-06 -7.68346e-07 7.85399e-05 -2.5931e-06 -7.85995e-07 
8.01424e-05 -2.31821e-06 -7.74467e-07 8.12801e-05 -2.0154e-06 -7.7127e-07 8.26824e-05 -1.55996e-06 -7.72722e-07 
8.25782e-05 -1.8287e-06 -7.58614e-07 8.25686e-05 -2.03083e-06 -7.47632e-07 8.20224e-05 -2.331e-06 -7.43599e-07 
8.19992e-05 -2.6404e-06 -7.30076e-07 8.11673e-05 -2.63198e-06 -7.44022e-07 8.68242e-05 -2.86325e-08 -8.88524e-07 
8.64254e-05 -5.82992e-08 -8.81771e-07 8.77237e-05 6.51511e-08 -9.10273e-07 8.81589e-05 9.20099e-08 -9.23613e-07 
8.79961e-05 5.81883e-08 -9.20726e-07 8.74991e-05 1.82923e-08 -9.08076e-07 8.81814e-05 4.18089e-08 -9.26499e-07 
8.61682e-05 -6.26285e-08 -8.76559e-07 8.567e-05 -6.80313e-08 -8.64328e-07 8.67466e-05 -1.87513e-08 -8.89132e-07 
5.35174e-05 -7.58194e-06 -7.52239e-07 5.2347e-05 -7.37241e-06 -8.62809e-07 5.45103e-05 -6.07534e-06 -8.14349e-07 
5.78923e-05 -4.91175e-06 -6.59215e-07 5.65176e-05 -5.07903e-06 -7.60054e-07 5.55823e-05 -5.10118e-06 -8.51236e-07 
5.96525e-05 -4.58297e-06 -5.42554e-07 5.74592e-05 -5.81017e-06 -5.93636e-07 5.53571e-05 -7.17462e-06 -6.41336e-07 
5.32396e-05 -8.8539e-06 -6.82076e-07 4.02143e-05 -1.24427e-05 -1.53778e-06 4.29064e-05 -1.08551e-05 -1.36086e-06 
4.4153e-05 -1.05009e-05 -1.26981e-06 4.53977e-05 -9.49901e-06 -1.26827e-06 4.07838e-05 -1.31022e-05 -1.35132e-06 
3.81889e-05 -1.40125e-05 -1.64522e-06 4.28954e-05 -1.1603e-05 -1.2765e-06 4.55083e-05 -1.00836e-05 -1.18259e-06 
6.21068e-05 -3.36146e-06 -1.01375e-06 6.42335e-05 -3.00115e-06 -9.74103e-07 6.30478e-05 -3.51577e-06 -1.01953e-06 
6.38694e-05 -3.63679e-06 -1.01781e-06 6.17041e-05 -4.00933e-06 -1.0651e-06 6.67471e-05 -2.97558e-06 -9.46368e-07 
6.81541e-05 -3.20394e-06 -9.32682e-07 6.66048e-05 -3.40119e-06 -9.64355e-07 6.49101e-05 -3.64957e-06 -1.00221e-06 
6.6086e-05 -2.69384e-06 -9.39217e-07 6.76512e-05 -2.49878e-06 -9.12779e-07 7.66107e-05 2.85613e-08 -5.92225e-07 
7.72356e-05 1.31101e-08 -6.27266e-07 7.80894e-05 -1.33904e-08 -6.65028e-07 7.69356e-05 -7.60971e-09 -6.40089e-07 
7.51735e-05 1.71825e-08 -5.73889e-07 7.51159e-05 3.71256e-08 -5.3181e-07 7.59605e-05 3.77439e-08 -5.62685e-07 
7.53874e-05 -1.1342e-08 -6.09493e-07 7.61404e-05 -1.93984e-08 -6.32353e-07 7.53262e-05 -7.2629e-08 -6.43562e-07 
7.875e-05 -1.28142e-06 -8.09596e-07 8.01507e-05 -1.13769e-06 -8.09975e-07 8.05449e-05 -9.31562e-07 -8.1173e-07 
7.80049e-05 -1.14406e-06 -8.07239e-07 7.89449e-05 -9.06196e-07 -8.03431e-07 7.95453e-05 -7.56138e-07 -8.01659e-07 
7.98918e-05 -8.96542e-07 -8.07934e-07 7.74279e-05 -1.37619e-06 -8.11644e-07 8.11139e-05 -7.77334e-07 -8.13051e-07 
8.01951e-05 -4.72337e-07 -7.9098e-07 7.97957e-05 -6.26042e-07 -7.97418e-07 7.90679e-05 -5.71148e-07 -7.86745e-07 
7.86571e-05 -4.9169e-07 -7.76283e-07 8.04985e-05 -3.55755e-07 -7.85005e-07 7.95941e-05 -3.13462e-07 -7.67109e-07 
7.87591e-05 -3.691e-07 -7.63598e-07 7.79283e-05 -4.32172e-07 -7.62102e-07 1.61251e-05 -4.32226e-05 -4.3901e-06 
1.56198e-05 -4.25273e-05 -3.40049e-06 1.0988e-05 -4.68901e-05 -3.91785e-06 8.26438e-06 -4.87785e-05 -3.06163e-06 
1.56091e-05 -4.12489e-05 -2.90579e-06 1.65134e-05 -3.84254e-05 -2.50326e-06 1.20651e-05 -4.34412e-05 -2.36969e-06 
8.75292e-06 -4.71103e-05 -2.12311e-06 7.27277e-06 -4.91309e-05 -2.3144e-06 6.29287e-05 -2.16755e-06 -8.33788e-07 
6.13535e-05 -2.68669e-06 -8.98071e-07 5.97385e-05 -3.13164e-06 -9.11455e-07 6.25903e-05 -2.20694e-06 -7.87312e-07 
6.07005e-05 -2.79575e-06 -8.20196e-07 5.96407e-05 -3.13845e-06 -8.72433e-07 5.91741e-05 -3.34442e-06 -8.38389e-07 
5.8149e-05 -3.65966e-06 -9.34458e-07 8.52073e-05 -2.86081e-07 -8.53293e-07 8.63581e-05 -1.26995e-07 -8.64494e-07 
8.71445e-05 2.19789e-08 -8.84164e-07 8.58822e-05 -1.50789e-07 -8.67847e-07 8.72157e-05 2.53239e-08 -8.92157e-07 
8.52965e-05 -2.42033e-07 -8.57054e-07 8.42588e-05 -3.79883e-07 -8.4173e-07 8.24257e-05 -1.42304e-06 -7.86758e-07 
8.36866e-05 -1.22163e-06 -7.76465e-07 8.44241e-05 -9.14264e-07 -7.86987e-07 8.44262e-05 -7.92619e-07 -8.0213e-07 
8.3203e-05 -1.05832e-06 -8.00289e-07 8.25164e-05 -1.26546e-06 -7.95267e-07 8.22751e-05 -1.18622e-06 -8.03106e-07 
7.608e-05 -1.4731e-06 -8.16015e-07 7.44708e-05 -1.59668e-06 -8.24412e-07 7.41993e-05 -1.85653e-06 -8.32802e-07 
7.31631e-05 -1.68115e-06 -8.3347e-07 7.68658e-05 -1.64627e-06 -8.15834e-07 7.43776e-05 -2.08043e-06 -8.35017e-07 
7.61116e-05 -1.97124e-06 -8.20751e-07 3.11773e-05 -3.57161e-05 -3.60851e-06 3.80455e-05 -3.1276e-05 -1.5209e-06 
3.34193e-05 -3.2702e-05 -2.16366e-06 3.5183e-05 -2.9767e-05 -1.44161e-06 2.87424e-05 -3.46233e-05 -3.01178e-06 
2.31373e-05 -3.83267e-05 -4.0722e-06 1.75135e-05 -4.32369e-05 -5.57402e-06 1.90409e-05 -4.28322e-05 -7.50149e-06 
2.3756e-05 -4.00237e-05 -7.58888e-06 6.89995e-05 -6.50246e-07 -5.75321e-07 7.00411e-05 -4.72025e-07 -5.16666e-07 
6.89011e-05 -7.52788e-07 -4.69356e-07 6.77684e-05 -9.06328e-07 -5.83596e-07 6.77255e-05 -1.16032e-06 -4.28752e-07 
6.69986e-05 -1.22223e-06 -5.00441e-07 6.69458e-05 -1.12809e-06 -5.6639e-07 6.64005e-05 -1.21796e-06 -6.17579e-07 
7.4326e-05 1.58125e-08 -5.09777e-07 7.51465e-05 4.07337e-08 -4.97123e-07 7.44996e-05 2.29965e-08 -4.2948e-07 
7.36072e-05 -2.20029e-08 -4.92286e-07 7.38063e-05 -7.27246e-09 -4.49595e-07 7.39431e-05 -6.53752e-09 -4.03677e-07 
7.13968e-05 -1.00758e-06 2.11687e-08 7.17272e-05 -1.19308e-06 1.67519e-07 7.22765e-05 -7.29382e-07 7.697e-08 
7.26669e-05 -4.79182e-07 9.5987e-09 7.09627e-05 -9.17462e-07 -9.24308e-08 7.13772e-05 -6.39171e-07 -1.60233e-07 
7.01501e-05 -9.31964e-07 -2.02729e-07 7.29563e-05 -2.43928e-07 -1.55859e-07 7.22143e-05 -4.4555e-07 -1.33844e-07 
7.27864e-05 -3.51195e-07 -7.74677e-08 7.10941e-05 -1.788e-06 2.46633e-07 7.20783e-05 -1.32212e-06 3.16985e-07 
7.23197e-05 -1.47865e-06 4.72022e-07 7.20611e-05 -2.09131e-06 6.11933e-07 7.08e-05 -3.14262e-06 5.29148e-07 
7.03347e-05 -2.62491e-06 3.17841e-07 6.9389e-05 -3.921e-06 4.12655e-07 6.12043e-05 -4.41011e-06 -4.28914e-07 
6.33028e-05 -3.9887e-06 -2.8864e-07 6.47397e-05 -2.82552e-06 -3.29364e-07 6.14215e-05 -3.66438e-06 -5.08712e-07 
6.43066e-05 -2.51138e-06 -4.33012e-07 6.59917e-05 -1.98237e-06 -3.71911e-07 6.62397e-05 -7.07655e-06 3.42195e-07 
6.38036e-05 -7.90154e-06 1.23403e-07 6.43836e-05 -6.3879e-06 7.28994e-08 6.75819e-05 -4.41066e-06 2.19265e-07 
6.49326e-05 -5.15353e-06 1.17944e-08 6.8177e-05 -5.34167e-06 4.2523e-07 7.17329e-05 -1.22534e-06 -8.12458e-07 
7.199e-05 -1.45184e-06 -8.27629e-07 7.19222e-05 -1.69618e-06 -8.41552e-07 7.03513e-05 -1.74784e-06 -8.51716e-07 
7.06955e-05 -1.30358e-06 -8.18759e-07 6.95824e-05 -1.44846e-06 -8.32117e-07 6.88145e-05 -1.8331e-06 -8.66005e-07 
6.87354e-05 -2.10192e-06 -8.83158e-07 7.46728e-05 -1.3755e-07 -6.56532e-07 7.55373e-05 -1.38982e-07 -6.7453e-07 
7.56969e-05 -2.26794e-07 -7.01895e-07 7.38758e-05 -2.61043e-07 -6.8247e-07 7.46519e-05 -3.43164e-07 -7.14746e-07 
7.55295e-05 -3.51845e-07 -7.27137e-07 5.24249e-05 -6.00172e-06 -1.16396e-06 5.27788e-05 -6.03897e-06 -1.2073e-06 
5.09131e-05 -6.83189e-06 -1.25898e-06 4.79771e-05 -8.02211e-06 -1.27966e-06 5.00046e-05 -7.05634e-06 -1.21765e-06 
4.90214e-05 -7.5875e-06 -1.28473e-06 2.62008e-05 -2.83046e-05 -2.03505e-06 2.34298e-05 -2.78886e-05 -2.414e-06 
1.94603e-05 -3.17087e-05 -2.58273e-06 2.13862e-05 -3.37049e-05 -2.57629e-06 1.69702e-05 -3.60805e-05 -2.38557e-06 
6.05581e-05 -3.702e-06 -1.04557e-06 6.19207e-05 -3.13844e-06 -9.92357e-07 6.03811e-05 -4.32241e-06 -1.09974e-06 
5.75369e-05 -4.78349e-06 -1.14588e-06 5.94119e-05 -4.13962e-06 -1.08688e-06 5.906e-05 -4.50803e-06 -1.1222e-06 
8.47116e-05 -1.11505e-07 -8.43539e-07 7.74644e-05 -2.84572e-06 -7.92611e-07 7.7991e-05 -2.51472e-06 -7.95365e-07 
5.63291e-05 -1.47277e-05 -2.66773e-07 5.77756e-05 -1.24097e-05 -2.07083e-07 5.44075e-05 -1.28341e-05 -4.38492e-07 
5.16903e-05 -1.51126e-05 -5.63045e-07 5.30334e-05 -1.68763e-05 -4.73671e-07 5.21408e-05 -1.33447e-05 -5.70342e-07 
7.87296e-05 -4.60025e-08 -6.94363e-07 7.89228e-05 -2.06827e-08 -6.85396e-07 7.98474e-05 -3.12581e-08 -7.13187e-07 
7.11575e-05 -3.55012e-06 -8.84575e-07 6.98735e-05 -3.41557e-06 -9.08452e-07 6.92025e-05 -3.2393e-06 -9.1715e-07 
7.09051e-05 -3.04822e-06 -8.85851e-07 6.75372e-05 -1.66466e-06 -2.83896e-07 6.71346e-05 -1.47802e-06 -3.8548e-07 
6.9034e-05 -9.21378e-07 -3.55507e-07 6.90755e-05 -1.24544e-06 -2.25881e-07 6.96665e-05 -9.03922e-07 -2.80307e-07 
5.77246e-05 -3.94635e-06 -8.50863e-07 5.63236e-05 -4.58377e-06 -8.69656e-07 5.66579e-05 -4.27808e-06 -9.13699e-07 
4.67436e-05 -8.63656e-06 -1.27584e-06 8.20587e-05 -6.68892e-07 -8.19154e-07 8.32432e-05 -5.14313e-07 -8.29801e-07 
8.14151e-05 -6.54185e-07 -8.13738e-07 8.07021e-05 -6.23912e-07 -8.05546e-07 7.65674e-05 -3.39828e-07 -7.35057e-07 
7.73553e-05 -3.76059e-07 -7.49311e-07 5.27679e-05 -1.01351e-05 -6.47604e-07 4.97222e-05 -1.36963e-05 -7.09389e-07 
5.24112e-05 -1.16134e-05 -6.06347e-07 5.70173e-05 -4.08299e-06 -9.84132e-07 5.68505e-05 -4.14443e-06 -9.46292e-07 
6.36944e-07 -5.30685e-05 -1.70406e-07 8.34654e-05 -2.79154e-06 -3.5439e-07 2.53864e-06 -4.87505e-05 -3.24522e-07 
5.81748e-06 -4.11693e-05 -6.5124e-07 1.19848e-05 -3.26938e-05 -1.6648e-06 2.1754e-05 -2.47568e-05 -1.81426e-06 
2.98976e-05 -1.88006e-05 -1.32526e-06 4.22576e-05 -1.12092e-05 -8.18234e-07 3.65314e-05 -1.44462e-05 -1.03626e-06 
4.72459e-05 -8.92913e-06 -7.21957e-07 5.19203e-05 -7.28496e-06 -6.80219e-07 5.63207e-05 -6.1322e-06 -6.35322e-07 
6.03916e-05 -5.37705e-06 -5.85602e-07 6.4128e-05 -4.90708e-06 -5.36266e-07 6.75435e-05 -4.61859e-06 -4.89992e-07 
7.06686e-05 -4.42751e-06 -4.49977e-07 7.35409e-05 -4.25807e-06 -4.14568e-07 7.61975e-05 -4.04703e-06 -3.86683e-07 
7.87052e-05 -3.74271e-06 -3.67094e-07 8.10988e-05 -3.32142e-06 -3.56801e-07 3.1078e-07 -5.37306e-05 -2.48095e-07 
3.03409e-07 -5.33502e-05 -7.2937e-08 1.05696e-06 -5.25774e-05 -3.06826e-07 1.01091e-06 -5.22157e-05 -9.10551e-08 
8.40602e-05 -2.64924e-06 -1.76855e-07 8.40574e-05 -2.6518e-06 -5.31378e-07 8.28719e-05 -2.93306e-06 -5.32222e-07 
8.28749e-05 -2.92906e-06 -1.77371e-07 3.28552e-06 -4.72865e-05 -5.75031e-07 2.00968e-06 -5.03953e-05 -4.14992e-07 
1.45806e-06 -5.13857e-05 -2.28341e-07 1.93438e-06 -5.0057e-05 -1.36482e-07 7.06992e-06 -3.91172e-05 -1.27221e-06 
4.96e-06 -4.3454e-05 -7.87318e-07 3.17145e-06 -4.69805e-05 -1.85045e-07 3.98702e-06 -4.5271e-05 -4.448e-07 
4.81001e-06 -4.31851e-05 -2.7807e-07 1.44996e-05 -3.03296e-05 -2.83518e-06 1.01403e-05 -3.47024e-05 -2.05115e-06 
6.86178e-06 -3.8972e-05 -4.07513e-07 8.27843e-06 -3.68646e-05 -1.09614e-06 9.91406e-06 -3.47876e-05 -7.24987e-07 
2.38873e-05 -2.28994e-05 -2.50656e-06 1.93095e-05 -2.63182e-05 -2.88314e-06 1.43673e-05 -3.06686e-05 -9.24519e-07 
1.68959e-05 -2.84784e-05 -1.97374e-06 1.9391e-05 -2.66956e-05 -9.59911e-07 3.15584e-05 -1.75133e-05 -1.86351e-06 
2.79244e-05 -1.99844e-05 -2.15975e-06 2.40246e-05 -2.31455e-05 -8.48748e-07 2.60596e-05 -2.15101e-05 -1.54545e-06 
2.80834e-05 -2.01696e-05 -7.03762e-07 3.79914e-05 -1.34674e-05 -1.4672e-06 3.48847e-05 -1.53553e-05 -1.66506e-06 
3.16828e-05 -1.76593e-05 -6.28867e-07 3.33195e-05 -1.64814e-05 -1.17332e-06 3.4993e-05 -1.54732e-05 -5.47063e-07 
4.3515e-05 -1.05401e-05 -1.17366e-06 4.08657e-05 -1.1863e-05 -1.30638e-06 4.0937e-05 -1.19324e-05 -4.25854e-07 
3.95069e-05 -1.26853e-05 -9.14738e-07 3.80831e-05 -1.35615e-05 -4.86717e-07 4.84211e-05 -8.44592e-06 -1.06484e-06 
4.60245e-05 -9.40529e-06 -1.10678e-06 4.35581e-05 -1.05906e-05 -3.94941e-07 4.48027e-05 -9.97968e-06 -7.55182e-07 
4.60472e-05 -9.44704e-06 -3.6727e-07 5.30352e-05 -6.93395e-06 -1.0045e-06 5.0761e-05 -7.62698e-06 -1.03591e-06 
4.84414e-05 -8.48325e-06 -3.5529e-07 4.96102e-05 -8.04407e-06 -6.99905e-07 5.07798e-05 -7.6624e-06 -3.45013e-07 
5.73568e-05 -5.89488e-06 -9.33984e-07 5.52366e-05 -6.36125e-06 -9.71154e-07 5.30546e-05 -6.96699e-06 -3.35199e-07 
5.41579e-05 -6.65357e-06 -6.58526e-07 5.52562e-05 -6.39119e-06 -3.23456e-07 6.13439e-05 -5.2239e-06 -8.59048e-07 
5.93925e-05 -5.52048e-06 -8.97336e-07 5.73774e-05 -5.92141e-06 -3.11736e-07 5.83986e-05 -5.71289e-06 -6.10594e-07 
5.94135e-05 -5.54411e-06 -2.98923e-07 6.4997e-05 -4.81293e-06 -7.86015e-07 6.32118e-05 -4.99257e-06 -8.22566e-07 
6.13636e-05 -5.24404e-06 -2.86909e-07 6.2301e-05 -5.11204e-06 -5.60572e-07 6.32312e-05 -5.00923e-06 -2.73776e-07 
6.83387e-05 -4.56193e-06 -7.18549e-07 6.67043e-05 -4.67182e-06 -7.52404e-07 6.50167e-05 -4.82537e-06 -2.62242e-07 
6.58723e-05 -4.74489e-06 -5.12313e-07 6.67232e-05 -4.68193e-06 -2.50115e-07 7.13982e-05 -4.38557e-06 -6.60189e-07 
6.99017e-05 -4.46822e-06 -6.89159e-07 6.83562e-05 -4.56815e-06 -2.40139e-07 6.91393e-05 -4.51678e-06 -4.69277e-07 
6.99182e-05 -4.47258e-06 -2.29593e-07 7.42159e-05 -4.21305e-06 -6.09934e-07 7.28347e-05 -4.30248e-06 -6.3443e-07 
7.14142e-05 -4.38708e-06 -2.20492e-07 7.21336e-05 -4.34452e-06 -4.31377e-07 7.28493e-05 -4.3018e-06 -2.11266e-07 
7.6831e-05 -3.98291e-06 -5.7138e-07 7.55451e-05 -4.10864e-06 -5.88637e-07 7.42283e-05 -4.21068e-06 -2.03524e-07 
7.48943e-05 -4.16022e-06 -3.99512e-07 7.55562e-05 -4.10458e-06 -1.96738e-07 7.93064e-05 -3.65265e-06 -5.4502e-07 
7.80848e-05 -3.83194e-06 -5.57035e-07 7.68411e-05 -3.977e-06 -1.90605e-07 7.74679e-05 -3.9054e-06 -3.75711e-07 
7.80932e-05 -3.82524e-06 -1.85553e-07 8.16894e-05 -3.2e-06 -5.34047e-07 8.05036e-05 -3.44161e-06 -5.3744e-07 
7.93128e-05 -3.64656e-06 -1.82012e-07 7.99105e-05 -3.547e-06 -3.60749e-07 8.05083e-05 -3.43556e-06 -1.79232e-07 
8.2283e-05 -3.06624e-06 -3.55079e-07 8.16932e-05 -3.19489e-06 -1.77774e-07 6.24691e-05 -2.5675e-06 0 
7.58362e-05 -8.43541e-07 0 4.58828e-05 -1.24847e-05 0 6.56712e-05 -2.01435e-06 0 
7.2449e-05 -2.36342e-07 0 8.32405e-05 -3.21935e-07 0 7.93782e-05 -1.77504e-06 0 
3.00962e-05 -2.99867e-05 0 6.81724e-05 -2.4023e-06 0 5.13749e-05 -6.6542e-06 0 
7.78629e-05 -1.54551e-07 0 7.10724e-05 -2.35192e-06 0 7.17194e-05 -3.35453e-07 0 
5.87385e-05 -8.19957e-06 0 8.35359e-05 -6.74186e-07 0 5.75907e-05 -4.21017e-06 0 
7.12884e-05 -8.2837e-07 0 6.70223e-05 -1.1551e-06 0 3.32055e-05 -2.02675e-05 0 
4.3503e-05 -2.14469e-05 0 8.15492e-05 -1.41667e-07 0 7.47448e-05 -2.8818e-06 0 
8.12224e-05 -2.30921e-06 0 8.72446e-05 1.78646e-08 0 5.56133e-05 -6.25461e-06 0 
4.16496e-05 -1.21767e-05 0 6.51667e-05 -3.2322e-06 0 7.60844e-05 5.96251e-09 0 
7.92966e-05 -1.06494e-06 0 7.94715e-05 -4.27355e-07 0 1.11476e-05 -4.52473e-05 0 
6.11584e-05 -2.72105e-06 0 8.62268e-05 -1.13736e-07 0 8.34534e-05 -1.10405e-06 0 
7.54998e-05 -1.76818e-06 0 2.83467e-05 -3.78777e-05 0 6.82515e-05 -8.84568e-07 0 
7.4396e-05 5.72197e-09 0 7.19336e-05 -6.67841e-07 0 7.13563e-05 -2.11209e-06 0 
6.28453e-05 -3.59491e-06 0 6.60101e-05 -6.01239e-06 0 7.04599e-05 -1.52347e-06 0 
7.48473e-05 -2.38934e-07 0 5.10144e-05 -6.76158e-06 0 2.18027e-05 -3.15284e-05 0 
6.08779e-05 -3.97431e-06 0 8.43178e-05 -9.2077e-08 0 7.8055e-05 -2.92076e-06 0 
5.41573e-05 -1.48361e-05 0 7.95872e-05 -5.29914e-08 0 7.15669e-05 -3.23155e-06 0 
6.84787e-05 -1.28443e-06 0 4.91059e-05 -8.78185e-06 0 5.74965e-05 -4.34486e-06 0 
3.73596e-05 -2.17723e-05 0 4.44321e-05 -1.002e-05 0 3.91958e-05 -2.88905e-05 0 
8.23302e-05 -5.55901e-07 0 7.34915e-05 -1.44076e-06 0 7.66041e-05 -4.64741e-07 0 
7.35129e-05 -1.00376e-07 0 7.15409e-05 -2.71375e-07 0 5.01794e-05 -1.21394e-05 0 
8.64483e-05 -1.10367e-07 0 3.45937e-05 -1.67015e-05 0 5.5678e-05 -4.67211e-06 0 
1.20801e-05 -4.63676e-05 0 6.81717e-05 -3.65158e-06 0 7.82344e-05 -5.08856e-09 0 
6.79745e-05 -1.21814e-06 0 6.16988e-05 -2.82152e-06 0 7.02545e-05 -6.35148e-07 0 
6.1119e-05 -1.05458e-05 0 8.10222e-05 -1.17805e-06 0 8.8118e-05 1.61916e-07 0 
8.39625e-05 -1.31675e-06 0 4.02739e-05 -1.46369e-05 0 5.45825e-05 -5.5726e-06 0 
6.37932e-05 -4.74715e-06 0 7.86135e-05 -7.5629e-07 0 8.86687e-05 9.47373e-08 0 
8.2846e-05 -2.31098e-06 0 7.2965e-05 -1.01197e-06 0 8.54005e-05 -4.67133e-07 0 
7.23835e-05 -8.84081e-07 0 6.97161e-05 -5.77101e-07 0 6.34381e-05 -2.88164e-06 0 
6.71292e-05 -2.25969e-06 0 7.5741e-05 2.91956e-08 0 7.41415e-05 -3.26478e-08 0 
7.96567e-05 -2.29223e-07 0 7.61157e-05 -9.69525e-08 0 8.14514e-05 -2.9738e-07 0 
6.40328e-05 -1.86378e-06 0 6.46109e-05 -1.83594e-06 0 7.6686e-05 -1.22263e-06 0 
8.1408e-05 -1.7218e-06 0 8.54896e-05 -1.51771e-07 0 2.49759e-05 -2.51715e-05 0 
1.22296e-05 -4.01233e-05 0 5.20482e-05 -1.95007e-05 0 7.67835e-05 -2.17314e-06 0 
8.14203e-05 -4.29942e-08 0 5.93638e-05 -5.61984e-06 0 7.34838e-05 -3.65042e-06 0 
3.91105e-05 -1.31755e-05 0 7.32871e-05 -2.44192e-06 0 6.56067e-05 -1.86422e-06 0 
8.61717e-05 -2.71594e-08 0 7.98478e-05 -2.95191e-06 0 7.44286e-05 -5.16562e-07 0 
7.82113e-05 -1.52544e-06 0 3.67652e-05 -2.62721e-05 0 3.02004e-05 -2.60349e-05 0 
5.13188e-05 -9.39221e-06 0 4.41477e-06 -5.05531e-05 0 6.26485e-05 -4.15402e-06 0 
4.4354e-05 -1.64911e-05 0 6.97556e-05 -4.91892e-06 0 8.41391e-05 -4.35558e-07 0 
6.00015e-05 -3.96437e-06 0 8.09095e-05 -5.15272e-07 0 3.85179e-05 -3.43063e-05 0 
2.22243e-05 -3.81084e-05 0 4.6717e-05 -9.21405e-06 0 6.83139e-05 -2.81436e-06 0 
8.31657e-05 -1.9546e-07 0 7.90884e-05 -2.26789e-06 0 2.56339e-05 -3.93641e-05 0 
7.44561e-05 2.23484e-10 0 6.95424e-05 -1.36917e-06 0 7.32432e-05 -1.97392e-07 0 
7.22103e-05 -2.10253e-06 0 6.87406e-05 -3.38005e-06 0 5.72616e-05 -5.22201e-06 0 
6.03114e-05 -3.07143e-06 0 7.69234e-05 1.72841e-08 0 7.05466e-05 -1.65449e-06 0 
3.19736e-05 -3.1567e-05 0 6.87247e-05 -1.45155e-06 0 8.80285e-05 2.27084e-07 0 
8.54011e-05 -6.5365e-07 0 7.60559e-05 -3.48704e-06 0 6.63856e-05 -2.34186e-06 0 
8.30327e-05 -5.40788e-08 0 1.44726e-05 -4.46635e-05 0 8.29698e-05 -9.86189e-07 0 
5.86368e-06 -4.98287e-05 0 6.63374e-05 -8.8829e-06 0 7.28128e-05 -3.53457e-07 0 
2.09291e-05 -3.58236e-05 0 7.77864e-05 -5.24847e-08 0 7.30558e-05 -9.69746e-08 0 
6.03882e-05 -3.54987e-06 0 6.94845e-05 -7.56538e-07 0 5.3588e-05 -6.15093e-06 0 
7.44813e-05 -9.76919e-08 0 4.08488e-05 -1.658e-05 0 6.54774e-05 -1.55819e-06 0 
4.70725e-05 -8.65388e-06 0 7.23408e-05 -3.52167e-07 0 7.03145e-05 -2.03494e-06 0 
7.26728e-05 -9.78669e-07 0 4.44224e-05 -1.1347e-05 0 4.91032e-05 -7.57268e-06 0 
8.15819e-05 -1.3751e-06 0 8.90209e-05 2.13507e-07 0 8.39196e-05 -1.68792e-06 0 
4.64877e-05 -2.65382e-05 0 8.17602e-05 -7.88222e-07 0 8.50452e-05 -1.21196e-07 0 
5.83501e-05 -3.7099e-06 0 6.48656e-05 -4.14443e-06 0 4.94088e-05 -1.57797e-05 0 
7.28846e-05 -1.96885e-06 0 5.39189e-05 -5.42031e-06 0 7.80371e-05 -3.22748e-07 0 
7.691e-05 -2.74807e-06 0 7.65064e-05 -2.5734e-07 0 7.77819e-05 -5.80783e-07 0 
6.72527e-05 -1.05738e-06 0 5.52424e-05 -8.59271e-06 0 5.79748e-05 -4.47098e-06 0 
1.65515e-05 -3.21272e-05 0 5.86844e-05 -1.51786e-05 0 6.24808e-05 -7.12406e-06 0 
7.05938e-05 -7.14463e-07 0 6.4577e-06 -4.71791e-05 0 2.78248e-05 -2.14447e-05 0 
7.92976e-05 -1.21352e-07 0 8.00024e-05 -1.94806e-08 0 7.29928e-05 -3.54244e-07 0 
5.09632e-05 -7.06031e-06 0 5.52178e-05 -5.01134e-06 0 7.08637e-05 -3.8943e-06 0 
7.09585e-05 -1.14945e-06 0 8.04634e-05 -7.48151e-07 0 7.03148e-05 -2.8874e-06 0 
5.47806e-05 -1.14135e-05 0 8.76246e-05 1.59368e-08 0 8.11755e-05 -2.94267e-06 0 
6.00399e-05 -4.77727e-06 0 8.43407e-05 -3.16526e-07 0 8.98396e-05 9.73234e-08 0 
8.36511e-05 -2.42547e-06 0 5.80627e-05 -3.7899e-06 0 1.4743e-06 -5.26039e-05 0 
2.21317e-06 -5.20841e-05 0 3.14527e-06 -5.09735e-05 0 1.70595e-05 -3.45284e-05 0 
3.09906e-05 -3.6256e-05 0 1.33234e-05 -4.08178e-05 0 8.44372e-05 -2.10749e-06 0 
8.41535e-05 -2.46599e-06 0 8.29643e-05 -2.74684e-06 0 9.04492e-05 6.47353e-08 0 
9.03811e-05 1.80901e-07 0 8.93966e-05 3.88123e-08 0 7.18603e-05 -3.1295e-06 0 
7.24247e-05 -1.42901e-06 0 7.27066e-05 -9.80155e-07 0 6.94104e-05 -6.79369e-06 0 
7.08117e-05 -4.97631e-06 0 7.12162e-05 -3.5288e-06 0 6.57965e-05 -1.14226e-05 0 
6.78591e-05 -9.18977e-06 0 6.81954e-05 -6.78439e-06 0 5.93414e-05 -1.73799e-05 0 
6.22128e-05 -1.48051e-05 0 6.30794e-05 -1.2158e-05 0 6.38634e-05 -9.74384e-06 0 
5.99093e-05 -1.27085e-05 0 5.27347e-05 -2.2498e-05 0 5.60311e-05 -1.95198e-05 0 
5.55141e-05 -1.73216e-05 0 4.66612e-05 -2.94119e-05 0 5.0078e-05 -2.61199e-05 0 
4.93868e-05 -2.29761e-05 0 3.86669e-05 -3.55063e-05 0 4.25691e-05 -3.32056e-05 0 
4.26325e-05 -3.04552e-05 0 3.40191e-05 -3.7038e-05 0 8.99895e-05 2.77782e-07 0 
8.97834e-05 3.52513e-07 0 8.97933e-05 1.80955e-07 0 8.88611e-05 1.48143e-07 0 
8.92633e-05 1.04643e-07 0 8.93451e-05 3.46016e-07 0 8.9042e-05 3.70247e-07 0 
8.85871e-05 1.98919e-07 0 8.90043e-05 4.4397e-07 0 8.86226e-05 4.17117e-07 0 
8.80901e-05 1.97866e-07 0 8.78416e-05 2.38088e-07 0 8.7404e-05 1.33538e-07 0 
8.7254e-05 7.41591e-08 0 8.68938e-05 -3.2257e-08 0 8.64377e-05 -2.17362e-07 0 
8.59298e-05 -2.66571e-07 0 8.64453e-05 -2.85027e-07 0 8.60121e-05 -5.39407e-07 0 
8.53931e-05 -5.51648e-07 0 8.5301e-05 -8.94532e-07 0 8.49099e-05 -1.19975e-06 0 
8.46741e-05 -9.78636e-07 0 8.48973e-05 -1.38744e-06 0 8.4563e-05 -1.73035e-06 0 
8.39291e-05 -1.49543e-06 0 8.40387e-05 -2.05602e-06 0 8.33757e-05 -1.9981e-06 0 
8.3247e-05 -2.36919e-06 0 6.32225e-06 -4.73189e-05 0 8.77827e-06 -4.42155e-05 0 
1.9347e-05 -4.22162e-05 0 5.17156e-06 -4.98491e-05 0 7.01787e-06 -4.84947e-05 0 
1.34171e-05 -4.58752e-05 0 2.35658e-06 -5.17317e-05 0 3.1789e-06 -5.10085e-05 0 
8.52222e-06 -4.83071e-05 0 5.15944e-06 -5.02377e-05 0 5.43963e-06 -4.62166e-05 0 
3.67401e-06 -4.94413e-05 0 5.5528e-06 -4.90674e-05 0 1.03928e-05 -3.84974e-05 0 
7.90161e-06 -4.28644e-05 0 9.09949e-06 -4.39281e-05 0 1.63511e-05 -3.0139e-05 0 
1.2201e-05 -3.46289e-05 0 1.42449e-05 -3.61824e-05 0 2.69551e-05 -2.1488e-05 0 
2.28239e-05 -2.47348e-05 0 2.09309e-05 -2.67562e-05 0 2.08395e-05 -2.84683e-05 0 
2.63412e-05 -2.31875e-05 0 3.39204e-05 -1.65582e-05 0 3.06683e-05 -1.89367e-05 0 
3.13881e-05 -1.892e-05 0 3.92813e-05 -1.28974e-05 0 3.64076e-05 -1.47581e-05 0 
3.6877e-05 -1.48155e-05 0 4.59408e-05 -9.30355e-06 0 4.3541e-05 -1.0486e-05 0 
4.20642e-05 -1.12785e-05 0 4.18742e-05 -1.14919e-05 0 4.57278e-05 -9.28068e-06 0 
4.82569e-05 -8.30221e-06 0 5.24791e-05 -6.8103e-06 0 5.02576e-05 -7.55401e-06 0 
4.90355e-05 -7.79771e-06 0 5.77635e-05 -5.46366e-06 0 5.57175e-05 -5.91476e-06 0 
5.42287e-05 -6.1057e-06 0 5.5894e-05 -5.36133e-06 0 5.28011e-05 -6.28026e-06 0 
6.11264e-05 -4.93775e-06 0 5.92032e-05 -5.23967e-06 0 5.86641e-05 -4.97623e-06 0 
6.53283e-05 -4.44709e-06 0 6.35823e-05 -4.61087e-06 0 6.24017e-05 -4.63072e-06 0 
6.37599e-05 -4.13949e-06 0 6.13648e-05 -4.44742e-06 0 6.85809e-05 -4.08717e-06 0 
6.69793e-05 -4.17933e-06 0 6.65504e-05 -3.87851e-06 0 7.14847e-05 -4.12419e-06 0 
6.99937e-05 -4.19913e-06 0 6.95221e-05 -3.77302e-06 0 7.41734e-05 -3.91337e-06 0 
7.27833e-05 -3.99296e-06 0 7.21942e-05 -3.77127e-06 0 7.67573e-05 -3.70684e-06 0 
7.54514e-05 -3.82133e-06 0 7.47876e-05 -3.57666e-06 0 7.98634e-05 -3.25029e-06 0 
7.86301e-05 -3.43151e-06 0 7.7705e-05 -3.40935e-06 0 7.89563e-05 -2.94928e-06 0 
7.70504e-05 -3.20413e-06 0 8.17339e-05 -3.00877e-06 0 8.05346e-05 -3.24573e-06 0 
8.05144e-05 -2.95478e-06 0 8.24175e-05 -2.69755e-06 0 7.28832e-05 -5.86905e-07 0 
7.29929e-05 -4.11671e-07 0 7.24667e-05 -1.44874e-06 0 7.31249e-05 -2.55736e-07 0 
7.32578e-05 -1.70295e-07 0 7.29462e-05 -4.80043e-07 0 7.25419e-05 -9.61562e-07 0 
7.27097e-05 -5.73429e-07 0 7.33727e-05 -1.34197e-07 0 7.35938e-05 -8.19089e-08 0 
7.31019e-05 -2.71462e-07 0 7.37615e-05 -6.38499e-08 0 7.40966e-05 -2.65874e-08 0 
7.33583e-05 -1.48697e-07 0 7.4497e-05 -4.15163e-09 0 7.49399e-05 8.1574e-09 0 
7.39737e-05 -3.62755e-08 0 7.55718e-05 1.79057e-08 0 7.61469e-05 1.66301e-08 0 
7.5053e-05 2.13685e-08 0 7.66916e-05 1.1213e-08 0 7.73598e-05 7.19146e-09 0 
7.63234e-05 2.37726e-08 0 7.8025e-05 2.89641e-09 0 7.87897e-05 -4.58191e-09 0 
7.75575e-05 8.37708e-09 0 7.9643e-05 -7.35839e-09 0 8.04926e-05 -1.1761e-08 0 
7.91054e-05 -1.46572e-08 0 8.12127e-05 -1.95122e-08 0 8.21307e-05 -2.30635e-08 0 
8.06991e-05 -3.11036e-08 0 8.29443e-05 -2.61527e-08 0 8.392e-05 -2.53022e-08 0 
8.22148e-05 -4.96757e-08 0 8.54984e-05 -2.12318e-08 0 8.65319e-05 -8.51962e-09 0 
8.46156e-05 -4.12093e-08 0 8.5247e-05 -5.94193e-08 0 8.36787e-05 -7.53119e-08 0 
8.72382e-05 2.80042e-09 0 8.82907e-05 1.81793e-08 0 8.69004e-05 -3.27249e-09 0 
8.87316e-05 5.23883e-08 0 6.00527e-05 -3.39389e-06 0 6.12534e-05 -3.19327e-06 0 
5.86919e-05 -4.14359e-06 0 5.89309e-05 -3.65579e-06 0 6.1361e-05 -2.81196e-06 0 
6.32256e-05 -2.16402e-06 0 6.22311e-05 -2.40997e-06 0 6.47305e-05 -1.70191e-06 0 
6.40223e-05 -2.01741e-06 0 6.40446e-05 -2.20097e-06 0 6.29598e-05 -2.79182e-06 0 
6.54959e-05 -1.68951e-06 0 7.46775e-05 -1.11636e-06 0 7.44252e-05 -9.1979e-07 0 
7.32007e-05 -1.21979e-06 0 7.5115e-05 -1.32753e-06 0 7.6235e-05 -1.02966e-06 0 
7.62223e-05 -6.38732e-07 0 7.55289e-05 -4.86465e-07 0 7.50932e-05 -6.73148e-07 0 
7.68312e-05 -7.02634e-07 0 7.7184e-05 -5.23295e-07 0 7.7238e-05 -8.01888e-07 0 
7.76649e-05 -9.70093e-07 0 7.81889e-05 -6.69225e-07 0 7.37023e-05 -7.42254e-07 0 
4.74807e-05 -1.04599e-05 0 5.01007e-05 -9.04925e-06 0 4.86366e-05 -1.08935e-05 0 
4.5051e-05 -1.18676e-05 0 4.67939e-05 -1.0027e-05 0 4.79444e-05 -1.23161e-05 0 
5.07252e-05 -1.06752e-05 0 4.73219e-05 -1.4234e-05 0 4.5082e-05 -1.43551e-05 0 
4.30468e-05 -1.35667e-05 0 4.34076e-05 -1.444e-05 0 4.05004e-05 -1.55594e-05 0 
4.23787e-05 -1.2909e-05 0 4.25453e-05 -1.65409e-05 0 6.68034e-05 -1.59321e-06 0 
6.6337e-05 -1.4886e-06 0 6.50841e-05 -1.90236e-06 0 6.72304e-05 -1.7083e-06 0 
6.8318e-05 -1.32422e-06 0 6.37362e-05 -2.36687e-06 0 6.25276e-05 -2.82587e-06 0 
6.45333e-05 -2.43083e-06 0 6.31405e-05 -2.30503e-06 0 6.53268e-05 -2.53536e-06 0 
6.63674e-05 -2.12245e-06 0 6.78859e-05 -1.83572e-06 0 7.19536e-05 -2.37381e-07 0 
7.06569e-05 -4.05919e-07 0 7.11365e-05 -3.76242e-07 0 7.33574e-05 -1.13079e-07 0 
7.2906e-05 -1.16318e-07 0 7.13933e-05 -4.10594e-07 0 6.99524e-05 -5.93885e-07 0 
7.15742e-05 -4.73759e-07 0 7.26099e-05 -2.86621e-07 0 7.35002e-05 -1.52459e-07 0 
7.42957e-05 -5.78584e-08 0 7.36915e-05 -2.05232e-07 0 8.28048e-05 -4.27604e-07 0 
8.20938e-05 -4.18181e-07 0 8.16134e-05 -5.43891e-07 0 8.33485e-05 -4.35492e-07 0 
8.37872e-05 -3.26183e-07 0 8.23347e-05 -3.19144e-07 0 8.11985e-05 -3.96214e-07 0 
8.3219e-05 -2.54037e-07 0 8.23231e-05 -2.453e-07 0 8.43676e-05 -2.45476e-07 0 
8.52789e-05 -1.384e-07 0 8.41829e-05 -2.09683e-07 0 8.49287e-05 -2.27942e-07 0 
8.4103e-05 -1.63547e-07 0 8.01956e-05 -1.46016e-06 0 7.96312e-05 -1.3601e-06 0 
7.87819e-05 -1.65667e-06 0 8.04877e-05 -1.58082e-06 0 8.1294e-05 -1.27881e-06 0 
8.03935e-05 -1.76709e-06 0 7.92169e-05 -2.01471e-06 0 8.02534e-05 -1.9998e-06 0 
8.14852e-05 -1.54315e-06 0 7.80936e-05 -1.97829e-06 0 7.74822e-05 -1.83293e-06 0 
7.79358e-05 -2.23933e-06 0 3.40047e-05 -2.5654e-05 0 3.70092e-05 -2.39697e-05 0 
3.3541e-05 -2.79845e-05 0 3.01712e-05 -2.8013e-05 0 3.39256e-05 -2.3801e-05 0 
3.45515e-05 -2.8825e-05 0 3.09497e-05 -3.076e-05 0 2.57334e-05 -3.26483e-05 0 
2.60844e-05 -3.04715e-05 0 2.65543e-05 -3.3801e-05 0 2.74896e-05 -3.44892e-05 0 
2.15858e-05 -3.70122e-05 0 6.61562e-05 -3.45651e-06 0 6.84218e-05 -2.84449e-06 0 
6.6411e-05 -4.07122e-06 0 6.51337e-05 -3.37061e-06 0 6.72684e-05 -2.36942e-06 0 
6.88782e-05 -1.82729e-06 0 7.003e-05 -1.5104e-06 0 6.94399e-05 -2.01948e-06 0 
6.80632e-05 -1.8194e-06 0 6.97024e-05 -2.39826e-06 0 5.01714e-05 -7.59154e-06 0 
4.78291e-05 -8.98749e-06 0 4.90961e-05 -7.85446e-06 0 5.24021e-05 -6.39306e-06 0 
5.14009e-05 -7.38377e-06 0 5.3576e-05 -5.57959e-06 0 5.26047e-05 -5.96254e-06 0 
5.47652e-05 -5.04139e-06 0 5.54129e-05 -4.82309e-06 0 5.33125e-05 -5.80493e-06 0 
4.78594e-05 -8.31342e-06 0 5.0176e-05 -7.10916e-06 0 5.43906e-05 -5.53721e-06 0 
5.15656e-05 -6.41863e-06 0 7.87435e-05 -1.93492e-07 0 7.79513e-05 -2.31622e-07 0 
7.88688e-05 -2.72401e-07 0 7.94805e-05 -1.71136e-07 0 7.85962e-05 -1.36469e-07 0 
7.69752e-05 -1.24369e-07 0 7.78341e-05 -9.71698e-08 0 7.69871e-05 -6.94603e-08 0 
7.63009e-05 -1.69433e-07 0 7.72108e-05 -1.99864e-07 0 7.85236e-05 -8.6185e-08 0 
7.72631e-05 -2.90241e-07 0 7.21842e-05 -2.39754e-06 0 7.30641e-05 -2.20241e-06 0 
7.19843e-05 -2.15326e-06 0 7.06768e-05 -2.61387e-06 0 7.182e-05 -2.6557e-06 0 
6.97123e-05 -2.56961e-06 0 7.06786e-05 -2.19148e-06 0 6.92962e-05 -2.40721e-06 0 
6.93179e-05 -2.84765e-06 0 7.16125e-05 -1.99736e-06 0 7.27589e-05 -1.938e-07 0 
7.23923e-05 -1.94718e-07 0 7.33073e-05 -9.6098e-08 0 7.2971e-05 -2.01269e-07 0 
7.20348e-05 -3.43691e-07 0 7.15922e-05 -2.88825e-07 0 7.23509e-05 -1.70641e-07 0 
7.06779e-05 -5.19797e-07 0 7.05135e-05 -4.62373e-07 0 7.11608e-05 -5.00373e-07 0 
7.00369e-05 -7.31424e-07 0 7.15473e-05 -5.13636e-07 0 5.97965e-05 -9.23076e-06 0 
6.06286e-05 -7.65803e-06 0 6.17886e-05 -8.68648e-06 0 5.79181e-05 -1.09497e-05 0 
5.68233e-05 -9.73223e-06 0 6.13993e-05 -6.33235e-06 0 5.90016e-05 -6.77987e-06 0 
6.15847e-05 -5.18117e-06 0 6.3135e-05 -5.83113e-06 0 5.6958e-05 -8.39038e-06 0 
5.73733e-05 -7.00246e-06 0 5.49699e-05 -9.89913e-06 0 8.50039e-05 -4.12207e-07 0 
8.44616e-05 -6.03132e-07 0 8.52897e-05 -3.12154e-07 0 8.38437e-05 -5.46149e-07 0 
8.2292e-05 -9.22445e-07 0 8.19978e-05 -1.09855e-06 0 8.32515e-05 -8.20695e-07 0 
8.26461e-05 -7.46961e-07 0 8.13893e-05 -9.70677e-07 0 8.41907e-05 -7.48912e-07 0 
8.29641e-05 -6.11584e-07 0 5.9674e-05 -3.47094e-06 0 5.90069e-05 -3.84877e-06 0 
6.10016e-05 -3.17822e-06 0 6.00546e-05 -3.21521e-06 0 5.79184e-05 -3.9539e-06 0 
5.60642e-05 -4.8714e-06 0 5.57838e-05 -4.75325e-06 0 5.41541e-05 -5.47348e-06 0 
5.631e-05 -4.98526e-06 0 5.77427e-05 -4.33275e-06 0 5.91826e-05 -3.99479e-06 0 
5.61702e-05 -4.51481e-06 0 6.96753e-05 -9.93352e-07 0 7.07305e-05 -7.16818e-07 0 
6.91255e-05 -9.03234e-07 0 7.00257e-05 -1.11405e-06 0 7.20525e-05 -5.66118e-07 0 
7.21041e-05 -9.12853e-07 0 7.29094e-05 -6.49986e-07 0 7.11092e-05 -9.83199e-07 0 
7.19739e-05 -1.07419e-06 0 7.35844e-05 -4.23093e-07 0 6.98613e-05 -1.28818e-06 0 
6.74558e-05 -1.16704e-06 0 6.86916e-05 -8.5599e-07 0 6.5814e-05 -1.47633e-06 0 
6.84031e-05 -8.40236e-07 0 6.85234e-05 -7.90836e-07 0 6.71122e-05 -1.09778e-06 0 
6.55662e-05 -1.46333e-06 0 6.42582e-05 -1.82226e-06 0 6.56896e-05 -1.4286e-06 0 
3.52582e-05 -2.10385e-05 0 3.17195e-05 -2.30131e-05 0 3.71312e-05 -1.84005e-05 0 
3.91165e-05 -1.90585e-05 0 3.36794e-05 -1.8279e-05 0 3.73997e-05 -1.55707e-05 0 
3.68659e-05 -1.72842e-05 0 3.04961e-05 -2.07044e-05 0 2.94047e-05 -2.252e-05 0 
2.76746e-05 -2.55857e-05 0 4.02493e-05 -2.15842e-05 0 4.01484e-05 -2.38269e-05 0 
4.08921e-05 -1.90569e-05 0 4.38663e-05 -1.88458e-05 0 4.13819e-05 -2.5068e-05 0 
3.78607e-05 -2.75219e-05 0 4.47141e-05 -2.38255e-05 0 4.27715e-05 -2.76718e-05 0 
4.76353e-05 -2.04102e-05 0 4.6533e-05 -1.85244e-05 0 5.05337e-05 -1.74878e-05 0 
4.67974e-05 -1.61298e-05 0 8.29257e-05 -1.24302e-07 0 8.23457e-05 -1.72289e-07 0 
8.3768e-05 -1.39042e-07 0 8.23336e-05 -9.46445e-08 0 8.05439e-05 -9.61773e-08 0 
8.15251e-05 -8.55735e-08 0 8.05083e-05 -5.10926e-08 0 7.94652e-05 -8.24466e-08 0 
8.04116e-05 -1.35442e-07 0 8.0634e-05 -1.82618e-07 0 8.05389e-05 -2.68086e-07 0 
8.15277e-05 -2.10841e-07 0 7.31798e-05 -3.05598e-06 0 7.25123e-05 -3.44708e-06 0 
7.40825e-05 -3.25696e-06 0 7.39957e-05 -2.66615e-06 0 7.24005e-05 -2.82277e-06 0 
7.57515e-05 -2.51486e-06 0 7.50628e-05 -2.3137e-06 0 7.58378e-05 -2.8218e-06 0 
7.68199e-05 -2.45691e-06 0 7.53698e-05 -3.19138e-06 0 7.64495e-05 -3.11075e-06 0 
7.9653e-05 -2.63645e-06 0 8.05259e-05 -2.62789e-06 0 8.01536e-05 -2.30967e-06 0 
7.85531e-05 -2.58642e-06 0 8.25881e-05 -1.81879e-06 0 8.2691e-05 -1.5491e-06 0 
8.12904e-05 -2.00562e-06 0 8.25783e-05 -2.02134e-06 0 8.20323e-05 -2.3209e-06 0 
8.11782e-05 -2.62184e-06 0 8.20076e-05 -2.6306e-06 0 8.7699e-05 7.51179e-08 0 
8.64028e-05 -5.11604e-08 0 8.68032e-05 -1.95174e-08 0 8.81321e-05 1.00079e-07 0 
8.7969e-05 6.34628e-08 0 8.81526e-05 4.56816e-08 0 8.74718e-05 2.30063e-08 0 
8.61451e-05 -5.79073e-08 0 8.67206e-05 -1.3746e-08 0 8.56464e-05 -6.46425e-08 0 
5.23557e-05 -7.49011e-06 0 5.35224e-05 -7.70614e-06 0 5.45138e-05 -6.18515e-06 0 
5.65153e-05 -5.18616e-06 0 5.78784e-05 -5.02467e-06 0 5.55852e-05 -5.1976e-06 0 
5.74435e-05 -5.93269e-06 0 5.96302e-05 -4.70256e-06 0 5.53519e-05 -7.30348e-06 0 
5.32421e-05 -8.99451e-06 0 4.30064e-05 -1.10055e-05 0 4.03514e-05 -1.26421e-05 0 
4.54629e-05 -9.61351e-06 0 4.42199e-05 -1.0639e-05 0 3.83365e-05 -1.42636e-05 0 
4.08528e-05 -1.32882e-05 0 4.29604e-05 -1.1756e-05 0 4.55499e-05 -1.02058e-05 0 
6.30773e-05 -3.55459e-06 0 6.42544e-05 -3.04064e-06 0 6.21334e-05 -3.40703e-06 0 
6.17373e-05 -4.05209e-06 0 6.39012e-05 -3.67248e-06 0 6.66354e-05 -3.42846e-06 0 
6.81808e-05 -3.22508e-06 0 6.67695e-05 -3.00401e-06 0 6.4943e-05 -3.68106e-06 0 
6.61075e-05 -2.72656e-06 0 6.76709e-05 -2.52739e-06 0 7.7201e-05 3.56388e-09 0 
7.65747e-05 1.86164e-08 0 7.69035e-05 -1.95462e-08 0 7.80599e-05 -2.07258e-08 0 
7.59223e-05 2.55179e-08 0 7.5073e-05 1.97279e-08 0 7.51343e-05 -2.48747e-09 0 
7.53521e-05 -3.01145e-08 0 7.61082e-05 -3.45502e-08 0 7.52976e-05 -9.24662e-08 0 
8.015e-05 -1.13601e-06 0 7.87494e-05 -1.28275e-06 0 8.05408e-05 -9.30517e-07 0 
7.89396e-05 -9.09769e-07 0 7.80033e-05 -1.14876e-06 0 7.9886e-05 -8.976e-07 0 
7.95372e-05 -7.59287e-07 0 7.74294e-05 -1.38068e-06 0 8.11071e-05 -7.7583e-07 0 
7.90574e-05 -5.77146e-07 0 7.97852e-05 -6.29891e-07 0 8.01805e-05 -4.76055e-07 0 
7.86443e-05 -4.99416e-07 0 7.95771e-05 -3.19584e-07 0 8.04829e-05 -3.5977e-07 0 
7.87423e-05 -3.77083e-07 0 7.79128e-05 -4.4197e-07 0 1.18216e-05 -4.58846e-05 0 
1.61031e-05 -4.19691e-05 0 1.73408e-05 -4.2541e-05 0 8.57382e-06 -4.78433e-05 0 
1.21029e-05 -4.29165e-05 0 1.65173e-05 -3.81917e-05 0 1.58162e-05 -4.08524e-05 0 
8.76851e-06 -4.64296e-05 0 7.33913e-06 -4.8305e-05 0 6.13615e-05 -2.74733e-06 0 
6.29273e-05 -2.22823e-06 0 5.97452e-05 -3.19942e-06 0 6.25858e-05 -2.27378e-06 0 
6.06977e-05 -2.86916e-06 0 5.91747e-05 -3.42286e-06 0 5.96431e-05 -3.2113e-06 0 
5.81587e-05 -3.73187e-06 0 8.63442e-05 -1.11865e-07 0 8.51943e-05 -2.76194e-07 0 
8.71279e-05 3.59631e-08 0 8.7196e-05 3.82359e-08 0 8.5865e-05 -1.4215e-07 0 
8.52811e-05 -2.324e-07 0 8.42456e-05 -3.72479e-07 0 8.36945e-05 -1.20821e-06 0 
8.24315e-05 -1.41296e-06 0 8.44297e-05 -8.99457e-07 0 8.44278e-05 -7.78998e-07 0 
8.32059e-05 -1.04669e-06 0 8.25207e-05 -1.25552e-06 0 8.22771e-05 -1.17734e-06 0 
7.44758e-05 -1.60824e-06 0 7.60833e-05 -1.48083e-06 0 7.31682e-05 -1.69613e-06 0 
7.42078e-05 -1.86727e-06 0 7.68711e-05 -1.65056e-06 0 7.61202e-05 -1.97533e-06 0 
7.43885e-05 -2.08868e-06 0 3.46577e-05 -3.29211e-05 0 3.88221e-05 -3.15665e-05 0 
3.38236e-05 -3.5741e-05 0 3.03433e-05 -3.46771e-05 0 3.568e-05 -3.00558e-05 0 
1.94915e-05 -4.23745e-05 0 2.50621e-05 -3.79736e-05 0 2.19747e-05 -4.19159e-05 0 
2.77616e-05 -3.94189e-05 0 7e-05 -5.21909e-07 0 6.89643e-05 -7.0294e-07 0 
6.88584e-05 -8.13143e-07 0 6.77374e-05 -9.64524e-07 0 6.69565e-05 -1.29552e-06 0 
6.7677e-05 -1.23165e-06 0 6.69138e-05 -1.19183e-06 0 6.63749e-05 -1.28061e-06 0 
7.5097e-05 2.57571e-08 0 7.42823e-05 -6.39175e-09 0 7.44456e-05 5.37715e-09 0 
7.37522e-05 -3.25e-08 0 7.35606e-05 -5.02246e-08 0 7.38861e-05 -2.96098e-08 0 
7.21489e-05 -7.84141e-07 0 7.15914e-05 -1.26761e-06 0 7.12818e-05 -1.07409e-06 0 
7.25532e-05 -5.22034e-07 0 7.08693e-05 -9.83576e-07 0 7.00685e-05 -1.00013e-06 0 
7.12902e-05 -6.9765e-07 0 7.26857e-05 -3.8769e-07 0 7.21185e-05 -4.91516e-07 0 
7.28619e-05 -2.76528e-07 0 7.19199e-05 -1.39145e-06 0 7.09491e-05 -1.88181e-06 0 
7.21325e-05 -1.55114e-06 0 7.062e-05 -3.27375e-06 0 7.18535e-05 -2.16832e-06 0 
6.92321e-05 -4.07333e-06 0 7.01862e-05 -2.75503e-06 0 6.32498e-05 -4.11605e-06 0 
6.11682e-05 -4.53201e-06 0 6.4687e-05 -2.93017e-06 0 6.1395e-05 -3.7728e-06 0 
6.42625e-05 -2.61162e-06 0 6.5942e-05 -2.07451e-06 0 6.37344e-05 -8.11086e-06 0 
6.61375e-05 -7.29904e-06 0 6.43051e-05 -6.57307e-06 0 6.48492e-05 -5.3175e-06 0 
6.74632e-05 -4.56705e-06 0 6.80369e-05 -5.53543e-06 0 7.19938e-05 -1.47311e-06 0 
7.17329e-05 -1.24896e-06 0 7.03591e-05 -1.77178e-06 0 7.1928e-05 -1.71584e-06 0 
7.06975e-05 -1.33022e-06 0 6.88211e-05 -1.86328e-06 0 6.95863e-05 -1.4791e-06 0 
6.87473e-05 -2.12989e-06 0 7.55123e-05 -1.57863e-07 0 7.46474e-05 -1.59936e-07 0 
7.56756e-05 -2.45019e-07 0 7.46329e-05 -3.63999e-07 0 7.38541e-05 -2.86004e-07 0 
7.55116e-05 -3.69724e-07 0 5.2811e-05 -6.1102e-06 0 5.24524e-05 -6.07675e-06 0 
5.09489e-05 -6.90614e-06 0 4.90661e-05 -7.67116e-06 0 5.004e-05 -7.13767e-06 0 
4.80254e-05 -8.11105e-06 0 2.34217e-05 -2.81874e-05 0 2.63515e-05 -2.85358e-05 0 
1.92286e-05 -3.18738e-05 0 1.68692e-05 -3.59439e-05 0 2.14797e-05 -3.37225e-05 0 
6.19413e-05 -3.18756e-06 0 6.05838e-05 -3.75332e-06 0 6.04158e-05 -4.36955e-06 0 
5.90935e-05 -4.5605e-06 0 5.94403e-05 -4.19238e-06 0 5.75707e-05 -4.84103e-06 0 
8.46891e-05 -1.08817e-07 0 7.80037e-05 -2.50981e-06 0 7.74798e-05 -2.83977e-06 0 
5.77875e-05 -1.26338e-05 0 5.63655e-05 -1.49582e-05 0 5.443e-05 -1.30234e-05 0 
5.31075e-05 -1.70844e-05 0 5.17342e-05 -1.52902e-05 0 5.2168e-05 -1.35135e-05 0 
7.88941e-05 -2.52953e-08 0 7.87016e-05 -5.33482e-08 0 7.98206e-05 -3.45696e-08 0 
6.99004e-05 -3.42947e-06 0 7.11867e-05 -3.55777e-06 0 7.09291e-05 -3.06021e-06 0 
6.92285e-05 -3.25632e-06 0 6.70837e-05 -1.55749e-06 0 6.74718e-05 -1.75389e-06 0 
6.8974e-05 -9.89613e-07 0 6.89994e-05 -1.32353e-06 0 6.9597e-05 -9.73021e-07 0 
5.77276e-05 -4.03136e-06 0 5.6328e-05 -4.67284e-06 0 5.6666e-05 -4.36091e-06 0 
4.68008e-05 -8.74204e-06 0 8.32326e-05 -5.09035e-07 0 8.205e-05 -6.65253e-07 0 
8.0692e-05 -6.25072e-07 0 8.14059e-05 -6.52886e-07 0 7.65493e-05 -3.54436e-07 0 
7.73388e-05 -3.88009e-07 0 5.27765e-05 -1.02838e-05 0 4.97519e-05 -1.38479e-05 0 
5.24265e-05 -1.17728e-05 0 5.70328e-05 -4.15459e-06 0 5.68608e-05 -4.22224e-06 0 
6.29511e-05 -1.70501e-05 1.42103e-07 5.72434e-05 -2.27899e-05 -1.69748e-07 6.74263e-05 -1.18215e-05 3.95969e-07 
7.04701e-05 -6.9323e-06 5.61533e-07 7.20206e-05 -2.30993e-06 6.71414e-07 5.04105e-05 -2.89084e-05 -4.6399e-07 
4.22607e-05 -3.41826e-05 -1.50598e-06 2.04238e-05 -2.95145e-05 -9.26318e-06 1.12325e-05 -2.72214e-05 -5.63861e-06 
9.84903e-06 -2.99007e-05 -1.59882e-05 2.62083e-05 -3.13845e-05 -1.01819e-05 2.91181e-05 -3.10678e-05 -3.4884e-06 
7.22678e-05 -1.14418e-06 1.02419e-06 7.21202e-05 -1.16268e-06 3.41076e-07 7.18528e-05 -3.42151e-06 9.74477e-07 
7.17233e-05 -3.46783e-06 3.2878e-07 7.09593e-05 -5.7883e-06 2.95458e-07 6.9807e-05 -8.14901e-06 2.64477e-07 
7.14338e-05 -4.59609e-06 6.27263e-07 6.64382e-05 -1.31348e-05 1.66979e-07 6.8287e-05 -1.06096e-05 2.24436e-07 
6.91282e-05 -9.33455e-06 4.93887e-07 6.16447e-05 -1.84814e-05 3.49853e-08 6.42018e-05 -1.57435e-05 9.93589e-08 
6.53763e-05 -1.43695e-05 2.64152e-07 5.87976e-05 -2.1339e-05 -5.14749e-08 5.56272e-05 -2.43375e-05 -1.15338e-07 
6.02486e-05 -1.98433e-05 -1.11184e-08 5.22334e-05 -2.74159e-05 -1.85114e-07 4.8639e-05 -3.06092e-05 -2.63383e-07 
5.38994e-05 -2.58183e-05 -3.00266e-07 4.4998e-05 -3.3544e-05 -3.71824e-07 3.97807e-05 -3.40858e-05 -1.35726e-06 
4.68415e-05 -3.20497e-05 -5.69925e-07 3.41469e-05 -3.27095e-05 -4.6671e-06 6.99157e-05 -8.06088e-06 8.01375e-07 
7.10821e-05 -5.72032e-06 8.99609e-07 6.83815e-05 -1.0488e-05 6.74866e-07 6.64698e-05 -1.29961e-05 4.9822e-07 
6.42086e-05 -1.56085e-05 3.0875e-07 6.16433e-05 -1.83571e-05 9.41471e-08 5.55493e-05 -2.42168e-05 -3.79167e-07 
5.87532e-05 -2.12312e-05 -1.34314e-07 4.85434e-05 -3.04295e-05 -7.57724e-07 5.21032e-05 -2.72821e-05 -5.79131e-07 
3.77187e-05 -3.34702e-05 -4.52124e-06 4.44276e-05 -3.30874e-05 -1.48819e-06 9.10107e-05 1.5005e-07 -5.07544e-07 
9.07602e-05 4.20006e-07 -4.99544e-07 9.02794e-05 6.12967e-07 -4.83593e-07 8.96079e-05 6.77889e-07 -4.62411e-07 
8.79262e-05 3.15679e-07 -4.11068e-07 8.70511e-05 -1.29701e-07 -3.86163e-07 8.62395e-05 -7.23584e-07 -3.67778e-07 
8.49352e-05 -2.14926e-06 -3.54374e-07 8.88003e-05 5.84053e-07 -4.37318e-07 8.55343e-05 -1.42048e-06 -3.56835e-07 
8.47928e-05 -2.33118e-06 -5.31334e-07 8.47954e-05 -2.32842e-06 -1.7685e-07 8.50759e-05 -1.96872e-06 -5.32195e-07 
9.10285e-05 7.58041e-08 -2.54166e-07 9.10456e-05 7.49184e-08 -7.62748e-07 9.09812e-05 2.21079e-07 -7.59122e-07 
8.508e-05 -1.96577e-06 -1.77291e-07 9.09648e-05 2.23432e-07 -2.5325e-07 9.06545e-05 4.79923e-07 -2.4828e-07 
9.084e-05 3.59936e-07 -2.50885e-07 9.09158e-05 2.92396e-07 -5.04303e-07 9.08557e-05 3.5599e-07 -7.53518e-07 
9.01228e-05 6.44323e-07 -2.39532e-07 9.04143e-05 5.77493e-07 -2.43825e-07 9.06694e-05 4.75051e-07 -7.44268e-07 
9.05461e-05 5.30254e-07 -4.92367e-07 9.04276e-05 5.71055e-07 -7.32602e-07 8.94135e-05 6.73632e-07 -2.28317e-07 
8.97867e-05 6.78282e-07 -2.34151e-07 9.01343e-05 6.36392e-07 -7.17687e-07 8.99639e-05 6.62559e-07 -4.73663e-07 
8.97971e-05 6.69142e-07 -7.02239e-07 8.85851e-05 5.36509e-07 -2.15645e-07 8.90101e-05 6.26985e-07 -2.21606e-07 
8.94218e-05 6.64511e-07 -6.8447e-07 8.92179e-05 6.52404e-07 -4.50293e-07 8.90162e-05 6.17179e-07 -6.66081e-07 
8.77044e-05 2.22711e-07 -2.02689e-07 8.81477e-05 4.0191e-07 -2.08325e-07 8.81494e-05 3.92028e-07 -6.26619e-07 
8.83688e-05 4.7133e-07 -4.24161e-07 8.85892e-05 5.26599e-07 -6.45823e-07 8.68416e-05 -2.63077e-07 -1.90357e-07 
8.7267e-05 -6.70982e-11 -1.95827e-07 8.77037e-05 2.13335e-07 -6.06191e-07 8.7484e-05 1.13449e-07 -3.97904e-07 
8.72643e-05 -8.69812e-09 -5.87928e-07 8.60547e-05 -8.87876e-07 -1.82227e-07 8.64355e-05 -5.61475e-07 -1.85845e-07 
8.68374e-05 -2.71213e-07 -5.713e-07 8.6634e-05 -4.11075e-07 -3.7624e-07 8.64303e-05 -5.68725e-07 -5.57526e-07 
8.53788e-05 -1.5996e-06 -1.77786e-07 8.57024e-05 -1.2377e-06 -1.79331e-07 8.60486e-05 -8.93675e-07 -5.45852e-07 
8.58732e-05 -1.06255e-06 -3.61156e-07 8.56968e-05 -1.2425e-06 -5.37761e-07 8.52252e-05 -1.7839e-06 -3.5508e-07 
8.53734e-05 -1.60327e-06 -5.34123e-07 7.27072e-05 0 5.33992e-07 7.30766e-05 0 2.77691e-07 
7.32562e-05 0 9.95284e-08 7.35591e-05 0 -2.60948e-08 7.40757e-05 0 -1.19332e-07 
7.48345e-05 0 -1.93062e-07 7.58313e-05 0 -2.47147e-07 7.70547e-05 0 -2.91549e-07 
7.84859e-05 0 -3.26638e-07 8.01003e-05 0 -3.56822e-07 8.18748e-05 0 -3.82996e-07 
8.57987e-05 0 -4.32604e-07 8.78855e-05 0 -4.59886e-07 8.99962e-05 0 -4.91736e-07 
8.37853e-05 0 -4.07543e-07 9.0532e-05 0 -7.50212e-07 9.05152e-05 0 -2.50141e-07 
8.94796e-05 0 -7.24703e-07 7.24571e-05 0 3.02925e-07 7.26005e-05 0 9.15661e-07 
7.29402e-05 0 6.8568e-07 8.94637e-05 0 -2.41697e-07 7.28119e-05 0 2.32589e-07 
7.30997e-05 0 4.97002e-07 7.31876e-05 0 3.41468e-07 7.29613e-05 0 3.96437e-07 
7.29929e-05 0 1.67621e-07 7.32659e-05 0 2.08452e-07 7.33613e-05 0 9.59613e-08 
7.31725e-05 0 1.80374e-07 7.30941e-05 0 1.13484e-07 7.31837e-05 0 7.01848e-08 
7.35043e-05 0 2.75054e-09 7.36998e-05 0 -7.86461e-08 7.33878e-05 0 3.31827e-08 
7.32916e-05 0 3.22689e-08 7.34456e-05 0 1.11752e-09 7.39537e-05 0 -1.48501e-07 
7.42654e-05 0 -2.0992e-07 7.37905e-05 0 -7.57338e-08 7.36488e-05 0 -2.63643e-08 
7.39103e-05 0 -4.90035e-08 7.4642e-05 0 -2.63932e-07 7.50815e-05 0 -3.1107e-07 
7.44223e-05 0 -1.58988e-07 7.42262e-05 0 -6.93526e-08 7.46075e-05 0 -8.85929e-08 
7.55777e-05 0 -3.5212e-07 7.61327e-05 0 -3.89413e-07 7.53063e-05 0 -2.21845e-07 
7.50526e-05 0 -1.04179e-07 7.55526e-05 0 -1.17201e-07 7.67432e-05 0 -4.22051e-07 
7.74066e-05 0 -4.51449e-07 7.64179e-05 0 -2.70306e-07 7.61089e-05 0 -1.29473e-07 
7.67218e-05 0 -1.40586e-07 7.81211e-05 0 -4.77876e-07 7.88829e-05 0 -5.02041e-07 
7.77476e-05 0 -3.10142e-07 7.73887e-05 0 -1.50427e-07 7.81049e-05 0 -1.59212e-07 
7.96897e-05 0 -5.2441e-07 8.05381e-05 0 -5.45299e-07 7.92712e-05 0 -3.42382e-07 
7.8867e-05 0 -1.67277e-07 7.9675e-05 0 -1.74903e-07 8.14253e-05 0 -5.64919e-07 
8.23483e-05 0 -5.83829e-07 8.09688e-05 0 -3.70092e-07 8.05249e-05 0 -1.81759e-07 
8.14127e-05 0 -1.88326e-07 8.33037e-05 0 -6.02364e-07 8.42878e-05 0 -6.20885e-07 
8.28144e-05 0 -3.95379e-07 8.2336e-05 0 -1.946e-07 8.32916e-05 0 -2.00667e-07 
8.52951e-05 0 -6.39489e-07 8.63242e-05 0 -6.58656e-07 8.47807e-05 0 -4.20056e-07 
8.52825e-05 0 -2.13136e-07 8.42752e-05 0 -2.0682e-07 8.73685e-05 0 -6.79212e-07 
8.84226e-05 0 -7.00709e-07 8.68363e-05 0 -4.45724e-07 8.63107e-05 0 -2.1967e-07 
8.73546e-05 0 -2.26316e-07 8.89415e-05 0 -4.75284e-07 8.84081e-05 0 -2.33868e-07 
3.44977e-05 -2.63433e-05 -5.39326e-07 5.75791e-05 -7.59414e-06 -1.8704e-07 7.37548e-05 -1.02132e-07 -2.60105e-07 
7.78373e-05 -2.70813e-06 -4.19692e-07 7.81488e-05 -1.25484e-06 -4.34067e-07 7.9377e-05 -1.63424e-07 -3.69363e-07 
6.37161e-05 -4.75635e-06 -8.2463e-08 8.11925e-05 -1.34924e-07 -3.83845e-07 7.56394e-05 -3.49882e-06 -4.01128e-07 
2.97878e-05 -2.57064e-05 -8.35005e-07 3.11443e-05 -3.28233e-05 -9.8441e-07 7.21569e-05 -1.86112e-07 -2.41891e-07 
5.35658e-05 -1.20578e-05 -2.6187e-07 7.55326e-05 -1.76149e-06 -4.1151e-07 7.33963e-05 -2.92718e-07 -3.38417e-07 
7.74804e-05 -2.19601e-06 -4.03946e-07 7.83159e-05 -8.47332e-07 -3.99078e-07 7.87497e-05 -1.28212e-06 -4.05184e-07 
7.92969e-05 -1.06422e-06 -4.04361e-07 7.87269e-05 -1.15715e-06 -6.21102e-07 7.87263e-05 -1.1583e-06 -2.16791e-07 
7.81723e-05 -1.38713e-06 -6.22509e-07 7.82102e-05 -1.52477e-06 -4.05397e-07 7.81734e-05 -1.38834e-06 -2.17522e-07 
7.86023e-05 -1.34375e-07 -3.59219e-07 7.78688e-05 -1.51865e-07 -3.55683e-07 7.86307e-05 -1.55674e-07 -5.4366e-07 
7.86193e-05 -1.60132e-07 -1.81208e-07 7.93489e-05 -1.3843e-07 -5.49812e-07 3.67082e-05 -2.62059e-05 -5.69487e-07 
3.69728e-05 -2.39141e-05 -5.53423e-07 3.59675e-05 -2.40315e-05 -2.43238e-07 3.5511e-05 -2.61953e-05 -8.59841e-07 
3.56221e-05 -2.63064e-05 -2.57146e-07 7.93036e-05 -1.19626e-07 -3.63707e-07 7.93375e-05 -1.41876e-07 -1.83267e-07 
5.7376e-05 -6.96656e-06 -2.53953e-07 5.93707e-05 -5.58672e-06 -2.32392e-07 5.64217e-05 -8.02594e-06 -3.58341e-07 
5.84915e-05 -6.48443e-06 -3.21899e-07 5.8482e-05 -6.55008e-06 -9.48507e-08 7.43051e-05 -5.13461e-08 -2.93746e-07 
7.44894e-05 -9.16452e-08 -3.11616e-07 7.41151e-05 -9.91025e-08 -1.32728e-07 7.413e-05 -8.76919e-08 -4.38106e-07 
7.39534e-05 -6.34582e-08 -1.24819e-07 5.52443e-05 -8.55447e-06 -2.80774e-07 5.64181e-05 -8.09482e-06 -1.05563e-07 
7.30533e-05 -3.34456e-07 8.83189e-08 7.30153e-05 -3.93261e-07 5.64667e-08 7.25856e-05 -9.45784e-07 1.82168e-07 
7.3139e-05 -3.25479e-07 2.67915e-07 7.27245e-05 -9.67517e-07 2.61301e-07 7.41522e-05 -2.59888e-08 -2.73991e-07 
7.39707e-05 -5.10832e-08 -4.1126e-07 3.73261e-05 -2.17262e-05 -5.56424e-07 3.58903e-05 -2.39357e-05 -8.2185e-07 
7.30385e-05 -4.08781e-07 2.23948e-07 7.29517e-05 -4.91517e-07 1.35579e-07 7.30547e-05 -4.81522e-07 4.09667e-07 
5.58862e-05 -5.34659e-06 -5.94622e-07 5.46627e-05 -6.17577e-06 -3.17374e-07 5.31497e-05 -6.37768e-06 -9.55178e-07 
5.46434e-05 -6.14462e-06 -9.52672e-07 5.72518e-05 -5.2079e-06 -5.91917e-07 4.0608e-05 -1.2091e-05 -4.15981e-07 
4.05278e-05 -1.201e-05 -1.26646e-06 3.90596e-05 -1.31265e-05 -8.5196e-07 4.18486e-05 -1.145e-05 -7.42911e-07 
4.32376e-05 -1.05165e-05 -1.11787e-06 7.30894e-05 -3.82525e-07 1.69284e-07 7.24243e-05 -8.71984e-07 1.13088e-07 
7.70562e-05 -3.47891e-06 -5.82781e-07 7.60972e-05 -3.77199e-06 -5.88772e-07 7.58976e-05 -3.77658e-06 -3.9438e-07 
7.5839e-05 -3.49608e-06 -5.98934e-07 7.68396e-05 -3.21622e-06 -5.92515e-07 7.70653e-05 -3.47455e-06 -1.94172e-07 
7.61078e-05 -3.76781e-06 -1.96111e-07 7.68488e-05 -3.21281e-06 -1.97603e-07 7.58495e-05 -3.49306e-06 -1.99686e-07 
8.601e-05 -5.43576e-07 -3.83736e-07 8.5798e-05 -6.87449e-07 -5.69138e-07 8.58024e-05 -6.80161e-07 -1.89851e-07 
8.53996e-05 -6.57993e-07 -3.90895e-07 8.62228e-05 -4.17902e-07 -5.82922e-07 8.62261e-05 -4.08911e-07 -1.94336e-07 
8.66667e-05 -1.72645e-07 -1.99652e-07 8.66651e-05 -1.82371e-07 -5.9902e-07 8.53923e-05 -5.56711e-07 -3.99933e-07 
8.66656e-05 -1.20276e-07 -2.04522e-07 8.71836e-05 5.57866e-08 -6.32179e-07 8.59306e-05 -2.70756e-07 -4.17665e-07 
8.6451e-05 -1.14074e-07 -4.27781e-07 8.71805e-05 6.53339e-08 -2.10843e-07 5.74641e-06 -5.0075e-05 -4.81698e-06 
5.51923e-06 -4.84948e-05 -2.38389e-06 1.3101e-05 -4.61757e-05 -3.74938e-06 1.38694e-05 -4.51564e-05 -5.27029e-06 
5.00403e-06 -4.9324e-05 -6.89928e-06 8.76303e-05 1.79969e-07 -6.48648e-07 8.74057e-05 1.28676e-07 -4.26812e-07 
8.76254e-05 1.89488e-07 -2.16037e-07 8.64444e-05 -2.89776e-07 -3.93888e-07 8.84282e-05 3.78024e-07 -6.67062e-07 
8.84211e-05 3.88498e-07 -2.2241e-07 8.72575e-05 7.02223e-08 -4.3795e-07 8.80326e-05 2.22871e-07 -4.49084e-07 
8.6666e-05 -1.31353e-07 -6.13824e-07 8.54004e-05 -4.71888e-07 -4.07927e-07 6.17979e-05 -8.63394e-06 -1.24287e-08 
6.43259e-05 -6.53094e-06 3.68184e-08 6.24961e-05 -7.08097e-06 -3.16024e-08 6.98613e-05 -1.28017e-06 -4.06627e-07 
7.0026e-05 -1.10642e-06 -3.96655e-07 7.1111e-05 -9.75734e-07 -3.90874e-07 7.09592e-05 -1.14243e-06 -4.00705e-07 
7.73696e-05 7.69967e-09 -3.01722e-07 7.77161e-05 5.25607e-09 -1.55414e-07 7.70216e-05 9.93667e-09 -1.46359e-07 
8.80951e-05 1.93831e-07 -4.54514e-07 8.91928e-05 4.34477e-07 -6.98617e-07 8.92007e-05 3.60534e-07 -2.35462e-07 
8.91821e-05 4.43133e-07 -2.32812e-07 8.8828e-05 4.24422e-07 -6.83685e-07 8.90094e-05 4.39303e-07 -4.60835e-07 
8.88188e-05 4.33829e-07 -2.27769e-07 6.14605e-05 -4.72515e-06 -8.35278e-07 6.23919e-05 -4.6215e-06 -5.4583e-07 
6.26398e-05 -4.14447e-06 -5.30728e-07 6.14811e-05 -4.74564e-06 -2.78301e-07 6.32794e-05 -4.50833e-06 -8.02594e-07 
6.32992e-05 -4.5258e-06 -2.67813e-07 7.1975e-05 -1.06816e-06 -3.98366e-07 7.28085e-05 -8.09366e-07 1.75509e-07 
7.25209e-05 -1.43497e-06 3.32377e-07 6.37299e-06 -4.76964e-05 -5.56432e-06 7.67936e-06 -4.6034e-05 -3.19407e-06 
6.77351e-06 -4.70018e-05 -9.33992e-06 3.92293e-05 -1.28665e-05 -8.90503e-07 3.7857e-05 -1.3783e-05 -4.7263e-07 
3.77515e-05 -1.36766e-05 -1.42905e-06 7.69333e-05 1.86244e-08 -2.9419e-07 7.77335e-05 6.35383e-09 -4.65967e-07 
7.70415e-05 1.12459e-08 -4.3796e-07 8.50967e-05 -1.05164e-06 -5.6118e-07 8.46723e-05 -9.81426e-07 -3.84778e-07 
7.21433e-05 -4.80191e-07 -6.8106e-08 7.13111e-05 -6.82735e-07 -8.06788e-08 7.15645e-05 -5.01128e-07 -1.15623e-07 
7.23596e-05 -3.42078e-07 -1.04692e-07 6.06368e-05 -7.6139e-06 -9.58333e-08 8.04864e-05 -1.58206e-06 -3.99641e-07 
8.12931e-05 -1.28038e-06 -4.02546e-07 8.15808e-05 -1.37702e-06 -3.99493e-07 3.47421e-05 -1.56264e-05 -1.61077e-06 
3.48687e-05 -1.57698e-05 -5.37693e-07 3.68347e-05 -1.47488e-05 -9.26442e-07 3.21913e-05 -1.75202e-05 -1.73587e-06 
5.57071e-05 -5.89938e-06 -6.24731e-07 5.67478e-05 -5.67302e-06 -3.07048e-07 5.67277e-05 -5.6445e-06 -9.20655e-07 
7.8051e-05 -2.92246e-06 -3.90627e-07 8.86263e-05 4.12089e-07 -4.50258e-07 8.19517e-05 -2.82022e-06 -5.42476e-07 
8.23667e-05 -2.8869e-06 -5.36626e-07 8.3245e-05 -2.371e-06 -3.61184e-07 8.1956e-05 -2.81565e-06 -1.80869e-07 
8.2844e-05 -2.31302e-06 -3.64852e-07 7.17335e-05 -1.24302e-06 -4.06105e-07 7.06967e-05 -1.32368e-06 -4.09431e-07 
4.32867e-05 -1.05853e-05 -3.72019e-07 4.4408e-05 -9.98703e-06 -6.73662e-07 6.19356e-05 -3.17543e-06 -4.95715e-07 
6.03826e-05 -3.5364e-06 -5.10952e-07 6.09974e-05 -3.16441e-06 -4.89826e-07 5.90013e-05 -3.83419e-06 -5.19881e-07 
8.11086e-05 -7.76263e-07 -4.0656e-07 7.98874e-05 -8.9708e-07 -4.04139e-07 8.04652e-05 -7.47938e-07 -4.04106e-07 
8.36495e-05 -2.4271e-06 -3.58078e-07 8.23696e-05 -2.88221e-06 -1.78842e-07 5.31685e-05 -6.41157e-06 -3.18515e-07 
5.45742e-05 -5.55625e-06 -5.9435e-07 7.08914e-05 -9.66888e-07 -4.61153e-08 7.00565e-05 -1.48755e-06 -1.37989e-08 
6.95657e-05 -1.34787e-06 -7.00895e-08 7.0576e-05 -1.63116e-06 4.86897e-08 7.13091e-05 -1.05659e-06 9.56938e-09 
7.29915e-05 -1.93348e-07 -1.19305e-07 7.2776e-05 -1.8573e-07 -1.51485e-07 7.20509e-05 -3.325e-07 -1.39734e-07 
1.06228e-05 -3.69725e-05 -5.37081e-07 9.08699e-06 -4.07691e-05 -4.13012e-07 1.43714e-05 -3.61908e-05 -1.16016e-06 
1.08391e-05 -3.70289e-05 -1.59751e-06 1.66784e-05 -3.20733e-05 -1.37729e-06 6.44108e-06 -4.43726e-05 -3.1365e-07 
6.57424e-06 -4.46432e-05 -9.56067e-07 9.13711e-06 -4.40603e-05 -8.55621e-07 6.48513e-06 -4.73456e-05 -7.21803e-07 
6.375e-05 -4.13131e-06 -5.21793e-07 6.44623e-05 -4.5219e-06 -2.61788e-07 5.63268e-05 -4.65032e-06 -4.3536e-07 
5.52151e-05 -4.9894e-06 -4.67552e-07 5.66637e-05 -4.33998e-06 -4.56398e-07 8.52531e-05 -6.02175e-08 -4.27133e-07 
8.60275e-05 -1.56122e-08 -6.5314e-07 8.51245e-05 -3.57672e-08 -2.12421e-07 8.60149e-05 -1.53809e-08 -2.17646e-07 
8.61783e-05 -2.7589e-08 -4.37863e-07 6.03882e-06 -4.93186e-05 -1.59581e-06 1.17398e-05 -4.66732e-05 -2.75294e-06 
5.4938e-06 -4.63591e-05 -5.69063e-07 4.61158e-06 -4.82851e-05 -7.86664e-07 4.53538e-06 -4.7973e-05 -2.60626e-07 
7.27773e-05 -3.99214e-06 -4.24953e-07 7.20687e-05 -4.02894e-06 -2.16198e-07 7.34832e-05 -3.95438e-06 -2.08994e-07 
5.75624e-05 -4.82627e-06 -5.72806e-07 5.94338e-05 -4.17902e-06 -5.43613e-07 5.79681e-05 -4.45626e-06 -5.53619e-07 
8.06945e-05 -6.24695e-07 -4.02988e-07 8.14082e-05 -6.53176e-07 -4.0677e-07 8.20056e-05 -2.633e-06 -3.65038e-07 
8.11346e-05 -3.13164e-06 -1.80276e-07 6.68542e-05 -1.0238e-05 1.60879e-07 6.78816e-05 -9.12927e-06 3.69444e-07 
6.63666e-05 -8.83364e-06 2.44909e-07 6.69161e-05 -1.0108e-05 4.77373e-07 8.41865e-05 -1.88453e-06 -5.42319e-07 
8.45794e-05 -1.93143e-06 -5.36614e-07 8.41916e-05 -1.88052e-06 -1.8073e-07 7.16255e-05 -1.24781e-06 8.46892e-08 
7.00891e-05 -9.83187e-07 -1.01415e-07 6.5815e-05 -1.13537e-05 2.70931e-07 7.21821e-05 -1.53822e-06 2.40537e-07 
7.271e-05 -3.79638e-07 -3.82612e-08 7.28858e-05 -2.68905e-07 -7.81656e-08 7.34698e-05 -3.95498e-06 -6.26326e-07 
7.34778e-05 -3.65049e-06 -4.19903e-07 7.20538e-05 -4.02751e-06 -6.49453e-07 8.92126e-05 3.53632e-07 -7.05863e-07 
8.8124e-05 1.58838e-07 -4.58294e-07 8.97359e-05 2.16264e-07 -7.27504e-07 9.0341e-05 2.31035e-07 -7.42487e-07 
8.98474e-05 9.65896e-08 -4.88706e-07 9.03255e-05 2.34868e-07 -2.47463e-07 8.9271e-05 1.03547e-07 -4.79403e-07 
8.88856e-05 2.64449e-08 -7.11155e-07 8.83265e-05 3.19268e-08 -6.98548e-07 8.887e-05 2.72851e-08 -2.3691e-07 
8.03914e-05 -1.76877e-06 -3.96724e-07 8.14837e-05 -1.5453e-06 -3.95784e-07 7.51896e-05 1.36847e-08 -1.10659e-07 
7.4956e-05 9.18514e-09 -2.06746e-07 7.47151e-05 2.71876e-09 -9.54958e-08 7.51091e-05 2.93534e-08 -2.48336e-07 
7.50837e-05 2.40691e-08 -2.65666e-07 7.44079e-05 1.02228e-08 -2.35521e-07 7.42918e-05 -7.84107e-10 -2.54709e-07 
8.45842e-05 -1.92864e-06 -1.78892e-07 5.91766e-05 -3.98109e-06 -5.31646e-07 6.05773e-05 -3.74034e-06 -5.2304e-07 
7.80412e-05 -3.20185e-07 -3.73936e-07 7.79563e-05 -2.29042e-07 -3.65042e-07 7.87494e-05 -1.91461e-07 -3.67043e-07 
7.88729e-05 -2.70328e-07 -3.75204e-07 5.541e-05 -4.80195e-06 -4.84776e-07 5.33085e-05 -5.78258e-06 -5.00506e-07 
8.76053e-06 -4.66006e-05 -1.0475e-06 5.77364e-05 -4.31787e-06 -5.41841e-07 8.9721e-05 2.19962e-07 -2.42443e-07 
8.86761e-05 9.29421e-08 -4.70234e-07 8.83118e-05 3.35075e-08 -2.32994e-07 6.7259e-05 -1.04304e-06 -3.15228e-07 
6.853e-05 -7.78548e-07 -3.10408e-07 6.84084e-05 -8.28256e-07 -3.30161e-07 6.71174e-05 -1.08436e-06 -3.36364e-07 
7.19601e-05 -6.5412e-07 -2.76157e-08 8.41151e-05 -4.41275e-08 -2.06303e-07 8.34424e-05 -2.57304e-08 -6.05228e-07 
8.36842e-05 -7.56392e-08 -4.083e-07 8.30385e-05 -5.39664e-08 -3.99511e-07 8.34302e-05 -2.59614e-08 -2.01751e-07 
7.07293e-05 -4.15678e-06 -6.71845e-07 7.21871e-05 -3.77084e-06 -4.32153e-07 7.58787e-05 2.09534e-08 -3.80229e-07 
7.52168e-05 1.61687e-08 -3.31206e-07 7.44722e-05 4.21506e-09 -1.93788e-07 7.50648e-05 2.40648e-08 -2.30441e-07 
8.11303e-05 -3.13755e-06 -5.41167e-07 8.05417e-05 -9.30622e-07 -4.05753e-07 8.17615e-05 -7.89386e-07 -4.08435e-07 
8.13902e-05 -9.71913e-07 -4.06479e-07 2.18187e-05 -3.14847e-05 -1.208e-06 2.14965e-05 -3.37117e-05 -1.21846e-06 
1.68886e-05 -3.59918e-05 -1.19846e-06 8.20521e-05 -6.66279e-07 -4.09451e-07 6.38867e-05 -9.68307e-06 1.21848e-07 
6.44416e-05 -4.5072e-06 -7.85678e-07 6.48557e-05 -4.13685e-06 -5.11969e-07 3.63448e-05 -1.46941e-05 -1.00843e-06 
7.16098e-05 -1.99296e-06 -4.2749e-07 7.1926e-05 -1.7108e-06 -4.20475e-07 7.2882e-05 -1.96544e-06 -4.21992e-07 
7.31676e-05 -1.69248e-06 -4.16825e-07 7.86473e-05 -4.97525e-07 -3.88041e-07 7.77845e-05 -5.78252e-07 -3.87826e-07 
7.79167e-05 -4.39617e-07 -3.81226e-07 7.87462e-05 -3.75126e-07 -3.81789e-07 5.43878e-05 -5.5139e-06 -4.60413e-07 
8.31707e-05 -1.95408e-07 -4.08452e-07 8.23279e-05 -2.45042e-07 -4.0218e-07 8.21598e-05 -1.71385e-07 -1.98252e-07 
8.13421e-05 -2.08231e-07 -1.95343e-07 8.21706e-05 -1.71118e-07 -5.9481e-07 7.06125e-05 -6.99844e-07 -1.30376e-07 
2.09284e-05 -2.66444e-05 -1.63823e-06 2.31037e-05 -2.48486e-05 -7.93922e-07 1.87261e-05 -2.87576e-05 -8.0441e-07 
8.11736e-05 -2.94534e-06 -3.64685e-07 6.13647e-05 -2.79134e-06 -3.5725e-07 6.03129e-05 -3.05131e-06 -3.91379e-07 
6.22324e-05 -2.39153e-06 -3.73903e-07 7.37776e-05 -5.25861e-08 -1.30633e-07 7.37331e-05 -5.86027e-08 -4.3612e-08 
7.32691e-05 -1.90865e-07 -5.4776e-08 7.33792e-05 -1.42719e-07 -9.75967e-08 7.39663e-05 -3.62615e-08 -1.86889e-07 
7.44593e-05 9.75142e-09 -2.14974e-07 7.96501e-05 -7.09385e-09 -3.496e-07 7.92349e-05 -5.06925e-09 -1.71147e-07 
8.00645e-05 -9.35861e-09 -1.78377e-07 7.21821e-05 -7.71894e-07 3.86899e-08 7.07447e-05 -4.16038e-06 -2.24056e-07 
7.08566e-05 -3.89257e-06 -4.45893e-07 5.63021e-05 -4.96972e-06 -5.73657e-07 6.92072e-05 -4.23301e-06 -6.99075e-07 
6.92234e-05 -4.23874e-06 -2.33012e-07 6.9986e-05 -4.19613e-06 -4.56741e-07 6.82365e-05 -6.74704e-06 2.97025e-07 
8.2963e-05 -2.74902e-06 -3.56936e-07 8.35584e-05 -2.60812e-06 -1.78091e-07 8.41908e-05 -7.52413e-07 -4.05707e-07 
8.29702e-05 -9.88566e-07 -4.04039e-07 8.32522e-05 -8.22829e-07 -4.08237e-07 8.25197e-05 -1.25791e-06 -3.97674e-07 
1.93022e-05 -3.18266e-05 -1.28087e-06 8.99419e-05 4.96881e-08 -7.35649e-07 8.94041e-05 3.84917e-08 -4.82036e-07 
7.58551e-05 1.79896e-08 -1.26933e-07 7.57528e-05 3.16205e-08 -2.61797e-07 7.25066e-05 -3.44607e-06 -4.29748e-07 
7.40764e-05 -3.25713e-06 -4.17725e-07 6.77869e-05 -4.12899e-06 -2.40625e-07 6.95138e-05 -3.76936e-06 -4.5975e-07 
7.13974e-05 -2.08528e-06 2.09106e-07 7.19073e-05 -2.15585e-06 3.08873e-07 7.12659e-05 -3.48098e-06 3.86391e-07 
7.06678e-05 -3.24576e-06 2.67558e-07 7.47468e-05 5.69431e-09 -2.87627e-07 7.61584e-05 1.78761e-08 -2.65209e-07 
7.64797e-05 1.94209e-08 -4.13862e-07 6.61606e-05 -7.24279e-06 1.70125e-07 6.30889e-05 -5.84506e-06 -2.81014e-08 
6.48495e-05 -5.25102e-06 6.5274e-09 6.31214e-05 -5.76643e-06 -8.49705e-08 8.015e-05 -1.1364e-06 -4.05008e-07 
1.90095e-05 -4.26352e-05 -2.84561e-06 2.12729e-05 -4.2158e-05 -3.81883e-06 6.6036e-05 -5.96906e-06 1.05253e-07 
6.3757e-05 -8.06313e-06 6.72109e-08 8.51017e-05 -1.04492e-06 -1.8697e-07 8.01942e-05 -1.4612e-06 -4.02588e-07 
7.93765e-05 -1.77579e-06 -4.00944e-07 7.81911e-05 -6.6708e-07 -3.93183e-07 1.65365e-05 -3.82306e-05 -1.24121e-06 
2.08266e-05 -3.58635e-05 -1.36126e-06 1.58038e-05 -4.0965e-05 -1.44869e-06 1.20756e-05 -4.30386e-05 -1.15536e-06 
6.00518e-05 -3.1995e-06 -4.75525e-07 5.97432e-05 -3.18223e-06 -4.56077e-07 5.83471e-05 -3.69317e-06 -4.84828e-07 
6.61515e-05 -4.36769e-06 -7.53819e-07 6.77688e-05 -4.12028e-06 -7.22122e-07 6.65427e-05 -3.87261e-06 -4.90708e-07 
6.61712e-05 -4.37851e-06 -2.51276e-07 6.13741e-05 -6.26991e-06 -1.7107e-07 1.41811e-05 -3.23512e-05 -7.33768e-07 
1.43708e-05 -3.22144e-05 -2.2612e-06 2.09429e-05 -2.8398e-05 -1.41181e-06 8.14555e-05 -2.96478e-07 -3.96782e-07 
8.13526e-05 -2.07067e-07 -5.86062e-07 7.92502e-05 -4.44614e-09 -5.13341e-07 8.00091e-05 -1.91314e-08 -3.56742e-07 
8.00784e-05 -8.99809e-09 -5.34915e-07 8.22767e-05 -1.17944e-06 -4.01505e-07 8.19983e-05 -1.09989e-06 -4.0437e-07 
7.64582e-05 1.6283e-08 -1.37948e-07 8.33517e-05 -4.36698e-07 -4.15757e-07 8.37909e-05 -3.27328e-07 -4.17738e-07 
8.43443e-05 -3.18131e-07 -4.22018e-07 7.8952e-05 -2.95215e-06 -3.82887e-07 7.83355e-05 -3.3365e-06 -1.89891e-07 
7.92428e-05 -3.35105e-06 -5.57341e-07 7.98442e-05 -2.95497e-06 -3.75491e-07 7.92486e-05 -3.34552e-06 -1.85543e-07 
5.75848e-05 -4.19451e-06 -5.29122e-07 5.96704e-05 -3.45608e-06 -4.97135e-07 8.10225e-05 -1.17943e-06 -4.04497e-07 
8.5137e-05 -3.62779e-08 -6.37093e-07 8.43234e-05 -9.25412e-08 -4.16801e-07 8.35554e-05 -2.61132e-06 -5.34233e-07 
6.97235e-05 -5.66625e-07 -3.0657e-07 6.99585e-05 -5.8312e-07 -3.27983e-07 7.11448e-05 -3.66396e-07 -3.05194e-07 
7.13986e-05 -4.01658e-07 -3.262e-07 2.13635e-05 -3.70846e-05 -1.52428e-06 1.60071e-05 -4.21078e-05 -1.68281e-06 
6.74591e-05 -1.15479e-06 -3.75332e-07 6.91278e-05 -8.93563e-07 -3.6929e-07 6.86971e-05 -8.4451e-07 -3.503e-07 
6.70267e-05 -1.14153e-06 -3.55839e-07 5.89326e-05 -3.63416e-06 -3.95624e-07 5.79147e-05 -3.93726e-06 -5.07876e-07 
5.90853e-05 -4.547e-06 -5.61368e-07 8.81599e-05 4.46556e-08 -4.63365e-07 8.77651e-05 1.01119e-08 -2.29034e-07 
3.23086e-05 -1.76866e-05 -5.77411e-07 3.45463e-05 -1.66227e-05 -9.83078e-07 8.99257e-05 5.08241e-08 -2.4512e-07 
6.06984e-05 -2.85056e-06 -4.10729e-07 5.87399e-05 -8.15624e-06 -1.58478e-07 5.98055e-05 -9.18311e-06 -8.52097e-08 
5.73432e-05 -1.11769e-05 -2.09008e-07 5.62536e-05 -1.00405e-05 -1.02815e-07 5.6252e-05 -9.94941e-06 -3.09159e-07 
7.71867e-05 -5.20254e-07 -3.82452e-07 7.73427e-05 -3.84931e-07 -3.74816e-07 7.96621e-05 -2.27713e-07 -3.77622e-07 
1.23091e-05 -3.46338e-05 -1.26643e-06 6.89735e-05 -6.89768e-07 -2.87906e-07 7.06643e-05 -3.95959e-07 -2.80472e-07 
7.63347e-05 2.54938e-08 -2.78434e-07 2.43398e-05 -3.80776e-05 -1.93022e-06 2.18642e-05 -3.82374e-05 -1.73172e-06 
2.62599e-05 -3.53279e-05 -2.24214e-06 2.69075e-05 -3.52447e-05 -6.57687e-07 2.99275e-05 -3.53248e-05 -5.91967e-07 
8.77794e-05 9.4028e-09 -6.87545e-07 8.76317e-05 1.53605e-08 -4.56306e-07 1.23225e-05 -4.01816e-05 -1.02649e-06 
9.28628e-06 -4.09637e-05 -1.23934e-06 6.01517e-05 -5.05387e-06 -8.65059e-07 6.13546e-05 -4.43709e-06 -5.47983e-07 
7.19603e-05 -1.37749e-06 1.61303e-07 7.09856e-05 -1.8587e-06 1.22955e-07 6.37344e-05 -2.35396e-06 -4.52611e-07 
6.31388e-05 -2.29158e-06 -4.37075e-07 6.16967e-05 -2.80755e-06 -4.67139e-07 5.81907e-05 -5.39108e-06 -8.99259e-07 
5.86536e-05 -4.9633e-06 -5.79646e-07 7.72156e-05 -1.96821e-07 -3.56496e-07 7.69818e-05 -1.20851e-07 -3.44235e-07 
6.49349e-05 -3.67322e-06 -5.00754e-07 4.73153e-05 -1.41986e-05 -4.18125e-07 4.794e-05 -1.22807e-05 -4.35704e-07 
5.01749e-05 -1.21026e-05 -3.6906e-07 7.18161e-05 -2.65254e-06 -4.34314e-07 7.06714e-05 -2.61011e-06 -4.41102e-07 
7.10685e-05 -2.34768e-06 -4.35434e-07 7.21807e-05 -2.39401e-06 -4.30075e-07 7.15609e-05 -3.22919e-06 -4.38071e-07 
7.3175e-05 -3.05462e-06 -4.25524e-07 7.77011e-05 -3.41156e-06 -3.83908e-07 7.83278e-05 -3.34221e-06 -5.69621e-07 
1.84805e-05 -4.26822e-05 -5.62324e-06 1.18203e-05 -4.33966e-05 -3.69539e-06 6.11194e-05 -1.04779e-05 -7.4566e-10 
7.17361e-05 -3.24374e-07 -1.73469e-07 7.06939e-05 -5.07323e-07 -1.85037e-07 7.19142e-05 -2.22254e-07 -3.18376e-07 
7.08525e-05 -3.99506e-07 -1.09335e-07 7.18883e-05 -2.43004e-07 -1.0351e-07 7.87808e-05 -1.65695e-06 -4.03834e-07 
8.44284e-05 -9.03102e-07 -3.93429e-07 8.39597e-05 -1.31987e-06 -3.80112e-07 6.25235e-05 -2.81376e-06 -4.76265e-07 
6.34337e-05 -2.8706e-06 -4.82093e-07 7.29213e-05 -7.8726e-07 5.2659e-07 7.22686e-05 -2.08982e-06 4.18125e-07 
8.2333e-05 -5.56853e-07 -4.10407e-07 8.16161e-05 -5.43961e-07 -4.06139e-07 8.28083e-05 -4.28481e-07 -4.11754e-07 
5.80615e-05 -3.77029e-06 -4.46616e-07 5.7727e-05 -4.00968e-06 -4.25116e-07 6.79758e-05 -1.20823e-06 -3.91178e-07 
6.98084e-05 -4.87319e-06 3.22649e-07 4.93974e-05 -1.57399e-05 -3.40842e-07 5.05087e-05 -1.74365e-05 -3.03301e-07 
4.65153e-05 -1.84893e-05 -3.96616e-07 5.82106e-05 -5.41685e-06 -2.99503e-07 6.003e-05 -4.766e-06 -5.66776e-07 
8.71317e-05 3.29395e-08 -4.41917e-07 6.53179e-05 -4.44131e-06 -5.1305e-07 7.97876e-05 -6.28694e-07 -3.98837e-07 
7.90598e-05 -5.75726e-07 -3.93162e-07 8.01847e-05 -4.75021e-07 -3.95725e-07 8.09124e-05 -5.14696e-07 -4.01529e-07 
6.77454e-05 -9.49825e-07 -2.91584e-07 7.06758e-05 -2.18631e-06 -4.34728e-07 7.19806e-05 -2.14941e-06 -4.28269e-07 
8.72011e-05 3.46096e-08 -4.46333e-07 8.62307e-05 -1.16859e-07 -4.35247e-07 8.58689e-05 -1.43984e-07 -4.34065e-07 
8.46217e-05 -4.09031e-08 -4.18641e-07 8.41271e-05 -4.43834e-08 -6.18754e-07 7.84195e-05 7.86663e-10 -4.90279e-07 
7.75654e-05 9.51029e-09 -3.1171e-07 6.68028e-05 -1.5831e-06 -4.15211e-07 6.63384e-05 -1.47659e-06 -3.98961e-07 
8.12877e-05 -2.0084e-06 -3.85649e-07 8.1406e-05 -1.72407e-06 -3.91871e-07 8.26888e-05 -1.55187e-06 -3.86249e-07 
7.44926e-05 -1.60528e-06 -2.06184e-07 7.42211e-05 -1.85852e-06 -6.2445e-07 7.42254e-05 -1.86415e-06 -2.08144e-07 
7.96301e-05 -1.36045e-06 -4.04241e-07 7.61225e-05 -9.26987e-08 -3.31748e-07 7.63069e-05 -1.65162e-07 -3.45641e-07 
4.43455e-05 -1.64555e-05 -4.63991e-07 4.50772e-05 -1.43205e-05 -4.81487e-07 4.01083e-05 -2.37828e-05 -4.98821e-07 
4.02257e-05 -2.15472e-05 -5.02047e-07 8.32235e-05 -2.54302e-07 -4.11332e-07 8.41084e-05 -1.64218e-07 -4.17106e-07 
6.50837e-05 -1.89001e-06 -4.25747e-07 6.56689e-05 -2.00462e-06 -4.39449e-07 6.46113e-05 -1.82284e-06 -4.08554e-07 
3.82971e-05 -1.4193e-05 -8.16847e-07 4.16276e-05 -1.21297e-05 -6.8639e-07 4.08382e-05 -1.32451e-05 -6.68298e-07 
7.72097e-05 5.69338e-09 -3.13266e-07 7.65833e-05 2.12694e-08 -2.96075e-07 1.68612e-05 -4.27402e-05 -2.12103e-06 
6.5695e-05 -1.41259e-06 -3.36626e-07 6.63813e-05 -1.26533e-06 -3.08689e-07 8.2293e-05 -9.24462e-07 -4.07558e-07 
8.68086e-05 -2.18316e-08 -4.44082e-07 8.77052e-05 7.29063e-08 -4.55345e-07 7.91134e-05 -1.39293e-08 -3.42713e-07 
7.96531e-05 -6.6746e-07 -5.98726e-07 7.93988e-05 -8.01966e-07 -6.01835e-07 7.84687e-05 -7.98347e-07 -5.9726e-07 
8.88682e-05 1.46123e-07 -4.72152e-07 8.98951e-05 3.17028e-07 -2.43086e-07 6.55691e-05 -1.44873e-06 -3.57423e-07 
6.69225e-05 -1.17644e-06 -2.83298e-07 6.55046e-05 -1.66926e-06 -2.69521e-07 6.54846e-05 -1.54068e-06 -3.01835e-07 
7.27261e-05 -1.16143e-06 7.1835e-07 7.27639e-05 -9.7601e-07 4.11807e-07 6.40283e-05 -1.99895e-06 -3.10762e-07 
6.47351e-05 -1.68552e-06 -3.31787e-07 7.94759e-05 -4.25783e-07 -3.89147e-07 8.05442e-05 -2.67467e-07 -3.87609e-07 
8.04548e-05 -1.77886e-07 -1.9018e-07 8.04652e-05 -1.75456e-07 -5.70363e-07 5.13948e-05 -7.3559e-06 -4.77718e-07 
5.35858e-05 -6.1261e-06 -4.52571e-07 5.45126e-05 -6.15876e-06 -4.06428e-07 6.97078e-05 -2.56447e-06 -4.46265e-07 
6.92916e-05 -2.40172e-06 -4.45543e-07 9.90875e-06 -4.42163e-05 -1.07279e-05 1.23947e-05 -4.1489e-05 -7.95976e-06 
1.28264e-05 -3.9281e-05 -1.25249e-05 7.93956e-05 -8.03496e-07 -2.00486e-07 7.8797e-05 -9.57937e-07 -6.03373e-07 
7.37664e-05 -2.62111e-08 -2.24991e-07 7.38984e-05 -2.34995e-08 -2.01641e-07 7.02601e-05 -6.26472e-07 -3.47062e-07 
6.01721e-05 -5.07669e-06 -2.88396e-07 8.36926e-05 -1.21138e-06 -3.88144e-07 5.41435e-05 -1.47868e-05 -2.10815e-07 
5.77878e-05 -1.25798e-05 -1.0248e-07 5.37978e-05 -1.33738e-05 -1.16383e-07 5.37863e-05 -1.32837e-05 -3.54223e-07 
7.24572e-05 -2.28593e-07 -3.06811e-07 8.24304e-05 -1.4152e-06 -3.93229e-07 8.34524e-05 -1.10711e-06 -3.95659e-07 
8.47203e-05 -1.56283e-06 -5.43824e-07 8.3373e-05 -1.99996e-06 -3.66769e-07 8.12028e-05 -3.9599e-07 -3.99376e-07 
8.20971e-05 -4.18192e-07 -4.06687e-07 8.64089e-05 -5.34989e-08 -4.41026e-07 8.72506e-05 1.68275e-08 -4.50929e-07 
8.54944e-05 -1.53674e-07 -4.31314e-07 1.11121e-05 -4.54543e-05 -1.39075e-06 7.50963e-05 -6.68731e-07 -3.83467e-07 
7.62234e-05 -6.35261e-07 -3.85105e-07 7.6608e-05 -4.6124e-07 -3.76277e-07 7.55315e-05 -4.82039e-07 -3.72915e-07 
6.96777e-05 -9.84384e-07 -3.84582e-07 6.94975e-05 -7.41559e-07 -2.01092e-07 7.0878e-05 -3.75688e-07 -3.35751e-07 
8.32053e-05 -1.04965e-06 -4.00305e-07 5.24457e-05 -6.05762e-06 -5.81384e-07 5.41467e-05 -5.45661e-06 -5.74423e-07 
5.28026e-05 -6.09219e-06 -6.03172e-07 5.10057e-05 -6.74202e-06 -6.11604e-07 8.72448e-05 2.87951e-09 -4.51244e-07 
8.67168e-05 -3.71933e-09 -2.22067e-07 7.95813e-05 -3.18031e-07 -3.83534e-07 5.01662e-05 -7.5686e-06 -5.21664e-07 
5.23972e-05 -6.36943e-06 -4.95593e-07 7.65114e-05 -2.53658e-07 -3.58031e-07 7.72677e-05 -2.87008e-07 -3.66235e-07 
7.84036e-05 -6.50547e-10 -1.63408e-07 6.1729e-05 -4.04161e-06 -5.32911e-07 6.38934e-05 -3.66398e-06 -5.08227e-07 
7.6906e-05 -2.74919e-06 -4.01359e-07 7.73686e-05 -2.73225e-06 -6.09756e-07 7.73761e-05 -2.72984e-06 -2.11407e-07 
7.62468e-05 -3.11531e-06 -2.00538e-07 7.67194e-05 -3.09843e-06 -4.09763e-07 7.62371e-05 -3.11779e-06 -6.02141e-07 
2.58736e-05 -3.03536e-05 -5.3559e-07 2.6096e-05 -2.82806e-05 -1.56191e-06 2.61029e-05 -2.83862e-05 -5.2282e-07 
6.45307e-05 -2.4196e-06 -4.60603e-07 6.58152e-05 -1.46288e-06 -3.81764e-07 6.42614e-05 -1.80662e-06 -3.87034e-07 
8.04868e-05 -3.58765e-07 -3.925e-07 8.2339e-05 -3.19412e-07 -4.05332e-07 5.73408e-05 -1.12829e-05 -7.10553e-08 
6.11579e-05 -2.70465e-06 -4.27261e-07 6.13598e-05 -2.73177e-06 -4.48552e-07 5.57774e-05 -4.73677e-06 -5.40524e-07 
5.61658e-05 -4.49674e-06 -5.17058e-07 2.29987e-05 -2.45804e-05 -2.36319e-06 2.4956e-05 -2.51185e-05 -1.28027e-06 
1.88519e-05 -2.85461e-05 -2.37642e-06 8.4435e-05 -2.10891e-06 -3.56911e-07 8.42904e-05 -2.29028e-06 -5.34184e-07 
8.42936e-05 -2.28736e-06 -1.78088e-07 8.44628e-05 -6.06569e-07 -4.11334e-07 8.50054e-05 -4.15894e-07 -4.19009e-07 
7.47399e-05 -2.88193e-06 -4.14875e-07 8.05321e-05 -3.24852e-06 -3.62626e-07 7.99237e-05 -3.35881e-06 -5.47728e-07 
5.56736e-05 -4.65317e-06 -4.99887e-07 5.35714e-05 -5.55808e-06 -5.16284e-07 6.32288e-05 -2.14608e-06 -3.42078e-07 
6.24745e-05 -2.54679e-06 -3.21155e-07 1.14852e-05 -4.61636e-05 -1.85959e-06 8.49331e-05 -2.29937e-07 -4.26549e-07 
8.52849e-05 -2.35162e-07 -4.28551e-07 8.63481e-05 -1.15839e-07 -4.32391e-07 7.48527e-05 -2.33344e-07 -3.43446e-07 
7.55181e-05 -1.53182e-07 -3.37039e-07 7.53051e-05 -8.7361e-08 -3.21829e-07 7.46535e-05 -1.53974e-07 -3.28259e-07 
8.44276e-05 -7.82262e-07 -4.00962e-07 6.87241e-05 -1.44302e-06 -4.14089e-07 4.03161e-05 -1.25927e-05 -7.62277e-07 
8.26478e-05 -7.48319e-07 -4.10758e-07 8.90278e-05 2.11226e-07 -4.73153e-07 8.99103e-05 3.11703e-07 -7.2883e-07 
8.51974e-05 -2.7846e-07 -4.26626e-07 7.68872e-05 -1.64794e-06 -2.0392e-07 7.68845e-05 -1.64578e-06 -6.11822e-07 
7.78196e-05 -1.84488e-06 -2.02612e-07 7.78164e-05 -1.84505e-06 -6.078e-07 7.648e-05 -1.99034e-06 -4.09161e-07 
9.03888e-05 1.79369e-07 -4.96737e-07 9.04251e-05 1.23527e-07 -2.4903e-07 9.04415e-05 1.21567e-07 -7.47076e-07 
3.62959e-06 -5.06295e-05 -1.19786e-06 8.3722e-06 -4.86006e-05 -2.27315e-06 3.43208e-06 -5.12811e-05 -3.61673e-06 
5.77891e-06 -5.0095e-05 -1.68013e-06 7.07328e-05 -7.08155e-07 -3.65566e-07 2.3435e-05 -2.81167e-05 -1.23821e-06 
7.56807e-05 -2.40257e-07 -3.50973e-07 7.04585e-05 -1.51731e-06 -4.17378e-07 6.88201e-05 -1.85549e-06 -4.32924e-07 
6.78853e-05 -1.82709e-06 -4.32696e-07 6.95852e-05 -1.4712e-06 -4.16053e-07 7.22623e-05 -1.99029e-07 -1.35212e-07 
7.09979e-05 -3.53128e-07 -1.34021e-07 7.22801e-05 -1.81649e-07 -4.15767e-07 2.73615e-05 -3.79472e-05 -2.26469e-06 
2.89056e-05 -3.54357e-05 -2.26263e-06 6.29279e-05 -2.21303e-06 -4.17361e-07 8.35375e-05 -6.7653e-07 -4.12465e-07 
6.8745e-05 -2.12278e-06 -4.41709e-07 6.76653e-05 -2.52016e-06 -4.56667e-07 6.83088e-05 -2.80836e-06 -4.58877e-07 
6.80708e-05 -5.4856e-06 2.13243e-07 7.51138e-05 -1.3248e-06 -4.06815e-07 7.62361e-05 -1.02748e-06 -3.99375e-07 
7.66862e-05 -1.2209e-06 -4.04139e-07 4.6785e-05 -1.60922e-05 -4.06846e-07 5.91746e-05 -3.40281e-06 -4.18823e-07 
5.81449e-05 -7.81535e-06 -2.72852e-07 6.15582e-05 -5.12597e-06 -2.39963e-07 6.07814e-05 -6.10175e-06 -1.36546e-07 
4.97455e-05 -1.38087e-05 -3.5292e-07 6.70961e-05 -1.53735e-06 -1.9206e-07 6.89894e-05 -9.72788e-07 -1.78144e-07 
6.84949e-05 -1.26545e-06 -1.52941e-07 5.47602e-05 -5.02277e-06 -5.25966e-07 5.25988e-05 -5.94201e-06 -5.44e-07 
6.71271e-05 -2.2516e-06 -4.50679e-07 4.38517e-05 -1.88136e-05 -4.5191e-07 4.08731e-05 -1.90142e-05 -5.11911e-07 
7.18739e-05 -2.0956e-07 -3.73301e-07 7.18515e-05 -2.2902e-07 -1.21766e-07 7.00108e-05 -5.10163e-07 -2.58024e-07 
6.82613e-05 -8.69764e-07 -2.66496e-07 7.78406e-05 -9.45194e-08 -3.47073e-07 7.12906e-05 -8.21114e-07 -3.8039e-07 
7.29132e-05 -6.43416e-07 -3.74052e-07 7.23706e-05 -5.13846e-07 -5.38739e-07 7.38829e-05 -3.83435e-07 -5.33467e-07 
7.23626e-05 -5.28472e-07 -1.79566e-07 7.46381e-05 -3.58644e-07 -3.57417e-07 5.41707e-05 -1.16575e-05 -3.68738e-07 
5.4177e-05 -1.17447e-05 -1.23265e-07 7.03118e-05 -2.0294e-06 -4.33023e-07 4.93424e-05 -2.29163e-05 -3.51825e-07 
4.75973e-05 -2.03608e-05 -3.69724e-07 5.20206e-05 -1.9446e-05 -2.6942e-07 5.81374e-05 -7.88979e-06 -8.04301e-08 
6.13512e-05 -6.35006e-06 -5.69131e-08 7.39265e-05 -4.31871e-08 -6.26201e-08 7.35331e-05 -9.5165e-08 -1.35029e-07 
4.58775e-05 -1.24514e-05 -4.9949e-07 8.07815e-05 -1.6576e-08 -5.51621e-07 8.1219e-05 -1.92866e-08 -3.74261e-07 
8.16817e-05 -2.10906e-08 -5.70982e-07 4.43381e-05 -3.15543e-05 -3.00766e-07 3.80795e-05 -3.41635e-05 -1.0121e-06 
4.39436e-05 -3.13719e-05 -1.02881e-06 4.23148e-05 -3.30637e-05 -8.33047e-07 7.6833e-05 -6.99615e-07 -3.89608e-07 
7.03095e-05 -2.88375e-06 -4.46381e-07 6.15367e-05 -5.19489e-06 -7.97826e-08 7.44265e-05 -9.15259e-07 -3.94326e-07 
7.29668e-05 -1.0069e-06 -3.96559e-07 7.37035e-05 -7.37061e-07 -3.83383e-07 2.56247e-05 -3.26667e-05 -1.20188e-06 
2.99744e-05 -2.78764e-05 -4.25935e-07 2.58016e-05 -3.02933e-05 -1.63035e-06 7.11793e-05 -3.55573e-06 -4.42273e-07 
7.02217e-05 -2.71934e-06 1.60662e-07 5.5585e-05 -5.17362e-06 -4.26032e-07 8.67302e-05 -3.82789e-09 -6.666e-07 
8.39265e-05 -1.4987e-06 -3.74013e-07 8.3917e-05 -1.69006e-06 -3.68553e-07 8.25761e-05 -2.02312e-06 -3.73844e-07 
8.25855e-05 -1.82145e-06 -3.79113e-07 7.69939e-05 -6.59093e-08 -3.34406e-07 6.90177e-05 -1.30424e-06 -1.13468e-07 
6.74889e-05 -1.732e-06 -1.42623e-07 8.42487e-05 -3.74563e-07 -4.20881e-07 7.0161e-05 -5.84601e-06 2.21544e-07 
7.14364e-05 -4.03437e-06 2.52654e-07 7.02568e-05 -5.7579e-06 6.64079e-07 2.74525e-05 -2.54447e-05 -5.01479e-07 
8.47256e-05 -1.5579e-06 -1.81206e-07 6.25865e-05 -2.25682e-06 -3.93154e-07 5.68583e-05 -4.20249e-06 -4.73485e-07 
6.00577e-05 -3.3708e-06 -3.58594e-07 8.12197e-05 -2.31189e-06 -3.78864e-07 6.40365e-05 -1.84729e-06 -3.6013e-07 
8.20301e-05 -2.3235e-06 -3.71427e-07 7.61162e-05 -3.07034e-08 -3.16142e-07 7.3061e-05 -2.19936e-06 -4.23958e-07 
7.21065e-05 -9.06401e-07 -3.89464e-07 4.46669e-05 -2.37851e-05 -4.3386e-07 4.64093e-05 -2.64777e-05 -4.36722e-07 
6.97324e-05 -2.36922e-06 7.85836e-08 5.00956e-05 -9.02058e-06 -4.54509e-07 5.23537e-05 -7.46116e-06 -4.30479e-07 
5.35214e-05 -7.67596e-06 -3.76096e-07 5.13164e-05 -9.35863e-06 -3.99249e-07 5.96422e-05 -3.19292e-06 -4.366e-07 
8.32353e-05 -5.10398e-07 -4.15099e-07 7.60987e-05 -1.47429e-06 -6.11956e-07 7.44901e-05 -1.59962e-06 -6.18325e-07 
7.61004e-05 -1.47818e-06 -2.03813e-07 3.77899e-05 -2.74448e-05 -5.60644e-07 7.2911e-05 -2.41998e-07 -4.85459e-07 
7.18878e-05 -4.34317e-07 -1.70586e-07 7.28978e-05 -2.56909e-07 -1.61838e-07 5.60577e-05 -4.85518e-06 -5.60947e-07 
7.15803e-05 -4.65242e-07 -3.42828e-07 7.36186e-05 -7.92372e-08 -6.41402e-08 7.34824e-05 -1.05339e-07 -1.95783e-08 
7.35345e-05 -9.86834e-08 -5.76643e-08 4.50439e-05 -1.18332e-05 -5.46278e-07 4.44115e-05 -1.13113e-05 -5.88994e-07 
4.67848e-05 -9.99351e-06 -5.45279e-07 6.80832e-05 -1.7964e-06 -9.9862e-08 5.63563e-05 -1.49008e-05 -1.32515e-07 
5.86828e-05 -1.51148e-05 -4.36601e-08 5.99149e-05 -1.26472e-05 -1.75591e-08 6.12593e-05 -3.16981e-06 -3.1322e-07 
6.40513e-05 -2.18036e-06 -2.77793e-07 5.81563e-05 -3.71402e-06 -4.67185e-07 6.89029e-05 -1.80473e-06 -4.70278e-08 
6.28557e-05 -3.5678e-06 -1.99646e-07 6.13994e-05 -3.7454e-06 -2.54566e-07 6.29684e-05 -2.76895e-06 -2.65494e-07 
6.42727e-05 -2.58653e-06 -2.16165e-07 7.15513e-05 -3.95558e-06 7.60134e-07 7.0357e-05 -1.76594e-06 -4.25976e-07 
6.94653e-05 -1.99355e-06 1.42789e-08 8.01506e-05 -2.31203e-06 -3.87296e-07 8.02516e-05 -2.0014e-06 -3.9299e-07 
7.44318e-05 -5.11312e-07 -3.70396e-07 7.38742e-05 -3.9492e-07 -1.77774e-07 4.29806e-05 -1.09665e-05 -6.83095e-07 
4.34806e-05 -2.14123e-05 -4.48013e-07 8.22206e-05 -4.96443e-08 -3.89136e-07 8.14263e-05 -4.25973e-08 -3.78606e-07 
8.21644e-05 -9.21397e-08 -5.86971e-07 8.13615e-05 -8.16721e-08 -5.71608e-07 8.13494e-05 -8.29831e-08 -1.90445e-07 
6.96142e-05 -9.55694e-07 -1.39765e-07 7.39929e-05 -3.23189e-08 -1.65771e-07 7.42998e-05 -1.11324e-08 -7.89226e-08 
7.34901e-05 -1.43704e-06 -4.10704e-07 7.46787e-05 -1.1124e-06 -4.01295e-07 7.26003e-05 -1.18731e-06 2.4193e-07 
3.15436e-06 -5.11496e-05 -5.27115e-07 2.29278e-06 -5.1973e-05 -2.53595e-07 4.03344e-06 -4.9801e-05 -2.7613e-07 
7.55161e-05 -3.64938e-07 -3.6317e-07 7.1992e-05 -1.46781e-06 -4.13723e-07 4.81775e-05 -2.75827e-05 -6.72082e-07 
4.83141e-05 -2.76974e-05 -2.24823e-07 7.99301e-05 -3.35299e-06 -1.82853e-07 5.91937e-05 -5.22713e-06 -5.88058e-07 
7.4141e-05 -2.50819e-07 -5.10896e-07 7.396e-05 -1.83698e-07 -1.62403e-07 7.41302e-05 -2.62847e-07 -1.70324e-07 
4.2482e-05 -3.0367e-05 -5.67371e-07 6.21262e-05 -3.39593e-06 -5.06724e-07 6.42494e-05 -3.03048e-06 -4.87215e-07 
2.42846e-05 -3.96518e-05 -5.6367e-06 7.23952e-05 -2.82045e-06 -4.30797e-07 6.08708e-05 -3.96169e-06 -5.33236e-07 
6.88692e-05 -7.97452e-07 -2.34745e-07 7.0923e-05 -3.05721e-06 -4.4289e-07 6.5322e-05 -2.52609e-06 -4.65123e-07 
6.81737e-05 -3.2195e-06 -4.66746e-07 6.67638e-05 -2.99696e-06 -4.72915e-07 6.63646e-05 -2.11328e-06 -4.45838e-07 
6.72295e-05 -1.69811e-06 -4.25718e-07 8.29664e-05 -6.1324e-07 -4.13177e-07 8.41418e-05 -4.37503e-07 -4.19399e-07 
8.52926e-05 -3.15621e-07 -4.23888e-07 7.65542e-05 -3.50764e-07 -3.67574e-07 8.23398e-05 -9.43722e-08 -3.93404e-07 
1.51444e-05 -3.82047e-05 -4.38483e-06 6.04073e-05 -4.35767e-06 -5.50265e-07 7.24094e-05 -1.8389e-07 -1.94072e-07 
6.81974e-05 -2.37411e-06 -2.46934e-08 6.84521e-05 -2.81562e-06 3.70272e-08 6.64244e-05 -4.0114e-06 1.94759e-08 
6.61201e-05 -3.46507e-06 -2.37804e-08 6.61587e-05 -3.40236e-06 -7.06697e-08 7.69111e-05 -1.66579e-08 -3.19764e-07 
7.80669e-05 -1.91014e-08 -3.32643e-07 7.7794e-05 -5.0165e-08 -3.3814e-07 7.43372e-05 -7.55805e-09 -2.36496e-07 
8.32443e-05 -3.22397e-07 -4.1316e-07 7.50594e-05 -2.31302e-06 -4.14784e-07 7.32837e-05 -2.43946e-06 -4.24338e-07 
7.4405e-05 -2.08555e-06 -2.08684e-07 7.43992e-05 -2.08145e-06 -6.26281e-07 7.61369e-05 -1.97246e-06 -2.05131e-07 
8.46113e-06 -4.80806e-05 -1.49234e-06 3.73559e-05 -1.55077e-05 -7.84469e-07 4.02579e-05 -1.45889e-05 -6.39661e-07 
4.5443e-05 -9.58132e-06 -6.28366e-07 4.42046e-05 -1.06008e-05 -6.30177e-07 6.74914e-05 -4.53128e-06 1.1059e-07 
6.48072e-05 -5.33379e-06 2.16254e-09 6.63788e-05 -4.08605e-06 6.59137e-09 7.90856e-05 -2.26933e-06 -3.94989e-07 
8.50507e-05 -1.22291e-07 -4.26469e-07 8.41876e-05 -2.10502e-07 -4.19471e-07 7.6133e-05 -1.9703e-06 -6.15428e-07 
7.71278e-05 -2.18575e-06 -6.08469e-07 7.7133e-05 -2.18572e-06 -2.02917e-07 4.86331e-05 -1.08605e-05 -4.49136e-07 
8.69075e-05 -3.56979e-09 -4.46906e-07 5.70284e-05 -4.13709e-06 -4.91949e-07 6.92719e-05 -4.0306e-06 2.07001e-07 
8.11754e-05 -2.62421e-06 -3.71865e-07 7.39924e-05 -2.66451e-06 -4.20499e-07 7.5748e-05 -2.51475e-06 -4.10651e-07 
5.57076e-06 -4.92525e-05 -7.71378e-07 7.58369e-05 -8.40478e-07 -3.9314e-07 5.07212e-05 -1.06399e-05 -3.83421e-07 
3.95529e-05 -3.42067e-05 -2.11553e-06 4.07583e-05 -3.46278e-05 -5.62915e-07 6.93134e-05 -2.84283e-06 -4.52703e-07 
6.83184e-05 -1.31453e-06 -4.03443e-07 6.6102e-05 -2.71839e-06 -4.6974e-07 8.85933e-05 1.956e-07 -4.65711e-07 
8.9661e-05 3.81733e-07 -2.39575e-07 8.96743e-05 3.74508e-07 -7.19002e-07 7.32003e-05 -1.21525e-06 -4.04481e-07 
7.45131e-05 -2.75812e-09 -1.75261e-07 4.74749e-05 -1.04263e-05 -5.02323e-07 7.53617e-05 -2.52368e-08 -3.04602e-07 
8.07053e-05 -3.0817e-08 -3.67923e-07 6.69681e-05 -1.27599e-06 -2.49948e-07 8.1669e-05 -2.12156e-08 -1.90351e-07 
8.07684e-05 -1.71532e-08 -1.83887e-07 3.22431e-05 -2.79843e-05 -1.10156e-06 3.23995e-05 -2.81031e-05 -3.12213e-07 
2.99827e-05 -2.99419e-05 -9.44453e-07 2.98446e-05 -2.77673e-05 -1.28995e-06 3.21632e-05 -2.60312e-05 -6.67282e-07 
6.81634e-05 -3.64762e-06 -4.7234e-07 8.38456e-05 -5.4809e-07 -4.16125e-07 5.74484e-05 -5.90197e-06 -2.96522e-07 
7.95258e-05 -1.92213e-07 -5.60464e-07 7.95152e-05 -1.95609e-07 -1.8686e-07 8.02956e-05 -1.50318e-07 -3.76299e-07 
3.52358e-05 -2.09684e-05 -6.41215e-07 3.14913e-05 -2.27115e-05 -1.17098e-06 3.36557e-05 -2.35404e-05 -9.81064e-07 
3.37192e-05 -2.36671e-05 -3.23103e-07 3.31961e-05 -2.02003e-05 -7.86521e-07 3.15287e-05 -2.28645e-05 -3.98901e-07 
3.91009e-05 -1.90141e-05 -5.52134e-07 3.71003e-05 -1.83381e-05 -6.43877e-07 4.08432e-05 -1.65362e-05 -5.54076e-07 
5.74972e-05 -4.32198e-06 -4.01249e-07 6.72896e-05 -2.34194e-06 -8.17495e-08 6.50944e-05 -3.38268e-06 -5.34833e-08 
6.30701e-05 -3.5454e-06 -5.09898e-07 7.58332e-05 -2.82233e-06 -4.07804e-07 7.71771e-05 -2.46562e-06 -2.01537e-07 
7.61075e-05 -2.52972e-06 -6.12712e-07 7.71712e-05 -2.46646e-06 -6.04629e-07 3.40499e-05 -2.92744e-05 -1.09056e-06 
3.42391e-05 -2.94104e-05 -3.49215e-07 3.29525e-05 -2.94766e-05 -7.18817e-07 5.39129e-05 -5.40155e-06 -5.51629e-07 
8.05144e-05 -5.05068e-08 -3.67587e-07 8.03726e-05 -9.1988e-08 -1.85482e-07 7.25803e-05 -5.10975e-07 5.20291e-09 
5.00306e-05 -7.11678e-06 -6.07357e-07 4.90934e-05 -7.55211e-06 -6.02134e-07 4.78469e-05 -8.287e-06 -5.94856e-07 
4.67842e-05 -8.71251e-06 -6.33366e-07 4.67059e-05 -9.18359e-06 -5.86261e-07 7.51511e-05 -3.19404e-06 -6.13422e-07 
7.30705e-05 -8.90372e-08 -2.14454e-07 7.33242e-05 -8.82759e-08 -1.76033e-07 6.92217e-05 -3.25219e-06 -4.58744e-07 
8.74786e-05 2.208e-08 -4.5403e-07 8.79756e-05 6.23409e-08 -4.60228e-07 4.78222e-05 -8.9599e-06 -5.48628e-07 
4.90882e-05 -7.82844e-06 -5.59078e-07 5.17241e-05 -1.52456e-05 -2.79167e-07 7.27459e-05 -5.6529e-07 7.26139e-08 
6.98936e-05 -3.42589e-06 -4.54178e-07 5.56134e-05 -6.22587e-06 -3.56114e-07 4.90984e-05 -8.75302e-06 -5.04872e-07 
7.45637e-05 -3.58032e-06 -6.15187e-07 7.45752e-05 -3.57889e-06 -2.04804e-07 8.50698e-05 -1.2282e-06 -5.51306e-07 
8.50756e-05 -1.22175e-06 -1.83886e-07 7.31939e-05 -2.10458e-07 3.28331e-08 7.3973e-05 -1.70977e-07 -4.87005e-07 
8.29503e-05 -2.60612e-08 -3.97401e-07 8.2481e-05 -2.50679e-08 -5.86921e-07 2.63668e-05 -3.38294e-05 -1.27712e-06 
5.13689e-05 -6.63218e-06 -5.34169e-07 5.65154e-05 -5.15973e-06 -3.79681e-07 4.23664e-05 -1.28694e-05 -6.1367e-07 
6.07814e-05 -1.60329e-05 2.36039e-08 6.07739e-05 -1.58865e-05 5.86287e-08 6.17726e-05 -1.31951e-05 1.10397e-07 
5.30836e-05 -1.703e-05 -2.35339e-07 6.51612e-05 -3.22408e-06 -4.88533e-07 6.66273e-05 -3.42133e-06 -4.82246e-07 
5.53547e-05 -7.27049e-06 -3.20652e-07 7.84347e-05 -1.98337e-06 -2.0102e-07 7.84302e-05 -1.98454e-06 -6.03017e-07 
6.56172e-05 -1.84306e-06 -2.32956e-07 6.00075e-05 -3.93682e-06 -3.06161e-07 2.87954e-05 -2.00621e-05 -6.67322e-07 
2.86333e-05 -1.98634e-05 -2.02469e-06 2.77428e-05 -2.13277e-05 -1.31244e-06 3.13387e-05 -1.88249e-05 -1.12286e-06 
5.79003e-05 -1.87982e-05 -4.84784e-08 5.54904e-05 -1.7266e-05 -1.60028e-07 5.43165e-05 -2.08477e-05 -3.36386e-07 
5.78427e-05 -1.86733e-05 -1.3523e-07 7.31057e-05 -3.23862e-07 -1.6968e-07 8.37732e-05 -1.39037e-07 -4.12426e-07 
8.29318e-05 -1.2433e-07 -4.02244e-07 8.05109e-05 -2.95731e-06 -3.69656e-07 6.64018e-05 -2.31731e-06 -1.33915e-07 
6.51284e-05 -3.32263e-06 -1.59626e-07 3.36252e-05 -1.81927e-05 -9.13843e-07 3.68438e-05 -1.72251e-05 -7.08314e-07 
4.2947e-05 -1.17172e-05 -6.36365e-07 7.11795e-05 -4.86795e-07 -1.52577e-07 7.60925e-05 9.26852e-09 -2.99779e-07 
7.82423e-05 -4.2246e-09 -3.27813e-07 5.01681e-05 -7.0886e-06 -5.69496e-07 5.15586e-05 -6.39845e-06 -5.76571e-07 
6.76876e-05 -1.21401e-06 -2.14028e-07 4.26809e-05 -2.75957e-05 -4.91686e-07 3.91045e-05 -2.8799e-05 -5.59851e-07 
4.13399e-05 -2.50241e-05 -4.86e-07 7.92143e-05 -2.01577e-06 -3.98206e-07 7.31221e-05 -1.62963e-07 -1.3131e-07 
7.31371e-05 -1.4904e-07 -4.33939e-07 7.29262e-05 -1.23121e-07 -2.53588e-07 5.1814e-05 -1.20231e-05 -4.75783e-07 
5.15363e-05 -1.38676e-05 -1.50343e-07 5.15231e-05 -1.37871e-05 -4.49897e-07 3.04686e-05 -2.06042e-05 -1.03368e-06 
8.61506e-05 -5.86032e-08 -4.38144e-07 8.52838e-05 -1.39707e-07 -4.29306e-07 5.18238e-05 -1.2101e-05 -1.58729e-07 
6.8772e-05 -3.34377e-06 1.06357e-07 8.43721e-05 -2.46825e-07 -4.21764e-07 7.87946e-05 -9.59639e-07 -2.01091e-07 
5.32421e-05 -8.95871e-06 -3.41028e-07 8.81387e-05 9.8653e-08 -4.61931e-07 7.30253e-05 -3.48358e-07 3.35116e-08 
3.86376e-05 -3.14922e-05 -6.67211e-07 3.5119e-05 -3.05534e-05 -1.0762e-06 3.39614e-05 -3.33112e-05 -1.5436e-06 
3.46494e-05 -3.33984e-05 -4.38722e-07 7.31306e-05 -2.64323e-07 -1.26295e-08 7.34089e-05 -1.2683e-07 7.17137e-09 
4.57104e-05 -9.25134e-06 -6.73232e-07 4.47114e-05 -9.81203e-06 -1.09905e-06 5.74003e-07 -5.33457e-05 -3.26612e-07 
2.3213e-06 -5.23461e-05 -7.61688e-07 1.86529e-06 -5.282e-05 -9.94217e-07 1.85738e-06 -5.24116e-05 -3.27577e-07 
4.25381e-05 -1.65036e-05 -5.09496e-07 8.02484e-05 -1.28459e-07 -5.60734e-07 8.02374e-05 -1.30867e-07 -1.86892e-07 
2.49363e-05 -2.3016e-05 -7.75412e-07 2.62657e-05 -2.30839e-05 -1.3194e-06 2.47848e-05 -2.27406e-05 -2.33782e-06 
3.16106e-05 -3.22008e-05 -4.7089e-07 3.05701e-05 -3.13988e-05 -4.82969e-07 3.02722e-05 -3.13131e-05 -1.47803e-06 
3.12292e-05 -3.2121e-05 -1.48287e-06 8.24687e-05 -2.52794e-08 -1.95667e-07 6.46998e-05 -2.90408e-06 -1.65124e-07 
3.1086e-06 -5.13003e-05 -1.95976e-06 2.72637e-06 -5.14668e-05 -7.93364e-07 2.59651e-06 -5.2031e-05 -2.34394e-06 
7.32628e-05 -2.01985e-07 1.02356e-07 2.20385e-06 -5.2311e-05 -8.504e-07 2.51165e-06 -5.23319e-05 -1.63094e-06 
7.96504e-05 -2.63873e-06 -3.84047e-07 7.31161e-05 -3.10183e-07 -5.08908e-07 3.31331e-05 -3.56447e-05 -1.53621e-06 
7.74169e-05 -1.24259e-06 -2.16829e-07 7.68558e-05 -1.49582e-06 -4.21903e-07 7.75125e-05 -1.02009e-06 -6.01634e-07 
7.75108e-05 -1.02358e-06 -2.00764e-07 7.70813e-05 -8.45375e-07 -5.9361e-07 5.96365e-05 -4.67053e-06 -2.71742e-07 
6.11774e-05 -4.50227e-06 -2.13953e-07 6.32091e-05 -4.12847e-06 -7.26616e-08 6.32345e-05 -4.06401e-06 -2.18463e-07 
4.55404e-05 -1.0173e-05 -5.88342e-07 7.74172e-05 -1.23966e-06 -6.21418e-07 2.96959e-05 -3.62228e-05 -5.19155e-06 
3.30752e-05 -3.60441e-05 -5.44141e-06 3.52942e-05 -3.61604e-05 -1.72544e-06 6.59537e-05 -2.05128e-06 -1.86232e-07 
4.3041e-05 -1.35306e-05 -5.65642e-07 5.17863e-05 -2.44587e-05 -4.99609e-07 5.18686e-05 -2.45726e-05 -1.61283e-07 
5.43611e-05 -2.09478e-05 -1.0785e-07 8.67273e-05 -1.52365e-08 -4.44641e-07 8.56523e-05 -6.57571e-08 -4.32227e-07 
5.10091e-06 -5.04984e-05 -1.19641e-06 2.55162e-06 -5.18413e-05 -5.41887e-07 8.1369e-05 -1.38659e-07 -1.92961e-07 
8.13798e-05 -1.37558e-07 -5.78999e-07 3.54079e-05 -3.0677e-05 -3.582e-07 6.17666e-05 -1.33195e-05 3.40059e-08 
4.41722e-06 -5.0753e-05 -8.3092e-07 7.76361e-05 -2.45035e-06 -4.12731e-07 7.51613e-05 -3.19309e-06 -2.0448e-07 
5.27739e-05 -1.02451e-05 -3.23173e-07 5.00242e-05 -2.60462e-05 -3.86254e-07 5.56385e-05 -9.64178e-06 -2.17679e-07 
2.44742e-05 -3.54315e-05 -3.55601e-06 2.18197e-05 -3.6175e-05 -1.07985e-05 7.35723e-05 -4.26545e-08 -2.46046e-07 
8.97905e-05 3.49891e-07 -4.82972e-07 4.34016e-05 -1.44026e-05 -5.30304e-07 2.74015e-05 -2.52971e-05 -1.50916e-06 
7.61146e-05 -2.53002e-06 -2.04203e-07 5.86948e-05 -4.11986e-06 -3.55557e-07 7.31985e-05 -7.45084e-08 -3.88152e-07 
5.13732e-05 -7.16115e-06 -3.31826e-07 5.13544e-05 -7.12644e-06 -9.96492e-07 5.27918e-05 -6.2624e-06 -6.19589e-07 
5.09538e-05 -7.04222e-06 -6.46223e-07 3.29348e-05 -3.70007e-05 -2.88898e-06 4.47486e-05 -9.86579e-06 -3.64158e-07 
4.70598e-05 -8.62926e-06 -6.7256e-07 7.31775e-05 -8.92981e-08 -1.26197e-07 7.95933e-05 -5.17892e-08 -3.56785e-07 
8.03843e-05 -9.01036e-08 -5.56323e-07 7.59328e-05 2.86955e-08 -2.81712e-07 2.9937e-05 -2.57667e-05 -1.21451e-06 
2.99994e-05 -2.58847e-05 -4.14003e-07 7.98271e-05 -3.37908e-08 -3.56554e-07 8.48944e-05 -1.38979e-06 -3.64687e-07 
7.33496e-05 -1.35037e-07 2.21257e-09 7.26513e-05 -1.19802e-07 -3.44531e-07 2.66226e-05 -3.95495e-05 -3.58748e-06 
8.05229e-05 -2.63046e-06 -3.77314e-07 7.19228e-05 -3.1054e-06 5.26406e-07 4.59268e-05 -9.28119e-06 -7.11957e-07 
4.70774e-05 -8.73845e-06 -1.04714e-06 4.04939e-05 -1.55177e-05 -5.95773e-07 7.26266e-05 -1.3661e-07 -1.12312e-07 
7.51445e-05 3.06776e-09 -2.86839e-07 7.35675e-05 -1.83625e-07 -2.98779e-07 5.09395e-05 -6.88742e-06 -6.28958e-07 
7.85299e-05 -8.39439e-08 -3.51475e-07 4.08656e-06 -5.01462e-05 -8.45021e-07 2.94153e-05 -2.24461e-05 -9.87052e-07 
7.00533e-05 -7.16849e-07 -1.66418e-07 7.70779e-05 -8.50228e-07 -1.97914e-07 2.6866e-05 -2.13916e-05 -1.4492e-06 
7.22098e-05 -2.2614e-06 2.68691e-07 7.2343e-05 -2.21775e-06 8.13405e-07 4.90556e-05 -7.64969e-06 -6.39918e-07 
7.45652e-05 -3.87451e-06 -4.0679e-07 7.32903e-05 -1.67921e-07 3.44212e-08 5.43933e-05 -1.02039e-05 -1.34675e-07 
5.78828e-05 -4.99557e-06 -3.28986e-07 7.31234e-06 -4.85082e-05 -1.11266e-06 5.93284e-05 -1.73138e-05 -2.58473e-08 
7.80427e-05 -7.075e-07 -5.90918e-07 5.43902e-05 -1.01224e-05 -4.04196e-07 7.82843e-05 -2.2416e-06 -1.9993e-07 
7.94719e-05 -8.09015e-08 -3.60066e-07 7.5241e-05 -3.82737e-06 -2.0026e-07 7.52294e-05 -3.83046e-06 -6.00436e-07 
7.82219e-05 -1.04275e-06 -4.17044e-07 7.87089e-05 -5.12398e-08 -3.47246e-07 4.90255e-05 -7.7756e-06 -6.58189e-07 
7.55166e-05 -1.76529e-06 -2.05795e-07 7.55132e-05 -1.76163e-06 -6.17467e-07 8.4695e-05 -1.09899e-07 -4.21807e-07 
6.37833e-05 -4.68833e-06 -1.21682e-07 6.37505e-05 -4.76057e-06 -4.06967e-08 4.80128e-05 -8.08854e-06 -6.3634e-07 
1.00968e-05 -3.27187e-05 -1.03223e-05 7.24514e-05 -9.48025e-07 6.05627e-07 7.82793e-05 -2.2433e-06 -5.99606e-07 
4.71022e-05 -8.78213e-06 -3.50007e-07 4.90998e-05 -7.93464e-06 -1.02335e-06 4.91216e-05 -7.97174e-06 -3.40785e-07 
7.79432e-05 -2.81407e-06 -2.08473e-07 7.79354e-05 -2.81775e-06 -6.02107e-07 7.89017e-05 -2.41034e-08 -3.42948e-07 
9.05134e-05 6.0157e-08 -4.99864e-07 8.41993e-05 -2.47151e-06 -3.55023e-07 7.846e-05 -2.48531e-06 -2.09467e-07 
7.84538e-05 -2.48825e-06 -6.04788e-07 5.02463e-05 -7.53574e-06 -6.72832e-07 7.8465e-05 -8.01226e-07 -1.99224e-07 
7.95449e-05 -2.54645e-06 -5.91756e-07 8.27405e-05 -1.24472e-07 -2.00002e-07 7.95386e-05 -7.58266e-07 -4.00778e-07 
7.89206e-05 -6.11992e-07 -5.91148e-07 7.54141e-05 -2.33268e-06 -6.19674e-07 6.87741e-05 -8.17581e-06 2.07569e-07 
6.46916e-05 -1.26576e-05 1.08343e-07 7.03579e-05 -4.55706e-07 -1.23279e-07 
Major%20Principal%20Stress%20Vector 3 3545 double
96.401277067 -0.77523286035 3.2304891305 29.577341222 -1.3322285917 0.17721120711 27.814580487 -1.2708334656 -0.39126867656 
100.56245438 -3.8761659871 -0.88378805743 49.954536774 0.058877635366 -0.014229282202 50.058612294 0.085028291632 -0.011156846468 
0.0027337878964 -6.8344354537e-06 -0.026821590137 49.963516896 0.040645018227 0.0058585434817 -50.054913166 -0.094325451266 -0.004056329156 
0.14591691889 0.0077384058806 -1.0239847775 101.01993681 0.94956260731 0.59533273311 107.97460384 2.5591735114 2.4815881914 
111.917089 1.8126221474 -1.6366066513 106.21830386 0.79824950484 -0.96513908381 95.63498753 0.74115648878 2.5087305542 
99.415130732 1.4071044729 3.2277402663 110.45009148 2.9428923434 1.714877663 111.23313866 0.84199745659 -1.4626576237 
69.601405993 -0.51449474734 -0.50474923318 24.712250364 -0.51205975277 -0.27835406984 120.74907038 -1.7355152104 1.38240504 
115.25797184 1.2118564714 0.074377143276 107.69098863 -0.47611762901 0.26808752485 100.18615501 0.46749567476 0.1984737114 
112.1034515 -2.3791716008 -0.026564401904 -117.22028022 1.2206358666 -0.0081932195722 -110.37064134 -0.84337351467 -0.01186319614 
104.71024283 0.26877305466 -0.019029314306 66.605461749 -0.34715152154 0.0020516153568 99.490515542 -3.3625657874 1.5612574836 
40.773956366 2.0913742818 -0.40431676781 74.017287921 3.1520570134 -0.5518829637 -101.66799645 -2.8249647155 4.0193457242 
99.083762648 0.50126699903 0.092759188454 -99.839036976 0.67097034823 -1.0539006297 99.907901865 -0.25632123667 0.18526182905 
100.61191138 -0.23107990016 0.36490425066 100.73826416 0.12370103213 0.19477039854 98.29243153 -0.072110082638 0.031725420408 
92.41163788 -0.24216065232 0.062210047037 85.503018912 -0.16990318993 0.092389487487 78.455100765 -0.16527116204 0.064771603681 
71.703492006 -0.14714919696 0.076786953897 65.670734652 -0.11452370841 0.067281215839 60.340448951 -0.12708013413 0.042347246556 
55.957114 -0.10582159235 0.039152980499 52.61560529 -0.10267773046 0.022337145472 50.355222703 0.046070031343 -0.012719577597 
49.628672367 0.061639947228 -0.058177811659 32.341717986 -0.13145476487 0.052497076512 55.571691103 2.5068619501 -0.93722179173 
93.683853735 4.1510824507 -1.5969500635 97.832494034 2.2430120712 -3.1785926474 -98.908906928 0.58013411216 -0.88837474939 
100.14940567 -0.6805221474 0.47268736346 100.17455379 -0.23983302573 0.23247678424 100.73724822 0.064243991522 0.21493446605 
99.723268166 -0.16633301684 0.076130382096 95.479519021 -0.2016636837 0.035430776413 89.048154283 -0.20074965467 0.070518160381 
81.940918837 -0.16539931305 0.092111301725 74.996665704 -0.18873567811 0.065096496177 68.662701518 -0.1886532427 0.07552519415 
62.903486207 -0.12401392502 0.089379766424 58.038716682 -0.10347956252 0.052812567168 54.100767989 -0.063294979628 0.057658343918 
51.39442458 -0.050013282238 0.0041689583414 49.835588781 0.089588435631 -0.028317291211 49.804502473 0.09020354938 -0.045427453596 
-50.065401764 0.0053003209969 0.013108463579 50.027906212 -0.048231648775 -0.0076786897738 -49.994148462 0.118424547 -0.0013414117679 
50.030817071 -0.15295128436 -0.022439960718 50.023319512 -0.18636650283 -0.013791868521 49.959688023 -0.10451619912 0.018861022635 
49.969168987 -0.087597458888 0.00017405872224 49.975929831 0.054975734421 0.0030808588748 50.001531092 0.11364834934 -0.0035064920951 
50.06080129 0.0057327686354 -0.011132593904 50.068902309 0.030331264901 -0.0065597735609 50.050161952 -0.13889506133 -0.02373547677 
50.04301809 -0.16940933372 -0.008260671487 50.021448258 -0.20779352908 -0.031360665738 49.975421186 -0.17752591707 0.0069487476811 
49.946103712 -0.11102545942 -0.0027131322994 49.912721665 -0.031783652172 0.034735356017 49.950722115 0.14762342624 -0.017715240971 
49.972398997 0.098766719758 -0.0076654790184 0.0010680395219 -6.3078861372e-05 -0.13622820191 0.00067605049396 0.00028129039975 0.16405128161 
3.1790772005 -0.012972665839 -0.0097457226371 10.419937638 -0.10724825078 -0.026981666932 17.125519732 -0.028241535361 0.018880753419 
23.099106313 0.028605367578 -0.0063390194288 28.422407545 0.035327017724 -0.0047551494533 -33.050410666 -0.043624114144 0.0008782492158 
37.10240026 -0.0037223045258 0.0036776081502 40.61900041 -0.0063713811364 0.0038870163142 43.64630017 0.0051755266933 0.0015636947093 
-46.157201894 0.018901207644 -0.0037352140552 48.174803269 -0.027566577279 0.0021855664851 49.555500508 -0.0062897089042 -0.0061406674229 
0.0071338351937 0.00046963544308 -0.098819151595 -0.0025164159919 -0.00072392963718 0.18583325551 -0.045224887215 -0.00062934954365 0.25045045087 
7.0029467624 -0.087210525093 -0.020275632117 13.840383034 -0.062978321342 -0.011103377039 -20.304700452 -0.0072291958409 0.00034200213486 
-25.852957738 0.097874772104 -0.00066654664936 30.806709111 0.009452884549 0.023058126193 35.1190005 0.0075674699952 0.0035739388321 
-38.89970114 0.0010533475918 0.0093943744546 42.16890077 0.011752548812 -0.0013805030541 44.938805816 0.020342477579 -0.018230116319 
47.210503745 -0.020153607926 0.013326464945 48.919401676 0.0064369949959 -0.012196150598 49.885402608 0.0081670036304 -0.015634032802 
0.0014500326614 0.00023948544053 -0.029968986603 0.074583671512 0.031893912174 -0.40113396237 -0.15156193851 -0.091919190938 0.2495560635 
-2.5225900115 1.3076253171 -0.62862115298 -42.121609272 24.849119192 -0.32353760464 -100.11199657 41.357342239 -0.11864004734 
-100.32726805 17.09858028 -3.0472978352 -0.026682496058 -0.0013613759914 -0.69864947582 0.049212763741 0.014740138989 -0.12105338273 
0.0370980436 0.018944055441 -0.086460125273 0.062902801496 0.054674139944 -0.25468078478 21.589530645 -13.665056297 0.56954144238 
70.247685225 -34.410056617 -1.4073688182 -104.37391005 27.672727045 0.026867724598 92.70201085 -7.3574312438 3.9105798003 
38.881957031 0.70865985742 -0.42336206968 69.173408743 2.3796296017 0.47944035908 99.457465079 -2.2844195481 -2.2161096596 
101.67447134 -0.25880989667 0.17483373891 100.02453253 0.3538984906 0.4251473921 99.983026179 0.15621403568 0.028313162913 
101.00711968 0.72589141914 0.33070442155 101.1796701 0.55821961293 0.15755375231 98.171079846 -0.09799203015 -0.078069136748 
92.517147244 -0.093531409429 -0.00089807406088 85.518319978 -0.056270907509 0.015825196493 78.406157207 -0.090821229534 0.026896284531 
71.634058251 -0.091266836416 0.0035731219359 65.560406101 -0.027569531485 0.0062359186907 60.219511746 -0.026431929205 0.026722920002 
55.819224617 -0.051938732532 0.0067494549728 52.47923154 -0.057487117374 -0.00059929462444 50.163301377 0.00026661705386 0.011725505128 
49.563419827 0.044290096499 -0.0018779401327 30.486642869 -0.77969399857 -0.20653242973 53.253586516 1.5363283363 -0.073770829531 
87.565044402 1.8973167779 -0.90130624572 100.97073244 -1.3305991027 -0.081574420607 100.117649 0.35774189351 -0.033396850556 
99.834537336 0.16262293323 0.28349002875 100.85358528 0.34383167136 -0.021907353362 100.88331766 0.87341794165 0.35049367855 
99.720712777 -0.023238580338 0.04471842474 95.555646791 -0.16760436148 0.0063530351408 89.092546953 -0.091365479637 0.0050506389779 
81.903724028 -0.062622119635 0.0036466380689 74.957876776 -0.10720176855 0.0027578899339 68.562668399 -0.096642056432 -0.0049447950879 
62.800913219 -0.040718409252 -0.00077708367207 57.885704531 -0.021673529021 0.00731948114 53.951713368 -0.027650998083 -0.025928550636 
51.198120864 -0.041112426282 0.020952749704 49.730426929 0.050882829269 -0.009078506985 49.783436822 0.060461853287 0.0025191437196 
50.024506397 0.025132593383 -0.003005909102 -50.054200801 0.021686659204 0.00051091433579 50.035705181 -0.044222915264 0.0074719365608 
50.024130717 -0.09432338166 0.0054876807701 50.039139322 -0.089947799864 -0.0080809659595 50.026048089 -0.086303833096 -0.011867789992 
49.949730658 -0.061787305891 0.010231582132 49.988906763 -0.022898345171 -0.014206553478 49.960501816 0.0093172697524 -0.0097472027876 
49.97371733 0.10731069321 -0.0044696472534 50.052900259 0.0080818064081 0.0040066913181 50.051205791 0.033257238266 0.018971989555 
50.084326811 -0.085719987024 0.023934297055 -50.035953996 0.1149193448 0.0053163325237 50.024701363 -0.13458217174 0.011974808911 
-49.975288962 0.11257874209 0.0012776295692 49.950938819 -0.067797156899 -0.0019117828916 49.904708419 -0.013572779476 -0.025732032671 
49.927302607 0.10078493546 0.00088257199579 49.961442747 0.065041956334 -0.00085346604818 -0.00098895897696 -0.00057672694007 0.11405157537 
0.00028443705814 -0.00017825089701 0.040330502497 3.8785181478 0.0054949408985 0.062101123948 10.907596769 -0.021071812767 0.041069089711 
17.394082865 0.06220812892 -0.034637883642 23.320621942 -0.034104600392 0.025320027108 28.591853957 0.092699831804 0.011282723206 
33.159302039 -0.017102327783 0.0049649341031 -37.170306175 -0.032344542495 0.0045217693792 -40.658403772 0.025979805843 0.0017034103404 
43.657300778 -0.012010927442 -0.0010565304402 -46.149700427 0.0093259716903 0.00041583699551 48.137400055 0.0035659020723 -0.00035945245727 
49.480005955 -0.040784238263 -0.0084277588438 -0.0093412432553 -5.5339606361e-05 -0.22560009915 -0.0049092501123 7.3219643617e-06 -0.13331629693 
0.50175147816 -0.0025942579075 0.17975555293 7.5374140069 -0.054508286868 0.038684073153 14.183039638 -0.037352878564 0.016576882805 
20.624104141 0.018033355063 0.0068505878974 25.99372167 -0.057528280325 0.005208962451 30.976902107 0.0045884929232 -0.011107913065 
35.189300187 0.005684492434 -0.00056310791728 38.978301675 0.0029163025773 0.011266874481 -42.197800645 0.00066996414451 -0.0073641124122 
44.934903983 0.013772868947 0.01646621041 47.174502041 -0.010579502834 -0.01201248442 -48.878104518 -0.0052613718626 -0.020776629159 
49.854300057 -0.00099362038454 0.0023342786107 -0.68676199442 -0.12949646244 -0.96858898536 -0.26307497933 -0.10446028709 0.027983755343 
-0.53396741962 -0.34902593073 -0.89013299748 1.5947345954 -0.43453427275 0.27836606871 39.5015102 -25.427031831 -0.33742050692 
87.415239418 -32.197787431 1.1168948805 101.82856878 -24.858078004 3.165373993 -0.75713686676 -0.077430377163 -1.5798520776 
1.0035632265 0.29544758747 0.88412974916 -0.74625914011 -0.36304400439 0.016060522617 0.54844720046 0.40235430637 0.37474835579 
19.358330172 -13.011624798 0.28982264442 -65.45965193 31.081236768 0.31359384915 102.10898621 -31.990317611 5.4222194312 
-95.788927493 13.566031686 0.4826415589 -1.0324747415 -0.0065844469598 0.60026648774 50.049600449 0.016815204671 -0.0019655975425 
69.078725798 -0.066767941429 -0.1139934466 109.75563083 -1.7687855121 1.9721461049 114.52596839 0.033374162823 2.0606480144 
109.79112948 -1.7679070235 0.82163190225 106.65449759 -0.035035369345 -0.31959675376 108.28639585 -1.5884676522 2.9741612844 
110.03233017 -2.8014499782 1.2415348827 104.55750116 -0.13968812044 1.5786517103 49.12401775 -0.39094157694 -0.26003396802 
50.064541067 -0.54407568177 -0.019211362779 85.754015064 -0.1529601379 -0.22322694797 83.73064144 -0.11812460452 -0.10087476052 
117.64807374 -1.4633278805 1.6525215621 113.69145591 1.7833670046 3.0301442738 106.8146191 0.26135573565 0.87768931988 
118.18074265 -0.14306092333 0.88806797814 120.00616086 -1.0900583509 2.0410476523 109.21318132 -0.24251123745 -0.11603309052 
108.87758693 0.81822920139 1.0764573904 118.23951449 1.3846446219 0.21524145303 119.31943231 0.59562618954 1.4163523069 
111.11566365 0.49391665228 0.70696577222 107.41627026 0.60741427046 -0.66210712345 110.103297 0.66164802425 -0.9448719083 
110.05271761 -0.12135840034 -0.38993877681 109.00278286 -0.50389841192 0.15758586487 106.12209703 -0.11535529898 0.10352430852 
101.8641277 0.17847535304 0.01703875863 103.67585287 0.46937299004 0.10286245901 -52.997511895 16.933173178 0.0019097976227 
-50.496237039 13.052199224 0.012243525464 78.820987472 -5.8094324943 -0.048241195875 61.935915389 -14.684752861 0.0012883336135 
-39.941680917 15.508649397 0.0027482308933 -47.991061726 7.7585861634 -0.0070180207162 52.966239012 -6.9999924451 0.0052919769788 
94.153845299 4.7748550337 1.2269377291 -22.51529056 9.2997995907 -0.010195655862 80.48760738 -10.678730873 -0.012844653661 
-41.52963294 10.812632171 0.0057628078983 -59.979517689 10.291983433 -0.003375110288 26.489454562 -12.784668625 -0.0094114988027 
43.935191696 -9.6538276568 0.032283580385 -50.348793917 6.8800423084 -0.0021823828778 -75.98456208 10.923420388 0.0029666525306 
51.207340399 -15.757914163 0.0020656666438 51.677597151 -17.323083194 0.0028560308246 102.06876537 2.2011721159 -0.64648293651 
78.524548234 -1.4759360301 -0.78559631276 -43.872305834 6.608342568 -0.0011826608221 57.300121324 -6.0499589985 0.0044531887767 
51.703061194 -2.4257212366 0.0012162696409 -48.97060938 3.2885808041 0.0028916152381 -62.600918305 13.595247527 0.0051273824552 
98.736833641 -2.9484233597 -0.01887582376 68.58789257 -9.2514741883 -0.0075158208901 33.805037232 -10.053744871 -0.0046840937147 
-51.309562182 10.005622537 -9.3086974415e-05 -46.734524047 10.808657834 0.00047723047098 97.165249251 13.507734576 -1.3856800512 
-63.611089634 15.840539251 -0.0065395299516 -49.639724509 5.2928195549 -0.00033790270332 -50.810154075 4.374441903 0.0036969851627 
55.102471232 -10.247026587 0.00037212496468 105.9631855 -0.60282452697 2.9855975827 41.237234492 -16.850553242 0.0023135348299 
27.157089011 -10.358452316 -0.00015507830263 13.901708705 -6.8651032798 0.024116519428 -1.1714164489 0.30600460254 0.098729069083 
-43.21706431 14.464649527 -0.0030465410609 -15.612876152 3.5500339152 0.028163801523 57.093293621 -13.936023961 -0.00080490864102 
42.570682156 -14.051510459 0.0051441450892 87.919243759 -6.2611944937 -0.096006930083 93.684517122 7.4082418605 1.1466892111 
74.946738278 -8.3606665822 0.0014547376665 -46.351423275 4.1448797729 0.00039084905961 54.085968839 -3.4568391571 -0.0042276179005 
48.631872327 -6.1605501328 0.0040040223112 -39.568413188 5.9606780139 -0.0004391458608 -61.083261002 6.1034024068 -0.0025612810662 
-31.289923905 14.014704588 0.011180050721 78.745539864 -10.135656136 -0.015861944338 -64.439169021 15.24996674 0.0025393621396 
91.729905097 5.0393027473 -0.51826153787 97.489612807 -2.6779783042 -0.203352308 93.231366705 -6.1340471675 -1.9786125963 
-49.266815107 8.6806322806 0.0046540916436 54.999728206 -12.638731353 0.0077730488015 -46.646003273 13.033236086 -0.0056272077109 
17.595075528 -7.6585473385 0.010773114415 34.880810774 -15.283979359 -0.008481907106 -66.76083096 7.1465306644 -0.0037180882679 
-50.050213288 4.3498051524 -0.0028855271701 101.33762417 -0.31629461391 -0.17372780114 -74.293111834 12.725341348 -0.0017231063947 
106.3007551 6.555951984 -0.18487705021 66.081764161 -5.5406573113 -0.00057981064293 -35.614867488 4.9469584887 -0.0010198534218 
54.829990458 -16.439985877 0.0056478990615 67.425401712 -14.081021802 0.0018789652125 47.452127182 -16.73357176 -0.0016250674769 
26.313039091 -4.395237656 -0.024587201634 -51.524236417 7.9029927419 -0.0018371699933 -49.741530931 3.2850000774 0.0064785557615 
-50.486088984 2.230904402 -0.00087670533811 -94.491818522 2.9907287049 0.12902104687 84.260119376 -6.6596138271 -0.016931950509 
-33.151129972 10.795860038 -0.0051241733819 -49.59474095 11.369118395 0.0048746036459 -49.532108474 1.672357068 0.007895541557 
50.560559959 -0.56266938822 -0.0098208962875 52.570088134 -14.281394787 -0.0047428443828 -50.229216086 3.9473471486 -0.0016319727064 
-3.1963993862 1.1380841566 0.012714000007 43.386026779 -16.88151739 0.007938818719 68.147384538 -12.098431806 0.00013334478452 
62.932467739 -12.742798889 -0.0088374402487 -28.111316587 6.8976489997 -0.0072688359689 33.043727851 -12.86426922 0.0018933860675 
-43.954290643 9.6679555588 0.0055407976025 -39.153957822 12.171717533 0.00094266168542 -46.232481616 8.7474132171 -0.00257519475 
54.954843136 -17.264904755 -0.0025401343606 -59.229881904 16.393104154 0.00078345268697 -52.575751109 11.463493138 -0.0056119630015 
-51.836216515 4.690881991 -0.0015593271681 -48.758041473 5.7688704146 -0.0023408398195 98.840326762 0.4017951001 0.96566184413 
97.709304852 13.523147717 0.4847255872 50.810950738 -6.454970671 0.055661925955 55.061277648 -7.6684067277 -0.00095770830755 
-41.819106695 3.0748477643 0.004275069264 -49.66251753 13.362019505 0.018683513218 58.725828734 -3.2392765736 0.00062213430468 
100.39933592 -0.62742685847 0.29140315541 58.186435918 -8.8082758503 0.0037612295885 42.199865398 -16.350299193 0.020861289093 
-47.818909488 2.4018299154 0.0052148244733 52.209563288 -1.7043451019 0.011641548851 -47.350994234 14.478714334 0.00070943796441 
-53.103342259 9.2046349092 0.0039860053928 94.97140817 1.2542067297 -0.16211388075 96.375288737 6.3812428059 0.21142338446 
-68.291130985 9.9871598555 -0.0071929328624 106.31343768 17.263063235 -1.0996689224 74.493714341 -5.8614756294 -0.0057139947409 
78.101581772 -1.8544029486 -0.13016067137 -0.0067543038109 -0.00015832148714 0.13578121529 -49.664765708 7.105559981 0.002665473729 
54.511970431 -15.650907437 0.0060193081837 -48.183371912 9.8093303336 0.0018172849966 108.5451621 -15.433208259 1.9355134437 
97.314100952 8.0338614375 1.117272075 88.038366981 -7.6316613428 -0.0606989048 63.984836695 -9.5586670836 1.3167632878e-05 
-46.407376766 6.611699832 0.00021138874528 53.404827938 -5.1187634893 -0.00055651242358 105.04381367 -8.7059493716 2.6712175027 
21.275097498 -6.8788782565 -0.006253907422 23.165649265 -10.840789467 0.0041229536222 -10.753609386 4.5120745234 -0.015524203345 
-0.01196997889 -0.00014690544863 0.39168630221 -12.471473409 4.1089534534 -0.031793411633 82.965170433 -4.817616227 0.0027950196202 
61.117840983 -16.256418979 0.0036803827035 31.336305975 -4.703869968 0.0084920395477 -12.65309013 5.4454289202 -0.034990127716 
100.29468916 -0.70983198571 -0.17705607657 57.196490937 -15.129751855 -0.002061609804 -49.95874083 3.0000297825 -0.0006423642511 
50.170409122 -2.2902467987 0.0087948686077 55.663418047 -2.5501188319 -0.020270600939 -33.269027395 13.51272114 0.0057694339751 
-44.270022173 2.804014456 -0.00010080666817 104.45396631 0.33665069393 0.7309134217 -50.903212964 6.0401432997 0.0057762636027 
106.81361256 11.725647602 -1.0077905548 3.2893852293 0.10917627823 -0.30793354165 44.075263559 -15.567871356 -0.0010821819693 
92.118782592 9.4648886881 0.98168386435 -38.190224215 9.1896064056 0.0046374345058 27.651196594 -12.457482295 -0.013284034117 
72.626266327 -11.205321353 -0.0011812533451 -33.400915748 15.186965322 -0.0087653533134 -71.676256022 13.042691727 -0.0010340478654 
37.961422216 -13.677528409 0.00249008306 86.219121006 0.28189078848 -0.1872101626 48.009996253 -17.309962172 0.0035763119867 
-96.1184744 2.5743665978 0.18607462527 18.571998918 -9.2632097057 0.024845151534 59.590965199 -12.012212405 -0.00073745898218 
0.00076992670089 -0.00024496704871 -0.12049592307 88.083554406 -6.598463289 -0.098879078344 88.410026946 -7.0060790209 -0.10504269109 
-51.617768409 6.1375861842 -0.0034441777256 -49.815267966 2.0812486679 0.0065173485016 50.315771417 -0.99367253532 0.016974605585 
72.293805828 -13.601617 -2.4514044531 -50.320809276 8.6624652928 -0.0016623145997 -47.694802072 5.108216468 0.0037672107754 
-71.209010728 13.4988604 0.0089692986106 -71.817785119 4.4258106865 -0.0037834829091 65.085130637 -4.9778175065 -0.069042363464 
57.387920935 -10.939855086 0.00042050059562 80.339575787 -10.025805142 -0.003485719733 -44.8483724 11.644207162 -0.0072770334457 
55.193767072 -5.1233994869 -0.0028519424952 -43.380114083 12.758334705 -0.0052164365796 48.059609168 -12.099407724 0.005095597008 
47.270617173 -17.381560671 -0.014182211618 -56.643683592 10.719573123 0.0049404337859 78.41074351 -8.57267047 -0.002334707035 
98.58479669 5.299960472 -0.66050393285 25.772126107 -3.1496049209 0.066673814571 30.334292398 -7.6426170906 -0.053743299266 
-25.262280474 12.406765641 0.0028170629499 98.65044918 17.176477249 -0.45053317796 100.53874607 -1.9687197568 0.44769260566 
-41.379782687 8.5762106322 -0.0025888484926 -39.02730447 2.6935817532 0.0028251896929 -5.2993431102 1.9385311063 -0.016728853141 
91.3610183 -3.6140544642 -0.077436468631 71.857382769 -13.554024434 0.0062814650776 -62.443556274 3.0522698733 -0.0033498389915 
54.218725885 -14.917164293 -0.0037742289735 -49.769701436 9.9277398836 -0.0094554840629 62.021056161 -8.3074923181 -0.0041751655846 
52.359062948 -8.0624557789 0.019272606499 -48.844082581 1.2502180768 -0.0024281347697 51.010671344 -0.55249345461 -0.0067476761661 
79.431975023 -4.3691452043 0.010528174495 -49.020350056 7.0573850696 0.0014821235059 49.89381002 -0.58918296189 -0.0099440656709 
50.089801047 0.10071269 0.0044008606281 -67.963051169 14.835584949 -0.0037288569414 99.847085029 -3.5574090255 0.60301829969 
102.10781605 -3.7647455215 0.58367280174 99.183847372 -10.522884461 0.24139223656 105.27982328 9.615273297 -0.89444561962 
70.454066349 7.0164881163 -0.54602598012 76.488863781 9.8890044799 -0.78868278902 50.011778021 0.086600295397 -0.017654213956 
50.061282752 0.08884679483 0.019144935817 49.901283936 0.078606260682 -0.047082403374 49.941290571 -0.20647423918 -0.010999680319 
-49.73220677 0.32416304976 -0.002396768644 -49.962761982 0.34644458215 0.006101513876 -0.00029661283813 -4.815906281e-05 -0.048464610817 
-0.029028888979 -0.001657204485 0.37518634252 0.018287270763 0.005134394588 0.66855362209 102.65195706 1.8806833065 0.08999934702 
99.126012963 1.4643738955 0.82954146328 99.83743035 -2.7771085196 0.87013993126 107.09883132 6.2450766916 1.7427844595 
108.55686566 6.3858435772 -1.778955625 108.82132147 2.6255538207 0.54485559371 110.02290262 7.8994934695 -0.96416098634 
107.39489599 8.2838364494 -0.1049222633 105.15089408 10.575517579 -2.3048461926 105.30518576 15.458959786 -0.74209529952 
-0.00010631916237 -5.4655884756e-05 -0.021143169856 -0.0026278148935 -9.2485739828e-05 0.10596829505 -0.00069086440361 0.00050915819019 0.089270781303 
-3.7510120277 0.79324427661 -0.026875068937 -0.082235244429 0.014313119902 0.097190201788 0.008747357949 -0.002624240397 -0.091285074228 
-0.0035972510938 0.0011536135678 0.12613516876 -4.3443066946 1.6027198724 -0.015002608937 10.116271434 -2.5715004864 -0.011266377565 
-6.5522525854 1.6762220905 0.0027360745224 8.3935005952 -3.280935274 0.06225464553 16.634176483 -4.3852478048 0.011018489203 
13.448098351 -3.9863086482 0.037976021574 14.446712873 -6.0977474658 0.1008192058 21.902965404 -3.6904414418 0.011877080358 
18.895484279 -3.6531530418 -0.01637481805 19.478544976 -7.440477579 -0.066453416672 -28.04462514 3.5830113123 -0.0018043365551 
-25.383382354 3.7809445783 -0.0039543120641 24.941252967 -6.8914200723 0.051580215648 -32.084943403 2.3369941971 0.0030516165847 
29.751770587 -2.4359733176 -0.015917558123 -29.789589754 5.837252162 -0.0085614821849 36.229295876 -2.4616881622 -0.0061630403428 
-34.201285499 2.620274825 -0.0098873492618 33.566927232 -4.8042602684 0.032063218266 -39.776112423 1.3180389235 -0.0011638974193 
-38.027765534 1.3701640332 -0.0019510944007 37.340702084 -3.8119035621 -0.02406650745 -42.675037844 1.4986166521 0.0042908963494 
-41.190685361 1.5656306875 -0.0039722568411 -40.480179754 2.8840301616 0.0009139370922 -45.184251613 1.3710393662 0.0058814955808 
-43.921958856 1.428215675 -0.0080140107607 43.101018796 -2.9523226401 -0.013794556756 47.977758238 -1.2116751117 -0.016756450088 
-46.970550604 1.2692882354 -0.0086459704377 -47.094438973 3.2609973978 8.312654068e-05 -46.211751492 2.1133481312 0.00019283882419 
-45.33901872 3.5057141251 0.003358936894 49.199726422 -0.58307090259 -0.011257342233 -48.484681415 0.64048206282 -0.0037587738071 
48.334257366 -1.8211674666 -0.0097873318165 49.450445858 -0.91274869941 -0.010996790064 0.0057354508368 0.0006025453005 0.37527996528 
-0.020804538223 -0.0041859956587 0.3623404983 -0.029546199441 0.0063278327204 -0.48194579306 0.02020377931 0.0053850021234 -0.048838745363 
-0.11096346048 -0.03413190865 0.30323861692 0.11763856934 0.0015543918175 -0.22377819754 8.3434608195 1.1969851109 0.031537525355 
15.323230956 -2.2659353916 -0.16559187741 -14.65668204 1.3852602669 0.11377518987 8.3193224756 0.56069985689 0.34757417525 
25.18469791 -3.6173902091 0.061514904553 28.401902746 -4.8087396989 0.027325542103 45.729526761 -12.718691797 -0.24601534336 
38.429428879 -4.7935385399 0.25177615384 -56.159497253 18.921876995 0.99095415526 87.348400986 -27.743342486 -2.5269845868 
59.902669664 -8.993145954 -1.0301448198 103.77989328 -30.366616952 2.712707037 108.34384473 -15.732401988 4.3123315174 
94.403258838 -14.755991018 -2.8644246231 115.66302227 -10.218251283 6.3588251371 -49.928834433 1.1352356739 -0.0082473681779 
49.910905925 -1.0078423815 -0.01868380189 49.709189627 -1.8944331147 -0.022231118036 -49.85467224 0.90423313598 -0.0073419538374 
-49.682986181 1.1241997702 0.0058003366853 49.882249826 -1.8654522165 0.020078173883 -49.852378556 1.7706613553 0.0068079659438 
49.79709633 -2.7163332943 0.016260566279 -49.997931928 1.5938903119 0.00087610349313 -49.943239548 1.5941066931 0.0081723301029 
-49.842367597 3.1457917605 -0.000143493646 -50.05020053 2.3060479084 0.0020465680363 49.987269365 -2.3737294097 -0.015567108384 
49.955343537 -3.6834224404 0.021034194257 50.081722778 -2.0343758823 0.019262949686 50.082258183 -2.1681396337 -0.015404401788 
50.142974815 -4.1875410324 -0.007818825642 50.080825851 -1.1276510066 0.0059002175042 50.034471843 -1.2338777135 0.0058058365356 
-50.215216575 3.1191956741 -0.0034725334302 50.244004444 -1.018972306 0.0057771389855 50.200089554 -1.2249766796 -0.019510858731 
50.330665329 -2.2621981235 0.0017450579608 50.140250745 -0.32819407749 0.0017501516766 50.12989947 -0.47914406449 -0.0049918251245 
50.367959277 -1.5953707148 -0.0032078633371 50.413938579 -0.76841378524 0.018155428381 50.160409487 -0.14160853644 -0.033194421463 
50.318104048 -0.20290867405 0.0019004014922 71.355814666 9.4649352102 -0.37419264376 -86.042820235 -10.149780227 0.74023983301 
102.02268866 17.528408849 -1.0162680492 -90.977667834 -10.381568883 -1.0937937038 100.82852074 9.4027139281 -0.43878547122 
99.915826123 15.771531613 0.20482452614 -99.510744341 -4.9385166109 2.194018722 97.263067936 2.9341874094 0.047344453251 
95.813016842 9.703427805 -0.10017069374 99.63557545 -0.71802393581 0.22539829806 100.22074609 -1.3702487442 0.84578049473 
96.417730761 3.3234856433 0.99500472401 99.417985042 0.4023250803 0.4763814126 99.392649988 -1.5887622098 0.36484994845 
100.63874785 -1.2420449357 0.22188838827 100.41612718 -0.63961421602 -0.15970718573 100.68479383 -1.7472772554 -6.9193770311e-05 
100.07284675 -0.35053538874 0.21819462287 100.57017208 -0.31916053202 0.37133752705 100.50722194 -0.49945944987 -0.021649946605 
99.603748725 -1.3431222783 0.19386358154 -98.722580832 1.2416778297 -0.086211932057 100.04905486 -1.796932295 0.093588540649 
99.969682566 -1.4877722886 -0.08839172488 97.271980198 -2.5905500252 -0.17153024483 -96.833030126 1.3350979633 0.094987061906 
94.712911099 -1.8216258612 -0.0065831454081 91.847290714 -2.0229043728 0.001087116297 93.851331394 -3.1109047535 -0.30959796084 
-87.549677095 2.4920972515 -0.03734725148 -84.279819535 2.5258835169 -0.024095421587 83.740600573 -5.7749841626 -0.054461639403 
88.199487054 -3.5778836609 -0.023509565947 87.73201034 -5.1470516888 -0.047044680774 -82.427889262 2.269117085 -0.045723445931 
79.077318923 -2.2578979134 0.023614108249 81.339715276 -4.613229749 -0.024194455034 -75.006779544 2.3092016547 -0.029463538203 
-71.822670687 2.2825015996 -0.050976346762 73.129639277 -5.1796866808 -0.020923921599 -76.438316238 3.0903981857 0.0041045351007 
-76.880126846 5.1260588686 -0.001634914265 -68.841269018 2.9766719462 0.0048821119627 -66.013899456 2.8560855854 -0.0070124608702 
-68.788664078 5.0026392921 0.043402801912 64.032993132 -1.587669852 0.029963531532 -61.454518378 1.5500166986 -0.025608236432 
64.359759567 -4.2959064531 -0.0048322962541 59.552498553 -1.7019141679 0.022876810964 -57.462603775 1.6139397944 -0.011477206395 
-60.497062448 3.1517119442 -0.0064188843625 -55.8819426 1.3569649393 -0.0035632836185 54.241686046 -1.2514169922 0.0064602353 
-57.047251206 2.894758957 0.018944578525 52.504749767 -0.98390137907 -0.0096069985164 51.425291713 -0.78073201275 0.019323782493 
53.130015754 -2.5482783717 -0.037227516037 53.478638548 -1.7773808759 0.011806963342 54.771989829 -3.0244932227 0.0027137438531 
50.76518653 -0.28236534754 -0.021326158031 50.309561987 -0.16239883013 -0.0083277444271 51.567278446 -1.1171556488 0.019755904623 
50.366568423 -0.15827505891 0.045608382429 -59.47351174 15.552406114 -0.022325921545 53.73937348 -16.335734133 0.020607695984 
58.670248017 -16.131454923 0.04291662879 57.080190269 -16.687178 0.03315863822 62.688707137 -15.763321631 0.011494085334 
57.957413118 -16.753070255 -0.0011765116916 54.06788467 -17.109717369 0.0019967786392 50.446948243 -17.091338532 0.0024367766688 
51.497478898 -17.337655862 0.010669569044 48.129939472 -16.06404004 -0.040793918724 47.586762956 -16.704973105 -0.021845346151 
45.202583977 -16.86646165 -0.020650216767 53.850141214 -13.466759499 -0.00079179291072 51.387968481 -13.689688768 -0.00747521312 
52.751823397 -12.906882818 0.010903896815 -51.622572711 12.244235387 -0.0074997142197 -53.665111162 12.041757827 -0.0019127692946 
49.03776277 -13.759581409 -0.015872954988 46.935490821 -13.741294658 0.0057360134779 48.623513579 -13.099104774 -0.03495084646 
47.400487563 -12.597207009 0.0044561058431 49.288114368 -12.589066001 -0.022868348938 51.084243121 -11.459750324 0.015545329836 
49.977489582 -12.213927182 -0.020920682415 48.866212882 -11.712534693 0.012890970699 49.957887929 -14.473987199 -0.022851108598 
-73.653320956 7.9735014177 -0.03046761026 73.65119243 -10.091380278 0.01530542672 78.777560502 -8.1544741997 -0.015697059861 
83.176612307 -8.3658405993 -0.045481077976 83.205974465 -6.1992688084 -0.058364676756 67.571360312 -8.5336319225 0.044508347108 
-72.862169151 6.4721798569 -0.00020746092682 78.221361199 -3.7129636704 -0.095213256253 72.345163705 -4.62106102 -0.03860337735 
88.783454657 -1.212598808 -0.19725835115 82.688857232 -2.9248757729 -0.088061196047 85.716119127 -4.4070040021 -0.17185039563 
90.952574515 -5.0551906314 -0.1564624382 82.232797473 -0.8549704068 -0.13692011462 60.717705931 -15.538341741 -0.0071650302005 
56.887102133 -16.411955999 -0.019812043583 58.441697817 -15.636884902 -0.042250815244 56.159029103 -15.789781869 -0.0088113180823 
59.495320519 -14.894301794 -0.0057688668684 64.979237798 -13.456533913 0.018255905854 67.848090722 -13.092714645 0.0097615101148 
64.495580163 -14.38960305 0.0093487581542 63.341687383 -15.307488276 -0.031183648138 62.63047712 -13.693657555 0.0066353962451 
65.379512683 -12.412487954 0.0065919519912 60.057905444 -13.970527185 0.014466149527 41.490074181 -16.204423263 -0.020649421868 
39.091572557 -16.135357136 -0.037237706193 37.593070244 -15.426914162 -0.010191099772 33.774358346 -14.113131481 -0.0071906829826 
36.459845072 -14.25609671 0.025765103034 45.568529931 -16.816369462 -0.0058518589633 43.704465556 -16.179657795 -0.038529107203 
42.144207527 -15.56070165 -0.022082461325 45.608652868 -16.108553435 -0.0030371534141 -35.545856276 13.247633475 -0.018994668823 
38.770890826 -14.603508468 -0.0043019594037 -41.042269907 14.694243825 0.013140605547 -48.816651343 9.2457432942 0.0022237305427 
-48.032369385 8.8031108042 -0.0067598929779 -48.634558097 8.2696659809 -0.013176329662 -48.519363975 7.3950907162 -0.00029798299005 
-49.080621838 7.8763498605 -0.0060821415434 -47.218648857 9.3258615276 -0.0071613765986 -47.192242897 8.260194793 -0.012504305843 
-46.255997785 7.6909790622 -0.0025319484364 -47.161834726 7.21567529 0.0037460921429 -47.824587614 6.4977556462 -0.0087199360008 
-48.198787638 5.4330880777 -0.0068564654699 -48.362051647 6.7806083035 -0.0051994547669 -48.881023681 6.4481219411 0.0042316615029 
-47.071362159 5.8821697778 -0.0017359149713 53.117067042 -8.0997237795 0.0049733722066 52.215936626 -8.5404241619 0.001688856109 
52.237763379 -7.4771121229 -0.010479843347 51.582041462 -7.0185692581 0.0036547549361 52.261176601 -6.5801656129 0.0069488566906 
52.592383922 -4.9029286669 -2.2306401823e-05 53.169729165 -6.0646613005 -0.0081911465974 52.425627871 -5.8441453782 0.0037276321557 
51.703716005 -5.4279387231 0.0068772710206 54.099728418 -8.4644987091 -0.01482940488 53.925603112 -7.3356474509 0.0038180382088 
54.245880186 -6.3895513792 0.0010936543352 96.684980586 2.2100779615 0.79516311624 93.492313413 3.5547310184 -0.42297200047 
94.504811446 4.7356836114 0.32803472998 95.406721697 5.4285242141 -0.44556653038 95.845058056 5.4906090638 0.95814421944 
96.776038464 2.0994266652 0.32970912909 99.260328762 -0.90333368445 0.11328133083 92.411409607 8.1881905062 0.84106308576 
91.981820412 7.0537544018 1.4313210197 96.116594204 4.8031559668 0.84048999235 -92.787756108 -6.5068518531 -1.2609821934 
93.880655697 8.6521527055 0.40648928142 22.848452266 -7.6582503508 -0.12286231391 -17.785494846 6.6865648269 0.042293309478 
27.400020048 -9.9755238853 0.030875851804 27.899307395 -11.471886527 -0.012761012098 33.194730941 -12.148060841 -0.034496959009 
17.692132334 -7.4719874246 -0.040651983113 17.97766816 -8.1695887956 -0.075839426479 22.881172318 -10.146063525 -0.0069786258045 
28.174972047 -12.170236292 0.043042225375 -12.450734874 4.7227093988 -0.024733794083 84.152282186 -9.1096071793 -0.016453558173 
83.488071283 -9.0052694968 0.008382900283 79.767128304 -10.462004258 0.017414623803 75.097299927 -11.587844059 0.031093836721 
76.114520338 -11.966351333 -0.029758591899 77.318826694 -11.41058018 -0.0016877469277 80.488836037 -10.358675571 -0.018575824702 
77.283035485 -11.67949046 -0.012479552874 76.136243275 -12.150242466 -0.0346231395 73.096398768 -13.116558275 0.0039110971756 
84.468604394 -8.9201530999 -0.031567282815 88.255304792 -7.2618114247 -0.10202193052 71.834512468 -13.383085044 -0.011789168763 
84.265352923 -8.4734214563 -0.05525935203 -44.351137323 10.670708178 0.006946579453 43.146398113 -11.243732861 -0.0091767817894 
-42.773226573 10.239223018 0.0031308670274 -41.409990101 9.7054364927 0.00012049436544 -42.612634652 9.1191716604 -0.010730064924 
38.590984995 -10.712984637 -0.0087977875808 39.816385996 -10.038420216 -0.019170143757 40.333087065 -11.519530718 -0.012186412776 
-42.429005003 11.80251189 -0.0015839318057 -41.254510292 12.467283921 0.0046956784221 -39.843482523 8.8740027615 0.00059133059162 
-44.128881809 12.218906649 -0.004013765056 58.763793673 -10.597192935 -0.0079105245549 57.854472348 -9.8566715498 -0.00066740052776 
59.162395566 -9.5384018801 -0.00090688795585 59.99679228 -8.5749947015 -0.017014097744 60.956284705 -9.3290431333 -0.0084740688822 
61.870898868 -10.835857434 -0.026436212656 -59.867673787 11.146254654 0.0086757328253 61.899857932 -9.9254443992 -0.0028404009727 
63.032018254 -8.9480639901 -0.006642076689 58.46050129 -11.487788165 0.0063870605907 22.627928247 -10.15817453 -0.047633142397 
27.007836757 -12.694654227 -0.025334426018 21.814595868 -10.30351458 -0.056822447819 22.539525426 -11.054138137 -0.018182981284 
17.910240777 -8.5365881798 -0.01083838964 31.238162669 -13.9059555 -0.034450816292 30.735959099 -14.082046679 -0.0054770489834 
34.19094586 -15.293331029 -0.007141607637 29.962653268 -13.993238388 -0.0060417404934 29.316146328 -13.828818836 0.019036345063 
25.873006186 -12.639725423 0.0015408866977 21.837091587 -10.788223636 -0.019122609622 28.160689134 -5.7447136688 0.051797004267 
-37.16756589 8.7678769239 0.00067075737145 35.974144201 -7.1240275503 0.074764531463 47.768832947 -8.8422536253 0.032053537816 
39.868360238 -6.5986539257 -0.053788587049 41.510905067 -12.252669748 0.072512862331 47.04086249 -11.562498677 -0.01942578034 
38.154177472 -10.147029466 0.035241220827 31.762949237 -9.1432645557 0.024892791518 52.912465697 -11.96823144 0.021327739041 
50.292726636 -10.338813357 -0.010744714088 54.664022049 -9.3809040215 -0.029623489768 -50.33673721 5.3983446874 0.0074211216034 
-50.120135466 5.6448105917 0.0047224207713 50.003162266 -7.0405593932 -0.0072682466862 -49.905552945 5.7763493647 -0.0058318176747 
-50.6105304 6.4829353826 0.006107091296 51.186380925 -6.9929309531 -0.0020793590705 -50.872098439 7.3960217819 0.0028308054637 
50.919062402 -8.3135536104 0.015905957985 50.359971329 -7.7984948451 -0.0034855475303 -50.526479771 5.0013026715 0.0044785006552 
-49.929604892 7.883835296 0.0080263937243 69.973040863 -12.719253779 0.034415583551 74.291828365 -11.08140144 -0.009030597151 
71.610482261 -12.538068856 0.023753441786 73.546926948 -12.231225657 -0.015919499181 69.231973043 -13.813747305 0.013780858242 
82.333475843 -8.3541269313 0.0068492971081 78.087724118 -10.516442589 0.0039121575896 80.097377446 -8.8185681437 0.024492217264 
77.189560295 -9.7217179959 -0.0097480623878 81.227046981 -7.6256957262 0.0072362908484 75.545245834 -9.878630722 -0.0087215074254 
75.714750828 -11.781992748 0.013512516312 51.136567073 -16.64815067 -0.033391462348 49.499945064 -16.258498455 0.00077260288364 
52.823605835 -16.08065971 -0.013878871963 54.181441374 -15.490316956 -0.032152052078 47.648817292 -15.715461323 -0.0067408159894 
49.082763857 -15.098149443 -0.021759310777 51.991515846 -15.011770507 -0.0019822960837 53.388306181 -14.586559087 -0.01645476883 
52.80610269 -15.361268277 -0.0032397193136 45.890853657 -15.056093827 -0.0041250081849 55.701352302 -15.030262297 -0.010850278613 
49.394716538 -17.007142969 -0.012839563461 53.352996872 -16.878829007 0.0025674528998 55.456413101 -16.931359233 -0.042390148243 
47.453683788 -17.147681939 -0.032570873152 49.509707402 -17.365486957 -0.0026433594859 45.209299904 -17.130365455 -0.029805890919 
57.17984357 -16.846178454 -0.0054093792242 53.140366201 -17.293220885 -0.00076132844918 51.055591219 -17.352081317 0.025439199618 
-99.742701671 -4.5566696246 0.63852482926 96.208747769 4.0084148239 -0.57018174234 89.016818003 2.9732202427 -0.32472074613 
94.875741988 1.5923043237 -0.46096217818 99.522568187 -0.23593404503 -0.64502169937 100.66915534 -1.5968669299 0.085681274917 
101.81116957 -0.13508203238 -0.79757397475 100.90357979 -0.84399162933 0.21333868238 98.412921127 3.7880369601 0.46071608313 
101.15255792 0.70599383976 0.47660687819 87.052841309 -0.29595918457 -1.0506154854 85.60948665 1.3747866276 -0.53357600393 
78.161741228 -1.5317756629 -0.15407311222 84.7820102 1.2658979923 -0.38751659813 94.811664955 -1.6884920272 -0.72810201453 
85.118993708 -3.0546065614 -2.1152079762 82.094045874 -10.126327215 -2.5145805669 75.655555448 -6.1951860546 -1.296282702 
64.869136604 -4.3677438581 -0.40012338747 58.412952848 -5.7705144941 -0.12549906476 71.320598388 -3.2963073398 -0.32032110314 
71.218028583 -3.3830753985 0.0218304071 -46.397600771 5.4078453756 -0.0106262822 -45.176757637 6.6094797891 -0.0058160867119 
-45.103994652 5.368608454 -0.0063747562214 -44.027567739 4.7239141654 0.0077476581138 -40.660462405 4.5146733226 -0.0019208719169 
42.795074203 -4.9425526112 -0.021362718002 -41.798541459 6.3198699062 -0.0082148266306 -42.616568902 7.619863425 -0.00517641196 
-40.473500488 7.3407640159 -0.0073418829954 45.024799247 -7.7585632417 0.018244829262 -45.139751789 9.2243511131 0.0031842662405 
-43.83660727 8.1692949579 0.00042420887682 58.076741968 -4.694725971 -0.013914767147 60.023183467 -4.6477606995 -0.0030962765608 
59.06149003 -6.0821395212 -0.015191900005 59.657265094 -7.5097840592 -0.018438841845 57.795483582 -7.3933383314 -0.0011036859774 
56.494067416 -8.2499334413 0.0014876492945 56.190757964 -6.8886772154 0.023856863749 55.138922659 -6.3759530738 0.00022796658691 
56.192776404 -5.5874436823 0.0058987752914 56.52862034 -4.2718401353 0.0040523386398 55.422473111 -3.8728372518 -0.025625620484 
51.914768553 -2.0802233458 0.0086958756793 52.805210214 -2.9327886714 -0.00057390729091 53.683754508 -4.3015653238 0.010243361008 
-52.557056279 3.7419772063 0.0077410968784 51.765245279 -3.5531850908 0.001951233325 51.131425655 -3.4739730392 0.011258197643 
51.110038954 -2.3781567482 0.0059917780363 50.968205451 -1.6976724925 0.0092206263801 51.152205342 -1.4415133448 -0.0023248297755 
50.765779556 -0.56329688267 -0.017105801825 51.348283005 -1.4382133307 -0.0066523243928 -49.275135854 4.5987108056 0.0087446094796 
-48.855235825 4.5797076621 -0.0055475587371 -49.372148566 3.3375807643 0.00084043256134 -49.430804906 2.7500212446 -0.001219777047 
-49.215198451 2.4329504424 0.0049383277885 -48.907833535 2.3059861707 -0.0031920150739 -49.187901769 1.4607169155 -0.0012048457594 
-48.340174172 4.2299962681 -0.0096527264319 -47.757390928 3.7894119393 -0.0012292568626 -48.399798169 2.8981129632 -0.0067838840426 
65.229919966 -11.819919801 -0.0039576226101 -70.593856879 11.966992562 -0.035721224874 67.157809329 -13.318243558 -0.0018237920639 
58.397661276 -14.568832932 -0.016472339847 63.536379406 -14.484732613 -0.025872295758 67.937761253 -14.11044664 -0.017919534249 
52.233075019 -14.498515431 -0.01568486247 56.081244739 -13.564294816 0.02957457373 59.726269002 -12.174447607 0.016971056403 
62.504202387 -10.461779056 -0.0014308399485 100.30477448 -1.8328639564 0.23082342743 98.138349292 -2.7251254708 -0.14504471593 
93.339862371 -5.5760129855 -0.14575948555 92.851920354 -5.5672644906 -0.14782354487 -97.440501852 3.4400842427 -0.072244699636 
100.64109294 -1.3804104922 0.39655177284 93.285409267 -5.1912134978 -0.30025013169 88.295844211 -7.3154499452 -0.026569604125 
71.539287153 -10.307140216 -0.023021821323 68.427394524 -10.670956607 -0.0073528601236 71.630314702 -8.8278146217 -0.013600081405 
71.466195462 -7.5594162911 0.015571585918 74.763889403 -7.0597861122 -0.0054717004309 66.164927397 -9.381432785 0.0026600049388 
65.08140713 -7.5969162946 -0.012580511023 67.493824433 -7.3428600982 -0.0029115799166 70.130868866 -6.9168447203 -0.018463707474 
65.717388043 -11.045604701 -0.038258340565 63.547229225 -11.139777143 -0.0091303530308 32.491321941 -7.5556595299 -0.017960782211 
34.527689447 -7.5662726564 0.0016278802166 -36.780784179 7.2140768511 0.0080799761424 -36.095922442 9.6131062474 0.0030053308268 
33.227457576 -11.535640705 0.014583406489 30.284171016 -10.150419643 -0.017435877128 30.904692648 -8.5851033911 -0.034591966179 
35.809781287 -11.958825397 0.007392254743 36.479840451 -11.19034619 0.01779180727 38.507174599 -12.953963746 0.014743212281 
52.236139074 -9.6464721614 0.011672119429 51.486593191 -8.9401143644 0.0088085420078 -50.750037763 9.330803545 -0.0077206084432 
-51.860327655 10.729735782 -0.0038711516114 -50.538263773 10.711661834 0.018677195201 -49.698082499 10.663742305 -0.00013560018306 
-50.581698608 9.9984058375 -0.0036077813643 -52.937064562 10.325898212 -0.0058568441198 50.076230577 -9.2909139366 0.0084467725908 
-47.535988039 10.335786156 0.00010304034174 -48.837689784 10.570106003 -0.0047507192593 -48.168867719 11.121206072 -0.0045854578462 
-47.298149944 11.478676419 0.0013001623163 46.370673074 -9.7280155779 -0.00098331982769 45.311323477 -10.25590502 -0.0091520265509 
-45.897906408 11.237592216 -0.010655898572 46.442923567 -11.922260049 0.017242790127 98.509739302 7.3153548188 -0.084768145154 
95.565830685 10.295249038 -0.31693803272 104.36585158 11.667247822 -0.45030228929 101.5400471 14.849495028 -1.5115125494 
92.643906917 11.28716448 -0.69281147941 92.24185417 11.130602165 0.27233639553 96.464981588 13.062143548 -0.61443015099 
-97.040425556 -16.039558752 1.3914225322 100.19568081 15.645781985 -1.6298275818 61.301960594 -16.153495806 -0.0087479235073 
65.617215243 -14.962242158 -0.0024214819793 67.397663807 -14.72223831 0.020838211328 59.310961798 -16.654539973 -0.025993253913 
62.465532657 -16.051162514 -0.0013516755885 65.663215972 -15.323311259 0.0096135674889 -64.614347291 15.619210849 0.017351289799 
69.616412547 -14.187506359 0.015949156884 -49.610538268 6.2175815833 -0.0091225889606 49.852041905 -4.8068254017 0.0113951668 
-49.800341825 4.24632487 0.0054777961378 -49.225644303 5.5576780529 0.0061460546387 -49.652559091 4.2971853356 0.01378572091 
-49.34654734 6.204052179 -0.0047088320022 -49.332955146 7.1058503555 -0.003061354181 -51.321055813 4.5389293584 0.0044809070061 
-50.640023755 3.273331594 -0.0076360620424 50.463372334 -3.3800175871 0.0098454799965 50.506506206 -4.1601118597 0.0095252584674 
-50.849085366 5.1948659432 -0.0036124501834 51.188092116 -5.2807445577 0.0044321347433 -51.297822124 6.082268699 0.0071521210958 
53.863907556 -10.896834707 -0.016957915474 55.130402386 -11.414266694 0.010414850052 56.170322348 -10.60303595 -0.0072796323873 
56.23016994 -11.832587592 0.023756212223 53.996062922 -9.7173950931 0.0084679468878 56.648668757 -9.5681274441 0.022543053764 
55.137366556 -8.9269971993 -0.015911923169 105.46866593 -6.915409257 2.9499964248 103.98761519 -10.614196479 -1.2873987297 
105.90381643 -4.7962189074 1.4881999916 99.030810511 -4.6026680443 -0.27656391655 104.45711955 0.82137985337 0.91885475078 
103.17654623 5.712014066 0.56637404178 101.75201553 6.0583038149 0.033743382846 103.52014139 0.66318482621 2.1764937244 
111.6406525 -4.9817640361 4.9586473599 42.35944741 -16.869545501 0.0036488585187 37.979386976 -16.012793747 -0.031984964114 
37.257178106 -16.067754764 -0.03382584974 44.248890796 -17.1743019 -0.028582691391 37.607200297 -15.714746235 -0.0098975162216 
41.630098526 -16.615880154 -0.018379853317 44.622063128 -17.106292536 -0.010497425502 47.581873677 -17.371482727 -0.0049673322031 
-30.173645379 11.670582654 0.022776220652 -27.527621932 8.7487321258 0.009853336782 -24.258074024 8.6874351063 0.002313958632 
-30.458796358 12.662143908 -0.010135375869 27.285809029 -11.425189165 0.0083239673121 24.306720234 -9.8030351816 -0.029249736093 
13.261664227 -6.1770429932 -0.012806285484 -7.9199084414 3.1843464902 -0.036331991855 -8.6848850971 3.7760077757 0.069969360038 
9.5677478325 -4.2921093039 -0.030131768247 18.436715088 -8.8318514144 -0.033790184728 19.654545943 -9.7524581129 -0.055308866339 
24.274775483 -11.657493362 0.0049739179116 14.781092564 -6.9940362553 0.060400977621 -16.325691018 8.1175062494 0.0073789073809 
12.201625919 -5.6939828479 0.0018600334641 -6.8726403784 2.382487148 0.071136653846 -2.4267889419 0.76348704976 0.084547048554 
0.02652864005 -0.0058885765303 -0.42198647847 -0.0019350481039 0.00075648407626 -0.15873430153 -0.039574410729 0.0049534424757 0.16299989814 
-6.7289151973 1.984128751 -0.038775590557 -4.8604710852 0.89988743906 0.17068658217 -46.216751258 13.862845364 0.0063169688048 
-38.430821925 12.639539908 0.0027945356543 38.32018257 -14.086568144 -0.037111182364 48.958041957 -15.228203798 -0.039733598422 
42.648232379 -15.483251739 -0.037874872335 37.856973149 -14.948133545 0.032274855862 -9.5164367886 1.084509477 0.088760689814 
20.128800258 -3.7629285548 -0.13139777784 23.183971175 -5.6261638143 -0.033698979506 -13.648159151 3.7986825255 0.040061948894 
-24.827141652 7.0821736953 0.01292811485 -6.6331279792 0.92007214161 0.12311003571 54.830164252 -14.129095606 -0.024763587591 
55.97295195 -13.3016605 0.0055070340171 57.249002349 -12.339090278 0.026516912231 58.327018358 -12.975646247 0.021492368576 
55.665313204 -14.45018257 -0.014359486013 57.244817092 -14.540390223 -0.0083012001481 59.916441085 -13.342036797 0.020521253417 
61.149914309 -12.395660182 0.007575369089 40.33961263 -13.874539762 0.0029438396164 -40.91385317 13.134543988 0.0088975011055 
42.925531342 -13.438284787 0.011758341321 43.270758103 -14.819025363 0.0044972552964 45.005430316 -14.32709451 0.01506360462 
-45.335223917 13.669496973 -0.015323658172 84.045451616 -8.1972762261 -0.018402595659 86.092953901 -6.4863368325 -0.032503038606 
89.718726359 -4.9847342962 -0.095345531007 92.158367661 -5.0106032539 -0.16437802085 88.149725223 -6.6277320627 -0.096008877827 
92.041746103 -4.4946526964 -0.22455837724 94.367652553 7.761121172 0.52962950723 95.180671551 4.8051776623 0.99234874292 
96.609481375 7.5089481245 -0.082269142993 93.217626744 8.9162462751 1.1793848303 93.670285936 10.091349055 0.16524475335 
73.867300097 -9.7988375627 -0.013466908043 70.318180358 -11.662063093 -0.0043311538467 77.145997421 -6.4310386069 0.032909911929 
80.758297541 -6.7690061936 -0.024544078413 76.721614799 -8.4672978419 0.0036125715875 78.980498785 -6.5939155366 -0.0017342783476 
-47.014503815 4.632474295 0.0030771829605 54.688113947 -4.2958237655 -0.0060954570653 54.253492479 -5.1076764072 -0.0067661444932 
36.659841613 -4.2694049632 0.165257481 37.118284684 -5.3747023952 -0.14155322262 50.691838267 -7.2292922632 0.0035625589834 
57.18269904 -5.7926360013 -0.056893076319 48.744982966 -6.0075875113 0.2292415351 -58.293440358 6.4877954514 -0.027676125236 
-38.756892258 7.5868121383 -0.0028105985122 -37.626652975 5.4613444918 0.0079020908275 -39.313745986 4.3826122749 -0.0012564135372 
61.778760487 -4.6470421126 -0.0029534234953 -63.393560028 5.80943878 -0.013896886375 64.016345892 -6.9279264478 0.016248971991 
-61.595340537 7.1994140202 0.0024735826025 32.153371277 -13.744619913 0.0033531765719 36.829246206 -15.318571064 -0.063243683568 
32.41334028 -14.604866153 0.0057555086335 27.230096112 -12.469911114 0.034205465642 28.255919447 -13.163679716 0.032952748724 
66.242419668 -15.022689269 -0.003413977457 -68.083321881 14.460306822 -0.024954302943 69.844253197 -14.188050648 0.015581995113 
92.838088002 -5.1031204662 -0.23961304331 49.787849786 -8.6921199452 0.0093476123895 -49.475446893 7.8959644591 0.00097419169149 
-49.484417086 9.2960369303 -0.0029737788292 48.946836971 -9.8736990156 0.012555127329 45.023775912 -12.880270343 0.0039177974423 
45.701177982 -12.308618944 0.0067049123582 61.641054156 -8.9966376235 0.040660212425 65.765725982 -6.0419656084 -0.071290529095 
59.651434261 -7.671176289 0.032518336201 72.722965715 -13.116488577 -0.0043678052937 71.133215697 -13.836089694 0.017073248294 
30.840993048 -0.15203305642 -0.15721106868 49.803842652 0.053217304737 -0.037655415558 52.862881749 1.9741332134 -0.2062098028 
89.864256566 2.2983053446 -1.8314638985 102.16628227 -1.5176700419 -2.6292972982 100.72906182 0.63411188345 1.0234657095 
99.768582578 0.43728394227 0.32182129133 100.71880026 0.64237277019 0.38585973584 100.35322288 0.21000314567 0.45158429105 
100.02134319 0.25266139842 0.06884553026 95.365005953 -0.0279715731 0.018844790225 88.920056592 -0.070028912082 0.071889466165 
81.910200682 -0.10065277717 0.079733545834 75.094546603 -0.052338919016 0.065223471707 68.619672399 -0.089768922691 0.043265310456 
62.782792835 -0.097692396171 0.045927069759 57.934351006 -0.063574962263 0.043085136107 54.145438498 -0.15928724326 0.018388917542 
51.339301118 0.0019025495062 0.01053857796 49.887620038 -0.036783252694 -0.025321991751 28.782991286 -0.63904680822 0.39943851609 
27.913160434 -0.63153644081 -0.6853578064 34.616163395 0.73875051426 -0.18646306711 33.611853277 0.22809221004 -0.41225898549 
49.911121249 0.040710274347 -0.021537288316 49.905630287 0.049881989039 -0.023092118963 49.675254472 0.05496112701 -0.048914110891 
49.659329574 0.048903945418 -0.023410609448 62.147256328 2.4487067732 -0.24368527662 47.016954941 2.115313125 -0.27006401559 
39.261014542 1.2889739797 -0.31156856617 46.386760387 1.3762419913 -0.45231167151 -98.051256703 -2.179715001 3.2411654648 
80.45869358 2.3045218254 -1.3981063089 60.500417897 1.9510561589 -0.27203357007 71.042713924 1.8727762926 -0.24233373465 
76.410013595 2.4219782473 0.39342755852 100.44808859 -0.22785280711 -1.5684033745 101.70722531 0.20691673328 -4.0276722831 
95.890821383 0.21650829646 -2.5526646821 100.02336441 -1.2856170779 -3.8440917905 99.90158492 -3.033240527 -2.2500997743 
99.693499706 0.06731595882 1.2716840476 100.04939858 0.37365721013 0.86767458076 101.94029615 -1.1172631418 -0.97204224049 
100.79722168 0.20098986039 0.069140633181 100.8915535 0.50154797805 0.25585855858 99.852349817 0.051610954206 0.21709993321 
99.939129969 -0.020008171179 0.58616092655 100.1790188 0.65100755683 0.761079391 99.889411779 0.033964700453 0.77288354407 
-99.867671449 -0.30368908676 -0.63234759546 100.47739976 0.068159858141 0.52966220542 100.04549179 0.010847316498 0.31432650175 
99.89870787 0.17391013066 0.26617766122 100.11218764 -0.025247768296 0.19254156568 100.24535409 0.10842911669 0.24475940163 
100.53653357 0.49246341706 0.25847029603 100.36424631 0.12155558538 0.18575520847 100.58685912 0.64386854227 0.60700046205 
100.74260994 0.14868419499 0.32040253357 101.06784159 0.37373224084 0.17749252542 -99.147103245 -0.10104759773 -0.10127520571 
100.6442846 0.15089341966 0.18469120459 101.10459022 0.77607679921 0.35578997645 100.69202371 0.41218643161 0.19034861106 
100.93348551 0.29716504424 0.09557977618 93.859333061 -0.13932234109 0.074922491472 97.084116049 -0.055789879068 0.0035370790571 
99.074634319 0.047691745569 -0.067184587358 98.358917569 -0.057414049089 -0.012847006746 97.059130678 -0.074334027191 0.021074331163 
87.25891291 -0.10220475268 0.096274512354 90.818974847 -0.10171308601 0.057102439334 93.932623629 -0.066428421119 -0.0058800567567 
92.514516768 -0.037838936666 0.040883636195 90.893414468 -0.038182378233 0.034286986581 80.268227288 -0.11581814342 0.083830854416 
83.654447387 -0.12911743993 0.089230698375 87.244721706 -0.058031819009 0.02058969223 85.501161185 -0.083173312732 0.059499352812 
83.642342941 -0.070405059551 0.047088033589 73.261584362 -0.088185851286 0.067602680853 76.674808579 -0.096660387288 0.0854091887 
80.205073156 -0.093369666357 0.055032803741 78.412089175 -0.093053222341 0.072975058792 76.692248259 -0.075809604636 0.040520808471 
67.090903863 -0.1038764257 0.055961238428 70.223085399 -0.076064278923 0.078738953581 73.248564003 -0.076131671831 0.059814948044 
71.634252404 -0.071833015536 0.048473267623 70.210244804 -0.078653643453 0.0098663670022 61.58151677 -0.11341067827 0.038926044192 
64.191212425 -0.10077803993 0.065226777465 67.009339969 -0.068650672253 0.025372088893 65.589251638 -0.069687135254 0.043665110639 
64.125931007 -0.055742569984 0.029333291151 56.934753379 -0.07312128205 0.026815542092 59.069992835 -0.094992879724 0.043699447375 
61.53343822 -0.055570812174 0.040199781939 60.252757217 -0.076212513951 0.032791820481 58.992032533 -0.049086297619 0.037636450617 
53.354218282 -0.10974163459 0.022836121132 54.772289117 -0.13028362095 0.060229424128 56.84853983 -0.047242420348 0.047854700598 
55.774975231 -0.084886477469 0.034178478549 54.714105105 -0.10499230264 -0.02038428589 50.777010386 -0.0061567620953 -0.031867431273 
51.971020079 -0.041828426405 0.018109711065 53.307852387 -0.073814282952 0.011127707157 52.530456082 -0.076237699306 0.0076558575487 
51.8994105 -0.032209518025 -0.0069867624612 49.74032487 -0.0088136745847 -0.048914372619 49.895900818 0.008722394919 -0.0023032770782 
50.683921376 -0.028190955904 0.036994177877 50.194504034 -0.020082492942 -0.0012580292328 49.7991078 -0.019511189127 -0.019802571789 
49.581914202 0.014660226241 -0.034518349248 49.706301091 0.0026377449419 -0.010065565233 -53.011336376 16.664791477 0.010019897541 
-50.492872812 12.941232634 -0.0076021478301 -78.908374408 5.7083725728 -0.02272932641 61.992230583 -14.482655373 -0.0016086439809 
40.028498543 -15.310982015 -0.0060771120496 -47.964146378 7.6560291834 0.0016312926855 -52.959731711 6.8993471611 0.0075995926732 
92.717554193 4.2586294489 0.63569356571 22.54397886 -8.9076450705 -0.0064101180217 -80.291076372 10.406139226 0.0065138408174 
-41.525753605 10.683719483 -0.0059297291262 59.975907066 -10.12542132 -0.00013351668493 26.551424932 -12.539457031 0.01114529545 
43.556613965 -9.2246718386 0.01189815991 -50.3447506 6.7905294389 0.0017132310054 75.942100225 -10.745815743 -0.0024611670682 
51.099452411 -15.622108558 -0.0027813820623 51.538532153 -17.101423063 -0.0079166250975 98.805197351 2.0311448568 0.00089757126558 
76.613674703 -1.6499657482 -0.055528241905 -43.853738135 6.5584991065 -0.00062525531886 57.274147889 -5.9281450653 -0.011595740652 
51.686838267 -2.4093225806 0.00089908196765 -48.927421928 3.2436069933 0.0013691117152 62.257592841 -13.288412324 0.024940479949 
97.574675311 -1.4526929126 -0.073537823047 68.471140823 -9.0201492002 0.0089069848609 33.843709349 -9.9494629481 0.0044756382384 
-51.335078455 9.9048875861 0.0046379607276 -46.727604104 10.678700708 0.0017459177507 99.41756581 8.5896861432 -0.13513058045 
63.630185057 -15.616408118 0.0038889959741 -49.590857354 5.143820658 0.002826561715 50.824636783 -4.2824583835 0.0094387101665 
-55.067425682 10.125687598 -0.0012633604399 100.09441223 -8.5400336636 0.73864761724 41.167736612 -16.617244303 0.00064770753402 
-27.300373192 10.182728459 0.013620951299 14.101707621 -6.6423740268 -0.03155787456 -1.2957648562 0.29140838807 -0.074459677199 
43.101013566 -14.145435814 -0.0047755091313 -15.251095034 3.1987551497 0.12410428866 57.035408957 -13.770918186 -0.0060881809894 
42.560194182 -13.90433014 -0.0071375107795 87.700695117 -6.0795215018 -0.012358867064 96.400497443 4.2557155738 -0.30287531199 
75.053484096 -8.1519831468 0.0056946665935 -46.351782618 4.0795801348 -0.00040595854071 54.004935487 -3.3881984354 -0.002835807497 
47.16917944 -5.8728937619 -0.047417119055 -39.644398797 5.9036738557 0.0047185874506 -60.946867344 5.9995399541 0.007740738847 
31.260486522 -13.756987449 0.011902556189 78.534869665 -9.7956659158 -0.02129727631 -64.341193942 14.980026603 -0.018159218271 
87.650819418 5.3782426549 -0.50185860694 95.879578371 -1.8945379531 -0.20474210798 80.696159071 -3.6215285773 -1.4893227848 
-49.231668338 8.5684511965 -0.00017788375051 54.987696541 -12.52045394 -0.010199354434 -46.65383241 12.839557025 0.01151562142 
17.750664227 -7.427887519 -0.0012811876099 -34.979895017 15.073630009 0.0045326001291 -66.545216576 7.130840441 -0.0064792115865 
-50.017277225 4.1987252417 -0.0080654777254 -100.37411679 -0.86702818312 0.28503867267 -74.303178335 12.542039023 -0.0024312923969 
104.36828699 0.26529502753 -0.085209458801 66.054916259 -5.3682117328 -0.010756969879 -35.668328427 4.9044242351 -0.0032550663627 
54.816862474 -16.261715485 -0.0026943308793 67.290793593 -13.874964484 0.0015633275413 47.488818247 -16.513949402 0.0058420380282 
25.472290998 -3.9158365521 -0.10405385846 -51.461015842 7.7691234352 -0.0014222086329 -49.716511502 3.1804032464 -0.00040965657307 
-50.475502267 2.1864581091 -0.0060422991385 94.766483949 -1.4879993221 -0.042530055398 84.205709889 -6.5206759269 0.017926332667 
32.918982566 -10.364919907 -0.016524607729 -49.586095269 11.237712912 0.0099922920034 -49.477645047 1.5938270348 0.002078871761 
50.550743991 -0.61373947737 0.0062497082076 52.604279409 -14.14510896 0.0053839239684 -50.263205223 3.7912646131 -0.0020378700732 
-3.5122415734 1.1208399051 -0.051533118333 43.382125126 -16.725366185 -0.0012086818711 68.061019658 -11.909925037 -0.0042856997657 
62.854816718 -12.536976888 0.007834308943 28.221942426 -6.822160917 -0.016361710679 33.116988166 -12.680932108 -0.0014126461018 
-43.963128804 9.5412403886 -0.0087984145273 -39.197987785 12.066695289 -0.00117433033 -46.194567526 8.6356070493 -0.00040738530173 
54.818958857 -17.067773616 -0.0015805486542 59.179438201 -16.197632712 0.0020278506837 52.551438557 -11.319446218 -0.003300848117 
-51.823892293 4.6148910697 -0.00025934699639 -48.734641372 5.6876826505 0.001059359799 100.12329238 -1.7288862524 0.26225576265 
97.271318086 7.3620325495 0.20691961802 50.19269888 -6.4278592019 -0.48922555739 -54.95535434 7.5706751621 -0.0080706920571 
-41.85027482 3.043381299 -0.0038133699337 -49.263125036 12.92902372 -0.010961853757 -58.634030777 3.1262644616 0.00099707242194 
99.69284779 0.92312628416 0.011285137473 58.205399941 -8.7010028449 -0.0026005334772 42.014786395 -16.051964289 -0.02471818482 
47.76945733 -2.3714193693 0.017980158377 52.190230301 -1.7118969125 -0.043770000673 -47.397844926 14.343259375 -0.0054715600803 
53.081482077 -9.1058512692 0.0059761438943 87.358339616 2.7039511778 -0.44250758478 91.818568853 5.4947633774 0.16641599644 
-68.226246569 9.758976905 0.0082809869586 102.84163362 13.337175177 0.081115758395 74.392825211 -5.6916503393 -0.006896553751 
77.519069443 -1.9240914941 -0.0094461724317 -0.000674883189 4.4621769048e-05 0.027973047757 -49.650095995 7.0082213199 0.00021551260338 
54.388225577 -15.399090092 -0.0044397344956 -48.260962764 9.7013367159 -0.0017260161253 79.89980808 -16.350989952 -0.6696717094 
98.927223287 1.4154347114 -1.4891133188 87.517263351 -6.8993165976 0.027171746488 63.87771898 -9.4259010264 -0.010577005674 
-46.433613287 6.5544654649 -0.00050967560309 53.368164283 -5.0405554035 -0.0050807787558 109.93260446 -18.354492096 0.11907568001 
21.533823058 -6.6564226492 0.0055289452697 -23.157182779 10.408663152 -0.013643416637 11.299280183 -4.3532362278 -0.030353063819 
-0.0037161820216 0.00070199021094 0.29547069748 -12.361539538 3.7905334708 -0.038402336657 83.114392304 -4.6163148075 -0.0022923870539 
61.066209978 -16.088376176 -0.0020871356356 -31.507164397 4.5862213102 0.00084739688577 -12.737935042 5.2013596703 0.07044372393 
94.282842541 0.18766257782 0.14236590547 -57.250958869 14.941170855 -0.0035672729848 -49.903981601 2.8435143592 0.0028516025548 
-50.180330061 2.1921165182 -0.0027245473825 55.545258566 -2.4728247889 0.017009014124 -33.285139607 13.163804535 -0.00073617744475 
-44.265313113 2.7815818156 0.0025695340403 112.06954481 -9.3433132497 1.9675763472 -50.892099848 5.9245241543 -0.0043731362591 
103.75458343 7.0925288997 -0.14294008909 1.9671407486 0.18060973189 -0.10428877279 44.155168382 -15.427933355 -0.00063376306822 
96.176489958 6.1776529114 0.14252037231 -38.263957089 9.0403697722 -0.0002325090618 27.786836247 -12.186878548 -0.0017316365533 
-72.612971973 11.071402185 0.001484704553 33.397621684 -14.897219246 -0.0048796105853 -71.464020137 12.724854191 0.011738244273 
38.054130001 -13.50821078 0.0045544479703 85.35489313 0.5302801956 -0.1159964728 47.972882029 -16.998908031 0.016321818499 
94.90048062 -2.1761506623 -0.1349270303 18.813476635 -9.0232235249 -0.0064415418202 59.550641659 -11.89039691 0.0047267219908 
-0.00015483998412 4.8300131989e-05 0.061535119602 87.921284506 -6.1775920003 -0.017784493423 87.825614869 -6.5494520024 -0.012813321861 
-51.608914416 6.0465788691 0.0015798315092 -49.761246258 1.9843008914 0.0040176984788 50.33819012 -0.98715787374 0.0030454675398 
66.303207186 -11.638564328 -0.5274168678 -50.256108093 8.541825494 3.3346198291e-05 -47.658652959 5.0386279112 -2.216296159e-05 
71.100676204 -13.335919846 0.013299300526 71.719425727 -4.2315919969 -0.012927491916 63.877419415 -4.8578867719 -0.020902995462 
57.334353836 -10.807791239 0.007408788962 80.305827171 -9.851168646 -0.0013100142765 44.904677602 -11.567024944 -0.0028186680849 
-55.10665786 5.0272327093 0.00013219261894 43.392983238 -12.660955519 6.5372057288e-05 -48.067559525 11.99332378 0.0071331774932 
47.169175101 -17.124556148 0.0026852019333 -56.29084503 10.454381567 -0.029048435615 78.36829747 -8.3597182793 0.0014574518868 
101.23128912 1.134448166 0.9208823164 23.330654411 -2.5136870017 0.088576479654 -29.63976044 7.0819966813 0.016201071866 
25.347156008 -12.021538887 -0.014908714562 94.899809917 14.170516231 0.20558728456 99.853573126 0.14566618767 -0.11540439545 
-41.422405604 8.4950202795 -0.001116709744 -39.107784867 2.6600692829 0.0004830871244 -5.7590841122 1.9555747189 0.026735384856 
91.110800824 -3.4360518253 -0.037229345947 -71.796700219 13.404151093 0.0029142574775 -62.358276529 2.9634060283 0.0054529935099 
54.176573612 -14.735467234 -0.002270617114 49.78738405 -9.8256570027 0.00017686629204 61.970948744 -8.1099033636 0.0046752352869 
-51.926397669 7.8362448096 0.019539026607 -48.776300305 1.2285145034 0.0019799970569 50.867910134 -0.58264361873 0.0037235072738 
79.437620915 -4.2120682925 -0.014142469224 -48.989501484 6.9214911851 0.0030182552461 -49.852597361 0.51978752827 0.0016563957138 
50.108207801 0.027374650949 -0.0059975607357 67.797867623 -14.590142621 -0.011152297904 -68.164473629 -5.7050826659 -0.24092727464 
101.10795851 7.0067399853 0.12992660915 -73.228489334 -7.8240448998 0.2472481924 104.54179044 -10.015767561 -1.1407505518 
101.68322976 -20.249916935 0.31420094334 109.29127114 -9.9805271302 0.9933071153 50.063310052 0.027397661628 -0.015902656403 
50.023817468 0.040567834908 0.01021455696 49.864605495 0.022716858627 0.0057725098311 -49.925067303 0.18146660324 -0.0053153315482 
-49.94539402 0.30229534745 -0.0003873430682 49.680582628 -0.31263647208 -0.014364017563 -0.00021733209265 -2.8014738197e-06 -0.025155944573 
0.0034056174799 0.0007053712231 0.23653337614 -0.0024256938862 -0.00073732214305 0.1458084506 -0.01604517508 -0.004484896211 0.46023799957 
-0.019306925056 -0.0019646274883 0.29162282688 0.014594935924 -0.0024480688593 -0.19438285066 -0.018427238707 -0.0063589829522 -0.064492016777 
-0.15593159686 -0.043190516635 0.33127638264 0.0019176479194 0.003173154926 -0.18876796736 13.09463427 -1.5781913433 0.42594967705 
6.3194048129 1.2903970196 -0.20848578133 6.8904276441 0.62023652676 -0.0075313175222 -14.053564385 0.79924840682 -0.26592399209 
24.338074485 -3.3027046798 -0.33229482115 44.636173705 -13.271721263 -0.4209344982 27.282373608 -5.0349512355 -0.27809260904 
36.994389637 -4.8052837584 -0.37777804244 73.852702917 -20.744565077 -0.050021263728 -51.675912486 17.905196597 -0.043272980123 
56.820372551 -8.3609935741 0.24741885265 92.837459409 -22.73284531 1.5537332425 -78.269176197 22.009326869 -0.22649185324 
-75.020077549 13.307572751 1.7067832249 99.587135642 -19.341212813 -0.24669040655 -49.872753201 0.95210445046 -0.0026399368028 
-49.906210367 1.048350888 0.0098868635628 49.839400107 -0.85306505727 -0.011784796184 -49.634920896 1.8113480318 -0.00021335196037 
-49.666638179 1.0831115073 -0.004411572489 -49.817671415 1.6677903048 -0.0019670122812 49.867270443 -1.7612827994 -0.015462720006 
49.745471104 -2.5896510673 -0.0068386156865 -49.936204728 1.5057205971 0.0012197433646 -49.983604188 1.4874835022 0.0089985695256 
-49.837241503 3.0258552493 0.00377575034 49.984457664 -2.2417196621 0.019254041938 -50.022523906 2.1678103346 0.0030188640546 
49.933855484 -3.5366554625 0.0074235145356 50.083902731 -2.049279432 0.012241982307 -50.079842019 1.9321500584 0.0089819967577 
50.116798308 -4.0234376201 -0.012696634021 50.049257206 -1.1575944053 0.01082973054 50.088385362 -1.068933967 -0.0096490675282 
50.231479345 -2.9799863974 0.020419032246 50.212805153 -1.1678959889 0.014203233086 50.253371632 -0.99980261432 -0.0013876611594 
50.305493138 -2.1944420829 0.014730349249 50.128311021 -0.48976147242 0.0052528206692 50.138422403 -0.35313738377 0.0080363745882 
50.371492839 -1.5657111822 0.013829277516 50.166591206 -0.19644729607 0.029037163267 50.434667634 -0.79688800654 -0.0094200362795 
50.307324481 -0.27155155084 -0.0064176504851 110.65097034 -3.9703523805 0.97214323339 112.13133045 -5.2496334935 0.60685511186 
102.26203012 -11.94207958 0.46871669377 104.94455851 0.36220927158 0.17070258386 108.07052262 -0.10812166676 -0.3211534201 
109.59607676 -5.6320100215 1.5140266278 102.0679034 4.5110392887 -0.19038815087 106.72067555 3.5952417344 0.14902044805 
104.49829271 3.9129247388 -0.030146472581 101.83473184 10.107996052 0.093151221939 81.304447934 8.0186284776 0.17010093189 
-68.703243794 -7.1705788141 -0.14002046919 99.423241263 14.527531991 -0.069689474678 -98.565477954 -4.8393728089 0.95285989665 
-86.590495096 -7.583402782 0.12207813699 99.542120023 11.945939698 -0.86538562217 101.85166908 -0.30831019087 1.171794028 
100.22400122 -0.51926082053 -0.36341032778 97.817285211 4.5010543538 0.69627201385 99.83715942 0.29966919702 0.1462262686 
101.16569679 0.23508135389 -0.29952932687 102.20580727 -0.87044727184 0.22181482389 99.267454718 -0.32811341086 0.24056323263 
99.510742849 -1.0388106571 0.082145740862 99.70382112 0.52252713449 -0.2976710981 100.0220909 0.4341167547 -0.17445444565 
99.737629119 0.38422774489 -0.12858280876 100.20271241 0.73562368508 0.031706183896 100.05843309 0.53435444501 0.0011850711705 
100.35521067 1.023905871 0.022151147458 97.929177041 -0.85097791805 -0.06970273761 98.852870102 -0.57989877798 -0.092453134903 
99.144075154 -0.45682671923 0.013384320415 98.356849189 -0.50851955678 -0.19376382907 95.733680254 -1.881056223 -0.36331825951 
-96.197981991 1.1887261789 0.044943427516 91.871302768 -1.9125054459 -0.020041593339 94.579230711 -1.7303837202 -0.057873002904 
93.232730142 -2.8496505494 0.07114270591 -84.282440343 2.3867900924 -0.006869901336 -87.637824594 2.3588179615 0.025567501477 
88.23193495 -3.4292262062 0.043684640398 83.801643712 -5.6114758577 0.052911681976 87.661838955 -5.0241196261 0.0025093527759 
-79.090004303 2.1347148145 0.018778634311 -82.456859234 2.1380636002 -0.012623599228 81.334637374 -4.4350044139 0.023216164327 
71.708760858 -2.1414514315 -0.0009760171677 -74.973270151 2.1754539689 0.0067856493037 -76.373100888 2.936995672 -0.0050243505116 
-73.11276439 4.9901720423 -0.0052960024032 76.83398671 -4.9465038607 -0.026097145127 -65.903931664 2.7348957228 0.0057521430623 
68.802842459 -2.8163778376 0.0092925088419 -68.689100268 4.8085383143 -0.036586133336 -61.378101721 1.4421070069 0.0080943144738 
63.941852196 -1.4899276197 0.014251011166 -64.275887614 4.1460145823 -0.0013699147324 57.36006249 -1.5312864621 -0.00039924611326 
-59.427301985 1.6110968569 -0.018780206742 60.413161819 -3.0382287545 0.0020198241037 54.111120602 -1.1994620293 -0.0039119102993 
55.760600211 -1.2911466831 0.011240677133 -56.941257239 2.8021004308 -0.01320375628 51.323582894 -0.79175093643 -0.043262018083 
52.409984077 -0.95289880597 -0.0045479665983 53.343720017 -1.7292609146 0.0054365661421 53.03743278 -2.518693752 0.017800410837 
54.671111051 -2.963291432 -0.0085435344835 50.218838022 -0.20989506711 -0.0090592860767 50.58738426 -0.29868034503 0.024163150062 
51.463047308 -1.1324182157 -0.046727301309 50.328850481 -0.23289895962 -0.037987929749 0.0062964508465 -0.0001069427425 0.37773417124 
-9.4857822351e-05 3.1117306245e-06 0.01031205167 0.0029457765656 -0.00042197627498 0.19766226796 -0.73567163846 0.11484613593 -0.039547375792 
-4.3343731682 0.81460085876 -0.036656310561 0.012515882215 -0.0033428447854 0.15715643219 -0.0007849839717 -0.00039113919827 0.11255463761 
-4.7729445225 1.6032206204 0.054663946856 7.085570371 -1.6153529852 0.0096954565499 10.56051184 -2.4400290134 0.027409311697 
8.7787890133 -3.1630137222 -0.10738337875 13.743808705 -3.8055165253 -0.013448638926 16.871265944 -4.1941730453 0.02032691359 
14.784093637 -5.912289817 -0.055989702424 19.208205994 -3.5263213061 -0.026498770449 22.158330669 -3.5821499454 0.015856456048 
19.738313474 -7.2215369107 0.055765222372 -25.561017386 3.7028433143 0.0043972911728 -28.189486548 3.5294095404 -0.0037350829277 
25.135611827 -6.7209596195 -0.02707707566 -29.883515035 2.3737535718 0.0048571595845 32.219730919 -2.3090145291 0.014303238234 
29.961724396 -5.740563238 -0.03267176657 -34.300133882 2.5852188285 0.0057745103836 36.307592967 -2.421122662 0.015454843813 
33.685237106 -4.7239298211 -0.014234703428 38.105439998 -1.3499630226 -0.012245638724 -39.825110661 1.3074155895 -0.00659130942 
37.40348154 -3.7726284993 0.012117991607 -41.215822022 1.5468958026 0.001437406225 -42.701333773 1.4784853868 -0.0075357309204 
-40.521376226 2.8434326916 -0.0078738132999 -43.921557315 1.4140536488 0.0048125897924 -45.174022264 1.347485933 7.1288709349e-05 
43.114414238 -2.9154973625 0.0096374335329 -46.935689712 1.2489000236 -0.0064949643885 47.935056417 -1.1949819853 0.019215749561 
-46.199818168 2.0903860377 0.0054439343916 -47.064439067 3.2166984678 0.00038626378208 -45.336909695 3.4665770355 -5.7876997509e-06 
48.442139287 -0.61494241268 -0.0094451653341 49.124805824 -0.58132179913 0.01628851722 48.277977743 -1.7838008958 0.013328525306 
-49.388397284 0.87405636127 -0.007780697383 58.562100659 -15.866526733 0.041775715343 53.638577286 -16.041168752 0.014373518077 
-59.344122168 15.285916843 -0.039228505626 62.618509431 -15.52812625 -0.0043725957665 57.095250929 -16.426470157 0.031169725756 
53.988955573 -16.868735869 0.0011079849968 57.859540953 -16.551669357 0.003544651853 51.392636938 -17.112216123 0.021982423984 
50.412688143 -16.826061044 -0.0070492353365 47.526179381 -16.483094839 -0.067271668195 48.044328771 -15.770864069 -0.0507039341 
45.11271519 -16.552805475 -0.01316158964 52.729623099 -12.799391391 0.02488084799 51.439587097 -13.556174934 -0.00080482405676 
53.82181093 -13.317266289 -0.0021051676705 53.6485279 -11.907951965 -0.005621120262 51.568705163 -12.127203736 0.0030836503012 
48.646915587 -12.944129272 -0.018228654119 46.913442598 -13.593311784 -0.010201177016 49.073362936 -13.638992976 -0.0030425384975 
-49.18496163 12.465569204 0.022476646601 -47.410797359 12.447961583 0.0083977694931 49.919017032 -12.09029589 0.00033678469116 
-51.115335297 11.339297886 0.0071973178823 48.888796489 -11.611931878 -0.012605580697 49.959642314 -14.332176326 -0.035314718397 
78.687479525 -7.8697194999 0.012720205165 -73.569296297 9.8393070749 -0.002959721916 -73.629793536 7.8166683408 -0.02678087558 
83.368164081 -5.9914963704 0.044054098451 -83.052617465 7.9488394627 -0.014282201724 -72.705789091 6.3714960833 -0.0066516646494 
67.338053438 -8.4424199212 0.01353505738 72.047797084 -4.6663105874 -0.030042573362 78.146585876 -3.734583468 0.0043387959925 
85.848584691 -3.9147628737 -0.027881409246 82.562200268 -2.8837499424 0.0014315821268 88.516965409 -0.43996734075 -0.099461216593 
90.459290582 -4.2024284569 -0.04309490475 -81.683216704 0.81677460521 -0.014950613307 58.369489054 -15.444883301 -0.036075309775 
56.849395454 -16.211885965 -0.026223798194 60.702637487 -15.351886954 -0.0095616796514 59.465907703 -14.71619397 -0.010195186166 
56.135690166 -15.604365038 -0.010324098332 64.508214021 -14.193088287 -0.0063393173234 67.783812083 -12.865691112 0.0024296079276 
65.024093019 -13.276673481 0.032247791535 63.233414904 -15.144359456 -0.033924059557 65.330141402 -12.232763221 0.0020766560319 
62.499221035 -13.503597057 0.009698053728 60.011116841 -13.834302362 0.050789273596 37.629688406 -15.212954484 0.0089378844457 
39.163984876 -15.944476248 -0.0064597309779 41.47379612 -16.030229412 0.025758103239 36.533145109 -14.063312328 -0.02473971389 
33.831034934 -13.905569236 -0.0039507078275 43.671509471 -15.983140843 -0.034221025121 45.56995227 -16.628973514 -0.010303804561 
45.665164283 -15.965046923 0.0033948874603 42.199601112 -15.380419803 -0.012448367884 38.834764345 -14.420395156 0.0015493154324 
35.648616231 -13.067054527 0.019185924251 -41.094826584 14.524413485 -0.019198252395 48.579417664 -8.1720486721 0.014317583204 
-48.021356208 8.6840453317 -0.004738861779 48.772953598 -9.1348007038 0.0010822930404 -49.081382907 7.7655359771 -0.0046730079258 
-48.50067194 7.2865043623 0.0017818955941 -47.165501277 8.1574651238 -0.004510226999 -47.206511152 9.2211368072 -0.0089599299199 
-47.188616332 7.150370348 0.0088334630958 -46.239015107 7.6005058456 0.0097052989236 -48.324926791 6.6891451713 0.0085528654518 
-48.171830318 5.3580306153 0.0022055270997 -47.774036179 6.3943189137 -0.0020839970701 -48.88009757 6.3369781552 0.0083309294134 
-47.033007525 5.8077490198 -0.0063803330578 52.22945705 -7.3701520884 -0.012406171341 52.170352409 -8.4331515183 -0.0021029657187 
53.082658711 -8.0114464907 -0.0050268500781 -52.247775645 6.4852614216 0.0072245067788 51.55695809 -6.9004972388 0.0037864869694 
52.412133434 -5.7571410826 -0.0034229372119 53.132516658 -5.9772146855 -0.0084522905183 -52.587799577 4.8282164706 0.0039992919411 
51.690878935 -5.3398291146 0.0086592304757 53.90004397 -7.2217060781 0.0016093582507 -54.054278284 8.3613805258 -0.012219375861 
-54.214798455 6.3068393894 0.001703101658 90.166032312 5.432165818 -0.27925964925 87.666805133 4.6453660581 -0.21303877566 
91.872433468 3.7355825089 -0.034035102039 92.619621958 4.9722958119 0.15582888322 90.918513547 5.6971757561 -0.35368404933 
92.9945642 1.0211346277 -0.22394858844 93.564879458 2.586682364 0.59950978322 94.429161928 4.848398131 -0.18537339697 
93.300582982 5.7209135984 -0.10054356156 94.54566788 3.1019979179 -0.71278483268 95.544268622 1.3442127446 -0.77560753525 
98.80541045 3.9578534134 -0.34136231909 27.311834617 -9.5768630598 -0.016305746596 -17.691291644 6.2811063824 -0.010332334326 
22.602723629 -7.2162431792 0.1419177241 33.061197641 -11.751250756 -0.01344781651 27.769446486 -11.085399858 -0.042360592426 
-22.79009968 9.6984088657 0.022325345346 17.960339632 -7.7815833367 -0.10196122873 17.714463968 -7.1216157376 -0.064867143439 
28.16886221 -11.78436441 0.047961708065 -12.505263371 4.4587772139 0.03033429921 79.590325349 -10.200217828 0.029198417013 
-83.168162925 8.5369052315 -0.030039845935 83.926375893 -8.7333153809 0.0049908736507 75.965832927 -11.720044258 -0.0089861667247 
74.88377565 -11.317191307 -0.011451840786 77.194792265 -11.476284109 -0.015814482278 80.347106923 -10.168181886 -0.011631786365 
77.27572745 -11.25887346 0.0076869102625 -73.076043462 12.946417722 0.0039372017365 75.958210318 -11.94595415 -0.026647137443 
87.703743831 -6.7511310455 -0.0042335187294 84.116874523 -8.610426083 -0.0095830632812 71.703261207 -13.138316115 -0.009128715741 
84.084297702 -8.2687198114 -0.012643175523 -42.789070676 10.126146831 -0.0029674776866 43.178521832 -11.130317353 -0.0091339845369 
44.380650119 -10.5538077 -0.0024649599593 -42.665337604 9.0389084701 0.0024621116955 -41.437660615 9.6093705873 -0.00098083087675 
40.389801925 -11.399328229 -0.00046991802765 -39.863252954 9.9012447173 0.0013340903175 -38.651943064 10.574837961 -0.0030675810404 
41.304970754 -12.355501916 -0.0116074331 42.478264246 -11.681648547 0.0023269546837 39.908485385 -8.7699611148 0.0042482961629 
44.179438812 -12.133765597 -0.0055667305519 59.086255739 -9.4153699694 -0.0083473674876 57.808060434 -9.745228528 -0.0053048223991 
58.698255682 -10.468467928 -0.004784185448 60.890278561 -9.1701867169 -0.013092138339 59.973694792 -8.4194521896 -0.0040748031955 
61.860121499 -9.7867514139 -0.016354138735 59.808039282 -11.003667933 0.0029585526192 61.732554863 -10.693360493 -0.026189917179 
62.982057796 -8.7596396142 -0.0019032987526 58.428958036 -11.352469367 0.007196830638 22.020652939 -10.053733551 -0.037861508113 
27.092277339 -12.43846351 0.013132698446 22.749330086 -9.9007567198 -0.03777806805 18.072605501 -8.263812285 0.014803175039 
22.625417414 -10.784606938 -0.046437435384 -30.815893012 13.853965646 -0.017598184137 31.387781357 -13.65451544 0.019887617431 
30.011442319 -13.715927214 -0.014921995242 -34.215470599 15.042572589 0.031150110474 25.964637089 -12.352758839 -0.025099000794 
29.344979223 -13.467640828 0.033823276919 22.060978081 -10.510347076 -0.068119766331 35.260420954 -6.6464422921 0.064672647422 
36.826730039 -8.306698381 0.064394742148 -26.848705245 5.0007982112 0.018147260748 38.809958929 -6.1871472984 0.06523967071 
-47.497724951 8.5286948391 -0.0030654634663 37.719987205 -9.6409759315 -0.030811255588 -46.555350623 11.133821526 -0.0030785596543 
41.20259552 -11.849013403 -0.098225111738 31.391315706 -8.7177236551 -0.063281139211 49.849440879 -10.015318428 0.078211926532 
52.634615509 -11.637338601 0.059638134437 54.236931147 -9.1292450902 0.030284857031 -50.11806451 5.516351806 -0.0065181799452 
50.344462315 -5.2753527982 5.8188268217e-05 -49.859435315 5.6356618941 -0.0065714030457 -50.003146344 6.9281883315 0.012118371471 
-50.858533364 7.2855560845 0.0044784129868 51.189785674 -6.8668632937 0.0033205447109 -50.613906793 6.3795278607 0.0095429646077 
-50.333328703 7.6865518425 0.0011797148991 50.842731637 -8.1948912666 0.011270112891 -50.544170568 4.8727650124 -0.0037741622623 
-49.917846994 7.7750505934 0.0068500071207 71.575549079 -12.327886655 0.019585518473 74.24674042 -10.928181405 -0.0046749891642 
69.998729806 -12.509157145 0.018900164247 69.123969781 -13.651473522 0.020248970077 73.518049997 -12.058926472 -0.0014599776088 
80.069090617 -8.6742663391 0.018581384633 78.090752123 -10.336879078 0.0036328457734 82.310654728 -8.1964650588 0.0025919999686 
81.21999732 -7.4572189261 -0.0036093335935 77.156995673 -9.5469027838 -0.0053864450716 75.518317367 -9.7215742744 -0.008375863793 
75.632074654 -11.635652314 0.019126482732 52.791391321 -15.93222155 -0.0063729368846 49.532519259 -16.087935832 -0.011712641631 
51.210167821 -16.447049715 -0.024885268635 54.164849784 -15.300748044 -0.03386081123 47.627427564 -15.556852226 -0.022401430846 
51.984957004 -14.88568638 -0.0021901984772 49.091040228 -14.966316026 0.011234842441 52.718906175 -15.19397308 -0.010029684398 
53.361726621 -14.402306313 0.0036039257306 -45.875780798 14.88361312 -0.01115712817 55.645344527 -14.85129528 -0.020474762209 
53.349985428 -16.683122791 -0.013071042703 49.366386418 -16.798162226 -0.012298183588 55.382846001 -16.705923209 -0.017903153396 
47.472089742 -16.949555652 -0.033042724529 45.245604125 -16.873036275 -0.0094182481609 49.42779281 -17.123299846 -0.0097756197862 
53.11901738 -17.087430974 0.0059559283006 57.188116497 -16.654133676 0.0050446861689 51.049638215 -17.14307011 0.037642967675 
93.089661781 4.0248550963 -0.29861249094 95.4844503 4.2400253319 0.040836036297 92.981758242 2.0518035629 -0.13190348356 
86.795670414 3.0909585443 -0.13201758699 99.637216359 0.97386319943 -0.1093266419 100.55407536 -0.11908184852 0.031257914912 
98.664206399 0.69579618074 -0.0065790171205 99.254830079 0.43809877928 0.099283256738 98.385650173 0.3487987606 0.1454553041 
95.381154784 2.3423004967 0.15075966965 82.757363655 1.7622371572 0.085026605678 82.501321735 0.50135926362 -0.18327055177 
83.331815463 1.3772883623 -0.077125354161 76.97332828 -1.5714851366 0.076048280598 79.234493404 -2.1632727153 -0.21742370689 
83.71404083 0.14813087486 -0.17701269913 71.798558821 -5.9822554742 -0.49504011439 73.261578198 -7.9666381269 -0.18711258112 
63.594226018 -4.4842588329 -0.25736949223 70.021534877 -3.3525957364 -0.087980605528 57.312019345 -5.6327951386 -0.2290664282 
-70.689237991 3.5129429842 0.011436225411 -45.100403905 5.3133217104 -0.010700221784 -45.183140494 6.5583676058 -0.001881231261 
-46.42208197 5.3363083152 -0.0091789568921 -44.017709743 4.6838393092 -0.0018725234431 -41.833150305 6.2630370112 0.0054092087165 
-42.816708153 4.8869152152 -0.0083088284455 -40.666951128 4.464510873 0.00596466745 -40.551929605 7.2768221684 -0.004841481189 
-42.65017813 7.5296635852 -0.0046172103238 -43.837615729 8.0847953786 -0.0095854473764 -45.165438347 9.117613029 -0.013437351416 
45.013932497 -7.670152965 -0.018736897665 58.995332472 -5.9689539643 -0.012907388878 59.90749666 -4.4997634587 -0.00087083652707 
58.020879485 -4.5753179564 -0.024493909855 57.777562748 -7.2741438635 0.0079263859278 59.559560972 -7.3919954373 -0.025339120181 
56.103347348 -6.7829340012 0.0089079868135 56.448828324 -8.1411614089 0.0038764633089 56.118859278 -5.4845676273 -0.0089940973078 
55.079919279 -6.2817092165 -0.0019603796328 56.420077998 -4.1704239536 -0.018924685768 55.32473495 -3.78895557 0.034478579297 
52.750498013 -2.890346524 -0.0065790254989 51.931556229 -2.0631250071 -0.0056042510265 -52.552895139 3.7039805159 0.0063874899633 
53.62266293 -4.228691385 -0.012999832241 -51.088514277 2.3600385081 0.0073703863363 51.140387196 -3.4036355498 -0.00099853834863 
-51.765407994 3.5176463093 -0.00058977645928 50.96594042 -1.7043628812 0.0052620153993 51.104681497 -1.4652271596 0.00034451249762 
51.271441277 -1.4540263699 -0.004475902275 50.748363832 -0.61461293544 0.023247013733 49.3191772 -3.2480843045 0.014737221808 
48.794129452 -4.5025032814 0.01204801609 -49.237465845 4.4982474122 -0.0012971811017 -49.390903968 2.681787714 -0.0084562116395 
-49.133693747 2.3568161448 -0.0018193781535 -49.119278615 1.4183897106 0.001308694494 -48.864765312 2.2658407958 -0.0052424916336 
-48.320527724 4.1661507221 -0.0058682314537 -48.345080052 2.8282297693 -0.0046127988624 -47.73606348 3.7458727826 -0.0085040817358 
70.393356554 -11.75619351 0.051031475055 65.124857855 -11.566238001 0.04526511946 -66.970195415 13.076469374 0.0042026978119 
63.330537993 -14.217090062 -0.011953518504 58.156175585 -14.282813543 -0.018554859352 67.873428221 -13.863803589 -0.0085065099896 
-55.816651435 13.243411724 -0.037141565814 52.025509882 -14.221341714 -0.030259298087 59.501027599 -11.890004722 0.054546520271 
-62.190285702 10.213058193 0.0064540334394 96.24921635 -1.8379904344 -0.081694584029 98.772421393 -0.052815380381 -0.03635962362 
91.562530065 -4.7046300737 0.015115221228 92.368990118 -4.4420575848 0.073479074181 99.643588248 0.16143414046 0.10454756747 
96.543479003 -1.6899265466 -0.10823915935 92.943014733 -4.2926434933 -0.058862112898 87.941217401 -6.6961006637 0.0090469107095 
71.590246601 -8.5997938453 0.0034774131225 68.388868447 -10.486611887 -0.002931383635 71.517136009 -10.09527196 -0.022776625617 
74.762578109 -6.8590906846 0.010937056453 71.364912888 -7.3789210231 0.026937930876 67.439443547 -7.1542293546 -0.017384603613 
65.000650945 -7.4364325122 -0.029118080326 66.107007487 -9.2257176279 -0.0098058235041 70.068677494 -6.7025548233 -0.019748370071 
65.712168074 -10.851414693 -0.020913231613 63.501195132 -10.9642321 -0.0044690247214 34.564672211 -7.4930742771 0.011926051502 
-32.604138198 7.4179825067 0.0048153604846 -36.13919737 9.4860975496 0.0025642244869 36.867016135 -7.1275580293 -0.012626558921 
-31.046042883 8.4264049137 0.013259495284 30.441897599 -9.9943227205 -0.017471063178 33.393754287 -11.389693389 0.0087065268159 
35.918830872 -11.819838299 0.023596552491 36.552449541 -11.075267201 0.020597813415 38.591361157 -12.794481867 0.0062215401925 
51.457950299 -8.8416412988 0.0037101078714 52.236012237 -9.5293456882 0.018665139494 -50.730660536 9.2179483351 -0.0013015072615 
-50.518862659 10.591547849 -0.0090764869129 51.839348732 -10.615378942 -0.0018214772987 50.580575929 -9.8859892456 0.013455056251 
49.671962284 -10.529519531 -0.0028254701632 52.907653903 -10.197330258 0.0019496742476 50.071529104 -9.1756288061 0.00095765703021 
48.098278788 -10.979155469 -0.014234347181 -48.843880446 10.464179975 0.013507600008 -47.571967419 10.211746678 -0.0074753378146 
47.322703764 -11.338648883 0.00013826152883 45.312023429 -10.156751081 -0.0082367011659 -46.396001963 9.6609367791 -0.0026766265799 
45.863690816 -11.138592957 -0.0011521840331 46.452735324 -11.815205462 0.012792480158 102.93272295 4.5033583092 0.23901974955 
96.334546748 4.2866947095 -1.2911463246 99.391095704 1.2429104604 -1.0213457759 101.49654656 8.3356732832 -0.18486886203 
98.527520972 8.6267696641 0.40223461486 97.043213502 6.8092681415 0.41003620847 98.387500952 7.9591894957 0.53884110241 
98.210005655 12.373778769 -0.50724217739 98.384359013 10.383285436 -0.49518463389 65.533225639 -14.751806449 0.0070784377924 
61.280098691 -15.921497363 -0.017829816162 -67.427520051 14.536830477 -0.029169968303 59.182099821 -16.419450046 -0.02221730528 
62.448707801 -15.87383177 -0.0076949031632 64.447892443 -15.414426433 -0.024774847533 65.630935285 -15.100943657 -0.006067700333 
69.527202459 -13.956761156 0.014883915462 49.827750028 -4.6847448179 0.014478754334 -49.57139409 6.0882103764 -0.0077182879269 
-49.768562135 4.1028508413 -0.0034884008021 -49.615027701 4.1563725767 0.0051954369146 -49.180013205 5.4374760707 0.0085313960711 
-49.318652186 6.0785251921 0.0018227616233 -49.3015594 6.9881529058 -0.0076387783311 -50.671932086 3.2084553473 -0.0043454115172 
51.333264161 -4.4505072918 0.0036057885608 50.478978091 -3.2711450359 0.0095338087776 50.529484692 -4.0352541316 0.013171362194 
50.864970839 -5.0844978335 0.013558039679 51.194745192 -5.1843702675 0.0065487321781 51.288569017 -5.9716141446 -0.00016956361876 
55.124869241 -11.314441578 -0.013576801213 53.816966361 -10.777436245 0.016522460917 -56.188799017 11.692277889 -0.010030611338 
56.143072584 -10.454500127 0.0089810800056 53.976348492 -9.6111510523 -0.0053285739052 55.065204962 -8.8170825557 0.0096175308777 
56.635462677 -9.4366151507 -0.019186657271 87.702139661 -6.2487432505 -0.33867045147 -83.388356028 8.0553384085 3.2802944631 
84.739230101 -10.908981876 0.9861251336 96.422445252 -2.6846886416 0.60959485813 86.843632476 -2.5318968331 -0.61109923017 
98.217010788 -3.3419037962 -0.8237140925 101.06611214 -2.8219326282 -1.2057265892 -103.64437399 9.4263371826 0.22708838605 
112.28960862 -14.755982442 -1.000871533 38.019309785 -15.799247292 0.012513295214 42.411959632 -16.689294455 -0.013961042514 
37.226897776 -15.808894364 -0.035971927891 44.184523084 -16.931699653 -0.015946577314 41.621138925 -16.361156998 -0.025063691041 
37.615201691 -15.434841576 -0.047271024859 44.650232174 -16.840662186 -0.0097745933903 47.580382169 -17.106440187 0.0080836278133 
27.655094077 -8.5779576999 0.0073144823443 30.216294069 -11.480676574 -0.027174922138 -24.502910724 8.5068562061 0.026429752689 
27.472614095 -11.239611639 -0.028523284967 30.563678701 -12.441221434 0.0034216620121 24.511220211 -9.5848520861 -0.033730515534 
-8.8390843163 3.5306450707 0.031456529025 -8.0709026623 3.0000884111 -0.048870680835 13.434962551 -5.9496750921 -0.055784924095 
9.9792425416 -4.1608516063 -0.030533851898 18.553149396 -8.5182522213 -0.059760445064 -24.30883264 11.280417867 0.025002946649 
19.660708315 -9.4006090586 -0.10422639949 12.408319321 -5.45745686 -0.043463401723 16.608148171 -7.869272437 -0.023755275604 
15.01481217 -6.7189213472 0.010055375166 -2.6086163702 0.71024294652 0.015484158456 -6.9071738153 2.1714831685 0.062075396763 
0.00097079285676 -0.00010847889955 0.069397367989 0.14490442823 -0.018543548522 0.37988248276 0.005742149196 -0.00090292938604 0.22080703775 
-4.8377922936 0.75574177254 -0.017184832359 -7.1135111861 1.9146138019 -0.079411244426 38.264678476 -12.236626136 0.031861566615 
46.012922901 -13.482153367 -0.034245169628 38.20302372 -13.717206698 -0.030076194014 48.749746139 -14.903685175 -0.059787945337 
42.525168313 -15.176213953 -0.039596461134 37.772375028 -14.596512898 0.0018511439449 18.982736191 -3.0743180547 -0.091455621679 
-8.8269639517 0.73926147204 0.11505977066 22.68438237 -5.1234256438 -0.10751208889 24.332227196 -6.5158232573 -0.035189107376 
13.566184593 -3.4448048165 -0.0064973695487 -6.4617674468 0.74070916143 0.094059696702 55.928309595 -13.158594837 -0.01036202555 
54.83889404 -13.966762608 -0.012554926495 58.297609668 -12.825872129 0.013523024937 57.202089509 -12.208926031 0.017248535462 
55.601143265 -14.270748208 -0.0078238716661 59.910427848 -13.185289668 0.027690330467 57.186751478 -14.362698209 0.0047095195373 
61.167721173 -12.221445485 0.0063843587998 -40.919959284 13.003591235 0.015965770909 40.365192193 -13.701225762 -0.00039092216437 
42.968645983 -13.295785333 0.0015291821187 -45.022227059 14.174444287 -0.011595187627 43.244516303 -14.669318542 -0.00076771315311 
45.353086579 -13.539449962 0.016801611368 85.97736927 -6.3033415854 -0.012901111627 83.960663238 -7.9901237825 0.0063013514224 
89.525498025 -4.8116687124 -0.0095339899012 91.359152019 -4.1848762231 -0.038240043206 87.819064864 -6.3442114776 -0.017637700632 
91.274765719 -4.4801983142 0.020042516891 98.068381095 0.92541092424 -0.061637231541 93.194637102 4.5791305945 -0.06202751742 
-99.583041875 -3.5680178534 0.10497541479 96.035389025 5.144791577 0.32860594383 95.817337013 5.2541323789 -0.26886928227 
70.270348323 -11.485626141 -0.0013995296156 73.903875998 -9.6377468486 -0.016221654763 77.207005495 -6.2258580804 0.025264331744 
78.995976095 -6.367765468 -0.0067586926507 76.695165445 -8.2823825105 0.0026036124446 80.72728925 -6.5588112798 -0.0029796650152 
-46.972429746 4.5570351592 -0.0051412036695 54.212043269 -5.0177410137 -0.0048051715846 54.642783202 -4.2113404261 0.002532076582 
36.399395199 -5.1914149339 -0.1370085266 35.135330701 -3.8730722827 0.048017142446 49.755734752 -7.0064340614 -0.048974419459 
47.814935371 -5.9427365926 -0.13834443602 -55.835142293 5.6682681838 -0.029933003302 57.68995744 -6.3797670166 -0.05637722898 
-37.705318617 5.3947143949 0.0024701686032 -38.851070773 7.5097120763 -0.0033003604464 -39.373433135 4.3171557872 -0.001239351596 
-63.362466223 5.652168167 0.011222331023 61.692775845 -4.5199648045 -0.019192729266 -61.554134755 7.0520266084 0.0053902942554 
63.962241563 -6.7626233699 0.0014503218825 36.646525221 -14.987861038 -0.051658068629 32.150893833 -13.413205948 0.0068164245413 
32.416191113 -14.329562723 0.013707389853 27.244904196 -12.118474982 0.040002015486 28.270882103 -12.828772953 0.037153039558 
66.102856876 -14.78607035 0.0051244390755 68.089331616 -14.26284393 0.018936430248 69.71600383 -13.998402951 0.0058206280253 
91.631164569 -4.4199166149 0.044693464277 -49.468986765 7.8068055302 0.0015483890412 -49.727837146 8.5690236938 -0.0054978173449 
48.976991531 -9.7890950167 0.0051027358857 -49.46882523 9.1867774346 -0.0019411466214 45.000239186 -12.747088788 -0.0077974187493 
-45.771210952 12.199076508 0.0056759894081 61.280134968 -8.845544197 0.039152701983 65.196797339 -6.0076795376 -0.034257508372 
-59.285238063 7.5707957982 0.0058734025008 72.644883712 -12.945041314 0.0083013221247 71.088144552 -13.5996615 0.0092811489525 
0.43419633061 0.28277335552 -0.041301919891 -20.087631407 14.727748042 -0.57256208083 -0.27384327698 -0.14158204663 -0.012253308706 
0.1214630699 0.037526982157 -0.50879221324 0.37391625121 0.039404328456 -0.78262440514 62.872420936 -31.560098415 -1.6351706944 
-97.844413367 31.225660718 -4.9823341876 99.262028524 -11.301016421 4.6836876012 98.338963464 -7.2043043232 1.8497056763 
97.525274384 -5.1306466777 3.268724157 103.38635624 -15.681575728 5.3392438521 -101.95617231 19.751628144 -3.3058676401 
0.074905894619 0.0018352458331 -0.55546229833 0.62899355165 0.040944530514 -0.84912607405 -0.30995811856 -0.041609061859 -1.2400309186 
0.019208327382 0.0025675757009 -1.8154112453 0.50948797678 0.11366622453 0.46671220628 -0.53391887587 -0.19454702376 -0.75651519883 
0.76537484474 0.1442933579 -0.28297422702 -0.13039660776 -0.073813174112 0.026364001196 0.83746517493 0.38560827401 -0.37558700671 
-1.0399282152 -0.43228750435 -0.20083431371 -0.64220568334 -0.4047133302 0.037192273952 0.35298038179 0.22825097001 0.18111583545 
0.87545554854 0.52819876368 -0.36370308004 -10.147097973 6.7096209974 -0.72543455007 30.509360968 -20.859091179 -0.31284155339 
2.4768340351 0.0045160461833 0.52199283813 -52.673713589 29.357576916 0.63321316297 -75.737196291 32.575794466 -0.82014824639 
41.538978392 -25.083124685 -0.30721676873 -96.244172549 32.656979613 0.095107144327 99.695957092 -27.53127865 5.3794448223 
-83.028356138 32.534727197 0.77573375025 97.164049933 -20.635432669 6.0525876996 0.078805700352 0.034554735325 -0.68407563339 
-0.046908870587 -0.011136441337 0.10964260709 -0.2878195565 -0.12717736335 -0.92784167219 0.85633163291 0.46672333172 -0.12873641541 
-0.22310629559 -0.14377335118 0.18987237019 0.5114278573 0.29001674336 0.46329613724 -31.642753669 20.730044701 -0.49729783763 
-10.304370986 7.2462982108 -0.76902045781 79.559477299 -35.707859993 -2.0375065335 52.874800487 -28.693308207 0.075933837015 
97.379229778 -24.068956268 4.642593238 97.644817777 -37.340048683 4.1879887031 50.011601725 -0.030560828658 -0.0055315298132 
50.079069604 -0.18440246252 -0.011406632384 50.040016232 -0.072009187827 -0.010591012442 -50.010541948 0.101236921 -0.0044074656634 
-49.98549724 0.11780290331 0.00052719034734 49.988836291 -0.06559371823 -0.0015276261154 49.950205266 -0.020269702822 0.011737290672 
49.988233269 0.057439552998 0.00086545071046 49.981146486 -0.16265356027 -0.01318829739 49.918003341 -0.017530053596 0.0050475954111 
49.971626236 0.050962278122 -0.0039383188393 49.972318738 0.042893320369 0.0051165988308 50.012940393 0.063129300809 -0.00072688434548 
50.018600617 0.017212968747 -0.0042394948827 50.016700947 0.018744450673 -0.0064634353652 50.042004612 -0.053196399823 -0.0025623855353 
50.004834575 0.056797203631 -0.013690700432 50.055207335 -0.064125222635 -0.0091470179638 50.108706866 -0.056323879371 -0.0035123503412 
-50.044216385 0.093542400465 -0.0022524798833 50.018407598 -0.066082079854 -0.0040217095009 50.059515631 -0.068877487408 -0.025829223134 
50.056809632 -0.054248174638 0.0052146966824 50.008624102 -0.090844263523 0.015278175649 -50.07520298 0.037189425784 0.00069064251854 
50.029506805 -0.053468223917 0.0022111924853 50.008730843 -0.078670905266 -0.037972360445 50.034645457 -0.10066696884 -0.0083002176343 
50.006430439 -0.088707951355 0.010311488669 50.033706698 -0.044774268018 -0.0055459475659 -50.006006784 0.044418568236 -0.0019630609046 
-50.00463344 0.094472844778 -0.00084854131335 49.992159243 -0.096469535037 -0.020894297626 49.974873719 -0.11900876195 -0.0094952151693 
-50.04316686 0.123008819 0.0012766797434 50.03543007 -0.078074862067 -0.009640276532 49.988003437 -0.1391611371 -0.020206427542 
50.002356516 -0.087295697597 -0.0035503522345 -49.985249777 0.086680578261 0.0027070685097 49.979496577 -0.11921104337 -0.015874507736 
-50.036361215 0.098827440729 0.0026952270549 50.018423 -0.14346245593 0.013338082291 49.991911683 -0.036013130579 -0.0057892724605 
49.955347111 -0.075820099118 0.0071260543025 50.004672629 -0.093507424531 0.028266347507 49.962623742 -0.055164636168 0.0040833546384 
-49.953755143 0.082375984411 0.0045877568627 49.974012949 -0.034610977209 -0.011683581027 49.959403213 0.015140708672 -0.010444750379 
49.99072572 -0.054227526382 -0.0020999623956 49.994100486 0.00029547374049 -0.0069535471639 49.940008576 -0.024846056425 0.016915501948 
49.929235012 0.058749346212 -0.0034315245834 49.883901194 0.010788237932 -0.0014641518059 49.97961021 -0.0098120623684 0.030460386159 
49.969500666 0.0027454071169 -0.0076732925992 49.909922338 0.047072094388 0.0031303505618 50.016106747 0.024962420737 -0.0064301079273 
49.947821084 0.04535620267 0.0056393838395 -0.0087661579495 -0.00017812716884 0.22230056814 -0.003004151428 -0.00023910100642 0.13615056035 
-2.6751848148e-05 2.8137746736e-07 -0.0017956829688 7.0433121079 -0.019164068857 -0.011771398071 13.771738272 -0.042259044633 -0.0049631833877 
20.561102451 0.014544993204 0.0046001148035 25.813315607 0.049846437405 -0.0037686730924 30.7719927 0.1262864824 -0.0078329925688 
-35.130201883 -0.017944095302 0.0021126700194 -38.936315092 0.051854730515 -0.0015904084742 -42.173304609 0.028981066494 0.0018068663301 
-47.196901036 0.014996279768 6.973125628e-05 -48.908833114 0.09313791315 0.0067566413382 49.895401869 -0.022780191777 -0.0078163191783 
-44.91911114 0.046691158207 -0.00054188272927 49.982501034 0.021883490009 -0.002810739316 49.986402029 0.025763557907 -0.0085385484039 
-49.737701511 0.023006171936 -0.001740018414 0.012032520086 0.00048808614586 -0.15365902151 -0.0040396453338 -0.0001690282231 0.23784891964 
0.00016923795288 0.0002529080343 -0.41502163692 49.69740634 -0.038051448167 -0.015290895744 0.0043195463976 0.00025201066061 -0.14861502284 
-0.00037502373462 -3.7978707432e-05 0.021810077821 -0.0012460665339 0.0001220885006 -0.092028514631 0.0047534264704 9.1907796046e-07 -0.33738641397 
-0.0058223262499 -0.00077972173467 0.26341405319 -0.0014114350157 -0.0001623986325 0.17069464924 1.9215082115 -0.011744427586 0.11434356539 
0.00035021615771 -3.4807662146e-05 0.056630442385 0.0069927889054 0.0005377775587 -0.13678988259 0.00048086534667 2.2406620972e-06 0.029899787755 
-5.0530647853 -0.00036386145146 0.081837210305 9.0842975289 -0.06072495167 0.046128601648 3.6269748195 -0.0022041678966 0.036847568649 
-2.3315591767 0.0080099935963 -0.016553264779 5.4185230469 0.029939253476 0.046045261755 12.056538055 -0.055434841997 -0.076831259664 
15.515074658 -0.088667742432 0.041203202867 10.808513314 -0.0056179465727 0.016076809604 9.3429152587 -0.031268909497 0.0067742818377 
12.323539132 0.027424495798 0.0533938145 18.952613044 -0.03406776738 -0.0059923729936 21.89753146 0.06028065709 0.011360639755 
17.36751801 -0.037526069582 0.0029778772714 15.574350802 -0.0080088055903 -0.068198950185 19.137902684 -0.0039522721954 0.0098261809781 
24.429051727 0.073258881783 -0.029601861888 27.328307151 0.017371306224 0.017138617051 -23.270729848 -0.065043294075 -0.0023958927399 
-22.051509919 -0.035238626487 -0.00046553400335 -24.496618827 -0.00094439778698 -0.0303428233 29.562347038 0.087020835918 -0.014590040549 
32.108949924 0.092620667548 0.0091422990578 28.524049471 0.088903186305 0.012366865666 27.411813797 0.044595506041 0.0094757698468 
-29.671913658 -0.13917395315 -0.0032223904792 34.074523443 0.058769069786 -0.01658205967 36.137702879 -0.010553944492 0.012750506376 
33.133313665 0.048079125492 -0.0058055678549 32.172422891 0.050348339068 -0.023331784458 34.113802684 0.011702722747 0.011401310588 
-38.079205536 0.031358300123 0.0016773098344 39.763303247 -0.023204965796 0.0044606585213 37.156101942 -0.017568560242 0.003866915897 
36.148203774 0.012345206528 -0.014511781939 38.12790225 -0.019112976601 0.0039311993804 -41.44060021 0.0061493993617 0.0005215216708 
42.89960024 -0.0047852195473 0.0031689906408 40.641604125 -0.027165105707 -0.0019947883119 -39.795911237 0.044751853506 0.0022945474762 
41.460202191 -0.018675350151 -0.004850392809 -44.35830064 0.0090159079713 0.0044015638723 45.538602215 -0.020538988492 -0.0031694749315 
-43.659501756 0.018088068862 0.0014032245585 42.91280375 -0.024922765648 -0.005928690504 44.361102875 -0.022593806622 0.0044606913356 
46.67670116 -0.0082098612753 0.0088642365698 47.689705313 -0.031224557448 0.0096615945479 46.14920104 -0.013886068517 0.0030946842559 
46.672400864 -0.010032496273 -0.0060217194185 45.529200577 -0.009725541838 0.0030816085722 -48.566003693 0.030460221605 0.00091158743936 
49.204901182 -0.0086954833044 -0.0094863592842 48.164702666 -0.024855416319 0.002368341548 47.659601959 -0.018838602545 -0.0060444953446 
48.561402141 -0.016468462926 -0.010188660419 49.50840591 -0.039096769634 -0.010368360232 49.157806154 -0.037884792803 -0.010492760186 
92.337924851 5.3236845369 0.31160115192 -49.925082315 10.891176061 0.012334035072 -37.262417777 14.021914745 0.0071785594303 
54.295008599 -4.442031003 0.0011045784058 -52.263250903 10.174964614 0.00076355958116 -42.481051662 9.1216999415 0.0014248831925 
-33.173458371 10.434668047 -0.0034281619309 -43.399145385 6.7626481653 0.003767128881 55.996828197 -2.7437906471 0.0011470534129 
93.244762978 5.347625743 1.4135793635 96.390298328 -0.95432967637 -0.2760635889 33.624362893 -14.529711755 0.011462671181 
-55.084385391 7.5711851832 -0.0049427571992 -55.041747217 10.143088981 0.00067448697567 43.342552899 -15.090008887 0.0016702334701 
54.521802926 -6.9299110499 0.00081284012557 -50.233642242 11.305620572 -0.0023147853614 -52.203528284 9.5695677637 0.0077635901045 
51.320012584 -9.938898072 -0.009181324221 51.748059133 -10.094112842 0.00034748242704 -51.744205344 10.042545369 0.0045894429902 
-52.737402551 9.6845894905 0.0046872017556 53.060562645 -9.1358031866 -0.0063250347157 52.724648381 -9.6138519256 0.0052902765165 
-41.409197984 9.6321510985 -0.0032088056009 -41.528020858 10.740967052 -0.0029568125357 -42.003988175 9.9483020238 0.0029652975432 
-42.004567898 9.8974999007 -0.0015546828661 -41.903125127 8.8421432241 -0.0013799506449 88.91007103 1.9331273876 -0.61240579303 
89.238298648 3.6619116154 -0.60092003618 89.809379591 5.8306561979 -0.4032775326 93.495026686 3.3766512698 -0.033503807924 
90.088699009 3.9140403388 -0.3298579873 -41.404127138 8.5266415104 0.0023790951907 -41.941391698 8.8099688079 -0.0007306134847 
52.65780412 -11.728720275 -0.015590999957 -49.357079867 13.06533713 0.011943470958 -53.151981136 10.808558433 0.011241121644 
49.796311828 -12.097305996 -0.03265551999 49.558469245 -11.850030811 0.047986984901 35.63412048 -13.119794508 -0.0017204485242 
38.041524252 -13.569520904 -0.0071636264936 37.60769275 -13.757900054 -0.0092552154248 37.603230842 -13.836313095 0.010841242093 
35.289010359 -13.351368887 0.0045067898696 56.428649086 -10.556534213 -0.012948137449 53.034005895 -10.679085273 -0.016988604421 
-0.0017364413587 3.5473653658e-05 0.09426990141 -1.01802963 0.20717454009 -0.010516021046 0.00035201092444 -4.6772688514e-05 0.013756581458 
-0.00079890729371 8.4696197506e-05 0.090035592809 -0.000287978806 0.00014844000141 -0.097195807914 33.104008803 -12.734388933 0.0013518763038 
35.174373806 -13.449698608 -0.010073345725 88.54145654 5.0558071251 -0.62072360308 92.538513458 5.6422935744 0.0021341422785 
0.00012218732633 -1.728124484e-05 0.010637339018 -0.0041285010902 0.00083969703463 0.17668366912 -8.1732818854e-06 -3.2707092989e-05 0.0077299916445 
83.763613871 -5.6393279938 0.013380259123 89.089506682 -2.3033494829 -0.010111154773 89.630713217 -3.3974988153 0.0081587865504 
-89.051024384 2.375095922 -0.026528912537 83.018860472 -4.6993878803 0.008078002296 99.727526976 0.63907858497 0.22400638199 
100.19735474 -0.099796815722 0.24781620402 99.848637084 0.18176346149 0.18340035442 98.582971259 -0.69896400648 0.074191577417 
99.482762125 -0.96454490171 0.095002246162 -0.73597058654 0.16106772893 -0.012997347281 -3.4111054336 1.1354809543 -0.042627143307 
54.216220488 -1.8576081231 0.017008429619 -54.981271129 1.3350366469 -0.0089306352757 -55.172387559 1.418629777 -0.012336129278 
-55.803842569 2.6384309859 0.01187694322 54.859777472 -3.1350828626 -0.012832565701 54.160537258 -1.8340066218 -0.0019421342222 
54.924427377 -1.2955209902 0.0036051439007 54.817575289 -3.1048690443 0.0058982391308 55.737448034 -2.6014335829 0.017353402318 
50.089711383 -1.0828373081 0.0043733051572 50.071064456 -1.0282614698 0.023045724859 -50.058107522 1.0013357421 -0.0026448154532 
-50.177887164 2.2326286185 -0.0017612830871 50.074790192 -1.1596937604 0.006924504792 -50.089127404 1.1290513487 0.0051765667161 
50.049498509 -1.2250745457 -0.0098909058124 -50.05020422 1.2587418081 0.0016627337529 -50.232536222 3.0033934359 -0.004737151619 
-50.067319188 2.0158109405 0.0029553412716 -50.029601085 2.1965181814 -0.0030318444021 -50.137895633 4.0636148148 0.0023061357279 
-50.033900942 4.2534926981 -0.0013183944558 50.020271506 -2.1322467369 0.0085981538843 108.44419781 2.6377046756 0.38301019789 
110.76942244 -4.3267590694 2.6695298045 109.85938497 -3.2071096029 1.9349408135 110.88439578 -5.6291049591 1.777633986 
105.41397142 -0.68462993591 -0.39527957568 -50.001059181 2.3160487484 -0.00014895197404 -50.056323045 2.242081809 0.0094749742417 
-49.988385132 2.2410602429 0.0020745304486 49.998844412 -1.2085536061 0.01024549674 -49.971415718 1.5762838363 0.002063504939 
-49.964767698 1.5116918052 0.0072388496574 -49.932331058 3.5703114616 0.0056926757652 -49.937539384 2.9111923201 0.0034951262738 
50.07395737 -2.0822463227 0.0025897765937 -50.254637063 3.8427899643 -0.001515284573 -27.65402947 5.4528560267 0.012535940328 
22.449884138 -5.1814021207 0.029610737196 29.87644046 -7.2972106929 -0.060426401417 55.665598481 -14.895495707 0.0072284401938 
54.153710822 -15.349333887 0.0038782442049 52.777820221 -15.240694722 0.014729959328 54.200546057 -14.806312891 0.0060613632725 
32.158355142 -2.3021534994 0.011462749375 -33.27234203 2.2350185466 -0.00079778099719 -31.035706153 2.3218230243 0.00025703505859 
-49.827067695 3.0522841653 -0.0018616159363 49.963733724 -1.5255382862 -0.018396170488 -49.878755372 1.7317336636 -0.0016416887371 
-49.949680101 1.4737017008 0.0040300666334 -49.96548078 1.5797494906 0.0037513946178 -49.921007406 1.5175449046 0.0024859368865 
-49.944980261 1.5086568465 -0.0001368165737 -78.040479078 3.0347447676 -0.04279352627 -76.439113204 3.0112563232 -0.018432498602 
74.462345088 -5.7521229908 -0.00086988751958 -78.001461589 2.940209575 -0.020864384169 -74.864833665 2.9843840217 -0.027583046907 
74.89729435 -2.9039811283 0.0062864241394 53.354600488 -14.468768656 0.0040615510391 -0.00077759213064 -0.00025422016721 0.078932474799 
-0.0038524057626 -0.00043187663343 0.32806205449 113.64850263 -4.0930791449 1.4615731482 115.09850785 -5.3078455001 1.5468398408 
103.21508027 0.52401142613 0.92135822818 99.971890187 0.20292561677 0.27658384943 99.999343008 0.50014198433 0.12799244693 
100.21179782 -0.030693422678 0.3998842075 -31.421888614 4.6365755472 -0.0052402624207 -33.192763654 2.2607936064 -0.0043037299318 
30.937206354 -2.3622520827 -0.012678237663 50.179382642 -1.1119110012 0.0094547608869 50.344760994 -2.2039073763 0.0029159607994 
-16.580823957 7.9809616257 -0.0228358526 -19.717733106 9.5376791667 -0.015886954392 21.944142122 -10.57726421 0.030329783952 
18.721107992 -9.1100070469 0.019416023248 -36.859954952 8.4470979549 -0.0081769922125 -52.232543246 6.5257717429 0.0001652086495 
51.611008266 -6.9347032873 -0.0010814449537 -51.615751485 6.0834814288 0.00013190509846 -100.0042223 0.044695710653 -0.20607438227 
99.8902249 0.56356672022 0.072810492042 100.40239993 0.68146205864 0.14318130315 100.2122247 -0.20224084297 0.067527719411 
87.58693706 -2.4087844509 0.034958482935 85.911196566 -2.3896676629 0.017013720377 -85.892487912 2.4555465292 -0.059439175785 
54.083257393 -3.4028493909 -0.0021751895097 -50.030978484 1.5624815338 0.0079368591104 50.36112666 -0.2889586792 -0.02264872179 
50.043707511 0.019694886905 -0.019072151718 50.336962616 -0.25997955654 -0.0012128288782 50.326897558 -0.31833504352 8.7211872951e-05 
50.564748622 -0.60584733126 -0.00018748898678 54.787047937 -14.023035502 -0.0025245793695 55.643985513 -14.342395938 -0.0025654951666 
98.825731992 -0.5172890303 0.096906495499 95.945089096 -2.2187490975 -0.14034735342 70.268659493 -11.534729461 -0.0083521915796 
72.601413348 -11.109808743 0.0017954194745 69.982275259 -12.56524936 0.0020413358091 74.26088371 -10.968406766 -0.0056396418692 
-50.091235343 9.2207270626 0.0050790724986 -50.544370871 9.9260795175 0.00039127226358 -49.781210569 9.8633024669 0.0024815054818 
50.120436512 0.060512919324 -0.0040912848368 49.996907411 -0.022487025746 -0.015353934524 89.607786009 -3.3195664353 0.0050847984861 
84.232150118 -6.559604449 -0.013848274095 18.468332292 -8.6049302405 0.04729828358 -18.046594401 7.9266862863 -0.033625245938 
-23.114514457 10.5558487 -0.016966685643 -12.70623562 5.2865834511 -0.01866103866 13.441136963 -6.052467954 0.01251674779 
18.035579245 -8.3424233506 -0.0023027239467 21.933669622 -10.122083345 0.0031714287717 22.658606486 -10.89920313 0.025228314958 
97.623049523 1.5157999053 -0.7723080144 -94.255988471 -6.5550817056 0.38936433695 96.163139058 5.3693686433 -0.22844411442 
96.836608988 3.3738034212 -1.9876125495 100.78742765 2.5191495517 -0.20671370861 87.513206149 8.2347394427 0.011212251037 
92.148679796 10.058683079 -0.69687316822 97.419497309 12.33406809 0.025962963591 96.429367822 15.592510837 -0.092871893949 
73.085637078 -5.0377807055 0.00099786337833 -73.421412818 2.1375757747 -0.0042527392608 68.108103679 -14.308082385 0.012674444457 
-71.826507577 13.449698438 -0.00052356687505 -69.733568682 14.037618996 0.0054193509488 -47.092951068 3.2208744435 0.0014352574294 
-47.498518733 1.2119514366 0.0068863179264 -46.705278066 2.0233377002 0.0042705718498 -47.471792264 1.2101644838 -0.0088638960976 
-47.780843152 2.3757310138 -0.0022354541661 109.03131893 -1.2176631485 0.25924775866 104.7238334 2.3244803669 0.40426664918 
-81.609031154 -8.5118051999 -0.16699845964 -76.327357025 -9.1077198988 0.25768783459 -74.108827999 -7.872729199 -0.13812884464 
-59.452335105 1.6523061884 -0.014388987204 -60.586956852 1.6694266115 -0.02270277019 58.339918808 -1.5792025208 0.015880629393 
80.71703149 -6.6172856405 0.00096264390468 76.735869057 -8.3364480775 0.010315822768 78.399419447 -8.4465285831 0.0083043297987 
-48.995572699 9.8194534156 -0.0038983870669 -49.45296663 9.2242315539 0.0021804174479 50.746882692 -0.60757570973 0.00036997207653 
50.407008266 -0.28600348074 0.00043867505846 0.0076726073873 0.0034476814131 -0.30596519895 -0.02917852787 -0.009249284369 0.17068319698 
2.7077226129 0.17722535462 -0.20905444562 0.030874470469 0.0099893462342 -0.10649066495 50.206576154 -0.28112846283 -0.0043121228248 
49.98390361 0.0025680000536 0.018812464047 50.211958309 -0.31213088242 0.0030086983633 -7.8711709954 2.9895245552 -0.04156476536 
-24.31553899 11.427519969 -0.0028990356641 0.023039201658 0.0082292649393 -0.33725348321 0.00018336389273 0.00013564128307 -0.15300923247 
12.353237921 -5.5347988816 0.011320067526 14.884630394 -6.8017583572 -0.0038760167654 -58.408701413 1.6196149444 -0.017634521383 
-58.654622193 3.1818969046 -0.0006143886515 -60.633918625 1.721413909 -0.030696299837 49.903490324 -1.7945204786 -0.014328039994 
-49.713296292 3.2101353575 0.0078866319629 -49.83194103 1.0323395701 0.0099150599872 49.98827932 -0.4569623535 -0.022698637395 
49.870114419 -0.56108383286 -0.011297896224 -49.994304659 0.42417999195 0.0054831195724 -49.643230172 1.0925436514 0.0091600558668 
-49.448336935 0.36925217591 0.0051222305778 -49.22072165 0.88849660421 0.0006544858535 -49.427906249 0.35713530698 0.0071448618106 
52.419500862 -5.7770765959 -0.0034972648016 -51.731752571 5.3638678369 0.0012961993699 -23.487048235 3.537378572 3.5726907754e-05 
-22.035608883 3.6012364242 -0.0054249870433 -20.663534985 3.5676216714 -0.0070439671137 27.654326352 -8.6012943809 0.0032498247476 
30.392848772 -10.040742987 -0.0039133802902 -27.257898193 10.236458934 -0.0061831402067 30.18800295 -11.549433241 -0.0097102467547 
50.004113631 -0.036092852401 -0.0078435487677 75.518055028 -9.7637709901 0.0060119073379 73.879825734 -9.6729960058 0.0050097642175 
-44.883130434 11.597223099 -0.0025384937179 43.208787739 -11.190275862 -0.0068977262909 -42.792299613 10.162245497 -0.0038934932727 
44.346328056 -10.588225568 0.0016267218557 73.094204824 -12.99360403 0.0082115165632 -76.020447317 11.993197369 -0.0039717317079 
98.906930325 13.303198047 -0.37688676442 -77.224232047 9.6054206751 -0.0066927822872 -49.82868984 1.0093219408 0.0064088276908 
-49.499092206 1.6332624788 0.0072768618673 -49.19989627 0.8716937866 0.0054948773528 47.189403579 -17.222410709 -0.0040240238661 
45.178552876 -16.957496152 0.012019106957 -47.481781249 17.009203597 -0.0070801979685 49.501335294 -17.217297459 0.0023866857832 
14.037932271 -6.7234732189 0.048183768189 -45.584545313 2.152182398 0.0017287703324 -44.56324393 1.4181123058 -0.0026203493961 
-45.330552606 3.45922015 -0.0026786382014 -44.2600325 2.796057608 0.0020435259323 -44.554197912 1.4009556151 0.0040395883432 
62.602790703 -1.5544843163 0.030193263436 -60.417734466 3.0738137282 0.00038938303107 26.817640486 -3.6659423909 -0.0082552317259 
23.357003343 -3.6102568247 0.01064042917 21.390459071 -6.735218464 0.0085793773159 25.128574802 -6.7537467073 -0.014117653575 
50.431814907 -0.26771942968 -0.025883979962 50.727337716 -9.2575441843 -0.0044865137415 -50.290734132 8.5897523623 0.0048852402181 
-50.911084954 8.2361201848 -0.00044884015886 95.063725149 5.2817117146 0.53113039196 94.866612359 6.3668603356 0.88959691449 
95.643480145 6.5398143858 0.42669334938 -49.770175439 8.6150335812 -0.0008877962611 -14.225008122 0.95512563935 0.071464360931 
-73.428154909 2.2350407315 -0.053618253095 71.802613766 -4.3167370724 0.0076882691798 99.972754832 0.33203956154 0.01112032248 
58.435744027 -11.385184855 -0.0059528854315 57.214233344 -12.249499683 -0.0047377812403 57.371290083 -10.859611266 0.00073660240141 
-56.206798802 11.749751496 0.0018138462478 -47.300424744 11.375068184 0.004983995722 -48.075892262 12.029901257 0.0055902826603 
-46.460909392 11.861144967 -0.0076581229806 45.876368924 -11.161998657 0.0053245389453 -71.723334816 13.197842215 0.004083880043 
-46.416064472 6.5750324047 0.0016447003127 -46.240794327 7.6202966311 0.00066044442376 -44.992794137 6.6748095904 -0.0045757217241 
-44.808676987 7.7744123191 -0.0012996966881 -44.978285794 6.7030316908 0.00055891275366 -25.325999571 12.169224037 -0.0020776696528 
102.14030996 -0.32951419974 0.41730824894 101.1596301 -0.5778141601 0.4615599312 102.17178426 -1.2937977103 -0.76632477612 
50.976551274 -0.58682027086 -0.0014412711728 57.042517427 -16.48823934 -0.0021925662522 -61.057293381 16.141424267 -0.0035060727466 
57.847264895 -16.607762875 -0.011983669799 11.897175284 -2.8563580663 -0.0062675256719 12.137347756 -2.7794290313 0.012429079261 
11.047841979 -4.3984487235 -0.013351411294 14.661252583 -5.9446714721 -0.0086783302498 15.281174968 -4.1705968176 0.013774583618 
24.404424651 -8.585048095 0.0027187826801 -38.092272348 1.3664964223 0.0014807848604 -37.142820294 1.3839902129 0.0033746596546 
-38.986973559 1.3489225143 0.00036481670608 -8.8916476181 3.6914208713 0.013265299061 62.590715684 -1.4942430719 0.011858654581 
-62.364653072 3.0049342622 -0.0065301629557 81.207635672 -7.500726995 0.0018626292474 65.327031291 -1.5970420964 0.028072612194 
65.27815494 -1.5486212465 0.027834685619 -63.91153223 1.5462007012 -0.034200749057 0.005279792122 0.0002759032689 -0.016981210967 
49.911212503 0.028403097159 -0.021069358762 49.962723524 0.047668590596 -0.0089778421904 50.515581541 -4.9195484137 0.00732847227 
-50.8930525 5.9713798063 -0.0034221234991 -50.626888696 6.4174136435 -0.0070995182565 -51.208536535 5.2109787268 0.0035039081699 
98.691032388 4.7866681297 -0.23427971362 -49.879292992 0.27652717497 0.0046333648848 -49.710158089 0.35384644435 0.0078609049992 
-26.849928604 3.6438815384 0.0071664443035 -28.180634141 6.8278889853 -0.0054518974033 59.954238209 -4.5454936053 0.0074012606616 
57.998933005 -4.6164396684 0.0035779108896 67.292266221 -2.7968802227 0.0055689620659 -64.326755788 4.1713019854 7.51618528e-05 
-1.2496177724 0.29830509873 0.087133018493 0.0034562935463 -0.00016170899444 -0.092684941254 0.0079578356709 -0.00017246276731 -0.17382765729 
-0.092117650779 0.010659213028 0.34720122099 -20.462445144 3.6329923941 0.0057673312447 -28.077473961 3.5432670568 0.00058942151284 
29.283011743 -3.4685370727 0.01176379995 -9.2007582039 0.85610579161 0.058218589724 31.503964292 -8.7054076494 0.015617630967 
24.765632511 -6.8515538418 0.031466428561 31.702443977 -8.9185279844 -0.021785500012 -51.483673588 8.8723602895 0.0071010648962 
103.71694547 -1.7315723179 0.77411053664 111.20114933 -5.9098549385 1.6040376478 -15.144536217 3.2611274566 -0.013766555195 
19.185439707 -3.2215887294 0.022463912978 50.186832885 -1.0900377742 0.0034613361156 -52.223578413 7.4180328094 0.00063965434837 
52.962693544 -6.9349715836 0.0072171562649 -48.874815854 11.650506467 -0.00054330554334 94.848328224 8.1017913147 -0.14146015804 
95.351926635 7.6136910634 0.78298070309 96.644848206 8.9548628588 -0.48179562268 -96.200260199 -9.9092322859 0.86498567697 
69.135086227 -13.682925219 0.0017429351783 67.417916449 -14.578927739 -0.006951188458 71.162343764 -13.395760307 -0.009880649599 
-70.375961055 2.1863246848 -0.031762765554 67.328842371 -2.8803603314 0.023033206346 68.740742642 -4.8462969169 0.018654960538 
-70.311369436 2.0973582694 -0.0079799027066 -38.111202059 9.9429096999 -0.00079513813901 101.99499563 -0.37912653855 -0.53967137743 
100.7864425 1.7916818452 -1.7432351766 99.580541441 0.3610645302 0.53851267113 -46.204931185 8.6704115115 0.0054132289534 
-44.808698116 7.832748239 -0.0023867553335 -37.103994358 1.4051797035 -0.0029227688537 -39.070825611 2.6745549695 0.00052881963669 
-38.938332545 1.3544425733 -0.0047786054028 51.263818862 -6.0189371268 -0.0051610555101 -51.200443115 6.9016264358 -0.00029363522347 
-29.324171403 3.4544297071 0.0020323833361 -49.062460377 7.7977431117 0.0092450836378 -48.522677725 7.3221950186 -0.0014463134124 
-49.001177377 6.9742537364 0.0052331904825 53.010948165 -2.5042980126 0.0011137617193 52.837159769 -1.6039592466 0.0066375360534 
51.837771738 -0.85274338985 0.012134184424 52.163093526 -1.7084988684 -0.00054231317229 51.821623037 -0.85581087157 -0.01735392935 
75.951102736 -10.819499284 -0.0072254791263 71.538153458 -12.402013599 -0.0037486648939 51.488617694 -7.8253271092 0.0018847115669 
-46.704987008 2.0418949637 0.005931462491 -46.341984094 4.1088959107 0.0027455603546 49.952475615 0.080324827507 -0.033295335431 
43.372622039 -16.756645505 0.031843679498 45.574797912 -16.68677561 0.025414417943 41.517775242 -16.099985901 -0.0031269049285 
-43.663805895 16.049391992 0.00087481437222 97.39594583 5.5641215213 0.24910634299 98.983619646 6.6951667831 -1.005722212 
53.36900059 -16.752427305 0.020604975136 51.150782743 -16.524580715 -0.003977814561 49.370644096 -16.879695343 0.011915376155 
51.605545842 -17.189796779 0.014972756589 -62.640254601 15.594900608 -0.015402673793 73.593857374 -12.103753449 -0.0056575112907 
78.939885352 -6.4440970428 0.0049245933603 -49.156744454 1.4632615524 0.00029312103275 48.816201972 -0.64603318875 -0.011213796778 
99.93449562 0.55915243238 -0.081365711201 100.61866846 0.57324957734 -0.11196236338 49.865467048 -0.25774665477 -0.010126675534 
-62.47273299 15.92419076 -0.012782125001 -43.681031343 9.332140262 0.007817042641 35.751687475 -6.8495636816 0.024524428853 
-41.029912302 6.427677379 -0.0066086365769 48.944535561 -8.5106908575 -0.028585138854 49.055041158 -8.6527055242 0.057973910742 
-47.410969108 12.493899805 0.00040334513318 -45.720628103 12.230821841 -0.0031141460042 -43.980253413 9.593900851 -0.0029182685989 
99.559986947 1.4752724443 -2.4412796238 42.414266319 -16.737559962 0.017492626162 39.163511831 -16.017907276 -0.012318810499 
-29.945474215 5.7262478109 -0.0094922257769 101.19663586 -0.67584367217 1.378950994 98.92161271 4.3778797516 -0.034532352553 
98.938935143 2.773850497 0.88426171936 96.569465229 0.14158274466 -0.61182158636 93.648901413 -5.19996783 1.1265284108 
48.870854368 -0.65493553405 0.0090874457084 -48.79523559 1.2507452546 0.0032364681194 96.129944326 9.206339951 -0.22053288062 
96.129377284 8.9291828964 -0.91498420864 80.70525544 -2.2123933843 0.046832358185 76.814766395 -5.0006216307 -0.0038157169858 
-2.5589390794 0.73844326388 0.029721382661 -7.0975853429 2.3373866625 0.094427116189 -64.467722275 14.257955168 -0.0094889852583 
63.252188803 -15.19304063 -0.0027695354828 67.32270989 -13.959276256 0.0020301871758 -84.014961029 2.2080908552 -0.055357507437 
81.343751607 -4.4704090277 -0.0018354269206 42.416156593 -11.70938606 0.00051461929887 -40.377225322 11.431871611 -0.0028496674092 
70.112487105 -6.7879723273 -0.0086723807658 72.204172489 -4.6905974785 -0.031974131872 -72.811178636 6.3745582222 -0.0065214549698 
66.583492937 -7.1234131907 -0.0079220597683 59.968800923 -8.4587611962 0.011664481093 60.915254282 -9.2160939245 0.0057558862522 
59.968533164 -10.18579417 0.0083331129041 59.095723645 -9.4408330524 0.0091637117473 61.006344875 -6.0249826222 0.01081955509 
58.993660704 -6.0065602699 0.0094635126707 53.480009343 -1.7444995411 0.0050881994912 52.941631266 -1.6244642867 0.0054065740609 
111.04262235 -9.5827731873 1.8102925063 114.42402926 -9.9634527166 1.728999753 25.710820842 -4.0443759571 -0.094986378339 
26.545841166 -12.6264821 0.020232897453 29.911631328 -13.783934245 0.00038191167229 30.099992697 -13.67927054 0.014469700685 
33.443997016 -14.783754027 -0.008754959245 30.166039166 -13.569046141 0.008587005479 -53.102597548 8.0335004751 -1.6715626443e-05 
50.477278243 -3.3067774801 0.0063219598067 -50.496685374 2.2036511486 0.00087519559134 67.848148244 -12.945113687 -0.0088093829752 
68.114738622 -11.97731979 -0.0029002835888 -0.00061295106947 0.0001708770327 0.057077009898 -0.007930295042 -0.00015949815568 0.21865383325 
-49.247895149 8.6126297083 0.0089096681171 -48.802262896 9.1767955058 0.0075099076935 -48.595089146 8.2020571766 0.0044769797182 
67.851068832 -14.690583023 -0.0039022109567 66.203969327 -14.87800486 0.0074922631174 -54.808915166 16.322847414 -0.022106592299 
-0.0010081938817 1.0030881041e-05 0.055597058287 -64.460743558 4.9174740289 0.016500303064 57.773999333 -5.6789984688 -0.17002403102 
70.389858589 -3.3155716726 -0.097774657919 -84.042434849 2.1385836552 -0.02166741464 79.399930262 -4.2715442363 0.0022083983312 
-49.764889773 4.1450806428 0.00053822415238 71.808357535 -2.1671895927 0.0075266408868 -48.830405871 10.503796312 0.0083478115865 
-48.150806534 11.050956727 0.011732832988 47.55801377 -10.239576508 0.0090545455792 -48.221978515 9.7411301246 0.0050968551006 
-44.21241565 16.99320192 -0.009542112812 59.817296718 -11.044322855 0.0017864031705 58.70656085 -10.505503237 0.0051767473359 
-49.624435126 4.2063316757 0.0050009859669 -49.608406512 5.1978507082 0.00092666725054 -49.198490853 5.479631281 0.00076889685679 
-46.170157925 2.0862727905 -0.00071562167719 -45.57951931 2.167399833 -0.00050099320042 -35.333668398 2.5230558575 0.0026201087851 
33.659858704 -4.7257129185 -0.0078169147812 58.379460134 -15.496898465 0.0048723242914 56.819941029 -16.273252758 0.013181009396 
51.797678959 -3.5117531777 -0.0034528677217 51.833065796 -4.6469331006 -0.00020439164831 -51.133382367 3.4233639526 -0.0040018255464 
55.102786405 -11.304480699 -0.0077875672396 -56.127439192 10.534687777 0.012383519854 56.117917156 -10.457344169 0.0078312638943 
52.17605356 -8.4693993087 -0.0088264276532 -39.184572037 12.100143036 0.0011018647453 -41.315124635 12.39521994 -0.001339906439 
77.723012143 -1.9012377771 -0.12499488888 78.174852723 -3.6953648121 -0.088015793349 82.883491936 0.3307604044 -0.52445250485 
83.422104419 1.6776520718 -0.44927152841 -47.193344694 7.1719092596 0.0024351339857 -47.037991783 5.8306273959 -0.00015908625066 
60.743198338 -15.416790189 0.016818241122 61.986255547 -14.561269057 0.0046392655306 59.18548011 -16.269302456 0.019461089012 
99.911311575 -0.044622260087 -0.01720712134 97.83199948 -2.1138042746 -0.077926449476 96.715539129 -2.314837085 0.0091203064208 
-34.550149221 7.5067955028 -0.00061019271375 32.503890699 -7.4757516469 0.0063066206285 102.90330428 3.1669257269 -0.94141166786 
51.026023052 -17.19029583 -0.00066333236389 -47.58977984 17.204215527 -0.0065704727249 -50.84232263 7.3132109285 -0.0090611924038 
-49.248313069 4.5272870067 0.0090412602739 -49.339494175 3.28256353 0.0091876429373 -37.37636828 3.7839337119 -0.0024080273836 
-49.111347304 10.594949878 -0.0010895668211 -49.974468793 10.62091943 -0.011167740683 -49.903331285 11.346360827 0.0051435854055 
49.677596181 -1.8678466739 -0.014669009146 -49.869785277 1.0573021333 -4.3846371228e-06 53.077605568 -17.141075928 -0.0053724342117 
44.604859307 -16.914882592 0.019220990837 45.189557882 -16.661538337 0.025783565509 -47.985121346 17.120888112 -0.010994741759 
0.0045366120854 0.00064233530671 -0.13289846301 0.00044178601844 -3.6412871835e-06 -0.018461664552 -50.373119428 16.897777888 0.0027718469848 
-51.452383109 17.169265074 0.0046257664587 46.766762 -10.721893431 0.0098502496596 -45.153353756 9.1556469741 -0.0020602431412 
-43.592791654 8.1849056362 -0.0074473758414 -43.592122436 8.2266205649 0.0065306050812 74.91881502 -11.408287162 -0.027019833962 
-71.570904164 12.855329173 -0.0074982876153 -67.083388246 13.162808736 0.0013798891822 61.855673818 -9.8352175424 0.0079032058475 
61.755955165 -10.73870973 -0.007512675761 104.58481635 -4.0169596063 1.5319038535 110.92728085 -6.8686599853 2.342954683 
105.57572459 -6.5350175093 1.1174847369 -49.972952754 10.542810004 0.003840851835 -50.838174118 10.63630614 -0.0041672656917 
-27.435732723 11.262917721 -0.017442157357 24.375865682 -9.6635302045 0.00027788409175 47.48575603 -16.579168427 0.024608437986 
-80.711086845 2.1470408095 -0.013139786547 -50.67844076 3.218528744 -0.0046128338022 -47.891860885 6.0176515384 0.023019913396 
36.230257924 -5.1534120123 -0.078833144201 51.618923431 -6.9572689733 0.03349267791 -52.195498989 7.0180324275 0.015814410526 
-39.964155783 15.362622152 -0.0099551019021 -51.301858614 4.4869405692 0.00094299158116 50.821636765 -4.3167269506 -0.0030300399221 
50.146440371 -0.4582290812 0.024384275622 50.411951171 -0.81491249988 0.0046220411041 -47.205931601 9.2739152539 -0.0012159690736 
-48.016540647 8.7255902938 0.0089834839009 -48.823215643 4.5194478762 0.0060766417538 -48.936153473 3.2570563867 0.010365071113 
-48.736721312 5.7110985245 -0.0037859922356 98.604360711 10.940750887 -0.85731971489 -49.077655204 13.669185089 -0.0073968513969 
-48.633280887 13.003401887 -0.0062566695698 46.642561674 -12.912546841 0.006037761831 46.927721002 -13.642347789 -0.0011575334674 
-52.782183173 15.965456252 -0.0098377187055 33.389465861 -15.006865184 0.02114281988 -33.446072316 14.912133476 -0.022936484819 
-50.877903183 5.1171925121 0.0017989677984 84.024346288 -8.0663109024 -0.039046479268 82.319975885 -8.247455427 -0.014410191739 
85.993809162 -6.3659852335 -0.018113414088 87.774402068 -6.1399465508 -0.055710341595 -48.479187887 0.64487711671 0.0037443376073 
-48.010120418 0.65337667071 0.0067845300699 -45.3454551 10.213225349 0.0064745704869 79.666523453 -10.285930259 -0.0041504263975 
76.052795519 -11.808101906 0.0026741586719 43.38514822 -12.69789764 5.2009093123e-05 -44.170616328 12.14563169 -0.0017984565696 
-35.338076167 2.5052340061 -0.0018877813167 74.79249589 -6.9264818266 -0.007215890879 71.339794398 -7.4243145725 0.0041258284652 
55.109123065 -5.0744500268 -0.0026289131001 54.742027909 -4.7739069391 0.0063550393038 54.71265729 -4.7218044525 -0.013261892435 
55.581051761 -3.9096051243 0.0024958294934 55.089625187 -3.6463075736 -0.0068678699643 55.623588184 -3.9596935175 -0.0038870849875 
93.2838039 5.4337071588 0.81113189007 93.666523194 5.5793401547 1.6778356641 94.421786399 4.1587963986 0.68934465497 
64.993567754 -13.331647374 0.0026119064421 55.403691534 -16.786239172 0.0052802333087 57.195447628 -16.716146135 0.018162430104 
-46.365547007 9.6757030518 0.00093027635417 -47.179373029 8.1864425752 0.00074504181733 40.755708397 -6.3123418272 0.036341304772 
63.641296064 -15.710741021 0.010706704328 65.608258815 -14.814001213 -0.008689491051 78.070832736 -10.388228393 -0.0062773751444 
-75.640128787 11.686175817 -0.0015983355578 99.893934536 -0.47907822882 0.87057925825 99.317163166 -0.8258713588 0.66599174256 
100.47214264 0.36576243546 -1.073005237 50.071306242 0.024789802874 -0.0029155719791 50.023565932 0.08111497149 0.0024644238914 
50.027321805 0.046682945834 -0.00032408511025 -50.351297897 5.316146928 -0.0062379571101 -50.103443923 5.5594243617 0.00086770716053 
57.257225562 -5.9828500013 0.0022103750958 50.635597637 -0.31788615507 -0.017739078879 51.068902039 -0.36480013766 -0.012762500584 
-74.288544869 12.612045095 1.0045565993e-07 -77.175497653 11.536124905 0.0016302101829 -54.071685787 16.952486092 0.013934847416 
53.005389255 -16.777544505 -0.016168024422 102.83026108 6.837413573 -0.72959790903 -48.875816884 6.3638735603 -0.0024634030479 
-49.321192419 6.1140942018 0.0032293385921 -49.823161362 4.7147978444 0.0059190882841 42.566413265 -13.959477197 -0.0055221628951 
-40.896777634 13.03934877 0.0042791421806 38.576870518 -12.840647292 -0.0019247358319 -40.410441661 13.766605807 0.005308359394 
-50.521220553 4.0809740264 0.0061429644121 57.244695174 -15.013007004 0.0069878820604 99.260241423 -0.68259463207 0.26154476515 
-50.352301633 7.720084851 0.0023224072507 -49.779951927 2.0256709009 0.0078666296245 -49.904059038 1.0988384417 0.009200159005 
-49.582926025 6.1242044921 0.0070546613392 53.971161748 -9.6179584177 0.0061674749044 -53.980648503 9.6671253363 0.0083930661391 
-53.846159913 8.0450201056 0.0015664419476 53.872640602 -8.0871062249 0.0042074850879 54.873933769 -8.5253715559 0.003382652228 
49.95677397 -0.35711845506 -0.013725228481 -49.908121208 0.24310502346 0.0010555996294 49.921657187 -0.27428868013 -0.0095323078851 
107.85587771 1.9433586906 -0.038571553339 104.83035257 5.6919337298 -0.80506829069 107.91303846 4.0521043451 -0.026134369485 
104.65730396 8.0526055188 -0.6176913582 49.532816437 -16.141668715 0.0025795216538 96.470367816 2.0298052407 0.95013584287 
42.973804772 -13.34371607 -0.003061680012 57.046581328 -13.831384079 -0.0035614602041 59.88724161 -13.234815385 -0.0087099766279 
60.061923229 -13.871391455 0.00047054557902 57.20252941 -14.414576304 0.0014284793396 36.973021101 -14.939627741 0.0024202994454 
38.439433416 -15.720678716 -0.0080917213928 36.932654097 -15.021138598 0.01093414129 -101.96504914 4.8908381188 -2.0710210452 
102.68615105 -1.4239487339 0.042717053356 -61.246032232 15.985374378 -0.011908325755 50.343782964 -6.8140804801 0.0076404113338 
61.171282951 -12.276512551 0.011951556875 63.574724024 -11.009801698 0.00056469821227 63.92323735 -9.4707901018 0.0086478530397 
-6.3990864708 0.76397152953 0.1067708479 53.64083999 -11.965238916 -0.0041064354744 51.628838504 -12.163035137 0.0058633240396 
52.554236227 -11.37620895 -0.00095305978613 70.989508304 -3.4953638723 -0.035196524839 -64.474397322 15.468936293 0.0054492000882 
-46.98504185 10.282404137 0.00075210857409 -41.503946846 12.024190005 0.017585598751 41.314959246 -10.760721498 0.018792345973 
65.226977519 -5.9854024135 -0.02040517356 36.626443578 -15.08355198 -0.026765023602 32.434215915 -14.418752734 0.014389992906 
-31.259976557 13.835326005 0.00046464444644 77.319066387 -11.306411934 -0.0093700691818 80.36933418 -10.208544568 -0.013190973607 
62.875856707 -12.621560913 -0.0043060000139 77.408145573 -1.6046660136 -0.29817119765 83.728020619 1.3554644497 -0.25375689142 
34.207585643 -14.899179199 0.025330800896 -34.284561027 14.821226457 0.0053017347492 37.962859248 -15.871542925 0.013662943551 
41.195560134 -16.695246018 0.018901048461 -39.853400701 9.9558220051 -0.0024279514247 51.159705212 -15.659487966 0.011339708329 
49.051682279 -15.012032792 0.011979542452 47.220869018 -15.503428705 -0.0085907079176 45.478921651 -14.798561054 -0.0063507451597 
47.185784335 -15.427877365 -0.0045275641694 45.008900134 -14.218933642 -0.004526447941 53.663657884 -7.8044581995 0.029879795524 
-53.606416936 7.7485772741 0.020961979514 59.558162719 -11.9256577 -0.00093193348628 57.323898686 -8.7956683094 -0.21721102677 
64.361010773 -4.6866819671 -0.13048928549 50.142306976 -6.5001414753 -0.0085570071847 46.647704135 -10.072733246 -0.025797057253 
-37.761003625 9.6835015761 0.025386895697 15.330811431 -4.0784279001 -0.0055377344641 17.752448929 -7.5023364257 0.028854287788 
78.891556248 -5.7665859444 -0.043837028767 -40.379304561 1.6093445296 -0.00048589863339 -41.200888113 1.56960467 -1.7669815617e-05 
-41.955018921 1.5312966521 -0.0014977566857 -70.95663114 22.12323475 0.96130124067 90.778316536 -15.770416313 0.32525601611 
83.010145448 -24.582054557 -1.8321233963 92.239624767 -23.39900821 -0.64852990571 -49.22578033 12.490379397 -0.0012368908773 
-61.98202347 8.1913645467 -0.0014087917575 -41.353476046 11.84448585 -0.0046310734174 -51.384628084 13.583926387 -0.0067710415333 
52.583363424 -14.198664833 0.014155565756 49.947985456 -14.368679293 0.0036466829102 93.908386148 5.866269666 1.1987366227 
92.637000624 4.9776573475 1.2210285934 91.903884918 7.2029529716 1.3894422939 -61.718457871 4.5676864078 -0.002066428815 
-6.6768219551 1.8322326358 -0.043656249835 67.850368639 -13.935642647 0.012304082036 -48.048784412 0.68146020097 -0.0024785046023 
-50.422692546 1.5957093259 -0.0070130826284 50.336446213 -0.99694060023 0.011765321675 50.961614896 -1.6919259767 0.0032518614813 
51.077806257 -2.3720143663 0.0065379081952 -38.621094255 10.610432 0.0063575100041 27.222990437 -12.205494561 -0.00022255390477 
-32.168520581 13.518859072 -0.015870100015 -49.310041688 7.0216367864 0.0043879137734 -0.0011008133413 -0.00010967518936 -0.29834445306 
5.0222795352e-05 4.8274729168e-05 -0.059360728675 0.0032183522173 0.00080254228153 -0.050438239727 95.804380409 1.7033011446 0.67039592686 
50.151125772 -0.45677108111 -0.0072655912523 -59.259910635 16.501568529 -0.0067380449912 -71.100043967 13.676513875 0.0064419700854 
-58.612255929 15.935639083 0.012698801159 -51.711288616 2.4179093345 -0.0035653270317 54.897318501 -17.141190693 -0.0099051708734 
51.110366471 -1.4457074549 0.0020937289762 -36.520600914 11.118368189 -0.0053153998416 57.842012907 -9.7832227438 0.0031989189382 
52.004944119 -14.914503265 0.019710121637 71.646068884 -5.5511821414 -0.75002131656 69.21955841 -12.559341674 -0.92888844717 
-12.488446241 4.5310078673 0.011529963659 73.602830642 -9.9616702889 -0.027315330677 -70.418315849 11.805159496 -0.0019761917204 
-65.111944939 11.651859602 -0.0038143603546 68.253299467 -9.847976362 -0.017406541232 -65.611186033 15.173241101 0.00057806665666 
-49.473397293 7.8305282518 0.0047434325045 -53.818624666 10.834337278 3.7488024389e-05 55.11170725 -11.350959166 0.0057045149592 
53.792219205 -10.771706198 -0.0011776762047 87.094059415 -1.075676153 -1.4169825516 41.750161181 -15.285356296 -0.0021243515105 
45.201173073 -15.818548079 0.0095215023937 41.801743374 -15.205072776 0.0068158879408 80.057389996 -8.7120959772 -0.0041571802637 
45.604067636 -15.990806523 0.016431322568 10.372426555 -2.4882271553 -0.019364464642 8.8030596717 -2.1059132965 -0.02274109333 
8.5330815077 -2.13799772 -0.0084207325417 83.381328034 -6.1189305151 -0.038872748067 87.988816448 -6.2923616757 -0.054297302327 
83.090605943 -8.0637290644 -0.075477791174 -28.095332564 11.87583371 -5.707242187e-05 35.95373537 -4.1400948009 0.072012191561 
24.220631936 -2.6298789742 0.18773771322 23.904505286 -3.0062085862 -0.045584035115 -53.660081114 16.141810343 -0.0067018809828 
47.509874865 -16.553047324 0.01199441394 -69.578803103 14.027378519 0.01695029791 -22.834427039 9.8545791793 -0.015087527608 
43.099335771 -14.254252245 0.029148032498 -48.841117037 15.038327491 0.0057322512294 48.01697423 -15.850536963 0.024391129922 
42.544762239 -15.231126786 0.014414752662 -0.029266989945 -0.0054041690919 0.49095028413 58.307330177 -12.865277404 -0.0025680557506 
17.647526262 -7.2022264898 0.05491604454 -52.539772285 3.7073948786 0.00063437721432 -52.561977857 4.8594668424 -0.0039108503957 
-47.344921955 14.386510523 -0.00029236538968 45.483693466 -14.721897545 0.0054541291244 96.681312357 -2.0262092259 -0.10058016257 
77.102086358 -1.5400171389 -0.36964279694 -43.107510636 2.9311615847 -0.00048706145442 -41.840339769 3.0555065448 0.0024885728129 
-43.766723358 4.7840026386 0.0048340873462 -42.555213401 4.9958568687 0.0032394265385 -42.566577445 4.9761011461 0.001722476136 
28.283390345 -12.910966344 -0.01572567169 -19.686523102 7.3077953354 -0.030271897424 17.62557162 -3.4313657997 -0.0055330238795 
54.974933896 -12.560955871 -0.013419554534 52.728431009 -12.844260613 0.0088954685921 -0.0069411167855 0.00093927432603 0.20835954886 
-73.994172086 -8.2953023514 0.15063135158 -69.677797478 -6.6347623581 0.0021527301031 -78.311513111 -8.6343095833 0.18464714781 
-45.310610033 13.586122716 -0.00032718174786 55.952558849 -13.206162571 -0.0019506067135 65.943754849 -21.831849032 -2.2917986071 
-65.139448644 21.241381589 0.65692033702 51.015295744 -0.34914530131 0.015469875643 -82.381821997 2.1840702915 -0.035463570674 
42.845557281 -14.517709233 -0.00099103264539 40.697650239 -14.297232654 0.00083116470658 -42.83954574 14.449462239 0.0024214687335 
-76.267317593 14.820272355 1.7537650401 71.539155865 -10.175172149 0.0029801004719 68.413763132 -10.539746201 0.012640881118 
107.01712101 -14.430346091 2.3477657728 59.599010858 -7.434247922 0.0010624972759 75.012101203 -8.2337179986 0.010144768964 
37.280734917 -15.919095214 0.0016299239139 -61.570664617 7.0826814536 -0.0016279824264 -65.311064475 12.285755489 0.0045481738882 
65.035153317 -7.4962124156 -0.015090118938 66.1214373 -9.2621826946 0.01687301384 62.599603558 -13.566882997 -0.010587229067 
-59.426229266 14.767714117 -0.0067850602958 -49.904318229 7.7994930093 -0.0023403839436 -49.656318324 7.0349818729 -0.00015471064782 
-49.88085217 5.6825793075 -0.0042752968422 45.028683408 -12.785014136 0.0035644531764 -44.009425476 4.6880301661 -0.0040779764015 
108.86836051 -9.8231722259 1.1151782219 77.198403898 -6.2882332404 0.014375507622 27.054504861 -12.510346138 0.017323802053 
-22.560393103 9.0752843122 -0.029654270608 17.846347577 -6.4625804711 0.059116993932 22.845706798 -7.4630139985 0.026348477054 
27.27676735 -9.5690308309 -0.057602162441 27.419747129 -9.7861430833 0.061584398263 -36.154313457 9.5220264128 -0.0047414683466 
-36.845081422 7.1426899698 -0.0024509282936 -38.24310726 9.1001608139 -0.0054321092602 -17.467542478 3.5174615143 0.018249697364 
-47.968102951 7.6965697964 -0.0009351618495 56.46206156 -8.1825451935 -0.0020955383422 58.198233508 -8.7299234646 0.0088473007997 
56.606081163 -9.4431759173 0.00012467489354 56.614957271 -9.5171040581 -0.0026352284309 55.072612947 -8.822159442 0.013359698826 
102.84621689 10.027527998 -0.61959010149 100.33418972 -0.44714721515 -0.20186132014 94.4302964 -2.1682515394 -0.12425675692 
92.075822729 -4.9596967045 -0.18851042374 92.489706504 -4.8391199402 -0.16843013644 -13.501220834 3.5413844828 0.022141532333 
24.701589518 -6.6338600103 -0.044514331467 -22.71299414 7.2167491026 0.015397652911 -53.391168467 5.064806314 -0.0033759370002 
-47.676240722 5.071757382 0.0056956722863 -47.770591943 6.4288365073 0.0038363167616 -55.11734518 8.874227968 0.014301081506 
54.770971506 -7.3087693453 0.0090549953321 54.735571248 -7.2522587172 -0.0051852973068 73.551056343 -7.8561495693 -0.019981556533 
-48.279390069 1.7994850453 0.0025780949635 72.675500571 -12.9978235 -0.00079672509744 -5.0583909202 0.85488522074 0.096799595489 
51.318385745 -1.4378767474 0.00078332043499 57.809109095 -7.3147478828 0.0087397647917 56.119675758 -6.820280392 -0.0022875353339 
99.252030099 15.38324458 -0.3269234399 -50.50065781 12.985093467 0.0017505362295 -67.387465812 8.4468578486 0.0072657631392 
102.14194796 -24.823140224 3.9459093309 89.644007952 -26.587012577 1.5437894632 63.008529047 -8.8319860385 0.0038194573427 
56.176379739 -15.664419247 0.017430208412 65.693899363 -10.930579723 0.00033638741068 -49.717303153 2.6456485912 0.0092470274545 
-49.922360296 1.1090644181 0.0056989671506 49.937070153 -1.1754929678 -0.017475520292 53.881408142 -13.373749365 0.00066482610576 
-19.12380337 3.535650048 -0.011992068887 78.689623669 -8.016045244 -0.017435844921 35.862705908 -11.883803174 0.00065251659464 
-40.513010466 2.8560696941 0.0030685139211 -41.591202293 16.412775502 -0.005618763328 -41.976890315 1.5163056998 0.00027333622565 
-40.391385598 1.5959375548 0.00023754273504 93.900814626 4.9058490618 0.70020685526 91.977243583 4.9346976917 0.77943259604 
93.79780996 4.5641540264 1.0709664142 93.782649864 5.6354786446 1.3485296769 92.302191854 5.9104795888 0.88759548928 
66.045151256 -5.4145112556 0.0025810688263 -50.011216241 6.9639054552 0.0030770348227 -55.936650699 13.347584197 0.010793510227 
-43.202746822 9.3848358626 0.0012099824865 -43.237957933 9.3403565447 -0.0011564733818 -42.906818421 7.944959224 0.0050184301182 
93.452961779 4.1354464247 -0.5986088047 98.233945492 4.344340873 0.22483764646 93.168744125 5.9588218956 0.4616314826 
91.125443522 5.9804605065 0.041274367717 99.935813502 2.2720566137 -0.34107129815 96.278903677 4.1108292772 0.38706292802 
87.743347793 2.9857472247 -0.34556047234 93.766205684 1.8935335776 -0.47621064656 85.64880936 0.35618548427 -0.20949934023 
64.390753751 -15.085521656 0.00032510379939 27.932913949 -11.261138315 -0.023466868161 -33.122689108 11.73923253 0.016279779916 
71.581566625 -8.6748415717 -0.00065645915188 56.145718847 -5.5294167913 -0.0043870832864 54.802237035 -5.9502001513 0.0048399505494 
55.871134663 -6.5147483708 -0.0027373216146 54.850519567 -5.9956533506 -0.005255958902 95.472908839 0.73467502569 0.39234501171 
92.526879321 1.1058345549 -0.41727637887 93.907913972 2.6259125052 0.32883275565 80.319847122 -9.9185009515 -0.012579793729 
-40.675157109 4.4684962999 0.00092529709317 -41.559559417 6.3422840591 0.0098566080637 9.7703204683 -4.1816295951 0.007728881305 
87.897583326 -6.4062302357 -0.081906397539 88.052683581 -6.7358380721 -0.085264568538 87.947125614 -6.9726787613 -0.10183272433 
92.174523787 -4.6587888169 -0.23915282203 87.627382403 -7.2094283528 -0.069005754438 56.7429977 -4.3323191864 0.0041230589562 
27.726288956 -12.279965048 0.0071214268279 22.697752366 -9.9999629356 -0.00082987956555 63.984588366 -6.8145788475 0.0052200593156 
-48.860823944 2.2843262494 0.0011003046443 -49.16388135 2.3776401024 0.0084188688557 83.291881347 -8.7739574734 -0.05066339605 
83.935368998 -8.8979627306 -0.07005958832 -56.719367845 5.7539001976 0.028923873098 -4.567045992 1.5781038521 -0.0056568503418 
-63.373012658 5.6967251129 -0.0086098790793 -62.371526333 13.397111556 0.0063927811248 78.60867669 -9.9268791335 -0.053887858383 
57.296232459 -2.9719310533 0.00042350988152 -57.247044267 2.9187617841 -1.7919489834e-05 50.119409596 -0.58344896366 0.016682430899 
50.12558507 -0.57135615945 0.0089856669582 -2.39005191 0.42904298891 0.029820723943 40.636863473 -14.385245512 -0.0026355696756 
-43.911745162 1.4335532004 -0.0019577922119 -43.204497487 1.472016658 -0.0027659254046 95.289843488 3.4427485922 0.4534740607 
80.358074522 -10.500342025 -0.015610759955 -63.389876031 14.305788394 0.014782970169 90.498403082 -4.3490093085 -0.10404874598 
9.9595035239 0.76988079114 0.17995303624 9.8273387315 0.56584187603 0.18021411245 11.147369997 0.13008240916 0.090196000745 
47.994646419 -6.003320929 -0.058372813007 68.505798919 -9.0991470698 0.010233476746 67.473338216 -7.2105488972 0.0075761657613 
59.569111003 -11.97022767 0.010755314449 -53.678287295 6.8948660425 0.0099462602492 53.695038249 -6.9457939577 0.0046268451329 
42.096962767 -16.153678181 0.030713496596 54.413183532 -15.475195456 0.021396531948 99.453964533 0.55963655795 0.26886472134 
99.955777417 -0.52902877056 0.31247638665 100.29179252 -0.71739204902 0.22964643096 100.13309947 -0.13138703022 -0.051686427878 
18.721923641 -4.8095074405 0.27320363756 37.406812806 -4.7503000088 0.14878060111 35.748974996 -8.9986990067 0.42126684167 
20.111879569 -5.1922948474 0.13667801376 43.741259178 -15.2643807 0.0019612588418 -46.398574051 5.3582378965 0.00016132020186 
-45.104477499 5.3215909902 0.00027934288076 51.514196217 -1.1325315614 -0.0020970168844 -33.270382166 13.291474213 -0.0076039057168 
33.246569886 -11.941210506 0.0069649563863 99.836120307 0.7363946165 -0.44978267974 99.280094848 0.53386162684 -0.51502805798 
93.003029998 -4.3923519639 -0.048459780135 25.939378757 -12.41091254 0.0029012082311 33.829998418 -9.9828190272 -0.0052598158576 
-35.667564723 4.9116715297 0.00035622184335 84.287253738 -8.7321308926 -0.061038802508 84.084473074 -8.3273630178 -0.024095279563 
-37.566296979 15.513988234 -0.013302255257 77.682765449 -8.2585091047 -1.2750080262 84.474571191 -4.5432875227 -1.2759862082 
79.957405184 -2.3225117704 -0.55111311727 -53.164144635 6.0160591573 0.0022462595507 38.591998896 -14.658860285 -0.017043460129 
38.566550837 -14.73932269 0.0097442048334 35.508802946 -14.288828983 -0.0052872270178 60.864971834 -7.2835077367 0.016625914227 
59.166878504 -6.0848214132 -0.04228791994 -59.509009357 6.107739768 0.023537881555 99.34124572 -0.33185195275 0.27736026734 
-48.304445952 4.1721640962 0.0087673081171 -48.196291509 5.3933771568 0.0021446760114 60.796252368 -7.2912170023 -0.032268576601 
12.344571744 -3.8793097411 0.013830215532 -48.329260405 6.7117685894 -0.0038327711794 -50.832451989 10.578977341 0.0078149938966 
-62.420078584 10.314231669 0.012547102882 -49.397536648 2.6907009063 0.0065716393123 -5.5311482941 1.9268204012 -0.022450853528 
85.414896693 -10.299133504 -1.9885807005 96.138337773 -3.125785829 -1.0495157412 100.56024874 -6.5172971314 -0.41467467537 
89.224394317 -7.5796689308 -0.63893208296 8.6384061474 -3.1718283801 0.028089589979 -5.7826305712 1.2505390208 -0.0040016938829 
95.336909964 -2.2498400176 -0.19965457595 99.112243234 -0.83161385043 0.15810380705 50.825360418 0.27169193975 -0.088647915225 
71.251977145 7.859852577 -0.57900803078 87.80437748 7.8293872378 -0.68839865909 86.62150104 6.6149875956 0.26660779496 
81.988998842 -0.82842786572 -0.12069157064 -42.368524916 7.6581534993 0.0034926247516 -42.396628996 7.611194804 0.00065205771435 
100.63717448 0.44371368321 0.20088096819 100.33296826 -1.3397196589 0.16412705465 100.73510644 -0.4902313211 0.77758691983 
94.668619589 -0.44136523668 -0.10382934083 94.32668439 2.267389042 0.44266478053 96.117329012 2.1766249513 0.51182680501 
98.352496648 -0.65791422174 -0.25644736392 -43.210765453 1.4633971066 0.00085467960625 -38.13988033 13.830201949 0.005251353163 
108.43889118 4.1821537223 -0.35478317458 104.79186477 3.9370839451 -0.30975855071 106.81587729 5.7276457475 -0.33213143447 
2.1268112033 -0.39406112884 0.0019856134382 102.11000603 8.5732273735 -0.19200142929 104.69180685 9.4741722973 -0.31853461719 
52.725786778 -2.9147954528 0.0061821188279 43.742727064 -15.331394326 0.0020523493579 90.981537926 -10.550931311 3.102321893 
52.408383519 -10.745493664 -0.0018306380746 -53.591990547 10.177279808 0.0024000552513 51.404097497 -11.373208264 0.0069964679103 
51.427528786 -11.301437519 -0.001406822565 -50.320786121 12.170423442 0.010813439418 52.085382245 -14.29464204 0.012346129512 
46.019390236 -13.599935762 0.044845186617 -38.454062949 12.291660422 -0.033026201198 38.555492617 -12.485665399 -0.0052910657053 
88.01091627 -6.8012501237 0.014208066515 52.420918549 -10.808416745 0.0027791929645 104.12909633 -18.448509059 4.515923768 
100.07015904 -18.912770666 4.6750125808 97.483116638 -21.979237971 2.7622526341 37.918525647 -14.731904074 0.02625314086 
85.615525144 -3.8612776706 -0.098992292584 -47.018228039 15.804669751 0.072776958418 -44.848135569 15.213515638 0.11951274572 
35.642970596 -9.3182016121 -0.30322927725 -48.379075095 2.8572893722 0.0013710645811 -47.722643731 3.7518689143 0.0010420364763 
102.13858056 11.240754928 -0.61942708439 103.21538069 6.6766166311 -0.36819212821 -43.640033436 6.6639158646 0.0042686633519 
-43.640110779 6.6913662138 0.0012761098653 88.766724325 -2.3455258906 -1.5613610243 10.571401371 0.2826996564 -0.10953475513 
103.65590792 15.101215672 -0.47107922555 54.44273179 -5.6402190383 0.0060000891091 56.707970956 -4.2813540532 -0.016103710749 
-61.337218684 8.8618282474 -0.0052902143906 -56.308364789 18.857382484 0.34272727948 52.296199315 -9.1901923527 -0.045904193017 
-108.23845337 15.195867905 -2.2098544576 103.87187439 -10.105317929 3.6721995106 30.585773982 -12.521239709 0.0016516855753 
-49.926597436 1.1219483003 0.0094978833345 82.509207496 -2.8898097798 -0.093728690683 97.274206767 2.4680287549 1.3469505325 
-55.808116257 6.4662632208 -0.0078738318216 -59.457617648 15.372193628 0.0045300425201 33.252581517 -13.665239201 0.0011838977728 
93.291420705 -1.7928915063 -0.027214040424 93.292714387 -1.833400712 -0.0065005394771 87.702386695 -5.0436032299 -0.039396354688 
91.19554405 -3.5073392148 -0.04632220021 96.408428899 -15.402646313 3.5720026938 98.645880702 -0.5548252806 -0.014494480704 
94.895482478 -2.3661825934 -0.14820978237 33.274485586 -13.574296994 0.013769946482 -39.607834016 5.9224656344 0.006095744478 
-41.551867258 6.3752004682 -0.004179226381 -31.004441668 8.4847550206 0.0029748829164 -94.728617203 -5.9120025888 -0.855377348 
92.272684132 5.3707941993 0.7771178398 -39.338781961 4.3480897931 0.0025831229193 50.136562715 -0.5061567484 0.012660818888 
6.0185216699 -1.2423287417 0.0076908304398 30.709615482 -13.474216608 0.0016153686306 108.63377287 -11.834301436 3.7297484444 
51.96107273 -2.0586589697 0.0034503176276 -0.0032103814214 -0.00044352269107 0.048005313889 -98.473055142 0.96366588868 -0.015727762412 
-97.692283485 1.1413064797 0.029010733312 88.631851686 -1.0323625523 -0.21107852631 30.798570474 -13.332522901 -0.0067687650337 
33.340059191 -11.419443524 0.0016395217446 40.327585245 -14.558587666 -0.0026431171663 89.546216553 -4.8687772299 -0.037490080988 
-39.893606606 8.8013694249 0.00020234860271 -80.320216766 -9.9333587184 0.81652041734 99.0065763 0.63325798459 -0.099317117242 
29.370566222 -13.600385538 -0.017175809786 -50.258790468 12.100876195 -0.0076514299016 99.947119597 -0.035161617942 0.3776294449 
0.00099519032351 0.00035733935167 0.3047969703 -0.012284075319 -0.00065737155656 0.13106894493 91.375079107 -4.2450212299 -0.059974262392 
-56.972568608 1.4525478593 -0.019195122822 -4.0491661722 0.80091905617 0.009538062926 55.727952186 -8.9196707109 -0.025247449316 
58.15730947 -14.367860741 0.0087682837104 100.96015325 12.506973935 -0.72511819192 13.360640064 -1.4436192268 0.12045438818 
49.198369774 -11.71270368 0.0061935519386 55.936233062 -9.0435070168 0.041234505498 53.974403337 -5.9678192719 -0.0033786642109 
-40.508559702 7.3064544311 -0.0022279992835 -56.016152874 1.4048022411 -0.0041235062545 56.077782754 -1.4341295165 0.018154434622 
-51.276942583 10.751065158 -0.0019554833732 -38.803434185 7.5178221676 -0.0047608806715 93.223452023 -2.9268959505 -0.04817406639 
-55.05010837 10.130431068 -0.003401681481 55.071732635 -10.192950376 -0.0005610224778 -47.007132096 4.5899040847 0.0063318827805 
-33.148238646 10.60683252 -0.0058274507977 -33.075518546 10.413934552 0.0039755964916 91.74762993 -4.6618038227 -0.17136845094 
99.111673209 -5.5861288495 2.3908926737 -0.023456931338 -0.0012077407785 0.34634471666 53.978520944 -5.998441171 0.0039148953922 
97.169354216 -1.0081937728 0.01133466409 95.566373034 -1.6525603153 -0.017236969391 95.527156764 -1.5203515832 -0.023537493582 
54.14188944 -3.9094670235 -0.0086427431563 54.162415409 -3.9492516671 0.0045422748128 -37.698710668 5.4235116663 -0.0040265507294 
49.948405362 -0.04942414999 -0.0071600705792 49.931524255 0.045918506007 -0.017608494837 53.809083049 -4.7357159314 -0.00073382689844 
-53.826380843 4.7807202277 -0.004931126261 94.598594954 -1.7231123329 -0.047786371755 -49.912873007 11.277193246 -0.0060111286365 
52.913808652 -3.4339519043 0.0037179846611 -44.894975003 5.3976908897 -0.0077885794134 -49.701055309 10.565108246 0.0032648462896 
48.489312001 -11.152427428 -0.011554423853 56.224026677 -7.8859854434 -0.0095895896853 -0.018310660153 -0.0047782469816 0.055496487405 
-0.19759182609 -0.055695343233 -0.32927610253 37.173373643 -15.583335146 0.013632831316 
Intermediate%20Principal%20Stress%20Vector 3 3545 double
-0.028044105153 -0.37721373082 0.74634489516 -0.00062533525773 -0.005747858282 0.061160314456 0.034431974135 0.050532862781 2.2835767755 
-0.056592078859 -1.4779077317 0.042518489196 1.4617056765e-05 -0.0056524042969 0.02792748748 0.036008418701 -21.199486269 -0.0022076034964 
-1.7988353514 -0.028231636446 -0.18333891984 -2.36073335e-05 0.0052544235133 0.16487703295 -0.040262359299 21.365361592 0.0077717913243 
-1.4638902472 -0.024555326093 -0.20878862483 0.025214871798 -1.9449295853 -1.1764385 0.60649020989 -22.709906095 -2.9686432463 
-0.48543242438 30.984090076 1.1207726936 -0.1430348814 17.815695435 -1.0066450028 -0.084521881765 -0.14711186514 3.2655089278 
0.11613781188 -5.6609203782 -1.1092433314 0.81460527066 -29.241878468 -2.2844349191 -0.20405648769 26.571298869 -0.22211453955 
-0.043402202251 -5.980743962 0.11135639263 0.0011591867879 -0.078655985552 0.24760794292 -0.47354686858 -32.615959238 0.4158338431 
0.32500528559 -30.846785007 -1.0429820135 -0.095995016288 -22.196151295 -0.85860287442 0.032520641001 -6.9713283062 0.0047756967457 
-0.36711139932 -17.299940671 0.19095454983 0.29531139694 28.355249834 -0.61633245805 -0.20695290253 27.073782056 0.69238089757 
0.040595428971 -15.837243774 -0.30832226107 -0.0084684559477 -1.6226682595 0.35760283373 -0.093843564856 -2.000584561 1.6713754623 
0.032913874147 -0.48388430836 0.81630468159 0.04691553962 -0.75167882471 1.9990225561 -0.052587880905 1.368805108 -0.36813910974 
-0.0005830048116 0.051292644093 0.34557224068 0.0027607614818 0.29611595857 -0.073011380442 5.0637268975e-05 -0.013116434937 -0.045455041475 
-0.0039011273205 -0.85163193485 0.53631837238 -0.00039946325195 -0.20420812946 0.33630362452 -4.0944182773e-05 -0.068591004465 -0.029049251566 
-0.00014151751848 -0.061169843772 -0.027890408076 -2.9539574431e-06 0.0013311661252 0.0051817762295 -2.278047836e-05 -0.0078246760444 0.0076275928752 
-5.7914796396e-05 -0.026776538937 0.0027680084667 6.2247851135e-06 -0.0029092054017 -0.011027731787 -6.8970205598e-07 -0.0050665639245 -0.014221531278 
8.7289183287e-07 -0.00099745926776 -0.0039434350552 7.4556262622e-06 -0.0054097312996 -0.042428931755 -1.5346248602e-05 0.01842288814 0.0059734112596 
3.6917292921e-05 -0.028336760925 0.0014692850171 0.00018834070805 0.00069034858175 -0.11430184028 0.0010897000246 0.1306743209 0.41413778415 
0.15117814775 -2.7664165578 1.6777783594 -0.028451160277 0.70484300743 -0.3783047177 -0.0079835360195 -0.84353360758 0.33801073343 
-0.0027074392396 -0.22694095315 0.24690756509 -0.00097412498242 -0.29384634241 0.11660724808 -0.00075540318368 -1.0298123651 0.66185985658 
-0.00018415542576 -0.04061274321 0.15249287456 -0.00024915854073 -0.12088787965 -0.016628410554 6.8843298012e-05 0.054744546992 0.068912465312 
1.8022187105e-06 0.010034687251 0.016415520057 -1.4958331156e-05 -0.0050422451947 0.0026141713481 -2.9346151156e-06 -0.0047669502099 -0.0092393276309 
-1.5599859592e-06 0.017239852333 0.025018081825 -6.4902491134e-08 0.00010254521025 0.00027224942018 1.4093558769e-05 -0.010383959108 -0.024623059505 
-2.6216675955e-06 -0.0033032567759 -0.0073082082937 -4.9905113628e-05 0.017025721189 -0.03396310003 -1.8700525726e-05 0.0046250193833 -0.011318644888 
-0.0021854823265 -20.623101198 -0.0082385264 -0.018279651408 -18.956776159 -0.022935768503 0.038762357648 16.364422912 0.043467041808 
-0.039803088498 -13.01199915 -0.052542761909 -0.03475898837 -9.3259449176 -0.051932140986 -0.011905552975 -5.7002478188 -0.051456576333 
-0.0044459548484 -2.5362145249 -0.030325675214 0.00045680849821 -0.4158618962 0.010673552386 -8.6398713014e-06 0.0031985755507 -0.01953347108 
-0.002409866539 21.071204163 0.014056776838 0.012067171484 -19.927618683 -0.03656390508 -0.049130945337 -17.697129655 -0.040777026524 
-0.050015824736 -14.772660618 -0.038281345432 -0.046470517612 -11.179242649 -0.049371070731 -0.026639539217 -7.5012265797 -0.048920345368 
-0.0088883823529 -3.9979164487 -0.0256369247 0.00088233075589 1.4037420302 0.016597468885 -1.877503397e-05 0.0039128269076 -0.020332864267 
-5.3711021947e-06 0.0019877976275 -0.0094030145471 8.5856020504 -0.014840098228 0.067318648249 3.8701633131 -0.028689365616 -0.015899636692 
-0.00010548731641 5.1055043646e-05 -0.034478165968 -0.0048360862097 -0.47542771592 0.022128884326 -0.0084246258789 -5.1119927542 -0.0050012523962 
0.0099014717872 -7.9938642009 0.0075288672538 0.011914000173 -9.5859542937 -0.0039134036565 -0.013739888429 10.409551624 -0.0016929846217 
0.0010884244903 10.848999681 3.2499860387e-05 -0.0017587810473 -11.212899147 -0.00044405065411 0.0013891867121 -11.714699638 -0.0019949842439 
0.0051924085606 12.677798156 -0.011071609354 -0.0081578740816 -14.256486575 0.00065890155333 -0.0021391893089 -16.865303108 0.011277315873 
6.0199811223 0.024763633669 0.43470503827 6.2927293608 -0.016813498757 0.085145971118 0.34091417121 -0.0046749074179 0.061548552773 
0.00026005527845 -0.0013521310198 0.095635653443 -0.014212843358 -3.1241077351 0.003590328713 -0.0023535808403 6.6091505929 -0.028976349613 
0.033688216832 8.8984843016 -0.0043851772542 0.0030829944975 -10.04499762 -0.00098498363366 0.0023062009045 -10.699500604 -0.0065252755895 
-0.0002998279893 -11.037400678 -0.0039385009955 0.0031946186988 -11.46309831 -0.0051166333902 -0.0054935752191 12.144195542 0.0092328283359 
-0.0057148093832 -13.392495076 -0.0081090623547 -0.0020409056178 15.520000128 0.005106649023 -0.0031059408019 18.984800167 0.0068967812013 
-0.99134696191 -0.20196277101 -0.04957967503 -1.5110068963 -0.60844855997 -0.32932202041 0.068691121893 0.040003628872 0.056452488453 
-0.14122731177 -0.08274970501 0.39459855206 -0.047989367602 -0.076578353961 0.36621630555 0.32509436844 0.78790286168 0.33481108648 
0.38442747014 2.39964037 0.80789138364 -2.3926590955 -0.26112947589 0.091888156374 2.2857728687 0.67566885312 1.0115260738 
0.62128238796 0.29964495469 0.3322323633 -1.0403350672 -0.69574387349 -0.40630936571 0.028558149528 0.034428341893 -0.25650778562 
-0.24362132896 -0.49255859338 -0.11714437862 2.066883314 7.7896427818 6.2541443344 0.3956745954 3.1541772353 -3.445317366 
0.031842037701 -0.087444732949 2.7780291479 -0.034508001997 0.66545601126 1.6759066875 0.00092504420444 0.04837226021 -0.0083479556486 
-0.0039406232313 0.4422415267 2.9463264405 7.9592844728e-05 -0.12492826259 0.085266162162 -4.889510754e-05 0.021131385724 0.05607504109 
-0.0029111844231 -0.21439969459 1.3597678854 -0.00042122680742 -0.0081088492295 0.29923824346 -4.4510379782e-05 -0.072624914585 0.035187154444 
2.1949173899e-05 0.020868801539 0.087728324364 3.4100352227e-07 0.00051399127739 -1.5120993964e-05 -6.3616814812e-06 -0.0051492138744 0.0011576715393 
-1.404469015e-06 -0.00094237250667 0.0040861907552 1.4270512074e-05 0.034794196467 0.0037972156719 -4.5159887543e-06 -0.011635757379 -0.0013323722654 
3.3866480441e-05 0.038816147843 0.018617924339 -1.888447008e-05 -0.017042096389 -0.018924719087 6.7412327847e-07 0.034366506065 -0.0036654238186 
-1.4821533092e-06 0.0016390963075 -0.00046053282929 0.01455228229 -0.03197788572 2.2688117275 0.0028531447005 0.026272673765 2.6067707595 
0.017991131969 -0.86452304837 -0.071984206488 0.0062669006792 0.37135367777 1.6996833111 0.00021575722056 -0.005509396091 0.58778488275 
-9.8229358197e-05 0.066468857328 -0.0035369075358 0.00068826907807 -0.10831785832 1.4685157701 0.0073930758409 -0.53897993891 -0.78484516705 
1.5118192521e-05 -0.012066415009 -0.039983592872 0.00019357675464 0.10597160783 -0.11585774538 -1.6664210388e-05 -0.012727389679 0.06371726138 
8.5247938342e-06 0.011065890428 -0.0014377207837 1.1202434652e-05 0.008084758889 0.0097863713281 -3.0496568395e-05 -0.02293117596 0.025317509179 
2.0522533365e-05 0.031757121159 -0.0054892661856 2.7323860768e-05 0.063968216702 -0.026674558786 4.6604000456e-05 0.084256894921 0.0071187332081 
7.5729706347e-05 0.080360304834 -0.027366887791 -6.6637989448e-05 0.063308917392 -0.010199786177 -2.2414200869e-06 -0.00045430917883 0.055198903152 
1.0278739767e-05 -0.0038803731882 0.13861531656 0.0090006590761 20.773894351 0.0086699245335 -0.016883008533 -19.106888731 -0.027982542913 
-0.031030368632 -16.456851405 0.00024430532409 -0.023460592497 -13.051159759 -0.0030628189564 -0.016091130183 -9.326078756 -0.0083678575622 
-0.0069601960709 -5.628751408 -0.012262615517 -0.001106275366 -2.4175131081 0.0039104122896 -4.6230453319e-05 0.26252208092 0.013982718932 
-2.6843081692e-06 0.00019972150042 -0.025217337885 0.0034268848905 -21.226099537 0.0049166830155 0.013314404969 -20.049693062 0.020841054683 
-0.030528179687 -17.839281341 -0.0083410298413 0.034072531094 14.8351752 0.00056137847994 -0.030145791223 -11.205078771 0.0025359750708 
0.016805220224 7.4602042288 -0.011482997927 -0.0053251045216 -3.9234937511 0.0040544727013 -0.00034257696251 -1.255828236 -0.0019867734381 
-2.3920165914e-05 0.012677881446 -0.094575968553 1.3015828278e-06 -0.00031263768542 0.052368092844 7.4437518853 -0.0060736722727 0.064515219318 
3.1541312532 -0.0078658166901 -0.022279759683 0.00021137239282 0.00012173193937 -0.013212008401 -0.00024827501498 -0.014637179267 0.058429633264 
0.017547990995 -4.8960756586 0.018924473563 0.011442657622 7.8222690477 -0.0029436140387 0.030393089397 -9.3748398078 0.0045467770008 
-0.0053169268556 -10.30779321 0.0036909499517 -0.00939133386 10.792176203 -0.0023780875556 0.0071419020795 11.176985771 0.0014196247236 
-0.0032248171907 -11.721397286 -0.0018567627201 0.0025599458346 12.666918545 0.022628159135 0.0010576320907 -14.277100004 0.0025554756187 
-0.014036529777 -17.027075619 -0.010829450117 -5.464959724 -0.034959585257 0.22629180131 5.4638017172 -0.0097644641158 -0.20120001311 
-0.086491237745 0.00045571748079 0.24142947424 -0.00045641437696 9.5920737912e-06 0.088943761217 -0.0072269462149 -2.7441211435 -4.579935083e-05 
0.0055798493031 -6.3814766714 6.0608967969e-06 -0.01920738531 -8.6787139354 -1.1592535459e-05 -0.0014648925915 9.8894894288 1.6073940935e-06 
0.0017134423814 -10.60689922 -9.1196860863e-08 0.00082179244934 -10.983799813 8.6074456912e-07 0.00018174913423 11.447499991 1.0926038964e-07 
0.0037277675485 -12.16209635 4.9974110723e-06 -0.0030098123011 -13.420897965 2.6235597372e-06 0.0016779013664 -15.587699524 2.1812695518e-06 
0.00038149538331 19.141299984 2.3171450244e-07 1.3510764056 0.26785454196 -0.99376944925 -0.079415682714 -0.036353468928 -0.88228947782 
1.1004204701 0.70552309561 -0.93675275089 0.11334716622 -0.086225263321 -0.78395502856 -0.19217451366 -0.32804534418 2.222852143 
0.13999864881 0.53669287703 4.5145768456 -0.18600464855 0.046899505773 6.3519883481 2.2036743081 0.23469806025 -1.0676036347 
1.5668329533 0.45922161016 -1.9319470388 -0.028650868743 -0.01045075641 -1.5675117011 0.63332048399 0.40648583547 -1.3632993045 
-0.0016202013504 -0.0026512771056 -0.010810163753 -0.80645408703 -1.7411215827 4.2284257953 0.78754005242 4.3292887723 10.711555893 
-0.14291634945 -1.0308456995 0.61055991299 -0.64134946487 -0.0037002350379 -1.1031791721 0.0071863440106 -21.389895578 -0.0009287823163 
3.2351998494e-05 -2.3442315333 1.3926620633 -0.25956383698 -12.631200804 3.1167608076 -0.095019204187 28.644368585 4.8170209007 
-0.42746889861 -28.319154584 -3.8135557836 -0.010334042437 -17.310802528 -1.5509598834 -0.32278787534 -8.7059459189 7.1026484945 
-0.33329869103 -11.735924746 3.0575262479 -0.0089323104838 6.5917122438 1.1748785027 0.0063436916408 -0.31540279317 1.672595659 
-0.0081487287902 -0.7822802747 0.9191074489 -0.011151796598 -7.9588078289 1.1695228193 -0.0049196232111 -3.8308361343 0.40240785733 
0.35370841157 25.353280909 -2.7309480087 0.5774407891 -27.224535493 -5.64288171 0.058844658639 -13.692116611 -3.0841854037 
0.019428415982 26.29954788 1.651194514 0.24715646083 32.72240755 2.9440937394 -0.065610995724 -28.2526282 -2.7061741165 
0.23134997225 -26.393797538 -3.3374761187 0.40476911675 -34.172201715 -2.5243674683 0.20816064111 -33.691937362 -3.3676714717 
0.1383920707 -27.977930484 -2.2048606592 -0.099518575369 18.293521113 0.63710474966 -0.12596304114 23.026546846 1.4462522212 
-0.03259707009 -24.876996283 -1.4575715708 -0.11146691746 -24.715861183 -1.9296083364 0.018321621912 17.728772093 0.97348022401 
0.017345800572 -9.9364586744 0.38137317352 0.057408189999 -12.525056328 -0.70890703416 -3.1318134024e-06 -1.327933592e-05 0.030832050518 
0.72143707921 2.7910882423 0.0014677523017 3.8997293134e-05 0.00026198418753 0.032168060376 1.0222808913e-05 4.5356084556e-05 0.025524339522 
0.017860902947 0.045999045281 0.0041555906098 1.4747433072 9.1220895946 0.0029959502648 -0.35297316657 -2.6708132906 -0.0022205190016 
0.00033223935161 0.031216191174 -0.14697926048 -5.6026763419e-06 1.1463126557e-05 0.022828415216 -9.173341215e-06 -5.1331782244e-05 -0.014806315784 
1.7475315605 6.7119976356 -0.0030038247715 0.011035498902 0.064314900182 0.0071066054384 4.3088632741e-06 4.351975821e-06 0.0062158929626 
-1.3658055263e-05 2.2415482353e-05 0.025290394371 0.93651710516 6.853519319 -0.0017647055963 8.0790321849e-07 7.2058661636e-07 0.018039491033 
4.7241915587e-06 1.5234562847e-05 -0.00089479665378 1.3040028477e-05 3.6394321517e-05 -0.015201334191 0.04590693768 -2.075598815 0.18084656024 
0.0053924834678 0.016882347568 0.50728988496 1.4829400415 9.8451306108 -0.0028145807578 -0.045921897025 -0.43493666197 -0.0041994521633 
-0.060772854124 -1.2953449975 -0.0026913698103 0.93935157619 13.987989795 -0.0054017216617 1.2812623948e-06 2.7202206762e-05 -0.056483504837 
-0.00089997936069 -0.029567029464 -0.089267207032 -2.5321436278e-05 -0.0001730201067 -0.018102200935 -1.9321481563 -6.496720489 0.0063900521819 
0.8210093277 4.2101956735 -0.0046576478106 1.464386748 6.3317220544 0.0010570297718 0.0058453085883 -0.088137661908 -0.44929511451 
1.70506773e-06 1.702646978e-05 0.024657314495 1.1645007139 10.921493588 0.00060535732509 0.37553364849 4.3619132915 -0.0037164672521 
-0.28765966208 -1.5468640884 0.0021866301476 0.21435725103 11.383678528 -5.3093613899 6.3363599929e-06 1.3961027085e-05 -0.011256771373 
-1.3716849504 -3.5961906119 -0.0085167601722 -1.6229047378e-05 5.9104414293e-05 0.026179955176 -0.017350416466 0.0044592183493 -0.21968306583 
1.7201237393e-05 3.9593672513e-05 -0.056023661871 0.00024378690542 -9.4910813675e-06 0.13634197853 -7.7602330331e-06 -3.1418753099e-05 -0.0064662830584 
-1.0380288396 -3.1448298891 -0.0027760280831 0.00012798609821 0.0010693821186 0.047463568826 -0.0038411309501 -0.028339315728 0.49690796582 
-4.344858431e-05 -0.00038201081297 0.04293876499 1.0530918847 11.776532201 -0.0061912609677 -0.035494482507 -0.55534204711 -0.0059941129725 
-3.69790634e-05 -0.00023539885251 0.086956223244 1.4779137217 9.8107465021 0.00040225654816 0.0040176725644 0.040208237098 -0.0021437695991 
3.5167650837e-07 -2.2753068512e-07 0.0012694670961 -1.2290931315e-05 -7.3512809947e-05 -0.014043389248 -1.8897437597e-06 -9.6738272419e-06 0.010141139678 
-0.0020986882999 0.11031397308 0.70117692027 0.00095361193128 0.027952930971 0.089056846448 -0.17297609485 -2.0671422247 -1.742053916 
1.2867146697 7.3027316415 0.0012254358235 -0.24132216598 -1.0501605726 -0.0056368509817 1.141473595 4.0853381985 -0.00067815907956 
0.00033811039532 0.00075718591441 -0.01393596754 6.4619442174e-05 0.00013288386143 0.02628941073 2.454862499e-06 1.1344777003e-05 -0.022272968695 
0.84128981553 9.6801378857 -0.007296016409 -0.0051387376608 -1.6804567753 0.062004820774 -4.4412417113e-06 -2.175062199e-05 0.03085681648 
0.78112360238 -12.680760307 -0.54320930349 -1.2537009492e-05 -0.00015057704738 0.010051753897 1.3687215989 9.8539000485 -0.0038061461598 
1.1327597392e-05 4.2245585007e-05 0.013000367599 4.6303720354e-06 1.7281223114e-05 -0.036651777625 5.6886277001e-06 1.4043229738e-05 0.021503164049 
-8.2694136706e-05 0.00029609979414 -0.14142980029 0.68907169484 4.4924622428 0.0019512344587 0.93764780955 14.197886829 -0.0033664350931 
0.12071723154 2.7318694521 -0.0014908547186 0.0020499235425 0.063403504671 0.031609741584 -8.9624892935e-06 -5.9067500377e-05 -0.021368694372 
6.3508469962e-07 7.0119708537e-07 -0.0026313999981 1.0619181347 4.6323352932 -0.0027876975672 0.54824695091 16.238017601 0.0080978076167 
-0.0064328210574 -0.57761363466 -0.024592901523 -0.25065370001 -0.92266165662 0.0017441729838 0.52426592648 6.6711838503 0.0073783712605 
6.2968744023e-05 1.7613073575e-07 0.01581507024 -9.836944777e-06 -3.3052233493e-05 -0.016524612745 -1.2607247539e-05 -7.1229788959e-05 -0.019631801265 
2.9411789604e-07 1.820790682e-06 -0.00053096873564 1.8217725064 7.4246081188 -0.0114066623 -1.082397086 -2.7802914819 0.0087685495405 
1.6901537328 7.6840987437 -0.0030250428082 1.616620905 5.2003430217 0.00041657922872 1.5877318698 8.3915973438 -0.0058106732863 
-1.3526150004e-05 -3.8926508523e-05 -0.028055598449 -3.4452856614e-08 -8.5998258387e-08 -0.00080523078447 0.58733194731 2.6937169888 -0.0021494640472 
0.25450766404 2.8124158571 -0.0022334169549 1.3267812561 11.213851946 0.0013729948618 -0.0047687336524 -0.38977554652 0.65028260254 
-0.042175226928 0.261416389 1.2083943504 0.00021903463149 0.00051581777675 -0.14012754888 -0.20711446987 -1.4871399794 0.0071965138499 
0.81113332329 11.031723167 0.00039141119425 -9.6732485222e-06 3.0751676075e-06 -0.027911684369 -0.00015033628035 -0.0027272875154 -0.0093483124373 
-0.0069173468357 -0.9491225 0.33970833295 -0.072287251496 -0.47752145254 -0.00083789876814 5.8980353344e-06 3.0650951854e-06 -0.0095287052014 
0.67171163987 13.373351096 0.00064778488942 -0.013316065884 -0.4079553509 -0.0060747575799 0.69036860254 2.2577722594 0.00020135580695 
0.49629058312 2.8631980548 -0.0010215072066 -0.00011199958733 0.064751385041 0.43534128 -0.00050551630024 0.024938470821 -0.5222655876 
-1.1134973957e-05 -3.2043481023e-05 0.061226290599 1.2173143463 -7.4628526985 0.53213728826 1.2771942027e-05 0.00015756646723 0.004875292074 
-1.6535370953e-06 -8.685240148e-06 -0.00086844917545 1.9234065464 -0.043852151843 0.095626846473 1.2056887601 8.427239193 -0.0014160530274 
-1.1560098023e-05 -2.9703041252e-05 0.02745899817 1.3876921816 6.816335876 -0.0009830119674 -2.3855402629 -16.856053866 -0.62212702619 
0.0036704818455 -0.35228220018 2.2134239256 2.6501070841e-05 0.00022265364211 0.010443249493 -1.9894647567e-06 -1.3345560935e-05 -0.020519744265 
1.4474627874 10.159709619 0.0025857934123 -0.1572894158 -1.6410236943 -0.0036218678806 -0.78711956628 -9.6270633371 -0.42328449584 
-1.4284104985 -4.417786847 -0.024742638155 1.4314861404e-05 2.4079657388e-05 -0.017116506478 -7.4721539796e-07 -1.3375066402e-05 -0.0033698369369 
7.0690643729 -0.043289277762 0.21601519228 1.313079052e-05 -8.0373564819e-06 -0.006189503371 9.422540835e-05 0.0016082431682 -0.024875917985 
-1.1093547431e-06 -2.9913439892e-06 0.0052094651913 -1.3943522929 -9.2889275203 -0.0067252722682 -8.2592814866e-05 2.1901906299e-05 0.033275660324 
-0.0079141681117 -1.4009524067 1.1334928562 1.6616558328e-05 5.9726539382e-05 0.02268184199 0.76894796903 12.805097226 0.0011672591535 
-0.21017297548 -4.6040929153 -0.0051045762852 -0.0045569695574 -0.09942267462 -0.0057653266677 2.3172554281e-05 2.7720227787e-05 0.068698703699 
0.73107885012 11.542336109 0.0039639880368 0.065581127108 -14.587179409 -2.6534261285 0.62297438046 5.2501090121 -0.0022873704188 
1.7423277127 -16.03724678 -1.9277686065 0.012675797854 0.0001672287137 0.13546377382 -0.27946382215 -0.79120894491 -0.0023528110006 
-0.0039535886638 -0.0085287946468 0.45322520081 1.8837499756 7.8284979697 0.0040632680083 3.5978447909e-06 8.2018631934e-06 -0.00020248757752 
-1.5647322286e-06 -9.2808188135e-06 -0.0081659894438 -9.2866834745e-07 -6.0574622538e-06 -0.0069564903747 -4.4435898147e-07 -5.6226405113e-06 -0.040118431791 
-1.0986255748 -3.0491889775 0.0082077728105 -0.0001346863901 -0.0032512882949 -0.066925054777 3.1287243716e-06 6.17415019e-06 -0.012117438099 
-0.00244805197 -0.081616285475 -0.13539074127 -2.3777293794e-05 2.0648970436e-05 0.025472479695 -2.7508832027e-05 -0.00013716970251 0.011436229361 
4.9768181863 -0.64974325047 0.033121045029 0.00057364074327 0.0058776261601 0.11878160044 -7.27630969e-05 -0.00066304180817 -0.017018452563 
0.46582187587 3.9176121785 -0.0009661100914 0.67681452412 16.199742572 0.00064985350769 -0.02737209887 -1.3860202646 -0.00011784725005 
0.11757615897 0.16082749758 2.5750601758 1.0446109226 6.0682121184 0.0059310666505 1.2490712166 11.662429472 -0.0026100668084 
7.637046492e-07 1.5064679065e-05 -0.016609252694 9.3261328294e-05 0.0015282357605 0.017407274385 -4.9538334515e-05 1.5366552492e-05 -0.04780689278 
-0.12189432626 -0.63942918269 -0.0015188737265 6.8748869796e-07 4.3456447922e-06 0.0033462135056 1.4981136887 5.7700778355 0.0028920590245 
-0.071393687647 -0.7691164335 0.0014636962484 1.3906502389 4.7284056372 0.0030152522098 -1.1623528982 -4.6169414909 -0.0061876515053 
4.4564502768e-06 4.1603776023e-05 -0.036135365618 2.1741421398e-06 2.6736929933e-05 -0.033085567611 6.8629077835e-06 6.5198724291e-05 -0.0089096731005 
0.003825161428 0.024235768008 0.76540251919 -0.00057800820099 0.00038135749202 0.24143849851 6.2893518794e-05 -9.3568883312e-05 0.04880499656 
-4.6459318741e-07 1.6455549543e-07 -0.0048910106442 -0.091198356385 0.52099662892 -0.10625649983 -0.026565331249 -1.2334388317 0.5417773107 
1.7537385527 8.4617004748 0.0020768922162 0.74530801368 10.798764519 0.0027284606484 3.8127580859e-06 -4.0054639019e-06 -0.0016719514139 
8.9830670423e-06 -0.00057049194127 0.037223948232 -5.50004375e-07 -1.9815834724e-06 0.0020160016715 -1.8306211105e-05 -0.00037827613201 -0.0034317823213 
3.2460811305e-05 0.00011901045384 -0.0040576929557 1.1320862867 5.6753679848 -0.0020508238079 -1.089463042e-05 -8.2136615465e-05 0.0015934258823 
-8.8507872903e-07 -5.5357439287e-07 0.0021729662683 0.38338626901 14.978314396 0.0036383219958 -0.0019300576727 -0.17799747463 -0.016464623574 
9.3828429508e-06 0.00015641242959 -0.0058803290466 1.357951926 9.4322858593 0.003627913759 -0.21759704751 -18.426827817 0.0027395248921 
0.00019913790137 -0.099859434823 0.018708713817 4.8525347448e-06 1.2086215802e-05 -0.040357403965 -0.022641467707 -0.59311635271 0.24995441287 
-0.15836175231 -4.5289237584 -1.5081613542 -0.43258243461 -4.0880587594 -0.4680342144 1.2524503464 -13.651221597 0.66803908125 
0.42306442998 -4.2340972273 0.1796920745 0.46404134645 -3.5024784041 1.0878527092 5.0335629722e-05 -0.024825711238 0.020814317447 
2.4979950184e-05 -0.022429448947 0.038770372833 0.0001175992287 -0.07619991376 -0.0025792604921 -0.081620177753 -19.741418256 -0.011154768966 
0.11502361344 17.646562986 -0.006029696677 0.13549151052 19.540067816 -0.003366219548 -7.9890951431 -0.059583432082 0.048954022879 
-4.646729904 -0.091487613746 -0.35993053285 -4.4073544852 -0.51979893138 0.12454848031 0.13276491743 -7.1337029292 -2.3593792411 
0.1818513248 -11.029723894 -2.2597508586 -0.20173066609 -7.6992836903 -1.4267532866 1.0492643578 -17.691573118 -1.0843311899 
1.4039266868 -23.883795129 -0.063126358938 0.43556216071 -17.597910173 -2.1917543531 1.7866528184 -25.073802959 -1.5532817747 
1.5242944659 -19.762361171 -0.064068018356 1.2401277224 -12.555100012 -1.0309330433 1.8065344477 -12.349851713 -0.91418904008 
4.6594329632 -0.40450306578 -0.022384464584 7.0246170014 -0.38452575617 0.17386171987 6.1829739778 -0.33005654686 0.049732371096 
0.00046253188383 -0.00012316813435 -0.068192013996 -0.010662105039 0.001958258394 -0.009309884994 1.4207084711 -0.32548381392 0.14549578256 
1.1909446306 -0.23956578192 0.036155603995 -0.00042567274623 -0.00024832615006 0.096733555595 3.935521636e-05 0.00031053816992 -0.035541237778 
-1.4127135425e-06 -1.8577394641e-05 0.0079980947675 -0.00068195500526 0.00058172385849 0.12260270707 -0.78294521264 -2.9697900684 0.034801949813 
-0.15331437301 -0.51682484937 0.041168087234 9.2184433783e-05 0.0021126621966 0.11456863221 -1.1277747351 -6.693510829 -0.033572803068 
-0.99652895024 -5.1542511016 -0.038414068094 -0.80106264909 -2.0974271034 0.034979356639 1.126759793 8.8192631077 -0.020250037284 
1.1885706922 7.9794484032 -0.023305559986 -1.6739566108 -6.0585391002 -0.026418603868 0.72998840704 10.022110948 0.0070767628719 
-0.78255863763 -9.5577726516 -0.0016273418424 1.6488159914 8.4144949051 -0.0027317941465 -0.71320637091 -10.49647442 0.013336232695 
0.78479271863 10.24348489 -0.017623632276 -1.3770359654 -9.6212869955 -0.0093813826046 0.36557445358 11.032401217 0.0031438852351 
0.39143335364 10.863909123 0.00089443865614 -1.0581962228 -10.36597814 0.013258891649 0.40038011481 11.401329637 0.0032860997904 
0.42485758595 11.177701381 -0.0057519355333 0.77770465674 10.915844323 3.7960104277e-05 0.36714752537 12.099783719 0.0010820401405 
0.37982183902 11.680653997 -0.0032510434175 -0.7761852446 -11.331535774 -0.0018271253008 -0.35005645946 -13.861029697 0.0083862890097 
0.35134124837 13.001557542 0.003717890921 0.87232153556 12.597830588 0.0066923494538 0.5646721028 12.347464545 -0.021941299279 
0.90037058116 11.644391534 0.0032022548662 -0.1881391742 -15.875106892 -0.007372618784 0.19294302845 14.60581505 -0.0049784488773 
-0.53428562144 -14.180203117 0.023076066183 -0.30761363128 -16.665794344 0.0046279802596 -1.989474192 -0.27369669353 0.030844828253 
-2.5756956483 -0.55186205628 -0.15426443084 5.430881497 -0.052726778931 -0.33363825643 1.1103426169 0.29754681696 0.49213810168 
0.028471723165 0.0080752436894 0.011327529597 0.36379464544 0.0066457637928 0.191290359 -0.0018449084221 -0.00053107078008 0.50823914594 
0.0099235111065 0.0086893183342 0.79937990141 0.00067839722657 -0.00061075377186 0.094828278401 -0.0018563961881 -0.00022555715969 0.044797426009 
0.0010663806412 0.0032064509527 -0.24802915868 -2.8408221584e-05 -0.00041531897465 -0.043560464053 0.0017144963202 -0.0010370759123 0.37230748701 
-0.0009164837482 0.0060878073301 0.25579104732 0.10800629713 0.26395348586 1.0808612581 -0.48006399156 -1.4792420381 -0.35366402942 
-0.0053942075818 0.0039778294484 -0.34839823372 -2.6481105926 -9.0407395836 0.10467728076 -2.5226860161 -17.17861434 0.70881277006 
-1.3752239077 -8.6149273827 -0.94393387645 -2.2173146035 -23.951916707 1.8422593008 0.39888742603 17.543429149 -0.0069888198392 
-0.37001031706 -18.323787891 -0.0032167442648 -0.62166007703 -16.311898791 -0.018776360425 0.33232213101 18.322417999 -0.010001977128 
0.39025294569 17.246882321 -0.0016266343557 -0.56992728642 -15.239737199 0.012637950392 0.58422368442 16.4486147 0.0020387746297 
-0.83402987706 -15.289962483 -0.022633434555 0.4128511591 12.950506026 0.020613904331 0.46336187328 14.516957524 0.026171404941 
0.8558555148 13.560294276 -0.022130507547 0.44410471183 9.6387969412 0.0011522195683 -0.53756273961 -11.320352989 0.010364918601 
-0.82282865582 -11.159268486 0.018456242703 -0.25745194045 -6.3379924096 -0.011534562152 -0.34702591884 -8.0159184842 -0.013703736049 
-0.68096750134 -8.1541494152 0.012660609624 -0.082857503748 -3.6799444177 -0.020475698451 -0.12719193887 -5.1577828845 -0.015823418697 
0.35293469875 5.6818053501 -0.0085427821575 -0.035773794238 -1.76401347 -0.010765998575 -0.067782604945 -2.7779215723 0.01006134131 
-0.16251607644 -3.6157265296 0.030075593021 -0.0035683101139 -0.54507395248 0.014810632437 -0.0094678418475 -0.99073636166 0.016724775656 
-0.062798539034 -1.9825779788 -0.02724853415 -0.01443305678 -0.94743189766 -0.021618476279 -0.00048169648082 -0.1661015951 -0.019301102896 
-0.0012662633645 -0.31414517973 -0.014107623714 0.21220265129 -1.5988657601 0.023336181768 -0.086928302528 0.69173376412 -0.6195432959 
0.52289863655 -3.0222373048 0.36655061524 -0.11279996344 0.81859752863 1.6126907375 -0.00030995391716 0.019508030913 0.34681239236 
-0.023414122068 0.14224310442 0.46893667055 0.0037113903474 0.037105155199 0.25185183506 -0.0011593732022 0.043986826956 -0.3443148709 
-0.0020919741835 0.023236306813 0.24990810193 -0.00075342906835 -0.046428888498 0.18514463459 -0.012104618533 -0.72153332417 0.26538064031 
-0.0073076367146 0.76434255143 -1.8449115896 -0.0024551395345 -0.10095752978 0.5976361887 -0.011234059566 -0.5738450754 0.56154476986 
-0.012887892541 -1.0444120533 -0.00083525711102 -0.0056096010962 -0.82263937714 -0.2324414938 -0.021057254611 -1.2134046681 0.13063250787 
-0.0012367757942 -0.27256705827 0.12934908488 -0.0045818604453 -1.011269402 0.3717405407 -0.0047400033226 -0.9706457959 0.38769838317 
0.00011190696689 0.0077449876027 -0.0038371725633 -0.0015007207699 -0.12401595317 -0.067656900096 -0.0075237970288 -0.42464931186 -0.11024085612 
-0.0030485029326 -0.20945847933 0.077706942696 0.0055403191663 0.1798987269 0.42488812869 0.0023636787811 0.16045553334 0.15431915202 
1.7975774455e-05 0.00097552694131 -0.011317868906 1.3903900563e-05 0.00061338873926 -0.033307231532 0.00097642815672 0.0138845376 0.15647909426 
0.00015558221371 0.0049655000894 -0.03338032647 -0.00011422595949 -0.0040089584375 -0.020718408413 -6.2087003217e-06 -0.0004535068179 0.038542255068 
8.8701066461e-05 0.0020427999816 0.021884193343 8.9910908268e-06 0.00039013239686 -0.025916322923 -4.5460364463e-06 -0.00013317677026 0.001586199434 
-0.00025159431226 -0.0088923554299 -0.0077338131099 4.1901867372e-05 0.00045039508245 0.054992351203 -0.00017862456083 -0.005450749803 0.027531404587 
0.0002764791198 0.0091163573298 0.018648480615 -9.305931571e-06 -5.0039012956e-05 -0.020137382374 -1.2457492479e-05 -0.00031363825363 0.00415085752 
3.2981019538e-05 0.00049212368528 -0.0079086619175 -0.00088217045715 -0.020465488954 0.038776881292 0.00059504903462 0.013801780891 0.01961655329 
-0.00017491887638 -0.0021398468897 -0.030586820215 5.0538820635e-06 0.0002191678419 0.00081268723692 0.0012034167247 0.048082902797 0.022411032778 
0.00011521182868 0.0016878099682 0.034006991793 -0.00037899241281 -0.013373968473 -0.0083666080329 0.0017963479521 0.064151291141 0.027314226534 
3.7818199985e-05 0.00071844368219 -0.0036708048398 0.0010575375734 0.043543327048 -0.0029427431886 -0.001926291839 -0.083516135961 -0.004364315016 
-5.5464480419e-05 -0.0011002344973 0.0010988641503 -0.0036023802944 -0.19225750224 0.0021177963436 -0.0024751917863 -0.16244555603 0.023857323668 
-0.023035043106 -0.4800961111 -0.011649093705 -0.0082572175115 -0.24840611824 0.0061376223181 -0.016828892297 -0.30478137929 -0.021114134763 
-0.00057638103445 -0.10309925459 -0.0069601788015 -0.00025103076102 -0.077725235767 -0.00081177705745 -0.0056393889557 -0.26012903775 0.010291434506 
-0.00031453362862 -0.10226921599 -0.0075575287016 -1.6945691785e-06 8.3930573461e-05 0.062980797497 -1.7084283002e-05 -4.0854763225e-05 0.01216565476 
-4.6909853871e-05 -5.7040231435e-05 0.042689066931 -1.1661101999e-05 -2.4724973148e-07 0.019949312037 -1.2172700512e-05 -6.7364781125e-05 -0.025996140216 
1.1480738525e-05 4.269877025e-05 -0.042448870343 2.0846605285e-05 6.8346512299e-05 0.021162915838 -1.4616227137e-05 -3.8267192216e-05 0.034187177718 
8.6323680433e-07 6.1588481439e-06 0.0058414234214 4.3356913541e-06 -4.1344481949e-06 0.006743468448 -2.0152803451e-06 -1.534922079e-05 0.0073474529222 
1.2895977669e-05 6.8679677949e-05 -0.027866615019 -0.26363311763 -1.0542008274 -0.014659011836 -0.48303243725 -1.8131850685 -0.015570815321 
-0.46335385338 -1.8937829883 -0.0068295866249 0.66680057537 2.8112787111 -0.00038768710344 0.40891801538 1.8223775604 -0.0007841572314 
-0.72575292732 -2.5865356864 0.021953381591 -0.92644835502 -3.1644240432 0.0043691805411 -0.92324975963 -3.4270931398 0.0058620675103 
-1.1640542527 -4.3800796416 -0.0069192936804 -0.94074122681 -3.6831414577 -0.0021985835928 -0.81675161964 -3.6408447815 -0.0021778478368 
-0.90646868264 -3.7091523659 0.013754818579 -1.1168948852 -4.6598352493 -0.0045609748672 -0.45691325451 -1.5770700045 0.0030587282887 
-7.2558346886e-06 0.00012595148893 0.050502506875 3.9834478702e-05 0.00041048864439 0.078961545893 2.3903393341e-05 0.00019391619626 0.019224389693 
-6.2113426784e-05 -0.00047762789964 -0.025738737878 0.00017184143739 0.0016547111326 0.06922397869 -3.1209699054e-05 -7.4602701269e-05 0.033078061141 
1.0739019341e-06 1.1715176605e-05 -0.011684582555 -3.9328755967e-05 -0.00022839998693 -0.023403337518 -2.0610725519e-05 0.00034871693152 -0.080369354809 
-0.00095170148567 -0.024998422503 -0.27467677823 -8.3654583879e-05 -0.00099235113959 -0.045591001679 -0.00076464713721 -0.009908878521 -0.1272858158 
0.00027679066362 0.0042797494864 0.022624432995 -0.0003114486885 -0.003311969985 -0.16637190716 -6.7420569128e-05 -0.00028823478424 0.053742730788 
-6.6437593122e-05 -0.00019954960759 -0.02546142016 -3.25957218e-06 -6.2854420649e-05 0.018753541306 -0.00013510356834 -0.00051626561382 0.064058089482 
3.9251305298e-05 0.00015149424326 0.013671317473 -1.6969359585e-05 -9.4791740309e-05 -0.0094715769132 -6.4913344757e-05 -0.00036343569316 -0.036276489387 
-5.6114163892e-05 -0.00026664741232 -0.023300940992 -2.0706835287e-05 -3.787630892e-05 -0.02346789989 5.2056538947e-05 0.00025306636091 0.030906701872 
0.00015145812477 0.00076698034595 -0.057968274727 -2.5619547793e-05 -0.00011762091214 -0.0072285836321 -0.00034840180407 -0.00083864148609 -0.04191473713 
-1.3297957973e-05 2.6338227728e-05 -0.025372529522 0.00054073936393 0.0012632149959 0.082478201674 -0.095134660178 -0.22765832094 -0.01950966155 
-0.50814058415 -1.2995937217 -0.015789066753 -4.1944857285e-05 -0.00013844464625 0.071220246307 8.4305886377e-05 0.00016426521779 0.026649688261 
-0.18166810291 -0.49204908319 0.016789369112 -7.9348617199e-05 -0.00022404282348 -0.003285228739 1.0906082508 2.9262980438 -0.0042228355139 
-0.56411901468 -1.4976820692 0.0037306983446 0.66991051029 1.8711158955 0.0011250729969 1.3398713034 7.0743919297 0.0083278574542 
1.4597633979 7.9648973317 -0.0031043075024 1.3990861043 8.2281297679 -0.003763977695 1.4134098213 9.2734150275 -0.00062571309596 
1.340593143 8.3537625663 0.0018967189297 1.5023774717 7.6068242819 -0.0061958215737 1.5344884996 8.7668384801 -0.012830061864 
1.5408802507 9.2673445923 -9.6302482036e-05 1.4748403796 9.6395947602 -0.0019990695211 1.4150526536 10.415028781 0.00028147214299 
1.2859288258 11.407916013 0.0003054481656 1.4288505507 10.191147659 0.0069833810555 1.3618571074 10.323773757 0.004121260087 
1.3678803783 10.946299353 -0.00083165828073 -0.42869658654 -2.8113370395 0.010426837224 -0.59901730694 -3.6623748593 0.0088811405209 
-0.50938348717 -3.5587405132 0.0045573954314 -0.57574405209 -4.2313571751 -0.0054239703314 -0.41397377161 -3.2878833222 -0.0086905507363 
-0.20873267931 -2.2390187274 -0.0046058137841 -0.24801866331 -2.1744159353 0.0013451039682 -0.31055090364 -2.7858383354 -0.0048616882244 
-0.35311314845 -3.3635797253 -0.0062079868752 -0.33989239213 -2.1723761649 -0.00073251065664 -0.27910964442 -2.0517838261 -0.0018030839375 
-0.18770123126 -1.5935417659 0.0013841235375 -0.00036666101889 -0.0038932660025 0.055403770603 -0.0025384268789 0.16547779208 0.82961907319 
0.00040953683314 -0.0013270267943 -0.098827408172 -0.0015295705256 0.061495895758 0.42171176901 -0.001534885416 -0.071179694199 0.56143015322 
-0.00090692104931 0.1850369938 -0.91202622539 0.00054251146494 0.18900707872 1.0318257526 -0.00021893654561 -0.00047056336365 0.028636730905 
-0.0016642722841 -0.017877620012 0.1950555685 -0.00015352524985 0.024226443559 -0.12089027082 0.00021232197258 0.2260471836 -1.182059844 
0.0027688851809 -0.087731457469 1.2278828338 0.00020667851294 -0.0001253797869 0.046250748123 3.7274006978e-05 -7.1878479463e-05 0.027038715714 
4.1531556683e-06 -1.160508006e-05 -0.0074350435209 9.4816933437e-05 9.2406568724e-05 0.12422596964 -5.230287834e-05 -7.3198697206e-05 -0.024551664006 
-3.7402283885e-05 4.2120830017e-05 -0.024019799122 -0.00010203326044 0.00016197834301 -0.041635554225 1.5840668428e-05 4.272960115e-05 -0.010185985851 
-8.7756538181e-05 -1.3477480647e-05 0.053633701928 -1.8463166795e-06 -1.3115940624e-06 0.00067897880154 2.9646906474e-05 0.00023468106167 0.021697589758 
0.00010756014271 0.0010997848589 0.1102088955 4.2580814927e-06 2.4776067414e-05 -0.0046195433728 3.9555815792e-05 8.9105837809e-05 -0.062327155908 
-9.7270301247e-06 6.2381144114e-06 -0.027387576124 7.2768452671e-06 4.5435509427e-05 0.026183792142 -1.2357798166e-05 -8.124523781e-05 -0.0082403733137 
-1.4213324481e-06 -7.9909329479e-06 -0.001323353573 -1.0751014237e-05 1.3584281331e-05 -0.02840857766 -9.9198933798e-06 -4.5080745419e-05 0.034211437833 
6.9186015524e-05 0.00053963879427 0.032640931352 -9.2392310999e-05 -0.00080132028874 -0.022887968578 -7.7816022596e-06 -3.0008354452e-05 -0.013349816941 
-0.0002224333629 -0.0017399309321 -0.072390601533 1.6200225839 6.7333718717 -0.00031824157312 -1.6215140027 -6.2223597811 0.0068037495303 
1.7299758115 7.226785324 -0.0061593593332 1.7873290647 7.6259608165 0.0039415430448 1.7257670406 8.0642629724 -0.0076455813257 
-1.8207328427 -6.5587642467 0.0075927985868 -1.8274470485 -7.2483951203 0.0051665133605 -1.7128841065 -5.997301441 0.015949834054 
1.5956988764 5.7363983874 -0.0034310168049 1.495364516 4.9481943815 -0.0028609943172 1.8198445401 8.170939442 0.008378748887 
1.4544656725 5.2528370417 -0.0045604701297 -0.06282512935 -0.3483668619 -0.016698130435 -0.10432858239 -0.61236403273 -0.005911540379 
-0.049282025109 -0.30567333073 -0.008370733003 -0.019570128081 -0.13691465446 -0.0060228157665 0.00012775831568 0.00083524752943 -0.00051781089035 
6.524446419e-07 2.5303466784e-06 0.00048981526814 -0.0028728302784 -0.015462988364 0.042041412623 -0.00029201395888 -0.0018111159668 -0.035027357136 
6.8931514971e-06 4.9599152367e-05 -0.0014042503083 -0.043736857884 -0.22257287239 0.0013507849458 1.91306163e-05 -7.2352804702e-05 0.024517774223 
-5.3005393453e-05 -7.3703803402e-05 -0.019574815464 0.00021473495835 0.00029101925634 0.029668471687 1.9681339322e-05 2.3591170028e-06 0.022962683418 
-2.3745893225e-05 -4.064137758e-05 -0.0072294837398 0.00014927778425 0.00043053707287 -0.038427701042 -1.0114390939e-05 -1.783208428e-05 -0.010911580886 
1.0336357733e-05 1.1331176417e-05 0.025220990135 -6.0788272681e-05 -0.00011559075786 -0.033746717057 -6.0352143286e-06 -5.3192316725e-05 -0.029346898432 
-2.5807322745e-05 -5.512212218e-05 -0.018830370927 1.9752468164e-05 1.8109748153e-05 0.012339552392 0.00022253421436 0.00015405039592 -0.10390063081 
7.2602467491e-06 2.6576872749e-05 0.05489757058 -0.00029689677893 -0.00025515889249 0.11854349094 2.689845172e-05 5.7692300208e-06 -0.038494803873 
-5.867312002e-05 0.00024796484182 -0.073908527445 -1.6912779939e-05 1.7653204541e-05 0.01266483846 3.0405997519e-05 7.1954208883e-06 0.069347397125 
1.5882163302e-05 -7.0619158724e-06 -0.019228288062 3.0793421964e-05 5.0859196682e-05 -0.020611220238 3.3799261575e-05 6.8839844652e-05 -0.045223315691 
3.4558543877e-05 7.9877897957e-05 0.084897626346 3.742382151e-05 8.1482021761e-05 0.043254916574 0.73205959498 6.826077876 -0.0040132632526 
0.92878190395 8.2466344146 -0.0030587532662 -1.076919103 -7.648457062 0.0076435825685 1.0508023727 9.0785286127 -0.020656272773 
0.77637646091 6.0609624056 -0.00051662954579 -0.66572319243 -4.8729100066 -0.018131103362 0.81989624093 5.6394943901 0.0066874205764 
-0.8622725678 -5.281288816 -0.010500258705 -1.0011046857 -6.464778384 -0.017892860932 0.59125671623 5.973258253 0.010729827541 
1.1407463502 7.224521767 0.0093247243402 -1.7261270206e-05 -0.00018033786768 -0.031553715712 -3.5735458395e-06 -2.1422245332e-05 -0.0031112841631 
-3.9070437327e-06 4.2895508737e-06 0.014042932099 -2.6930434199e-06 -2.326160447e-05 0.0054306272298 6.2422410987e-05 0.00027580586365 -0.037132242429 
8.4475071525e-06 0.00010435875106 0.025741856991 4.3402059825e-06 3.0636417019e-05 -0.0042765881136 -1.7667892012e-06 -1.2854829268e-05 0.0011495077532 
3.2282499103e-05 0.00028381662632 -0.02742219756 2.4527420978e-05 0.00023243594944 -0.030375250859 1.7679722785e-06 1.598177991e-05 -0.0027880732563 
1.8820779669e-06 8.8116192891e-06 -0.0028627258501 -2.9555801046e-06 -2.6435442966e-05 0.0086537994129 0.00027297452744 0.00083469288108 0.075884787665 
-0.000197363756 -0.00062481027056 -0.02724312969 5.3838699759e-05 0.0001241084577 0.030933609016 -0.08390013743 -0.25437219345 -0.024618873813 
-0.29656219496 -0.96408556403 -0.0084681995377 -0.11456064654 -0.39676923777 0.013656680572 -0.1054718833 -0.38604337946 0.0048232585259 
-0.0011363574432 -0.0039164924185 0.048054442348 -0.5345782897 -1.6293874596 -0.010566824957 5.2043802534e-05 0.00018394818302 0.012361041133 
-8.2623467033e-05 -0.00020784970134 -0.042542968721 -5.3462265083e-05 -0.0001622526798 0.044299478108 7.4323783489e-06 4.695606215e-05 -0.0090317427106 
3.5326996708e-05 0.00016952816468 -0.037782804012 3.8902418171e-06 1.1658338968e-05 -0.0037255618292 -7.9906261839e-05 -0.00012173434338 -0.051236595116 
-4.3106410551e-05 -0.00015971606549 0.041740007446 6.4026228726e-05 0.00019944398642 -0.061276667591 5.005029913e-05 0.0001039744198 -0.029528249189 
0.0076243543096 -0.22486114964 -0.41367893761 -0.0015057279753 0.09202918888 0.3929044817 0.00033977201649 0.024468586927 0.31718306559 
0.00026966359445 0.0076889626299 0.082062485474 -0.0038737546959 -1.4644278745 -0.062040740348 -0.034403896518 -2.1435008936 0.47297979598 
0.0013668833482 -2.6604135584 0.62506811729 -0.02056947172 -2.233492399 0.89287343419 0.00055914614492 -0.037208839055 0.18649501346 
0.0099732072396 -2.2057134931 1.1506437288 -0.012379963195 -0.075815435941 -1.004432841 0.00075996500305 0.0048033294824 0.13430845165 
0.00024204656051 0.0016868609346 0.10602036829 8.7481593794e-05 0.00064569240637 0.021248757184 -0.024729577858 -0.70815147931 -1.5779990998 
0.015434472953 0.033383972303 0.57289492051 0.13320452605 0.25336643687 3.328438602 0.018172430179 0.047879940296 0.83177856108 
6.6104206705e-05 8.8712325475e-05 0.0097486181068 -6.8817614386e-05 -0.00011780682923 -0.026614015451 -0.00012768991458 -0.00015380135016 -0.026847886425 
0.00010756538975 0.00087234797818 -0.21572552431 1.2799390626 10.981469809 -0.0010269848135 1.4597049155 9.977296424 0.00066613564369 
1.285659545 10.801378755 -0.001245838567 1.1556808207 10.771111611 0.0011489749388 1.1597423072 10.4449798 0.0068592930404 
-1.2117359886 -10.491818379 0.0015343941073 1.486946901 9.8344067013 -0.0049586311719 1.639907506 9.1717185162 0.0021726159777 
1.6615356404 9.1609229577 0.0013688544465 -1.5802186519 -9.1703737686 0.0056308357206 1.6508561592 8.0785370353 -0.0077968726546 
1.6409533913 8.8053906165 -0.0089695322626 -0.019719758901 -0.2439772314 0.010556786866 -0.0072036706677 -0.093033318019 0.0030207607474 
-0.021607579211 -0.20980387971 -0.0078565343445 -0.027768410733 -0.22057650448 -0.0057228734685 -0.069965822156 -0.54694021063 0.0049819504998 
-0.13870546665 -0.94983002336 0.0010154321848 -0.11425561187 -0.93197767038 0.0006744064305 -0.13546577149 -1.1715010744 0.003600743772 
-0.055286557569 -0.55601609402 -0.0005838774527 -0.026570269097 -0.35159879274 0.0016829099971 -0.030893314537 -0.44213921571 0.0058274050325 
-0.033956536245 -0.84748575129 -0.013101044622 -0.053108454727 -0.95622294155 -0.0057598957057 -0.088374688906 -1.1029196529 0.00040710720436 
0.10914465486 1.5329565991 0.004277946629 -0.13977259371 -2.0363058005 -0.004517079521 -0.1930072316 -2.8407903085 -0.0083519634403 
-0.094659341313 -2.0343842397 -0.0070072837388 -0.043415569227 -1.3034370294 0.00048388207797 -0.028192819192 -1.0004323856 0.0050575476236 
-0.0043441641302 -0.39085577321 -0.021457045645 -0.019538486227 -0.69754219907 -0.0080018440639 1.1866278013 12.714688097 0.0082995348622 
1.1797975305 12.585807096 0.005517603921 0.95301083833 14.097693787 0.0012991035425 0.84278659076 15.148832837 -0.0060767551481 
0.74589278345 15.088376985 -0.002450028441 0.68877155872 14.608205023 -0.0018720460156 0.46399938969 15.624648757 0.026839901611 
1.1224170043 12.826897119 -0.011037001938 0.9980259851 12.577972476 0.0015833979276 0.81873545537 13.673226516 -0.011170458291 
1.1435723498e-05 7.2033922331e-05 -0.026653338835 1.0902043493e-05 -8.091782806e-05 -0.048653436457 2.59382183e-05 0.00014067405278 -0.072144945124 
-2.7162945333e-05 -2.8474136153e-05 -0.071114216876 -4.1175946117e-05 -0.00012045513083 -0.033681207929 -3.6097402882e-06 3.0441194079e-06 -0.016082536206 
-1.7518498408e-05 -4.1729359256e-05 -0.019766273568 1.9720223171e-05 9.9681616362e-07 -0.036937592529 4.0061688724e-06 1.4212657253e-05 -0.0039032495729 
5.1292519333e-07 3.2135390004e-06 -0.0010898178506 -0.012636827154 -0.68064725683 0.086647503725 0.0017836170788 0.055801036805 0.15840914329 
0.001180614189 0.014237141358 0.21138851243 0.00061827884814 0.0078966366864 0.090957860312 -0.0075830734365 -0.2175395721 -0.13088811986 
-0.010832942646 -0.68868720421 0.3519544095 0.0037012697111 0.045607871604 0.36141286775 0.00018884340694 0.001991759537 0.079168317053 
-4.3268034473e-06 -4.1459215565e-05 0.0051164289807 3.4103569968e-05 0.00022940241594 -0.015548342725 1.5913936714e-05 0.00013361918815 -0.0029150654842 
-1.8349007993e-05 -0.00021946439016 -0.022328418977 1.668891738e-05 0.00013944277128 0.048118904973 -0.00010406702386 -0.00073778803951 -0.013504420088 
0.00015794739151 0.0013083884323 0.027003759277 0.00013099126204 0.0011956638715 0.021125544076 9.6932586022e-05 0.0010697297242 -0.032560519985 
7.0370257471e-06 5.3769990391e-05 -0.0034362992484 6.8705429324e-05 0.00036334669964 0.034876899658 -1.8556107417 -7.9796035322 -0.0043725169328 
-1.8337371923 -8.3680238598 -0.025687057422 1.7442278787 8.892887072 0.012177917539 1.9232883328 7.2216908728 -0.0050417490632 
-1.6017110738 -4.6136091369 -0.010327183883 -1.702971636 -5.080853403 -0.016636694044 -1.9297421295 -6.946711809 0.004385575798 
-1.5828856079 -4.7398221166 0.011135412475 -1.7832073891 -5.8131194386 0.016978593899 -1.3854645746 -4.1184626024 -0.0060343412477 
-0.65373548694 -3.5400147503 -0.0030779653999 -0.76142801745 -4.3851100892 -0.0058033790386 0.9433459083 5.1308331046 -0.0057960411622 
0.70943861957 3.4289485545 -0.0018756879278 0.94406006863 4.4541262304 0.0033634038256 1.1040854581 5.1455604421 0.0028516540747 
0.97485136784 4.9317500585 0.00013814021566 0.55242911295 2.8320985166 -0.0024944951438 -1.0877788112 -5.8629258246 -0.0090788592572 
1.4375756973 6.6116481675 -0.0043378138853 1.2356910274 5.7093376035 0.0018121590852 1.2629455582 5.4701490744 -0.00052962399618 
1.3176694545 5.4294869762 0.0025492591035 -1.5431911728 -7.355952922 0.011439143005 -1.5853501109 -7.0041997817 0.010489868016 
1.4943552929 6.1034154046 -0.0080642614896 -1.3289718531 -5.1769873693 -0.0029863092966 -0.027709992802 0.37337571676 0.019720636146 
0.0076498289704 -0.12018208541 -1.5972909111 0.886799499 -7.9610697004 -0.73770051682 0.93575581863 -6.5379800011 -1.3688352255 
0.0048743741999 -0.13606981442 -1.5650163697 0.0065913577902 -0.034706592149 -0.81404394715 -0.0238188202 0.23274652444 1.2084147553 
0.041512827581 -0.29482642782 -0.5034152747 0.57975268474 -3.7655933035 -0.50737693471 3.2039841091e-05 0.00010895001073 0.023340571558 
-5.7201963822e-06 -2.3862521267e-05 -0.0075600544185 2.5963791281e-06 2.2937926545e-05 0.0078081429729 -2.00731928e-06 9.1236325895e-06 -0.010426010599 
-2.776068437e-05 -0.00011120252593 0.037615445615 -6.1169744941e-06 -3.3702314804e-05 -0.011938423767 -4.4649063876e-07 3.7326753911e-06 -0.0050227473672 
-2.3320119629e-05 -0.00016246961398 -0.042734272272 1.2066255405 9.6277464176 -0.0047943640127 -0.99813293102 -10.351746579 -0.0064680093381 
1.0147617876 11.90097477 0.01437670359 1.2507882879 11.078531112 -0.008112725207 1.0827144053 12.510378393 0.0091697742197 
1.2801533698 10.182231297 -0.011596155186 1.2904466898 8.9590340164 0.0020861111494 0.31771648318 3.5923773574 -0.00037677995768 
0.23315010939 3.6069469278 0.00081959257015 -0.29695595382 -4.4335599465 -0.011348199226 -0.45021192786 -5.4659006441 -0.013287327272 
0.4940850174 4.8362717738 0.0034054487957 -0.42821722086 -4.1508632288 -0.0058341503389 0.54271605096 4.5772642652 3.8931170359e-05 
-0.43174444573 -2.1341603312 0.0088132931337 -0.28228221621 -1.3634065524 0.0044325411007 -0.20083917678 -1.0639703553 0.01574627055 
-0.18128427547 -0.86148028478 0.0044068163144 -0.3904243513 -2.1694570808 -0.011071522931 -0.16806697541 -0.9950606334 -0.0042823017048 
-0.25773978041 -1.5919152877 -0.0043635979705 -1.0404614094 -14.1481682 4.0324467377 -1.3566821444 -13.072694662 -1.8036301078 
-0.53121651722 -11.861288366 -0.42432402163 -0.065560255488 -1.3629302925 -0.79319651427 0.038148391593 -8.6077081806 3.3577961907 
0.18203154087 -3.6941134429 4.0952481639 0.40183910658 -6.7478355398 -0.22230200027 0.08965393732 -9.7670098919 -1.2881523517 
-0.97712471669 -16.67000347 5.2515969146 1.1234814536e-05 2.6412635257e-05 -0.0083125676384 1.2201763543e-06 1.9766352849e-06 0.00045928132853 
-1.3253910598e-06 2.5753933566e-06 -0.0026831881638 3.5057580951e-05 0.00014259907951 -0.031409938235 2.3691041208e-05 4.4206478511e-05 0.019829231478 
-4.2270868463e-05 -7.2915279861e-05 -0.029825530045 5.5689885345e-08 -6.5153747987e-10 0.00023778620478 9.2100261667e-05 0.00026826369882 -0.055932476952 
1.2242512435 3.1652274676 0.00325316345 1.780373599 5.6018841342 0.0068646659258 1.4084604441 3.9328680471 0.00076593236531 
0.56864828905 1.3678837686 -0.00012902831272 -0.71550200068 -1.7087940046 -0.029288552984 -0.82286218738 -2.0402618036 -0.011033923474 
3.0590866495e-05 0.00011788075761 -0.025180502839 0.00022779212627 4.4388103843e-05 -0.045765332319 -0.00010210969417 2.239459747e-05 -0.013882835784 
-4.8775337195e-05 3.8850036488e-05 -0.021021624904 -6.2610884938e-05 1.5189282183e-06 -0.034558970445 -7.4133820592e-06 7.7293782494e-06 -0.0039973174379 
-1.0801093507e-05 -2.0089446702e-05 0.0056296723751 -0.00027306642055 -9.7692411443e-05 0.055511614262 -1.7365416805e-05 -9.2879481358e-05 0.063755691313 
-0.00010350934725 -0.00021112951963 0.032695363843 -0.00010372859669 4.8905811704e-05 -0.011659345289 0.0022305736385 -0.0010456163254 0.073467330555 
2.3462370885 -0.45591793559 0.15386082294 4.0241315424 -0.38607875853 -0.050896060058 0.36607997635 -0.050586830051 0.090417101267 
0.0012007698883 -0.00029843331623 -0.22364608116 0.00042914216145 -0.00014406514826 0.012979787024 -1.8994681177e-05 -1.850642311e-05 -0.09835742309 
-1.4033995263e-06 -2.8600508513e-06 -0.0063638731485 -2.9485528296e-05 5.3928018408e-05 -0.050915961532 3.8231341587e-05 -2.0201362884e-05 0.054849351255 
-1.5411309578e-05 -1.0227346015e-05 -0.013172652696 4.7713398632e-05 0.00037294217416 0.116762863 -1.1763982276e-05 -3.7071158094e-06 -0.0012159751317 
-0.0017013145023 0.0008075393975 -0.28375010189 6.7183219949e-05 -0.00035066735666 0.10476536321 -0.00020233207297 0.00023388887538 -0.09110714825 
-4.4786500865e-06 -3.2295732239e-05 0.0090911866575 0.0077455961171 -0.0016842750863 0.42991771222 -0.079232811268 -0.30747357285 -0.00099133317643 
-0.091593308139 -0.38543115126 -0.022967828212 -0.093704663308 -0.43476411573 -0.0035895470714 -0.00022217982477 -0.0010238582034 -0.015174462233 
-1.1807812089e-05 -4.16793651e-05 -0.0038309952773 0.00012233638627 0.00046228784479 0.033884063993 3.9669201331e-05 0.00015585318228 -0.014494166879 
-0.0002101684978 -0.0010550672541 -0.029895509759 -1.0805353714 -3.1416097909 -0.003956229644 1.3364809147 4.1631086046 0.0057108881766 
-1.2263352296 -3.9172489884 -0.0013738047779 -0.66905631792 -1.9536125939 -0.013450185994 -0.85597832531 -2.6888889187 -0.019437222414 
1.0473041426 3.4734033495 -0.0059543632401 -5.5315200205e-07 -4.7839709864e-06 -0.00039529087774 1.198301875e-05 0.00011845209599 0.0081018052152 
0.00024205614546 0.0026345913267 0.090032865146 -9.297823492e-05 -0.0011142335656 -0.018163864082 -0.00013918836569 -0.0013694675174 -0.033256845497 
0.00023620122253 0.0027171600572 0.042428531467 -0.00018659541945 -0.0081332671746 0.15243078921 0.00079373913651 0.048618442933 -0.31155264942 
0.0060124794983 -0.062783719535 1.3300592309 -0.0075078908323 -0.0026023230389 0.6130914183 6.2846775541e-05 0.00057973140625 -0.071028865821 
-8.491067573e-06 -0.00010214070388 0.027745636048 3.9402772474e-05 0.00025488980662 -0.046594914939 5.6122978899e-06 9.4362018744e-05 0.0052834984003 
9.3878793438e-06 5.6792981283e-05 0.015226365601 -6.3126676444e-05 -0.00055943753623 0.029412928701 9.5139227746e-05 0.0011276509185 0.045268829072 
1.1490469684 11.661552998 0.0092857840569 -0.057860746448 -0.73660640449 0.0059394143172 -0.11364174949 -1.2070907039 -0.0048907815687 
0.0019270328265 0.004006535956 -0.32397440277 -0.00029713371842 0.00033572143287 -0.09066198919 -3.3414469237e-05 -0.00019345420684 0.082890941875 
0.00013851581178 0.0003641031047 0.10214935807 0.0002632056943 -5.4320753748e-05 -0.057390532486 1.960334472e-05 -9.3370368914e-05 -0.063177711695 
1.7354850346 8.8656510745 0.0080710345315 1.428139957 9.8393658783 -0.0050721111184 1.1560685898 10.370387139 -0.00072347857256 
-0.00029295948611 -0.0038917105074 -0.0046492849113 -0.00025973890793 -0.0028732376161 -0.01627155705 -2.9699349778e-05 -0.00023935335627 0.014956109284 
0.0033384779422 0.028557079233 0.016352441989 4.8656696075e-05 0.00012417354095 0.042419868622 -1.7360370645e-05 3.6418942e-06 -0.010991737682 
-2.7796501615e-05 -5.2378109374e-05 0.023629916547 -3.4081706951e-06 -8.2460296561e-07 0.0024125410474 -3.757821986e-05 -9.7305368845e-06 0.028335040883 
-1.3355030507e-05 -5.2814837037e-05 -0.026727959127 5.7461784121e-07 4.1709616782e-05 0.022601792002 1.9113683822e-05 6.2448592935e-05 -0.028812560246 
0.001366764697 0.017852085994 0.14935111766 -1.169219592 -6.697211487 -0.0038650794413 1.2547012434 7.8618505372 0.012638096303 
1.2208221532 6.4986454866 -0.0081305566552 -1.2569164942 -6.2309093461 -0.0029269807395 -1.262390241 -4.4127607097 0.0062341967897 
-1.3262390945 -4.9242506524 -0.0053629949295 4.387725585e-05 2.6394657214e-05 -0.060677920522 -5.5212462241e-05 9.3164239894e-05 -0.058829452511 
5.5096235487e-07 -2.2262754351e-06 -0.0015358672016 2.1388165438e-05 0.00012877082067 -0.030589773915 -1.9822937093e-06 -2.5410015675e-05 -0.012333231872 
0.0060137238757 -0.27766333215 1.4482645732 3.4970301163e-05 0.00038793558129 0.046800712104 0.01800910758 -0.24915786251 2.2314288961 
-0.01443225127 0.5885486451 0.030424277375 -0.098211155087 -0.47805949259 -3.5402356472 0.011855355003 -0.02535602902 -1.1510891051 
-0.00032500888469 0.072738955218 0.0019206269839 -0.00021892357415 -0.14509434743 0.29869500995 0.0033493957641 0.13477788742 -0.80699538752 
-8.0421487213e-05 0.032243934639 -0.0014951216697 -3.0620084187e-05 -0.1017424158 0.0039368488071 -3.8414785685e-05 -0.044391513284 0.004272608387 
-1.1012906589e-06 -0.0016356498497 -0.00093343096922 1.4289801798e-05 0.00050901347527 -0.016043993743 1.7749032022e-06 -0.00020089425509 -0.0032318579401 
3.0651897505e-06 0.0023494610494 0.00080743898356 6.1359345462e-08 -0.01680994595 -0.024886691564 3.7021649061e-06 -0.0014909793477 -0.023815938664 
-6.4424817561e-06 0.0095835532368 0.029654790953 -2.9719979096e-05 -0.0076275393495 -0.047472305069 -0.0072033220027 -0.12291394968 0.32241604656 
0.035305465325 -0.15109512555 1.5771458142 0.009562951103 -0.24627962107 0.79958719713 0.021619369931 -0.12818076842 1.6917279668 
4.469334062e-05 0.0035088278568 0.11020607852 2.0417228035e-05 -0.002367620566 0.039010409226 2.3945478264e-05 -0.02323317124 -0.0017872868902 
2.3115332221e-05 -0.017523182141 0.012427662706 0.017957540889 -0.28042150873 1.7618702897 0.018010597408 -0.20797223952 1.5065947901 
0.02146608244 -0.29395694664 1.4888450564 0.04190718045 -0.56193055711 2.5880073032 0.028272119331 -0.85362868052 0.28121044723 
0.052292991996 -1.1367034483 1.1357275935 0.012079659714 -0.071803328731 2.171541306 0.011099428107 -0.11888875118 2.335132836 
0.057763151261 -1.7708541168 -0.31699107144 -0.026132345041 -0.27284683958 -1.6340025997 0.049198239043 2.6770786018 1.3798910019 
0.00062248207579 -1.15967501 -0.074976139505 -0.0066068301611 -0.61950314638 0.03527658843 0.0013309076144 -0.19186289466 0.3177308384 
0.0005340160114 0.15473583383 -0.050054977269 0.0065719569505 -0.21579837794 -0.66486414762 -0.040282976209 -0.44528942015 -3.7127533329 
-0.0021179884942 0.51096858023 1.6023551862 -0.0047395174814 0.12460692355 1.6246512655 -9.5594561893e-05 0.032419113636 0.036260537389 
0.00066821496146 0.24163581305 -0.10568109945 -0.0023795206608 -0.28563828 0.5575380556 -0.00094537319707 -0.19943702463 0.13094675407 
-0.00026510613918 0.07538375324 0.0056650956765 0.0037414594503 0.16420090607 -0.7308885236 0.00086820421927 0.052352402412 -0.27814327041 
7.2688876643e-05 -0.048890200515 0.0046622105731 -0.00037126858192 0.034139608508 0.19751817604 0.0013465851537 -0.040328062485 -0.53365128564 
-0.0001030419276 -0.30081048448 0.61321412838 -0.00028737315221 -0.6144266212 0.5573409128 0.0039928341108 -0.045455371443 -0.61344163922 
-0.0032577198124 -0.44856833341 1.2324690867 -0.0013666801374 -0.49912698249 1.8291883363 2.7667102506e-05 -0.027756412964 0.00060830074558 
-1.1381547312e-05 -0.006608436647 0.011601295773 -0.001687440281 -0.10558071666 0.70981961128 -0.00046466145184 -0.13745008801 0.54343849765 
0.00010345410481 -0.0055952709818 -0.091852741141 -0.00015064281315 -0.098264655934 0.005989817648 -7.7390750557e-05 -0.13111644375 0.056103373497 
-1.6346455733e-05 0.036205591142 0.001595436111 -1.643338162e-05 -0.050727129738 0.10088577942 -2.3567388409e-05 0.016067082721 0.16521336636 
8.9012143773e-06 0.034634272887 0.028699984418 -4.7012039456e-05 -0.0058202730522 0.064403330894 -5.9248134136e-05 -0.08010299149 -0.041533176128 
-2.537017313e-05 0.010531270859 0.067156487386 -2.4520154657e-05 0.042270051949 0.11207434875 4.8885455209e-05 0.056137000925 0.03074923204 
-3.8349462432e-05 -0.0046686518427 0.029197336353 -3.3801065803e-05 -0.047070880145 0.010556533809 -2.5251395111e-06 0.0014745762004 0.0056899400047 
-5.343049079e-06 -0.016761592597 -0.015570745382 3.4194511948e-05 0.029041081018 0.00082642181261 1.0769528427e-05 0.0020648807921 -0.0073312879222 
-5.332582038e-05 -0.0355882761 0.017337584026 -2.0262700259e-06 -0.0014842976846 0.00028455452918 3.3814174613e-06 -0.018625131198 -0.041245286136 
3.9142422497e-06 0.012309046593 0.018155597373 3.8347425269e-05 0.018184109245 -0.016633614017 1.2364088782e-05 0.0072136886125 -0.0059594062348 
-2.0873809834e-05 -0.018504023812 0.0034262169735 1.9093589692e-06 0.0050661023026 0.026799210236 1.4350967661e-05 0.013050158843 0.015318099297 
-2.9458873016e-05 -0.0021785986785 0.025625148688 -1.967549161e-07 -0.00016851551582 6.3680748726e-05 -4.9306510038e-06 -0.017066374349 -0.019830684394 
-1.742657892e-05 -0.029262375961 -0.017511312989 2.0092084075e-06 0.0050508576631 0.0095068524715 4.2884821199e-05 -0.0012702265571 -0.060730025639 
-1.9440069585e-05 -0.020321012028 0.0016656602343 -2.7176096666e-05 -0.028277354235 -0.015786055547 -1.3013622832e-05 -0.043394667788 -0.036198512196 
-8.3205025992e-07 -0.0077515509252 -0.035306980255 4.0647925469e-05 -0.023740175177 -0.08831789423 4.4117755712e-05 0.03797668765 -0.014918479116 
-1.9229654561e-05 -0.024556104946 -0.029607746904 -9.8817698097e-05 -0.026258564328 -0.12999105298 2.8878495678e-06 0.0037020567776 0.0038862148504 
1.4302117194e-05 -0.0057778981516 -0.054389382799 1.1584864419e-05 0.0053110959698 -0.020267382891 1.3372616812e-05 0.0034689221849 -0.057212011969 
-7.7067708204e-06 -0.0042834116917 -0.037500950948 8.4335010774e-06 0.024722307821 0.004121298025 -8.1829501734e-06 0.050832425178 0.015232564583 
1.52605166e-05 0.020613545552 -0.0051993930088 2.4685623232e-06 0.0061758873932 -9.4555427995e-05 3.771010492e-05 0.10474853011 -0.0083746092961 
-4.9885575793e-06 0.014243696955 -0.001116114034 -7.8056661742e-06 0.014112806155 -0.034847999284 -4.2821650816e-06 2.1302980628e-06 -0.026198298483 
0.72122383402 2.8140017889 -0.0015177254925 -7.0670031014e-07 0.00074464913995 0.18946884839 1.0040738945e-05 4.5320782634e-05 -0.021084511311 
-0.039657193414 -0.10367860675 0.00055526797971 1.4607326068 9.1513222316 0.0015322221572 0.35171247826 2.6997598656 0.0023584750085 
0.0073911219537 0.016884766467 -1.1911284852 3.7231962479e-05 6.0650682176e-05 0.046660892037 -4.9863573124e-07 -5.3045309182e-05 0.078595852651 
1.7226569005 6.6956654554 -0.0024485950194 -0.023773125385 -0.14081531988 -0.0023710601924 1.8040091147e-06 -1.5694517503e-06 -0.0060634628909 
-3.63359294e-05 -9.1593202652e-05 0.062005622583 0.92952211873 6.8914441504 0.0028391820426 1.0798424454e-06 6.9335969922e-06 0.0030466633489 
8.6199227983e-05 0.000278314308 0.020449191808 4.6192156544e-06 7.4344438889e-07 0.028465872102 -0.025484026317 1.2397055529 -0.074989200863 
0.00055858115745 0.00080295837481 0.74682899826 1.4759763866 9.8691909547 -0.0030279911315 -0.053488309778 -0.51679143385 0.010109214512 
-0.060655215414 -1.301228339 -0.0027922794183 0.93185369357 14.056325489 0.0023256625637 -2.0861485853e-05 2.7734893055e-06 0.053553145909 
-0.0013343165353 -0.042149143611 -0.93782678956 8.915743356e-07 1.1510084321e-05 0.0048024743121 -1.8816971092 -6.4007116309 -0.0074105798194 
0.81971637766 4.2484257272 0.0054574385532 1.4547356621 6.3655978742 -0.0013931109147 0.016596077675 -0.15888368275 2.1104081355 
-2.4448920087e-06 -1.3368644425e-05 -0.013679951512 1.1416030814 11.006036511 -0.00085044241629 -0.36835767359 -4.3717155507 -0.0047616778634 
0.2956034385 1.607606589 0.0013618469673 -0.069940970202 -0.80559592465 0.16365582825 3.8228657989e-05 9.6533727608e-05 0.046837824817 
1.3191134353 3.5365998901 0.0038701455767 -3.534042554e-05 0.00011898941938 -0.04083711577 -0.014809719581 0.0025289261169 0.26761953847 
-2.1018687721e-05 -4.7376866838e-05 -0.049368624201 -0.00055835681723 0.0002066713151 -0.073943003218 -0.00011085658897 -0.00046678052261 0.017286854659 
-1.0273741763 -3.1447227062 0.0025587852109 6.9026997275e-05 0.00081764342247 0.087616030621 0.0054799762835 0.043159265968 2.3506240749 
-1.4164082121e-05 -0.00014239897256 -0.017168750911 1.0369033177 11.781192075 -5.6852094483e-05 -0.038926704144 -0.62045512191 -0.0031993455189 
7.8205994936e-05 -0.00045194157824 0.13377273041 1.454244609 9.7655516916 0.004454379161 0.0071807552952 0.072929470623 0.013082417129 
4.4243923707e-06 -1.1370699142e-06 -0.012934306897 2.5318908465e-05 -2.3980341279e-05 0.10439459749 -6.6435279448e-07 -1.8269759804e-05 -0.012717300517 
0.0010298513598 0.001378133566 0.19463500466 -0.0021019849246 -0.014624277917 -0.84902505144 -0.011770268337 0.059145211656 -0.78157101476 
1.2786800797 7.346899928 -0.00064218347734 -0.2472606721 -1.0859288245 0.0026497125427 1.1397641076 4.1414475518 0.0010121116407 
0.00070614211708 0.0016798665192 0.044202788512 6.5591272077e-07 3.7277521901e-06 -0.0073350832233 9.4421982081e-07 2.0324406928e-05 0.012670799417 
0.81205523629 9.6735966357 -0.0021701242826 -0.0031992102928 0.26531162961 -0.31955399784 9.0685082179e-07 1.5616085177e-06 -0.019658739289 
0.034093064948 -13.369450629 0.13362382943 -7.4041524424e-06 -8.7181896111e-05 -0.0019587106957 1.3452280022 9.7834175461 -0.0012521172834 
1.7837583314e-07 7.6791365433e-07 -0.0010056633618 -9.9388541373e-06 -4.5135361041e-05 0.02721237218 2.9386673691e-05 7.7620894002e-05 -0.019464250178 
-6.8796227576e-06 4.2918209952e-06 -0.0018456386452 0.68329741898 4.5260155077 -0.0043273826122 0.91484210749 14.300939152 -0.011847659333 
0.11755009937 2.7136869288 -0.0062089100081 0.00021827377531 0.0027238120689 0.39106480246 -3.377302703e-05 -0.00034440513055 0.033365858114 
-1.8993483692e-06 -9.5565023628e-07 -0.0031843041939 1.0608082322 4.680785952 0.00093391875937 0.52509316991 16.300641877 -0.014542000597 
-0.0067323292023 -0.5543005729 0.020497924458 -0.27388306473 -1.0185426691 0.004500033131 0.5048460952 6.6930596898 -0.011057460188 
-0.0020092207869 0.00052854968757 0.14843441668 2.0452680714e-05 5.3893007085e-05 -0.011665207166 -7.2107720537e-06 -4.3059229535e-05 0.0051472801708 
-4.230161309e-08 -1.5235144937e-07 9.5583866236e-05 -1.7737436651 -7.3376272396 -0.0010888917331 -1.0386116329 -2.7123936545 -0.0066361422286 
1.6697330902 7.6936206583 -0.00076774421637 1.6006627628 5.1996641388 0.0028460150546 1.5718843595 8.4085018747 -0.00031171143389 
-1.4615449173e-05 -5.035595462e-05 0.036860824614 3.1275236263e-07 1.2938955043e-06 0.001207946448 -0.59366582236 -2.7561420286 0.0025671553443 
0.25108121972 2.8195695563 0.0010720884512 1.3086817093 11.213377027 0.0035918199612 -0.012614058774 -0.59156138139 0.91597131229 
0.0013640343562 -0.006464961921 -0.41120392768 0.0064498626711 0.0077143915049 0.56037340711 0.2096351261 1.5217356378 -0.00079797428372 
0.8003237857 11.005452042 0.0043416942491 3.5286998106e-08 1.7959107755e-06 0.0019596161098 0.002554616498 0.047910736814 0.0058456521231 
-0.00020046040256 0.023123785208 -0.12066361782 -0.083511293541 -0.55864950174 0.0010243278855 4.5918608938e-05 6.1686964325e-05 0.037990799264 
-0.66757359528 -13.447460481 0.0033437131282 -0.013463561876 -0.4104168672 -0.0017141232997 0.69523513828 2.2974312502 0.0009221696647 
-0.49754906916 -2.9004045716 -0.0017824502187 -0.0040644389385 -0.025987246047 -0.96118325724 0.011995685742 -0.072040710351 -4.2398570778 
-4.9549511838e-09 1.2810307731e-05 -0.015137513879 0.099603747526 -0.76847429374 0.072293769403 -1.7919961543e-06 -2.4699339719e-05 0.0010539102385 
0.00010785905802 0.0022834839167 0.42001158211 2.0373179852 -0.0047029877517 0.049160231893 1.1944662272 8.462255901 0.0028916717525 
5.361777321e-06 1.5134281074e-05 0.013190742993 1.3797764197 6.8639352298 0.0048934458206 1.8538753465 8.9822216325 1.8756484877 
0.056600047979 -0.23135493038 3.540239496 0.00014702018438 0.0029748580161 0.28182520746 4.3019808339e-05 0.00027198465497 0.017425233088 
1.4358597175 10.172020353 0.0024624794519 -0.16050371248 -1.6993765638 0.0026030310861 -2.6251611285 -15.70872131 2.2271453208 
-1.3302835262 -4.3035142322 0.014553308917 -2.0853157355e-06 2.6671636982e-05 0.023887427275 -4.4528750147e-05 2.3632643262e-05 -0.019965737447 
-6.4111533706 -0.12955234628 -0.080326301784 9.376584763e-05 -4.9371236629e-05 -0.035056032391 2.1242249782e-06 4.0332126259e-05 -0.0042017875966 
-3.0690149794e-06 -1.0621930571e-05 -0.0079168301886 1.3392602311 9.200667312 -0.0049838847741 -4.6192801303e-05 3.7938226955e-05 -0.011154027956 
0.0045258960573 -0.04392004509 -2.9394130221 3.1511273818e-06 7.5313626565e-06 -0.019027892789 0.73009187838 12.813189512 0.0011578265317 
0.19665520995 4.5016884842 0.00085972830174 -0.0068946593801 -0.15480225482 0.0098056759834 2.869614126e-05 6.8251790055e-05 -0.07702198022 
0.72430203483 11.526343393 -0.0042120908748 -1.9692453706 -23.561126938 0.28128149219 0.61731383446 5.3027742242 0.0038130314691 
0.83688443567 -12.236645844 0.29265211511 0.012471221472 0.00055211623684 0.23619383802 -0.28473217021 -0.81491112969 -0.0036621666627 
-0.0093728871148 0.031082349562 4.9777825072 1.8434487959 7.8025177533 0.00010601470618 8.7657295254e-05 0.00019939886774 0.0032738539988 
-1.7114956971e-07 6.1999322961e-08 -0.0088327999814 -2.9676431188e-06 -7.5554149366e-06 0.0027548203682 6.50170192e-07 -1.5601462708e-05 0.020871103729 
-1.0885916167 -3.0666865715 -0.009156624999 0.00092206740883 0.019871031438 0.76933528599 -2.0380091276e-06 -3.0591240225e-06 0.0028040627665 
-0.00011467466909 0.014168281841 -0.30916708854 3.6729184079e-05 0.00011733208821 -0.057084161276 -1.2286662701e-05 -6.3319556141e-05 -0.0044885244065 
4.2804304186 -0.50566714821 0.011167696959 0.00018646862327 0.0018568065467 0.27686858947 2.4913470864e-05 -0.000143934692 0.24433431766 
0.46056046924 3.9309859596 0.0058247057279 0.65429473302 16.408066678 -0.0049780910661 -0.024813885638 -1.2653386273 -0.00095090645387 
0.072900325254 0.32288112942 2.0394732133 1.0356894171 6.0935123834 -0.0038219999989 1.2363345826 11.694064688 -0.0038213009074 
-5.4291742727e-06 -1.131002304e-05 0.017684268495 -6.5998780627e-06 -0.00014805843853 0.011849432205 0.00011946100687 0.00055909022863 0.23512724875 
-0.13193083067 -0.69987572071 0.0078615852926 4.9618781295e-06 3.7245171463e-05 0.024090777286 -1.4930500959 -5.7962141796 0.0073787642948 
0.077393113908 0.84835454412 0.001025796434 -1.3814634591 -4.7346996045 -0.0055301101957 1.1571956981 4.637878379 -0.00055349769103 
2.1234903627e-05 6.3487789246e-05 0.031866253034 -3.6195838204e-06 5.3142256889e-05 0.026139750616 -3.0905730669e-06 -2.7225281262e-05 0.010022470148 
-0.03475191672 0.36426585343 3.371484656 -0.0011930316569 9.4853336882e-05 0.31693109728 9.2157146295e-06 -0.00027915536787 0.13888766011 
-1.2707153939e-05 -8.4140876235e-06 -0.014819515849 -0.023644058391 0.18582553394 -1.8942178198 0.00022915829729 -0.041341784701 0.14609646852 
1.7333703227 8.4520543224 0.0038543354734 0.7304509864 10.738938953 -0.0033285222198 -3.5967800895e-05 1.1894063921e-05 -0.0086178419586 
2.5929469065e-05 0.0003963676772 0.026874359063 3.5593335413e-06 1.4865315695e-05 0.019315886141 4.3689845851e-05 0.0009020842649 0.0093859529434 
-0.00037383817585 -0.0013730598396 -0.0090694180054 -1.1240786046 -5.6957956895 -0.0091091769523 0.00082368272429 0.0062875110611 -0.01139895262 
1.3622664322e-05 -1.6209333647e-05 0.042704081852 0.3798244419 15.080348694 0.0019965874083 -0.0023127269293 -0.20189691375 0.0025881967227 
-7.1014045986e-07 -7.8398188676e-06 -0.0016538848913 1.3413579252 9.4939775327 -0.0085268611971 0.19300179034 18.510689101 0.0091822973639 
6.6093691983e-05 -0.12409305224 -0.014200362741 1.5243424159e-06 1.1076049914e-06 0.0078178552338 -0.10361932212 1.2560325254 -0.42590793479 
0.33406299642 -4.8235272071 0.15988541382 -0.022407930713 0.23526296717 0.80813170464 -0.73960320758 -7.7043330317 -0.13555520607 
-0.91667951747 -4.580584637 1.4464488041 -1.642691353 -17.872183282 1.1658186247 4.407522356e-06 0.0023476696804 0.017920013523 
-2.838196338e-05 0.01385069876 0.083986148221 2.99674937e-05 -0.066471272633 0.0027200044044 0.072293882323 19.88937216 -0.003787956856 
0.11909003141 19.676137328 0.016078007046 -0.11173050391 -17.754388019 -0.011646984058 -4.2614131381 -0.53529380377 0.03687563565 
-3.9617030983 -0.10761655172 0.057361693144 -6.9397273464 -0.091294471256 -0.11591212691 -1.9577575076 -0.44494160354 -0.072588701749 
-1.92914269 -0.28176652933 -0.12961735545 -5.1908287153 -0.097619162707 -0.38851593032 -1.1598453822 -0.38648653872 0.36950944044 
0.70739311219 0.2128843018 0.36072453949 -1.1514286419 -0.06040463396 -0.012712474658 -0.0075665232002 -0.0010986162497 0.22854114604 
-0.0036133309272 -0.0012494340458 -0.11725675806 -0.0014405076718 0.0079946375164 -0.65953236776 -0.013682743819 -0.0064226702343 0.70380265729 
-0.0026704612313 -0.001329744783 -0.1823745848 0.026742216735 0.035940739492 1.7025802304 4.9821376426e-05 -0.00012142776101 0.0070862302578 
0.0054965753049 -0.0087616219756 0.64970564909 -0.76582760148 -2.7266607415 0.099015054038 -0.17564007209 -0.50425698006 1.0986216149 
9.944780082e-05 0.0048748390175 0.14189636817 -0.027054264846 -0.11295308392 -0.036103861434 -1.5616629056 -5.5967997842 -4.2020352285 
-0.045857998478 -0.24273219359 -0.12309370859 -1.5220400147 -7.8193653666 -1.3766071484 0.35272528252 18.476294346 -0.0071548086888 
0.37129879284 17.675293616 0.020826281924 -0.31555431564 -18.43590085 -0.0012709533199 0.59769134209 16.378054778 -0.024359459344 
0.3792172001 17.389219571 0.0046135110002 0.55357708663 16.535575029 -0.025260522447 -0.54130250826 -15.325882215 -0.0042580609731 
-0.80017362343 -15.370902592 0.038083722332 0.44064681226 14.613759871 -0.0080424688245 0.38711654957 13.008209415 -0.0018347066642 
0.82937073773 13.660077188 0.035353687654 -0.50976035842 -11.36627821 0.0044512865319 0.41765923083 9.6375505742 -0.0042653158673 
-0.79294059658 -11.195528727 -0.019757677832 -0.32951158155 -8.0532033068 -0.0030958058502 0.24355485561 6.3127182832 0.0077590974375 
-0.65642942621 -8.1766131387 -0.0038001939772 -0.11787639753 -5.096436028 0.0018749549865 -0.075823445181 -3.5530784171 0.013707625954 
-0.33579533128 -5.6602667846 -0.0010664675781 -0.063368434305 -2.7246799271 -0.016609839553 -0.033741433398 -1.6959871668 0.02278026572 
-0.15385222284 -3.5271706644 -0.03800310694 -0.0083587295765 -0.85578823535 -0.023436983045 -0.0030967074261 -0.43964690851 0.0010285652979 
-0.058752050985 -1.8897353986 0.04690560105 -0.00046158137311 -0.11504772067 0.019118617171 -0.01441069703 -0.9121233593 0.0065233733946 
-0.0016348180229 -0.30311563612 0.010626993538 -0.87934827954 -24.642143373 -0.55264716625 -1.0450728762 -22.33048593 -0.068310941002 
-1.5531775524 -13.272708884 0.69838331191 0.062362136637 -17.976817355 -0.19447261616 -0.022538786627 -21.908148168 -0.20872564422 
-1.0367611824 -20.076654157 0.36527807133 0.49429556235 -11.182283074 0.04198487642 0.62201470145 -18.466338584 0.061213206893 
0.47822499951 -12.76983312 0.20898144851 0.60046410045 -6.0503384673 0.093361011531 -0.0088008839813 0.079004634238 0.48231483835 
0.032828830644 -0.33611491164 1.1047763959 -0.029327783977 0.20057067937 -0.029651266707 0.072002789792 -2.344891964 -4.4611144153 
-0.055371708552 0.61717774598 -0.93674612678 -0.005375752077 -0.010591358788 -0.76455799 -0.049715213595 0.53126484356 4.4609988814 
0.0016350044026 -0.029819571794 0.4935215233 -0.0021266711792 -0.054746349256 0.65267809983 -7.8474804109e-05 0.046010612185 -0.040712669046 
0.0058910193359 -0.053003344368 1.9480862995 -0.012370411026 -0.72286224086 2.8632639091 -0.00058992503097 0.033831347428 0.28957407304 
0.00028317082272 0.020162351669 -0.088059016334 -0.0012023048502 0.19116817901 -0.067133917483 0.00077464135588 -0.1710504779 0.018488320786 
-0.00012320248204 -0.012348065972 -0.13246244321 0.0016018553882 -0.24418552284 0.60298645325 4.8505428361e-05 -0.00984355436 0.3430763308 
0.00059616823024 -0.070860209563 0.57448925721 0.00055987068443 0.099967649621 -0.43387947172 -0.00025832135361 -0.0053135355308 -0.24287434359 
-0.00032501927225 -0.089772900632 -0.65650882856 -0.0023078011 -0.087073724516 -0.94294871146 -0.001442063178 0.016625550029 -0.46605862793 
-0.0012706099859 -0.10588495645 0.080948502234 6.1699062474e-06 -6.7053595027e-05 0.034681758023 2.2817616092e-05 -0.0012327965671 0.074150009009 
4.675900075e-05 0.0040242150193 0.099913788086 0.00015327940657 0.005375335574 -0.012949931055 2.2651103347e-05 0.00077473717162 0.0061652276145 
-0.0001575039475 -0.0035835771303 0.03680885155 -0.00024082383128 -0.0029398902681 0.069631308348 7.6242925139e-06 0.00014317111076 0.020303755396 
-0.00018899706106 -0.0070906031806 0.010045314152 4.292755982e-05 0.0017632508389 0.018241285638 0.00011596830958 0.0023126100971 0.035500936769 
2.2818582057e-05 0.0007635255857 0.0012697372665 0.00024180086614 0.0082405061769 0.029733306701 3.2816979681e-05 0.00082969923031 -0.013834912868 
2.6383830077e-05 0.00038339421487 -0.0029818075463 3.0203162094e-06 5.3158920161e-05 -0.0011835726919 0.0010520184077 0.025361389794 -0.0049733148882 
-0.000562934171 -0.013812493193 -0.018265102862 -0.00033847424063 -0.0052800647274 -0.058489441106 0.001476330153 0.062920304037 -0.015253796597 
-0.00022313032922 -0.0096556102702 -0.0083358222285 0.0013165094619 0.020429121608 0.058121775324 -0.0024859045662 -0.093121115771 0.0086729761695 
0.0010883632165 0.040303501327 0.013543768761 4.0075078597e-05 0.00079771408185 0.0012751868386 -0.0030996674764 -0.13981569693 -0.005843964578 
-0.0018800905254 -0.081267322858 -0.0082787010259 0.0014033244176 0.028543702466 0.0057002206306 -0.0026719021992 -0.17267602883 -0.0095970206817 
-0.0042149073642 -0.23178291243 -0.0082602506082 -0.0089415882639 -0.27593231131 -0.033363002666 -0.024756215349 -0.52129888035 0.00077945437592 
-0.018896347432 -0.34867390687 0.016163319128 -0.00034160438426 -0.081567129552 -0.0038013050339 -0.00054827400162 -0.092953068564 -0.0011383859668 
-0.0058388930434 -0.26460334345 -0.018096120107 -0.00058526290838 -0.12517712981 -0.007949527895 5.9526296586 -0.25353111518 -0.099296161751 
3.7818644455 -0.27900100971 0.03487255623 5.1675711284 -0.19669285296 -0.077432631963 -0.0052932429872 0.0009812241828 0.10131591457 
0.00054810924136 0.00024675892678 -0.059326754985 0.53828836887 -0.090660316521 -0.044797512204 0.56207715275 -0.11487203929 0.003520873123 
0.0017548629043 -0.00029100087802 0.16175930213 5.2584202375e-06 -2.9943029242e-05 -0.0088317107984 0.0003424857516 0.00085762079621 -0.055609029016 
0.0005168204817 -0.00045361922095 0.055612533866 -0.061825892384 -0.22324012581 -0.013328492517 -0.67982867133 -2.7347903895 -0.030197688156 
-0.0001420221244 -0.0010506994908 0.073448711749 -0.90019492483 -4.9035515824 0.013920254414 -1.0424795366 -6.4485562678 -0.0056251165244 
-0.72796611482 -1.9896814579 0.0047571533198 1.1323189665 7.8164837825 0.0022909179445 1.0858292431 8.6725462085 -0.00040561101491 
-1.5933218639 -5.958881206 0.010343718374 0.74660500557 9.3990883731 0.012828761355 -0.70917211861 -9.8957667898 -0.0094005013735 
-1.6013878847 -8.3581963261 0.012613685825 0.76477001797 10.146800479 0.0024865024208 -0.69536840282 -10.427918982 -0.0076372772057 
-1.3385431258 -9.5448431249 0.0018622129343 -0.38277457817 -10.804578749 -0.00097464583475 0.36064184291 10.985518423 0.0055743801159 
-1.0387270531 -10.298390474 0.000557740908 0.41797155802 11.136519478 0.0042505379411 0.39416605241 11.38425892 0.005876996513 
0.76316990547 10.875840673 0.0033089307872 0.37565591437 11.668141012 0.0032001206833 0.360928331 12.100003551 -0.0016016641632 
-0.76371432617 -11.293831022 -0.0040196931143 0.34653978627 13.023490144 -0.0071954585922 -0.34650939246 -13.899837524 -0.0056288703369 
0.55975278692 12.371083356 0.025175852369 0.86383235797 12.6389802 -0.0074298879239 0.89118175982 11.655136028 -0.011496190795 
-0.18626288195 -14.672777767 -0.0062582789582 -0.1889732988 -15.969239379 0.00059200120126 -0.52663442039 -14.253378613 -0.025862707773 
0.29589783064 16.719651446 -0.00024551054851 1.7598268149e-07 -1.1976285718e-06 -0.00070155881278 1.4280046648e-06 1.2268061835e-06 -0.0039598331639 
3.7689450262e-06 -8.5194671988e-05 -0.038898841065 -1.2945738995e-05 -4.8633387554e-05 -0.012682969201 -8.7923247806e-06 -7.6451078543e-05 -0.024184408181 
-8.4589182542e-07 -2.7940731909e-06 -0.0013210165115 -2.3447043184e-05 -7.3447947328e-05 0.039763853285 -4.8536933159e-06 -2.9280362794e-06 0.0090681040869 
1.3384444921e-05 5.1697298785e-05 -0.027679038664 -1.0299702619e-05 1.971972469e-05 -0.012108330719 0.00017111953367 0.00019317754565 0.10205808313 
3.0890934504e-05 5.1623729855e-05 0.040956783092 -0.47047623231 -1.9382246308 -0.002461575089 -0.49372043133 -1.8734463191 -0.011304909197 
-0.27713376174 -1.1200368784 -0.005492919597 -0.42330317109 -1.9071030984 0.017808310539 -0.66574879754 -2.8309717099 0.010623092491 
-0.92726574871 -3.4848830975 0.0087064879734 -0.92700641303 -3.1993092358 0.014291375458 -0.73120663878 -2.6308985059 0.012317061857 
0.93560031293 3.6915589054 0.0036699415719 1.1578482905 4.4099145686 0.0075661998726 -0.9103441768 -3.7586745933 -0.0045175773573 
0.81962971294 3.6947290092 0.0020497944161 -1.1151132676 -4.6948819067 0.0081926874813 -0.46336629805 -1.6152409423 0.0085937072087 
4.7892153118e-05 0.00066597956588 0.11576539365 -1.0188900275e-05 -5.1009686735e-05 0.083687001259 -1.7025575133e-05 0.00013602436158 0.086511245522 
-7.3574371161e-05 0.00063350142305 0.22539064635 -2.47602722e-05 7.657068197e-05 0.18659962416 -5.2185092808e-06 -2.5807598972e-05 0.03232015303 
-3.9124769226e-06 -9.7648037453e-06 0.013374158774 4.8438991618e-05 -0.00012028169428 0.13484844769 9.1625739824e-05 0.0022941281607 0.3243697928 
0.00028329950966 0.0036888386773 0.35435559086 8.2142140188e-05 0.0025597842853 0.41907617137 0.00046587222844 -0.0085601389695 0.45247563875 
0.00060949766438 0.0092451733675 0.37782997265 -3.709480808e-05 0.0048285092795 0.466457587 3.4468293372e-05 0.00018197422654 -0.022139075868 
-4.2105700064e-05 -0.00010987274966 -0.023354324993 -4.7960314537e-05 -0.00021029974514 0.033172030263 -0.0001138224411 -0.00041908186381 -0.058975360566 
-0.00012680957931 -0.0004922750834 0.054541987877 -4.8685319398e-05 -0.00020096438961 -0.045477717006 9.6657959482e-06 5.2805588195e-05 0.0099587633957 
3.6113440779e-07 -3.0539977934e-06 -0.0019855427547 -8.9170281524e-07 -7.2998531619e-05 0.030925856228 -6.2027485857e-05 -0.0003291149113 0.01265478676 
5.4385734628e-05 0.00027647326876 0.034472645544 -9.4083507742e-05 -0.00054836421198 -0.038200584494 3.9183703471e-05 0.00010151096371 0.007810698249 
3.0017219773e-06 8.412007793e-06 -0.0025644511194 -0.00042884649674 -0.0012007403248 -0.05676857045 -0.50704293278 -1.3172014403 0.013832551838 
-0.084189339002 -0.20483006604 0.016755514343 0.00013963466224 0.00046261357453 -0.037870327931 -0.00015792851327 -0.00047149901315 0.062476902173 
4.064571616e-06 1.1102168938e-05 -0.0024633165725 -0.19536902642 -0.53603463975 -0.0045946784916 -0.56076372462 -1.5101618116 -0.0019192192905 
-1.0801043482 -2.9466935948 -0.019831107357 0.6695174771 1.8943045526 -0.0021891444794 -1.3899883629 -8.2629002892 0.00013211456028 
1.4464385685 7.9985688611 -0.0015096316911 -1.3304181341 -7.1034315926 -0.009233129791 1.3319013919 8.4181610143 -0.0064178732891 
1.3998861607 9.3179699728 -0.005287060025 1.5208574264 8.7934151381 -0.0056707401661 1.4913984365 7.6350326087 -0.004097262714 
1.4675826239 9.6852619924 -0.0019004483857 1.5232629938 9.2670296154 0.0069877825029 1.4147609862 10.220764304 0.0052487413857 
1.2747042751 11.460334474 0.0068323608492 1.3984621873 10.448366309 0.0015240579522 1.3430323362 10.359447851 -0.0051732743998 
1.3538866191 10.964199488 -0.0063812355765 -0.50820701719 -3.6014735928 0.0025426465258 -0.59701848161 -3.6933615187 0.0060480810107 
-0.43063626985 -2.8533345241 0.0037237234207 0.41098257975 3.3110278641 0.0061385794916 -0.57001872337 -4.2588925971 -0.011930667441 
-0.30705776347 -2.7954018191 -0.0087104732534 -0.24897841139 -2.213213047 -7.5994617815e-06 0.20950198729 2.2818444259 0.0024199838009 
-0.34883116643 -3.3767898658 -0.010537460636 -0.278865783 -2.0813479583 -0.0032533233784 0.34235102882 2.2132145878 -0.00068979062976 
0.19090182799 1.6410286237 9.7600676221e-05 -0.011037549447 0.076782408107 -2.0701783051 0.00039488463981 -0.0021015721093 0.11667220179 
-0.0015937150608 0.020313974874 -2.0723884295 0.0043540509863 -0.024343583906 -1.8111344329 -0.01097053343 0.03888864411 -2.1936786613 
-0.0026885849871 -0.010859058071 -1.1659477348 0.0089308887606 0.029234550939 -1.5199719057 0.0050026375485 0.0015298329576 2.5883547382 
0.00081012586143 0.00031021048259 0.76941677147 0.010367194543 -0.059637802157 1.1155919115 0.0063152268388 -0.02618613486 0.73256636567 
0.021687978752 -0.12939059268 4.7772719845 0.00011021019479 0.00017079786142 0.084285308578 -6.7481523431e-05 -5.9291856215e-05 0.079499639596 
-0.00049650992536 9.4660519436e-05 0.083890648792 -3.1755474693e-06 -1.1916802303e-05 0.0026063658389 3.293215484e-05 -4.35144033e-05 0.032975985265 
-1.1279367289e-05 4.9078554704e-05 -0.03283451089 -0.00043832227723 0.00025259863991 -0.096487993107 -3.9516392721e-05 4.1921625418e-05 -0.015393947836 
0.00010635900108 -8.2097192428e-06 -0.06448390798 0.0001271992262 -0.00045679150193 0.11958052301 -0.00014485187923 -0.00076256401874 0.12844837083 
4.4625130653e-05 0.001480767409 0.29726453734 0.00010409185321 0.0011575569469 0.27515380757 -3.7245392661e-05 -0.00028770707482 0.060377510307 
-1.3506019677e-05 -0.0001517382499 0.061638043039 5.0279821136e-07 2.4895303549e-06 0.00064768771103 3.3460855753e-05 0.00023102100909 0.029180325739 
1.36278217e-06 1.3708252604e-05 0.0063783101683 1.309493405e-06 1.0117019986e-05 -0.0089623474304 1.1643264033e-05 2.6954214413e-05 0.021105745031 
0.00023295428987 0.0028774537719 0.23736658207 4.3552449395e-05 0.00020414111257 0.19886688679 6.7966411053e-06 3.0444198467e-05 0.0095693448716 
9.5848406086e-05 0.00082749782582 0.096257324199 1.707096907 7.213511129 -0.0058453984896 -1.6032106815 -6.2194412817 0.0096141440642 
-1.6065539342 -6.7558488045 0.0085521218171 1.7083483205 8.0637226441 0.0028151231181 1.7628127791 7.6016261598 0.0052696638244 
-1.690559584 -5.9899469581 0.010024243119 1.7957024127 7.2296506335 -0.00047528504906 1.7916109435 6.5484897636 -0.0084892798683 
-1.4855701283 -4.9663250669 0.00070476612221 -1.5807861161 -5.7482496305 0.0079111951895 -1.7945731386 -8.1663691953 -0.010456009853 
-1.4488347948 -5.2752609688 0.012914701426 -0.058619158829 -0.36785695146 -0.0092623185708 -0.11284924546 -0.66941985025 0.010070134896 
-0.072582039875 -0.40697888534 0.0013114047499 -0.012207970553 -0.081059028026 -0.0015509726007 -0.036701346193 -0.26142594723 -0.012778821704 
-9.0984049886e-05 -0.00056584567642 -0.0055333642501 -0.011150049876 -0.060602364454 0.0048424080459 -1.3305775664e-05 -8.8203059374e-05 0.0046501706538 
-0.00021928676959 -0.0015840379002 0.033872320396 -0.057410821974 -0.29547219351 0.016046260861 0.00025349014525 0.00026432655265 0.077243351544 
-5.6380127896e-05 -0.00013138201206 -0.0081266087067 -0.00029788112382 -0.00059632197842 -0.02309692428 -9.262286365e-05 -0.00024836997651 -0.025571972698 
-9.5304408454e-06 3.1080533922e-05 -0.011861584075 6.3524862322e-06 -3.9732260787e-05 -0.042402494841 -0.00016361763488 -0.00042793014723 -0.035579136379 
-1.1684551025e-07 -9.0028103791e-07 0.00059251371907 -9.2724999068e-07 3.8539454593e-05 -0.019629427593 -4.9679256556e-05 -6.0036639646e-05 -0.021844922863 
-8.8549038298e-06 1.0696009563e-05 0.011941391278 -0.00011132031421 7.61349141e-05 -0.047798745635 -0.00038851311165 -0.0006504274048 0.14497794702 
-0.00044186359527 -0.00046012669477 0.19334276761 1.3787399114e-05 0.00023046404855 -0.043110108883 0.00026356381732 -1.2528687433e-05 -0.157977771 
-1.8369751688e-05 -7.8311868378e-05 0.066751206687 4.6836423365e-05 -6.817603299e-06 0.059471696442 7.1803649515e-06 6.1094247087e-05 0.11236684497 
-1.4795427945e-05 7.7925510338e-06 -0.0071462792191 0.00023497639032 0.00026412306258 0.080176593605 -0.00016624211057 0.00011870566714 0.12115736996 
-2.1511186666e-05 1.2714803745e-05 0.021466122772 -9.9909277234e-05 -0.00019734158309 0.1194389958 0.90935732668 8.2618287465 -0.011542204621 
-0.71460074364 -6.819674559 0.016163014737 1.0269935297 9.085921034 -0.021078961119 1.0661371996 7.6946809324 0.0013009316115 
0.81241402279 5.671242863 0.0061932370386 -0.66014300362 -4.9211142741 -0.012077254737 0.76697935947 6.0850563476 0.0037000021958 
0.99507452149 6.5159781156 0.0079549053127 -0.85406519155 -5.298798433 -0.006181648542 0.5771813692 5.9869848124 0.0043850260494 
1.1310053634 7.2613427816 0.0065950328583 -6.1917889034e-06 -1.7741236714e-05 0.011460954456 -1.8619892871e-05 -0.00011982531495 -0.015613634923 
-2.1472166898e-06 -2.0732897945e-05 -0.0057697190431 -9.9679384744e-06 -3.8572699978e-05 0.0080225949694 -1.025372509e-05 -6.4508581234e-05 0.016486803614 
-2.7357817428e-05 -0.00013923057027 0.052891242127 -1.3280385706e-05 -9.4501176203e-05 0.016578759709 3.0570006975e-06 3.85393023e-05 0.0247925604 
-2.8239232651e-05 -0.00031789872339 0.021347424505 -2.2815328599e-06 -2.8095335717e-05 0.017114667753 7.4393414073e-06 3.8978270936e-05 0.021833734875 
-5.4062610392e-06 2.1789693167e-05 0.034633865594 7.3724534074e-05 0.00023906794593 0.013045358781 -5.6515676555e-05 -0.00024074959276 0.091678734518 
-1.7732301433e-05 -2.7161384505e-05 -0.018539060104 -7.1549540888e-06 -3.8817979901e-05 0.0060954569336 -0.093512361198 -0.28629914643 0.0071559796537 
-0.13324430146 -0.46532822373 0.014026031431 -0.30975030958 -1.0160307807 -0.024285823201 -3.2367351641e-05 -0.00012314077364 0.016413898872 
-0.13255390323 -0.4911251277 -0.0081523299576 0.52658226996 1.6230840447 -0.001596028807 -7.0656167894e-05 -0.00024507338796 -0.014262903404 
-1.4949554517e-05 -9.1090903038e-05 0.055245952544 -7.2994067605e-05 -0.00018748856345 -0.036915211105 8.3949323613e-07 4.1758759032e-06 -0.001299678165 
-4.8609638001e-06 -3.6922419639e-05 0.011955990384 2.0431403748e-06 3.9392921846e-06 0.0027579758141 -5.5663199078e-05 -0.00020331315569 0.074684068361 
-6.6392735488e-05 -0.00019586714029 0.030196909939 -1.267626964e-05 -4.0384521368e-05 0.010379786933 -6.6573193577e-05 -3.5887009491e-05 0.073940076968 
-0.0047480661123 0.019381513097 -1.2189312162 0.0098248272704 -0.18612052393 -3.6478196336 -0.0018499532364 0.051675623468 -0.50024210475 
0.00049779840502 0.032114384964 1.0791818132 0.00070435592931 -0.073080142355 -0.009055405984 -0.00067356352837 -0.209644017 1.3681258279 
-0.002301407401 0.32108464423 -0.55586808825 -0.0022013169027 0.53963647705 -0.18052134179 -0.0033789072799 1.161944007 -0.50083178742 
0.0026388693602 0.056726244071 -2.550869987 -0.00063667560361 -0.00070864476545 0.63437078507 0.0017824140605 0.0074932719931 0.82287271871 
0.00047127444529 0.0042284594301 0.5847099642 -0.00066218078904 -0.00018105117034 0.66649422753 0.0033430494688 0.010896042788 1.1098776783 
0.001364561468 0.052414370211 0.68919993631 0.01242463891 0.024742297633 1.5030224835 0.021283039654 0.16054742762 1.4975252557 
0.0029445906661 0.0041104784411 0.65596941436 0.00036184169992 -0.0017629712256 0.35516055882 0.0028864217483 0.0066549760781 0.55853030573 
2.3614377109e-05 -0.00013228040981 0.18659791884 1.2739986294 10.813907809 -0.0076286983487 1.4511012895 9.9971994521 -0.0023377374136 
1.2646405435 11.001468306 -0.0021973423757 1.1463207386 10.772875787 0.002960595612 1.4706237788 9.8228381287 0.0049588227486 
1.1973857367 10.490898322 0.0018044381753 1.1410429096 10.393678404 0.0077113464949 1.6402571108 9.1407504522 0.0050885634529 
1.6182286763 9.166112006 -0.00032708291987 1.6238532228 8.8049081282 0.0028129122433 1.6340766326 8.0946254904 -0.0092703185419 
-1.5594986269 -9.152254219 0.0012762209824 -0.029118073227 -0.28777563616 -0.0085909462584 -0.010493389098 -0.13970592853 0.012585375415 
-0.023983466379 -0.30415697185 0.0029820657308 -0.077418002927 -0.61490962321 0.010403181755 -0.035938983835 -0.28958321764 0.0034620193242 
-0.12117044452 -1.002217207 0.0105935366 -0.14529023356 -1.0073990574 0.016799291405 -0.062149073791 -0.63593850913 0.012523082671 
-0.14146352332 -1.2403931371 -0.0053275335918 -0.030250268099 -0.40925839466 0.0030926105184 -0.034637048085 -0.50584455483 -0.0097753094333 
-0.055010268365 -1.0039782066 0.0039318122442 -0.034696263587 -0.87335637915 0.0022166255052 0.1088240829 1.5440173891 0.0016112558777 
-0.091616884704 -1.1617626595 -0.00042906192269 0.09340465044 2.0219346021 0.0083164837245 -0.18675503414 -2.8060342674 -0.0067799219738 
0.1400949977 2.061627265 0.0014005841983 -0.042905551667 -1.2830400941 -0.0083849133759 -0.028277210692 -0.98626308618 -0.0046858491648 
-0.019900310261 -0.70170696127 -0.0038346100087 -0.0051915778795 -0.42739107209 0.03372483463 -0.9333409854 -14.171990188 -0.014211921499 
-1.1676554584 -12.654018389 -0.0023013140445 1.1643615394 12.745014125 0.011776836508 0.83078514778 15.300705613 0.0017592557779 
0.72495222613 15.11344082 0.011359782065 0.45341769369 15.70200329 -0.0075477826779 0.67969836225 14.658281007 0.0057506294238 
1.1114998912 12.89157692 -0.0015015305003 0.80196138134 13.708527056 -0.0049570820458 0.99108022844 12.62996714 -0.0021806517286 
-4.4405291301e-05 4.8399773902e-05 0.072403053355 2.4311076448e-05 4.4844226058e-05 -0.023518692077 -6.0600623522e-06 -6.0901450267e-05 0.092924213627 
-3.1290189165e-05 -0.00011783611381 -0.025627422672 -1.5224223976e-05 -4.4574696478e-05 -0.013405144143 -3.9895335725e-06 -1.2659861525e-05 -0.011199597372 
-6.4036462115e-06 0.00018797072936 0.076647383788 5.1312091932e-08 1.1577731556e-07 3.3808747834e-05 -8.7710564251e-06 -1.164759135e-05 0.0070288068307 
-1.0664968499e-06 -3.5526505045e-06 -0.0046548127988 -0.0024384348481 -0.093463750014 -0.77008733819 -0.00032609002325 -0.056355543392 -0.80397591661 
-1.1485651709e-06 -2.9983298423e-05 -0.0023747448967 1.9116433761e-05 -0.00011082684167 -0.030730720534 -0.00024638475495 -0.026652279794 0.27598202092 
-0.00036193233363 -0.0028426144614 -0.27844263753 0.00025709212109 0.0034223658439 0.15636408335 -6.235446575e-05 -0.00045346195608 0.270490204 
0.0001257679674 0.0010322905359 -0.036312626159 3.1523468109e-06 2.0829012548e-05 -0.00096894149132 -6.3737035272e-06 -5.6317484721e-05 0.0049485513896 
1.4488675943e-07 1.7070706201e-06 8.0171892995e-05 -0.00012550643465 -0.0011025655067 0.030477915416 0.00014154207133 0.0012752321489 0.024286734679 
7.4904701413e-06 7.5914218799e-05 -0.0026665744747 0.00011571058617 0.00080762243967 0.020231243988 1.6745263867e-05 0.00012683286022 0.016366631435 
-6.811725759e-06 -5.2910864753e-05 0.0060509284058 0.00014159371048 0.00080817699663 0.029162888616 -1.7958346518 -8.2839945486 -0.012609197299 
1.8030893969 7.9250817705 0.012032657931 1.8821151165 7.170298022 -0.0065624218753 -1.7082012503 -8.8356057797 0.00078102460952 
1.8697246878 6.8887534254 0.0095875028455 -1.6480756633 -5.0198564863 -0.027751181108 -1.556198344 -4.5626810033 -0.0267084945 
-1.5529844099 -4.7193101022 -0.0041500335437 -1.7456221699 -5.7611977417 -0.0018499202682 -1.375747293 -4.1496075825 -0.019018959758 
-0.7590092964 -4.4174032778 -0.0087878104339 -0.65245068749 -3.5764796935 -0.0047816598388 0.93929702624 5.169388691 -0.00054010205779 
0.94259044001 4.4959040446 -0.0015610293274 -0.70933892799 -3.4639983631 -0.0070150364076 -0.97335162016 -4.98005496 -0.0062614189289 
-1.0946998224 -5.1641333159 -0.016167361498 -0.55689877465 -2.8894050939 -0.0053160865151 -1.0817907766 -5.9033475009 -0.0073372043019 
-1.252658713 -5.4877502797 0.0095184689668 1.2342884353 5.7613078544 0.0055143384272 1.4273780962 6.6495128556 -0.0058150826036 
-1.3143714485 -5.4856279655 0.0093497996364 -1.5701428329 -7.0048412021 0.0096662981317 1.5376875349 7.3846397352 -0.0060778756722 
-1.4840874348 -6.1108020045 0.0077357714674 -1.3211878052 -5.19439184 -0.0015171335748 0.24986805388 -5.7118313401 0.011814759729 
-0.0052777098878 -0.025978046925 -0.480027503 -0.010187520565 1.061645965 0.30056622444 0.37290947154 -4.5517314371 -0.50155872868 
-0.017148986155 0.07784330409 2.5311368071 -0.012603230263 -0.0083375402794 3.1212621866 -0.033808522198 0.18945253714 3.37473767 
0.0036007698017 -0.017410801279 0.27244228798 -0.0062133023164 0.033447797433 -0.53312182916 4.4457253969e-05 0.00022578259598 0.058949998886 
-3.3906628073e-05 -0.00010299939546 -0.02455981079 -2.6410406775e-06 3.5070390517e-05 0.023582169778 -5.1402283401e-06 -3.1528130121e-05 0.0096080531886 
1.0283763869e-05 5.2273495374e-05 -0.024376253039 8.3607734844e-07 8.9071725556e-07 0.0016207376196 -2.4617187833e-05 -9.072612753e-05 -0.040476442149 
2.9515246369e-07 3.3241882286e-06 0.0017383716073 -0.9778187084 -10.400244095 0.0011428174247 1.1894667397 9.6848680308 -0.0013568079701 
0.98585328925 11.958646861 0.012513663736 1.0572147871 12.620076865 -8.6916111311e-05 1.2307477719 11.13168073 -0.0065547612958 
1.2648555699 10.262519546 -0.0064085080837 1.2766277873 9.0066366399 0.0017434206206 0.22693650734 3.5840655536 0.00069102246838 
-0.31237330651 -3.6030001513 -0.010257304127 -0.2857571588 -4.4097186899 -0.010493557032 -0.43811821749 -5.4861111186 0.00267294603 
-0.48627583216 -4.8646888585 -0.0069286972884 -0.41942692391 -4.1417868094 -0.015559174629 -0.53677712682 -4.6102324491 -0.0083329186611 
-0.28766549664 -1.4015228749 -0.0054651744005 -0.43886040903 -2.1914531207 -0.0066832322099 0.18842032381 0.90547909196 0.00014562147804 
-0.21140376303 -1.1352927323 -0.0068144345864 -0.39542110867 -2.2206949857 0.0088928561024 -0.26440985913 -1.6513069497 0.0076304939706 
-0.17953195774 -1.0775003019 0.004179040746 0.049863592908 0.95025166861 -4.620228616 -0.08240442083 -0.99594168472 0.35090694938 
1.5266216806 12.241785112 4.2394883857 0.00050653424588 -0.01675924484 -0.15392948875 -0.020055445821 0.52536273812 -5.026764668 
-0.18076999429 -5.2810213242 -0.12871367554 0.028532324943 -0.43948667032 3.4202222659 1.1025031663 12.115465724 0.28088384567 
-2.2488770983 -17.317048275 3.001914805 7.9030080597e-05 0.00026581222243 0.095495542814 -0.00010876632275 -0.00032915262515 0.063056336286 
5.0647491265e-06 -1.1857021107e-05 0.010452353104 -9.1221736486e-07 1.238474751e-06 -0.0038425406607 8.5470968695e-05 0.00016093111098 0.036881235405 
7.2131013161e-05 4.8464310685e-05 0.041572689752 3.6436787711e-05 6.8994741783e-05 0.047571686452 6.0182919894e-06 1.3224539701e-05 -0.0074382241308 
-1.7156271991 -5.531153162 -0.022730735988 -1.1685544639 -3.0755416202 -0.0031898002239 1.3575289612 3.9101442662 0.014223519617 
-0.67523524722 -1.6504313156 -0.0094780913502 -0.53202889083 -1.3070121602 -0.019763440913 -0.78469333427 -2.0066144085 -0.020421104766 
1.1662209437e-05 -1.7736350471e-05 0.0052677143991 -4.206277826e-05 -1.3609493878e-05 0.0061111263251 -4.5592180447e-05 0.00022240623583 -0.03470066707 
-0.00010732058039 0.00014518971986 -0.054860126591 -0.00013105770669 6.9651681771e-05 -0.050616152563 5.981270013e-07 -2.8716288486e-05 0.013537264533 
-0.00030885866224 0.00039874109475 -0.094225544237 -4.6972987312e-05 0.0003426044134 -0.056429191802 5.7822431141e-05 0.00025748134742 -0.044868659243 
0.0001548316254 0.00028106098862 -0.043393815729 0.0016966895367 -0.0019049984153 0.37322169006 0.00087979951333 -0.00054263624206 0.11687808706 
1.8479096195 -0.30901710864 -0.026333265185 -0.099460114719 0.01084459951 0.038467971215 3.476828451 -0.24578665613 -0.091420979577 
0.00083688285759 -9.8730836838e-05 -0.23993719407 -0.00085627920479 9.9252629279e-05 0.079096886102 4.362537312e-05 2.9761492445e-05 -0.040962537572 
-5.3622957294e-05 -5.0894169539e-05 -0.052012766175 -6.3408434488e-05 7.0664150294e-05 -0.11277054141 6.6700381148e-05 -1.4779052836e-05 0.0580700504 
-8.2088867257e-06 -1.4195189138e-05 -0.0033754294796 2.6349175336e-05 7.2666713823e-05 0.035334741683 -6.1886306799e-05 2.2392116885e-05 -0.013597982302 
0.00037305589323 -6.1492148467e-05 0.029014569371 0.00016654618714 -0.00011701944903 0.040716703418 -0.00029586839877 -6.1609803663e-05 -0.19317621315 
1.7508999021e-05 0.00030625344236 -0.12581291774 0.0033878023251 0.0002512411111 0.23075870908 -0.093059283801 -0.39552400177 -0.010456216325 
-0.10165260755 -0.39912024876 -0.0078700263532 -0.00044503751934 -0.0020481074361 -0.023969525615 -0.10122748308 -0.47427169725 0.0043759028239 
6.3291843672e-06 2.6535233012e-05 -0.0034212910615 5.8167673414e-06 4.9670703983e-05 0.011066592372 0.0001023059096 0.00041487857153 0.022981768848 
-9.7368044367e-05 -0.00049251574649 -0.0099419470241 1.3217666229 4.1593557196 0.0046857403082 -1.0603605453 -3.1239288794 -0.0060417942238 
-1.2218189744 -3.948614036 -0.011520529475 0.85613076991 2.7193235519 -0.0011841401237 -0.66655971708 -1.9649898786 0.012908066654 
-1.0443016068 -3.4980959476 0.00036556285112 5.8492628118e-05 0.00068329485173 0.055964280771 1.6638457017e-05 0.00021291996753 0.048288214629 
4.8313860807e-05 0.00072571131851 0.087417756191 0.00013581603725 0.0022087068913 0.082763322807 0.00012500380675 0.0014128254835 0.11421294689 
4.2419129477e-05 0.0012793527435 0.092800615293 0.00073550777546 -0.016849272433 0.91726306704 -0.001187074989 -0.0018785885054 -1.9222327424 
0.00040919682552 0.091470523798 3.4971762418 -0.0026835484239 -0.023169498296 1.147020812 0.011503419383 -0.015613062938 3.794386267 
-4.376050477e-06 -2.7044516454e-05 0.0022269009599 5.4458604035e-06 5.3637339952e-05 -0.0070567962266 1.7958587676e-06 -4.9198987592e-05 -0.017612133845 
-3.3217330858e-05 -0.0003970191034 -0.014190752945 1.4871408858e-05 0.00013086946767 -0.02175983322 3.3630851359e-06 4.3005379505e-05 -0.0035478557478 
1.1326730765 11.675223112 -0.00083595858878 -0.11816965263 -1.2767204848 0.0071628219184 -0.063537874779 -0.82441734342 -0.0062279582112 
0.00070001293176 -0.00086254063576 0.2186568561 0.00012142911839 0.00024566189711 -0.069037551549 0.00029529876276 0.00039903238616 0.24292299821 
0.0006756685569 0.001371267394 0.17462189413 -1.9232317078e-05 0.0011147851884 0.24697623894 4.108234492e-05 4.7582866177e-05 0.036654357924 
1.4013785236 9.7946682821 -0.0057635489093 1.7045820859 8.8185632928 0.0096949839993 1.1315777706 10.320243018 -0.0038886366775 
0.0016256697611 0.018167750164 0.028449185699 -0.0033227623203 -0.045344672267 -0.0017771465145 0.012251445502 0.106926645 0.014392839749 
-0.00010311810812 -0.00097793018884 -0.012209847027 1.4865396179e-05 -1.480085072e-05 0.01483985426 -3.2867892393e-05 -9.4656792963e-05 -0.031236161754 
3.8292889052e-05 6.6416482545e-05 -0.02112659379 1.8955780252e-05 -4.3934185209e-05 -0.026220272367 -7.8067868915e-05 -4.3882301979e-05 0.044251868728 
6.7443587e-06 3.4464355668e-05 0.01244448586 1.061637692e-06 1.1627517384e-05 0.0049404910876 -6.7754397562e-06 -2.503173442e-05 0.020951738968 
1.3207462712e-05 0.0012941114488 0.10090176669 1.2493050249 7.9164050687 0.012188723825 1.1578324714 6.7191461846 0.0033249282485 
-1.2547308815 -6.2776969363 -0.0054949672236 1.2139833328 6.5370386194 -0.0053806866274 -1.2523374783 -4.4210507883 0.0052418059032 
1.326333509 4.9764331975 0.00026737894521 -4.0140908484e-06 2.8894478973e-05 0.012810646376 0.00011314523599 0.00045238664714 0.13599684388 
1.2703961257e-06 -7.0493820953e-07 0.013731849634 7.0889766284e-06 3.0419791036e-05 -0.014599172189 1.4152541605e-06 2.6899744363e-06 -0.0068983970505 
-0.040631603104 -0.012467963501 -0.5125113047 0.0081616047336 0.010076026798 -0.027158842943 0.02454088019 0.022778063085 -0.81164362045 
1.0280091882 0.29829553117 0.26741620533 1.2970270271 0.13504209476 0.62648279754 0.16506076149 0.14047071858 3.635400264 
0.58748070773 2.7299968038 5.5725384324 -0.21460687474 -1.7581007058 0.30616661453 -0.054916041518 -0.72082175467 0.11210827737 
-0.028347438721 -0.32508715169 0.33550840384 -0.90200356833 -5.6134360246 0.97904127847 0.69810180013 3.7811114755 1.0609379425 
-1.3346195178 -0.076941073665 -0.18023198882 1.30404197 0.067562340494 0.96923215957 1.6741903635 0.25799728482 -0.42713767234 
-2.4283548469 -0.36209299351 -0.026205817658 0.72033397574 0.1737005654 -0.82865925118 -0.79961775298 -0.27987150123 0.63631131291 
-0.44184172607 -0.076144107153 -1.2338990553 -0.16164863463 -0.089169851518 -1.0491709196 -0.4473174985 -0.1936570863 -1.1962304177 
0.20509071158 0.094694924342 -1.2657949006 -0.058047305899 -0.011493707005 -1.1273837745 0.31076338384 0.20147333039 -0.85955963253 
-0.035418032019 -0.01911929097 -0.1130199351 0.0012715124678 0.0020939126367 0.0015813950549 -0.16771571737 -0.2663514426 1.403105377 
-0.059551316439 -0.16484313893 0.28399463708 0.42202861149 0.70718391339 2.3192949275 -1.2423866693 -2.7248830889 6.4984002772 
0.030529983002 0.04565406938 0.40049112595 0.66438024492 1.9400964252 6.1513520394 -0.056677775517 1.0685753671 6.5192212996 
0.50885834227 1.2373015464 2.5709895846 -0.018243324452 0.33999112777 1.4520168479 -1.9080073 -0.67701255353 -0.25400092134 
0.8354785794 0.20181754239 0.37794509709 1.3180786305 0.61211385003 -0.49277354756 0.0052336069727 0.0021361746601 0.042557544747 
-0.2460770786 -0.15115737131 -0.40360662894 0.5575256963 0.54769216497 -0.95829434914 -0.14890580156 -0.24159519118 -0.59620109227 
0.092862493025 0.11647974784 -0.14673548583 0.95644868532 2.1267631829 0.074795093689 -0.083390508736 -0.14455188767 3.4449022657 
0.42559741586 2.4550234486 3.8007860184 0.74007392279 2.7406556355 7.1804948995 -0.012955827567 -21.200386531 -0.0072869655198 
-0.073646738627 -19.999563606 -0.016777210484 -0.025496485824 -17.713142997 -0.031680016954 0.029996092594 14.819787085 0.042829012202 
0.017641869933 7.4855273832 0.039420741669 -0.0051560565588 -3.9284379258 -0.042167933056 -0.00056269765492 -1.3953864532 -0.01509763774 
7.7489701788e-06 -0.0075245211604 0.051820170169 -0.036836185914 -11.315523581 -0.045844229587 6.8925277207e-06 0.013490445808 -0.021311728649 
1.0738614363e-05 -0.0071948793982 0.043155108877 -1.8321863561e-06 -0.011110324783 0.11103417322 -1.2421615863e-06 0.0009015535179 -0.0071671789041 
0.0073368367582 -21.323199595 -0.013506470936 0.0079593500006 -21.237794519 0.0014909939883 -0.02232039082 -20.996061749 -0.016470909213 
-1.4312193801e-06 0.00032478860272 -0.0038800647343 -0.026986494107 -21.064735456 -0.0036850160875 -0.022161967502 -19.715653345 -0.012940741864 
0.038033317401 20.347868786 0.018168738931 -0.027410951899 -20.747033809 -0.011194199415 -0.027913545981 -20.283626806 -0.0098083257797 
-0.018486953424 -17.058551235 0.00050659798812 -0.033452357867 -18.423228527 -0.048319733638 0.014588361732 19.642231591 0.046132202807 
-0.020413933743 -19.102485238 -0.034787101484 -0.028874944846 -18.345808695 -0.01890762331 -0.028078748667 -13.954537263 -0.017983458604 
-0.02779928908 -15.674495831 -0.02998578032 -0.015239845532 -17.023253645 -0.054497496838 0.014616671612 16.456488423 0.026628883386 
0.029540913564 15.636395157 0.037921906427 -0.019790300468 -10.251055234 -0.021313010502 -0.028923037525 -12.143966994 -0.019659457116 
0.034309318361 13.957347438 0.054922813356 -0.02035330206 -13.038658178 -0.040951431087 -0.033862352755 -12.15288701 -0.074324394681 
-0.011345673806 -6.4971527563 -0.038572037253 0.014676851224 8.4626613012 0.028702313666 -0.020154989636 -8.4426988101 -0.05501282223 
0.018454824608 9.3423842639 0.047618680434 -0.02948348571 -10.285003414 -0.059557979279 -0.0022529190124 -3.1242973106 -0.019346348449 
-0.0072082080014 -4.7511542975 -0.020271666679 -0.01222027186 -6.552039877 -0.056380844415 -0.0062348664277 -5.6505586632 -0.049157471152 
0.007871692417 4.7703730048 0.055892953378 -0.00057612498887 -0.81976754703 -0.0358042424 0.00057657258757 -1.8982063128 0.0062264390074 
-0.0034430194528 -3.1729300965 -0.028043644218 -1.195269909e-05 2.4210025991 0.016937866609 -0.0009656187796 -1.972446298 -0.046377688597 
-1.9258800161e-06 -4.3203555314e-05 -0.028761529798 -2.0747998488e-05 0.086661251328 -0.068345992069 0.00019024328982 0.91542076414 -0.017272264256 
-1.3580044967e-05 0.25654733581 0.0033543378156 -4.4014494992e-05 0.046609512869 0.00087933847263 -7.7098811835e-06 0.0037421955357 -0.045443091181 
-2.6052155206e-06 0.004583606174 -0.013790537068 6.0420583838 -0.008066964658 0.238254907 6.1265143231 -0.097045042865 0.13501063189 
0.21678695621 -0.0018977127577 -0.0032299608603 -6.5500549221e-05 0.00016130071909 -0.039454276092 -0.0089502969599 -2.9171354835 0.0028633652556 
0.0045338880109 -6.4101119606 0.0028910178359 0.016983075676 -8.7946304325 0.0022546568541 0.040797059823 -9.9407559091 0.0030296057181 
-0.0054096937424 10.590992265 0.0010135223356 0.014619497555 10.977340772 -0.0014560789831 0.0078406616667 11.40988299 -0.0021943053381 
0.0042391794702 13.341696688 0.0045576906928 0.02942499675 15.451750655 -0.00023016000415 -0.008638590033 -18.921291581 0.00060509500867 
0.012631740007 12.152358216 0.0021163250639 0.0087614887197 -20.011692402 -0.0016194180304 0.01036055486 -20.103390175 -0.0056211453339 
0.0083012728418 17.945894903 -0.011429240941 -3.9577063051 -0.028642727959 -0.31000562324 -3.9521826237 -0.022368550744 -0.067140086381 
7.3342107409 -0.010511287176 0.0029843466283 -0.013813940624 -18.040276557 -0.0038174354812 6.8040170668 -0.0060942987901 0.19775074565 
7.292136168 -0.018094800949 0.12535658719 4.558637472 -0.007926762961 -0.061734489395 7.9301193899 -0.025680902929 0.11172713025 
6.7998068889 -0.010714225014 0.15026662226 2.03928875 -0.008458944791 0.016854364449 0.0015017563533 -3.6397751999e-05 -0.025240288996 
3.3099483922 -0.01806294198 -0.020480612337 4.3401806815 -0.01859192818 0.22179980288 1.7152167118 -0.0048504077097 -0.027584724593 
0.0013696258815 -2.9447407589e-05 0.084567858196 -8.6815593617e-05 -0.00012106499219 0.01693758295 0.00042033607615 0.00013740250113 -0.041366243734 
-0.00057009647953 -0.00025608318648 0.080175268833 9.5241556925e-05 0.0001026649045 -0.011274608115 -0.0079603736908 -1.7424831078 0.0080660844311 
-0.023350901834 -4.0915978493 -0.012177668568 -6.537695193e-05 -0.017021323734 0.038005225108 -7.9767143004e-05 -0.0011085730655 0.1048958109 
0.0031396463651 -1.4898580774 0.040586194518 -0.010304404233 -5.7348424002 0.012998317363 0.019779178582 -7.1859229987 0.0050151133317 
-0.010542585006 -4.8779086177 0.016722237893 -0.0018967452098 -3.9144570891 0.026533407526 0.0011715025717 5.6711993372 -0.0006084516526 
0.02534324486 -8.4473332071 0.0090958743589 0.005868729757 -9.2175234493 -0.01528868505 -0.021887835447 7.8312244687 -0.0094872592558 
-0.011414996057 7.1432428178 -0.00035827600572 0.00032074115431 -8.3320199787 0.00038452023237 0.028757579255 -9.7699968136 -0.003547059378 
0.029452695884 -10.210675653 0.0026752376499 0.029433318447 -9.4419553091 -0.011119998402 0.014817152864 -9.1084100076 0.0030729105114 
-0.045392223952 9.6777245153 -0.0040431193359 0.018132502859 -10.513914507 -0.0022060972548 0.0031275056973 10.718500338 0.0079672097137 
0.014971294513 -10.316642697 0.0057596795518 0.015924762539 -10.167947921 0.017097077168 0.0035856335832 -10.457397946 0.0053004663241 
0.0090014924316 10.930878151 -0.0024308239034 -0.0064680636099 -11.084289163 -0.0042541146563 -0.005102458887 -10.791092938 0.00090930437453 
-0.0036506044295 10.677601127 -0.010033342291 -0.0054706755568 -10.912692171 0.0028878619958 0.0016819993217 11.334899222 0.00045905098676 
-0.0012878897109 -11.548099991 -0.0032313306516 -0.0074838012774 -11.196484344 -4.0760026606e-06 0.012442333375 11.064556925 -0.0023691065588 
-0.0051017484984 -11.326292753 0.00061001281057 0.0024315688519 11.961199206 0.0043600171247 -0.0056033874014 -12.424493037 0.0050764184754 
0.0048595677339 11.729593521 0.00043520339515 -0.0067094624693 -11.552887554 0.0013599701016 -0.0060922041598 -11.961690066 -0.00072113164293 
0.0022915511882 13.023499576 -0.0046168858998 -0.0089964587241 -13.744488809 -0.01315673162 -0.0038310678175 -12.733096981 -0.0038576477547 
-0.0027999790894 -13.016707038 -0.015225156442 -0.0026509123725 -12.413703719 -0.011706146752 0.0093557174737 14.916883957 -0.0019543971536 
-0.0028391334024 -16.066998756 0.0011638744082 -0.0073735140912 -14.288189187 0.0017831549498 -0.0054351076279 -13.75580463 0.017382750682 
-0.0050649664261 -14.931296687 -0.006513665433 -0.013439560337 -17.019474771 0.0034022759796 -0.012413182712 -16.106075833 -0.0028099096498 
0.01108323249 -0.072371958688 -2.0478653801 1.1210841917e-06 7.9244288869e-05 -0.065436272604 0.72591315756 1.9290719682 -0.00046364421155 
-0.078390499095 -0.95816883288 -0.00257045193 0.65159661284 3.3468970286 -0.0020555994534 1.726494755 8.0405303587 0.0053188135174 
5.9043317361e-07 -9.4728974828e-07 -0.0085968413884 1.5116456146 9.7009526768 -0.00053630325256 -0.0055868130525 -0.11402277153 -0.0094184098628 
0.017896865974 0.29323786175 -2.2898716887 -4.5175040483e-05 -0.019054348819 0.050096048407 -2.6534533804e-05 -5.4802074925e-05 0.0083705133007 
6.6505082745e-06 3.105418815e-05 -0.02654837095 0.29679447836 1.610563236 0.00065368595375 -0.50243896272 -1.4431390154 0.0040423890226 
-0.20572502758 -1.6185635336 -0.0023443002534 0.95872619456 4.2598547644 -0.0030278372606 0.65099382599 3.5512740185 0.0022206326164 
-0.82018867834 -4.2350884113 0.0020423964862 -0.73438292669 -3.7648567846 0.0054685489383 0.73235367666 3.7734508838 0.0015969538892 
0.57552605492 3.134025471 -0.00019260413143 -0.49657811274 -2.8841120424 -0.0053868997916 -0.57465009152 -3.1515196731 -0.0036785642029 
1.7666862602 7.5950899978 -0.002074758196 1.7332029799 6.7011184479 0.0010007393639 1.7548996995 7.4095819483 0.0091508664206 
1.7383531188 7.3774967984 0.0014285262276 1.7418776015 8.254799764 0.0048614554889 -0.0072456761861 -0.084683147919 -1.3192509053 
0.00066559010977 0.0094899710886 0.15667236684 -0.0046520032493 -0.00035982523356 -1.0411974607 0.0031920815324 -0.10140366613 -1.3121215965 
-0.0098836794067 0.0056811120559 -2.6319560261 1.7410333051 8.4542037827 -0.00024939409961 1.7315844862 8.2435098877 0.0024419608412 
-2.4008623698e-05 -3.1505100738e-05 -0.057387396097 -1.1589162622e-06 9.8462409106e-06 -0.015560399495 7.9655072341e-06 7.6306125207e-05 -0.035706109726 
-9.4806555083e-06 2.5025476289e-05 -0.023727765554 1.3584284173e-05 3.8458446903e-06 -0.013079441282 -1.0800419632 -2.9334567646 0.0026216512097 
-1.0959730746 -3.0725123764 0.0048335164275 -0.90975135688 -2.4868431084 0.0096622592424 -0.91665919092 -2.4912193571 0.0051789541548 
-0.88593336504 -2.3416161467 -0.015369906069 -2.4555394455e-05 -7.701695482e-05 -0.044222238189 -1.2191297937e-05 -5.9860105621e-06 -0.034295239031 
2.2895807222 -0.20645779575 0.042251518384 0.00070487041026 -0.00028919576355 -0.073934139055 0.84857157938 -0.17833158456 -0.022320044751 
2.7777574452 -0.27396955077 0.024905426758 4.6160559159 -0.5639130946 -0.014538009015 -1.0647323311 -2.7678512307 0.010637996426 
-0.8873639262 -2.3206874778 0.0076139070228 -0.00063808717619 -0.012262701737 -0.19089820687 -1.1024476777e-05 0.00018031356029 0.0013151185017 
4.1761126715 -0.33350049964 -0.048511318923 5.1343000641 -0.33968900353 0.12158565287 5.688966695 -0.45384243389 0.0040949153896 
-5.7321701074e-07 1.0568072445e-05 0.0080425613694 -9.6046757414e-06 -0.00046753332341 0.021878491631 8.5146126246e-07 4.1266200629e-05 0.0078301824817 
-0.00016658087945 -0.0059605558257 0.025530866471 6.3383887043e-05 0.0010760958814 -0.025385748079 -0.00025761343299 0.093576783699 -0.15228033962 
0.0013015715064 0.63492146358 -0.27056697893 8.5440252916e-06 -0.12302363086 0.11727399206 0.00019659172606 -0.036486072693 -0.60496150093 
0.0007359235066 0.045014028934 -0.31360996439 0.0012051784773 -0.00011611880544 -0.069681826879 -0.0003890253256 0.00025073753995 0.037809573386 
-0.0081161760884 -0.23694215734 -0.0068956298426 0.0012815888263 0.052864869159 0.01267042306 0.0016807562703 0.065550834669 0.021159768132 
0.0048625774103 0.10277484118 0.01567564528 -0.017307051271 -0.3027813464 -0.016861103544 -0.008515941399 -0.25147685973 -0.0091319454553 
-0.001924447282 -0.081565825116 0.0080236637165 -0.018466023223 -0.32600961676 0.0077058744482 -0.0056670446748 -0.1213822881 0.0056846169984 
-0.078153523323 -3.6152825937 -0.017251229755 -0.06311688037 -3.0738536966 -0.017180393247 0.060233514754 3.011156239 0.0009865841856 
0.2026722969 4.555023322 0.0044180891303 -0.10080401311 -4.3528845661 -0.0394632889 0.097309637326 4.3169862851 0.01074733252 
-0.14258049553 -5.8249611139 -0.0071487648044 0.14783136244 5.8780597325 0.018249808916 0.33862319083 5.6635550734 -0.0037085388525 
0.28864274144 7.1691087162 0.00016354481771 0.38866860311 8.8526329752 0.011252458172 0.66192689494 8.1670184303 0.0019466182369 
0.82430827984 9.6963537785 0.0084770543877 -0.37835543995 -8.8758448656 -0.0057477687101 0.55121342972 -22.238376036 -2.918015674 
-0.9376690695 -25.482556811 -2.3943626764 -0.54272910797 -19.172121905 -0.96292881421 -1.0796263539 -21.78167113 -1.6300301897 
-0.14725750798 -20.785441837 -3.2702499825 0.48831301009 10.542166727 0.029121026756 0.43389146015 9.6869055984 0.018603541747 
0.47278591653 10.545812509 0.0016088688208 -0.12235727879 -5.0621791248 -0.018768357558 0.3846324471 12.193597078 0.02807456071 
0.36986961269 12.224977836 0.0069711313519 0.80096914132 11.201889345 0.0039367037945 0.74747505653 12.821908766 0.0065081871338 
-0.29797765842 -7.1658134803 -0.026335623932 0.5107811842 6.6798148677 0.0016543261273 -3.3376323843e-05 8.6818167915e-05 -0.11139146939 
-0.00024230855431 -6.1091824839e-05 0.17302026712 0.000119891905 -0.00018850112751 0.08204155284 1.9768292258e-05 6.2066237863e-05 -0.024335324795 
8.0581708412e-05 0.00027754700438 -0.02672263267 -0.00017202922517 -0.00058237621442 0.013816020604 5.0552406469e-05 0.00018035623723 -0.011475496793 
-0.70911703216 -9.9055002813 0.0048174626011 0.67696535569 10.077866118 -0.0064852359695 0.72356921057 9.6719178926 -0.00098028248269 
0.8350558538 13.631880655 -0.0059564848026 -0.4634137004 -15.17732086 -0.016018355317 0.55563546949 16.003849203 -0.00075887178293 
0.44914607048 15.223360835 0.0024280555529 0.43587009095 13.785923712 0.040702054028 0.4424085894 14.553412779 0.010080980896 
0.41697925752 13.804346688 0.0099198659715 -6.1191306942e-06 -0.00017848498097 -0.0014982750142 2.34251829e-05 0.00062008169926 0.0041570452234 
1.9007980955e-05 0.00024469690675 0.0090266085919 -2.0844283445e-05 -0.00060116669556 -0.006790111744 9.3851990875e-05 0.0024898225809 0.01466020207 
-4.2935570353e-06 -9.6734348282e-05 0.0064680782444 -0.11637304412 -0.42913506694 -0.0046113394814 6.4029699001 -0.047178668462 0.062926004167 
5.2032477619 -0.2020485302 0.06083532475 -0.95074531754 -26.945649057 -1.5325216394 -1.2923736226 -28.424742688 -1.3730361512 
0.10550956405 -15.169350759 -3.1923142465 -0.00018465994602 -0.070542878902 0.11850207857 -6.7401356451e-05 -0.085961802336 0.38856353599 
-0.0016067405189 -0.33153157352 0.37720548716 1.3619069591 9.2295825492 -0.0061091839866 0.69109596238 10.146636198 0.015173329368 
-0.74329301715 -9.7345559718 0.0051794306573 -0.046629673603 -2.1043895258 -0.0048261837517 -0.15569809643 -3.5566871358 -0.008766286025 
-6.8893083463e-06 7.8906327354e-05 0.032579417661 8.3219251321e-08 3.4460072675e-05 0.020584702025 -8.2741690721e-06 3.407039294e-06 0.0071746866776 
5.3634657841e-06 -5.4591105552e-07 -0.0054276447021 -1.3986199815e-05 -2.3521559511e-05 0.038747961313 0.41057663492 3.2862721824 -0.0018655881759 
-0.57421456344 -4.2735501275 0.0088189787385 0.46269426164 3.9257640665 -0.005836585662 6.5709427647e-05 0.040219896915 -0.023164273416 
-8.5815616668e-05 0.0062914524606 0.069035215657 5.2934757336e-05 -0.10885766146 0.48098171958 -0.0011089617671 -0.55817819393 -0.025987886093 
-1.3680174905e-06 -2.1070625167e-05 0.0019756540264 -2.6070019028e-05 -0.0011298549439 -0.027052948083 0.00016519077548 0.0051015249539 -0.027954876051 
-0.037859416082 -0.60171664727 -0.0043297342585 0.40693866983 13.030185045 0.014655674855 -0.0012865407007 -0.22365861225 -0.0072208044302 
4.4122175992e-07 -0.00023306881315 0.00091704958327 -0.0016951361485 -0.32822022384 0.002097004338 -0.0014549521419 -0.23001825192 0.0040953347628 
-0.0067193405588 -0.56080456422 0.00097250484339 -0.088983215481 -0.34765244056 0.0058719253315 6.5888561495e-05 0.00025685433938 -0.0068620173623 
0.00096012621138 0.057730854552 -0.67097295739 -0.0010502006328 -0.020377968717 -0.39578939128 6.8057031634e-06 4.8520103577e-05 -0.0097505701613 
-7.3623522079e-07 -5.9804103029e-06 -0.0072347979245 -4.304225104e-06 -2.2020828537e-05 0.012012851691 -8.1302891925e-06 -4.8458538626e-05 -0.012811008041 
1.0879436322 5.9102080251 0.0050085272621 0.97234154336 4.9512391015 -0.0037092836517 1.1286233548 5.6962901327 0.0017580327984 
0.00015325125537 -0.12632255113 0.009012687066 -6.8629902694e-06 -0.012016478012 -0.0047488439213 -1.4385954226e-05 -0.00035735750424 0.020221358154 
-8.6368686215e-07 -1.2854548921e-06 -0.0046444867684 -4.1338678998e-05 9.3538740547e-05 0.033158725407 -3.6062400907e-05 0.00026582587297 0.082019379998 
8.5703476348e-07 -6.3031033965e-06 -0.0050890639482 -2.0703535895e-05 0.00011841733045 0.047644031018 -3.7602642774e-05 -1.6353713282e-05 0.032471849153 
3.9102310112e-05 0.00010608021925 -0.078052467242 4.2567427197e-05 8.0072925514e-05 -0.038832673824 -7.7099222065e-06 -6.1990180345e-09 0.0069219259886 
-0.019814118799 1.5274830072 0.49338332609 -0.046613521174 0.49029311845 -3.0297897143 0.00069848471045 -0.022107617911 -0.22559332807 
0.0067916742037 -1.1320483518 -1.5906650941 -0.0017408708659 0.30412285791 2.8574450563 -0.078506294743 0.8340512578 0.19110934839 
-0.011596488581 0.10320461196 -0.043764963735 0.0063528410756 -0.048889104512 -0.61198869266 -0.26661052364 1.6481603647 -0.10903084852 
-6.05120091e-06 -8.8194066259e-05 -0.0020508736857 -5.420522781e-05 -0.0018271658026 0.017428543698 -2.7476658553e-06 -4.1954790948e-06 0.010028767008 
-1.0705042109e-06 -5.1944238619e-06 0.013421674769 6.7073681567e-07 5.337746201e-06 -0.0051955254295 0.86331971758 12.622744998 -0.0024781310083 
0.34249062576 13.422757307 0.0097878336674 0.54960677986 12.686717652 0.0054705428543 0.34240779074 13.431728279 -0.012521845212 
0.66673244377 13.409366478 0.004248848219 -0.25431385627 -23.083639927 -1.4654803722 0.25894178939 -11.654521768 -0.06597075951 
-0.0060783392356 0.062930029503 -0.23713258433 0.057207495384 -0.45422465176 0.89079108313 0.0062585508321 -0.063306258251 0.25033989648 
0.00051528360273 0.018510658022 -0.0034428151267 0.0012563335756 0.045677706962 0.0060852229181 -0.0016748317438 -0.061874029382 -0.00013067631115 
-2.5624020955e-06 -3.2358522795e-05 -0.0075792279664 7.3950944675e-07 1.2652825673e-06 -0.004478453991 2.6424483307e-06 3.2465222524e-05 0.008074343937 
1.2575970899 6.274961066 -0.00045441965734 1.2128615404 6.5023966981 -0.0052803826985 -0.0045174830696 -0.3773211501 -0.0080605303675 
-0.00054593111123 -0.096208927287 0.0060772862605 -0.9935293019 -0.33241494249 -0.028660191126 -0.57458066757 -0.16561930176 -0.1072002304 
0.0083420624907 6.9805869518e-05 0.10810754369 0.5333977371 0.16245323248 0.16988507186 -0.0019832439193 -0.35436263633 0.011487698439 
-5.1772271032e-06 -0.063218757283 0.022385360659 -0.0019156660054 -0.30801591065 0.015974883506 -2.8517355162e-05 2.4468737014e-05 0.0071602682314 
-7.995150787e-07 -4.3787744179e-06 -0.010554506938 -1.0634862235 -0.33889144122 -0.080920442273 2.0993908449 -0.36042915686 0.0021963603044 
-9.7524665934e-06 -5.2346685637e-05 -0.014951663195 -1.4158790281e-05 -1.992483056e-05 -0.019407675955 0.0016484131168 0.059641076791 0.017800864481 
0.0019112300022 0.035233772325 0.012626201583 0.00045765121698 0.016294712672 0.0097978710862 -0.57450254474 -15.976135527 -0.012549489865 
0.92064701292 14.257475048 -0.0034266291403 0.37416437741 18.061193419 0.0052991181535 -0.17659862474 -19.318033127 -0.010903658667 
-0.20825449262 -18.509959399 -0.0032227205911 0.16442565045 19.379299692 0.0063604484159 0.38125544055 17.323555063 0.0012538944792 
0.12614641932 16.893016799 -0.010262130701 0.28787377223 15.947561738 0.00055596271899 0.12240821256 16.941166825 0.012993961986 
-0.30827450641 -2.7971947041 0.0035183892888 0.35104728491 3.3856714837 -0.0023866930531 1.0581209684 7.0255807183 -0.012987277233 
1.0564726476 6.4644242523 -0.018060579533 0.98114257746 5.6827326802 -0.0047858704297 -1.7362770264 -5.5823586731 0.018843373705 
-1.663169851 -5.0343388204 0.0082901468698 1.3387954342 3.5649754548 -0.0040111561433 -1.1874654401 -3.1038085737 0.0020292993994 
-1.5668235803e-05 -0.02198852528 0.0012943572151 -4.2699846479e-06 -2.639391598e-05 0.010771420916 1.2123793934e-05 9.8893113339e-05 0.012154046492 
1.4960840926 5.7900876962 0.00051453626127 -1.6146411511 -6.2345837097 0.0035989491428 1.7160831342 7.2262713362 -7.4951485995e-05 
-1.6104734058 -6.7450956396 -0.0074590322863 3.8933767628e-07 8.7239059837e-07 -0.0020852213752 -1.9687665391e-06 -8.1219717038e-06 0.013157510916 
-0.011871576435 0.11828795477 1.0598061363 -5.6578834184e-07 8.5891648256e-06 0.018855403655 0.36687221124 18.111975915 -0.0082787038992 
0.53768655832 16.295601965 0.00017431758287 0.28362351486 16.008170849 0.0044490899855 -7.1151671302e-06 -1.7351465079e-05 -0.0091764950879 
-9.9173381288e-06 -3.3184708843e-05 -0.0095413567647 2.0865997619e-08 3.2317424385e-07 0.00063644855642 6.1727969827e-06 2.0803926746e-05 0.02204969851 
-2.6457574748e-05 4.5480597408e-05 0.014054467853 0.56987182137 12.070232742 0.0031335949218 0.3773757911 11.858796488 0.0060293512213 
0.88792588869 11.635620742 0.00094088949555 0.72837397591 11.529753226 0.00079267581334 0.3726476785 11.851226123 -0.0057837927777 
-0.00030874502359 -0.012485523821 -0.0026579064415 0.00035465481181 0.006970517708 0.0035112571701 -1.1419759027 -8.3539666203 0.007408940907 
-1.1071049678 -7.1626192811 -0.022622080587 -1.3706478468 -4.3530581757 -0.001297564418 -1.6163707615 -6.014038266 0.013993100239 
-0.00043729939414 -0.080855548784 -0.015731765289 -0.93891676642 -5.1448616387 0.0080341454983 1.0398268509 6.087913644 -0.0030508529837 
0.85921395137 5.3111796593 -0.0010579675803 -0.0064614763001 -0.025140339465 1.4065021392 -0.026390733723 0.0036846197486 2.7879368804 
-0.00618867672 0.041094671622 0.75734729591 1.162595218 6.7164644904 -0.0009361590514 0.0017184444026 -0.00091629825935 0.35430339283 
0.00017065604645 0.0064769738942 0.036281335984 5.6544674483e-05 0.00099256234223 0.029210116309 0.00017954630884 -0.061651880687 0.22671323801 
-0.055687001361 -0.28581987583 0.00012841175989 -0.093829160741 -0.43825079665 -0.0022167434795 -0.13000967367 -0.68684059458 0.0011437712789 
0.18607691153 0.89012853376 -0.00085058433699 1.3169995631 5.476417072 0.0042379769743 1.1606071645 4.6382103938 0.0021386044909 
1.3277053662 5.200712077 0.00015089646096 -1.4862462051 -6.1085483814 -0.0055618613948 1.3381952609e-06 4.1877748479e-06 0.009968518821 
1.4419043811 10.179040213 0.0045372366266 1.5282414368 9.2735358882 0.0055641737204 1.4718831361 9.9215023822 0.00094274514067 
1.5724492869 9.0629837768 0.00042211713753 1.47703775 9.9111313112 -0.002185620999 7.3556125771e-08 2.066772577e-07 0.0003139187415 
-0.014524137601 -0.62078340766 3.0647440395 -0.011489834788 -0.4445599179 1.9616833272 0.021910716283 -0.39049071037 3.5805614662 
-0.0022617978914 -0.19646181532 -0.0075492393842 8.2564960067e-07 3.1527410047e-06 -0.0022284464717 -2.6536201013e-07 -1.3621863406e-06 -0.0016500917032 
-1.7274686431e-06 -1.3382880271e-05 0.01020808884 -0.00043326217835 -0.0017792646802 -0.011548266712 6.3775451396e-06 2.2791370795e-05 -0.0011311767546 
-0.00020100021947 -0.00035101627304 -0.050683150229 -2.3139502704e-05 -9.3814567805e-05 0.025171050744 -0.46913918806 -1.718865106 0.022118713785 
-1.3687151107 -3.8907961026 0.012181732898 0.38812651197 10.819366108 -0.002889287741 0.3984827876 10.694283036 -0.0025147413913 
0.3771523918 10.900575304 -0.0030680521421 2.3486635935e-05 1.2572787416e-05 0.012244235116 -0.0005881051022 -0.024628860057 0.00070967034982 
-0.00012425408884 -0.0026026369119 -0.010978238295 -1.0364350465e-05 -0.00011963344985 -0.029889711196 0.00035879311794 0.014832180483 0.008860143428 
-0.00050289672391 -0.02086456421 0.018569019744 0.00012063623586 0.0044821507913 -0.022798973743 0.31869171303 0.014066750798 0.099316065363 
4.3316648254e-05 -0.074554476648 0.0021077239497 -1.1789452359e-05 0.0069834219685 -0.028530604626 -0.58267793654 -5.9831421056 -0.0057909998256 
0.61861096841 5.2723131176 -0.0047950915414 0.77220978566 6.0919529581 0.00044520433891 0.42431640867 4.1697785855 -0.0014808043444 
0.0065088040194 -0.0033786019306 2.6728235767 0.10348852598 18.666855997 0.0089685164658 0.12670068596 17.799532285 0.0012617731253 
1.1255865763 8.2938640251 0.0085409892971 1.7853438356 7.368612348 -0.0099708928284 -0.011028307196 -0.14546568352 -0.0026451611226 
-0.021704347298 -0.27268568971 -0.0022499489317 5.3970147063e-05 0.0013021005469 0.0018038843673 7.1554695055e-05 0.001103199354 0.014684823443 
5.7681189007e-05 -1.3015146476e-05 0.00087179263136 3.5866912595 -0.28078677724 0.13424040013 -4.3973248076 -0.037114485293 -0.20127284627 
-0.23653713503 0.028928157382 -0.063644927657 1.0281678081 5.7910193165 0.017034194034 1.093933677 8.6685242509 -0.0035266750416 
-1.0726846294 -9.0561170664 -0.0035007627732 0.001174297872 -0.00084746061193 0.19804579211 -3.9641337258e-05 -4.8319776147e-05 0.053030829473 
-7.738564969e-05 0.00016717886369 0.097308137199 -2.6924537201e-06 -2.7504143424e-06 -0.0027921193413 0.7608272773 4.4148515518 0.0041697282215 
-0.14095778446 -8.2892583821 0.34395668396 -0.92511918202 -17.648110326 -0.8874203528 -3.4813457309e-05 -3.0183073825e-05 0.031148156398 
0.00015393380376 0.00024309994029 -0.096604704856 -0.046081620276 -2.1216606635 8.9157478545e-05 0.50858631948 3.580490488 0.002534141459 
-0.35188218729 -2.6873436204 -0.0032136633477 1.116399246 4.6833850616 0.00069706847574 -0.0020360557584 0.031396227907 0.43297846238 
-0.022089556626 -0.064415877339 3.3164602425 0.0078684579267 0.011896042761 1.7994629105 9.8083023276e-08 0.00018233308646 0.0020997070447 
6.4274623081e-06 3.0109738267e-05 -0.018574336108 -6.9111145087e-06 -2.582383932e-05 -0.012868166884 -9.2073899043e-07 -2.2714324792e-06 -0.0035518291747 
0.00013333997599 0.0044293667498 0.0094483241861 -5.0352880493e-05 -0.0011932742055 -0.002034390332 7.3083065327e-05 0.00094103585324 -0.024832270748 
5.8391815743e-05 0.0020194407577 0.016276168848 -4.0529191895e-06 -1.8796832544e-05 -0.040789876473 -0.025021591084 -0.38875457131 -4.4558410895 
0.037272689468 -0.011283083531 2.1433516992 -0.003211134569 -0.29249374995 0.78990831644 1.5756629194 8.3967623615 0.0021656580741 
1.5860120273 9.0730771729 -0.0020496744443 0.40654154563 10.734817735 0.011217943512 0.73645995801 10.758462042 0.00088917249409 
0.37979947797 10.91871508 0.0029665494034 -0.53781410586 -4.5806152962 0.0059223096708 0.6622528585 4.9129924482 -0.0042558178815 
1.0607825179 9.0048296663 0.0084971587598 1.3322074187 8.3820912067 -0.0021931491929 1.4049113247 9.3100576561 -0.0011409662821 
1.3478573164 9.4700567711 0.0031756897135 -0.02555829913 -0.54102048636 -0.0061578449428 -0.0088790233866 -0.29252912803 -0.0094044743006 
-0.002587132949 -0.15753877702 -0.01886764458 -0.01415247496 -0.43209460029 -0.0068951042516 -0.0027318796016 -0.16547879259 0.0027725606533 
-3.5613252793e-07 -2.2087723681e-06 -0.00043607449504 -6.3117509819e-06 -4.3965928433e-05 0.025004910986 -0.68634987172 -4.5160018411 0.0077029704402 
0.55370481378 12.665103305 -0.0058196364007 1.0440193362 11.774922557 -0.0013368545485 -2.9794180647e-06 0.01130363209 0.022799980232 
1.2239560981e-05 -1.249136597e-06 -0.017328185694 -1.11518905e-05 1.4311075645e-05 0.029394765821 1.193164975e-05 3.8023023834e-05 -0.037351501799 
5.335811606e-06 1.6126627108e-05 -0.029538515295 0.0079686710551 -0.3284599962 4.2209887823 0.030790609469 -0.18041736844 1.8293735409 
-1.2974528329e-05 -8.9184012135e-06 0.026354447819 1.2318364304e-05 4.0667966348e-05 -0.010540239 -1.5481015601e-05 -5.2301222682e-05 -0.0099468948278 
1.3943826416e-06 1.0629138008e-05 0.0073970911298 -3.718080334e-07 -2.3637103896e-05 -0.02242001231 4.7547163073e-06 2.5102814525e-05 0.0081448597331 
-9.3644387529e-06 -0.00010617709762 0.011170912349 0.46782582301 15.716120338 -0.00072295196809 -0.20204132771 -15.266990079 0.0082062818282 
0.00031595221438 -0.055916283801 0.0037951992591 0.0046099317042 -0.78932488062 0.1015076425 -0.096754509454 -18.719119551 0.0080620401316 
-2.3830987655e-06 1.5853772762e-05 0.031398315581 -5.1163733413e-06 -7.8126731538e-06 -0.019262975719 -6.383044737e-05 -4.2840369002e-05 0.081086837213 
1.7324254737e-06 2.3426611595e-05 0.012029324844 -7.283101393e-05 9.3691188645e-05 -0.15259876526 8.8688613302e-05 -6.7216481071e-05 -0.08507668242 
1.1623160268 4.4106747305 0.0026912864793 1.3227903905 4.9447876041 0.0028026093062 1.6794287586 7.6988204629 0.006098687929 
0.0055323074839 -0.11884768495 0.15379792734 -1.255912058e-05 -8.032682788e-06 0.022766071343 1.1165840012e-05 4.0408641572e-05 -0.017044532541 
1.6049946819 8.3933243707 -0.0075386261719 -0.066854803445 -1.8547385516 3.9972181099 0.025766318825 -0.55400216667 3.5760941502 
0.013176654236 -1.8699592429 4.3915767825 0.011882917132 -0.33763973223 1.7974569994 0.077609899001 0.61137704353 -3.6296828225 
-0.20405908584 -15.22689429 -0.01015435841 0.38582825617 15.052293248 -0.0011412982603 -0.0071018179994 0.086398829939 0.51112392205 
0.0099724739778 -0.15095960505 -0.42546986751 -4.772594699e-07 -7.6215750019e-05 -0.002778033794 2.9279758461e-05 0.00046563657947 -0.020796758607 
0.00086090238135 -0.00019649413072 0.079003609664 -0.0014309748206 0.00017188473411 -0.1118135068 3.0555971041e-07 5.1429608577e-06 0.0056517494053 
-1.7244109107e-07 -1.3968981291e-06 0.0037247594933 8.1557101972e-07 3.7890667708e-06 -0.00099193876003 0.00010059342281 0.0033749235181 -0.018050211909 
-8.5157254221e-07 -2.5902665224e-05 0.025348545664 -1.5794813238 -5.7215237948 -0.0073804596602 1.6980786231 5.9975931085 0.0039345264988 
-1.5611877128e-05 -0.00015330984057 -0.0062179671272 0.00011716296076 0.0004609905725 0.19695088005 1.3767696166e-05 0.00023950018768 0.080390910941 
1.1142466205e-05 6.6296254384e-05 0.034037701653 -0.03013472486 -0.21364035504 0.00090623982069 -0.009160559283 -0.060549145137 -0.0015307004816 
-0.016300750763 -0.095969289678 0.0010417912773 -0.053594431806 -0.33547125183 0.0080369759795 -0.006216878367 -0.062945668975 0.0020762392894 
-0.02637190036 -0.25903218516 -0.012415053567 -0.0098398512037 -0.3016755378 -0.0073705713614 -0.0089344367122 -0.29118130786 -0.0018461972037 
-1.709421925 -19.872993588 -0.34231863795 -2.1880010989 -25.221043479 -0.53717323677 -0.00044698518016 -0.00021327499383 -0.11190858958 
-3.0467653102e-05 -3.1502957271e-05 0.020314339793 -1.6742866631e-05 -3.5937232897e-05 0.014270312257 3.578244689e-05 0.00011300300737 0.032395094397 
1.6259709986e-05 4.6864298289e-05 -0.017023559121 -2.507603365e-06 -9.3383707328e-07 0.0073335440557 0.42941096535 2.8384684575 0.0015370365741 
-0.29200934847 -4.4574730736 -0.0054485676874 0.11764772342 2.6958995385 -0.0023307515261 -2.5536843362e-06 -4.3585467088e-05 0.04437950697 
-3.4458578044e-06 -1.8518187534e-05 -0.0044531678565 6.7875358027 -0.091703386591 0.073166014466 -6.5416781244 -0.037460146753 -0.2372856293 
1.2820778037 7.3310528185 -0.0011276151664 1.33610657 7.1054203833 0.0045598097074 1.3924863165 8.2501263052 -0.0024531975942 
1.0040368407e-06 5.3211921394e-06 -0.002574551255 4.9626866223e-06 1.5259336707e-05 -0.013550120391 7.3882740819e-07 9.1986496097e-06 0.0049602319423 
1.9742010777 -0.0095109665697 0.03580176564 2.7274465582e-05 -0.00010654346542 0.13830394792 0.0013492872449 0.0028279750039 0.36402886287 
0.00015874500296 0.00024247481059 0.10606118106 -2.9216416651e-05 -0.00097312981366 0.017274754981 1.1638540405e-05 0.00020629826322 -0.019420019779 
0.99445803714 11.939235696 -0.00032276606523 -0.00078687531378 -0.026094031174 -0.0061765834182 1.2357082896 5.7446034038 -0.00080573039722 
1.2599319844 5.4897252539 0.0021313124054 -1.4277179007 -6.6310816401 -0.0044404337026 1.3821890417 6.8423164125 -0.00083485853819 
4.160222031e-07 1.1685350936e-05 0.018882419958 -0.009005510351 -0.048775235779 -0.0023323432565 -0.066571197119 -0.37201185517 -0.0011038153273 
1.0653684916 12.568741852 0.0025230112387 1.1494496446 10.970373683 0.00066845468913 1.2408522499 11.140905836 0.0025316463796 
0.55838537768 12.357322001 0.0050063249187 0.57319049064 12.053957518 -0.0030412313179 0.7394860492 10.355996399 -0.00096508687588 
-1.342514702 -9.5623445715 0.0051293370781 1.3895676906e-05 4.5454748834e-05 -0.02192269688 -2.6160079572e-05 -0.00011175389568 -0.025201803788 
-0.13980049941 -2.0620345481 0.0043412845966 -0.25186728271 -2.8093916546 0.0080023911498 0.18907976638 2.8242070057 0.00011641207185 
-0.29169903609 -1.4218666484 0.0044178122965 0.20612828199 1.0982230753 0.0012439942105 -0.21104896726 -1.1325617738 0.0051333130753 
-0.59756780443 -3.6813429009 0.0037671426939 1.6060616203 5.20099906 0.0042668177888 1.4917324316 4.9721681283 0.004624301981 
0.0004131200848 0.0023250307454 0.22151706625 0.00015087334092 0.00087299830087 0.097351323869 0.0027055494886 0.016508578497 0.43799156492 
0.0020481415932 0.013650985541 0.43128013635 1.4699261164 9.6725598986 0.0032784952398 1.3572919887 10.949814656 -0.00062527873996 
-1.2982329885e-05 -2.6313131932e-05 0.02276838595 -4.07333057e-06 -1.6433044814e-05 0.0028462528387 4.8771503978e-08 -9.0407655061e-08 -0.00022390496032 
-2.2471576473e-05 -0.010240668389 -0.1039222584 -0.0028861858499 -0.106822079 -0.72581730252 -0.0043553743343 -0.18572873709 -0.95384860044 
1.8061440183 8.312808039 0.007631633038 -1.8204182691 -7.9150183075 -0.0055023355332 0.11508684124 -3.4228225578 1.0654121472 
-2.0439566764e-06 -5.9534643099e-06 -0.0029444783492 3.2025769034e-07 -2.4473123113e-06 -0.0087276949225 0.81421416835 5.6605063621 -0.0068918833752 
1.1685343529 12.711436729 0.0025770823996 0.94361430279 14.183279533 -0.0069369323313 1.0435674227 10.307990382 -0.0033247992744 
1.1878184535 5.5059592558 -0.0020723631159 1.057799727 4.9772427014 -0.0076764578901 1.010841161 4.4458621612 -0.0029030082521 
-0.61703339877 -16.410707843 -0.0034053180438 0.38303569099 18.066650108 0.0088108666233 -1.8583583606e-05 -4.5303466771e-05 -0.039055286427 
1.8296282473e-05 3.0105028245e-05 -0.015965882818 -9.5969124759e-06 1.2864645163e-05 0.025133258244 -5.7086044811e-07 -4.932800201e-06 -0.0051898547231 
-7.1339982793 -0.10265806395 -0.24402181165 7.1474254664 0.025149396485 0.1710323061 2.1717005256e-06 2.705585535e-06 0.022972749529 
1.0286035558e-07 2.9874232674e-06 -0.0099441794033 -1.4614550772 -6.3745840315 -0.0090233702955 1.6384812309 8.0805784325 0.00040464105222 
1.6369013157 8.7181326581 -0.00065547041281 1.6446747885 8.7149814376 0.0029444476043 -2.9021895543e-05 -9.9460448826e-05 -0.038475908612 
7.2726370096e-07 1.1719846044e-05 0.013151210405 -1.7771607237e-07 -7.9216794014e-07 -0.001083160312 1.4713483202e-05 9.3655086676e-05 0.0013925657485 
-4.0347357644e-05 -0.00024232324304 0.014715044509 -0.49384748319 -14.080466715 -3.2062832694 -1.1746253488 -19.525963461 -1.6300818662 
-0.57768232286 -9.4007978247 -0.39834867572 1.0490856722 4.972667743 0.0045583302131 0.8938135003 4.2721448361 -0.0014412349177 
0.69773471031 1.6996317955 -0.0028640376716 -0.77646800512 -1.9586090997 0.0057790603247 2.0833842351e-05 4.9832261612e-05 -0.0066291609718 
-4.525666229e-05 -0.0018068296798 -0.017247057791 0.22804605439 3.590775694 -0.00079640794412 2.1622839662e-05 -0.0003344788953 0.13242167403 
-1.3256280763e-05 1.1415295689e-05 -0.0068385727673 -0.00024457320022 -0.00078052107839 0.21480247811 1.5736743248e-05 -0.00030840779145 0.18880267732 
0.02658433608 0.069150934248 -0.0081238936767 0.31379063079 3.5877559818 -0.0056116694225 -0.37108067707 -4.3688063911 0.0055807749962 
-0.0064523988799 -0.70477638653 0.025253964417 -0.014497079725 -0.89683719444 -0.003843512606 1.5011566534 7.6411625213 -0.0038142543153 
1.4500581853 7.9796075468 -0.00093125119661 1.1709129896 12.649275003 -0.00027274570854 0.93327633419 14.022153208 0.00099004860752 
1.3136636561 11.210392121 -0.0014793723384 0.015567753281 -0.077729951343 0.79856360936 0.73378195079 2.6345587438 -0.0035797982835 
0.92542416817 3.4611236627 -0.005041541372 -1.139064165 -4.1145165574 -0.0028507751978 -0.92821930776 -3.1929409108 -0.0054666067558 
2.6531503744e-06 -3.053628226e-05 -0.063791694634 1.3281305464e-05 1.4657520919e-05 -0.010570598259 -3.6283610121e-07 5.3281255848e-06 0.0039931647373 
0.48963297134 4.8681986563 -0.0060038516364 3.8804007674e-05 0.00025187678111 0.031469289309 3.0536965782e-06 -4.9879337965e-07 0.017730090583 
1.0751250206e-05 5.8401699794e-05 0.030516422651 9.3482738484e-05 0.00070841652455 0.06921070249 0.19553536839 14.699523092 0.0026157580331 
0.19293104246 14.176522425 0.0049460708756 1.5798063141 7.0141433202 0.0015324624702 1.977733908e-05 0.00013602857622 0.042504403779 
9.8930637778e-06 7.3851012857e-05 0.044741222872 -1.384507016 -4.7304714781 -0.0099270489026 1.4533837219 5.2855922091 0.00082216538641 
0.73099220106 10.311154384 -0.001839760927 -3.4769533281e-06 -3.5808071922e-05 -0.0016666075317 -1.189619535e-05 -0.0001213909327 -0.012742250592 
-0.073393102407 -0.79705617328 -0.0029642929806 -0.075422122509 -0.86485692616 0.0021170908658 -0.07866134076 -0.91144846682 -0.0067524337726 
-0.034804699474 -0.49480273435 -0.00060210072916 -0.032589046683 -0.49235788698 -0.004379050048 -0.032655315551 -0.45871618673 -0.0077984603521 
-0.0059424508535 -0.029164205735 0.87877715364 0.0044452396313 0.088219969619 -0.54151868351 0.004002439398 0.049617238695 -0.84756655077 
-1.5169331696e-05 -7.9719816767e-05 -0.029437309572 4.7548372864e-06 1.3159305614e-05 -0.0080565165315 1.779576187e-05 0.00010276069769 0.038537038791 
1.5405592974 7.3822927753 0.0019198572825 1.5227056066 8.7755206229 0.00023994972941 -8.4585152111e-05 -0.00014718566136 0.069294198529 
-5.204889073e-06 -1.3938302077e-05 0.01048547049 8.9180267902e-07 8.3138563702e-06 -0.007440235222 -1.882005338e-06 -5.3905204602e-06 -0.014485635183 
9.494575622e-07 7.2677967944e-06 0.0082058231109 -0.010811534951 -0.50357841205 0.96344279168 -0.012971589468 -0.69826748636 1.068515275 
0.022355138372 -0.6124625736 1.8844762159 9.8439186224e-07 -0.0011225099934 0.0073615006214 2.5779291039e-05 -0.017158886874 0.041498767691 
5.2062989026e-06 -0.0053416095188 0.034235212995 0.72211335947 6.8394133631 -0.0029719529386 0.91556855352 8.2514177488 0.0055635130091 
-0.049210224796 -0.47095318362 -0.00059452196518 -0.00052066856735 -0.082582391879 -0.0063455970776 -0.00041604549177 -0.057228984013 -0.028979055803 
-1.2914791294e-06 -7.6072658899e-06 0.010703312649 2.212848321e-06 7.6928894208e-06 0.050319607883 -9.8981443312e-07 3.9771685948e-06 -0.008679236069 
-1.5016805512e-06 8.1920192435e-07 -0.0057732074408 0.31347327743 -4.6123266928 0.95690217734 1.3483517894 10.355608977 -0.0036478439937 
1.2677404958 10.226609629 0.0056644944488 0.98433632576 10.401886178 -0.0072544104837 -1.0306266952 -3.1426776595 0.010013097237 
1.323944954 4.152438385 -0.0023285623503 -1.3803939657 -4.1470857559 -0.0071693860595 1.067407238 3.1332629438 0.00039199786727 
0.44094623122 5.4587823734 -0.0011854322014 5.8268088377e-06 2.087564796e-05 -0.0028832264964 0.0016069403382 0.04375514302 -0.49566375415 
0.99631228983 6.4981963806 -0.0045205909743 0.66436530787 16.326441917 0.0095061344453 0.39680229916 18.020877582 0.0013394943755 
1.1952315607 9.6768580557 0.0029031633016 -0.39807671443 -2.2338078141 -0.001285211801 0.39590767807 2.2107241031 0.00074124695439 
0.33941919027 2.2717680334 0.00031466915487 -0.33740705832 -2.2476511555 0.0036929554038 -0.26495929704 -1.7054249659 -0.0066746035784 
-0.14049390746 -19.653449354 -0.00094052043741 0.096670290511 19.845852151 0.0058954930683 -0.10869917704 -19.783591802 -0.0029131359526 
0.36887074637 -20.489183528 -0.85437997426 0.71301419735 -13.270894288 -0.98317264835 0.8339878288 -22.2289839 -2.9081093462 
1.0286189063 -13.449257312 -1.050819486 -0.00010694942987 -0.00032209636021 0.038120919329 -0.00087450308931 -0.04367093592 0.18208673063 
-1.2270070667 -3.9516112116 0.0051894885722 -1.6399961002e-06 -6.8219860222e-06 0.00022500264011 -2.0814459856e-05 -0.00010084875917 0.010125644048 
-8.5144899682e-06 -3.7326649987e-05 -0.013550081314 7.6196273853e-06 2.9792372878e-05 -0.0044925588224 -0.00010634568172 -0.00025957963453 0.022269155748 
0.00013339076787 0.00035362705389 -0.053362163505 -6.4534779685e-05 -0.00012624180125 0.04455266207 0.30756312469 5.4322220134 -2.3141100576 
-0.09412479858 -6.6072954531 6.0131322046 1.4184035526e-07 -3.4543576096e-05 -0.047099749097 -0.9298810583 -6.8701510123 -0.0041525556252 
-8.378202358e-06 -6.2429620624e-05 -0.021245151298 -4.328822203e-05 -0.00024946257807 0.0097454769148 3.2194041285e-05 0.00020625882585 -0.012085461626 
0.0048659758927 -0.00098998263894 0.29871561087 -0.41355059586 -1.8539713567 0.0021637288795 -0.6706053727 -2.8465419542 -0.0022717083131 
-0.59271158774 -2.7381265232 -0.0056012553216 0.0001103575557 0.00079220397405 0.14391157905 1.4843658588e-07 -1.711937182e-06 0.006616054841 
3.3237679052e-06 1.8007063529e-05 -0.038543012817 8.3645218625e-06 -5.0696804654e-06 0.023207596041 3.1024088438e-05 1.9554321164e-05 -0.057009398769 
5.9790103838e-05 0.00022538203351 0.12501366794 1.0145282012e-06 -5.8283684858e-07 0.0017167857016 -8.8634454903e-06 -6.7574209496e-06 0.013206769749 
2.8476814838e-07 9.2129410854e-07 -0.0082741948711 1.2325261656e-06 1.9544695089e-06 0.007812080532 1.4964817885e-05 5.4861852893e-05 0.048719131605 
1.1103600438e-06 5.9170740024e-06 -0.0011304855849 0.0016244877196 0.0070152657277 0.38397881584 0.0012874952667 0.013302885787 0.49587232213 
-1.8126878626e-05 1.1321910884e-05 0.031138531128 -1.5609771965e-09 -9.6350553354e-07 0.0026834266444 4.4001330078e-05 0.00012584578425 0.02392972385 
9.8540218589e-06 1.0976379106e-05 -0.011781812048 1.8109374006 7.2492279392 0.0037755546006 4.1396167951e-05 0.00013373011585 -0.0020874090165 
-0.30404439066 -0.99347159857 -0.011633651632 -0.17278235386 -0.52626791408 0.0028153318125 -0.62635154579 -1.9249072692 0.010214583758 
-0.18093408325 -0.55338058175 -0.0063786091435 -0.85621697209 -2.7102870938 0.0018000628394 -2.9033530062e-05 -4.2517730045e-05 0.041038352374 
1.7690232296e-06 -8.554329395e-06 0.0076860526961 5.0481845672e-06 2.4936990034e-05 0.0035094679327 0.0023718900439 0.0061793817517 0.37573687458 
0.001178198856 0.0050061361377 0.40131954978 0.00011172279818 0.00062247740655 0.18182147111 -3.0060048378e-05 -3.7016797758e-05 -0.039902687484 
-1.2495935866e-05 3.6430238961e-05 -0.032482559734 -0.42866421346 -1.6113008165 -0.035396848273 0.00071493492606 0.0015592806822 -0.034435003545 
0.0001096254293 0.00048249015111 0.13381837143 0.44013700614 11.043269917 -0.00038949203636 0.42495493841 11.154732912 -1.3454376931e-05 
0.41120133413 11.266243795 0.0011025112644 -0.02186282996 -0.066324497397 -0.087381906989 -0.18349774943 -1.0581400564 -0.091289398345 
-1.7070852302 -5.7294449474 -0.47151025689 -0.85476845975 -3.3545950737 -0.53864026441 0.93608139254 3.6891862835 -0.00052846161963 
-1.6700658183e-05 -0.00012623686408 0.00077258723191 -6.8602703103e-07 2.5606875147e-06 0.012675167102 0.48923085571 1.8506393546 0.00047164522498 
-0.26344038588 -0.97562008589 0.0055771406592 -0.46092838473 -1.6022648853 0.0038331077374 -0.0093236800046 -0.086103946252 1.151779869 
0.020045508192 0.052131512136 -1.7333325123 0.0046165956112 0.063463667417 -0.63436163374 0.0010368533036 0.014009031324 -0.001996183802 
-0.00033414451504 0.00024046045752 0.061196345132 1.3899257507e-05 5.0583294302e-05 -0.019356099193 0.20078591138 14.157163029 0.0097615309889 
0.061282013923 1.9364111565 -0.0078147521653 -0.026499297591 -1.3379712803 0.00021900178452 -0.043638437028 -1.3144163128 -0.0030386579324 
-0.094472435668 -2.034324132 -0.00019903203984 1.7993565135 6.5495052834 0.0058293531239 -1.7217806235e-05 -3.8881573998e-05 0.026279770139 
9.7022467058e-06 -4.9092232209e-05 -0.061485301961 1.2818844443 9.0021456407 -0.004922275467 -2.8454873725 -0.53378090975 0.010695332029 
-4.5805364325 -0.73472024863 -0.0044729195681 -2.943468994 -0.53798114784 -0.1963762541 0.0052236718117 0.51247070284 -2.0485544752 
-0.0060094805515 -0.65975470622 -0.0034882965772 3.0175771865e-06 -7.5041291092e-08 -0.026722833351 1.498700247e-06 -1.9792943373e-06 0.020743266136 
-5.0810008372e-07 2.0408306381e-06 -0.004906197982 0.060957244263 1.3036741024 -0.0033292469021 -3.6413145185e-06 -8.6910407985e-06 -0.0051411142616 
-0.02716039556 -0.96021017483 -0.0025014875348 1.7559286838 5.7677108573 -0.0071063701046 -0.11274412014 -0.66658700264 -0.0069624720425 
-0.13833474157 -0.48234983152 0.0041789615655 0.014982167959 0.051370313925 1.0509667538 0.085831889056 0.34161491494 1.7771639051 
2.3201052437e-05 7.5824130973e-06 0.022150037091 2.9092062795e-05 6.7623875813e-05 0.053728487998 -7.6256102063e-07 -5.1680739653e-06 -0.0036998812252 
-4.3518661931e-06 -7.666473776e-06 0.05086823945 3.3948772385e-06 2.6999029508e-06 0.011784247637 -3.6291696517e-08 -4.8106250284e-07 0.0085079048101 
1.251800439 7.9088946367 -0.00051541154889 0.43551895834 2.1634024083 -0.00014037616384 -0.28905590804 -1.4034447836 -0.013997033477 
-0.44050131343 -2.1997952421 0.0041020178556 0.019372064154 0.11824705751 1.1009282822 -0.30337051609 -0.82862373709 0.019352759078 
-0.0014817825206 -0.0042729300314 -0.064405904078 -0.31693313171 -0.87131315551 -0.0033013595604 -7.4260907417e-06 -5.9412322569e-05 -0.018499940181 
-0.00027163598711 -0.00082256236199 -0.046601827219 -4.7140012955e-05 -1.4561283088e-05 -0.023379140636 -0.00016690958293 -0.00015140523201 -0.050589859965 
3.8520509534e-05 0.00030350293865 -0.03802400108 0.00022189131926 0.0020749029121 0.14934385714 0.00048539544395 0.0052104807479 0.18275569554 
-3.691228211e-05 -0.00025253769255 -0.013655253287 1.027877113e-05 2.4538648156e-05 0.046106536816 0.00084270593228 0.0021657286506 -0.29622906476 
-0.00087478567513 -0.00036050275239 0.10780883023 -0.00050372308069 0.0019228332777 -0.39096339123 7.2900012775e-06 1.219358963e-05 -0.029000134316 
4.4221328339e-06 2.7530034757e-06 -0.013716750278 1.1474688896e-06 -1.7546993592e-05 0.019231392548 -3.1310231478e-06 1.610801343e-05 0.015259810579 
2.1587193389e-05 7.5032611082e-06 -0.028250288242 -6.027157311e-07 -8.0503061741e-07 -0.0030234186891 3.2520851554e-05 3.4079554724e-05 -0.041874798438 
2.0919104783e-05 3.3644991615e-06 -0.058187139636 -4.2617452909 -0.67251853601 -0.26145796145 -0.00043343363606 -0.0019682413073 0.019319007729 
-9.337840437e-05 8.390263938e-05 0.041011396108 0.10860864222 1.5391596953 0.00088056268443 0.20884823435 2.2589850608 -0.003392819581 
0.68953129381 2.2691955331 0.00043277119913 -0.62389399956 -1.9275382965 -0.0032788169864 -0.0010173249038 -0.029599687193 -0.38159758882 
0.0032624778548 0.016554455793 0.61153552978 0.76797808753 11.294370051 8.2116405278e-05 0.80435769306 11.014409082 5.493507494e-05 
1.1698835096 10.702743315 0.0032413945123 1.2259336671 10.442626515 0.00043700709006 1.2189388246 10.427047753 0.0055751548526 
-1.1405614848e-06 -1.3275658976e-06 -0.00096140803143 0.75816395845 2.0423932212 -0.0072882182575 -0.76840429553 -3.9470053805 0.0098192261308 
-0.24699099706 -1.0809985534 0.0045746307977 -0.46269779601 -1.8994780495 -0.0070015938318 -6.7274757235 -0.12388001752 -0.22355508832 
-0.068925787429 0.6088718154 -0.3274934046 -0.087735882696 0.92125431568 -0.43647376235 0.0027211253982 -0.022597762199 0.097371515309 
1.0398136172 3.4678466267 0.0015752620942 -0.099683186399 -0.42234371983 0.0053683580289 0.14938721478 -0.016313410223 4.4538406415 
0.71286260825 2.1080374779 2.5236679298 -0.0002024981419 -0.029754066058 -0.0037485603355 2.704779726e-05 0.00078619405753 -0.014413205584 
-0.77418679126 -2.2848283533 0.0092525197293 -0.78600412482 -2.2373929585 -0.0080717864078 0.7747482201 2.2969615371 0.0011631199239 
-0.067037784814 -0.20668995211 -1.1686802935 -8.6481529316e-07 -8.6068827842e-06 -0.0086266749013 6.3243970544e-05 0.00045510236586 0.037173469691 
-1.6421262627 -12.068506731 0.67421377734 -0.034051253496 -0.2729837437 -0.0073435699679 3.252964949e-06 4.1731775768e-05 0.0098174672727 
-3.5878480735e-06 -9.0517368707e-06 -0.0063425341886 0.0089480927316 0.07778259246 -0.018852481459 2.6849261676e-06 2.717246052e-05 -0.034844494481 
-2.9340714764e-06 -1.2153580484e-05 -0.0066077655059 5.1545769033e-05 0.00029287555886 -0.041226387226 -2.3505335025e-05 -0.00013857972096 0.03860029885 
-3.0995068326e-06 -2.2069016954e-05 -0.020886613147 1.1328344491 7.2483326031 -0.0048643879066 1.1979405149 8.4556459199 0.0014937691707 
1.0338229805 9.0747452 -0.0027990516891 -1.2583239187 -4.4318054997 -0.0074625714785 1.1476326619 10.773534379 1.3957513646e-05 
-1.1916079543 -13.020679494 1.6356373774 -4.0065920252e-05 -0.00054775978396 -0.024445480208 8.1170938637e-06 -2.3260059192e-06 -0.014356149637 
3.584574892e-06 -1.6032140367e-05 -0.0076334924445 -0.00013752560786 0.00016111876746 0.059129745378 -8.8380567554e-05 1.7084026267e-06 0.077115135022 
-0.00016101225907 -7.7790516611e-05 -0.06332251993 0.00010816730308 -3.9096734252e-06 -0.048781522697 1.8992962155 7.211464171 0.00033471737637 
1.7167819113 8.8559020238 -0.0027533502534 1.8605293133 7.8188098002 0.00082235229946 0.82723293831 4.1078777859 0.023259109674 
1.4662371551 9.1381777426 0.0085578773379 -0.14692309074 -1.0138161783 0.0076843387244 -0.080094457721 -0.53396171341 -0.010052550354 
-0.17817701693 -1.0680624857 0.0059241126783 -0.17253834481 -1.0263902197 0.0043661744969 -0.26547036544 -1.6572107482 -0.0023028028582 
0.55946768522 -5.7705935441 -0.52559495652 0.0021827503077 0.086553727111 0.89319848564 -0.00031989123224 -0.010567355217 -0.05870698577 
0.0013227104993 0.014742340867 0.25819324512 0.0010106977059 0.013646863666 0.16291813732 0.00010342507578 7.1715632696e-05 0.05159499089 
-0.00010008096187 0.0002891489409 -0.098627392347 7.4158151937e-06 -3.9138215847e-05 0.02928277795 0.15938258509 1.6801474673 -0.00028158660865 
1.2427037913 11.68184164 -0.0037698466286 1.4043661282 10.435387793 -0.00019888000202 0.26146840238 1.6239622942 0.0022779624907 
-0.20686404714 -1.5502002982 0.0097639354301 -0.2066518041 -1.5596729129 -0.010234407637 3.0443890512e-06 1.3202213882e-05 0.0060155205391 
0.52919360775 14.198027632 0.0024100223614 -1.8429474364e-06 -1.0622824941e-05 0.0051918487312 0.0021496911142 -0.0004189702975 0.11603508746 
-0.019500397241 -0.69597782696 -0.0018208659876 -0.076362184184 -0.60350389577 -0.0056074308069 -0.11792603141 -0.97033763081 0.0017796418673 
0.069796311798 -0.44989962131 0.019912088406 0.72155011901 2.8061987105 0.0017768606475 -3.6149299493e-06 -2.580003e-06 -0.030527839338 
-2.0197429966 -8.7928996093 -3.032734644 0.2223971708 0.77460600877 0.42615004502 2.4064111415e-07 4.8219769843e-06 0.0071803893358 
-3.4023470271e-05 -8.4559374491e-05 0.033662356687 -7.5269973952e-06 -4.4852960082e-05 0.012512220342 0.81562298352 15.327269052 0.0007956115362 
0.38067079997 17.135097272 0.010202834548 -0.40208683933 -17.081173223 -0.013716245612 -0.27592886451 -1.1116876507 0.0056470868851 
0.91358857805 4.9414091704 -0.016240516534 4.1309637622e-05 0.0002996816205 0.048657143575 -1.553162074 -4.6871014388 0.0057204989968 
0.7663060313 10.869964089 -0.003501833102 2.340549477e-06 -1.8418211936e-06 -0.022705292445 0.40636229985 11.249596276 -0.0046290376521 
0.43582305136 11.030191125 0.002809542646 0.001752684747 0.08946413942 -0.86185401561 0.023767919729 -0.033201100084 -2.5945416713 
-0.00039180972742 -0.010924961337 0.080874712296 0.002050603224 0.094473561257 -0.53741104368 0.022647276741 0.010948318466 -2.4280239384 
-2.9956971848e-05 -0.00036231586843 0.0064893229562 1.0709114815 7.6907385878 0.0030126717353 -3.9765237347e-08 5.1678203861e-06 -0.0065967651312 
1.7079766181 7.862607453 0.000836216963 1.6988459378 7.8642210669 -0.00041591558472 1.650253712 8.9122072351 0.0026485185183 
-0.0012827938968 -0.040167084386 -0.47775728035 -0.0036194229804 0.12011197423 -0.73945427653 0.005441204048 -0.017340775077 -0.87433282321 
-0.00059598688897 0.020169409192 -1.6066335886 -0.0049656100471 0.21341126379 -0.033306251012 -0.0039025886461 0.358875296 -2.840721851 
0.00054608594142 0.024272669463 0.34838320295 0.00084522230262 0.027190575273 0.27454143769 0.0004352537579 0.010602435167 0.19596911185 
-4.7261870135e-06 -2.0006718825e-05 0.0077235457254 -3.9275823181e-05 -3.1741570373e-05 -0.031518563527 -1.7380207961e-05 2.4379522151e-05 -0.052941508356 
5.6048661837e-06 4.5208287191e-05 0.013756184245 -0.061160267927 -0.62101992496 -0.0020986127561 -0.13858453372 -1.2763862711 -0.0023382785733 
-0.11617964148 -0.99636643041 -0.0043162106509 -0.13585672686 -1.2428660459 -0.0034404493519 0.0028161129126 0.19429724853 -1.0490966245 
-0.010019479377 0.13075228875 -1.8752098123 0.0012072977793 0.15229268837 -1.5609214168 3.5362972429e-06 3.6878264747e-06 0.019671001676 
1.1455339183 10.427394517 -0.0018525151358 1.4860647365 9.7378488418 -0.00078769698725 2.2621840524e-06 -1.4917911521e-07 -0.0029404093628 
0.00020715691509 0.0012044272371 0.12810664781 0.00017991419332 0.0013257755396 0.081062020246 0.00031240687465 0.0025354712905 0.09619952618 
0.0016013259034 0.017900617281 0.26847375844 0.00010994722539 0.00091782745971 0.043726443938 -0.029811137797 -0.39046381821 -0.0098392375815 
-0.00019006534502 -0.0004226102138 0.011257297766 -0.00023704690218 -0.0005358312897 -0.026677182025 1.1951367157e-05 0.00012065496352 0.01101701165 
0.68493120065 14.650405207 -0.0021534647126 0.73101784886 15.115693569 -0.0005247709785 0.00012938581175 0.00074469436369 0.083746281008 
-5.5870290413e-05 -0.00033827612695 -0.023972808174 6.7631805648e-05 -0.00067668380481 0.2672396022 1.9845142748e-05 -5.0700555324e-07 -0.016163373881 
0.0007099269092 0.0078633528795 -0.022630652667 -2.7207852883e-07 -3.5473890724e-06 0.0047795808134 3.794660886e-05 7.983298396e-05 0.040648123537 
-0.001713596269 -0.033036678743 -0.00028637028286 0.0023683567841 0.046451732187 0.0064204707242 -0.016223504423 -1.3936129864 0.00062404429074 
-0.015067165727 -1.3219463355 -0.005751807965 -0.00031776851525 1.6123208329e-05 -0.025700274674 -0.79057772737 -2.2333035129 0.0076507548086 
0.38114283206 11.67494135 0.0013405606977 0.3922705022 11.513352871 -0.00098046055794 0.00091383360135 -0.22665042025 1.528690204 
2.5004656015e-05 0.00013819624258 0.03575855368 3.1434244665e-06 -1.4415355032e-05 0.027429149982 0.0011358417437 0.015294803581 0.34863102359 
-0.0097440238995 -0.0069477949306 0.56900742751 0.0023043825767 0.0030950249497 -0.13537920278 -0.000204954762 -0.0004626176779 0.025997660289 
-4.5795789516e-05 0.00091701572724 -0.13196370084 -4.1918814648e-06 -3.3970891352e-05 -0.0021437433555 -7.0892012919e-05 -0.00064203620106 0.020312034856 
-6.5845475833e-06 -1.5785472048e-05 0.018900419189 0.27491165113 2.1402559574 0.00085129441725 -0.27549848889 -2.1297679775 -0.0059761106568 
8.1672227211e-06 9.0262811142e-06 -0.006446925699 -5.859002542e-06 -4.894379681e-06 0.011360041853 -0.00088919659144 0.2533368939 -0.1983988854 
-0.002256785722 -0.38530027494 0.069585547853 -0.0051407807204 -0.5835437506 0.4221640461 -0.00020152865315 -0.23398276633 0.2043594915 
0.0096474625375 0.009677815939 -0.49074576893 -0.0014285288138 -0.002399227514 0.28256143027 -0.00054926907992 -0.0011976292938 0.021028716699 
-0.0039139111954 -0.010490311484 0.17740468763 -0.39427770334 -1.1298349474 -0.01404986917 1.2696745146 10.994488804 0.0026444257616 
1.2760241896 10.81526253 0.0025324357776 -0.006761791011 -0.30755125334 -0.0079769283939 -7.1540835925e-07 -2.491092036e-07 0.002694783671 
9.1751598838e-06 1.6144095486e-05 -0.0161181988 0.0022594593007 -0.29056584353 0.025800299089 -0.00018517374254 -0.021583587056 -0.058068128829 
-2.4385466726e-05 -0.0004043652317 -0.010148784673 1.0318799488e-05 1.7058430836e-05 -0.019285949372 -1.8998536537 -6.4382700002 0.0072555577866 
1.3516094602 9.815114949 -0.0077316835945 0.00011587985191 0.00067143222687 0.063961942735 1.9237672601e-05 -0.0001427573786 0.11647020204 
3.5471460114e-07 -1.3015704423e-06 -0.0025197127803 0.045796094579 0.25230342652 1.1560061571 0.0019883372514 0.022116558021 0.052886194347 
0.0073003374916 0.047874641044 0.85740406219 0.24999214676 2.2091898589 0.00078673282341 -0.37610395255 -0.9901703395 0.0097012774058 
-0.37382937433 -0.97815695651 -0.0063066939524 -0.14857674758 -0.36922488122 0.0016515220553 1.1864043906e-06 3.505243227e-06 -0.0028076653723 
-1.7241321399e-07 7.9882138657e-08 -0.00025272513397 -3.1757687286e-05 0.00027584158789 -0.15186741158 0.00063765777885 0.13911481483 -0.061941803346 
1.1090117514 12.839905105 0.00081334172811 1.2829297805 11.464517979 -0.0054539401299 -5.2526244457e-05 -0.00010960867776 -0.074196584146 
-3.5082600136e-07 -4.9569697704e-05 -0.01359092445 1.4158355834 10.194970881 -0.00033079959758 0.89253620201 4.2886764618 -0.00095661307191 
-5.5549921624e-06 -9.6991713807e-06 -0.019662192063 0.82888499266 15.217178255 0.0002250881262 8.8549373971e-05 -0.00010417919389 -0.030756706603 
0.328080995 2.5956393064 0.64878863045 -0.0056929184371 0.33121046855 -1.5079342238 -0.31479541819 -4.9996294751 2.2382974818 
0.29467707939 4.0936812206 -7.4129388064 -0.00013171721044 0.00037669434169 0.08304274166 -9.0408498664e-07 -9.0213793841e-06 -0.0015127587555 
-0.0013589675589 -0.032465139669 -0.28308090177 0.00011373354596 -0.018685554095 -0.16958195353 0.0089947204651 -1.1112536159 1.7512116179 
0.35496122485 -3.1563382951 0.83476458366 0.50626425664 -5.5867671361 1.0332015749 0.21950368005 -2.8969565055 0.56109799577 
0.0006056413849 0.0076180363198 0.35913806579 1.6426415841 9.087867729 0.0042479736466 1.6314941747 9.0879102718 -0.003381600561 
-0.0019387393207 -0.11296907934 1.2207984449 -0.012753372566 -0.8573100865 0.79833607214 -0.0098163344642 -0.92224986406 0.6902556025 
-0.0014806036722 0.24803894672 -2.4043538391 0.00073847730119 0.04600893829 -0.39302489261 0.0033073067888 -0.44314329777 1.2634493892 
-0.0047673933651 -1.4371963868 1.8587319247 0.38979195823 11.509663121 0.0013714187715 -4.6302513165e-06 -1.7818512117e-05 0.013298741814 
0.82356983079 -21.547373883 -2.275842521 0.57470371708 -15.329366581 -0.41557803147 0.9417552234 -17.657905859 -1.6373608837 
5.99203279e-05 -0.00011879046319 -0.08775621949 0.65959376875 -7.8492930576 0.29869362097 1.226439742 -13.58953426 -1.1031656153 
-0.054304495147 -0.98231830682 -0.0015693176619 -0.3906222163 -1.1144993162 0.025580585179 0.21983867848 1.7178730125 -0.60474089187 
-0.62758206992 -3.0608687399 -0.0088259643001 0.46568296754 2.4522153537 -0.00192032754 -0.76789032673 -3.4706780572 -0.0050223913272 
-0.76877221726 -3.4983217643 0.0067590748886 0.85584738776 3.5386488018 0.0054581983615 -6.6696678371e-06 -8.2170677327e-06 0.018623825115 
3.7139930091e-05 -2.2501379946e-05 -0.044936244223 -1.132621913e-05 9.0463270001e-05 0.046856219692 -8.6264393083e-06 -3.4649883094e-05 0.018905497479 
0.00046899303025 0.0065076243327 0.20998455187 -0.62561715316 -3.0342467186 0.0081990461833 -1.3219760663 -7.744273106 -1.1546074892 
-1.0321266018 -5.6534710797 -0.77812171389 -1.0099270104 -4.436478046 0.34045612261 7.0993701422e-06 8.6615927749e-06 -0.0053934839905 
0.00052283304519 0.0035539301448 0.31355890247 0.15575428008 0.46143439753 0.41870387004 0.38644103127 1.1342489416 0.62960439472 
0.0034662136285 5.3802034834e-05 0.40578143823 0.80873587487 13.693360637 -0.00014306712462 0.99211948782 12.619461639 -0.00094306113852 
0.71648460063 -6.51637494 -0.11018830175 0.63133658463 -9.7851818279 -0.45699457166 1.4947428444 9.788636172 -0.0047251173596 
1.4985091514 9.773057683 -0.0020490739967 -0.032471980812 0.50733581839 -2.6082376868 -0.0028184941417 0.00040162876601 -0.27098150249 
0.48178047986 -3.295039053 0.38273321722 -0.13972724592 -1.3487341227 -0.0038171478703 -0.031363306482 -0.41542492336 0.0019688827417 
-1.9853737038e-06 -1.880390878e-05 -0.0084797525465 0.46656381791 1.3716015028 1.186457941 -5.821669238e-05 -1.3839838943e-05 -0.063552385401 
1.713101353 11.951820743 -1.7219014951 -0.80887695436 -8.2664826111 0.13183664391 -0.55328193152 -1.3515063204 0.013016640134 
0.3963661453 17.638245922 0.0013625644052 0.00076698744933 0.0078692315604 0.43255639212 -0.0013740080446 -0.059149313268 0.20760803151 
0.11871983952 1.0246290271 -0.001220867087 -5.6943722068e-06 -2.948207885e-05 0.025304490789 -0.29200315808 -0.71055073199 0.011065120975 
4.3856649425e-05 0.0019347106327 0.022882411509 -7.8961778845e-06 -0.00041505421459 0.0037388934409 -8.0439074209e-07 -0.00013012009322 0.014867546481 
2.3947022765e-06 -0.00016163675616 0.016953018354 -0.46414755336 -2.8909809223 0.061304476386 0.00019806734929 0.038766832979 -0.13593387139 
-0.0013443891264 -0.033356751662 -0.32823939724 -0.28272390391 -0.69303154195 0.0055547494302 1.4637409402 9.7890982578 0.0016695939311 
1.4976962719 9.7615865435 -0.0013356939256 1.8906412327 6.9086594186 -0.0023113649896 0.00011518573867 0.15631040374 -1.0931069188 
0.021084476164 0.19796020342 -3.871645415 1.141762 10.329944276 0.00042521639583 -0.0092752152027 -0.91843591363 0.012232467344 
1.3055154271e-05 3.586929725e-06 -0.0096370065069 3.705197176e-05 8.3374136709e-05 -0.0089457154351 -1.7377543545 -14.85819176 3.4700709616 
-0.034374250472 -0.86763135593 -0.0098960299761 -4.390283143 -0.51153820162 -0.29832868648 -0.0011533794537 -0.12270396246 -0.29685242996 
-0.00081268449278 -0.068927769065 -0.025000898153 0.00024700237942 0.0060752786885 0.074002734048 4.1096336416e-05 8.9824113218e-05 0.010064814849 
-1.5794322902 -4.611288825 0.0083777090573 -0.61811263819 -1.7121851671 0.0029312090318 6.3908404977e-05 0.00054489750984 0.081882225971 
1.8000988211 8.1592341586 0.00081900027756 -0.22349438212 1.731774044 -0.91704310594 0.002269342714 -0.32326948818 0.20104155816 
-1.2064497727e-05 1.3319555158e-06 -0.021684930295 0.85122611582 3.535410398 -0.0041132902631 -0.00041098137539 -0.092524150002 0.10015931325 
-3.8130055362 -0.30179401051 0.012803634778 -4.2779842674 -0.30048397862 -0.40244934146 4.9630388088e-05 0.00066410459007 0.028609648297 
0.0016974145024 0.066735367631 0.011995296958 -8.0584678812e-05 -2.4845730983e-05 -0.032124063179 1.0666683031e-05 1.9666630172e-05 0.016596232417 
-2.0659034152e-05 -6.0691193546e-05 0.037575338155 0.35951591566 -2.8913497758 0.18582578601 0.0035556561836 0.0065609027001 -0.31575767186 
-1.0624402946 -4.4627076046 -0.0066692618579 -1.7781841168e-05 -1.9464980005e-05 0.019852730589 -0.18677356695 -1.6892281866 0.0049402751868 
1.6473585668 9.1333121741 0.0028504743608 0.0022050989225 0.087989721028 0.021098293932 -0.0019311331125 -0.075566822719 -0.0043486770562 
0.79909815141 3.8112786568 -0.0024825963299 1.7125849857 8.8395490524 -0.0044028708266 8.5338265332e-05 0.0012842103674 0.087116946412 
0.29603793977 1.6087092521 -0.00072894212947 -0.29223496152 -1.5789232471 0.0011373319074 1.1418335806 11.694001546 -0.0037127369848 
-1.1805657455e-06 -1.555482213e-07 0.0064322810157 -1.0768458509e-06 4.149579869e-08 -0.0090676630593 0.00031744259367 0.0016143756198 0.12603663658 
-0.11871419759 -1.9196790486 0.43598286667 -3.3139406339 -0.18269280362 -0.22508073519 -0.18394881532 -1.6553130713 -0.0033455328384 
0.0019776308727 0.18947358001 -0.10049096253 6.9794583559e-06 0.0012565779014 -0.081775932885 3.6051604243e-05 0.0030995199852 -0.053890736584 
-0.061215221447 -0.8477511375 -0.006090123063 -0.057658956713 -0.79076366064 0.0052089543897 1.4112644804 9.8096664556 -0.002696976592 
-0.019811535115 -20.021361019 -0.0022118166969 3.2393372484e-05 -0.0087940603596 0.068923571359 -0.11643983175 -1.3230350322 -0.0034032374003 
0.11503567463 1.2951923223 -0.0003850930279 -2.0557881675e-06 0.00022648348681 -0.012236358192 1.0096504547 4.4687135243 -0.001489259973 
-0.075162082504 -1.1581796447 -0.0056871769786 1.2911989345 10.739468255 -0.0017879700835 1.1056553668 5.2012948694 -0.0014627414319 
-1.2120102678 -5.2696674664 0.0034587943886 -0.1482502244 -1.0569830146 0.01335771931 -1.0076366737 -0.257487477 -0.35463202032 
0.50993476336 0.15389873158 -0.33203254934 1.2257614481e-05 4.3054047535e-06 -0.028502099738 
Minor%20Principal%20Stress%20Vector 3 3545 double
0.065906889777 -7.4186338314 -3.747010616 0.044322631592 0.99654269518 0.094108454792 0.067755095875 1.4934371772 -0.034069622047 
-0.012575212873 -0.036125706653 -1.2724374652 -5.2654008345e-05 0.046971705763 0.0095069003729 2.879819512e-06 -1.3395907396e-06 0.012910983917 
1.4624802973 -94.308955586 0.17309411491 -2.8762059568e-05 0.03551936642 -0.0011319616186 -4.5862688038e-06 -2.0770904894e-05 0.057077348214 
1.711561471 -97.824357614 -0.4953772937 0.00016512803107 0.4813085077 -0.79571264675 0.043707402329 0.28867623576 -2.1994229527 
-0.0034798085638 0.0082236990795 -0.22885375993 -0.0077284404003 -0.050480146871 -0.89230412224 -0.050017367674 5.6038356547 0.25115936634 
-0.17073665652 -1.1305071426 5.7515621314 0.016821118788 0.098281953793 -1.2520585955 0.0073045440916 0.0047223563369 0.55821920633 
-0.0014344096344 -0.0036039695448 -0.19412155083 0.016653984296 0.68541385196 0.21765294086 -0.12750411696 0.14618252099 11.320636953 
-0.0013439908151 -0.15683612889 4.6380987231 0.0065182987312 0.094749137022 -2.4501337781 0.0097835823348 -0.0033321537326 -4.9307372849 
0.0035804091043 0.083829403823 7.6015896084 0.0013820944685 0.19203017031 8.8352828606 -5.2058195148e-05 0.015140916401 -0.59206232552 
-0.00084464206216 0.070966453803 -3.6453654478 -0.00019096676592 -0.037649069027 -0.17084195297 -0.030128279341 -2.0083954636 -2.4056786717 
-0.0043860180743 0.09661730062 0.057449084382 0.0042529209833 -0.10692507679 -0.040306120553 -0.01474459217 -0.12438622732 -0.46038334959 
-0.010739753949 2.182849759 -0.32401444312 0.0052970777368 -0.14682466888 -0.59528395899 0.00041641183312 0.13429822917 -0.038752420896 
-0.00031203539183 0.09012323692 0.14310643322 -0.00015906465849 0.066223289434 0.040211492043 3.168653648e-05 0.021184493714 -0.050020806803 
-2.651926103e-05 -0.0064729874963 0.01419683017 8.7253924422e-05 0.038528071757 -0.0098975725651 2.0438866269e-06 0.0016225867995 0.0016645176045 
3.1071702477e-05 -0.0037404180955 -0.036182566805 0.00016662597819 0.082726280922 -0.021823772173 0.00012308620156 0.052242000905 -0.018611745589 
0.00012051669933 0.058274070992 -0.014739917399 0.00018187818818 0.090685284708 -0.01156243268 -1.8776819501e-05 0.011084645953 -0.034186743846 
-3.2628606523e-05 -0.0015271490715 -0.029451912374 0.0019534084112 0.4817588969 0.0029128969117 0.0008374173324 -0.016605645528 0.0052374330519 
-0.010613457076 0.65604480907 1.0826804 -0.057718518237 -1.5385169773 -2.8621656664 0.0075326972571 -0.45526228444 -1.1359665882 
-5.6009006383e-05 -0.022797573755 -0.020954622256 -4.5388349501e-05 0.01314114817 0.033114872141 0.00050938620244 -0.12871417387 -0.20027058857 
0.00042704089525 0.29156967168 0.07765295841 -1.7510860497e-05 -0.0036405901895 0.026467207449 5.8417021238e-05 0.020259096935 -0.016094027412 
5.8682323108e-05 0.02168852833 -0.013258045053 -2.0140888199e-05 -0.023909214024 -0.046116495342 0.00027708140507 0.083583021811 -0.043124016423 
0.00019012766704 0.064436223857 -0.044402712221 0.00020369592696 0.095826142757 -0.036093736138 0.00015451883248 0.095417729679 -0.040239176013 
8.2482980735e-05 0.081683228067 -0.036920252132 -0.00010700585619 0.070732123881 0.035458210805 3.0855038691e-05 -0.021450315734 -0.0087650689668 
3.3899988255e-06 -5.1734629835e-06 0.0129495782 3.0896269792e-06 -2.454405326e-05 0.020283586587 -9.5760215581e-07 -7.6789318245e-05 0.028910409946 
5.8298910958e-06 -5.3989975644e-05 0.013365979328 1.0189179093e-06 -2.2258007126e-05 0.0039963985297 8.7526074195e-06 0.000199297813 -0.022079804166 
4.9690286394e-07 0.00024306149271 -0.020327933116 2.2130986809e-06 -0.00063196503479 -0.024622654122 -0.00081121224868 0.35871903295 0.058740043305 
3.7011982958e-06 -1.1098759817e-05 0.01663775104 5.5135453337e-06 -7.6563109715e-05 0.041729322542 6.3778776221e-06 -3.1429693247e-05 0.013632725401 
3.6460082234e-06 -6.0462174979e-05 0.023327415037 -7.3358085947e-06 5.32639544e-05 -0.012053815384 1.447400029e-06 5.8188280383e-05 -0.0089231183923 
-1.1405049944e-06 0.00018253848072 -0.028465327488 1.9529095529e-05 0.00032823639073 -0.027761850426 -0.00028786768656 0.099707174937 0.019187769936 
-0.00042280654571 0.21749333644 0.045978340981 0.078698840422 45.437847064 -0.020422453979 0.15643102228 21.122799204 -0.036862838513 
0.030714548719 7.5186037007 0.011039527019 1.3003140569e-05 0.00019712947936 0.0042380673619 -7.1058458146e-05 -6.2847265787e-05 0.064358561167 
1.6168837723e-05 5.5748246036e-05 0.059170097964 -9.0477146241e-08 2.199978457e-07 -0.00053916422214 9.2882978367e-07 5.7323480499e-06 0.035238601798 
-1.3313741544e-06 -4.0103575372e-08 0.013431835442 -1.1589938589e-07 -4.7941958502e-08 0.0012110604551 -1.681222758e-07 -7.9962200122e-07 0.0046953243085 
-1.6916546759e-07 1.8337603171e-06 0.002099709631 9.128225838e-10 -9.3099519905e-10 -2.0132406424e-05 1.2263128216e-08 6.6127423061e-08 9.8896340169e-05 
0.29932218124 -67.511627303 -0.29923893712 0.085209752304 32.538920878 0.12791204838 0.17411833311 13.560014456 0.065515836885 
0.040438102467 3.236539491 0.045649390615 5.4292264061e-05 7.7025764328e-05 0.067238532425 6.1346756091e-07 0.00017599274616 0.040141740914 
-1.297424584e-06 2.673871075e-05 0.054248728419 2.9316347029e-05 3.849851965e-06 -0.039169556094 -1.0522545992e-06 -6.3143407913e-06 0.01035325872 
1.1471890182e-06 -1.6951295342e-06 0.004750406292 2.0893974172e-07 -2.8379334194e-06 0.0063581215981 9.8953271314e-07 -1.8524868414e-06 0.0024372161699 
4.1765243904e-06 8.9487822331e-06 -0.014782275039 -2.2783541312e-06 3.0061122115e-06 -0.009137011689 7.0601484873e-06 -8.1811246014e-06 0.022523397447 
17.62524109 -86.554158378 0.16112371633 25.773963506 -63.852386778 -0.284656995 -19.338730276 32.755477935 0.31993444915 
-0.70811465353 -1.6547016453 -0.60043606529 -0.097061707219 -0.1651440043 -0.047251817304 0.20574774552 0.49413612547 -1.3626152751 
0.060762225377 0.22975305614 -0.71133742587 10.235319901 -93.856678948 -0.20801511859 -22.8507931 77.147694603 0.10422723225 
-24.08686534 49.39971252 0.48872601112 11.705196701 -17.053006591 -0.76986100245 0.33077901745 0.52708384792 0.10757201578 
0.36978054357 0.94967264785 -4.7621222428 -0.91146875428 -3.4422644171 4.5886228706 -0.24535550008 -6.0506426596 -5.5675220121 
0.002131871444 -0.11922576624 -0.0037773356078 0.026672089434 -0.84287158915 0.33523009987 0.095252473676 0.62477729804 3.6308293981 
-0.0011382203117 -0.40598938279 0.060937198507 -0.00054754183588 0.056067841436 0.082148667428 -0.00012866895673 0.08839026929 -0.033309207262 
0.003117322871 -0.40470426493 -0.063804562992 -0.0014737122027 0.26508967713 0.007181406468 -6.7872385095e-05 -0.025713969994 -0.05307271716 
-3.441640771e-05 -0.034121129053 0.008116738021 1.1976937477e-06 -0.00021265146694 -0.0072283998638 2.0812124106e-06 -0.0056638330115 -0.025192183874 
1.8424668032e-05 0.014593023605 0.0033655037015 9.9991073891e-06 0.0077387220631 -0.070910578126 2.979237592e-05 0.0069054533459 -0.06030620447 
3.5273430575e-05 0.029827586908 -0.062187019172 4.4650777751e-05 0.041147389906 -0.037054110285 -2.5970164535e-05 0.011821323877 0.11083509066 
6.2637972885e-06 -0.0082554135283 -0.02938211188 0.022289156522 0.86831939251 0.012095609288 0.00029682663308 -0.010283908851 0.000103322815 
-0.036073687924 0.24765676065 -2.9833486347 -0.0034759050475 -0.26734615713 0.05842368469 -0.0012254940648 0.34326718813 0.0032179448114 
-0.00076879903239 0.013978763037 0.26272327314 0.00084934189312 -0.2503075195 -0.018463103742 0.002785195798 -0.44409550546 0.30500176292 
-0.00010559354612 -0.28665259035 0.086507171411 0.00013613737732 0.08040311982 0.073542551749 -3.392448434e-05 -0.033449885457 -0.0066815535229 
-2.6776575747e-06 -0.0063467777322 -0.048850076162 -5.0854813898e-05 -0.034818818446 0.028764729254 -7.5781381634e-05 -0.051381858513 -0.046538889014 
-9.8438469466e-06 -0.013672788035 -0.079101390523 -2.4777053008e-06 -0.034805731648 -0.083467571859 -5.9744352393e-05 0.011543282544 -0.13662520165 
1.6739389842e-05 -0.041983591963 -0.12328084239 -1.8317903406e-06 -0.016664575929 -0.1034351231 -3.5174151219e-05 0.028951971628 0.00023828494526 
1.2007240949e-05 -0.023979782727 -0.000671286779 6.698895923e-07 -2.7884327587e-05 0.06681258224 -9.3291447546e-06 -9.0698180616e-05 0.061935670199 
-3.2803305246e-06 4.5020969614e-07 0.029910294555 2.4471248629e-06 -3.5698315706e-06 0.015192876825 -2.7658007622e-06 1.0534247928e-05 -0.011735228548 
7.7627186911e-06 8.1479505221e-05 -0.037404900213 -1.9759175805e-05 -0.00011216096091 -0.069346256158 -1.9846772055e-05 0.0051557890275 -0.096798726231 
-0.00089156338701 0.41533083365 0.0032895181433 -6.5750356898e-06 1.9015878481e-05 0.082099142863 -3.2423938238e-05 8.8732676815e-05 0.085384097267 
-4.293317374e-05 -4.186292455e-05 0.089690982372 4.0591352869e-06 -1.4561755315e-06 0.03823501414 -2.2425503343e-06 2.1317109116e-06 0.009392200066 
-8.2660852099e-07 -4.3822956297e-05 -0.028471841352 -2.2960061625e-06 -5.9798042482e-05 -0.057869293929 6.3613759559e-05 -0.00019536095177 0.12347558212 
-0.00043393975872 0.21471501505 0.028782595907 -0.0003095123398 0.23776797927 0.0014194833061 0.037211730883 48.198130169 0.24404714195 
0.055149449006 21.84216241 0.096148033251 -0.013150792872 8.4090341626 0.077268216254 -0.00012876622941 -0.13024877018 -0.032629103784 
-1.5632833461e-05 -3.0611884117e-05 -0.007905307134 -1.9791051335e-06 6.8919519199e-07 0.0018237526812 -2.3303535623e-05 2.8452194595e-05 0.058820354045 
-1.3695357463e-06 3.2799512455e-06 0.0091580156596 2.9822677967e-07 5.4131099192e-07 0.0024553859862 3.7287550944e-07 -1.1328630232e-06 0.0089173784032 
2.795632118e-07 -1.8332975439e-06 0.011572780454 1.1091221363e-07 -2.290663695e-05 0.012822793879 4.7149419275e-08 1.1321981688e-06 0.0063254200097 
-2.5915596103e-06 9.7091185968e-06 -0.015262226452 0.45097045363 -70.50561877 -0.0013779759871 -0.060667562273 -33.954736762 0.00036917365358 
-0.074068070333 -14.294405336 0.00044721676644 0.027655930267 3.8240741832 -0.00027048819655 -0.00017343473043 -2.0197798719e-06 0.14838472592 
-5.9902005967e-06 1.1890153695e-08 0.01803382547 -1.2485245843e-05 -5.5589184911e-08 0.062303157398 2.1912468494e-05 -6.6863853699e-09 0.061107820776 
5.4592458913e-07 -2.0513208682e-10 0.034115490993 4.9740429757e-06 -9.7634820933e-10 -0.017207943972 2.7223008838e-06 1.0566599287e-10 -0.015599315096 
7.0100628009e-06 -5.7118381577e-09 -0.019129867308 1.3156832234e-06 7.1497283928e-10 0.005166849019 -1.1273963581e-06 2.4978870587e-10 0.0026522587128 
-1.9286122764e-06 -4.6018978044e-10 0.04119029075 -17.506517559 89.808926791 0.4056133254 26.778347406 -67.341541997 0.3643678423 
-21.307102835 33.015465141 -0.16396957446 0.4475039513 1.5729531242 -0.10830339685 -0.17204650078 -0.2665590006 -0.054212508955 
-0.20007863122 -0.54075739984 0.070489747679 -0.44819093779 -1.8359133553 0.00043101954664 -10.248970767 96.958303767 0.15973367856 
-23.432692926 79.742947602 -0.049396108425 25.606754903 -52.641428903 -0.11707282504 -12.401466806 17.429833894 -0.56416251688 
0.31906636491 0.47105946036 -0.16335191198 0.31750224422 0.66531094613 0.3345070479 -1.0979800754 -3.2671148403 1.4011957769 
-0.30968011369 -2.0602973306 -3.5510143202 0.61970499438 -99.57048484 -0.026299689579 2.5494722461e-06 -2.8168796599e-06 0.064892582587 
-0.00027417308745 -0.073224509551 -0.12325689049 -0.084587939447 1.4939569017 6.0474687697 -0.071194251058 -0.66745645741 3.9676190644 
0.022947361334 0.31988997151 -2.3780490836 0.0064747429079 -0.19551405485 2.1821572052 -0.065925955948 3.4747658941 4.2561368311 
-0.034637252967 1.9429022124 7.4538066906 -0.03283630702 -0.38165574274 2.1410482212 -0.00026075509504 -0.02911427738 -0.0054891152009 
0.0042575983929 0.38034206592 0.32375843562 0.0012582263093 0.064528405943 0.43913911334 0.002702250869 0.20980289901 1.9973114491 
-0.13630086865 1.1575519726 10.728702806 0.082195040911 0.73001725433 -3.5136157199 0.007979571712 0.23450965812 -1.0409439155 
-0.087936947913 -0.7272990785 11.585155626 -0.18486589704 -0.93177404825 10.371810022 -0.0024814588854 0.27971943969 -2.9202284031 
-0.022980097995 -0.32538273938 2.5716347908 -0.0072152019085 -0.55809979427 7.5538044661 0.10426614042 0.91718215015 -9.1695225339 
8.7310482508e-05 0.0011449252113 -0.014522711337 -0.0084205392093 0.046059397802 -1.3238428479 0.0063906774876 -0.044768445364 0.71333870983 
0.00072878826323 -0.012276216057 0.20950712197 0.0030212332605 0.1305496824 -1.6723521215 0.0026552774077 0.14083897603 -2.5649732735 
0.000754461117 -0.12347470064 -3.2170966187 0.0028151719074 0.21653254256 -3.8254955133 -3.3040854819 -10.341139173 -0.0047895367837 
-6.71812802e-07 3.7112741295e-06 -0.0067271725003 0.6333786257 8.5941169526 -0.0707603372 0.5161955001 2.177158572 -0.0040754964944 
-3.4666024446e-05 -8.9482381361e-05 0.0011394940106 7.3506566755e-08 1.1239439595e-07 -0.00037840249902 5.5882790376e-07 2.1794734411e-06 -0.0027102753381 
-0.56162651929 10.501738246 2.2291422154 -8.0100249822 -19.392671731 0.0077720275888 0.80230840595 6.0471754942 -0.021461932129 
-2.0109416184e-06 -3.2407452332e-06 -0.0084112956678 -0.00018463075861 -0.0010727116399 0.0099947626459 2.2081794907 4.5752859579 -0.0047340386249 
4.9056113941 22.325696226 -0.017138528245 -5.602407801e-08 1.8084989523e-06 0.0069938663007 -0.38131418983 -2.652465168 0.00012302984921 
0.068401760097 0.22228073719 0.0041456266767 1.4534435291 4.3358622449 0.011627512914 -0.00096375524084 -0.018880078032 -0.21644439622 
0.21201253229 11.484379313 -0.38444795182 9.653409539e-08 1.7379359283e-06 0.0061299930496 -1.7012581244e-05 -0.00014958813062 0.015678857538 
-2.9347845578e-07 -5.0365782002e-06 0.0024307108872 -5.010914687e-08 -2.2536710705e-07 -0.00059231169246 -2.9219042113 -13.454249575 -0.0065457872316 
0.025839931784 0.86716838856 -0.28748349538 0.09379084492 0.69534510946 -0.0067772755575 -1.0704129618e-05 -2.3399860196e-05 -0.02702705871 
6.6536620991e-07 3.442084506e-06 0.0032286943477 2.3987734209e-07 1.4300821243e-06 -0.0088986667905 -0.51126156728 3.6044427141 -0.71373051825 
-1.4145064441 -5.6802529565 0.0040201654815 -3.7109519634e-10 -1.5962557206e-09 2.9512548205e-05 1.2549235832e-06 7.2639169627e-06 0.0086522602779 
-1.6261351504e-06 -8.9829390909e-06 -0.0065686277084 0.0040934181674 -0.074888867963 -0.16040221823 2.7280782174 6.6762451212 0.0098157207761 
1.2917150149e-05 3.411209757e-05 -0.016484186787 5.2058048686 10.541587474 -0.020571811367 7.3933219082 28.305402539 -0.0093645988639 
-5.5792317972 -16.669471324 -0.013493856951 6.7773129966 29.806371952 -0.010043315168 0.063986489335 0.2621408029 -0.0013504956638 
4.1093368563e-06 8.4024487697e-06 -0.01105532123 0.14353826453 2.016256513 -0.04581449768 -0.92522774843 11.599130676 0.65436162797 
0.10201825066 0.91451405732 0.0082393335523 3.8882326104e-07 3.6815621523e-06 0.0070689157 -7.8985846238e-07 -1.3943821815e-05 0.001296543159 
2.4158549276 19.070985009 0.052654357203 -5.6084991252e-08 -1.2768805518e-07 0.0033202788743 -2.512733272e-05 -0.00025349098644 -0.0048015323496 
-5.2809009572 -11.790400632 -0.00065028004789 1.0687344735 8.3032392015 -0.044400263809 -2.3274014468 -9.8344995006 -0.0098150153432 
-0.39311638833 7.0417987511 -1.10904082 0.025429893158 0.94837910247 -0.29794706295 0.02766866134 0.6827483954 -0.81290483661 
-1.3391722609e-07 3.8059871193e-07 -0.0021274855418 -4.8748478664e-06 -1.8917832671e-05 0.0037331430093 7.1353038802e-08 -1.9189952704e-07 -0.0010359322459 
0.13241688668 0.30424801434 0.019743432672 1.0660971823 2.4330352553 -0.014918619857 -1.6411399359 -15.331060719 -0.0079897853043 
3.60277115e-08 3.4815392382e-06 0.0046233571495 0.0014481638109 0.029202432743 0.79156535057 -0.92986974284 -5.4287678211 -0.0039605139796 
0.0029432837566 -0.028706585391 0.6743632604 0.017981276033 0.21445696776 0.0032350303 -1.3226635737e-08 -2.0632647497e-07 -0.00053892413943 
0.70222632405 2.342034628 -0.008222472113 0.66958808839 3.2062480604 0.001596329942 0.61163290761 1.7344345272 -0.0012945264412 
4.386823481 26.262372585 0.052418362467 9.8886180947e-07 4.1464983002e-06 -0.0098959833607 4.2446396679e-07 6.6477460542e-07 0.0029219016707 
5.4758038781e-08 4.433610702e-06 0.0081286631936 0.0074579065874 0.2579759145 -0.51793733254 0.096058794759 1.2153832474 -0.0033998603322 
-7.3440040746 -22.551429216 -0.0077818123711 1.1426647749e-06 2.8017661812e-06 0.005090988699 -2.7686561304e-07 9.78931431e-07 -0.001944244149 
1.4556809343e-06 0.00022169417758 -0.005207313326 6.0929838601e-06 1.8829619445e-05 0.010836423334 -9.2530575015e-07 -8.5507882756e-06 0.007796976446 
6.3663207533 17.880600864 -0.025547059806 1.3308544568 3.420333917 -0.0076335354416 0.29396395495 1.6558240087 -0.0061965822389 
0.21881225531 1.0806386806 0.0038269173002 -1.9681107294e-06 -2.6593499048e-05 -0.017624065101 -8.3157053215e-06 -2.2564187556e-05 -0.0081810467438 
-1.5009354035e-06 -2.5829661071e-06 -0.0073997558423 1.295512448e-09 1.3726790394e-07 -0.001718603544 -7.100120884e-07 -6.6274075167e-06 -0.0097651066131 
2.1195680796 6.7466666833 -0.010382732504 -1.1263656849 -4.0696689444 0.00048283171032 1.0511617066e-07 1.2837549626e-06 0.0016375294306 
-4.2313264154e-08 -8.0697786162e-07 -0.0010210034357 3.6213982762e-07 6.7656556033e-07 -0.0058757585953 -0.026247270333 2.6457840753 1.5856748491 
-0.9933439181 7.2345867697 -1.5997542969 1.5489587642 12.19319259 0.047305052849 -2.6381871383e-06 -1.8457085367e-05 -0.0038900329891 
-1.4214670886e-07 6.1352713165e-08 -0.0014346197122 -4.8657595861 -18.084531679 -0.00030615365869 7.0804859979e-05 0.0012835706698 -0.00037560905519 
0.00013461494524 -0.072381228747 -0.20222560043 -1.5724804492e-06 -8.3079188367e-06 0.0048703732662 4.5116732184 11.644566052 0.0065383186997 
3.3116811442e-08 -1.6746526951e-08 0.00031138768459 -1.0910411445e-05 -0.00022900911933 0.015403212089 -4.1775083666e-08 -3.1878272919e-07 0.0037176926766 
2.1032352117e-06 5.281218752e-06 0.015824647132 -0.081828529547 6.0793642464 -0.90424785788 -0.42953888618 6.4770230825 0.30969719985 
-1.9208737886 -13.134734736 -0.0072235554127 0.0011234657296 -0.066413483156 -0.93397261177 0.027765845808 0.35288836828 -0.011477875877 
0.27268256851 11.492630386 -0.11545539844 0.96209755996 42.410921879 0.097309921776 -2.3134834116e-07 -4.7738758463e-07 -0.0030380172034 
3.8248605018 13.321961033 0.016020923914 1.4191069393e-06 2.8886636158e-06 0.022033694157 0.16245188085 0.24203059182 -7.1805531789 
-0.60836806172 7.2094431778 1.1484431334 0.41842280863 4.8277263938 -0.10399057477 0.054732449975 0.36637397659 -0.00024358756354 
8.7140189023e-08 7.0129018852e-07 -0.0028041825849 1.0807320717e-07 1.1865009794e-06 -0.00054228234073 -0.021843802714 -0.031472390088 0.75641886346 
-1.8851178697e-05 -7.07825993e-05 0.013726493336 6.6123064729 14.129826781 0.025407967398 -1.6762740771 -3.9950015515 0.016228069742 
0.30488649002 49.927373849 0.028043074373 8.7669033234 26.609134337 -0.015954547784 0.023307271784 0.4013944788 0.026038679894 
2.1704463903 8.1600392108 0.0051477989117 -7.3107793044e-06 -1.3157692864e-05 0.019689114723 8.1630206572 18.96778192 0.0077767433933 
0.0095878469545 1.0354615787 1.2798565624 0.33651678809 1.2721680448 -0.0035964427272 2.7877151535e-07 1.3744629655e-06 -0.01526181452 
-1.2561861988e-06 -6.1204766368e-06 0.0055721097939 -3.7032268767e-05 -0.00093700781829 0.016187908116 -6.6343076823 -16.334016863 0.0088286458164 
-5.6278924052e-10 -8.0399940396e-09 2.3514641306e-05 -0.024850661171 -0.70519426706 3.8761831154 3.0994037863e-07 7.9227036016e-07 0.0019028796724 
0.0020243876849 -0.010661027497 0.090519513114 1.1742842594 -35.566236903 -0.065975526847 -1.2491701765e-05 -3.6318235626e-05 0.013696931714 
-1.4235410871 13.829173878 0.24781960058 3.0258999854e-10 4.7889366368e-08 -9.2406361213e-05 0.10767613452 0.23899050252 0.011593646655 
0.30022400508 1.9458746916 -0.002269055177 -3.5095821751 -7.7186714423 0.0071896597416 -1.6772204973 -9.21718361 0.0013103751969 
9.9262868872e-06 2.9807923917e-05 0.012402300604 -0.016813814232 4.9819591129 -0.24199488236 2.9704042498 8.2385572677 0.0049647182513 
-0.013687810544 -0.53435915124 0.32237003134 2.8230764502 5.6600385742 -0.0019530431124 0.03167010261 0.15711098614 0.0019606177923 
4.0520674486 31.035598643 -0.037203782236 0.34588628374 4.6207223383 -0.23031591474 0.25181689364 3.1795621601 -0.1249529364 
1.3581503005e-07 -9.2429484196e-07 -0.0036825649053 -4.1589603069e-06 1.4677770348e-06 -0.032257678271 -7.6223117065e-06 -1.7617608509e-06 0.02249076588 
0.21578993439 1.1617960705 -0.082413804674 1.4999122185e-06 7.2407681629e-06 -0.007672370668 1.9239655237e-07 4.0241716372e-07 0.0018901733741 
-0.84308938327 -4.4474513129 -0.0040726274211 -0.011443180217 -0.18567489885 0.016362252937 1.2584651015 16.454418085 0.00398489429 
4.3495312995e-06 2.2440086559e-05 -0.0097960937342 0.45395635914 3.6376807242 -0.0048174326396 -2.8249369688e-06 -4.4354723508e-06 0.010312755442 
-1.2090872331e-06 -1.0052253771e-05 -0.0053410499434 6.7421684106e-07 1.3193622878e-06 -0.0023799269151 -1.0459945224e-06 -3.0983759928e-06 0.00250835643 
2.0934580684 5.693329855 0.0068130876136 -3.4231761297 -18.088521811 -0.014842544565 0.14424809724 1.3193762426 0.0097659710168 
-0.18113130766 3.3561006358 -0.10536262673 2.2093429219 18.07779536 -0.023265073328 6.4540809176 25.616589572 0.040794917761 
-4.3626322604 -8.8830597177 0.00011553704861 0.036484343744 -0.24141127289 -1.2150011694 -0.00098189305542 -0.10399370321 -0.23680570148 
-4.0693350572e-07 -8.3400301315e-07 0.0037415223617 -2.1091404673e-07 9.8894398448e-07 -0.003856451911 3.6029237379 9.8491438946 -0.015379223048 
0.027495790727 0.69484822157 0.010642565689 1.4119128113 7.485334592 0.0077427383902 -0.001881582348 -0.038488879657 0.0042525626043 
0.040950021581 0.1488379587 0.0046929484671 2.8930049542e-07 -9.796437311e-07 -0.0025513286536 0.012472209014 0.093111031691 0.0048848868338 
3.1647278462 20.552337254 0.0065248509028 4.3932014765e-08 1.8980086158e-07 -0.00078600517269 -1.4169400896e-05 -0.0015072660612 0.016296570586 
0.012462348801 0.2265826825 0.0060468181035 -6.4745669028e-08 -1.0018076965e-06 0.0026288546831 -2.9197891758e-06 -2.1248091946e-06 -0.014523989467 
-9.5250962696e-06 0.0038413803974 0.020503813142 -1.4699408478 -6.7339220917 -0.0021934159766 -0.0061920981311 -0.29089999453 -0.6908369409 
0.0040570060538 0.07503483912 -0.22575140202 0.065875249351 0.51610260386 -4.5687989904 -0.0015018299643 -0.018543215928 -0.37611060394 
2.8378571456e-05 0.00034803772937 0.0081340238562 0.0068465144871 -0.07156516696 -0.23333353441 5.9333575163e-06 -0.0045273300022 -0.0053998641206 
-0.00015291458604 0.076610334874 0.044320734858 5.8056148428e-06 -0.0001971283116 0.0058240891626 -4.3325410179e-06 1.1252133074e-05 -0.019882029219 
2.4131170907e-08 -1.7954505464e-07 -0.00052499779517 -1.2219260184e-06 -1.6986450411e-06 -0.009909395221 0.3651262855 -48.918940151 0.046375883963 
1.394921182 -70.056384698 -0.20151251321 7.8448644981 -66.445440336 0.29570694339 -0.0080370074066 0.51291360732 -1.5512725855 
0.050726325133 1.9468139962 -9.4982135396 0.090728077332 1.2106591646 -6.5459887732 0.0091263441854 0.044742222159 -0.72116743889 
-0.025061091275 0.0025447564212 -1.5201633275 -0.0032789047207 -0.20419387164 1.638850284 0.0029245392884 -0.013575291262 0.22250265225 
-0.001185552965 0.0030595027739 -0.97193782864 -0.02359194992 0.062500091921 -0.78952938915 0.01433648819 -0.058416403931 0.81748221994 
2.245875413 25.874355043 -0.078179637743 2.0427485803 37.355109958 0.083258677699 2.1821405264 40.845643618 -0.2160766433 
1.7951331573 8.488534297 -0.0031559503698 -2.6056968941 -14.509936894 -0.067883946542 5.5006872809 23.938023025 -0.16106298382 
3.8934817559 19.345579048 -0.065893525513 5.0653367752 13.730558945 0.057537765694 0.36794335843 1.4474303359 0.013054212151 
-1.3167821928 -5.1472034813 -0.012188135955 2.6347381743 6.7400286933 -0.017324761117 2.3606347751e-05 0.00011568194011 0.010402680188 
5.1784422607e-05 0.00020051696082 0.0027101439939 0.8205126467 1.9433456709 -0.03649577853 -1.8514497156e-05 -6.5716176901e-05 0.013723969456 
5.450924462e-07 7.2328458067e-06 -0.00098461594271 0.00026946880625 0.00042351916689 0.03156610302 -3.9777267392e-06 -4.0023461039e-05 -0.01765228236 
-5.1930264021e-07 -5.4742894219e-06 -0.0019007926826 -0.00020429110583 -0.00023651404669 0.067183869959 1.4999840343e-07 -2.4486799729e-06 0.0034523475933 
-7.9281902013e-06 3.2570914143e-06 -0.015317166234 -6.2506879844e-06 1.0641201128e-05 0.029004417654 -3.3928287989e-06 -1.6656854282e-05 -0.013291462143 
1.0831338673e-07 -1.2000701528e-06 -0.00069270038826 -4.9616832823e-05 -3.7995968899e-05 0.046250569135 3.2104980682e-07 2.3557672185e-06 -0.008304099795 
-5.4474935581e-09 -8.0781214952e-09 0.00010050136794 1.2891884634e-06 2.0180377275e-06 0.0016806193098 -5.4375692228e-07 1.7543707803e-06 -0.0060206479947 
4.9214133565e-08 -3.3177212566e-07 -0.00064109563256 1.0270123425e-07 -2.339244027e-08 0.0046226692874 -8.6777228781e-07 6.3575521599e-07 -0.0068148120274 
6.2176526054e-07 -1.0192222382e-06 -0.00358931604 7.8463874978e-06 -4.6509829946e-06 0.025511403058 -5.5662541543e-06 -9.1037612833e-06 -0.015279226435 
2.5128791359e-06 3.6813253926e-06 -0.013111154429 -6.0464213633e-07 -9.1743171119e-06 0.017348755604 9.6396743914e-07 2.0047021891e-05 0.011306268348 
7.1933293232e-08 -3.8231042941e-07 0.001369973937 -5.9168027899e-06 1.2377181275e-05 -0.026500202857 6.0376195453e-07 -2.8267108002e-06 -0.0082696286541 
1.4033015198e-07 8.6158929281e-07 0.00053269424088 3.8247206225e-06 4.5994484734e-06 0.016817271074 8.4164162503 -61.181522825 -0.030396780072 
10.949753178 -51.116253143 0.038174437705 0.50260901938 47.977878313 0.59912505944 -12.826921923 47.905643608 -0.024167434922 
-9.7224277365 33.915072949 0.25970289217 -0.70200067366 40.877498031 -0.085096343936 2.9121576258 -20.298612983 -0.010639353824 
1.3846123368 9.3720459264 -0.11906342182 2.8142264403 29.761702428 0.17155123848 1.8074122214 -26.780123445 -0.05994039527 
3.3059865253 23.021971544 0.31183536255 1.2852424339 7.5906229924 -0.073209532528 0.9167080439 3.2958896734 0.0049593287442 
1.8629489762 14.916821838 -0.34834438423 0.16094428911 0.48471872975 -0.13445406985 0.11768942148 0.62208676038 -2.7617039322 
1.1342080158 7.5470156064 0.068607085613 0.024650539542 -0.020840584844 -1.1763483401 -0.045301378439 0.06311539193 1.3684203558 
-0.044815501191 0.38798069925 -3.4756610427 -0.42676159211 0.72633378795 8.9296993497 4.3576602687e-06 -1.1223970795e-05 -0.027925847998 
-8.9495553534e-06 4.419509835e-06 -0.024145759374 7.0259987545e-06 -2.0347478379e-05 0.017444180748 -1.5958292693e-06 6.3727900668e-06 0.011621161752 
-4.9605096786e-06 -3.8252088992e-06 -0.041748030844 7.8499217041e-06 -1.7841015313e-05 -0.021159958051 -2.1820893347e-06 2.126586739e-06 -0.016531781951 
-6.8919638428e-06 -2.4747624501e-05 0.016972163593 1.6634899949e-07 7.9732985935e-06 -0.0050124870672 -1.7394332373e-06 2.9644459027e-05 -0.016412621579 
1.7587250276e-06 2.8669910939e-05 0.017635277586 2.7265788671e-08 -9.3569155344e-08 0.00077223581995 3.923866802e-06 9.9596044403e-06 0.011081183259 
1.2339102843e-05 -6.9508095154e-05 -0.041476834733 4.4728018706e-06 1.7599129981e-05 -0.009770174392 4.7787356602e-06 -3.524902386e-05 0.020497691708 
-1.7669564525e-06 -9.525581516e-06 -0.0062300518861 -3.9285741443e-06 -8.9875535269e-05 0.016168556445 -1.6701044708e-06 -2.6703691235e-05 0.0087177283286 
4.3417206172e-07 2.7005894941e-05 0.01797956098 -6.4044409875e-06 -0.00016364902724 0.026835244083 1.4177901029e-05 0.00010736228977 0.029738086269 
-4.2983108114e-06 -0.00010542625521 -0.012697706483 4.7770862872e-06 0.00090804148752 0.033419694321 6.8861366693e-06 0.0004454833227 0.026393282173 
8.1776266911e-06 0.00030246698332 -0.022026062766 5.9736965613e-06 0.00019250018638 -0.0084403282279 -1.2702057221e-05 0.0044229299613 -0.038062571193 
-1.0246792643e-06 -0.0002102536749 0.0046819703547 -0.0013295281679 -0.0061457679133 -0.40898415084 0.077442815016 -0.71556762198 -0.8098130678 
0.012150530973 -0.13741580278 -1.1503367993 0.1700301946 -1.5755534612 0.81163954056 -0.32270712461 3.4514257727 -0.19442945664 
-0.48755083455 3.1012657715 -0.96505407692 0.051522492877 -0.97471332338 0.14284457783 -0.14760790942 4.8828651271 0.6242915837 
-0.72769788029 7.1784385727 -0.67353849274 0.0056486045963 0.85080368935 0.21337980189 0.00096383053016 -0.10398341254 -0.28267258086 
-0.18312902613 4.7263158998 1.9588269782 -0.0082786073551 1.7047636713 0.28794843292 -0.016630920693 -1.359556609 -1.3896696033 
-0.00055626018107 -0.00019403735264 0.25120884163 2.5679149647e-06 0.0034664318566 -0.012268195759 0.00029016847458 0.016714466466 0.15530224534 
7.2473343387e-05 -0.066387582642 -0.13989258981 -0.00016437867206 0.023924810404 0.065082155162 -6.0770730809e-05 -0.011031777288 -0.027620017942 
-0.00097343406173 -0.10187069606 -0.2056452242 0.0028892492506 0.20377760878 -0.37359102041 0.0013121118717 0.060844044448 -0.23446165585 
-0.0027057680827 -0.15670941741 -0.42251520482 0.013354009009 0.51590156585 -0.21860817966 0.00068258582748 0.053462783521 -0.055599144664 
0.0051092501253 0.26556562538 0.02289815045 0.005538115239 0.25145326883 0.0046330961134 0.01868950278 0.56886929286 -0.050592931155 
-0.0043178463487 -0.15202914664 -0.022635264577 -0.0030657434392 -0.10210440942 0.019773841357 0.050303537959 0.72934929979 0.0085899799868 
0.01497209978 0.36930865522 -0.034534138109 0.056397191404 0.96116333637 0.014488476223 -0.002251695898 -0.081933794482 -0.0068855871347 
0.00029249969153 0.010122260819 -0.011648113412 0.014225838925 0.25083850537 -0.0020652420935 -0.0017917621271 -0.058347006418 -0.011563339802 
-0.00052583196946 -0.016367299472 0.0080089920005 0.019646508264 0.27738293125 -0.00069834285762 -0.0029863526773 -0.073857417018 -0.0055896194089 
-0.01810078291 -0.27147917413 -0.016968523288 -0.0005643479703 -0.013040324225 -0.0068952028525 -0.00046039835082 -0.010622994203 0.0074880737617 
-0.017424944821 -0.23974764372 0.016872339062 -0.00051472490893 -0.02065440717 0.0055733411311 0.00020536081162 0.0078631701856 -0.016881470216 
0.0039810152353 0.059645515169 -0.0029737695036 -5.3329733885e-05 -0.001826802082 0.0029225469772 -0.00025883617345 -0.0090640775059 0.021305279654 
-0.0025705454347 -0.049361309887 -0.0096873945051 3.34094243e-06 0.00014315056508 0.002119377956 -1.7429055735e-05 -0.00068749346944 0.013163662867 
-0.0011932779962 -0.02336254729 -0.023451911694 1.1325033512e-05 0.00032026903615 0.029093884404 3.6852949102e-05 0.0029195584679 0.019883224263 
5.1439018109e-06 0.00026989189577 -0.011133272927 -5.5045197557e-06 -0.00022659241592 -0.0091782112939 9.7314908887e-06 0.000173971992 -0.0025190326048 
1.6076930048e-06 -0.002433929865 0.03605301463 3.2494473065e-06 -0.00025747634473 0.024651588393 -3.9885389547e-06 -0.00033299001119 -0.0084189297482 
4.7009105917e-05 0.0030531840626 -0.041317941174 -2.9917807827 -11.440761616 0.015165890903 3.5999758436 11.842832931 0.04482612339 
2.7805726224 10.113011952 0.01656828899 2.6933470121 9.212870858 0.0016885431443 2.2890921243 9.1034076247 -0.024661872481 
2.1444558034 7.4187656085 0.0080424308551 2.6934874274 8.511602165 -0.030141800694 3.1256569133 9.2257186675 0.011663076264 
2.5076532228 7.4483962659 -0.0082237216182 4.2169035379 12.634375048 0.0050349426503 3.8545991516 10.980405102 0.023995901988 
3.6710938404 9.8386013166 0.025946973236 -6.6269963143e-05 -0.00026619232259 0.020335008051 2.5971545148e-05 0.00010458107589 -0.012983902245 
6.0642139952e-07 1.9799345043e-06 -0.00059016075143 -1.6659028375e-06 2.5507516424e-06 0.015631288133 -1.8053687603e-06 -1.2991010506e-05 -0.031132498516 
9.5067733092e-05 0.00029508024868 0.037909024435 -6.6452131357e-06 -3.3376567243e-05 -0.025582384979 3.0170854252e-06 3.8796644219e-06 0.002743314486 
-1.0390965577e-05 -3.1440275801e-05 0.021650556625 -1.2690842777e-06 2.9147187768e-06 -0.0043398130029 6.4393775156e-07 7.7817461854e-07 -0.0015424173093 
-2.333089383e-05 -6.3501814653e-05 -0.018661578791 -2.7978756713e-06 -5.139645561e-06 0.0059361946445 5.367706541e-06 9.5154311225e-06 0.0057079529858 
-1.1909172454 -11.000710332 0.027264285123 1.4389709295 10.502138971 -0.055322238147 0.86129692862 8.3208559553 -0.085003304754 
0.66019471672 6.564597091 -0.12341093381 0.47633459801 6.3947662521 -0.15404120265 1.8049479968 14.292191533 0.033936934043 
-1.0669691254 -12.011669813 -0.012141182855 0.47531179935 10.015966292 -0.098547482389 0.85836186121 13.437625435 0.058084776952 
0.033783219074 2.5107130745 -0.22861786193 0.23583540411 6.6716632607 -0.14565070097 0.22879148836 4.4635923006 -0.34885378509 
0.13621534313 2.4652604862 -0.46800732806 0.090601629577 8.7421469177 -0.17419975793 0.77042870563 3.0105233722 0.01711264543 
0.91672167072 3.1775725024 -0.027295733034 0.61270234778 2.2899085666 0.0077813582748 0.48689483627 1.7317154527 0.014983374914 
0.43347997796 1.7315446172 -0.020432097854 0.3977388014 1.9205837412 -0.019933834642 0.46051892724 2.3864484466 -0.02473266803 
0.60803186398 2.7252358834 -0.032650882907 0.88335433437 3.6552934983 -0.0066789316117 0.33050355817 1.5116129226 -0.012933869632 
0.25717354081 1.3546037998 0.018594748909 0.2662324214 1.1444864128 -0.019566252153 0.64271924903 1.6456777962 -0.038269552152 
1.2406668566 3.0057919424 0.0024699506965 0.42254919048 1.0297010915 -0.018540933357 0.00065856540545 0.0015870953954 -0.02173117498 
0.00024827313268 0.00054016191466 -0.052450768663 0.90147067145 2.4427782984 0.0052794206078 0.33093073153 0.89392517283 -0.0065569330547 
0.00093629374925 0.0024207760291 0.081077217724 0.16903906021 0.47861251988 -0.036722775054 -7.3692444459e-09 -3.5111921373e-06 -0.0024350537945 
-5.7837756327e-05 -0.00013501086343 -0.062945514683 1.5608162761e-07 -1.065253211e-06 0.0016786924033 -5.2945337281e-06 -3.5390197307e-05 0.03091528901 
-1.146990027e-07 6.8771533115e-07 0.0017105742894 -6.2321933684e-07 1.6247322658e-06 0.0033200436929 -4.3588837724e-08 -7.1983013182e-07 -0.010766743571 
-4.1130292553e-07 -5.313537497e-07 0.0026309606907 1.8153831258e-08 1.6655491409e-06 0.0020492542279 -9.6886527883e-08 1.6606712949e-05 0.011335853279 
1.5262804716e-06 -5.612444588e-07 -0.029588337748 -1.0520806225e-06 -1.8477586483e-06 -0.0096861541655 -2.8940840974e-06 -3.5052403964e-08 0.015846517281 
2.4499966889e-06 1.811270417e-07 -0.017079177524 6.6335229061e-09 2.1836378521e-08 -3.3224031291e-05 -1.786530505e-07 2.1633217511e-06 -0.0053600947111 
-3.5360441895e-07 1.0405677541e-06 0.013114373824 9.1935682789e-06 7.2530165615e-05 0.019933944296 -9.9395297813e-06 -6.6309974678e-05 -0.028015088148 
1.2546957276e-06 4.0913588894e-06 0.0033350641057 -1.5047364093e-06 -7.8050437922e-06 0.0062486092326 2.2252233708e-06 1.2548025174e-05 -0.0048532743304 
-1.2445580831e-06 -1.337988531e-05 0.006560750204 -1.6263240296e-06 -4.3517544429e-06 -0.0073346619687 -2.3736327476e-06 -1.5522769046e-05 0.0090464581118 
4.3464739313e-06 2.4363668243e-05 -0.013447827663 -1.3737811337e-06 2.3588757865e-06 -0.0063581706785 8.4534310027e-07 3.8600028625e-06 -0.0045232696519 
1.9011772614e-07 2.0156802009e-06 0.0023464350038 -0.16114675924 6.8762713404 0.4821344632 -0.2349297919 6.0355136293 -1.2045767194 
-0.39826897356 7.9553281078 -0.1084723314 -0.35559326708 6.17555677 -0.90183705627 -0.46411948354 7.9266034531 1.0036882351 
-0.11454359457 5.1169902238 1.038277567 0.02776056312 2.981893645 -0.54622989 -1.1606420755 13.077772453 0.2060225955 
-1.0963882383 14.037857816 1.2772708884 -0.35824206078 6.9258771703 1.3884026434 0.86652848374 -11.915164694 -2.278400245 
-1.0661279883 11.529265793 0.82616292832 8.1973518446 24.45639001 0.029666989926 8.6149471679 22.914460327 0.049038681392 
7.6951979339 21.136503123 -0.028692697684 7.2714915115 17.684084924 -0.018704511965 7.106906238 19.419919204 -0.0730388147 
8.1359457409 19.264134461 0.02111251548 7.4162099012 16.31939224 0.045314349062 7.4058063197 16.701350316 0.081578255867 
6.6089348255 15.300211141 0.014658423951 8.6161798107 22.715654557 0.067309780564 0.59757966883 5.5204014601 -0.060525158726 
0.68727229648 6.3716582678 -0.064254127246 0.94487296607 7.2042114781 0.03950939749 1.3745727252 8.9082251034 0.013607988274 
1.1838112903 7.5298800361 0.001294648527 0.66137139518 4.4814963755 -0.0079603354241 0.618447646 4.8055398763 -0.048307263043 
0.86284595629 5.7094782256 -0.035402820213 1.0886871923 6.8219588603 0.0028500869651 1.1575466668 6.4508177781 0.00883594589 
0.47242269522 4.4738304101 -0.074965308612 0.34056463835 4.1410559516 -0.146355396 1.560396613 8.3755398892 -0.019736492021 
0.34707496834 3.4520929671 -0.084038594202 -3.1156809975e-06 -1.7766110361e-07 -0.019619472707 -7.6722596057e-06 -1.600351684e-05 -0.016464497322 
6.7792852332e-07 2.0413792513e-06 0.0025855626697 2.3611546297e-07 1.0335854773e-06 -0.002106814079 2.5826863011e-07 -5.290476226e-06 -0.0055218927439 
9.8479844492e-07 1.9618545614e-06 0.0019308290953 -1.1385794722e-05 -1.0184246707e-05 -0.018315326892 -5.6986933755e-06 -1.38114134e-05 -0.0058052272194 
2.7076264727e-07 1.2767388215e-06 0.0022605363394 -3.6251109247e-06 -6.8316852226e-06 -0.013710397271 -2.9182831978e-06 -1.4058650187e-05 0.014343812266 
1.4071513711e-06 8.4122184879e-06 0.010138135965 -0.00023630541744 -0.0013317699981 0.028673297006 -5.3888277877e-05 -0.00031860034098 0.033954175122 
-0.00017429753732 -0.0010849532993 0.040645308382 7.6198041684e-05 0.00055883345259 -0.012951366524 -0.0011083549393 -0.0072311852388 -0.011937622945 
0.048120955621 0.27476607323 -0.0014835178233 -0.00036708859788 -0.0019710865949 -0.00075005739231 0.027969190445 0.17443200784 -0.009252310624 
0.032199751226 0.22681566066 0.0081693571351 -1.1803704885e-05 -6.6360020929e-05 -0.011316529312 0.10444593736 0.23265660057 0.00060508112593 
1.1029792458 2.3466084536 -0.011822222153 1.2100143453 2.5620286538 -0.033888906183 2.4849672678 5.0668835883 -0.002650424348 
1.4230855908 2.9857406286 -0.021458939022 0.61943518099 1.3914467781 0.017995802909 1.5247407454 3.3279542231 -0.0068520029266 
2.2617989516 5.0566530077 -0.0031987875956 2.8865789098 6.180822475 -0.026370449559 3.8949136401 8.2569277549 -0.01576697299 
3.3163437505 6.7884184091 -0.024416830887 3.6014966553 7.2900349307 -0.016464061109 5.3716265278 26.332265053 0.050547013095 
-5.6365339518 -23.893612687 0.012312751257 4.7565206214 24.019631253 0.063613936964 3.9964038666 21.589941887 0.0060282010555 
3.7859538487 22.873726583 0.07373636653 5.9744794347 20.240860682 -0.020234841416 4.9790306565 20.256692453 -0.0042849167253 
6.0252397403 22.655689461 -0.0033439654797 6.9609874803 24.182088889 0.070070292931 4.1132094541 18.184868098 0.030755527671 
4.1446550954 20.161523422 -0.020656565219 3.3283123071 19.394730457 -0.039414710509 2.4660314036e-06 6.7030252007e-06 0.011850868229 
-1.6486241571e-06 -4.3677425344e-06 -0.012276370441 1.8029690133e-06 6.1695746879e-06 0.0064275329564 1.1750788303e-06 1.8358915675e-05 0.0081286066815 
-4.1263342389e-07 -2.1882356322e-07 -0.0031872746746 8.3876189174e-06 6.6827275212e-05 -0.018268448639 2.5615653229e-06 2.6194109848e-05 -0.022403518906 
1.1135327675e-05 3.3864452804e-05 -0.017947142898 -3.0795729742e-08 -2.3808566381e-07 8.7744537235e-05 -4.5310007943e-07 -9.172294982e-06 0.0051311528498 
6.7203552481e-07 2.0546421175e-05 -0.016000975862 0.47081058456 2.5900521 -0.015060389907 0.34716013739 2.3274411454 -0.016423960397 
0.51755862395 2.9560058297 -0.00075894500778 0.58390316444 3.5110168482 0.015328682722 0.7593795721 3.8059008948 0.029545538197 
0.23265944877 2.2929501874 -0.0093720826061 0.42455878728 3.1524842367 0.023014489985 0.20734718575 1.8833544374 0.021380054588 
0.24282770393 1.9280096785 0.02024054733 0.11919417056 1.2696364817 0.0098116946609 0.21306251342 1.6293530725 0.0094748768737 
0.625456632 4.0193935603 0.012783104597 0.68049585863 2.0902021995 0.0066175188864 0.27639918251 0.84151291509 -0.010250470479 
0.3857946699 1.2673303293 -0.031860615901 0.22893232062 0.80075825757 -0.0036111625628 -0.00016782075466 -0.00051133910361 0.0058552895172 
0.00014532054916 0.00057392673232 -0.070429499897 0.00025204697981 0.00086932100887 0.027370816581 -7.315699191e-06 -2.439330206e-05 -0.0021123631006 
0.043936708242 0.1510346047 0.013348478483 -2.645982861e-05 -8.4589726163e-05 0.014382209374 0.19469754064 0.72154706878 -0.011557284785 
1.0384314207 3.015982217 -0.016751764834 1.0318513287 3.2616240474 0.013191404874 1.2957487429 4.2439945933 0.023130837036 
1.4313562771 3.9610313473 0.019111125072 1.7364506495 4.9506885723 0.017305314309 1.739503484 4.5908034397 -0.013620258364 
1.5691219812 5.3259574962 0.02200000069 1.8166972449 5.5825309949 0.020068299364 2.1377747664 6.2900817611 0.025772061976 
0.039854905746 -0.81055676903 0.44132436598 -0.092503236952 2.1485969914 -0.50361584629 -0.20006494709 5.9398295424 -0.45800446109 
-0.0095866722142 0.55613575771 -0.052076437327 0.0013498625557 -0.0089661108137 0.21155443168 0.0018283154865 0.15230130214 0.6903484698 
-0.0054539095887 -0.15731538722 -0.66955348172 -0.00056816459207 -0.18474600206 -0.46214890307 -0.11970078489 3.0360999443 0.60611102849 
-0.0015557220477 0.097157874678 0.18625917416 0.020704647066 8.3203378755 -0.6282812949 -0.16548721038 10.164350767 -0.36257555368 
0.22928826597 11.718672994 -0.18697605409 -0.14448642764 9.5878012385 -0.29075256012 0.037612191779 2.6190686972 -1.1759369864 
0.21067909749 6.1216876601 -0.36240148881 0.10558536967 0.87354117781 -0.070720987511 0.49805144256 6.1586548025 -0.36539392037 
0.77424757452 11.509094849 -0.10998272556 1.4166980617 14.342212345 -0.06714899316 0.66595115194 14.417194706 -0.085757933441 
0.67247786326 14.156883634 0.057582727861 -1.635668337e-06 9.0144979692e-07 0.0076005874955 -4.9413957317e-07 -1.7099392975e-07 0.0036439351515 
-6.7372638016e-07 6.9778856726e-07 0.0053545427407 6.48332185e-07 -4.9474947017e-07 0.0039859326224 1.7212391744e-06 9.3320386014e-06 -0.014501370329 
2.9913463248e-06 5.1351898016e-07 0.0058736343077 -2.5554823805e-07 1.1342226877e-06 0.0021728618578 -1.0075055033e-07 -1.3232806729e-07 0.00063467146649 
-1.4006093404e-06 -7.8274123811e-07 0.0069384984942 8.6070092471e-07 -1.9658355713e-06 -0.0029600137756 3.9088103982e-06 1.3878330596e-05 0.015207314096 
-8.012678853e-08 -4.0838270643e-07 -0.0004155683337 9.8518242329e-05 0.0011400927469 0.026532640231 3.1973084663e-05 0.0004045628923 0.01253596526 
0.00014725815891 0.0015332540846 -0.041349599405 5.3403813389e-05 0.00046928344676 -0.018346699765 5.4802327386e-05 0.00042138201337 0.047030787851 
-3.9871636242e-06 -3.2961261714e-05 -0.031376430501 -4.6159090554e-06 1.0660709459e-05 0.013950266824 2.9720785716e-06 2.600893575e-05 0.008573815036 
7.1489448976e-06 3.5496223892e-05 -0.034479345317 -1.8128037782e-06 -2.9951795886e-05 -0.0062862434574 2.1732071271e-05 0.00020654446129 0.015786234408 
-3.4744719779e-06 -6.82237783e-05 0.0044222932381 -6.7385445059e-08 -1.2541476796e-06 0.00020882730896 5.8174735079e-07 -1.3869871665e-06 -0.0036312883862 
-7.2390385479e-07 -3.9450148497e-05 0.014155009625 2.8921262044e-06 3.3734180397e-05 -0.015296907411 1.7612286297e-06 1.2267911575e-05 -0.0042134396806 
-2.5549537782e-06 -3.1662459318e-05 0.0092268931696 2.1929125324e-06 -4.9085140055e-06 -0.013025347817 3.1037392135e-06 8.34774026e-05 0.016529948191 
3.4420963283e-06 0.00069428326965 -0.012647574214 2.8938513346e-06 0.00017317856131 -0.015103505517 8.9187208807e-07 -5.1219720095e-06 0.0077192225093 
-1.3085335582e-06 -3.6194208917e-06 0.0085357953337 -1.6240864541e-08 1.4039505118e-07 -0.0015116337201 -5.3983541826e-08 9.2083070586e-06 0.022948037948 
-3.2961272075e-06 -4.7880088194e-06 -0.030490192816 -6.245675491e-07 1.3839139258e-06 0.010569352373 -1.5702643744e-07 -3.5708332209e-06 0.0020814485771 
-1.6757791649e-06 1.1827544846e-05 0.013575224387 -4.3978644447e-07 -1.5244197042e-06 0.012386669856 6.1180503282e-07 -5.5340383228e-06 -0.0067291109374 
2.4154959326 13.330247779 0.037063010489 -1.8522920327 -10.926705573 0.017757666826 2.2441384247 11.316160277 0.022871998554 
3.3509679785 13.432016383 -0.0066581232856 2.6480699879 11.615674412 -0.044778808744 2.0037651046 9.647553624 0.0013763521695 
4.3559900426 15.693147065 -0.036991058219 3.7967748249 15.697677877 0.0024506455272 3.2045471512 15.721179201 0.060533584702 
2.5990260509 15.527950089 0.047010405565 -2.7729189426e-06 -0.014149911726 -0.11115304224 0.025191288742 0.92454857481 -0.32596414317 
0.16412992145 2.7523281428 -0.18628760141 0.15891778644 2.6566144023 -0.23171800859 0.0095806836798 0.26220937964 -0.43635409644 
0.00073539984402 0.12245764021 0.23964176648 0.14178230873 2.5666262758 -0.32534297116 0.39309166206 4.7449653967 -0.12031407519 
0.18469509605 1.2818990042 0.010543616794 0.1689128731 1.0831407159 0.016351300811 0.097032095678 0.78727769666 0.036616525386 
0.053380436 0.50464461888 -0.0050039817727 0.052994589095 0.56121963676 -0.0016447266165 0.077044096804 0.54336439272 -0.030279382398 
0.025003511938 0.21421799239 -0.010525556083 0.038064586306 0.34988857422 -0.020039022613 0.035048618457 0.35533146892 0.01177825132 
0.14561878307 0.86633156732 0.013854254165 0.10989545384 0.62690780201 -0.0067475979083 5.3206314772e-06 -8.4621018502e-06 0.013184899631 
2.1154780804e-05 8.9910422269e-05 -0.030800136199 -2.2044889986e-07 -6.3663029532e-06 0.0046805478986 -9.9661589237e-07 -2.5026231095e-06 -0.0039648839987 
4.5443508415e-05 7.7957477572e-05 -0.041875181691 -4.1091045066e-06 -2.7308007159e-05 0.0087604946716 1.7584869696e-06 4.3515223026e-07 0.0014630470026 
-5.4181356456e-06 -2.2663307334e-05 -0.010416887073 -8.75833257e-06 -6.5872084744e-05 -0.023473099245 2.5673177515e-06 3.9176554684e-06 -0.0032632634656 
-9.4984039501e-06 -2.0485363506e-05 0.025577913485 -6.0775845911e-06 -1.9613415547e-05 0.015617561593 -6.9144802922e-07 -1.4405358984e-05 -0.012864602811 
-1.3300166819e-06 -1.9415517219e-05 -0.035996592983 2.5108053033e-06 -9.9879199284e-06 0.012522167214 -6.6198278763e-07 -3.0127660652e-06 0.0056925752669 
-6.2635767257e-07 -1.1336576932e-07 0.0084674637846 2.5009357679e-06 3.6893786732e-05 0.042440823615 -6.7924688075e-07 -2.2601031175e-06 0.0015409080482 
5.6175371168e-06 2.5430995931e-05 0.040623327128 -1.2790590269e-07 -2.283803088e-07 0.000806746203 5.3331690658e-07 -8.6980257662e-07 -0.0077118853576 
3.5548765542e-06 1.9579430262e-05 -0.043538302446 -6.6037854868e-06 -2.9472579604e-05 -0.019843253242 -7.5427862598e-06 -2.0244670691e-05 -0.014657541433 
1.9831550027e-06 2.9923570644e-05 0.023015067213 -5.0289549499e-07 -4.6628055986e-07 0.0010321310423 -0.011254465879 0.12413652786 -2.3661217563 
-0.67263538775 6.2292219791 -0.47191555924 0.030638539497 -0.19247729836 2.1139953056 -0.051971488723 0.23668940416 -1.1660302015 
-1.3708230077 11.191588636 -0.9773183991 -1.4946551446 12.399781221 -0.54076436284 -0.82718817973 6.053242342 -1.1821882818 
0.43862764665 -2.5224369933 1.5134418844 -0.035408448005 0.12550825954 -0.97194249621 1.2894874436 4.8935737943 -0.024612503114 
0.98648783933 4.3262646786 -0.014401812612 1.1098835479 5.0809692062 -0.015295388074 1.7571455239 6.2576245073 0.0051376424657 
1.7719394373 6.8957691613 0.021693673625 1.4500704587 6.2138079894 -0.018284638011 -1.8016979539 -7.4533499232 -0.0053788280783 
1.1385856275 5.5868801805 -0.021861849276 6.4623432047e-07 -2.7717889142e-06 -0.005403494162 -2.3886625011e-07 -4.9851586616e-07 0.0008347127996 
5.3975200746e-08 -9.4001328665e-06 0.0077775806816 -1.6862104438e-06 -5.8353861194e-06 -0.008228628142 -2.644219209e-07 9.3445399756e-07 -0.0012436598115 
2.9721648149e-07 7.1621360145e-06 0.0063216649815 -7.7393394048e-07 -1.8127941145e-06 0.0082639914143 3.1793879532e-07 3.1982780632e-07 0.0033174709539 
-7.6662974797e-07 -1.0075368898e-06 0.0046521552755 5.7402146717e-06 3.9879907564e-05 -0.015730650143 5.4469651645e-07 3.3836878453e-06 -0.0014103762222 
-1.7681058501e-09 -8.6178113544e-09 1.2495173168e-05 2.33078925e-06 1.4056074375e-05 -0.010171648468 6.6769390287e-07 -1.2077227446e-07 0.0048916694808 
5.8303911769e-06 2.0609165671e-05 0.0052761779435 3.0105028318e-06 2.0456934208e-05 0.0064840751387 -4.456390795e-05 -0.00022524107503 -0.015787865731 
3.0759959971e-06 2.44792523e-05 0.0049119412755 1.0987452191e-05 5.1860296768e-05 -0.010549448135 -1.8594699326e-05 -7.0031607349e-05 0.017002737187 
-3.2175270803e-07 -5.7792052179e-06 0.0021273576696 0.012688659361 -0.39241800065 -1.3735565967 0.0031750466501 0.25970634857 -1.8847375141 
-0.018826077969 -0.0422161506 1.2036524767 0.041218006192 0.98917971751 -1.7030902688 -0.00064132452945 0.021085017029 0.05405871255 
0.039086926003 -0.64790738247 -0.58618142995 -0.0045121535173 0.091257813872 -2.77822907 -0.048087619519 -0.31474193728 2.3830848628 
-0.18791412175 1.9661242334 6.2060517575 1.9965599401 5.013368247 0.018628088731 1.9142153244 4.5402141162 -0.024625489861 
3.1102121504 7.2118069736 0.0053857543744 2.3890709914 6.1552933601 0.030611146375 4.0737359486 9.7489367484 -0.026600991051 
3.6241409879 9.0800997247 -0.027334756443 2.8774732039 7.5059395563 -0.00065334215671 2.5753167319 7.0539865951 0.038072976495 
-2.9088462208e-06 1.0743882327e-05 -0.0093587897795 -7.3758390356e-08 -3.1342151913e-06 0.0025767936904 1.4368357453e-07 -1.2826164005e-06 0.0063216918963 
-7.8543756242e-06 6.2252639164e-06 0.031381176125 2.6950975357e-05 6.1280214697e-05 -0.0042336929493 -3.0794586001e-05 -0.00018561476475 0.03661819987 
6.891916933 14.79628587 0.077640510657 7.4417128255 18.509192512 0.05499253298 5.9472559406 13.679196191 -0.021676579447 
4.563904111 10.173561091 0.0082123650504 5.9764122933 12.475952421 -0.010279194712 4.8049479558 9.6835614664 0.0098133298177 
5.5059412617 11.46522154 0.051477266198 2.2985466033 4.857885802 0.019855925406 -4.0099973481 -8.0647776454 -0.012841012676 
3.3631045817 7.2068096261 0.057184958192 8.1197745222 23.42192708 0.026006223446 7.2004010935 22.875058907 0.10695243876 
5.859104166 30.134415894 -0.052169322659 3.696267201 38.508252558 0.1384604639 4.781039569 34.78416086 0.1037146889 
8.2505409245 27.980774971 0.0069601292851 6.2071323344 33.494368415 0.16653809197 -5.2100944047 -17.369714356 0.0042743633584 
-6.3933117073 -19.439018657 0.010146172146 6.1296733811 16.674727085 0.014111455615 4.6297004683 14.8842886 0.0022549629556 
5.1604628759 14.214408594 -0.017073642737 5.3865556811 13.641650702 -0.045772753538 3.7634095384 33.034676708 -0.13712127086 
5.2583001453 28.126204529 0.04851803003 6.6527131661 27.413592456 0.087491715112 7.8537606874 28.216933587 0.054996334305 
-7.3515616475 -25.771329515 -0.095172287432 4.8411393451 34.894877392 0.049486359625 -2.6749762311e-06 -2.3566202006e-05 0.0075231318727 
0.00019604674594 0.00081894485631 -0.014524813827 -6.8155259722e-06 -2.4787411977e-05 0.0031801571588 0.038586464261 0.17343026508 -0.012266736746 
0.052584496324 0.20256951197 -0.0023659325692 0.18390486527 0.72403062955 -0.01054208893 0.15371716308 0.69032535642 0.0078436547369 
0.13897733113 0.6855835892 -0.025172524499 -1.3529944777e-05 -3.2994512937e-05 0.029896006915 -1.6261591728e-06 -1.0516479751e-05 0.0080468355565 
7.0500433718e-06 4.8679717796e-06 -0.020173735404 2.9120884044e-05 8.1020455347e-05 -0.01321662715 3.7925378622e-05 0.00010247361349 -0.015846063769 
-9.2315895033e-07 -9.3729044458e-06 -0.0056299396826 0.27325834253 2.8017540465 -0.034290352326 0.12167182636 1.6150657222 -0.02379295856 
0.070760709186 1.2743175222 -0.037480024106 0.1019001261 1.8780117885 -0.11572528046 0.19853812164 2.6421717587 -0.10963164248 
0.06445385399 1.3241441876 -0.085158162458 -0.82949890096 10.049374288 0.53519020502 -0.43861629942 8.4170568233 1.312381874 
-0.5593530535 7.2003398326 0.3424112286 -1.1552932586 12.073459856 0.0370992423 -1.1532974367 10.703765413 0.086342754862 
0.17659221844 1.3312113388 0.0049546645595 0.29780367295 1.7956487274 0.010074636854 0.046078246603 0.55269856771 -0.009920010092 
0.065817773198 0.78525621685 -0.0029695156495 0.12398450047 1.1234244286 0.021633769639 0.051382073198 0.61544745645 -0.0154388429 
2.6732437617e-07 1.6497419305e-05 -0.020751365382 3.439508468e-05 0.00037193997626 0.046463081902 5.1548130936e-06 8.1587895858e-05 -0.020256433707 
2.2217512121 19.087025128 0.24926117402 3.2411562608 22.381877851 0.072257616994 2.8153187755 19.741054453 0.047207358552 
1.7901483123 17.672305672 -0.065418964302 1.9507292946 15.827798205 -0.0060347039019 -2.0759078089 -18.652108233 0.026921828043 
4.6550718568e-06 1.6638634126e-05 -0.019277718544 6.6552798937e-06 1.1332447906e-05 0.02385767377 -4.2330842334e-07 1.2836156797e-06 0.017723009984 
-0.00062457351478 -0.008307656978 0.0069933272126 -0.010328661959 -0.11266009109 0.020058434846 0.01794717744 0.16584420076 0.0026897627454 
-4.5782131516e-05 -0.00039193219593 0.00069379738006 5.9895925007 14.01169564 -0.0478859485 4.8924996414 11.762671291 -0.0038298951468 
4.4005938744 9.7664778012 0.026824925765 5.9120072973 12.909872577 0.012764404264 4.8111157146 10.327114313 0.0099269851767 
1.8627683871 8.2138651492 -0.017161477828 -1.8255471091 -8.5951782345 0.015908056416 1.4361757942 7.0699549859 0.016276212424 
0.10805846896 1.9769868078 -0.23730005879 1.4629995928e-06 2.7603409476e-06 -0.0052255471579 -1.3641202778e-06 -9.2761202833e-06 0.0059058763955 
-1.4346438119e-06 -1.0352899298e-05 -0.0084903494521 1.0995740828e-06 1.3085036056e-06 -0.0032577051218 -1.8499043535e-06 -8.3858887551e-06 -0.0063103913694 
-9.1611130976e-07 -2.1851265248e-06 0.0022329115553 2.4436016437 16.742538216 0.00904994909 1.4525690071 15.810677133 0.023675042796 
2.3026516204 17.905422774 -0.025128297862 0.89073899351 4.9385997923 0.021412345935 1.192080274 6.1286307244 -0.01281834783 
0.0072715928504 1.2310656642 0.23599145583 -1.0351354301e-05 0.0096309165411 -7.9823854143e-05 -0.035519543926 0.96238876586 0.10774549147 
-0.077989624426 0.18397020257 -3.5958447908 -0.0083788884752 -0.73682801427 0.09973079821 0.0017769866112 -0.29271181869 0.006466116431 
0.001225328723 0.010409083251 -0.39401070799 -0.0017414184976 0.21136697217 0.10267252762 -0.00029675242775 0.10433849238 0.017424545239 
0.00021876561256 -0.012593840729 -0.27161172165 -1.1013346093e-05 0.0022879830563 0.059129673917 -1.4305837528e-05 0.0018793148766 0.019525562419 
-2.2804565157e-05 -0.0077710454658 0.013617219571 -3.8279566737e-05 -0.057183408965 -0.0018142410922 3.00399792e-05 0.022294740265 -0.0013858381163 
2.2305314653e-05 0.0060536406013 -0.017614781376 7.7627801509e-05 0.048526666093 -0.032777785159 0.00036440009472 0.12297925936 -0.0076989695604 
2.5753913026e-06 0.087957759163 -0.028425351313 5.0587926968e-05 0.077143105884 -0.012394881148 -0.017788586846 -1.0521760714 -0.4015161621 
0.028250103931 1.1316522797 0.10778316036 -0.026091209512 1.3257177164 0.40864431919 0.0046368195706 -0.79183140752 -0.060055638605 
-2.1731737908e-05 0.026201944967 -0.00083422933083 -2.6827392129e-05 0.027616025895 0.0016760864574 9.2333105132e-06 -0.00066395443451 0.0086309524526 
1.6224400441e-06 -0.0050689602407 -0.0071473094472 -0.049000579521 1.263681518 0.20162858176 -0.020182086044 0.45666518278 0.063279903014 
-0.011155578814 0.35685901319 0.070618935141 0.0067265545637 -0.24418191514 -0.053127813966 -0.059921531827 -0.76966979449 -2.3303476413 
-0.0022879549315 0.20352436555 0.20380458613 -0.010587750869 0.329845101 0.010965424687 -0.003144493518 0.12007760242 0.0061284643235 
-5.4870826098e-05 0.018725215663 -0.10461744113 -0.0002676355782 0.78995339424 -0.13190266229 0.023177127505 -0.29430864926 0.57015163683 
-0.15798118561 0.3815086746 -5.9022032796 0.02062374777 0.029770635742 0.52667394829 0.026016042321 0.59182743047 0.35726811907 
-0.0053032172495 0.1322418059 0.40874484849 -0.0005417178613 0.58896279877 -0.19116804124 -0.0025871406132 -0.26358162335 0.031640756984 
-0.00014385814674 0.081034771871 -0.025841041599 0.00078503298427 -0.16434903753 0.012607474026 0.00026457719263 0.18540876774 -0.16576595525 
0.0020278886996 -0.15351377236 -0.35099057756 -0.0023697325185 0.22807151483 0.1168356415 -0.0029806628083 0.2458542938 0.37442417996 
0.0011333467882 0.013958994602 -0.18569517753 0.00038003946166 -0.20403801034 -0.045837091686 -0.0001312076901 0.18749944473 0.035290922023 
-0.00070698189653 0.023817673214 0.24977469178 1.3856685039e-05 0.023702277654 -0.0040967436594 -3.6846590111e-05 0.041072101607 -0.0031039143756 
0.00086018867338 -0.13965229619 -0.068505900789 -0.00041357004974 0.12719278627 0.14022030909 0.0011748154374 -0.19732429439 0.014629166599 
0.00048042529484 -0.18243550987 -0.066397793187 0.0010582105635 -0.25334023919 -0.06912765645 5.3306349253e-05 -0.0011191712258 -0.051069563501 
-0.00091766271468 0.36063281229 0.20542607438 0.0012591341924 -0.15356526765 -0.022838769233 -0.00012153228516 0.026583828275 0.0067236551709 
-0.00093381841959 0.32351466508 -0.019708163334 -2.005666958e-05 0.0017274172694 0.028338265406 1.7333846155e-05 0.035410683609 0.082756596578 
-9.7711001345e-05 0.0061568720536 -0.13972028587 -4.2932331439e-05 -0.06611131614 -0.033241929991 -9.1615027326e-05 -0.11641353523 0.011321261605 
-3.4113790368e-05 -0.013630600474 0.016449006842 -2.5875818113e-05 -0.024339231555 -0.0021996096792 -1.7827709091e-05 -0.03039878636 0.058628667693 
1.2490562725e-05 0.026114211118 -0.0040951444063 -2.6745958514e-05 -0.047560895495 0.017938099931 -4.3398583605e-06 -0.0012956491562 0.0023653946851 
-7.6694306607e-05 -0.055862943816 -0.0089325811649 -8.09942097e-07 0.0020920983235 0.0093285242908 2.6046217849e-05 0.022587664424 -0.0058536938149 
5.5042441616e-05 0.038018924185 -0.040926622112 5.8693357256e-05 0.0017451958361 -0.061329916377 -7.389734784e-05 -0.0780401394 -0.021980364488 
7.8003032325e-07 -0.0031928905707 -0.0065539367781 9.1697070462e-06 -0.0025000683749 -0.013040829576 7.6624739749e-05 0.06244474249 -0.028198162054 
6.2741630697e-05 0.029681906866 -0.020123613267 4.4175842414e-06 -0.030977444926 -0.033864984044 -2.2964704112e-06 -0.045128774742 -0.054627079279 
2.1629770661e-05 -0.0081567734337 -0.044052282597 4.8200192105e-05 0.042029294374 -0.0079451892484 2.6068368956e-05 0.010952382183 -0.0093308378892 
-9.6989518142e-05 -0.065375540189 -0.0055582086332 -4.3210589166e-07 -0.01918006725 -0.050755355043 6.5707136341e-05 0.040177692823 -0.034577115774 
7.3618914172e-05 0.045063702851 -0.075304021964 8.1223998403e-05 0.052930908704 -0.028121468156 0.00016000107629 0.098546275771 -0.0020610766034 
2.4513098188e-05 -0.0034686281974 -0.042316888723 6.4888297495e-05 0.028970990357 -0.051895466719 0.00010028077515 0.062796882962 -0.075280750893 
0.00025434655087 0.11825569761 -0.025962720891 0.00040113037198 0.14999872358 -0.040320024611 2.2564384881e-05 -0.017200378116 -0.043785454712 
9.8167408439e-05 0.048353927888 -0.040103896435 0.00027579254903 0.14958913347 -0.03021764227 -3.2888019398e-05 0.069004879262 -0.065734884924 
0.00010388180975 0.12339577982 -0.013108565049 8.9165198236e-05 0.067042637506 0.017568667684 0.00013792543918 0.095617678136 0.0057975959587 
5.5673547333e-05 0.09198625328 -0.010506811478 3.7576552649e-05 -0.0065671972342 0.039394373728 -9.0111151455e-06 0.027401284511 -0.091440532604 
4.1464650976e-05 -0.01773851836 -0.070326117462 -2.6389678504e-06 -0.0012954594766 -0.084612999321 6.3037125907e-05 0.011748489707 0.14694887385 
-3.1346126787e-05 -0.0036495844178 -0.046575364616 -1.3323040302e-06 -0.046032748742 -0.018642426042 -3.1946872983 -10.162421784 -0.00030417277103 
4.6765910737e-08 -2.1929207234e-06 -0.0040436522807 -0.61952575024 -8.5637376118 0.033654830769 0.48726768944 2.0857227212 0.0047152676332 
-4.9043745802e-05 -0.00011807721729 -0.025549859184 2.4428904621e-08 -5.7963727121e-07 0.0034386419255 6.6394824271e-08 -1.9953317444e-06 0.0022741664231 
-0.58704742073 12.754568798 0.17715886999 7.6601706994 19.386821731 -0.031311599233 -0.76098560657 -5.8715654559 -0.00396761978 
-2.372175586e-07 1.9598780769e-06 0.0051923831306 1.6101846838e-05 9.5452947914e-05 -0.0058303153426 2.1605363276 4.5747843741 -0.00054132039311 
4.6371252146 21.895401113 0.035060758607 7.2361719613e-08 1.3995168282e-06 -0.0034206872726 0.36517595002 2.5807480821 -0.0060026978816 
0.062599742907 0.20476244016 -0.0030507008264 1.4150074328 4.2644058629 -0.00034098983725 0.0031813105103 -0.15363226093 -2.5408970544 
0.24589493142 11.418180167 -0.012460249519 2.2797482831e-07 2.2269272554e-06 0.0073693927162 -5.0633539449e-05 -0.00044424441671 -0.022978047528 
-1.1440898528e-06 -2.0900178938e-05 0.0097645314294 -1.0736643428e-07 1.0557995805e-06 -0.0063382422614 2.8567494783 13.384169004 0.00041968009255 
0.042706364809 2.8750510685 -0.12927539023 0.083623314919 0.63477554038 -0.0015368903436 -5.2500946486e-06 -1.2429520897e-05 0.012068808254 
2.5175291328e-06 2.0810785349e-05 -0.016578608235 -2.0492481884e-07 -4.9323774855e-07 -0.002467760872 -0.25305610683 2.9323915989 0.22275734602 
1.3538929561 5.5165334299 -0.005632965576 -2.4049993109e-07 -2.6397527856e-07 -0.0037390856281 1.8897793163e-06 7.3112608244e-06 -0.0068586889518 
4.8599251405e-07 2.2922445824e-06 -0.0028113941175 -0.010921275751 -0.22361281081 -1.1054015958 2.652348293 6.5709550731 -0.015707700043 
-1.491267594e-06 2.1037541263e-05 -0.018716147381 4.987622743 10.588557636 0.026536193717 6.6835406185 29.741456328 0.088810468933 
5.4316092323 16.550069802 -0.018194871054 6.1424856959 29.284902066 0.035468541248 0.052320343464 0.21669394011 0.0061866989415 
1.4202769662e-06 2.4861712792e-06 0.0036257342399 0.14071717116 2.0299671969 -0.019054761992 -0.38131101195 8.6262507564 -0.15749565375 
0.088411373025 0.81397895439 -0.0068241442462 -2.6785053547e-08 1.7987998947e-08 0.0032390461851 -6.3142921265e-06 -0.00012022246589 0.023391796499 
2.207463492 17.729158205 0.058606166128 -5.0000529974e-07 4.636824546e-06 -0.010002296205 -0.00032074325918 -0.0032821331761 0.018472688305 
5.1432647228 11.687221992 0.00073190104176 1.0195951747 8.174404897 0.0016304481876 -2.2327455888 -9.5899205298 0.013893583403 
-0.66506898494 10.831998514 -0.073178093352 0.037662843965 1.9096219389 -0.032986080486 0.19403448537 4.1942189283 0.31447446699 
-2.8226505069e-08 -2.142286563e-07 -0.0025070859437 -1.5159353387e-06 -4.9049581605e-06 -0.0021516547732 -3.2733080095e-07 5.6929574655e-07 -0.0019608791144 
0.17037755936 0.40715992964 -0.018195347654 -1.0001075699 -2.3208511837 -0.0012689073971 -1.6012785744 -14.94315773 0.024088675656 
-1.0751067903e-06 1.7956298419e-06 0.0076019391293 -0.0015958796702 0.25411865445 0.21099951914 -0.88292016772 -5.230710546 -0.00045623469999 
-0.0024840020578 -0.031392262698 -3.1402529088 0.0093381744212 0.11491494003 -0.0051501447623 -1.0526561822e-06 2.0082655589e-06 0.014560647134 
0.67531112133 2.2764161563 0.001858027551 0.65602281803 3.1815796514 0.0055166767657 0.56593241569 1.627442587 0.0073444606631 
3.9251361066 25.531595211 0.044739841623 1.2711487599e-06 1.045907348e-05 0.011139875013 -6.943063764e-07 -1.2859824071e-05 -0.015576303899 
-9.6533194799e-08 1.0747148652e-05 0.0046953570426 0.037881331088 2.4130362201 -0.016828222941 0.094113832884 1.2153876066 0.012640593114 
6.9864830038 22.189085218 -0.010826468683 -3.5657735024e-07 5.5938332771e-07 -0.0023985956071 -4.2705542948e-07 -5.3764170117e-06 -0.006042036073 
2.2437540197e-07 2.5504567874e-05 0.00068976286757 -1.5911801019e-05 -6.5156263004e-05 -0.015715974705 2.641760793e-07 5.2010314828e-06 0.0031602358797 
5.8977053992 18.481576715 0.014022089561 1.2974395922 3.3652874662 0.01782236492 0.28430448693 1.6246948036 0.013989555441 
0.19181159737 0.96165890536 0.001617679574 1.5917814381e-06 -8.4448543227e-07 0.0030977432988 -1.5970473981e-05 -4.3989188203e-05 0.020479234821 
-8.9852182452e-07 7.2105454114e-07 0.0052715844737 -7.4251716898e-07 -2.0133955119e-06 0.0040960781302 -2.2093359954e-09 4.5289110783e-08 0.0012105451107 
2.0914680565 6.7174599398 0.010006066246 1.0841504767 3.9610360417 -0.0045235758248 3.3103540333e-07 1.1534250948e-06 0.0013148903486 
2.1584645452e-08 2.1092996992e-07 -0.0005597963677 -1.5008245463e-07 -3.0969596006e-06 0.0097231448622 0.013109302266 0.84166867705 0.5437550719 
-0.53146988826 7.025233245 -0.11221392962 1.4933256976 11.674350594 -0.17790326139 3.7838098621e-07 -2.7616351114e-06 -0.0051670294471 
-2.5593595366e-07 -8.2859143112e-07 0.0021475153141 -4.6634510015 -17.769012984 0.016368573883 -6.5550211832e-05 -0.001232645185 0.01013135805 
-0.0080263612651 0.86477922529 0.16573825969 -8.0348278911e-07 -4.6047405923e-06 -0.0025768466934 4.4295632094 11.594079478 -0.024179616267 
1.6455385716e-06 -1.2083782255e-06 -0.0045312201595 1.8457708509e-05 -0.00011058969949 0.026333794958 1.9594912815e-06 3.0310425533e-06 -0.0090286195625 
-1.6540979537e-06 -4.5162817137e-06 0.0078106187089 -0.34725076686 11.169678987 -0.30052314621 -0.70877279465 11.849890512 -0.20335042666 
-1.8335258269 -12.818402641 -0.01084713109 0.022173527254 -0.16042082687 -1.7358044694 0.025536381299 0.33376423225 0.0078654869769 
0.2861938749 11.530676059 -0.062762511928 0.10086052726 43.0008584 -0.066160302379 2.6672879411e-07 2.0802463917e-06 -0.006197859707 
3.707889711 13.095943605 -0.016532698009 1.9438792574e-06 7.660823883e-06 -0.011293783507 0.55604957753 3.4081115919 -16.87057062 
0.075208652781 -5.6458955524 -0.3701621281 0.41826172961 5.3053942111 -0.056220263463 0.052908864457 0.35856075121 -0.005727277845 
6.0655561038e-07 3.2315055609e-06 -0.013702396208 3.0056154869e-07 1.9080135705e-06 0.001264170377 0.13145488213 0.82614590164 5.9820011981 
-3.5555646946e-05 -0.00015605342301 -0.049396135438 -6.3452202553 -14.116819383 0.015208288867 1.614166762 4.1897292715 0.0013592059332 
1.0428623353 -51.692379454 0.13592891261 8.145854244 26.56478305 -0.015624508101 0.019640262218 0.35361120794 0.0034041730792 
2.1259418899 8.0693810702 -0.011650742884 -2.8556399445e-06 -1.452265633e-05 -0.027577398078 7.7195779831 18.904519521 0.032330474835 
-0.021002776282 10.6729297 -0.15950484213 -0.31350376731 -1.2012708604 -0.00052738876108 -1.2112769802e-07 2.1810125299e-07 -0.0023372571493 
-1.7526296886e-06 -5.277284718e-06 0.028033688729 5.8961447369e-05 0.0014860631217 0.023501943318 -6.2795438663 -15.878046942 -0.016409650863 
-7.5233176831e-07 -3.3597774108e-06 -0.0093233657009 -0.060741118738 0.049167324828 3.6931808293 4.4832189504e-07 1.8739125484e-06 -0.0026786273732 
0.00074472506961 -0.069523404979 -2.9091077408 3.3459318964 -36.495522539 -0.091357536354 2.9622286476e-06 8.5657396064e-06 -0.0021363741881 
-0.67891644521 10.571230116 -0.067287406887 1.039964016e-08 1.3607997011e-08 -0.001182362777 0.11595527504 0.26438792241 -0.01920763057 
-0.29040585545 -1.9046577732 -7.7421265454e-06 3.4353844608 7.7016755636 0.024823524044 -1.6085033736 -9.0335053809 -0.0067025730019 
7.63006656e-06 1.9039013437e-05 -0.0072835475234 -0.042949867886 6.8744620854 -0.1775078461 2.8662601999 8.0889278427 0.010907921996 
0.023689765836 1.0301683199 0.047201008853 2.7088312445 5.6479203002 0.013351784931 0.020054261881 0.10043711874 -0.0014717606795 
3.7869357975 32.055751817 -0.015632178361 0.35036163576 4.986545567 -0.033678005598 0.25173090883 3.3756101565 0.0019628676075 
2.380733481e-07 2.4729934129e-06 -0.0016878019279 -1.2113268951e-06 -3.9165971386e-06 -0.013068533891 -1.5962351603e-06 -1.5918688815e-05 0.021224107342 
0.20303789662 1.1653669194 -0.19175369075 9.3976667813e-07 5.4939590159e-06 0.0090138183438 -1.8644098824e-09 -1.7878119962e-08 -5.5314389226e-05 
0.82814108534 4.4152508995 0.003078030154 0.0070173035745 0.1189286968 0.0014899203766 1.206538662 15.865206651 -0.03833760819 
9.1054648921e-06 5.1554633135e-05 0.0047424439448 0.43395504985 3.5375626758 -0.0055585736776 -4.4006629394e-06 -1.4157039535e-05 -0.012011176936 
6.8764798225e-07 7.7067017545e-06 -0.0064254801961 -2.8316255896e-06 -9.6585016165e-06 0.0089766549507 1.9213095738e-06 8.8762852172e-07 0.011454509036 
2.0524093801 5.6533099413 -0.012630881486 -3.2927491385 -17.729465536 0.035588152473 0.1385139951 1.2985020323 0.003569995235 
-0.010011327742 0.97932419439 -0.10591247261 1.7946610485 16.657115026 0.001770430564 -5.9922675503 -25.07888276 -0.050009350791 
4.2096720865 8.8760137174 -0.0086491697641 -0.36211157807 2.4215456508 0.24207712335 0.00049101324374 -0.43385296457 -0.12277071825 
3.470578266e-07 1.2976891848e-06 -0.0030017416234 6.0071345978e-09 5.5536172299e-08 0.00018049676155 3.4468913379 10.15095307 -0.00037608216679 
0.025760826547 0.68318689999 -0.010101121614 -1.3798547731 -7.3909221191 0.0059422463518 -0.0017286180042 -0.036381362992 0.0035046604584 
0.02144105221 0.078832373009 -0.012818578791 1.623495477e-06 8.1312541903e-06 -0.0052846595636 0.00031250772886 0.0023887665856 0.0013401936174 
-2.9822815692 -19.761890358 -0.0065497357968 -1.1220611701e-07 4.0179603034e-07 -0.0030134446359 1.2204504806e-06 0.00021248823116 0.016576615012 
0.012938728873 0.24402222506 -0.0011622806213 -9.4228246406e-08 -4.4460426009e-07 -0.00050985427824 -3.1836753882e-07 5.6333865936e-06 -0.0113497111 
3.3558273856e-06 -0.0021075762375 0.018417542897 1.4258140213 6.6255119193 -0.0012166864924 -0.012506907953 0.1327692614 0.39458872278 
0.0092067099752 -0.084965591595 -2.5825336657 -0.057887111974 0.53680042893 -0.15787821632 0.021056875363 -0.042546791269 2.3032749966 
0.10906214174 0.57707393051 1.8965835529 -0.010912864088 0.23021693509 3.5138851827 -5.1709452707e-05 0.087810555154 -0.011503894781 
1.9360483447e-05 -0.024907497533 0.0041076630132 -3.3471761277e-07 0.00010190515826 0.0024903546395 1.8196656912e-07 -3.2830571332e-07 -0.0017203573568 
-2.4346827814e-07 -1.5662842627e-05 0.019169865783 -2.0618519564e-06 4.7590965764e-06 -0.0072348751455 8.7034387897 -69.291735411 -0.067475803892 
1.9734617723 -72.549149212 0.18793637893 0.6664997488 -50.354602144 -0.24354444926 11.976544622 -52.681551105 -0.095832012316 
9.1421498837 -62.676830566 0.18301097695 0.88052672325 -49.569062522 0.69038862737 11.643281424 -34.837980724 0.10823974375 
-14.771080087 49.851012614 -0.45335895843 2.1524300839 -40.889408992 -0.66547745492 1.0541077988 8.7669803621 0.077042924244 
4.2833270327 -20.961788132 0.091366108799 2.3899340744 -26.554597551 -0.32710615995 1.6940207593 29.888478822 0.30568610834 
3.013152717 22.225070547 -0.20617006019 0.62336936204 2.0982650762 -0.054084662462 1.25246197 6.7806559788 0.10738579848 
1.7922615538 13.784643606 0.17073044679 0.023605985876 0.078393891289 2.3413779202 0.21800339153 0.62995926861 0.3239982583 
1.0677826026 7.2491386941 -0.24979196605 0.74485539539 2.4745877268 -8.3000493141 1.7473267889 6.1232022293 -8.8050362107 
0.075293261569 0.57296623378 -1.157899544 0.14130413633 0.78654624812 -4.6239503032 1.9506676841e-08 -1.663023323e-07 -0.00042849089014 
-1.8010149866e-06 1.2284307529e-05 -0.010393599229 7.2191298603e-06 -2.2394919236e-06 0.030692727154 2.2877484578e-07 6.8088084411e-06 0.0045835079009 
2.3704672539e-06 6.598856057e-06 -0.025067216453 -3.3500755763e-07 -4.3936255234e-05 -0.028768078686 -4.6151569726e-06 4.4387343713e-06 -0.015389475286 
-2.9785553957e-06 -2.7616439388e-05 -0.011208803528 2.7256859827e-07 3.6519391418e-06 0.0066507771847 4.6296556743e-07 3.4097632803e-07 0.0025152321098 
-2.0341172623e-06 -6.4809850697e-05 0.025089167758 -1.1473171748e-05 1.276083574e-05 0.031270654017 -4.1559564234e-07 -2.2990688256e-06 -0.0052354784808 
7.7364784853e-06 4.9593286612e-05 -0.028412126039 -1.1111722503e-05 -1.5991882414e-05 0.04278282554 -1.2666078322e-06 1.186653487e-05 -0.0096147269373 
-4.1912291932e-06 9.4115811335e-06 -0.019526269507 -2.5801592316e-06 4.6285207413e-06 0.012418868802 -1.9243057554e-06 -2.6969814081e-05 -0.0070013415992 
-1.9550252459e-05 -7.6902990935e-06 0.046971918372 -6.6791921154e-06 -9.5780043918e-05 0.015737250935 6.3469420986e-06 0.00028912901297 0.021535010016 
1.0254275777e-05 0.000144663663 -0.013468137546 3.7424068236e-06 0.0002752392662 -0.010051541499 -7.2053522996e-07 1.172778268e-05 0.0050107194193 
-1.2658116427e-05 -0.00063241621557 -0.025494673829 -3.5160897974e-06 -0.0081234640044 -0.048883642173 1.1482068509e-06 2.7381554441e-05 0.0038311315894 
-5.6471296996e-06 -0.00062491051927 -0.01782530317 -0.010766266303 -0.024824717017 1.1240472613 -0.024220215403 -0.012233037967 4.3694548488 
-0.0075990080772 -0.258724148 -4.9339278983 0.0068856586715 0.046894573462 -4.3326705545 0.0049091272061 -0.01579442124 1.6572753974 
-0.023748951296 0.034863944533 1.8488089462 -0.0084239795236 -0.019020683279 -4.9668058304 0.0027204970063 -0.0058951627969 -1.8060524348 
0.00072441454104 -0.036579715283 -2.2368650242 0.0029594774545 -0.018557409166 -1.2216627115 -0.099216863438 1.0095503785 -0.16717784337 
-0.017341935002 0.16516644591 0.050765223649 0.032116370706 -0.22732625708 -1.569473718 0.27087381835 -4.9987870555 2.6318803272 
0.24737955767 -2.8552026566 -1.8957808503 -0.49676874791 4.1355356699 -0.053796359427 -0.0028952187141 -0.65851037385 0.078390397223 
0.00049686318875 0.092011242263 0.0055578598733 -0.21182513728 4.5445409154 0.38050386831 -0.00080991384724 0.17391936434 0.19655306737 
-0.00086778993422 0.38686232478 0.010528337064 -0.011391615095 -1.4295578925 -0.36095671703 0.0062199430875 1.7333196594 -0.20249350947 
0.008641556523 0.84306677358 0.19305979687 -0.00041647930042 -0.12773129464 -0.36371567725 -0.00014756041195 -0.012509823799 -0.11573236195 
-0.0015254572611 0.38399858141 -0.035794688377 -0.0016188413854 0.21672690386 0.087770073767 -0.0011760665012 0.22020567951 0.0063183129456 
0.0013901043079 -0.13588447479 -0.016762073399 0.0063008317793 0.71165843089 0.16397721708 0.004399931678 0.75266358346 -0.01647123871 
0.004722694801 1.0208658079 -0.13959845734 0.0076866900809 1.5409714942 -0.14231512816 0.025893195 1.3087951613 0.04660808428 
-0.0019848345538 -0.15305286351 -0.20023246003 0.0048299068455 0.23201024724 0.00044770859302 0.0047972220364 0.26206066344 0.004355468454 
0.022380907553 0.73150594138 -0.029473246499 -0.0024130327451 -0.085311129153 -0.035440020004 -0.0035176485963 -0.1308705787 0.016458432187 
0.014505840596 0.37369083216 0.03644326271 0.046178090132 0.68989863289 0.029287788924 0.054532278478 0.95148668464 -0.0067298474047 
-0.00052827735696 -0.019451516113 -0.013740020749 -0.0020491419167 -0.078982388071 0.007639468481 0.014494112032 0.26572022805 -0.017356954383 
-0.00025808982531 -0.0086447815143 0.0052029670129 -0.0010650025949 -0.036735261885 0.010189740215 -0.002367658472 -0.061574486731 -0.0036983249648 
-0.014206708622 -0.20817602165 -0.026892516876 0.01791042204 0.278136228 0.012537900525 -9.1811150899e-05 -0.0021888941424 -0.011181673759 
0.00045409215389 0.011065610618 -0.0083820658711 -0.012864832935 -0.18364510803 0.01665279157 -6.4913882245e-05 -0.0027002731083 -0.011144624762 
0.00019228761702 0.0081617550076 -0.0094591305467 -0.0019019390152 -0.029482424844 0.01040580677 7.3138259103e-05 0.0027320136289 0.029354395445 
1.9746349558e-05 0.00070393190889 -0.0020963449928 -0.00018291952433 -0.0036357174695 0.0022801313888 -2.9870463071e-05 -0.0014616416918 0.03498533189 
-7.3909805193e-06 -0.00029404892515 0.0028881903784 0.00020944792017 0.0041578246619 -0.020871759384 1.0304967088e-07 0.00039621290457 -0.0071289568439 
-2.2549512638e-05 -0.0014320812922 0.040195755868 7.7985229818e-05 0.0023446347136 -0.019412454988 1.8022294337e-06 -1.0292169306e-05 -0.0068261595805 
-8.6368570077e-06 -0.00014998777317 -0.003245622232 1.4292536197e-08 4.6295721417e-05 -0.0009933993603 9.6605424742e-06 0.00021507801566 -0.017566500944 
2.6872527432e-06 0.00030798077444 -0.0045041938677 -2.0822386711e-05 0.0028691205479 -0.045177033585 1.6512298256 38.775527085 -0.016546361703 
1.9900160435 26.975979132 0.010165446343 1.5760059525 41.379750749 0.064851586551 2.3627130687 15.126925786 -0.023061441245 
1.6990171878 9.0426231559 0.053308073363 3.414111482 20.193126804 0.15762556527 5.0170253904 24.552353797 0.12031199056 
4.7849587222 14.246186014 -0.026281603999 1.2848881863 5.6359123377 -0.018342969963 0.4238895696 1.8349527867 0.030909905067 
2.5463825892 7.0662062473 0.033973353942 0.00025444520647 0.00098119001734 -0.017614316441 4.8855951288e-05 0.00013287484946 -0.01313340729 
0.85028331871 2.1258892607 0.032055426852 -7.7450195919e-05 -0.00010535586257 -0.04212122584 1.5866578999e-05 1.4014447337e-05 -0.019006457142 
-4.6204102865e-05 8.1123484486e-05 0.026859523552 -1.0651523873e-06 2.6141754925e-06 -0.0083929536356 -5.2711594121e-07 2.6371243196e-07 0.0042274501564 
2.6696357479e-05 2.5075673276e-05 0.018558011861 -1.8980535355e-06 4.8323038931e-05 -0.035293775023 1.1695971894e-05 2.097342614e-05 -0.022960753097 
5.023456085e-05 4.734409496e-05 0.037749176912 -1.170838527e-06 2.0134009328e-06 -0.0078560773496 2.5545636948e-06 3.7901167718e-06 -0.0054076069773 
9.3809655146e-06 2.8321760041e-06 0.021259385452 -3.4464799408e-06 1.1004738995e-06 -0.010845921283 2.1377709484e-06 5.8911151724e-06 -0.011748019071 
-4.5595019467e-08 1.2430313804e-08 0.00014460378269 -6.2388693048e-08 1.1627085154e-06 -0.0030401915026 2.4701677094e-06 6.4836967713e-06 -0.012725163082 
-2.1109573328e-06 -2.8445782484e-06 0.0098364701504 -5.1702332863e-07 1.4256482875e-06 -0.0051374444927 -6.1538635349e-08 -1.4734306131e-06 -0.011145112126 
-4.2449794438e-06 -5.842917269e-06 0.017222924726 2.4386877318e-06 -1.0966722091e-05 -0.019731875727 2.5414976382e-06 2.442552328e-06 -0.0061880503938 
3.0845808386e-07 -2.4436876706e-05 0.012001102247 2.3194290026e-07 2.8153043435e-06 0.0048160801353 -3.6129953057e-07 -4.7332395753e-06 -0.0048266887393 
-3.2480146212e-07 7.3505189328e-07 -0.0017136907276 1.1829028093e-05 -1.4644509029e-06 -0.035727624406 -1.1593227996e-06 -6.096265688e-06 0.0033833627567 
-2.3248260328e-06 2.5826033769e-07 0.014785970994 2.6929201474 9.939313297 -0.016291860456 3.5027351077 11.712475631 0.0048918373074 
-2.8915743763 -11.225822521 0.024306176141 2.1976920533 8.862393102 -0.036226449723 2.6096198433 9.0704804527 -0.029622086816 
2.6296617576 8.4163194751 -0.019485162958 2.1079525152 7.3687562806 0.014853823964 2.4504560737 7.3593904786 0.0036879070047 
3.0036870035 8.9993615895 0.018260943754 3.7676481976 10.863308818 0.01448719953 4.0861083072 12.448009957 -0.030412965487 
3.5634298527 9.7117188247 -0.014928731728 -1.5074083597e-05 -2.2326602993e-05 0.020460870815 7.7974344803e-05 0.00029902173295 -0.052959177437 
1.1689324741e-05 4.8912293475e-05 -0.010563249291 -8.0314093026e-05 -0.00034356745309 -0.038701917458 1.9578407838e-05 8.9639781676e-05 0.025115284245 
6.9571511172e-06 1.6053912423e-05 0.0071667400428 -2.7224450143e-05 -7.9308443513e-05 -0.019520127821 -2.0051737e-05 -6.8611737909e-05 -0.01584570121 
8.6975826358e-07 -4.7087258311e-06 0.0045147292801 -3.5507915481e-06 -2.2891630241e-05 0.013885624672 6.425670611e-06 2.5894422984e-05 -0.022839294923 
9.1279883279e-08 -3.0166256893e-06 0.0054009312605 7.9104484664e-06 1.9811357332e-05 0.012429746571 -3.1511926538e-05 -7.2214397982e-05 -0.01527224675 
0.84581910504 8.4570676495 -0.049002056322 -1.3791992966 -10.312386841 -0.0064536204934 -1.1409383953 -10.747112234 0.016673484925 
0.4726955019 6.5771463635 -0.018331964407 -0.6394674376 -6.6814038428 0.0026568449061 -1.032160544 -11.778098818 -0.0095714519062 
1.752271298 13.976405398 0.010717128398 0.85025413638 13.127843448 0.011404312215 0.47348608961 9.9076689723 -0.070206432335 
0.24943665293 5.4704148468 -0.057146391002 0.25737967008 7.3687968037 -0.045060237892 0.023367028801 4.6811940402 0.088536889165 
0.16868673655 3.6319771543 -0.089143464171 -0.09320450703 -9.3193418876 0.096461227418 0.59024032102 2.2305983611 0.019253558305 
0.88634710066 3.1081345074 -0.016220530884 0.74145158196 2.931748961 0.019658317722 0.40531957596 1.6378435333 -0.012420864868 
0.46218818658 1.6626813556 0.016081307753 0.5767345374 2.6212894308 -0.012200795733 0.44112199199 2.3240802978 -0.012751404693 
0.3810185991 1.8660772626 -0.0028009454358 0.86874234753 3.6273078538 0.0085870801797 0.24426116443 1.3045040652 0.035123677234 
0.31958704492 1.4791482106 -0.0123670786 0.25357925336 1.0999282909 -0.016413857129 0.40252141283 0.99563971318 -0.014959050107 
1.1873128693 2.9163599833 0.010956116819 0.6486620314 1.6781691407 -0.040395975815 -0.00014716873433 -0.00031932698339 -0.035802419894 
-0.00067089349968 -0.0016256215349 -0.02324358648 0.31907053104 0.87178653795 0.011825976083 0.86930512715 2.3822267342 0.02017554611 
0.16020810557 0.45824715736 0.002329669982 -2.8365430599e-05 -8.7019804359e-05 0.01135821715 3.0339318958e-05 7.4458049406e-05 -0.06745289239 
1.4957112207e-05 3.2515051053e-05 -0.0056460354225 1.5222560961e-07 -3.4238070962e-06 -0.002916123501 -1.8651000224e-07 4.1875129359e-08 0.00065672765847 
1.2837621129e-06 -4.1083984259e-06 -0.020537741006 -1.0434479674e-06 -5.0894957562e-06 0.0040659134976 -1.6971111966e-07 -5.1918550002e-06 -0.0068452441879 
1.6373881894e-06 7.5421872754e-06 0.01372597082 3.7358953859e-07 1.5531266126e-05 0.024183976531 1.0255975642e-06 -6.9241808528e-06 -0.012529529 
-4.2542360841e-06 -3.2918676484e-06 -0.020061604335 -2.7491515168e-06 2.5222673863e-05 -0.032850419257 2.386867016e-06 -1.2126406122e-05 0.022970133913 
5.0094966108e-07 1.4673999225e-05 -0.024707053038 1.8053735597e-08 4.0034802539e-08 -0.00029102945067 2.6528758451e-06 5.383897452e-06 0.011469931488 
-7.5786351552e-07 7.113720585e-06 0.012061957187 2.5429343666e-06 5.0720660391e-06 0.0076924766348 -1.7408355117e-06 -9.3089688205e-06 -0.0058565184778 
3.9939495986e-06 1.7675301134e-05 0.014005735822 1.480847569e-07 3.0166922073e-06 -0.0016370582518 1.0339704407e-06 6.4372618225e-06 -0.0023473111936 
-2.5484085918e-07 -2.8736948982e-06 0.00093122182623 -1.320479542e-06 1.774822301e-07 -0.0084262662886 -2.4254094648e-07 -1.2143855548e-05 0.011471647824 
3.5470146147e-06 2.2469207341e-05 -0.00731780678 4.8455529163e-06 3.1571601689e-05 -0.02061361255 1.4874540158e-06 -2.8991565221e-06 -0.0085637928956 
-9.4445538333e-08 2.4340800219e-07 -0.0039078589175 -0.7928232072 13.185066946 0.49325800297 -0.53783352125 10.158406344 0.18479985218 
-0.49418805153 12.155086089 0.11952667985 -0.64388664002 11.998865787 -0.16282552304 -0.72205209697 11.535805184 0.2081130327 
-0.1256679525 11.421294644 -0.10608248476 -0.29451729629 10.606332768 0.20226760326 -0.61171119109 11.913685182 -0.0058592350734 
-0.76513821737 12.478324604 -0.0042253417918 -0.35358627483 10.911734382 0.58661016382 -0.12504232084 9.0755954603 0.325491926 
-0.24916992111 6.235038794 0.17000483948 7.3264647466 20.894111029 -0.051920324678 8.0997953097 22.813829157 0.023890181323 
7.7336885665 24.223829172 0.018438442222 6.7793833063 19.073139722 0.095465910862 6.9705837017 17.461577605 0.016080604844 
-7.1339062777 -16.763773597 -0.02260657492 7.1073957294 16.40413641 0.010657623106 7.7785169507 19.348156474 0.03272242072 
6.3237648842 15.11610329 0.0085058485018 8.0227440078 22.500379273 0.077416413469 0.89319563344 6.9695539645 0.04238366054 
-0.65565197179 -6.387374556 0.031915931552 0.5723872466 5.5005766478 -0.023357160188 1.1337673655 7.3487146817 0.035717021197 
1.3060487672 8.6418629248 0.021560396971 0.82221929758 5.5306572716 -0.021896585825 0.59440083469 4.6968896126 -0.037866929531 
0.63994481746 4.3922802629 -0.0095766105954 -1.1128603092 -6.2815368321 -0.0072534252233 1.049237082 6.6715820614 -0.0090991243123 
0.33949124769 4.4103544978 -0.053797282736 0.45481757531 4.4432037634 -0.0046606501165 1.5156613766 8.2718449376 -0.027392794272 
0.3377785979 3.4349033977 -0.029865266437 1.0405814273e-06 7.0275952848e-06 0.0089762931006 -9.3242393454e-06 -2.2794854479e-05 -0.016300980932 
-3.3472748385e-06 -1.1759370689e-05 -0.009918253012 1.7026639874e-07 3.7852473686e-06 -0.0109459011 -1.4573329843e-06 -5.4344138118e-06 0.0083267906388 
4.923661336e-07 1.6992582631e-06 0.0010984211994 -8.0010844138e-07 -9.2275739009e-07 -0.017059173699 3.8470504228e-06 1.8418162451e-05 0.015019361817 
-7.8593862801e-06 -1.4055648642e-06 -0.026471422099 3.8638476711e-06 1.6607737791e-05 0.012839190153 -6.7691070784e-07 -2.1939924598e-06 0.0018297341414 
6.1257921452e-06 1.8518586748e-05 0.0082514984404 2.0272257786e-05 0.00013197957609 -0.005369924046 3.5843733908e-05 0.00020498637691 0.01402830146 
8.9059024886e-06 4.3536750974e-05 0.014004026563 5.4116260486e-05 0.00038896432174 -0.020754537866 -6.7913818514e-06 -4.8869877715e-05 0.0010192729213 
0.016628678706 0.10512501266 -0.011023579087 -2.2364795686e-05 -0.00012198327895 -0.0015781081733 0.041768294154 0.24111602753 0.0046929311779 
0.021835001097 0.15699265255 0.0074831141058 -0.00013378508014 -0.00069700566145 -0.013313164042 1.1796390754 2.5838066898 -0.01271301123 
1.1092019923 2.4159088445 -0.046753071158 0.13697655018 0.31477376926 -0.0098934924312 1.3951946075 3.0511690458 -0.03468820003 
2.4471134327 5.1338384252 0.011485849499 -1.4927082028 -3.3202829164 0.0028875644906 0.6012258236 1.3820160237 -0.019387133527 
2.8283792116 6.1886877647 0.0099610210975 -2.1980812489 -4.9996821596 -0.0097122981224 3.2185627021 6.7652468553 -0.025912588171 
3.7896822572 8.2574218753 -0.0045860813147 3.4670899342 7.2773196661 0.0035168405475 4.3691450543 23.180127037 0.11570352841 
5.2835965532 23.424704061 0.067822348808 -4.8176272067 -25.864774018 -0.1398122909 3.4734021657 21.787562866 0.0040669871762 
-3.7777265499 -21.038798883 -0.025722134968 5.6787756945 22.218021015 -0.0019252837249 -4.7422965202 -19.82960142 0.011084461692 
5.718281412 19.884108593 0.0098433755827 6.5770622984 23.683796851 -0.097296367493 3.9291889517 19.556721716 -0.013769670263 
3.934156806 17.793796717 -0.0065971975106 3.1571982551 18.757056167 0.033632069049 -5.9858114161e-08 -3.5626746717e-06 -0.002554853375 
-8.9040883553e-06 -8.5376386519e-05 -0.036416599799 -6.4233472666e-07 -1.149869253e-05 -0.0049877166783 -1.466736009e-07 1.3576738847e-07 -0.00068282801754 
-7.2706249376e-07 -1.1745402708e-05 0.010850821086 -4.8214367645e-06 -2.9919304007e-05 0.012454746964 -5.8661288167e-07 3.3120205165e-06 -0.0053253783249 
-1.720629429e-06 -1.2924991546e-05 0.010802280252 -2.7701597941e-07 -7.6463624049e-07 0.00069370540711 2.7233434979e-06 1.3594655985e-05 -0.018919582485 
-3.6721339135e-08 -8.0532429552e-06 0.0088731763571 0.48808129669 2.8338010288 0.0046503309489 0.33397371804 2.2690457179 -0.017811846761 
0.44496930383 2.4899450437 -0.0091129605449 0.75319174758 3.8138003027 0.019272609977 0.55896860895 3.4077877711 0.013681430919 
0.20261197705 1.8702504101 0.0050280356809 0.39906603427 3.0147813591 0.017504333278 0.22468977326 2.2563816294 -0.0035351835025 
0.11271099704 1.2275783304 0.018429785572 0.23662117282 1.9123439446 0.003170835969 0.20639961842 1.6033387198 -0.0029326566717 
0.61166240374 3.9758192594 -0.0024058843474 0.37606487463 1.2461003616 -0.02496120398 0.24519886912 0.7549316981 0.0021336145169 
0.64242292088 2.0002781276 -0.0035450535169 0.21050362242 0.74517454967 0.0049926223377 -1.8669820289e-05 -5.3712087266e-05 -0.00239290559 
0.00039108694752 0.001358605934 0.048788411497 0.00022903593293 0.00072625972773 -0.033305281958 0.036097486384 0.12524767878 0.0010108187108 
9.572343314e-05 0.00034901238132 -0.022582165589 5.5525722126e-07 7.7789271066e-06 0.0080939899224 0.18173848224 0.68096137539 -0.012600972675 
0.98483789628 3.1493513965 0.0054592261808 1.0086756307 2.9643052595 -0.017049900382 1.2506810234 4.1461953754 0.014129602322 
1.395875694 3.909525411 0.01264089667 1.6449934917 4.4111085829 -0.0075191370713 1.7002889313 4.9080134535 0.01462838392 
1.7555584137 5.4574483347 0.039258689925 1.5144117531 5.2002985469 0.022082212381 2.0846345164 6.2077574938 0.0048898871103 
-0.26605878209 6.1609383296 0.098997851571 -0.27808395274 6.2654763406 -0.32042863502 -0.079266748828 3.6161714873 0.3738480911 
-0.29437516678 8.2557155611 -0.24553850423 -0.0018127931267 0.097300717246 -0.78539020026 0.00028454621948 0.25034360781 0.038361406649 
-0.0073415535809 1.0467528707 0.60466354535 0.0021565048054 -0.29125632812 -0.87068534067 -0.0055603620504 0.79715415525 1.8494578511 
-0.15809378555 6.4285688922 0.14279496055 -0.23787651641 11.170456032 0.012239584803 -0.065396919102 10.725757652 -0.097529609627 
-0.17546544501 10.612117617 -0.076602451083 0.23784277531 11.650004341 0.0034009924518 0.22707957971 8.3255592947 -0.08241880197 
-0.01315611306 6.8156222952 -0.51830909879 0.51074031792 6.1385765723 -0.10527337705 0.40102281364 3.6972682322 -0.40207795232 
0.75818572073 10.756394569 -0.070805853991 0.65769201155 13.73463085 0.067506872573 1.3325980105 13.56564266 -0.16852347366 
-0.67714167491 -13.625760435 -0.0095736914249 -4.0675333096e-07 1.9353051818e-06 0.0026754247839 8.3919627766e-08 -2.6165230441e-06 -0.011137318807 
-2.6497069838e-06 3.3727804275e-06 0.015361561526 -4.043451066e-07 -1.522522332e-06 0.0056966419457 1.810219805e-07 -1.7662131251e-06 0.0034449729835 
-2.2642618417e-06 -1.5878513838e-06 0.010734190019 -2.0584885185e-06 2.3924802455e-05 -0.031942265729 -2.1647486496e-06 -5.2840756435e-06 0.010189744448 
-5.9722587128e-08 3.2097311832e-08 0.00060401427353 4.9324698999e-07 4.9603317911e-07 -0.0018374150481 -2.0349964623e-06 3.6983014817e-05 0.031933995897 
-4.4566499062e-06 -6.9398029173e-07 -0.010422664763 7.6497772805e-05 0.00081572949088 -0.027584218757 0.00024217023657 0.0032171772901 0.035914695604 
2.1093091728e-06 1.7242808285e-05 0.0017756513027 -1.9153157102e-05 -0.00016276996191 -0.0097635144243 -1.0956946444e-05 -6.8307670234e-05 -0.0058273899039 
1.6664925135e-06 1.5768141246e-05 0.001510829926 -6.3866978619e-05 -0.00045612505053 -0.027904700437 -7.524453823e-05 -0.00071016096163 -0.036436322712 
1.4413839445e-06 1.3641634476e-05 -0.0032144129622 -7.0432899652e-06 -5.9339405363e-05 -0.0079215313544 -3.1268249502e-05 -0.00030971633112 0.016137735647 
4.8204361342e-06 5.5540685074e-05 0.014249615037 1.8349367962e-06 2.2272388868e-05 0.0088041025885 3.1158113296e-07 -6.8304542093e-06 0.0065243718821 
6.574496196e-08 -1.1972337198e-07 0.00031013424262 -1.0684663939e-06 -9.6237683977e-05 0.023409665604 9.0721250293e-07 1.5523232245e-05 -0.0064496535935 
2.938132398e-07 3.4639259553e-06 -0.0051282071917 5.3107587277e-07 1.077983813e-05 -0.001652223465 -4.690612868e-06 -0.00015587984123 0.032837414378 
4.4979717239e-07 3.6336035447e-05 -0.0066515760569 8.7813984506e-06 0.0013927015787 0.017650903753 1.4688286075e-05 3.9578816834e-05 -0.040432237348 
2.3955798569e-06 1.4451781606e-06 -0.0091619494379 -1.7394933944e-06 -1.4473761309e-05 0.015835635606 -3.7358959498e-06 -2.2249219562e-06 0.021114952811 
2.5182331726e-06 2.5837957572e-05 -0.034536405644 -5.4866259071e-07 -6.4977652745e-06 -0.013550563047 -1.4626768587e-06 -4.5151672594e-06 0.0116819855 
-2.3287967391e-06 2.6537144201e-06 0.021059916027 1.2431263718e-06 -6.1468072645e-06 -0.016797529995 -2.2869713259e-06 2.5931548993e-06 0.013979714735 
1.8037465862 10.80038913 -0.006113561222 2.3134197962 13.026047699 0.027228757071 -2.1625796329 -11.075493344 -0.0073997825503 
2.5837265016 11.50934959 -0.056075179215 3.2374236499 13.182070829 -0.047509677038 1.9089832808 9.3458721126 -0.011244457767 
-3.6511645374 -15.388360056 0.037433508564 4.2132802483 15.41344328 -0.059177563147 3.0923676546 15.475238805 0.029503241991 
-2.5039331269 -15.247185751 0.012210664832 0.03870049375 2.0376086851 -0.24742247788 0.00088248927895 1.734062343 -0.12155129447 
0.18128127307 3.5279920285 -0.044631762901 0.1880998821 3.9111533305 -0.013988118876 -0.0016631804317 0.96615681031 0.093302715027 
0.053220583221 3.042421972 -0.031129194229 0.16970543892 3.6755176194 -0.080725673187 0.39236967352 5.1530804967 0.0087293067486 
0.085925123597 0.71530465087 0.020632185794 0.15162636651 0.98883147265 0.02174988091 0.17091723694 1.2107838665 0.013999587403 
0.049332936033 0.53769974173 -0.011538197318 0.052165301258 0.50458185848 0.018468508287 0.029825362364 0.28118549673 -0.014938127072 
0.015760310861 0.1377427942 0.0039656453832 0.072430285138 0.51902267396 -0.021133416669 0.02820073279 0.2948179898 -0.002313538846 
0.12708775308 0.76958334936 0.0068725003249 0.094047440951 0.54469791824 -0.015551575145 -3.9357171327e-06 -8.4387817495e-06 0.0061046486456 
5.3743223751e-07 4.2177280611e-06 -0.0028584605608 1.2057775626e-05 3.4740894222e-05 0.041417131063 1.3531149568e-06 8.346889722e-08 0.0039037066112 
-1.3213907756e-06 4.0374121397e-05 -0.02875167127 -5.5745611501e-05 -0.00025678045223 0.049759107513 -1.2274730253e-05 -3.1348201727e-05 0.0060704941418 
-1.1068794373e-05 -7.7571783101e-06 0.012963315716 7.5727000855e-06 1.7230628864e-06 -0.012511879329 1.0786631696e-05 2.9071431134e-05 -0.007123139864 
-6.2480733884e-06 -2.9842379096e-05 0.015540636664 6.6206570286e-07 1.400484772e-06 -0.0011378414096 9.7873429376e-08 -1.6013570137e-06 -0.015156588459 
1.4321542829e-07 -5.1577004128e-07 -0.0013989866064 1.531950896e-05 8.2027566895e-05 -0.042053962998 -3.5624332561e-06 -8.3904457482e-06 0.0072271767247 
6.5323061774e-06 3.3834180312e-05 -0.01124952468 -1.8264203394e-05 -8.5509831434e-05 0.048389704398 -3.3239233635e-06 -1.6686336248e-05 0.013915522429 
-1.5061894161e-05 -3.6289160304e-05 -0.022904236314 -1.4709908022e-06 2.0912381193e-05 -0.021519723654 6.038804979e-07 1.7932980357e-05 0.020654487203 
-1.0940770062e-06 -4.6010048388e-06 -0.0028532616131 -7.1895330544e-06 -1.9605657995e-05 -0.015375391147 -1.4936643672e-06 -1.0971046933e-05 -0.013707752953 
3.3288800093e-06 1.2610344945e-05 0.010600063679 6.5879844016e-06 4.1830571466e-06 -0.020059145132 -0.0018580391952 0.001514784014 0.77161581373 
-0.29774170068 6.584778086 -0.35308035213 -0.028076179594 0.57511043611 -2.0323298193 -0.0069380453979 0.070229364817 -0.64250196849 
-0.4010858456 4.587561602 -0.14380462068 -0.54122884104 7.7122876898 0.018415715859 -0.43537398719 5.4027032524 -0.30766100693 
-0.28074830294 2.2342892847 0.14649589476 -0.19133638136 1.8185099883 0.11632235093 0.96046951043 4.2667685859 -0.017066360369 
1.2233454647 4.7085466458 -0.021435709835 -1.0694892529 -4.9606959684 0.0072575586486 1.7041236063 6.1422973996 0.021067195626 
1.7186825872 6.7614039947 0.015224519771 1.7647205393 7.3783246506 -0.0049652971926 1.3911089836 6.0459712395 -0.014397825449 
1.0951374256 5.4555410541 -0.010618257791 -2.5075795154e-06 1.2276696886e-06 0.0090269066984 7.5955748591e-07 -8.7321616032e-07 -0.0055671215642 
-3.1768853265e-06 -2.1143720108e-05 0.020456217327 -2.4822885493e-06 4.444181414e-08 -0.023740742867 6.0698670839e-07 1.4493274041e-06 0.0025753031594 
9.7985066888e-07 5.3317615594e-06 0.008731623034 1.348152351e-06 1.2685528366e-06 -0.0075406262007 -3.7364505564e-07 -7.1466643264e-07 0.0038294052198 
-2.744707504e-06 -2.4591804756e-05 0.0087217507162 1.971410251e-06 1.360388944e-05 -0.0057704618106 1.2148352889e-07 -2.7831346638e-07 -0.00055131470619 
5.6347183856e-06 1.925869376e-05 -0.01391712992 1.0076156112e-05 7.4205545526e-05 -0.020024825753 -1.1871868169e-06 -1.0361369553e-05 0.0058089582808 
6.2256918575e-06 4.4382968857e-05 -0.011709537182 -1.0913792094e-05 -3.5535590553e-05 0.012368897186 -1.4572699826e-06 -8.5020713157e-07 0.0071721841965 
1.1137084797e-05 5.2060892301e-05 -0.0090189103033 -6.6782088949e-06 -3.2799312335e-05 -0.0084874839234 -1.6055685485e-06 -1.3205042745e-05 -0.0029133247592 
1.8477270711e-05 7.1695477726e-05 0.019279342886 0.63789261976 8.8538603606 1.8278756099 -0.35876879455 -1.7068821864 -4.928711894 
0.92868621514 5.6966886347 -16.783956967 0.21747213398 7.6223852231 -0.82918006274 0.31367898692 10.494706005 1.0955827206 
-0.058197540316 0.1899005319 -7.7097354669 0.027112757513 0.92058401896 0.1180656647 -0.00022600041257 0.064068236069 -2.7625915974 
0.27581786185 1.4985462588 8.8512433246 1.8516144662 4.4557141439 -0.013934854763 1.9367843084 4.9218625029 0.029032782088 
3.0170597252 7.1045788571 0.0065974130585 2.3298803195 6.0799937657 0.0014065072973 3.5577523209 9.0506374397 -0.04773738342 
3.9572003902 9.6438791476 -0.018108542727 2.7884715753 7.3931789353 -0.012858350503 2.5103854493 6.9824706099 0.014445409354 
-6.0961542578e-06 -1.5951644746e-05 0.0043416860054 1.144006503e-05 -3.1218700371e-05 0.025909482558 6.7629325033e-06 0.00014726147311 -0.041128672594 
-1.7881045e-05 -8.4104809601e-05 0.015919146358 -0.00018483671317 -0.00044462301119 0.034379952197 -4.6657745911e-07 -1.9203019638e-06 0.00020662083955 
5.667460365 14.188356793 0.035224870766 7.0254606418 18.901519414 0.090449857602 6.5065564733 14.691653784 0.085614127049 
4.3799798464 10.504650995 0.019232645303 5.7367619267 12.494917791 0.0023400667541 -5.3394150792 -11.506164463 -0.024171847198 
4.6421427588 9.7084261335 0.025867533927 3.304187199 7.5122072623 0.042859161044 3.8308354277 8.0848469161 0.051332166689 
2.2308997515 4.9854647412 0.040250746661 6.449859093 23.687373457 0.091583638819 7.4872926562 23.814445258 0.054204041198 
5.2404768042 31.339908484 -0.02431934686 -3.9927953735 -35.819728465 -0.22546746981 2.8392139057 40.129142714 0.090262486873 
5.3138439589 34.016051856 0.0045371525483 7.5646641321 28.107509329 0.046622826332 6.1223527624 19.145024805 0.020430239051 
4.9982772097 17.058557762 -0.021844705055 5.8871452853 16.395943175 0.006963793175 4.5144394339 14.766674089 -0.0014271965287 
5.0234234791 14.07628789 -0.071413811113 5.2405195587 13.561239772 -0.031796867468 4.5452439022 28.064380354 0.025528237857 
2.7662341741 33.024159334 0.034422931987 6.1266598875 27.125173294 0.052897234026 6.8746226371 25.672203176 -0.018716812645 
-7.1084285571 -27.993982222 -0.069132129243 4.0228496856 35.106720551 -0.0972828765 9.7100248693e-05 0.00042608001096 -0.016981376923 
-7.3647487222e-05 -0.00030387650597 0.016362045054 0.026377469026 0.11988254924 -0.010733266401 4.4980227261e-05 0.00025058409664 0.028199479051 
0.038388800425 0.1495683008 0.0012310555965 0.13053888158 0.59312801059 -0.0027307773817 0.17327804648 0.68992233545 -0.013226195215 
0.10968932212 0.54897478321 -0.028270011825 1.0445138788e-06 -4.0599548644e-05 0.035744055425 -1.1503711396e-05 -3.4457025674e-05 0.019835064693 
-1.2008310605e-06 -3.71951407e-06 0.0014022032298 7.9264975541e-07 -3.3992296528e-06 -0.007233091115 -5.0357110603e-05 -0.00014714222841 -0.024999794283 
-1.0031629004e-05 6.3602122874e-06 0.032204001324 0.12083371001 1.6482092258 -0.0202500728 0.26215490174 2.7547285764 -0.012236910738 
0.070290085745 1.3078329351 -0.010896014616 0.073184099212 1.5980574621 -0.042767496319 0.19567414988 2.7086921174 -0.033720951684 
0.11233551064 2.2884621058 -0.031600172463 -0.042061933273 4.4628830638 0.082012753113 -0.53632569702 10.915180632 -0.010336143804 
0.13756673749 -3.8365228359 0.10033021993 -0.43552355413 8.119301682 0.16298867115 -0.56933586164 10.38500662 0.044458064964 
0.28636104747 1.7519863297 0.021839657171 0.1689889293 1.2958189487 0.0099796804846 0.037286893962 0.46239038099 -0.0012878721466 
0.044462680449 0.55160289202 -0.015536442502 0.11855124535 1.0977909756 0.0066834310341 0.063733459616 0.78444106673 0.0095690268258 
2.8228608272e-06 -2.2642212565e-06 -0.027797919894 -1.1781415599e-05 -0.00010856927826 -0.0195460433 -3.9817168894e-05 -0.00047832014162 0.063723182669 
3.0146712396 21.135299479 0.073721657233 1.9810803471 17.972592874 0.067437821839 2.6464481327 18.793817172 -0.034088310418 
1.8308929024 14.734123159 -0.12278815058 -1.697263221 -16.718453593 0.075330494194 1.973089629 17.842169925 -0.025373264879 
2.4777021896e-07 9.5839306796e-07 0.0016889527965 8.5982821965e-06 3.1304397441e-05 -0.029986257636 6.7802020356e-08 2.6207230702e-06 0.0069749952167 
-0.0018849679752 -0.021158086044 0.013619340839 -1.4966826938e-05 -0.00022923671946 0.0058770591164 -0.00077757475653 -0.0068263886102 0.051376188386 
0.0067716501455 0.064046506217 -0.0051869029588 4.783833208 11.696833108 0.0068740233597 5.7587088942 13.803360103 -0.047888675809 
4.2685156216 9.6562290837 0.038093531476 5.6916007981 12.795869582 -0.017325806679 4.6760671172 10.304744562 0.018468067698 
1.8110892654 8.0966782742 -0.023404858882 1.7638124742 8.4202302575 -0.020196150894 1.4067602365 7.0060673168 0.0088253025643 
0.12328036765 2.5554459736 -0.032790903675 7.4323865806e-07 5.4233808502e-06 -0.0035985893251 -2.082443601e-08 -5.0595777051e-08 0.00010949759012 
6.1379729439e-06 1.8789520266e-05 -0.022867546411 -5.8127222248e-07 -4.2483098949e-06 -0.0052924510592 -1.0260603011e-06 -2.2905415296e-06 -0.0021770310492 
-1.04341355e-06 8.2550081964e-07 -0.010188294094 2.3575837758 16.332702133 -0.036099768062 1.4140192419 15.345578004 -0.052222712824 
-2.2046695959 -17.264282556 -0.00068231512658 0.86452718003 4.8515537603 0.010528806879 1.135395747 5.9349418831 0.0025472171829 
11.76403253 -18.135365407 -0.49146316259 -0.38440038315 -0.53652494443 -0.31457023861 26.631090781 -51.453684463 -0.63878388171 
-22.752980444 78.117319058 0.32991932631 -9.9550453718 95.396838132 0.04688723873 -0.34924774911 -0.69797248374 0.04282658977 
-1.2357566673 -3.5721782511 1.8802954052 0.060965295881 -0.40090028813 -2.2593564258 0.027133706793 -0.57433104726 -3.6794806518 
-0.069932413952 -3.4834004124 -3.3811109054 -0.072307940119 0.52448345253 2.940562722 -0.30113422913 -0.95287317478 3.5941235492 
5.4806220983 -96.054700632 0.42171523245 -5.5369274894 97.951490698 0.62168166677 -14.226848299 93.039440526 0.43421763736 
14.046433908 -94.20267648 0.015388247722 -19.439218543 84.117492224 0.73435055436 25.646961176 -72.209508827 0.46892428541 
-16.570265888 88.785187992 0.45462877291 24.429018468 -43.189007038 -0.093178465193 -27.599675674 60.459979426 0.53276895407 
27.603055451 -66.180658486 -0.47862585316 6.3793445097 -10.143528991 -0.22504937335 -16.609360097 25.675239465 0.013140515144 
19.904397394 -33.395291373 -0.58821739169 0.1203065796 0.15000854398 -0.29535700161 0.26040123161 0.37932671963 0.10313380643 
-0.21540661381 1.8116981167 1.0064213179 0.14659636354 0.26534538685 -0.10758263033 1.9764787239 4.6538645931 2.3293098457 
0.70376842444 1.1677651915 -0.18676886019 -1.2386753487 -3.6542761612 1.2863187634 0.041649943027 0.14621033441 -0.023603453322 
-0.37800672606 -0.97767240092 0.54532599351 0.53217479867 2.3465988838 -0.54277205154 25.725971737 -72.245591197 -0.68570497084 
-19.815373877 82.260475801 -0.12246923029 -26.916891431 58.254497078 0.36488381893 22.974500352 -42.346026991 -0.69978180363 
-15.631425859 24.650685704 0.29831709693 -6.8178404241 9.5971278194 1.518479666 -0.47362612423 -0.71318177896 0.40729037408 
-0.49023507316 -0.79720854092 -0.94307862955 -0.02833165035 0.13461715115 -3.465481736 -0.11541744552 -0.21271734465 -0.011719755771 
0.94384412802 3.3774596983 -2.2872743522 0.86163870744 2.1511507642 -0.90985926382 4.7055901429e-06 -1.46539073e-05 0.0426250863 
6.8745120368e-06 -2.5692355703e-05 0.030596839514 3.9008130118e-06 -3.3374311717e-05 0.018657328994 -2.5244452864e-06 -7.7623877149e-05 0.026861349268 
2.8736599525e-08 8.1173110599e-05 -0.015413815758 -6.1721678034e-07 0.00040215099218 -0.037465009847 5.9231125163e-06 0.00026772576391 -0.024744549015 
-0.00022978336116 0.19953826572 0.028973885621 -1.2107060527e-06 1.957130034e-05 -0.004829722622 -2.3387434015e-05 -0.08144139822 -0.051552877223 
-9.7441215229e-05 0.096794168259 0.016137681762 -7.8201844507e-05 0.090033420715 0.0090089417802 -0.00043590304628 0.3458364677 0.043502559334 
4.4418911502e-06 -3.3108490797e-05 0.052272096119 3.1560733055e-06 1.7161415836e-06 0.024427960348 2.0942862768e-06 -3.2618751679e-05 0.041577460618 
-0.00040061219378 0.35996618062 0.030131839079 1.4869354652e-05 -1.427115043e-05 0.081469586447 7.7317013564e-06 -7.3178914385e-05 0.1114772842 
-1.2960600254e-06 -2.4789643038e-05 0.027765586768 3.7362331332e-06 -2.530131659e-05 0.046883643714 6.6974230516e-06 -6.2940462465e-06 0.012997033255 
-2.4245740919e-06 6.9402157586e-07 0.023281141848 -8.2868646121e-06 -7.0034177243e-05 0.026708194977 8.2986794763e-07 -0.00016177621692 0.068881033617 
-2.7964926042e-06 -0.00011036094582 0.060603652961 8.2433715819e-06 -1.1225735978e-05 0.010879589382 3.7252479798e-06 -2.9406840116e-05 0.022812866808 
-8.0529327429e-06 -7.3486589332e-05 0.038421181361 3.5974267743e-06 -0.00010665925214 0.033315891259 -2.4518958901e-06 -9.749443071e-05 0.060252312707 
-9.0307062237e-07 -0.00010162439706 0.041903639803 -1.2589057883e-05 6.3255914613e-05 -0.030412912962 -2.9442615062e-06 2.5612862649e-05 -0.015817150993 
4.3857420152e-07 -0.00010896118328 0.02768966031 3.5999801614e-06 -6.0222099785e-05 0.019172519288 2.5754133302e-07 -4.0685872173e-06 0.00066514312023 
-1.3084620284e-06 0.00012810522498 -0.021577920936 -9.0382696654e-07 6.3500564206e-05 -0.01872220157 9.3457917058e-07 -2.0161814035e-05 0.00309384758 
2.0787878656e-07 -2.4192656016e-05 0.0047463149008 1.6448680305e-06 3.3620562391e-05 -0.0058067130483 -7.3895300199e-06 0.0004109648856 -0.0663670378 
5.4092077613e-06 0.00015475818554 -0.036273238931 6.0542823874e-06 8.9601508574e-05 -0.010413938427 2.7993539486e-06 0.0002666374409 -0.030649826362 
-2.613251367e-06 0.00042222239192 -0.036035628966 -1.1271745679e-05 0.0024186796404 -0.055377476214 -1.1641637881e-05 -0.00018353037927 -0.055950409515 
-1.2984896451e-06 0.0003540034647 -0.040052703847 -9.5295150852e-06 0.00047920073451 -0.068494242188 8.5053646576e-06 0.0005707051008 -0.024272304427 
-0.00028089800009 0.23870549716 -0.00035854786748 1.6263421255e-05 -0.09083160518 -0.11517253118 6.4101202285e-06 -0.0001996653561 -0.01058208644 
-1.3141083196e-05 0.0011136956502 -0.085178013103 4.2413586232e-06 0.0017810821587 -0.094406406293 -0.00021226593223 0.43452527229 0.035782780802 
-0.00019115180063 0.20214901196 0.067188968251 0.087939118184 67.566771166 0.057608336151 0.51019734846 32.303663515 0.067987590552 
0.12063305587 13.780011388 0.00036210596387 0.0095653119719 3.5067137695 0.014320600336 -7.7350304812e-06 -2.0869235982e-05 -0.021285310876 
-6.1783614704e-06 1.2432684481e-05 0.027576070442 -1.8878735844e-06 -3.32999485e-06 -0.012974928799 -1.5771040676e-06 -1.904058452e-06 -0.006226367671 
-8.7257064837e-07 1.3869281714e-06 -0.014497624136 1.8212525517e-07 -5.9424360359e-07 -0.0044781581456 -2.3621228427e-07 -1.0568805019e-06 -0.0054963795201 
-7.4038856747e-09 1.8476469609e-06 -0.0054085973827 -6.6268114281e-07 -7.0175444037e-08 -0.0047959368872 -1.5547372614e-07 -3.1664686566e-08 -0.00099237282166 
6.6755644918e-08 9.4937103038e-07 -0.0054518751765 3.1805320655e-07 -4.5726362508e-07 0.0056522809179 3.6840784312e-06 -6.0235040569e-06 0.021549170886 
-1.2713790703e-06 2.3342250769e-05 0.036650467619 0.60923153319 -81.881833577 -0.21238452247 0.45314846528 -79.917073317 -0.049097056368 
-0.081880571675 -57.141754076 -0.034854727353 4.9674230666e-06 -3.4219407145e-06 0.016153288633 0.049710993695 58.781402117 0.1011221385 
0.09383355615 38.287631045 0.068285155175 -0.047961885986 -27.305551676 -0.035575171178 0.15509702003 47.903167978 0.0023156505244 
0.059585261534 39.473107252 0.11815984802 0.070077660465 16.927618344 0.016684366774 -0.066418196489 -10.754182906 0.011556291367 
0.12020792455 22.013033372 0.01278682349 0.11254947034 27.63898431 0.11441387256 0.04941639489 17.486756236 -0.0021051836313 
0.00035965142715 -5.4204203585 -0.0018932714972 0.010215797499 1.5366403546 0.011035827462 -0.0047401571586 -8.2593979663 -0.027482659647 
0.038303397787 11.224051817 0.036122455577 -0.032829413568 5.8599568389 0.053082570917 0.0003423746466 0.00024631588421 0.053548496949 
-5.5282144826e-05 -6.1247598247e-05 0.020684700671 1.4102580891e-06 -0.0096330844729 -0.0043143477431 0.006151194736 1.8421495487 0.019473113539 
9.9016039007e-05 -0.0006137667399 -0.022538112314 2.1848438587e-05 0.00015459198426 0.068223122767 -3.1199183622e-05 4.1729094508e-05 0.0599147286 
-4.9589628357e-06 0.00010363548386 0.030227541479 7.8758812491e-05 0.00012177871465 0.017971568025 -8.8437864585e-06 1.8498940409e-06 0.017225291928 
1.6218246885e-05 1.4499030872e-05 0.013420053657 1.2776059733e-05 3.3855173799e-05 -0.020406325208 -4.7596092246e-06 5.420861912e-05 0.044757292972 
-3.6893788381e-07 8.7261881145e-07 0.017409872228 2.368521575e-05 -8.8154974729e-07 -0.019121716651 -1.2383865324e-05 9.0538236053e-06 -0.025038193134 
-2.3407344914e-05 2.1414895731e-05 0.081992702165 -7.5403679806e-06 -2.068128613e-05 0.017540455877 -3.5465611063e-05 3.4500433414e-05 0.10243369964 
-1.7885780044e-06 6.7502889311e-06 0.016177762458 -3.6228401478e-07 1.5546666017e-07 -0.0007439074982 1.7702445066e-06 3.7265873955e-06 -0.0050141726078 
4.0833387399e-06 1.3076932527e-05 0.023412571198 3.3472902708e-05 7.794525917e-05 0.046324309125 -2.9732960271e-06 4.5058825129e-06 0.0088917587249 
1.3610277642e-06 6.8417517534e-06 0.030770886339 8.6984495353e-07 2.9695206983e-06 -0.0077385437316 -1.3654885071e-06 1.106667514e-06 0.013125621057 
-2.3504121626e-06 -5.5067159215e-06 -0.0058594567991 -2.1911428552e-06 5.6321862939e-06 0.021278831305 2.0354589299e-07 -6.5537028877e-07 0.01618167486 
5.2901680644e-07 2.0029789025e-06 -0.0071584385674 3.4513943941e-07 -2.7905977808e-09 0.007031872098 -4.0986865239e-07 -1.5152883779e-06 -0.0070790797377 
2.8770543237e-06 1.3229351599e-06 0.024587399907 2.4674205677e-06 -9.0713717066e-06 0.024884875735 -2.5958307761e-08 -1.5197276279e-07 -0.00037198075705 
3.6413275349e-07 -4.2071137026e-07 0.011334938766 -7.2073546229e-07 -6.1338314975e-07 -0.0052142192654 -3.6280137916e-06 -2.1726482335e-06 0.036069208232 
-2.3908271727e-08 4.4649026348e-08 0.00012593592333 2.675986243e-06 1.2603103281e-05 -0.013167957773 -1.2847777466e-06 -5.79622801e-06 0.019133124675 
9.8420120644e-07 -8.9400840252e-06 0.007643120079 -4.883093777e-07 -6.7830178422e-06 0.0071931157244 4.1803761707e-07 2.9050119404e-06 0.02217442702 
4.7453768298e-06 1.7820411497e-06 0.024612213735 -5.8102104931e-07 1.4768819877e-06 0.011831661115 -1.5370195839e-06 -1.5253797379e-05 -0.012071542319 
9.2500570829e-06 -1.924968609e-05 0.044118925951 3.543404958e-06 3.3769634958e-06 0.016906849171 -1.0608806619e-05 8.6847010089e-06 -0.049732831799 
-0.7727241711 13.43072619 -0.47882651472 -4.2447176241 -19.457732028 -0.023636322208 1.5361560322e-06 9.1082390295e-07 0.0061947516294 
-2.005111078e-06 -2.2415530196e-05 0.0084168249998 -3.7957624479e-07 -1.7293486936e-06 -0.0029360207259 1.0841045909e-06 6.6816077897e-06 -0.010452588907 
-7.0013500261 -22.25839728 0.0019718081881 -2.6738355137e-07 -1.1701676183e-07 -0.002870322405 -1.8876245352e-05 -0.00038329249894 0.0046514785115 
-0.65745375737 11.089763119 1.4150015822 0.10506623877 9.5601170858 3.6363457372 0.57779252932 1.3371240498 0.010585805742 
-2.6109538982 -18.996088505 -0.022874182307 8.2168637947e-07 5.3622458767e-06 -0.013584670132 5.8372901637e-06 1.7539640425e-05 0.0069872101054 
-2.0330523085e-06 -1.4777591802e-05 0.010381230353 1.1201041065e-06 7.0925824722e-06 0.010333198812 -2.3358153069e-09 4.4711717472e-08 -7.0818990082e-05 
-1.2189070229e-07 -2.0036509001e-07 -0.00046442365678 -2.4124693902e-06 -1.2679312533e-05 -0.00905312775 -1.4568219442e-07 9.783114745e-06 -0.023049765143 
2.9507856412e-06 1.3296429176e-06 0.030453078792 -1.6633248479e-06 -1.5519264948e-05 0.0084622457077 -4.5157710088e-06 -1.656706715e-05 0.014898863592 
4.0863838408e-08 -8.5311583865e-07 -0.0030882143296 -1.1811048997e-08 -1.4079945323e-08 0.00011473749391 2.956436877e-07 1.6676697184e-06 -0.0014070318446 
-4.2193713805e-07 -9.4413388772e-07 0.0053893448543 1.2310341035e-06 4.5573602754e-06 -0.00817952717 -0.20402667712 9.197101946 -0.58924441905 
-0.3833544413 9.2504066201 -0.55868776494 -0.79005283056 12.169107507 -0.00067559098285 -0.33314112314 9.2171631096 -0.71313325436 
-0.52663089236 12.123732081 0.028146872766 7.023862171e-08 1.9530072532e-08 0.0011523889027 8.9112255715e-07 3.2735090852e-06 -0.011682520877 
3.9970246622 17.945241805 -0.011523953983 -4.7339055587 -17.883321454 -0.01096355471 -3.8036136201 -18.704542494 -0.04082127357 
4.5688482055 18.806765894 0.018009812052 4.477631201 18.726114648 0.010156637457 7.1046259232e-06 1.6492772722e-05 0.021381230894 
1.1614933425e-05 2.3339325016e-05 0.017469687035 -3.4811961504e-05 -7.9235633755e-05 -0.023671153218 -1.8818289117e-06 -8.6266754949e-06 -0.0044827461403 
-5.1005266594e-05 -0.00012727438696 0.022330326905 3.3449284021 17.879941889 -0.032996853455 3.7251491293 18.499679812 -0.0045532174745 
2.0243758888 22.455875158 0.02883866473 3.3370348206 16.396128838 -0.032319493081 5.0935015065 24.242872956 -0.047908983092 
2.1538856504 21.837960628 -0.0014309593184 3.8870077041 31.817147143 0.037075277283 2.4556720312e-05 6.5918727387e-05 0.019608914726 
4.3782945162e-06 9.0111099344e-06 0.0032568181518 -0.52836735963 9.181013649 -0.58799340978 -0.58848199418 9.6521180686 -1.328317925 
2.1665974116 27.127468407 0.019183902866 2.1345617925 32.226310925 -0.10327947752 2.5394000884 31.832909383 0.13737623647 
0.049480901541 0.73496102025 -0.00096222554687 0.0017511689828 0.067725779617 0.0014480375873 0.01558078557 0.41103744591 -0.002167921397 
-0.0025130942577 -0.094471624084 -0.02207218558 0.022516687954 0.39780637309 0.016919138785 -0.0041319257295 0.53051188718 0.32600833883 
0.00055321741168 -0.11506608287 -0.27001523239 -0.0012425300275 0.33158653827 0.34784345429 0.0091975082267 1.2889794584 -0.077737161774 
0.0041718314342 0.43645223094 0.062655992255 3.5092274452 16.037537118 0.033968479913 6.0633132121 18.212644995 -0.058392920307 
-2.1726712035e-05 -0.00048218132988 0.016593904395 -0.00011715122851 -0.004693599876 0.01959497973 -0.00026712112572 -0.010115997084 0.031359559978 
-3.3877039329e-05 -0.0007383511842 0.0048513891489 0.00011190451516 0.0021140393815 -0.038077485603 -1.563972298e-05 -0.00047574994732 0.013115856892 
6.2063938826e-05 0.0027078837855 0.027542307587 -3.0398477494e-05 -0.00058374966254 -0.024769329431 -1.2099942385e-06 -3.0240356717e-05 -0.00064692146958 
2.3485965599e-06 5.8816515589e-05 -0.012336620586 -2.1576891924e-06 -2.0936565208e-05 0.0037538212334 1.1239858795e-07 6.180921711e-07 -0.0018933429976 
-4.0735155591e-07 -5.0406628659e-06 0.0052155796565 -2.0661451408e-06 -5.3769816528e-05 0.0059362026516 6.6764204854e-07 -3.522458754e-05 0.014142959941 
5.1257678855e-07 -3.768572582e-06 0.0030604874956 8.3847668974e-07 5.8044221776e-05 -0.018702187922 -2.2927971277e-07 2.7455468307e-06 0.0041719709217 
-2.9048596051e-07 1.2591964167e-07 -0.0050070980426 -9.1191262269e-07 -9.9366077615e-06 0.0078489137209 9.3067772226e-08 -8.4451354997e-07 0.0035115019145 
-1.6586749379e-06 -1.4367276695e-05 0.016595087246 2.0266474951e-06 6.504100273e-06 -0.010177197634 0.00034363552396 0.13259212606 -1.0104277946 
-0.02667607805 -0.089407405317 0.96198568468 -0.056390485205 -0.1469734541 2.9580563948 -0.055973435867 -0.20898625388 2.8297023444 
-0.014019457357 0.80870388761 -5.1394245817 -1.0681308405e-06 -2.2534031632e-05 0.0081755050286 1.308582639e-06 -2.4443836574e-05 0.012697439968 
8.4298338105e-07 -3.7556587688e-06 0.024369869094 9.6833120198e-06 0.00012173033252 -0.032896089598 3.9323458313e-07 2.8912267788e-05 -0.012562825059 
2.2019891911e-06 -9.9141431516e-06 0.017269181332 -7.1056235892e-07 2.874760557e-06 -0.0080355578633 -3.3049695364e-07 4.1857713041e-06 -0.0082085131307 
-7.0769090818e-07 -1.2708017077e-05 0.0034658057235 -1.4598080369e-07 -7.2962354699e-07 0.0029911360179 -5.0916433009 -25.822104973 -0.018600055472 
6.2876837911 27.243266378 0.01842501159 6.1600114921 25.220082959 0.048944448539 0.18329092252 0.68497301487 0.0018958878496 
0.21590337424 0.76172700311 0.0085625137853 0.033543064455 0.11616321537 0.0053141988649 0.031346092889 0.11474748185 0.0019415320216 
6.204498999e-06 -9.8741570398e-06 -0.019389615894 -2.8491265651e-07 -9.548407924e-06 -0.014867686102 -5.9432649864e-07 -3.7738069461e-06 -0.037672801395 
5.4164964771e-08 -2.2455608074e-06 -0.0051315477456 -3.9649227715e-06 1.258821862e-05 -0.011812575622 -2.5888310478e-07 4.0206788103e-07 0.0082896600499 
6.381799702e-07 -1.3597027572e-06 0.0084069780245 2.6090746203e-07 4.2203768386e-05 -0.014297353463 -3.0689515887e-08 7.4128093669e-07 -0.0010688037467 
-1.7694766894e-08 -5.200927602e-07 0.00072449760343 -0.0033227660869 -0.08530365154 0.010175537146 -0.0017212742196 -0.043653697218 0.0065212617271 
0.025488713762 0.32995769223 -0.0089982981766 -0.0027479452844 -0.07285500789 0.0064586983177 -0.0029442613595 -0.073742408219 0.012542926562 
0.0015406431469 0.039736396523 0.00059530653688 1.4539101859e-05 5.2148669561e-05 -0.0052199111433 0.31090966522 42.382023345 0.13956392472 
1.5762959481 40.615178769 0.071978084462 -0.069976604077 -0.26481871205 4.6996021604 -0.090532066253 -0.27559881157 5.7906898893 
-0.046345094736 -1.2415053064 5.8978966848 -0.00059715852675 0.16241501301 0.096682796297 -0.0020188076536 0.3820163414 0.084513018122 
0.00017395722566 -0.054346784672 -0.047765465104 7.9983457331e-07 -7.9465168039e-06 -0.011827067691 -6.0015885338e-08 -3.853706846e-07 0.00026043676891 
-7.3281163376e-06 -8.14715264e-06 -0.016363932002 2.2361634013e-06 2.1397355784e-05 -0.0093516213397 -2.1667680151e-06 -3.2174141392e-05 0.013092285162 
-3.8562135236 -8.0114121711 0.018587946341 -4.6858095976 -9.6871873626 0.016235898372 3.5200732965 7.3029287257 0.0005915681983 
2.7493504094 5.6499328018 0.0021485721174 -5.3961931173 -23.546970698 -0.016241724375 -7.7516891632e-07 -5.9354708663e-06 -0.010626053112 
4.6367196904e-06 3.204010014e-05 0.015828073766 -3.5657932726e-07 -2.9813314121e-06 -0.0020335503707 -5.5242291043e-05 0.017643987871 0.030634923474 
-0.0015716985625 0.28189740812 -0.025692380351 0.0021223890229 -0.2985048973 -0.067559027879 9.4059716184e-05 0.0057034380666 -0.1225047338 
0.0045881644074 0.16685826291 0.0017827436159 0.0028487927056 0.10238678546 -0.0042788861115 -0.0031293974774 -0.10994923764 -0.020083284435 
-7.6514275955e-06 -0.00013351140463 0.01862139996 2.2711814609e-06 -2.0773241759e-05 0.018406177483 -1.3675898304e-06 0.00016695188474 -0.0051709567478 
3.7399662911e-06 -0.012605453548 -0.0032036869123 1.5826213148e-06 0.00017710327356 0.027721239195 -9.5966721366e-07 -0.00015408885434 -0.0086548834803 
1.6684878543e-07 1.1816341304e-05 0.0068151632299 5.0357017112e-05 0.00019453058551 0.012280463059 0.044783850057 0.17374601333 0.0069335529801 
0.0057111005189 1.1089561061 0.095423319729 0.036480322077 1.5826745922 -0.081583806182 0.28983661421 1.7656552195 0.0089884298708 
0.29431385768 1.9233093585 -0.0016197913824 0.45040982391 2.5085625513 0.0047598432543 0.33794113058 2.288012977 -0.0088690385633 
-2.7144801436e-07 -4.3060018475e-06 0.0051401710457 3.2749227247e-07 1.5810426358e-06 0.0021962608487 2.4056203499e-08 6.7798712766e-07 -0.0022122236752 
-1.7483011925e-07 0.0027649690394 0.038754032742 -3.6452720431e-06 0.011137004335 -0.028181078366 0.0151720896 0.40956379184 0.0072487198112 
0.095173481138 1.2221273313 -0.00035594667925 5.8459485119 12.546713027 -0.028105421247 -7.1682831093 -16.319735714 0.049740713642 
-6.4581280667 -14.141564556 0.016427559994 -7.8720422216 -18.920198744 0.043604629454 6.6038560022 14.66567388 0.015033349705 
1.4059556146 3.0395499846 0.0048353659348 1.1984648444 2.5969706238 0.00666867807 2.4368759331 5.066084259 0.0027188283506 
-0.039474930863 0.98608150483 -3.0544301431 0.26050361146 -3.7823951345 -0.61609071003 -0.38076902646 6.7910487825 -0.66668582059 
-0.17171319638 3.4723147753 -2.471918478 -0.029883731419 1.1852508191 -0.12616651696 -0.031581085401 0.33764633745 -1.486550338 
0.067154399826 -0.7368191889 -1.7553286271 -0.53121572177 4.1964755783 -0.3407524758 0.02014160842 -0.13720975923 -2.1233775094 
0.016398610486 0.23790091464 -0.010278877955 -0.00055850553354 -0.019187543158 -0.0020133120255 1.7762115989 8.4549733136 0.0040237348931 
-1.3883924988 -7.414544375 -0.0029802961948 -1.4157862797 -7.033086569 -0.0074083846993 7.6648346513e-07 3.3910122641e-06 0.017539671325 
6.7550548982e-07 -3.9175489281e-06 0.005348778492 -3.8957500623e-07 2.330091156e-06 -0.0053645673413 8.4160763211e-07 -4.8394203035e-06 -0.0051680566591 
2.4598321996e-07 1.2371131075e-06 -0.0039429292748 0.0025864693019 0.053174448975 -0.83803074525 0.0046853823852 0.0072091002358 -1.2551829771 
0.19662904955 -1.8753662554 -0.50272311661 0.0081518569258 -0.069331804928 -0.035876607739 0.10591010921 -0.99251977684 -0.25363738664 
-4.3885331243e-05 -0.0016566828876 -0.0089138982621 1.331896312e-05 0.00043856667411 -0.0032947770942 -3.4979149609e-07 -2.2350426654e-06 0.0010627552632 
0.065409342759 0.79785654809 -0.0034284579447 0.11489734039 1.0576147615 0.00031777689179 0.13853768167 1.285880986 -0.0052155929129 
4.9930020419e-07 -6.7822569345e-07 -0.0079836364426 -1.8352859761e-06 -7.5438134027e-06 -0.0097111929315 -1.8198732026e-06 -0.00014778898024 0.0069191637149 
6.4629465087e-07 0.00011674169902 0.0018481845322 14.44795387 -43.171666599 -0.12416011703 13.849165268 -47.899064626 -0.22810572841 
2.3498081373 -36.087744563 -0.15801959189 -12.783964441 41.754758705 0.21039035708 -3.6088103731e-06 -0.00043748753455 -0.013495862037 
-1.2162956035e-05 0.010915445165 0.030826432776 -3.987080579e-06 -0.00078782090923 -0.0151906593 7.1754888323 18.891968596 -0.035981424081 
-5.3912791003 -11.471591609 0.0051676427066 11.433608041 -35.857759272 -0.093881313122 5.3548478353 31.190576932 0.034067327406 
3.3164597304 7.4020211273 -0.028078142899 2.2972608014 5.027215413 -0.0068371323544 2.2514783395e-05 0.00078335826285 -0.0026266951262 
0.00021270771544 0.0039189051178 -0.010968013075 6.1607839317e-05 0.0021074816014 -0.0035078030479 2.5959475184e-06 -7.9807359943e-06 0.010041040931 
-1.2015892424e-06 -1.5874891212e-06 -0.0069280406806 1.0773232824e-06 -1.6616836898e-06 0.0055875135578 5.9135010803e-06 -7.4897584406e-06 0.013173842826 
-7.7540730929e-07 6.0992043316e-07 -0.0034530205408 3.7182613429e-06 -1.1449363655e-05 0.034788313267 -5.2507418402e-06 2.1942129002e-06 -0.028718281083 
1.6725887503e-08 9.3852266398e-08 0.00015470060458 1.860484167e-07 -5.1553839186e-07 0.01469167193 7.9991104035e-08 -4.4196429778e-07 0.00057546723158 
2.2699358054e-06 1.3823389955e-05 0.011188777956 -1.2517629465e-07 -8.9574848368e-07 -0.0012890861236 -7.5881408451e-06 -5.0102812784e-05 -0.027721786477 
-3.1376922937e-06 -4.2264491164e-05 -0.015311274329 1.0109104351e-05 -4.6595253893e-05 -0.053254659333 -1.365500096e-05 -4.9971485958e-05 -0.016062284135 
-1.9726326178e-06 -4.7035681479e-06 -0.0032520749321 -2.6222503779e-06 -1.6217473324e-05 -0.01528874693 -5.1847829913e-06 -4.8125800159e-06 -0.010394758771 
-5.0814345529e-06 -0.0015004942583 -0.025490440478 0.20961678127 1.6212871053 0.0040558415101 0.17035946434 1.301155675 -0.010756972073 
-5.1591781269e-07 -4.8173777488e-07 0.0069211067592 -5.0093082e-06 -8.6840573532e-06 -0.017291080034 -8.3259284108e-07 3.0077819524e-07 0.0099358446159 
-9.9949218034e-07 -3.6463937784e-06 0.0035131809791 1.1219751049 6.3115592362 0.0028500437361 -1.0550123505 -6.6873349425 -0.0042858728031 
-0.17508999056 1.2976045309 -0.14679060155 -0.23168382133 -1.8626565304 0.00084154018861 2.9504763673e-06 9.725636141e-06 0.021408295005 
5.9515493044e-07 -6.3095691215e-08 0.0040625589908 8.5105265617e-07 -2.2312898378e-06 0.0079741004354 2.0731515192 5.6804378355 -0.012348367999 
1.7012063245 4.5323807525 -0.01753180162 -1.3934513331 -3.8898668416 0.002020871152 1.6983180981 4.8828221549 -0.0050823936301 
5.0509443222 10.545684621 -0.024617673421 -1.7500108031e-07 1.7822629948e-06 -0.0068332383427 1.0648333254e-06 7.1938945236e-06 -0.014215919804 
3.518449358e-08 4.1164267949e-08 -0.00054226669031 -1.660578637e-07 2.8452210753e-07 -0.0039858885658 -1.7725878853e-06 -8.1125197657e-06 -0.016737089424 
3.2489528738e-05 0.0011989627524 -0.0056359052944 0.00045241993173 0.0088948398388 -0.017703656696 -1.7645727281e-05 -3.4743251399e-05 -0.041894646173 
-4.130253703e-06 -1.3514312152e-05 0.0044810421746 1.1515340747e-05 3.9969184851e-06 -0.025572754022 1.838361266e-05 3.3691919846e-05 0.016603842267 
3.2553563592e-06 0.0012189600751 -0.0062651016951 -3.8619477681e-07 -1.5982848642e-06 -0.0010686337755 -1.6423083955e-07 -4.3547680674e-07 -0.00092495995224 
9.9002469852e-08 8.4849170167e-07 0.0043399781392 -0.55956918821 10.053682194 0.1771325711 -0.74667979658 11.128617711 -0.021776013907 
-0.5684112615 8.3427401633 -0.45733296052 -1.4376922751e-08 -3.2570810753e-07 -0.0023546441994 2.0055498706 29.86427925 0.067507570146 
-0.0014680573811 -0.048024487366 0.0085802762049 0.0084049019122 0.13979477309 -0.004766508917 -0.00091339977913 0.27253060328 0.074112073837 
7.5672984791e-08 1.7157002031e-07 0.00041469818303 -4.5789055474e-06 -2.3238801146e-05 0.0047881309129 -1.4268563554e-06 -7.869623886e-06 -0.0048879372835 
-1.8847017595e-06 -7.7070469959e-06 -0.0084776566074 1.8088509703e-06 1.7906321739e-05 -0.023701106121 8.9182340652e-09 -4.8327381793e-06 0.010476413934 
2.3469378855e-06 -1.7802973124e-07 -0.01451432749 -8.2615065638e-06 -2.1590559909e-05 0.025920389296 -1.5287195385 -8.3077882434 0.0036953204934 
6.2452564541e-08 1.0160148766e-06 -0.0022992203782 1.0248441968e-06 7.2973431796e-06 -0.012443605594 -6.0165144766e-08 -4.1531691185e-08 0.00053101608632 
-1.7538375601e-07 -1.9646077714e-07 0.0048714034926 2.98932672e-07 1.4433041541e-06 0.0067469665792 -4.2604271881 -8.8665935154 0.0068358573966 
0.0027919514308 1.164052588 0.23579949048 0.001610154739 0.3442137695 0.07801572425 -0.010908206272 -0.80919467685 -0.088182817291 
-1.0744215059e-05 -0.00099707838044 0.025951240902 2.6342020743 9.1132524352 0.013869147373 -2.1424450142 -8.1041094612 0.0070346579551 
2.1274887363 7.4103468766 0.010075045066 0.03434345106 0.14309701545 -0.023335725662 0.060019384067 0.26212073629 0.0056196940037 
1.6562845819 4.1602946576 -0.035381476522 0.84406076828 2.08168174 0.0085345352231 -9.3464894043e-05 -0.00046951103938 -0.038468520151 
-1.0118159575e-05 -3.2399779447e-05 -0.011485214351 3.9466359978e-07 2.163798829e-06 0.0081556816882 -1.3309419494e-07 -3.09644894e-07 -0.0013378973658 
-1.2345750481e-07 -1.8175927196e-06 -0.0064729566789 5.772270578 13.903950265 -0.025349286874 -9.5463104775e-06 -0.00055196110258 -0.019163527108 
-0.0017793043624 -0.036908770322 0.0087701880087 0.11780527033 1.2754334207 -0.005145766524 0.00040409056895 0.016056563372 -0.026895595171 
0.00022557492778 0.0097046351125 0.010910453332 -0.0011504918561 -0.047762911911 -0.0093960090853 -1.8066993584 40.27766947 0.092675583288 
3.294926855e-07 2.2940958232e-05 0.00081146151161 -2.0245708778e-05 0.022245581891 0.0054450484314 8.6472409073e-07 3.4459858782e-06 -0.003647328525 
-4.3941153062e-08 -1.0212897862e-06 -0.001128600355 -2.5143493027e-08 -9.3016779089e-09 0.00017089104702 3.4857841096e-07 1.1606767566e-06 0.0033682185243 
-0.22904281122 4.7227006666 0.0065275241179 -1.3367711004e-06 7.1257501338e-06 -0.014815941037 9.7442794856e-07 -4.4516912486e-07 0.0061820475995 
-1.1587727431e-06 9.7150317263e-06 -0.0092812261362 -3.9743606165e-06 -4.1402334564e-05 -0.031308465481 -4.2270341278e-05 -0.00051145392642 0.028302686238 
-1.0434521766e-05 -0.00011976686229 0.014615969043 -0.00048263929581 -0.011595490984 0.0083844305878 -0.00055859765538 -0.0086142945134 0.00064987192146 
6.9358511582 29.06200378 -0.025031073561 3.0699576268 39.236778098 0.046024033073 0.41022724516 -48.969051446 0.067364764113 
-4.3550251219 -35.738001857 -0.058282365077 1.1987879096e-05 0.00014917996516 -0.051439452285 -1.7061327946e-06 -9.5335359529e-06 -0.023962537725 
6.184466149e-06 4.6845401497e-06 -0.014013439057 3.0633613443 32.914278867 0.12267999205 6.5297263957 23.630447647 0.026412278306 
7.0859511413 25.612708984 -0.03836834985 6.7421639303 23.966256608 -0.030109780417 -2.5097487693e-08 -9.7841721501e-07 0.0010405142452 
0.00015808374065 -0.0009717471746 -0.023354046172 -0.10048450305 -0.29109131028 5.8936801297 6.3906227644 29.677929926 0.035901027606 
4.7442727297 28.253986789 0.078659175661 1.1860389544e-06 -7.5844531984e-07 -0.017435542471 -2.5170692858e-08 -2.0228452435e-07 0.00029085956615 
1.1933209664e-06 4.8001413167e-06 -0.0041446586326 -8.9325978004e-07 -2.8025089967e-06 0.020259793416 -0.79177436959 9.2575808501 -0.67501097721 
-0.84361624064 10.544750146 0.19919256525 -0.64775674492 6.9885445197 -0.043368039039 0.63686941518 -6.1363090728 0.53283133447 
0.75857018341 3.8327934624 0.0064756063717 1.0830100942 5.0082118009 -0.010632133142 0.83282815586 4.4242381363 -0.0030452409229 
-0.000692211595 -0.022130843647 0.010384690506 -0.00033365352632 -0.0077627231639 0.0045614932325 0.011947978367 0.16949712342 0.0064583729242 
-0.00028371596541 -0.009506738863 0.0011805519346 -5.854229349 -22.439277401 0.010922172282 0.0010189904171 0.31301734529 -0.027315251643 
-0.0058661957235 0.33178633916 0.0018486102268 -0.0081620154417 1.4502053777 0.53696079782 -1.1056868056e-07 4.500988897e-07 -0.001664692358 
1.5122068991e-08 -2.5820361537e-07 -0.0011312613824 1.0912971547e-06 9.6085649083e-06 -0.0092342995405 -4.355995257e-09 4.6215671205e-08 -0.00055557446008 
9.2607654582e-07 1.873726488e-06 -0.0070150219053 1.4349220704e-06 7.2808720417e-06 0.0057617039755 4.9782182594e-07 3.8873702215e-06 0.0045651165087 
4.2791180295e-08 9.7313072693e-07 -0.0010366133933 -3.5195740694e-06 -3.5452534328e-06 -0.015687688016 4.5214535826e-08 -5.0775444339e-07 -0.0040875009217 
-1.0376635855e-07 6.1579482635e-07 -0.0017922877336 -4.3606198129e-06 -8.882665526e-05 0.0078222967131 -1.0637042003e-05 -0.00031040523294 0.0096652950254 
3.5740020627e-06 0.00019418314264 -0.001621856989 -6.8282427946e-06 -0.00021271241137 0.013344036224 1.221943355e-06 3.3465410289e-05 0.0019985690426 
0.37367733548 2.6231624182 -0.013591822929 0.50741412336 2.9268996814 0.0052744252354 -3.2029104889e-07 -2.4619330828e-06 -0.001471890116 
-9.3252507001e-07 -2.8780109595e-06 -0.0063520548689 1.2011324692e-07 1.8764385428e-07 0.001746556802 3.614369728e-05 -0.018645396935 0.0092439034015 
1.3041522719 3.3756472999 0.00067783245675 0.8643122858 2.3606020602 -0.00082137203708 0.65045149516 1.6773488597 0.0019152867126 
-0.31962016741 -0.86955521374 -0.00053247177536 -0.45031498342 7.8550363029 0.6120967715 -0.1920982054 2.8832451845 0.28758606038 
0.99278917837 3.1627773937 0.0015590495141 0.65733653115 2.0347411162 0.0086189785735 1.0268592383 3.0034010538 -0.017390188013 
1.4243870002 4.2761513449 -0.0064130537887 -2.2158638548 -8.9004819212 0.009420400353 0.55809919464 3.3933881517 -0.010784371935 
0.051220015949 0.627447374 0.0060066882349 1.2502347307e-07 7.8133331399e-07 0.01706616503 -3.8940492542e-06 -8.7881592195e-06 -0.016445389194 
-7.7863132572e-05 -0.012165752118 -0.17923671475 0.00016685211546 0.056458987673 0.43901831851 -3.7898140631e-06 -7.9307797705e-06 -0.018459830741 
-1.7244458117 -6.7652292277 0.0032850450816 -4.6960479267 -21.980841517 0.010162285812 4.5351994059 23.671788978 0.016076493134 
-3.458787034 -22.078494745 0.043495077117 3.5861445762 20.623692089 0.010950781139 3.6863861191 20.899253745 -0.01266896863 
-2.7681300047e-06 -1.1131867544e-05 0.019439212121 -7.2683453382e-07 -1.8145285247e-06 0.0035445211258 -7.4576969372e-07 -2.425079143e-06 0.0032667216675 
-0.0025475205964 -0.61730361014 -0.47693107817 1.925254705 4.8787466432 0.0027834811382 1.2061792137 2.9490817515 0.0077817558957 
-7.6593301159e-07 5.056437909e-06 0.0054666465985 -0.00039170719603 -1.1013380336 -0.51103548535 -0.23050111163 5.2147380871 0.8095187773 
-0.16951442965 5.3235347898 2.2673010655 0.0021895953313 -7.9327069486 -1.4901180221 0.51627975304 9.6525685373 1.6368998408 
7.4174799117e-07 2.5286746154e-06 -0.0038067615813 2.0161663401e-08 2.1889573226e-08 0.00029551189765 -0.67029945907 6.9706249932 -1.1876066878 
-0.31912796468 3.3143837007 -1.1834458518 0.0012587444927 0.045890718901 -0.0012592346124 0.018664528565 0.28670171697 0.0064454900033 
6.7603483772 23.427361601 -0.015400068036 7.7366300424 23.495184525 -0.062894541486 -0.58915811647 -2.6638924079 0.0024559329105 
0.87329606706 3.635735938 0.0014039416144 0.66613973216 3.2126563827 0.012819595643 -0.0015808428368 -0.060432494739 -0.011308125976 
0.014378318842 0.26162838738 0.00026783062046 -2.126413562e-06 -7.4296030477e-06 0.0062146916645 -3.9473151787e-06 -9.7952138325e-06 0.016634926343 
0.027906444758 0.28825286808 -0.0071772127969 0.85597247019 13.176527421 -0.031350675796 -1.0345491309 -11.816742152 0.035381553561 
1.6167433374 15.111948875 -0.029963248555 -1.1072568437e-05 -0.00011706275261 -0.027965000272 4.3148497278e-05 0.0002781636502 -0.011261403391 
-7.8352182624e-06 -4.9997935575e-05 -0.0047283812123 -1.2736989542e-05 -8.3180882635e-05 -0.0035569879288 -3.7167372981e-06 -3.9822078727e-05 -0.0012184211627 
9.5314365639e-06 9.0603124718e-05 -0.0019106230468 -1.9369354936e-05 -0.00053039936496 0.021734964277 -5.8806199137e-06 -0.00012561660258 0.019840646807 
-0.09533040315 -0.084793801766 5.3986735024 -0.12792684634 -0.15071988646 7.5975804647 4.0457579898 25.721137463 -0.065178815365 
2.1801155098 4.5834785618 0.010377700408 2.8826545776 6.2554642776 0.01913538911 1.2575456243 2.7671032771 -0.0110414573 
1.980408753 4.4800975291 0.014224845534 1.2653981251 2.81317167 0.00079090826364 -2.1344292306e-06 -1.4053642898e-05 0.026549380856 
3.9600585932e-06 2.3417450878e-05 -0.019370050429 6.6850876921e-07 1.0487676793e-05 0.012164476241 0.43507162422 2.2803031955 0.0022645388003 
0.2863922682 1.6287078512 -0.0069944779678 0.56901032629 42.020484175 -0.11969022506 0.29339801549 -51.067635489 -0.026610376601 
-1.0488278326e-06 -6.1660935986e-07 -0.0052013087839 1.8581996961e-07 -3.7523943711e-06 0.00579279967 -4.4471350501e-09 -8.8058364342e-09 -3.2138396718e-05 
1.4462487828 6.6797532457 0.014370013978 1.8164359016 8.082759821 0.009767585229 -0.68850955875 -2.3118739025 0.0043898769166 
0.20846553258 43.256256699 -0.0040240382788 -1.2224749092 -16.024780497 -0.012103727492 1.3665910879 13.9060896 -0.11309542158 
0.66601323458 14.140498329 -0.033324548072 -0.0014027892098 -0.055158561267 -0.0031095911334 0.012642592645 0.23500318588 0.0025040082852 
8.9240348007e-08 1.7847407025e-07 0.0068767755063 -7.7703798912e-05 -0.0025373989157 0.010729574122 2.2362428819e-06 1.1506092939e-06 0.0116330946 
-1.4338971623e-06 4.1204588537e-06 -0.0097656139366 -3.747767955e-06 -7.0419973001e-06 0.011721110569 3.5836185034e-07 2.7675945506e-07 0.0028615621388 
-2.3424206036 -6.0944392564 0.0038231413459 -0.0001647953614 -0.00088943872881 0.019236726805 -2.5643428474e-07 -1.2223740407e-06 0.00042743451757 
-1.2081078656e-06 3.0184706093e-06 -0.014526807198 -3.4656676385e-08 1.7726802644e-07 -0.0028496477303 5.3684097422e-08 1.2697676893e-06 -0.0056141238396 
1.3560403106e-07 1.6222601435e-06 -0.0040194175563 -1.1159302916e-08 -2.8050043561e-06 -0.011119772295 -6.3710972373e-07 -6.9299580186e-07 -0.0079244635613 
1.2293113514e-06 2.013815789e-06 0.0040759982669 0.59287937291 2.2334793112 0.0050067152745 0.91280616709 3.1871559165 -0.015080514672 
-6.2771422979e-07 -6.297665123e-06 -0.0030114952217 -3.6407477522e-07 -3.9987316324e-06 -0.001415289704 -1.6330237889e-07 -7.2518184954e-08 0.0020245627269 
4.4441334133e-06 1.7565763668e-05 0.0059469531939 -2.8831855387e-07 4.2174582109e-05 -0.037184794161 -7.0484085723e-06 -4.5570747643e-05 -0.010344049808 
-2.7827485399e-06 -8.2654795525e-06 -0.008518643443 -5.6785678447e-07 -2.0904221097e-06 0.0027618466497 2.2683516322e-06 6.7026088264e-06 -0.0079385541493 
0.28110713997 11.499690539 -0.1212243622 0.47258675218 9.999650545 -0.090404303994 0.044841122481 -10.603249649 0.39937586311 
-0.22407406684 11.048827853 -0.34865610813 -3.8394081634e-10 1.4857093407e-06 -0.004383123102 3.8719084142e-08 6.0256285891e-07 0.010636064048 
0.74023179402 2.9165675809 0.0037927133296 0.49821276191 2.1208593545 0.012957935988 1.1047092512 4.0187783525 -0.00138205958 
0.00029044131281 0.67599914607 -0.066614118276 0.043715580279 2.0343072065 -0.29957276529 0.043772944209 1.8274619772 -0.35603433555 
1.6014689565e-06 6.742953449e-06 -0.0077238201732 -7.2980567213e-06 -1.3415005076e-05 0.021711785084 -0.0009579304135 0.69254729749 2.2250325975 
2.1075314296 6.2557944165 -0.014111617339 -2.5238083527 -6.9812815016 0.0018649949704 1.4012223708e-08 -5.6383139382e-06 -0.0046292575238 
2.5272260776e-06 -3.3647814022e-06 0.015450827424 -7.9702247487e-07 -1.7368673113e-06 -0.0036596228971 2.2532685467e-07 -2.333724164e-06 -0.0071646016816 
-3.516670591e-07 -2.2714491669e-06 -0.0062364665189 -5.4138608382e-07 -8.2510516633e-06 -0.0054243982469 1.8479125095e-06 4.6249074177e-06 0.007726346247 
3.1029688875e-06 -2.3595729452e-06 0.010808866111 3.768919294e-07 1.7626910236e-05 -0.036160300276 1.782060704 5.518180684 -0.0072489492522 
2.8403885585 7.4901770893 0.017378340264 3.5845124425 9.7219378071 -0.0036075317862 -2.9161599264 -8.1731857644 0.0080891306181 
0.86291865898 -59.354750402 -0.25742152175 0.17789923487 -50.65562592 0.014248177642 -3.0697587029 -9.1511041612 0.0013679551765 
-2.4593153048 -7.3700081132 -0.0022395311731 -4.9621231324e-06 -1.2677488373e-05 0.009759727475 -1.2044991444e-06 -8.8151875302e-07 0.022480988062 
4.3051198173e-07 -2.9464241883e-07 -0.0028437989393 -1.1725303059e-06 4.988907641e-06 -0.014111239878 1.3347385178 8.7653533022 -0.023665266091 
-1.6358211808 -9.1072844458 0.008206518003 -2.1737648909 -11.078450559 0.0084588645065 0.022856688099 0.14374237551 -0.0099086927486 
0.043403226331 0.24959943913 0.0042293416787 0.063423079028 0.61596336086 -2.7147859988 -0.11753462093 -0.36753421193 4.4872094401 
-0.032759675287 -0.10348971911 2.4898052185 1.9280715354e-06 1.543495679e-05 -0.017281684363 -1.5562792161e-07 4.8438650087e-06 0.014261790562 
-5.7716287851e-07 -2.0050637653e-05 -0.012039439352 1.0471621286e-05 2.6715061431e-05 0.010461085005 0.58715438363 1.6817385288 0.01448712991 
-0.0016432981466 -0.061734896372 0.0064717596813 -7.719306814e-07 2.2833433222e-06 0.010073904983 -2.2845082405 -18.181229269 -0.04555024674 
3.1068999437 21.842108987 0.030437373656 2.4507760971 18.183676759 0.068863903603 -2.5348491323 -18.852467984 -0.030584088247 
-0.00043273359955 -0.0011328748238 -0.011059141277 1.6635206277e-06 1.6749864067e-05 0.010801851931 5.9102595485e-07 4.4728663179e-06 0.0035407994913 
-2.6082217284e-06 0.00058849825948 0.016422880807 1.8222674846e-06 4.8501008975e-05 -0.0113239973 6.0755061556e-07 4.2367629404e-06 0.008726692058 
-1.1081224689e-06 -4.3998239075e-07 -0.0054955407098 3.0312654149e-07 2.4068793242e-08 0.002417591071 -5.6054608313e-07 2.2925235933e-07 -0.0027185203754 
6.0595693877e-07 -1.3738781712e-06 -0.0098728961186 -0.27254629105 2.4756434382 0.24628542436 6.4715969723e-06 3.9806045451e-05 0.030621866785 
2.4913551964e-06 1.4242429084e-05 0.010235038219 5.3305460646e-07 1.090176088e-06 -0.0017864372359 3.6202949798e-06 1.3157519797e-05 -0.008299775889 
-0.38951144391 -1.2877338519 0.00060022189663 3.4593460833 7.6968796669 0.015019188402 -1.9910269654 -4.4656185151 0.0057776128254 
1.9599245724e-06 1.5120308767e-05 0.012420078814 0.26594022543 2.7703286498 -0.022501334636 0.2258228606 2.2539960659 2.4516728591e-05 
0.11973397373 1.6174145779 -0.0031375581477 0.1421868061 2.032840461 -0.02099949479 2.3421921007e-07 -5.5990676054e-07 0.0031289454578 
-6.4398887234e-07 1.6542924582e-06 -0.0047164444815 -7.4290727607e-07 1.9898964651e-06 -0.0083419787706 0.91599117442 7.0945385147 -0.023131152392 
1.1430346734 7.3619748376 -0.012404609836 3.4231275641e-08 1.1671130045e-07 -6.0389842452e-05 -5.3543467341e-07 -9.2578531167e-07 0.0068982661675 
-3.6497802733e-07 1.631119435e-06 0.008996782125 0.046811166431 0.50548072367 -0.010958219018 0.052953098386 0.50882043203 -0.0048967901527 
4.7475560562e-06 5.9974425824e-05 -0.016243814132 7.6704517213e-07 1.9360509552e-05 0.0079363258454 -2.8069255232e-06 -5.2531898566e-05 0.0071234930326 
-2.7555645847e-07 -2.5627960077e-06 0.0021220189082 4.5114830726e-06 8.6553983624e-05 -0.0097652598053 -8.4677868804e-06 -0.00012627719847 0.0074632569224 
-0.73596583553 12.573233251 0.41229442409 -0.67772897952 10.847996479 1.761706994 -0.42624811162 9.5849122364 0.55909573784 
0.3889012683 1.8959447611 -0.0053348537478 1.2712554735 4.195834787 0.0076036441994 1.5182468656 5.1947706167 -0.014553183902 
6.2778383047e-07 4.8496845422e-06 -0.01915190765 1.1145097458e-07 -3.034983763e-07 0.010392381948 3.2928028918 21.26030328 0.049177768194 
1.376267128 5.5750082251 0.0080940065153 0.95821059918 4.2437209152 0.0048568653901 0.41273803568 3.1018580368 -0.0012079141976 
-0.61718348219 -3.9947911994 0.0036095489505 -0.00026562343102 -1.1039359249 -0.57701523812 -0.0087260281489 -2.2186466396 -1.4499764663 
0.00015472267871 -0.91286615934 -0.29668711732 -4.3242725614e-05 0.088938169779 0.013561640768 -7.9627969257e-05 0.048497294473 0.020052683214 
-2.558294178e-05 0.027445437389 0.0042822266893 -4.4880625478e-07 2.5751995071e-06 0.0058173077725 -6.2146956255e-07 -7.3087186479e-06 0.01094205921 
-1.118117203e-07 -8.25152586e-07 0.00066290320681 3.3484923216e-06 0.0019483226285 -0.025355988459 8.4883050872e-05 0.012764863557 -0.025209775384 
-0.90493765761 -5.3303410567 -0.0038976745955 -0.83996608741 -5.619287482 0.00089601800701 -2.6168343553 -8.3466575407 -0.0035263338369 
3.2350216442 10.220421206 0.00060878111004 -0.0094610756626 0.29365616813 1.4185399608 -1.67371314e-09 1.3241206136e-07 0.00037527667837 
-1.6385373013e-08 -2.8884486145e-06 0.0052184372466 9.8785285897e-07 3.6679701453e-06 0.0053934344492 -5.3680615526e-07 -1.4366475734e-06 -0.00050615377713 
4.2194106151e-06 7.8516260472e-06 0.016400531758 6.0461447316e-06 2.0079818373e-05 -0.012779168216 3.9589322405e-07 -7.5778449616e-07 0.00497900359 
6.0575922568e-07 9.0271128542e-07 0.0043822090326 0.3204927658 1.2220454592 0.0094957648705 0.0067579113183 1.0171205209 0.089809095478 
2.8096517907e-06 1.2663087271e-05 0.018821990082 -1.8848422962e-06 8.2597973484e-06 -0.01405417508 -3.987853787e-06 1.7108441613e-06 -0.021835495674 
-2.6112042085e-06 7.8810456475e-06 -0.025194161948 4.5441751523e-06 1.1632357091e-05 -0.021625525426 -1.957089914e-06 7.4468345532e-06 -0.021164430588 
8.7964804328e-08 -1.4967004097e-06 0.010710611928 2.0615778211e-06 2.0240528367e-05 0.012507391189 -1.6925497338e-05 -9.8671808147e-05 0.02588347471 
8.7540883913e-06 -1.5893662232e-06 0.031904285431 1.5016133509e-07 -2.2646867728e-06 0.0076210966921 5.5810941868e-07 -4.3530458664e-07 0.00293540101 
-0.0011447750851 0.043039160646 -1.0326313373 -0.020505184071 0.12909133533 -1.7573494898 -0.0081761263653 0.20749678434 -1.5884070777 
-0.023378556621 0.15243455698 -1.9738682363 0.26441325193 0.81138777537 0.0075975055377 -0.1472113229 6.2906125197 1.5080077419 
1.3825215526e-06 3.7263865866e-06 0.0031643955856 0.056900086929 0.23467851083 0.0075300869377 0.14829819079 0.67104137507 0.0069882405929 
0.25584097167 1.1077691332 -0.0032123546036 0.17560996996 0.69688773962 0.0049192504323 0.21165240574 0.52380462372 0.0071164499437 
1.0191329894 2.4919242454 0.019061347866 0.21870061509 0.53772317184 0.0018404497955 -0.0001749994258 -0.61165733164 -1.4358488414 
-0.029060630242 -2.1671171837 -2.3817069628 -1.2583679805 -4.8212823805 0.0035322024135 -6.5597460168e-07 -1.6398075258e-06 0.0028598542107 
0.11534634298 0.57474490623 -0.0017343958128 0.096216542577 0.55559115241 0.014649282487 0.053157462955 0.35879280015 0.0062650097763 
4.1740715646 34.955668492 0.047853452622 -9.6266827497e-06 -3.2861942924e-05 -0.029997391035 -2.0604346213e-06 -5.2696805079e-06 0.0072113594355 
-3.1240986462e-07 -1.5077447805e-06 0.00077010681943 0.6752237273 13.714302005 -0.076012233778 -1.7773911388 -7.4081507661 -0.0018770187329 
-4.5545140226 -20.811672201 -0.010115847789 -5.8190640662 -20.085684383 -0.0022903842802 5.4807353291 21.042877887 0.010200318238 
1.426801427 15.548917868 -0.02871490288 4.8419452185 11.757389993 0.0011302226923 4.2997628042 9.6720951176 0.0078345525347 
-5.1807910103 -11.705644289 -0.0014816747218 0.64081145441 4.3821996665 -0.0011974649361 0.59859718109 4.7126139276 -0.0054906690869 
0.2041968514 1.0172298234 0.005524843705 0.24461359676 11.840404614 -0.21735823184 -0.16418539917 10.091249171 -0.27029406818 
0.82018719366 1.8830982598 -0.00020722997324 -0.79897321348 -1.8481899899 -0.00066407198608 1.8931413045 4.5281472818 -0.027294463796 
2.6908363054 6.6396546755 0.0084363021761 9.8145028529e-07 2.5976349173e-06 -0.0054583219756 0.061799614707 0.20191021947 0.014160973742 
5.3010262342e-05 0.00016112498088 -0.015144906416 -1.8712344557e-05 -5.1068619889e-05 -0.010694632465 7.2065007864e-05 0.00020314510996 0.042701057455 
6.0332292864e-05 0.00018986090314 -0.018182883215 4.2173775582e-06 8.592625136e-06 0.014943629001 2.8758317274 19.774380098 0.022521793598 
-2.791336785 -19.31104526 -0.020850117588 0.022600884179 0.11287158739 -0.00083453422024 1.0905824405 7.1106971938 -0.12382722395 
0.79095921812 10.865880177 -0.13786515683 1.4999125501 11.57042853 -0.04053374294 4.4383836516 20.554598292 -0.022411609133 
-5.7174228915 -22.295142504 -0.022805247658 -0.00015171917276 -0.00061054428884 0.029629956963 0.15033324759 0.35580092513 0.019232523025 
0.62594859919 8.5637213479 -0.031389793838 5.0980790541e-08 -1.7148867254e-07 -0.004804609572 2.8435000316e-10 -9.0780704437e-10 -0.00074366202379 
2.3666859741e-07 5.8190622975e-07 -0.0060346012853 -0.46085259764 -1.5337019905 1.2794130903 0.28911534878 1.3334570725 -16.037309746 
0.014107747535 0.54524524529 -6.6764947256 0.31896372226 1.5366377683 -10.076182521 -8.7583629219e-08 -1.1679635145e-06 -0.0083086835821 
-0.0041686416023 -0.031543978809 -0.0052442389113 -5.6983430714 -19.895019464 0.0037108552642 7.2033134606e-06 7.9584135011e-06 -0.038699080297 
-3.0526907813e-06 -1.386762687e-05 -0.0025700871165 -7.732089364e-06 -3.0331870314e-05 -0.01360870441 -0.73457961625 11.583555824 0.86000885188 
-0.65559690881 12.113517197 0.3567429741 -1.081255028 13.536236322 1.3463416408 -0.00010945603566 -0.0014837034062 -0.01046934522 
7.7500186731 28.240135506 -0.068648048574 1.9410003407 9.4504367688 0.026090623058 -2.9566422816e-07 -3.3187801008e-06 0.0048193133033 
1.5991646711e-08 -5.6823852413e-06 -0.0014079082668 -3.7778964522e-06 2.7587193338e-06 0.016397015415 8.420186934e-07 1.3835852189e-05 -0.0059969942667 
-2.4926318298e-06 -1.7281616627e-06 0.018846844848 1.9806550094e-07 2.3181358696e-06 -0.0026656531599 5.7561580943 12.83846639 0.022766112204 
-5.8140562648 -13.83470505 0.010128715721 1.5233116233e-07 4.876468618e-07 0.0009315080087 11.030120781 -58.799917571 -0.019082680973 
10.510180729 -65.524350603 -0.044395001245 10.756736172 -58.762827671 -0.248634531 -0.1153649128 5.907327209 1.477495246 
2.877939711e-06 -0.0001573668101 0.02975842115 -1.7189498727 -6.1730384514 -0.00017677134319 -1.1539695222 -5.9991370145 -0.00048905526483 
-2.7302173935 -10.04190358 -0.0038943803074 2.7268945435e-07 1.3817827695e-05 0.0054158093544 2.0927903549 6.7024927056 -0.012812814909 
-9.5014887608e-07 -2.1579495859e-05 0.0082937282809 -2.6057033588e-07 -1.4488606947e-06 -0.0012403171179 -4.9966845638e-06 -2.8619835321e-05 0.0028209746377 
3.5858182635e-05 0.00014938878372 0.018429958228 0.51935133968 6.7485516084 -0.33726682825 0.24374582156 1.3636382043 -0.27389725399 
8.2329072569 22.691730337 -0.016391403084 1.3922139032 10.286553901 -0.013700720889 -1.8167163147 -10.836793238 0.015511499574 
-2.3654313648 -13.218305954 -0.0021945291985 1.8713402759 12.969690896 -0.0035106082718 -1.4170562908 -6.1275467177 -0.00035251456194 
9.9535143935e-07 4.6858749609e-07 0.0096078376862 -5.3348291572e-08 -2.5104330011e-07 -0.0040344589632 -3.7522222012e-05 -0.00017306924143 0.018128065811 
-5.7437770193e-07 -2.703122676e-06 -0.0015112880421 0.062310713065 5.8782327439 -0.63245792089 0.00035377290715 0.00095980705384 0.046641575684 
0.05771522647 0.16491267785 -0.012268778132 -5.0337278826e-05 -0.000121809791 0.036981135365 0.20631867631 1.8959112058 -0.0061715134326 
0.15906005316 0.45361305685 -0.0089338012448 0.43638131839 1.8191153264 -0.0020128915332 0.85252166577 3.5638245998 -0.0134785059 
0.84163198209 3.3589752169 0.027663552285 0.47562482134 6.4818120257 -0.090761467704 0.34884255616 4.8792248156 -0.14003631175 
0.64552974764 6.6528619338 -0.12478174824 -6.4657556405 -15.296404352 0.0095824396575 2.0943099646 18.189987328 0.13894471893 
1.8922553084 17.43253059 0.073646964534 2.8909714122 22.986514689 0.10932733682 -3.5366408859 -11.756827262 -0.0058323882818 
3.8039329237 10.917894129 0.0034176095803 -1.0990596325 -5.4515653416 -0.0049085080627 -7.2151458257 -16.71846905 0.016167339307 
5.4934471982 16.610073417 0.0086093926842 -4.5449746601 -14.76106084 0.0048363905731 4.1561091601 12.590369371 0.013474318971 
5.0530989605 14.114709622 0.0026328023044 10.078534147 -63.828031265 -0.10178039985 0.028054118494 0.12714268158 0.013582844423 
7.8923801934 19.338436679 -0.02159321783 -2.0580475469e-07 -4.167339451e-06 0.0073095910245 -1.1566191971e-08 -2.7076364747e-07 -0.0001809900582 
-5.34586246e-07 -1.5742277819e-06 0.0091060694535 -5.814472042e-06 -1.4414643412e-05 0.0095804040159 0.035181134651 1.6851739785 -0.13080903742 
0.22906551058 11.543631303 -0.3137117075 -2.2314037571e-07 -1.230310932e-07 0.019008693916 -1.1774515308e-07 1.858610319e-08 -0.0020024678986 
-8.5412416487e-07 3.4776934568e-06 -0.011174707208 -2.3177476817e-07 1.6529525913e-07 -0.0032996630882 -4.0589073196e-08 -9.9339958864e-07 0.0018668002631 
4.7109970848 10.320163332 -0.019839525055 1.2992970288e-06 -2.5243418281e-05 -0.0069388572642 7.7754492245e-07 2.3637350183e-06 0.0010109904346 
1.9741505723e-06 6.8076659723e-06 0.0017152585276 -8.8119662672e-06 -3.0113717069e-05 0.0087519532557 1.0901446243 -59.753448072 0.3056816986 
0.021955857356 -0.20277614228 -0.38161990707 -0.0032297868161 0.033942444639 0.072290695402 0.017682981517 -0.16119178282 -0.037903191451 
-1.8691932908e-06 -5.8918131228e-06 0.014204313671 -1.3043295552e-05 -5.4592361846e-05 -0.0045371300325 -0.19415927595 -0.58692187826 0.0043625755059 
-0.27665946886 -0.87339133332 0.80769812463 3.8377302099e-05 0.0041484303541 -0.032930093443 -0.00295100221 -0.1114087985 -0.0060825298671 
-2.6754903036e-05 -7.7501446127e-05 -0.021376965395 -1.0037254544e-05 -2.8062427469e-05 0.0087559305365 2.8613644868e-06 1.3156970481e-05 -0.027888691025 
-0.47323275414 -2.4906641158 0.46763834848 0.17849262006 1.2549377441 -0.0012699522513 0.15476358808 1.0045593568 -0.012561786877 
-0.050336114426 0.20564135506 3.5584052165 -8.2886072156e-06 -6.6091631683e-05 0.0024952684579 0.093076425296 0.84795487966 -0.0036352998443 
3.0295369285 7.0948343693 -0.011839130835 0.00054857612237 0.0047734297829 0.019954850733 -0.25103907293 -1.3345230801 -0.001060032514 
0.017357773869 0.15059202144 -0.00028468946126 0.074343174585 0.53073264747 0.0038633192854 0.3168212782 1.4618559629 0.0054411646534 
-0.41771568535 -1.6809138786 0.0018380591069 -5.9206220585e-07 -6.9267736965e-06 -0.010459336109 1.6794500158e-07 1.0515697274e-06 -0.0060872118496 
-3.3334315849e-07 2.0974871584e-06 0.0066770984539 5.1115506182e-06 1.5239339337e-05 -0.0099121026181 -2.0303750997e-07 1.8761537571e-08 0.0022127442461 
0.0066374441911 0.76982662829 6.1331289946 0.040216814997 0.49370209901 -0.011128498049 1.1045972842 2.3887697733 0.00023751683363 
-7.7833793337 -19.348705201 0.036981899649 8.2364513331 22.744481504 -0.042818379045 7.9506444478 24.338466714 0.0085729288817 
7.3598578579 20.979731033 -0.044487355504 7.5411842321 21.129702319 0.01502821733 -6.69878002e-07 -5.5482930175e-08 0.0049964837059 
7.8648732862e-08 -4.0756440811e-06 -0.013059901078 -6.4376934743e-07 -2.7503674494e-07 0.0040715052914 3.5142938926e-07 2.1632322582e-05 -0.003833063802 
4.033425436e-07 2.2176690784e-06 -0.0024371522532 -1.2700057222e-05 -8.4709926041e-05 -0.011418838795 6.4428408378e-06 4.0707961859e-05 -0.0022136202379 
-1.1507498583e-07 -6.9149604015e-07 -0.00012813137399 -4.243105882e-06 -2.3655041385e-05 -0.0057284475478 -8.0591841269e-06 -2.3400815618e-05 0.017769457585 
0.016364235168 -0.099358064782 1.1082874003 -0.0010331685306 -0.24243680393 0.023495409426 0.032640009982 1.4363433967 -0.25872205734 
0.17075388941 3.1769412465 -0.18227203702 0.18350419414 3.5175960269 -0.29579039799 7.4225875953 28.298309637 -0.054212876408 
6.8408073139 25.471716138 0.067734581735 -7.6913184199 -24.206522846 -0.030405678095 -2.7642112674e-07 1.0138070798e-06 0.0058926406044 
-1.9157656415e-07 -3.8615620406e-07 -0.0012597564343 1.1737147041e-07 1.1685496155e-08 0.0014419509175 1.4269162361e-07 -6.1308274673e-06 0.0043542961436 
-1.1258462815e-06 -1.0539661585e-05 -0.0016972135641 -4.8671544175e-06 -4.1305200797e-05 0.0063929844703 1.159466495 10.85525072 -0.024410723544 
-5.6877830452e-07 2.0750525635e-06 -0.012099746566 0.87557346735 4.8956451668 0.010327576983 5.6628284043 33.5053686 0.016067746311 
1.5227443094e-06 4.4973748891e-05 -0.017206332787 -2.3114184204e-05 -0.00016152627117 0.017699154377 4.0684283323e-06 2.8224475361e-05 0.015658793306 
0.0057041369997 -0.071615554003 -1.6380973048 3.9243646699e-07 1.966374275e-06 -0.0032648590323 -1.7698713487 -14.119706681 0.0014028784044 
0.22130936031 0.60731337025 -1.9081898702 1.5639962295 4.7270506954 -9.4084941582 0.023832095957 0.17002120074 -0.00011497611903 
0.46146566558 1.6549321521 0.004623582728 0.13589700844 0.8167549787 0.0030095997237 -1.5651626616e-06 5.2794773622e-07 -0.0085662588441 
1.1125795751e-06 -6.5916955201e-06 0.011028877988 -3.3081290641e-06 8.106640106e-06 -0.0099984188552 2.439420031e-05 9.9312774428e-05 0.020742703497 
1.9849515415e-07 -3.4744480002e-05 -0.010560338327 0.85827209727 8.4253548692 -0.052620822384 1.007313463e-05 3.1987775085e-05 0.028944180812 
7.1661653975e-07 2.3060455894e-06 0.0073149632139 -3.5872910072 -9.0904639429 0.00036761372176 -2.1502544414e-07 -4.1369569028e-06 -0.010072606167 
1.5908613412e-08 9.6955784638e-07 -0.0038089265908 -0.57384203511 10.823478707 1.1223564853 -0.7304202647 13.642848302 -0.18127214811 
-0.56296209975 11.214586855 1.5121952253 -0.66992488571 10.699077066 1.8782758083 -0.85523105416 13.348046845 0.05221118762 
0.012475969997 0.15218352426 0.0085543974941 1.4038911042e-08 -8.0510294609e-07 0.002050273779 -3.6922554555 -15.473382304 -0.01209939046 
-7.324600147e-08 1.6793267557e-06 -0.015640420114 8.2468932002e-08 -3.1575872986e-07 -0.0056335817445 1.0443921534e-07 -5.3765981184e-07 0.0017441390084 
-0.23954588496 5.3482718835 -0.4490087517 -0.1784878696 4.0022651428 0.6509746526 -0.57445751058 8.9959894472 -0.18199381964 
-0.69508752214 10.590264858 0.13320625807 0.00025069001849 -0.28935051776 -1.8540635054 -0.23775974573 5.5030333481 0.69553821312 
-0.25478895794 7.4277366034 -0.51710833713 -0.057615814499 2.7837933943 -0.27552942935 -0.026488058081 6.1729520406 -0.33391382016 
2.2687013012 9.6836820597 0.026472428345 7.0515609683 17.491239323 -0.026402068258 -6.8003094302 -19.187321405 -0.0066032673788 
0.090122217877 0.74365521474 -0.002480666214 1.9390375197e-06 2.5788597449e-05 -0.0076878523015 -4.3836943358e-07 -2.7813574354e-06 0.0015442290368 
-3.6244768214e-07 -3.4468061873e-06 0.00080542663462 1.5725959824e-06 2.1133883708e-05 -0.0076967371154 -0.068403615022 8.0892462045 1.4979798916 
-0.12730618357 10.940000521 0.76349091142 -0.30348015616 10.722090019 1.0458755357 0.44270692654 3.5850338967 -0.00075169157342 
-6.7974421982e-07 -2.8170270659e-06 -0.016276748328 -5.4814965703e-07 -9.819330814e-08 -0.0022480439766 4.4543407968 10.407511826 0.0028989008865 
0.19427420911 2.6658910924 -0.025378207489 0.25219922134 3.297505689 -0.054490704651 0.33754897207 4.2591959169 -0.11335317356 
0.12181816214 2.418497545 -0.16198108068 0.42312146818 5.1438961524 -0.10903539691 -6.6655064157e-05 -0.00084106446669 0.033579055652 
0.10607431515 0.23950588507 0.010782222086 0.12905736582 0.29293288223 -0.0070305496538 0.012827324785 0.12043945144 -0.001332931484 
3.4239849586e-07 1.7001252563e-06 0.011675159185 -4.2101178045e-06 -6.4363059836e-07 -0.024404158541 0.65730688066 6.2401931641 -0.056504991087 
0.5867681938 5.5356686374 -0.079480361345 -1.6946896187 -16.705279809 -0.041870955092 4.8809288728 14.125469632 0.0055496481945 
-0.0034026561257 -0.037872775284 -0.013266194225 -2.8873287502 -13.442228617 -0.01014113935 1.038930148 8.2271422868 -0.017128003302 
5.6675121002e-06 0.00010749270046 -0.012434647912 0.00020191617814 0.0039601003767 -0.028725577859 -4.135503093e-06 5.7009256484e-06 0.012623770111 
1.7442985398e-06 3.314676118e-05 -0.0076227372989 2.10738008 11.740793557 -0.018690842207 1.4891616162e-05 3.96640992e-05 0.013117000172 
1.5929043968e-07 3.7362415741e-07 -0.0032991811124 4.4440453678e-07 -6.3507008299e-07 -0.0072797004576 -0.36075783106 9.7939114322 1.4523045996 
0.77874062588 5.9596597095 -0.02357686857 -2.6027181517 -11.532806948 -0.0057627764205 0.16552650134 3.4480679559 -0.15180959366 
-1.1346633785 14.641239966 0.15934439755 -0.89160809738 15.377992207 0.33639334888 -0.24961256035 21.13110934 0.37405156247 
1.853056502 14.813604222 0.1022966602 0.088793986632 0.66850142792 -0.010767055293 0.034167473927 0.31973585209 0.010225671347 
3.1306239924 15.579372834 0.014102411929 -1.2054603831e-06 3.7865456157e-06 -0.0091305446744 1.460618982e-06 9.0888980595e-06 -0.0033064385007 
4.4530268486 11.604761196 0.021888991042 3.7516812318 13.191502686 0.0076183990963 -0.0043131897824 0.47506261718 0.60663003665 
0.00097309460275 -0.080984218549 -0.4483839902 -0.00027498351239 -0.06895543085 -0.095318217513 4.9993643766e-05 0.026269232105 0.030077182261 
1.826184404 7.1187845678 0.17628747482 1.7287098546 13.616830134 0.12436016238 1.1811885382 4.7064797524 0.29889643071 
1.8023702234 6.9932483878 0.45328943638 -2.5004974125e-05 -7.0831664201e-05 0.0063977103473 -2.3837392838e-07 -2.36343447e-06 0.0099406878811 
-2.0308045037e-08 -2.2255525176e-07 0.00096069841279 -3.0393909764e-06 -0.00014888279349 0.0057427670407 -6.413424126 -16.053681667 -0.0031866517444 
6.922597367 19.273823114 0.023245424818 -0.0023461698481 -0.054127757403 -0.60938737021 -0.0033806585564 0.46276046638 -0.17199460365 
0.16914059073 3.5829380835 -0.14316395582 3.2432847595 6.7786163145 0.0077309838271 -4.1165512017e-06 -9.1189016007e-06 -0.0091696320818 
-2.3601799834e-07 -1.5666801981e-06 -0.002030107699 0.46021470852 4.4425732786 -0.047469109786 0.33915835315 3.4245957047 0.0041415029747 
-4.0211481235 -9.7369923806 0.0044636125255 0.17201588241 1.6755598554 -0.37251285024 0.10608058344 2.2361382277 -0.93912230679 
0.22937301165 8.0031556075 -0.4488230454 -1.7866636752e-08 3.3015689311e-06 -0.0092653132871 -2.9185152223e-05 -6.7508299566e-05 -0.0080217649441 
3.6665926557e-06 8.5713624794e-06 -0.0015467403283 5.4009056085e-05 0.00012230123123 0.032201294131 2.0459646863 17.097249946 0.022209684131 
1.7940677759 17.444917689 0.0042901009698 -1.8288385829 -17.818640559 -0.031982124219 0.0013332750194 -0.45505518154 -1.0219926403 
-1.8256049091e-07 8.19531785e-08 -0.0010448367222 -1.1837775567e-06 -5.7017429781e-06 -0.012263874699 2.0154712906 16.805692156 -0.026253430076 
-8.351219749 -26.574544121 0.09713996635 -1.8357416816e-07 1.0666291582e-07 0.0025015583075 -1.3118878023e-07 -1.2522357281e-07 -0.00068380220176 
-2.5270676098 -15.293418595 0.0082580481461 1.8393270704e-06 -3.0655275677e-07 0.013951323831 3.5271874524 10.124895335 -0.024140204705 
0.028700800031 1.0584691928 -4.2491811649 0.13272419493 3.8019197227 0.83457222791 -0.1304310095 -1.7610650389 -3.9519911146 
0.89248981966 10.035814932 5.5776021486 2.5429775401 6.9255019644 -0.027381604342 -1.3894244652 -6.4247269471 0.039144415335 
0.024089910094 1.0313156029 -0.11839210024 0.0033320994176 0.38897375044 -0.042857219962 -0.0011291527698 0.26638647969 0.16904473004 
-0.0031414057223 0.0396089397 0.1511016314 0.0053553618049 -0.11493175172 -0.62408747467 0.011190628811 -0.12115165517 -0.62988544329 
0.091964538804 9.129911086 -0.19381875221 2.0085780238e-08 4.7151751591e-06 -0.010095138405 -5.378067313e-07 -2.4170263772e-06 -0.0067551288149 
0.00024015227821 -0.052278145514 -0.0048372836649 -0.0037485801913 -0.32327136921 -0.34721168467 -0.0011226579147 0.20612921656 0.27539308754 
0.049029129066 10.267118233 1.0591505119 -0.24600655424 10.005647242 1.1708356008 -0.19198046576 7.8316079928 2.7473672952 
0.039434972326 4.5298873753 3.5026706561 -1.2464134455e-07 9.4861304708e-07 -0.007925830269 -5.9951302053 -16.532905459 -0.024239190465 
-0.0050459849304 0.072473033173 -0.68799104013 -0.012563320961 0.085344227781 -3.1654539963 -0.0090456358709 0.10360300991 -1.122495956 
-2.1403650841 -11.551822698 0.014175576371 0.0037448186954 -0.10884552925 -2.8685932876 -0.013146076419 0.102375079 -1.2757400108 
-8.3634921404e-07 -6.4733143485e-06 0.004080928207 0.00014666977618 0.00042122701759 0.020591776631 -0.081924691006 -4.3411891547 -12.361694086 
1.0415054635e-06 5.4120491587e-06 -0.0019509712093 -5.1223246003e-06 -2.0505384678e-05 -0.027427091142 -6.4920949967e-06 -2.0161309974e-05 0.014924889001 
6.6850721879e-06 2.8490377457e-05 0.015506235251 1.9781443839e-07 1.9941534774e-06 -0.0013238631697 4.2477475072 15.477523331 0.0083501064639 
5.0867423209 17.212477029 -0.0044147710759 -6.0910252015 -19.055480878 0.035317250013 6.2353549966 19.254639147 0.03813493444 
0.39467496378 5.1069205436 -0.15914989891 -3.2746626028e-07 -1.7623395106e-06 -0.00067718137725 -0.29787605402 -0.60481238119 4.3976999279 
-0.0086706916719 -0.015391857193 0.12333118241 0.037224114461 -0.280667689 -3.5469545754 5.2548583868 13.525558771 0.028638087575 
0.24710863855 5.4807055534 -0.062531285473 0.042941441536 0.12847451044 -0.15755973697 -0.16883373635 -0.50567787473 1.0146194702 
1.1279660594 4.3149051616 -0.010207273215 -4.3550250149e-07 -1.3195944808e-07 -0.015092040287 2.2471281694e-07 5.9209388432e-07 0.0081594370826 
-0.0063055010307 0.012922545435 -0.80522110074 -0.01003500024 0.070785486024 -1.5295243262 9.0513399928e-07 2.4684301082e-06 0.0053999731377 
9.4825407674e-08 3.1693296985e-07 0.0015809584927 0.24389745883 8.1739651364 1.5869050123 -0.5774963479 21.609901955 0.038035173008 
0.025344507293 -0.23920298105 -2.0912573485 -1.0152394655e-05 -7.0937572541e-05 0.02543639757 1.2310311407e-06 9.0496204187e-06 0.0019290367046 
-2.3861646424 -16.515836427 0.037182654614 -0.25132773567 -0.76840870038 0.98714915692 3.3932256035 19.308968886 -0.0073132642897 
-0.0011851297038 0.91613525261 6.3577702321 -0.011884879516 0.0068238640689 0.35495403351 4.4946796161e-05 0.00011157217458 0.013494937826 
5.8412937394e-07 -2.5263251426e-07 0.0031003784408 0.25719703065 7.3477829306 -0.13412973034 -0.15279362781 5.2122558253 1.4840052705 
1.1820106501e-08 -4.7106914165e-06 -0.003952361345 -2.9101117103 -11.255924249 -0.013769070019 -2.6605108428e-05 -6.5163422676e-05 -0.0048865885413 
0.004891562336 0.25485505518 -0.021557400643 0.0053377212393 0.27150338881 0.030150838792 0.055951165983 0.97285908805 0.0085174458332 
0.027623920378 0.71816875755 0.0068434018566 0.2196191945 -0.17715440988 -6.6914250252 0.0035077335827 0.61904974785 0.17655123556 
0.019284430907 0.77835936744 -0.079178386633 1.5309597873e-05 4.3871070539e-05 0.0062527437784 5.7486024057e-07 -8.6663205033e-07 0.004577220654 
4.3353722453e-08 -8.2945167015e-08 -0.00055757213792 -2.6821301037e-06 -4.4100113518e-06 -0.01537542205 0.56775421631 -8.9127915467 -1.2744376821 
-0.66209059433 11.291997549 0.57376284764 1.1829567794e-06 -9.3727208858e-07 0.01959311407 1.544316038e-06 -0.00017424494305 -0.013081456513 
1.3730305838 6.6517399066 0.0043358328807 0.3882589833 0.8848974565 0.0098553685321 -0.04114115238 1.0992270743 4.6860809537 
-5.886289318e-06 -0.00012950701306 0.011374933422 7.982998123 -68.456676213 -0.098606175253 -0.0038249463641 -0.38823618622 0.16049230266 
0.0011072895508 0.10192432751 -0.28104255866 0.042887320995 3.7449119149 -0.30758291717 0.38773646511 0.89568896738 -0.0095768294669 
-1.1322953123e-05 -3.622776138e-05 -0.022075308145 3.8721771799e-06 9.5635726739e-06 0.0064028353916 0.070730319583 1.3009342687 -0.0087124659467 
-2.5513772954e-07 -1.5167427697e-06 0.015671218795 0.022906290405 -0.21979564451 -0.42065178491 0.0058916608306 -1.2317792421 -1.980734824 
3.8134690666 8.2353381233 -0.0016157988231 -1.6720512774e-06 -1.5690899665e-05 -0.01383249416 0.0005469897066 -0.17428815302 -0.16099988995 
5.6345904225 -71.187269146 0.065061416847 4.9608807747 -70.775250748 0.10997415399 0.073593494862 1.5846387513 -0.036911266124 
2.379483464e-05 0.00086933505927 -0.0048398788854 1.7872241264 9.0357157044 -0.011471831623 2.9329991125 18.324738148 -0.023600008133 
3.2923046176 13.326394692 0.023334736988 -0.0005638277006 0.0471327338 0.73445094605 1.1207668633 10.391723359 0.22854281592 
-1.4564895844e-05 -4.4282934159e-05 0.031951979664 3.0161862957 18.655922412 0.020993107245 6.721774391e-06 5.0812971374e-05 0.017628603666 
-1.2891903612e-06 -3.5003333998e-06 0.01196060449 -7.2964671142e-05 -0.00287424126 0.011994551871 -5.8809032486e-05 -0.0018846643632 0.032775868166 
5.4166842345e-07 3.6283402543e-06 0.0057445754814 4.9669053345e-07 -9.8961695255e-06 -0.019675128936 0.026343054556 0.83924668105 -0.012397328002 
-7.0596447228e-08 -1.51869001e-06 -0.0033802819144 -1.3632844833e-06 -6.8249431181e-06 -0.0098251536472 -2.6418913857e-06 -4.8522813642e-06 -0.016095722999 
-7.166457537 -22.396455781 -0.0018569156284 -6.9902651378 -22.201661241 0.00072854078299 0.10379683393 2.0437677738 -0.02643960116 
0.034731815032 -0.70123062356 -3.0781360447 4.4242900401 -80.278311819 0.01970544533 -6.1573158513e-07 -4.1716194991e-06 0.0020979018052 
-0.0011386404633 -0.11211865564 -0.21141975702 0.0049979627704 0.28898226675 0.0044409595898 0.003625349678 0.2275863013 0.013092027195 
-7.9790434039e-06 -0.00015987860771 0.022335461706 -4.381584539e-07 -7.2871068621e-06 -0.0011110949769 -6.2035914352e-08 2.6776537002e-07 0.00094147642713 
7.8364858045e-08 -6.0515941097e-08 0.00054708827257 -5.8889746153e-05 0.067330736532 0.008590855887 -1.031103998e-07 -1.2472634456e-06 0.00048841123759 
-1.2201793167e-07 5.7161781743e-07 0.0018860860642 0.0051354371843 0.2817900703 0.0052148065052 -5.9115547524e-08 4.7212383725e-07 0.0013765898328 
3.4700740466e-06 4.3769862593e-05 -0.0089594858906 -4.3066164303e-07 5.2572406771e-07 0.0028467630016 1.6444765756e-06 3.5028613425e-06 0.013698688396 
-2.8982351597e-06 -4.4789915118e-06 -0.007839577488 -2.6050890481e-05 -0.00016910898478 -0.013670550387 14.098209346 -55.049678594 -0.088175679287 
-8.5954177428 29.018828303 0.24954949557 1.7146007859 4.0901073833 0.0013552153542 
Critical%20Strain%20Ratio 1 3545 double
0.0037169130848 0 0 0.0056509292384 0 0 0 0 0 
0 0.0020704550817 0.0012870127633 0.00040182314785 1.8573055877e-05 0.0027440186354 0.00155728211 0.00078007052912 0.00017095119637 
0 0 0.0039776380532 0.0015411236826 0.00050789572423 8.5604602451e-06 0.0049237594475 0.0025597798358 0.00099121523401 
0.00022973980195 0 0.0048700559972 0 1.1087801547e-05 0.00015760990426 0.00056906875653 0.00040505611702 0.00023637633587 
0.0001179918583 3.1200342012e-05 5.2671015797e-07 0 0 0 0 0 0 
0 0 0 0 0 0 1.773113203e-05 0.00042739568895 0.00050820776332 
0.00031571572096 0.00018178139312 7.2708313442e-05 9.6758137405e-06 0 0 0 0 0 
0 0 0 0 0 0 0 0 0 
0 0 0 0 0 0 0 0 0 
0 0 0 0 0 0 0 0 0 
0 0 0 0 0 0 0 0 0 
0 0 0 0 0 0 0 0 0 
0 0 0 0 0 0 0 0 0 
0 0 0 0 0 9.554401439e-05 0.0024921000007 0 0 
0 0 0 0 0.0013711188454 0.0030804316281 0 8.791122204e-06 0.00014139867752 
0.00070466528339 0.0004011753257 0.00022806612585 0.00010184316214 1.8333761484e-05 4.2990865907e-07 0 0 0 
0 0 0 0 0 0 0 0 0 
7.3608282182e-06 0.00048761829106 0.00055352317129 0.00030504566684 0.00017344491412 5.8462265583e-05 5.6400440718e-06 0 0 
0 0 0 0 0 0 0 0 0 
0 0 0 0 0 0 0 0 0 
0 0 0 0 0 0 0 0 0 
0 0 0 0 0 0 0 0 0 
0 0 0 0 0 0 0 0 0 
0 0 0 0 0 0 0 0 0 
0 0 0 0 0 0 0 0 0 
9.9248096538e-05 0.0020769479983 0 0 0 0 0 0 0.00073876849839 
0.0038986363529 0 0 0 0.0045117640668 0.0026350831784 0.0009296972321 0.00017092235144 0.0042049592797 
0.005352920513 0.0030875705017 0 0 0 0 0.0043683704346 0.0019761213652 0.0022336619779 
0.0032302155576 0.0033561439114 0.00063204402448 0.0011102863247 0.0016049618449 0.0021558478838 0.0012206732574 6.1693235061e-05 0.00027961722388 
0.00045862622269 0.00067965478824 0.00034754465573 7.5811219874e-06 7.6761893712e-05 0 0 0 0 
0 0 0 0.00024261121741 0 0 0 0 0 
0 0 0 0 0 1.7447956845e-06 0 0 0 
0 0 0 7.9042566518e-06 0 0 0 0 0.0004142236427 
0 0 0 0 0.00089279669127 0 0 0 0 
0 0 0 0 0 0.00037311721198 0 0 0 
0 0 0 0 0 0 1.5993097338e-05 1.0351972336e-05 4.0470652496e-05 
0 0 0 0 0 0 0 0.0001353930889 0 
0.00075685100141 0 0 0 0 0 0 0 0 
0 7.1474427473e-06 0 0 0 0 0 0 0 
0 0 0 0 0 0 0 0 0 
0 0 0 0 0 0.0002426999091 0.00023014863871 0 0 
0 0 0 7.8159080337e-05 0 0 0 0 0 
0 2.4893247172e-05 0.00010455401366 0 1.5679304369e-05 0 0 0 0 
0 0 0.00033098307313 0.00071481562276 0 0 0 0 0.002274865325 
0 0 0 0 0 0 0 0 0 
0.0002789094108 0 0 0 0 0 0 0.0015877193661 0 
0.00031009099356 0 0 0.00055459625511 0 0 0 0 0 
0 0 0 8.002088971e-06 0 0 0 0 0 
0 0 0 8.6327348115e-06 0 0 0 0 0 
0 0 0 0 0 0 0 0 0 
0.00037246210948 0 0 0 5.6189942403e-06 0.00029557669573 0 0 0 
0 0 0 0 0 0 0 0 0 
0 0 0 0 0 0.0029723854754 0.0022777769944 0.0023393562343 5.6580124071e-07 
0 0 0 0 0 0 0 0 0 
0 0 0.0018344753207 0.0013163077678 0.0019388302694 0.00092178386227 0.00056042707622 0.0011952179952 0.00034979880982 
0.00013040849577 0.00048349692746 0.0001850167502 0 0 0 0 0 0 
0 0 0 0 0 0 0 0 0 
0 0 0 0 0 0 0 0 0 
0 0 0 0 0 0 0 0 0 
0 0 0 0 0 0 0 0 0 
0 0 0 0 0 0 0 0 0 
0 0 0 0 0 0 0 0 1.1718875557e-05 
0 0.00020078818964 0.0014525054992 9.1939294966e-05 0.0013840527759 0 0 0 0 
0 0 0 0 0 0 0 0 0 
0 0 0 0 0 0 0 0 0 
0 0 0 0 0 0 0 0 8.0255369205e-06 
1.0476742278e-05 7.2300039202e-05 0.00014671972755 0.00010572036556 0.00027730058532 0.00045672239736 0.00029755154198 0.00043497517868 0.000359559305 
0.00030264940974 0.00040692448479 0.00026996105168 0.0002594794715 0.00018754959858 0.00021094934714 0.00015720152919 9.9119044472e-05 0.00010845929459 
3.4633567901e-05 5.2555267423e-06 2.2655260873e-05 3.7027731903e-05 8.8199622282e-06 1.8379833937e-06 0 0 0 
0 0 0 0 0 0 0 0 0 
0 0 0 0 0 0 0 0 0 
0 0 0 0 0 0 0 0 0 
0 0 0 0 0 0 0 0 0 
0 0 0 0 0 0 0 0 0 
0 0 0 0 0 0 0 0 0 
0 0 0 0 0 0 0 0 0 
0 0 0 0 0 0 0 0 0 
0 0 0 0 0 0 0 0 0 
0 0 0 0 0 0 0 0 0 
0 0 0 0 0 0 0 0 0 
0 0 0 0 0 0 0 0 0 
0 0 0 0 0 0 0 0 0 
0 0 0 0 0 0 0 8.2239213051e-05 1.1396868495e-05 
6.84929954e-05 2.2093752323e-05 0.0001714629164 0.0002785978714 8.8616186101e-05 0.00033677394543 0.00042227265228 0.00052064470935 0.00049445996214 
0.00062181500493 0 0 0 0 0 0 0 0 
0 0 0 0 0 0 0 0 0 
0 0 0 0 0 0 0 0 0 
0 0 0 0 0 0 0 0 0 
0 0 0 0 0 0 0 0 0 
0 0 0 0 0 0 0 0 0 
0 0 0 0 0 0 0 0 0 
0 0 0 0 0 0 0 0 0 
0 0 0 0 0 0 0 0 0 
0 0 0 0 0 0 0 0 0 
0 0 0 0 0 0 0 0 0 
0 0 0 0 0 0 0 0 0 
0 0 0 0 0 0 4.0763090409e-05 7.3215722345e-06 0 
0 2.6844643469e-06 5.5597728871e-05 7.4154320678e-05 0.00013620114712 0.00016357564197 0.00010791770412 0 0 
0 0 3.3004058613e-05 0 1.3378686322e-05 0 0 0 0 
0 0 0 0 0 0 0 0 0 
0 0 0 0 0 0 0 0 0 
0 0 0 0 0 0 0 0 0 
0 0 0 0 0 0 0 0 0 
0 0 0 0 0 0 0 0 0 
0 0 0 0 0 0 0 0 0 
0 3.0550373881e-05 7.8475082634e-06 0 0 1.0379635949e-05 5.8610684422e-05 0 0 
0 0 0 0 0 0 0 0 0 
0 0 0 0 0 0 0 0 0 
0 0 0 0 0 0 0 0 0 
0 0 0 0 0 0 0 0 0 
0 0 0.00076029340133 0.00056458939374 0.00064016081102 0.00036564526297 0.00048048914064 0.00039386296845 0.00032433619028 
0.00018514518955 0.00021953258013 0 0 0 0 0 0 0 
0 0 0 0 0 0 0 0 0 
0 0 0 0 0 0 0 0 0 
0 0 0 0 0.00066618413671 0.00012369810187 0.00039602602804 7.185469551e-05 0.0006202345432 
0.00083987054677 0.00088926335825 0.0012340123641 0.0015318307291 0 0 0 0 0 
0 0 0 0 0 0 0 0 0 
0 0 0 0 0 0 0 0 0 
0 0 0 0 0 0 0 0 0 
0 0 0 0 0 0 0 0 0 
0 0 0 0 0 0 0 0 0 
0 0 0 0 0 0 0 0 0 
0 0 0 0 0.00022649634359 0.00028242156032 0.00037739281095 0.00047336791937 0.0003443482773 
0 0 0 0 0 0 0 0 0 
0 0 0 0 0 0 0 0 0 
0 0 0 0 0 0 0 0 0 
0 0 0 0 0 0 0 0 0 
0 0 0 0 0 0 0 0 0 
5.527526303e-05 0.00057479477799 0.00057712753185 0.00029765250339 5.1478206028e-05 0.00017482669197 1.066602297e-06 0 0 
0 0 0 0 0 0 0 0 0 
0 0 0 0 0 0 0 0 0 
0 0 1.8647625378e-05 1.9650330621e-05 0 0 1.4842847818e-05 0.0005853324938 0.00036380519696 
1.4341701944e-05 0.00016356552434 0.0003497161522 0.00048557843098 0.00057857345636 0.00065178401764 0.00063409608902 0.00063399175897 0.0002635829944 
0.00035383578719 0.00048581662352 0.00040487393991 0.00034540522872 0.00015099273453 0.00020476712278 0.00025949834654 0.00023104472775 0.00020035005233 
4.3757061488e-05 8.5381516322e-05 7.4033557396e-05 0.00011801738746 0.00014637155924 9.230929921e-07 1.2004685847e-05 3.5129946502e-05 2.7284675223e-05 
6.3444681506e-06 0 0 7.1749941588e-07 0 0 0 0 0 
0 0 0 0 0 0 0 0 0 
0 0 0 0 0 0 0 0 0 
0 0 0 0 0 0 0 0 0 
0 0 0 0 0 0 0 0 0 
0 0 0 0 0 0 0 0 0 
0 0 0 0 0 0 0.0001786729585 0 0 
0 0 0 0 0 0 0 0 1.5562925348e-05 
0 0 0 0 0 0 8.6242115986e-06 0 0 
0 0 0.00036252364237 0 0 0 0 0.00066875027792 0 
0 0 0 0 0 0 0 0 0.00036899025225 
0 0 0 0 0 0 0 0 0 
9.7797842594e-06 8.9408997352e-06 3.1324116529e-05 0 0 0 0 0 0 
0 0.00013338149167 0 0.00082867584078 0 0 0 0 0 
0 0 0 0 1.1894434401e-05 0 0 0 0 
0 0 0 0 0 0 0 0 0 
0 0 0 0 0 0 0 0 0.00030648289775 
0.00018669640173 0 0 0 0 0 6.5619684432e-05 0 0 
0 0 0 0 2.0623689038e-05 7.7201726358e-05 0 9.9943339632e-06 0 
0 0 0 0 0 0.00011042062793 0.00062927889802 0 0 
0 0 0.0022863702774 0 0 0 0 0 0 
0 0 0 0.00012331564368 0 0 0 0 0 
0 0.0019537640241 0 0.00032800346455 0 0 0.00052041729353 0 0 
0 0 0 0 2.4118001054e-07 0 5.6338905538e-06 0 0 
0 0 0 0 0 0 0 0 0 
0 0 0 0 0 0 0 0 0 
0 0 0 0.00038469625823 0 0 0 6.3056522309e-06 0.00029638978457 
0 0 0 0 0 0 0 0 0 
0 0 0 0 0 0 0 0 0 
2.7082912558e-06 0 0.0040416671294 0.0020606962418 0.0031780419496 0 0 0 0 
0 0 0 0 0 0 0 0 0 
0 0 0 0 0 0 0 0 0 
0 0 0 0 0.00071836549373 0.00010558114484 0 0.00083094277511 0 
0 0 0 0 0 0 0 0 0 
0 0 0 0 0 0 0 0 0 
0 0 0 0 0 0 0 0 0 
0 0.0018014352061 0.0027332667568 0.0020628669103 0.00066945185405 0.0011483363933 0.0013490419243 0.00015154147387 0.00040865744845 
0.0005781581686 0.00018262618814 4.731141787e-06 0 2.7814970514e-06 9.7460507521e-05 4.2170996331e-05 6.7110869722e-05 0.00055445808885 
0.0002754569851 0.00027816377143 0.00035504491412 0.0004974630377 0.00052930849892 0.00036390753496 0.00030212031335 0.00018077759318 0.00025488695567 
0.00020739071426 8.6225950509e-05 0.00014921751705 0.00010561943418 1.2146310123e-06 2.729563472e-05 2.9965049935e-05 1.7029340191e-05 1.0067048892e-05 
1.0692082646e-06 0 0 0 0 0 0 0 0 
0 0 0 0 0 0 0 0 0 
0 0 0 0 0 0 0 0 0 
0 0 0 0 0 0 0 0 0 
0 0 0 0 0 0 0 0 0 
0 0 0 0 0 0 0 0 0 
0 0 0 0 0 0 0 0 0 
0 0 0 0 0 0 0 0 0 
0 0 0 0 0 0 0 0 0 
0 0 0 0 0 0 0 0 0 
0 0 0 0 0 0 0 0 0 
0 0 0 0 0 0 0 0 0 
0 0 0 0 0 0 0 0 0 
0 0 9.1396952499e-07 0 0 0 0 0 0 
0 0 0 0 0 0 0 0 0 
0 0 0 0 0 0 0 0 0 
0 0 0 0 0 0 0 0 0 
0 0 0 0 0 0 0 0 0 
0 0 0 0 0 0 0 0 0 
0 4.0132184984e-05 4.9856668056e-06 4.4533903433e-05 0.00012695956622 9.7085932763e-06 2.4631112568e-05 0.000163560927 0.00037209907143 
0.00030550883644 0.000412346748 0.00038214174513 0.00058967752035 0 0 0 0 0 
0 0 0 0 0 0 0 0 0 
0 0 0 0 0 0 0 0 0 
0 0 0 0 0 0 0 0 0 
0 0 0 0 0 0 0 0 0 
0 0 0 0 0 0 0 0 0 
0 0 0 0 0 0 0 0 0 
0 0 0 0 0 0 0 0 0 
0 0 0 0 0 0 0 0 0 
0 0 0 0 0 0 0 0 0 
0 0 0 0 0 0 0 0 0 
0 0 0 0 0 0 0 0 0 
0 0 0 0 0 0 0 0 0 
6.5735063552e-06 3.3842306457e-05 2.1285060976e-06 0 8.6771374155e-05 4.7637278428e-05 4.8575113152e-07 0.00015092689027 0.0001272957626 
0.00015060506735 0 0 0 0 0 1.3956763311e-05 0 0 
0 0 0 0 0 0 0 0 0 
0 0 0 0 0 0 0 0 0 
0 0 0 0 0 0 0 0 0 
0 0 0 0 0 0 0 0 0 
0 0 0 0 0 0 0 0 0 
0 0 0 0 0 0 0 0 0 
0 0 0 0 3.7392593045e-06 2.2788892683e-05 0 0 5.6538924516e-05 
1.31499203e-05 0 0 0 0 0 0 0 0 
0 0 0 0 0 0 0 0 0 
0 0 0 0 0 0 0 0 0 
0 0 0 0 0 0 0 0 0 
0 0 0 0 0 0.00058148024001 0.00048719689614 0.0007029511743 0.00034718219672 
0.00028597153047 0.00036855347925 0.00047092173856 0.00018401757533 0.00018942811518 0 0 0 0 
0 0 0 0 0 0 0 0 0 
0 0 0 0 0 0 0 0 0 
0 0 0 0 0 0 0 0.00012006481712 3.5352769976e-05 
0.00015953847823 0.00027171084775 4.7952690652e-06 0.00085005171184 0.00066880998778 0.0012780711987 0.0014411564561 0 0 
0 0 0 0 0 0 0 0 0 
0 0 0 0 0 0 0 0 0 
0 0 0 0 0 0 0 0 0 
0 0 0 0 0 0 0 0 0 
0 0 0 0 0 0 0 0 0 
0 0 0 0 0 0 0 0 0 
0 0 0 0 0 0 0 0.00032148502565 0.00022088809905 
0.00037594542772 0.00030888854865 0.00043937841981 0 0 0 0 0 0 
0 0 0 0 0 0 0 0 0 
0 0 0 0 0 0 0 0 0 
0 0 0 0 0 0 0 0 0 
0 0 0 0 0 0 0 0 0 
0 0 0 0 0 3.4380527401e-05 0.00056702269613 0.0039256741271 0.0048312430845 
0.0039253552186 0.0032810409429 0.0030657874908 0 0 0 0 0 0 
0 0 0 0 0 0 0 0 0 
0 0 4.4057738415e-05 0 0.00015789579336 0.001284642365 0.00016046466938 0.0022040753545 0 
0 0 0 0 0 0 0 2.166765538e-05 0 
0.001517653039 0.00040004335298 0 0 0 0 0 0 0 
0 0 0 0 0 0 0 0 0 
0 0 0 0 0 0 0 0 0 
0 0 0 0 0 0 0 0 0 
0 0 0 0 0 0 0 0 0 
0 0 0 0 0 0 0 0 0 
0 0 0 0 0 0 0 0 0 
0 0 0 0 0 0 0 0 0 
0 0 0 0 0 0 0 0 0 
0 0 0 0 0 0 0 0 0 
0 0 0 0 0 0 0 0 0 
0 0 0 0 0 0 0 0 0 
0 0 0 0 0 0 0 0 0 
0 0 0 0 0 0 0 0 0 
0 0 0 0 0 0 0 0 0 
0 0 0 0 0 0 0 0 0 
0 0 0 0 0 0 2.5316667115e-06 0 0 
0 0 0 0 0 0 7.4734817857e-05 0.00019104619375 0 
0 0 0 0 0 0 0 0 0 
0 0 0 0 0 0 0 0 9.3214994104e-06 
0 8.7315580344e-06 1.3096352867e-05 1.6736440796e-05 0 0 0 0 0 
0 0 0 0 0 0 0 0 0 
0 0 0 0 0 0 0 2.1595763452e-06 1.4613324319e-05 
0 0 0 0 0 0 0 0 5.8343890444e-05 
6.7838029538e-05 7.2201587296e-05 1.7626028316e-05 1.3684885411e-05 0 0 0 0 0 
0 0 0 0 0 0 0 0 0 
0 0 0 0 0 0 0 0 0 
0 0 0.00082506955322 0.0015270703716 0.0012447562122 0.0017652578854 0.0012527753755 0 0 
0 0 0 0 0 0 0 0 0 
0 0 0 0 0 0 0 0 0 
0 0 0 0 0 0 0 0 0 
0 0 0 0 0 0 0 0.0017921820419 0.0023119857378 
0.0019929217862 9.3897768e-05 0.00012105100453 0.000126937108 0 0 0 0 0 
0 0 0 0 0 0 0 0 0.00018213838781 
0.00017969773035 0.00010581659668 0.00021506956772 0 0 0 0 0 0 
0 0 0 0 0 0 1.3934992948e-05 5.5159318343e-06 0 
0 0 0 0 0 0 0 0 0 
0 0 0 0 0 0 0 0 0 
0.00015026178802 4.5180196608e-05 0.00027854265345 0.00014670489207 0.00038389270983 1.1530295554e-05 2.7944432496e-05 8.5504316061e-05 6.509343341e-06 
0 0 0 0 0 0 0 0 0 
0 0.00089087932839 0.00075969748577 0 0 0 0 0 0 
0 0 0 0 0 0 0 0 0 
0 0 0 0 0 0 0 0 0 
0 0 0 0 0 0 0 0 0 
0 0 0 0 0 0 0 0 0 
0 0 0 0 0 0 0 0 0 
0 0 0 0 0 0 0.00018992554574 0 0 
0 0 0 0 0 0 0 0 0 
0 0 0 0 0 0 0 0 0 
0 0 0 0 0.00036938341451 0.00044698316438 0.00032523480204 0 0 
0 0 0.00015191207847 0 0 0 0 0 0 
0 0 0 0 0 0 0 0 0 
0.00047514616429 0.00046461096108 0.00049328671171 0 0 0 0 0 0 
0 0 0 0 0 0 0 0 0 
0 0 0 0 0 0 0 0 0 
0 0 0 0.00037607594626 0 0 0 0 0 
0 0 0 0 0 0 0 0 0 
0 0 0 0 0 0 0.00081335635017 0.0012567209271 0 
0 0 0 0 0 0.00037618298465 0.00053797342592 0.0004747693869 0.00029821417393 
0 0 0 0 0 0 0 0 0.00047060832321 
0.00046175549222 0.00034803959797 0 0 0 0 0 0 0 
0 0 0 0 0 0 0 0 0 
0 0 0 0 0 0 0 0 0 
0 0.00060351164042 0.00054474165499 0 0 0 0 0 0 
0 0 0 0.00021329053207 0.00013558389206 0 0 0 0 
0 0 0 0 0 0 0.00027817836894 0 0 
0 0.00071839733021 0.00066974742255 0.00052563704066 0.00045038566097 0.00034681808849 0 0 0.00021821019602 
6.8303700973e-05 0 0 0 0 0 0 0 0 
0 0 0 0 0 0 0 0 0 
0 0 0 0 0 0 0.001981851622 0.0027017533241 0 
0 0 0 0 0 0 0 0 0 
0 0 0 0 0 0 0 0 0 
0 0 0 0 0 0 0 0 0 
0 0 0 0 0 0 0 0 0 
0 0 0 0 0 0 0 0 0 
0 0 0 0 0 0 0 0 0 
0 0 0 0 0 0 5.7396280108e-05 7.7803272506e-06 1.0251902839e-05 
0 0 0.0007151552089 0 0 0 0 0 0 
0 0 0 0 0 0 0 0 0 
0 0 0 0 0 0 0 0 0 
0 0 0 0 0.0024775820214 0.0031821291171 0.0033176837598 0 0 
0 0 0 0 0 0 0 0 0 
0 0 0 0 0 0 0 0 0 
0 0.00038768162036 0 0 0 0 0 0 0 
0 0 0 0 0 0 0 0 0 
0 0 0 0 0 0 0 0 0 
0 0 0 0.00030458536965 0.00021506388596 0.00022425808295 0 0 0 
0 0 0 0 0 0 0 0.00042115618297 0.00027881320967 
0.00043931418568 0 0 0 0 0 0 0 0 
0 0 0 0 0.00054390765585 0 0 0 0 
0 0 0 0 0 2.4898468344e-05 0 0 0 
0 0 0 0 0 0 0 0 0 
0.00058678483821 0.00055484511128 0.00057055454237 0.00032425804141 0 0.00030839869834 0 0 0 
0 0 0 0 0 0.00076734046885 0.000564617361 0 0 
0 0 0 0 0 0 0 0 0 
0 0 0 0 0 0 0 0 0 
0 0 0 0 0 0 0 0 0 
0 0 0 0 0 0 0 0 0 
0 0 0 0 0 0 0 0 0 
0 1.5774816902e-05 9.6645048002e-05 6.2500388815e-05 6.855664542e-05 0 0 0 0 
0 0 0.00040197598027 0.00012889644399 0.00032204945023 0 0 0 0 
0 0 0 0 0 0 0 0 0 
0 0 0.00015911054835 0 0 0 0 0 0 
0 0 0 0 0 0 0 0 0 
0 0 0 0 0 0 0 8.5459388413e-06 0 
0 0 0 0 0 0 0 0 0 
0 0 0 0 0 0 0 0 0 
0 0 0 0 0 0 0 0 0 
0 0 4.0791663154e-06 0 0 0 0 0 0 
0 0 0 0 0 0 0 0 0 
0 0 1.2848950934e-05 0 0 0 0 0 0 
1.7720460062e-05 0 0 0.0022556975284 0 0 0 0 0 
0 0 0 0 0 0 0 0 0 
0.0035776301492 0 0 0 0 0 0 0 0 
0 0 0 0 0 0 0 0 0 
0.000340092387 5.2687225531e-05 8.270054079e-06 0 0 0 0 0 0 
0 0 0 0 0 0 0 0 0 
0 0 0 5.2152498718e-06 0 0 0.00044813759958 0.00012255400196 0 
0 0 0 0 0 0 0 0 0 
0 0 0 0 0.00010108868924 7.0183766846e-05 0.00021747877232 0.00015029439585 3.0516374054e-05 
0 0 0 0 0 0 3.591219283e-06 3.1159295345e-05 9.9595045543e-06 
1.4488681578e-05 8.3628319699e-06 3.5585805588e-05 0 2.872437975e-07 0 0 0 0 
0 0 0 0 0 6.0739278876e-05 4.5885913574e-05 8.2558786425e-05 0 
0 0 0 0 0 0 0 0 0 
0 0 0 0 0 0 0 0 0 
0 0 0 0 0 0 0 0 0 
0 0 0.00044905405139 0 0 0 0 0 0 
0 0 0 0 0 0 0 0 0.00030169173471 
0.00030856414071 0.00029744574615 0.00020780930437 0 0 0 0 0 0 
0 0 0 0 8.2830731723e-05 3.9653986976e-06 0 0 0 
0 0 0 0 0 5.4815173445e-06 0 0 0 
0 0 0 0 0 0.00015003945447 0 0 0 
0 0 0 0 0 0 2.8921261115e-05 3.3394345645e-05 0.00027240148252 
2.3535856014e-05 0 0 2.7974401883e-06 1.2615023008e-05 0 0 0 0 
0 0 0 0.00043565208779 0.00029400733103 0.00043918928639 0.00014826052782 0.00019078848825 0.00025375891022 
0.00025628072949 0 0 0.00041151988575 0.00025851781895 0.00023964535788 0 2.7753530429e-06 8.9105210744e-05 
0 0 0.00030527331775 0 0 0 0 0 0 
0 0 0 0 0 0.0022384859745 0.0013855159487 0.0012204494997 0 
0 0 0 0 0 0 0.00017833041825 9.7909271469e-05 0 
0 2.6366887694e-05 0 1.3501096594e-05 0 0 0 0 0 
0.0031975096958 0.0030830601713 0 0 0 0.00015370350958 0 0 0 
0 0 0 0 0.00088018197399 1.1820854562e-05 2.5061449557e-06 0 0 
0 0 8.8504073354e-05 7.8797318566e-05 0 0 0 0 0.0014306589503 
0 0 2.6738156029e-06 2.5509785797e-06 0 0 0 0 0 
0 0 0.0001224988503 0 0 0.00035565213467 0 0 0 
0 0 0 0 0.00020847583549 0 0 0 0 
0 0 0 0 0 0 0 0 0 
0 0 0 0.0041955133911 0 0 7.5124076385e-07 0 0 
0 0 0 0 0 0 0 0 0 
0 0 0 0 0 0 0 0 
Displacement%20Magnitude 1 3545 double
3.8237699251e-05 5.4197940689e-05 5.34493e-05 2.50962e-05 8.4691110028e-05 9.1075086106e-05 7.2482241058e-05 8.4692518268e-05 9.10349e-05 
7.21585e-05 4.7465241107e-05 5.2017034888e-05 5.2969245331e-05 5.3512202049e-05 4.3218943673e-05 5.0255083417e-05 5.2699475117e-05 5.3274281939e-05 
5.3851952497e-05 5.361889103e-05 4.19348e-05 4.89191e-05 5.12788e-05 5.25744e-05 3.54112e-05 4.62098e-05 5.03286e-05 
5.20381e-05 5.30781e-05 2.9768199877e-05 5.1932479923e-05 4.5894727405e-05 3.8000933821e-05 3.2889544957e-05 3.3533428679e-05 3.7005022428e-05 
4.137462521e-05 4.5859401541e-05 5.0240440236e-05 5.4544154749e-05 5.8654899787e-05 6.2487020728e-05 6.6019684142e-05 6.9267208253e-05 7.2246304519e-05 
7.4996113542e-05 7.7556919519e-05 7.9985902333e-05 8.2338933145e-05 5.3580937927e-05 4.9273216197e-05 4.2032620805e-05 3.4807157826e-05 3.2609411056e-05 
3.5069797954e-05 3.9120800514e-05 4.3616811956e-05 4.805982435e-05 5.2408989876e-05 5.6630284907e-05 6.0606619991e-05 6.4289761048e-05 6.7676858375e-05 
7.0787545083e-05 7.3647087948e-05 7.6296655522e-05 7.8784401567e-05 8.1166172383e-05 8.3512020511e-05 9.0946852773e-05 9.0575055431e-05 8.9987620753e-05 
8.9235917072e-05 8.8378742245e-05 8.7484676618e-05 8.6630701966e-05 8.587259572e-05 8.5239911381e-05 9.1041980903e-05 9.0790040532e-05 9.030477615e-05 
8.9629123341e-05 8.8815519898e-05 8.7931342222e-05 8.7048943623e-05 8.6237655648e-05 8.5541037686e-05 8.4961431645e-05 7.3150873835e-05 7.3310205883e-05 
7.3484028071e-05 7.3862458077e-05 7.4476471956e-05 7.5348997702e-05 7.6452918355e-05 7.7776568575e-05 7.9296553658e-05 8.0991783375e-05 8.2836575071e-05 
8.4803664015e-05 8.6861377674e-05 8.8970069491e-05 7.2926964516e-05 7.3238495523e-05 7.3372872257e-05 7.364161909e-05 7.4137692521e-05 7.4882787007e-05 
7.5871617917e-05 7.70886035e-05 7.8513124814e-05 8.0123976298e-05 8.1896981976e-05 8.3806568203e-05 8.5823463802e-05 8.7911812864e-05 9.0026766061e-05 
7.1796624837e-05 6.9900332571e-05 6.692606678e-05 6.3351184701e-05 5.9589829395e-05 5.6177291181e-05 4.5452048645e-05 7.2286248114e-05 7.0967712744e-05 
6.8517666526e-05 6.5176573393e-05 6.1413701041e-05 5.7878318264e-05 5.1918240092e-05 3.9242953424e-05 5.1235677303e-05 4.5293770862e-05 3.7685837112e-05 
3.3310462129e-05 3.3911751694e-05 3.7261963639e-05 4.1551759438e-05 4.5920978758e-05 5.0270153838e-05 5.4575971084e-05 5.8688774438e-05 6.252069461e-05 
6.6052451175e-05 6.9295862267e-05 7.2271656882e-05 7.5015426318e-05 7.7570933269e-05 7.9992556997e-05 8.2341827339e-05 5.2868124276e-05 4.8642463604e-05 
4.1508870185e-05 3.4894342917e-05 3.3071719741e-05 3.5385846864e-05 3.9342167221e-05 4.3730914462e-05 4.8095216488e-05 5.2438470684e-05 5.666365928e-05 
6.0641113745e-05 6.4323848055e-05 6.770838525e-05 7.0814559273e-05 7.366969176e-05 7.631334989e-05 7.879472903e-05 8.1170421955e-05 8.3513906933e-05 
8.4691214098e-05 9.0908877651e-05 9.0540970799e-05 8.9961066455e-05 8.9217221561e-05 8.8369183029e-05 8.7484379507e-05 8.663726055e-05 8.5882233374e-05 
8.5246214675e-05 9.1002224762e-05 9.0752888103e-05 9.0274296287e-05 8.960569604e-05 8.8800947863e-05 8.7926577236e-05 8.7052990696e-05 8.6246212118e-05 
8.554982607e-05 8.4964240445e-05 7.2909e-05 7.31323e-05 7.33563e-05 7.37685e-05 7.44026e-05 7.52933e-05 7.64064e-05 
7.77394e-05 7.92633e-05 8.09624e-05 8.28083e-05 8.47743e-05 8.68294e-05 8.89345e-05 7.26419e-05 7.30321e-05 
7.32223e-05 7.35325e-05 7.40554e-05 7.48187e-05 7.58208e-05 7.7047e-05 7.84784e-05 8.0093e-05 8.18684e-05 
8.3778e-05 8.57933e-05 8.78783e-05 8.99884e-05 7.1527389335e-05 6.9716792186e-05 6.6957633876e-05 6.3480084879e-05 5.9864012339e-05 
5.6857437748e-05 4.858182228e-05 7.1976457276e-05 7.074370988e-05 6.8433341684e-05 6.5247786885e-05 6.1618885513e-05 5.823070423e-05 5.472331152e-05 
3.5798967062e-05 7.2205052192e-05 9.1043821439e-05 5.3288562643e-05 3.8108385529e-05 4.7307982923e-05 5.0780643749e-05 5.2331364613e-05 3.759845403e-05 
3.1450173379e-05 4.3249370522e-05 5.3342245569e-05 5.3737325971e-05 5.3333159681e-05 5.2898018448e-05 3.9866062957e-05 4.9698614041e-05 4.7210846158e-05 
4.3801098694e-05 4.4685896555e-05 5.1849702845e-05 5.1117845824e-05 4.9503321665e-05 4.7965382829e-05 4.9783287656e-05 5.2913050802e-05 5.2463018876e-05 
5.1632216514e-05 5.0934881559e-05 5.1761304374e-05 5.2831425234e-05 5.2391985221e-05 6.2542755632e-05 7.5849020565e-05 4.7506010239e-05 6.5698502115e-05 
7.2482879309e-05 8.3261533309e-05 7.9395879927e-05 4.2026204949e-05 6.8306369177e-05 5.1780321257e-05 7.7889084378e-05 7.1100976921e-05 7.1785525804e-05 
5.930422328e-05 8.3548568477e-05 5.7726733555e-05 7.1305943895e-05 6.7051854291e-05 3.8722207886e-05 4.8355052446e-05 8.1574813145e-05 7.4786406424e-05 
8.1248253627e-05 8.7274158612e-05 5.5956657051e-05 4.3272033607e-05 6.522753508e-05 7.6120469258e-05 7.9310154243e-05 7.9492927732e-05 4.7387732804e-05 
6.1220235401e-05 8.6247183775e-05 8.3459522392e-05 7.5517921242e-05 4.609104533e-05 6.8296177419e-05 7.4447094795e-05 7.2044231159e-05 7.1551656398e-05 
6.2985737275e-05 6.6375484454e-05 7.0476366065e-05 7.4873270995e-05 5.1431034497e-05 3.8323418919e-05 6.0983917555e-05 8.4344970595e-05 7.8098156344e-05 
5.6056728781e-05 7.9615810671e-05 7.1620431726e-05 6.8553722864e-05 4.9849853432e-05 5.7660781509e-05 4.3095078249e-05 4.5452445128e-05 4.8259053725e-05 
8.2346990377e-05 7.3506503302e-05 7.6624622744e-05 7.3591441302e-05 7.1587662789e-05 5.1580193997e-05 8.6462426353e-05 3.8159892345e-05 5.5860005278e-05 
4.9092002186e-05 6.8244480134e-05 7.8268449571e-05 6.7995486796e-05 6.1758039699e-05 7.0280860068e-05 6.1995550327e-05 8.1035373827e-05 8.8145389204e-05 
8.3966464405e-05 4.2751332344e-05 5.4840925838e-05 6.4024552975e-05 7.8629497973e-05 8.870312934e-05 8.2873077073e-05 7.2981026453e-05 8.5406064295e-05 
7.2540321364e-05 6.9750626011e-05 6.3490932931e-05 6.7160177284e-05 7.5788721932e-05 7.4185525516e-05 7.9680693794e-05 7.6145733281e-05 8.1472700294e-05 
6.4076257869e-05 6.4642456248e-05 7.6700470686e-05 8.1422271758e-05 8.5513600901e-05 3.5239019096e-05 4.2407052013e-05 5.5427840892e-05 7.6808437238e-05 
8.1448730958e-05 5.9644445975e-05 7.3553441613e-05 4.10542055e-05 7.3318168834e-05 6.5675531483e-05 8.6201651407e-05 7.9893893356e-05 7.4447432631e-05 
7.8226148864e-05 4.4890562577e-05 3.9584667538e-05 5.2144247316e-05 5.1577740435e-05 6.2756470161e-05 4.725234272e-05 7.0102116289e-05 8.4155150349e-05 
6.01501963e-05 8.0926907415e-05 4.9966479187e-05 4.4066680857e-05 4.7568906696e-05 6.8356284447e-05 8.3189940149e-05 7.9114531163e-05 4.6524219512e-05 
7.4520105424e-05 6.9643050722e-05 7.3343983859e-05 7.2479580227e-05 6.8946772606e-05 5.7468126539e-05 6.0396350202e-05 7.6964546962e-05 7.0688115957e-05 
4.4251404111e-05 6.8741991782e-05 8.8050834779e-05 8.5401219708e-05 7.611958449e-05 6.6489150121e-05 8.3060259193e-05 4.8858883401e-05 8.2979514541e-05 
5.1356368538e-05 6.7013522128e-05 7.2837104349e-05 4.1530567113e-05 7.7818150263e-05 7.3113388232e-05 6.0475980179e-05 6.9543646715e-05 5.3926915766e-05 
7.4514940277e-05 4.4022617562e-05 6.5524584328e-05 4.7805321516e-05 7.2423768119e-05 7.0337239062e-05 7.2879424648e-05 4.5789494005e-05 4.9648332933e-05 
8.1593638175e-05 8.9053856925e-05 8.3929209549e-05 5.3212939921e-05 8.1774119139e-05 8.507146801e-05 5.8458038723e-05 6.4966367523e-05 5.1779560444e-05 
7.2905397878e-05 5.4171487151e-05 7.8058602589e-05 7.6948308911e-05 7.6530534727e-05 7.7799262346e-05 6.7287495739e-05 5.5890507498e-05 5.8124966576e-05 
3.6296341679e-05 6.0522002611e-05 6.2922487809e-05 7.0671718315e-05 4.8292147781e-05 3.4713278958e-05 7.9324716253e-05 8.0032983534e-05 7.3120662544e-05 
5.1420075109e-05 5.5434479208e-05 7.0945485444e-05 7.0973993037e-05 8.0478928946e-05 7.0357516073e-05 5.5914101319e-05 8.7657450977e-05 8.1223920308e-05 
6.0196991983e-05 8.4360337896e-05 8.9876962193e-05 8.3683205577e-05 5.8183196806e-05 4.2456908734e-05 4.6384618766e-05 4.5613705344e-05 5.3033160531e-05 
5.3384841428e-05 5.1807437691e-05 8.418777783e-05 8.4458754803e-05 8.3007388278e-05 9.0488219113e-05 8.9433703155e-05 9.0419226461e-05 7.2959824514e-05 
7.2719251878e-05 7.2185366714e-05 4.861512039e-05 5.0610938357e-05 4.7519891899e-05 5.115398195e-05 5.1878231925e-05 4.9210596002e-05 5.2563380073e-05 
5.2897260054e-05 5.0284663858e-05 5.1521635226e-05 7.3182904072e-05 7.3107526611e-05 7.2701888058e-05 7.3385497581e-05 7.3274087079e-05 7.2720650646e-05 
7.3111122372e-05 7.2849932453e-05 7.3690244267e-05 7.348610095e-05 7.32161132e-05 7.4172860392e-05 7.3847210019e-05 7.3446360491e-05 7.5000842167e-05 
7.4564924097e-05 7.40459392e-05 7.6193250311e-05 7.5623243268e-05 7.5106111944e-05 7.7399652543e-05 7.673487367e-05 7.6368636528e-05 7.8823341546e-05 
7.8061000637e-05 7.7594000749e-05 8.0522679657e-05 7.9674767605e-05 7.9137666199e-05 8.2159145599e-05 8.1242051542e-05 8.0728258837e-05 8.3948501308e-05 
8.297271169e-05 8.2242397836e-05 8.6562814665e-05 8.5528006936e-05 8.5275202599e-05 8.4643949515e-05 8.3706118209e-05 8.8325309221e-05 8.7270265994e-05 
8.6931792452e-05 8.8766826499e-05 7.1199162404e-05 6.9908159133e-05 7.1511222078e-05 6.8578232825e-05 6.6810787086e-05 6.867786398e-05 6.3895619678e-05 
6.169887178e-05 6.4642700127e-05 6.4243817356e-05 6.1195822677e-05 5.915620033e-05 5.7129830844e-05 5.80225419e-05 5.6205894176e-05 5.4679783159e-05 
5.4258807771e-05 5.278922246e-05 4.953506198e-05 5.1690874803e-05 4.8042608153e-05 8.9817935204e-05 9.0025601263e-05 8.8894326746e-05 8.9829944792e-05 
8.9299399341e-05 8.9070289579e-05 8.9376449384e-05 8.8617487704e-05 8.8644259117e-05 8.9029994772e-05 8.8115269807e-05 8.7416341569e-05 8.7858433122e-05 
8.72726177e-05 8.6440602959e-05 8.6900468566e-05 8.5938525497e-05 8.6009121935e-05 8.644442965e-05 8.5396042894e-05 8.4910598832e-05 8.529958839e-05 
8.4675725128e-05 8.4573342831e-05 8.4899747228e-05 8.3935473915e-05 8.3392874891e-05 8.4057897806e-05 8.3276453756e-05 5.0252902702e-05 4.7160482763e-05 
5.0132388921e-05 4.4157494522e-05 4.0313225352e-05 4.5452630288e-05 3.695798142e-05 3.4209128683e-05 3.9214414604e-05 3.3200889117e-05 3.4057777039e-05 
3.5280279619e-05 3.3687396813e-05 3.4724034474e-05 3.5696994543e-05 3.7458055612e-05 3.6325825928e-05 3.9034285045e-05 4.1144865325e-05 3.9508829878e-05 
4.4685797335e-05 4.6815167043e-05 4.3293288221e-05 4.3415095665e-05 4.6585802678e-05 4.8927284476e-05 5.0790747186e-05 5.2889042369e-05 4.9611955194e-05 
5.5998209631e-05 5.7987800903e-05 5.6123370143e-05 5.4541920803e-05 5.3145722071e-05 5.9401436929e-05 6.1290222156e-05 5.8842467685e-05 6.3714696889e-05 
6.5446302615e-05 6.3863667348e-05 6.2538663935e-05 6.1493891606e-05 6.7078778778e-05 6.8673372388e-05 6.6636341947e-05 7.0092603261e-05 7.1577481263e-05 
6.9597727034e-05 7.2869901333e-05 7.4255333621e-05 7.2268789898e-05 7.5529607681e-05 7.6831255512e-05 7.4854430988e-05 7.8694449375e-05 7.9921406094e-05 
7.9001461739e-05 7.7767493737e-05 7.7103440222e-05 8.0593857359e-05 8.1785911037e-05 8.0561315588e-05 8.2457987682e-05 5.8847502496e-05 6.1356511795e-05 
6.0161173141e-05 6.143887245e-05 5.9048112439e-05 6.2288276011e-05 6.3279124969e-05 6.407801136e-05 6.4775507434e-05 6.3049775529e-05 6.4110859818e-05 
6.5552827372e-05 7.3214121656e-05 7.4440838251e-05 7.4693131556e-05 7.6250598619e-05 7.5128724801e-05 7.5110173001e-05 7.554804402e-05 7.6237149739e-05 
7.7202581447e-05 7.6846163968e-05 7.7679896719e-05 7.7253394299e-05 7.8205544656e-05 7.3717513328e-05 4.980597677e-05 5.0881840243e-05 4.8579274191e-05 
4.7809989645e-05 4.6537585175e-05 5.1801134172e-05 4.9458386398e-05 4.7259610216e-05 4.9356682046e-05 4.3315753694e-05 4.5694124609e-05 4.5076714373e-05 
4.4226101537e-05 4.5585255521e-05 6.511385253e-05 6.6362235647e-05 6.6824466321e-05 6.8337259998e-05 6.7253100719e-05 6.45727982e-05 6.2580970035e-05 
6.3777614614e-05 6.318057443e-05 6.6394854608e-05 6.5364482743e-05 6.7909615749e-05 7.1171121907e-05 7.0693447686e-05 7.1993183134e-05 7.2950339283e-05 
7.3395430332e-05 6.9982038213e-05 7.1420458239e-05 7.2637945257e-05 7.1601328968e-05 7.4333526674e-05 7.3533892502e-05 7.3720583741e-05 8.1630255408e-05 
8.2112593924e-05 8.2824317369e-05 8.3807918683e-05 8.3366506269e-05 8.1219486e-05 8.2356812483e-05 8.2346293983e-05 8.324185331e-05 8.4206448883e-05 
8.5304242309e-05 8.4390092121e-05 8.4950208037e-05 8.4128001165e-05 7.8799189421e-05 7.9644558474e-05 8.020861269e-05 8.1305541248e-05 8.0502605213e-05 
8.0273841006e-05 7.9237242376e-05 8.040977137e-05 8.1497820985e-05 7.7501214382e-05 7.8114562367e-05 7.7961578435e-05 4.3278628804e-05 4.3888295742e-05 
4.2300826762e-05 4.1224556877e-05 4.0801855888e-05 4.3067751888e-05 4.4540574084e-05 3.9860115441e-05 4.1316564299e-05 4.3526219826e-05 4.2596225993e-05 
4.2808276529e-05 6.6620845807e-05 6.8589635719e-05 6.632034045e-05 6.7386597477e-05 6.5280386368e-05 6.9571678332e-05 7.0148758988e-05 6.8991773731e-05 
6.8163060944e-05 6.9867640719e-05 4.9686079788e-05 4.8628987608e-05 5.0716938593e-05 5.1904460688e-05 5.2770692194e-05 5.4980980966e-05 5.2920167962e-05 
5.3849132262e-05 5.3610704575e-05 5.5611005557e-05 5.0648109483e-05 4.8531955387e-05 5.4660088739e-05 5.1939071299e-05 7.88905131e-05 7.7975131441e-05 
7.8768839123e-05 7.8623290496e-05 7.9506029663e-05 7.7016824306e-05 7.7862441745e-05 7.7003556778e-05 7.7235019372e-05 7.632788035e-05 7.8552281076e-05 
7.728646776e-05 7.2008237669e-05 7.3089443906e-05 7.2214277369e-05 7.1856392795e-05 7.071103338e-05 6.9325758184e-05 7.0704306311e-05 6.9746525994e-05 
6.9360405634e-05 7.1633964311e-05 7.3370973475e-05 7.2455408756e-05 7.282930554e-05 7.2106662985e-05 7.3053781856e-05 7.2402125556e-05 7.1647218212e-05 
7.056648183e-05 7.0740921629e-05 7.0105111247e-05 7.123255993e-05 7.1626974185e-05 6.2410035437e-05 6.1128696678e-05 6.0509840399e-05 5.7627797755e-05 
5.8915862827e-05 6.1835062335e-05 5.9398557221e-05 6.175441353e-05 6.3451970034e-05 5.7798361414e-05 5.7563354859e-05 5.5825175993e-05 8.4471344996e-05 
8.5015903177e-05 8.3857163141e-05 8.5305436445e-05 8.3261646448e-05 8.2009439014e-05 8.2304890682e-05 8.1402804759e-05 8.2659312021e-05 8.4198555837e-05 
8.297951605e-05 6.1073272266e-05 5.9115312486e-05 5.9763701069e-05 5.8040991922e-05 6.0132304449e-05 5.4408292341e-05 5.5967478828e-05 5.6254702883e-05 
5.7885569581e-05 5.650614474e-05 5.9297369411e-05 5.6336898222e-05 6.9145524036e-05 7.0749357803e-05 6.9694925065e-05 7.0041244371e-05 7.2072998957e-05 
7.2928515682e-05 7.2121757283e-05 7.1989958221e-05 7.1125106738e-05 7.3606133762e-05 6.9877838613e-05 6.8718951371e-05 6.7481254453e-05 6.5840932542e-05 
6.8431974091e-05 6.7144678354e-05 6.8557501038e-05 6.4295977743e-05 6.5599054323e-05 6.5727058288e-05 3.8960310922e-05 4.0900456177e-05 4.3415737025e-05 
4.1313778647e-05 4.0574922821e-05 4.0329172375e-05 3.8068051916e-05 3.6573865974e-05 3.7436582365e-05 3.6827414924e-05 4.6477191506e-05 4.554393759e-05 
4.7650389198e-05 4.5015155778e-05 4.6452862565e-05 4.8133285736e-05 5.0563458417e-05 5.0445070122e-05 5.1643111545e-05 5.3344170853e-05 4.9967035605e-05 
4.9420599055e-05 8.37935779e-05 8.2371334658e-05 8.29525923e-05 8.2360514342e-05 8.0537069867e-05 8.1552146135e-05 8.0571010459e-05 8.0437621634e-05 
7.9493998621e-05 8.1552048749e-05 8.0562163684e-05 8.0658821957e-05 7.4135377187e-05 7.2574901765e-05 7.3227734749e-05 7.2439507052e-05 7.4032807289e-05 
7.5089131481e-05 7.5783656667e-05 7.6850792099e-05 7.5877636992e-05 7.5421675668e-05 7.6498973066e-05 8.0561141793e-05 7.9689225306e-05 7.8586626393e-05 
8.0179661851e-05 8.1308740924e-05 8.2700724569e-05 8.2601929482e-05 8.2596954726e-05 8.2058884968e-05 8.2044948192e-05 8.1213370062e-05 8.6828751001e-05 
8.642991776e-05 8.772844683e-05 8.816378608e-05 8.8000936003e-05 8.7503813845e-05 8.8186277018e-05 8.6172681107e-05 8.5674387019e-05 8.6751158603e-05 
5.4057041913e-05 5.2870646654e-05 5.48538579e-05 5.8104029566e-05 5.6750447906e-05 5.5822385415e-05 5.9830750748e-05 5.7755260745e-05 5.5823785293e-05 
5.3975103344e-05 4.2123336467e-05 4.4279163236e-05 4.54022987e-05 4.6398177389e-05 4.2858045371e-05 4.0711779479e-05 4.4455307922e-05 4.6627061638e-05 
6.2205962002e-05 6.431095008e-05 6.3153979803e-05 6.398095369e-05 6.1843391901e-05 6.6820094636e-05 6.823574191e-05 6.6698556634e-05 6.5020341956e-05 
6.6147549452e-05 6.7703485349e-05 7.6612994333e-05 7.7238148229e-05 7.8092232865e-05 7.6938263037e-05 7.5175692521e-05 7.5117791721e-05 7.5962593421e-05 
7.5389864631e-05 7.6143028301e-05 7.5328984153e-05 7.8764585842e-05 8.0162866145e-05 8.0554376848e-05 7.8017465558e-05 7.8954188797e-05 7.9552933032e-05 
7.9900915215e-05 7.7444382387e-05 8.1121699152e-05 8.0200391618e-05 7.9802139962e-05 7.9073876774e-05 7.8662467256e-05 8.0503113584e-05 7.9598413737e-05 
7.876366643e-05 7.7933224705e-05 4.634096437e-05 4.543250741e-05 4.8319428501e-05 4.9568292459e-05 4.4199087881e-05 4.1898329983e-05 4.5147756601e-05 
4.7963544184e-05 4.9720166589e-05 6.2971539279e-05 6.1418863527e-05 5.9827471128e-05 6.2634144829e-05 6.0770384562e-05 5.9729591529e-05 5.9274464587e-05 
5.8271541288e-05 8.5212052695e-05 8.6362520304e-05 8.7148987999e-05 8.588671709e-05 8.7220266635e-05 8.5301149077e-05 8.4263860569e-05 8.2441737315e-05 
8.3699117661e-05 8.4432718113e-05 8.4433730842e-05 8.3213578896e-05 8.2529934615e-05 8.2287570004e-05 7.6098635363e-05 7.4492476767e-05 7.4227194365e-05 
7.3187158294e-05 7.688775585e-05 7.4411375637e-05 7.6141546306e-05 4.7546663173e-05 4.9274348124e-05 4.6807604522e-05 4.6108524346e-05 4.509954855e-05 
4.4953903023e-05 4.6981080265e-05 4.7470259973e-05 4.715755716e-05 6.9004962244e-05 7.0044596084e-05 6.8906810738e-05 6.7776972884e-05 6.7736795916e-05 
6.7011616078e-05 6.69576995e-05 6.6414540807e-05 7.4327749856e-05 7.5148155352e-05 7.4500841486e-05 7.3608849478e-05 7.3807669712e-05 7.3944202176e-05 
7.1403912469e-05 7.1737317502e-05 7.2280221186e-05 7.2668480534e-05 7.0968690782e-05 7.1380241622e-05 7.015658334e-05 7.2956874265e-05 7.2215798504e-05 
7.2787288479e-05 7.1117007998e-05 7.2091121587e-05 7.2336354751e-05 7.2094037012e-05 7.0871687281e-05 7.0384381787e-05 6.950091975e-05 6.1364479758e-05 
6.3428995961e-05 6.480216663e-05 6.1532813449e-05 6.4357076786e-05 6.6022515686e-05 6.661750906e-05 6.4291126414e-05 6.4699756798e-05 6.7726030493e-05 
6.5136791089e-05 6.8387261884e-05 7.1747965048e-05 7.200939459e-05 7.194712009e-05 7.0378162639e-05 7.071225783e-05 6.9602448555e-05 6.8844358015e-05 
6.8773201532e-05 7.4675812778e-05 7.5540439488e-05 7.5700493801e-05 7.3879413468e-05 7.4656110245e-05 7.5533819534e-05 5.2780162806e-05 5.313688419e-05 
5.138485675e-05 4.8659982562e-05 5.0514697137e-05 4.9621752744e-05 3.862348677e-05 3.6504204333e-05 3.7293637876e-05 4.0000338806e-05 3.9943473967e-05 
6.0680157352e-05 6.2008125811e-05 6.0545601768e-05 5.7746772024e-05 5.9565859546e-05 5.9242427932e-05 8.4715873164e-05 7.7520704472e-05 7.8035584852e-05 
5.8223224077e-05 5.9093684035e-05 5.5902436926e-05 5.3857170484e-05 5.5655865652e-05 5.3824430631e-05 7.8732675379e-05 7.8925778775e-05 7.9850591103e-05 
7.1251495642e-05 6.9962828743e-05 6.928434336e-05 7.0976119809e-05 6.7558308695e-05 6.715197432e-05 6.9041063713e-05 6.9087096069e-05 6.9672927807e-05 
5.7865595057e-05 5.6516503483e-05 5.6826529427e-05 4.7551888262e-05 8.2065514532e-05 8.324892452e-05 8.1421794598e-05 8.070853186e-05 7.6571682329e-05 
7.7359843106e-05 5.3736309078e-05 5.1578959269e-05 5.3685869665e-05 5.7171774701e-05 5.7009219595e-05 5.307259583e-05 8.3512821082e-05 4.8817632653e-05 
4.1583391511e-05 3.4861031949e-05 3.3006472117e-05 3.5342401732e-05 4.3726655821e-05 3.9297706233e-05 4.8087687107e-05 5.2433299459e-05 5.6657115699e-05 
6.063333198e-05 6.4317706733e-05 6.7702997408e-05 7.0808589522e-05 7.3665236031e-05 7.6305877767e-05 7.8794994404e-05 8.116757049e-05 5.3732071537e-05 
5.3351112611e-05 5.2588918009e-05 5.2225564205e-05 8.4102122294e-05 8.4100897145e-05 8.2925496145e-05 8.2926834637e-05 4.740399123e-05 5.0437062703e-05 
5.1406889062e-05 5.0094547631e-05 3.9771316585e-05 4.3743246172e-05 4.7087787345e-05 4.5448406094e-05 4.3453036501e-05 3.373664598e-05 3.6211731057e-05 
3.9573562837e-05 3.7798580123e-05 3.6179984876e-05 3.3185365218e-05 3.2769146125e-05 3.3879744253e-05 3.3172071882e-05 3.3008898338e-05 3.6140295474e-05 
3.4406581911e-05 3.3370884744e-05 3.3825664367e-05 3.4583021856e-05 4.0334476724e-05 3.815101515e-05 3.6277350593e-05 3.7191427857e-05 3.8265248531e-05 
4.4788686192e-05 4.2572794531e-05 4.2642719078e-05 4.1503598992e-05 4.0428624529e-05 4.916370993e-05 4.6988711859e-05 4.4828839628e-05 4.5906930196e-05 
4.7007723619e-05 5.3495991643e-05 5.1341241263e-05 4.9179884053e-05 5.0262997058e-05 5.1355812678e-05 5.766649324e-05 5.5610166527e-05 5.3511137992e-05 
5.4569055175e-05 5.5625529857e-05 6.1571918615e-05 5.9655259345e-05 5.7682981082e-05 5.8680545491e-05 5.9672359539e-05 6.5179691038e-05 6.3413989224e-05 
6.158793451e-05 6.251289303e-05 6.3429898249e-05 6.8494565008e-05 6.6871934714e-05 6.5196044707e-05 6.604495706e-05 6.6887730147e-05 7.1535809473e-05 
7.0047752234e-05 6.8509092386e-05 6.9288269765e-05 7.0061482828e-05 7.4337888204e-05 7.2964425302e-05 7.1549165259e-05 7.22656017e-05 7.2976507364e-05 
7.693628928e-05 7.5659034822e-05 7.434791032e-05 7.5010820638e-05 7.5667863993e-05 7.9392342073e-05 7.8180752383e-05 7.6944184371e-05 7.7567189187e-05 
7.8187049933e-05 8.1753796723e-05 8.0578924876e-05 7.939679321e-05 7.9989995369e-05 8.0581769436e-05 8.2340876834e-05 8.1755842922e-05 6.2521840272e-05 
7.5840891291e-05 4.7551015446e-05 6.5702086081e-05 7.2449385495e-05 8.3241122544e-05 7.9398044071e-05 4.2485096579e-05 6.8214713714e-05 5.1804041615e-05 
7.7863053385e-05 7.111130409e-05 7.1720184503e-05 5.9308046085e-05 8.3538620503e-05 5.7744387242e-05 7.129321266e-05 6.7032253082e-05 3.8902143726e-05 
4.8502376525e-05 8.1549323052e-05 7.4800333544e-05 8.1255219602e-05 8.7244601829e-05 5.5963910542e-05 4.3393100869e-05 6.5246807629e-05 7.6084400234e-05 
7.930375066e-05 7.9472649034e-05 4.6600291234e-05 6.121890234e-05 8.6226875011e-05 8.3460702717e-05 7.5520502253e-05 4.7310205645e-05 6.8257231945e-05 
7.439600022e-05 7.1936700095e-05 7.1387551253e-05 6.2948034997e-05 6.6283347347e-05 7.0476368159e-05 7.4847681372e-05 5.1460547718e-05 3.833272406e-05 
6.1007490101e-05 8.4317850275e-05 7.8109627217e-05 5.6152675862e-05 7.9587217642e-05 7.1639821964e-05 6.8490744733e-05 4.9884970725e-05 5.7660431152e-05 
4.3240869088e-05 4.554790786e-05 4.8692624985e-05 8.2332076726e-05 7.3505621293e-05 7.660550973e-05 7.3512968528e-05 7.1541414699e-05 5.1626904001e-05 
8.6448370452e-05 3.8414374678e-05 5.5873681603e-05 4.7915374837e-05 6.8269427399e-05 7.8234400165e-05 6.7985413989e-05 6.1763281135e-05 7.0257371024e-05 
6.2022141681e-05 8.1030763878e-05 8.8118148759e-05 8.3972824395e-05 4.2851206084e-05 5.4866229841e-05 6.3969584955e-05 7.8617137806e-05 8.8668750611e-05 
8.2878225998e-05 7.2972017296e-05 8.5401777578e-05 7.2388898814e-05 6.9718488543e-05 6.3503514711e-05 6.7167221854e-05 7.5741005627e-05 7.4141507188e-05 
7.965702981e-05 7.6115761747e-05 8.1451942867e-05 6.4059918449e-05 6.4636979157e-05 7.6695745776e-05 8.1426206219e-05 8.5489734721e-05 3.5459836337e-05 
4.1945706801e-05 5.5581403578e-05 7.6814246138e-05 8.1420311352e-05 5.9629215592e-05 7.3574414225e-05 4.1270146723e-05 7.3327770999e-05 6.5633180641e-05 
8.617170428e-05 7.9902346258e-05 7.4430392544e-05 7.8226174743e-05 4.5187422691e-05 3.9873301571e-05 5.2171187854e-05 5.0745503385e-05 6.2786068792e-05 
4.7320542e-05 6.9928817417e-05 8.4140227356e-05 6.0132322687e-05 8.0911140738e-05 5.1580527722e-05 4.4115412965e-05 4.7616980232e-05 6.8371847682e-05 
8.3165929689e-05 7.9120909623e-05 4.6974771932e-05 7.44561e-05 6.9555876993e-05 7.3243465987e-05 7.2240902946e-05 6.8823650196e-05 5.7499219325e-05 
6.0389557476e-05 7.6923401942e-05 7.0565998248e-05 4.4930909027e-05 6.8740027549e-05 8.80287929e-05 8.5403601444e-05 7.6135795607e-05 6.6426893617e-05 
8.3032717611e-05 4.694980706e-05 8.2975660773e-05 5.0172523226e-05 6.6929489399e-05 7.2813657893e-05 4.1489246122e-05 7.7786417706e-05 7.3055864362e-05 
6.0492448093e-05 6.9488618421e-05 5.3939852464e-05 7.4481364068e-05 4.4085381494e-05 6.5495937789e-05 4.7861361194e-05 7.2341657199e-05 7.0343939974e-05 
7.2679389464e-05 4.584870806e-05 4.9683696849e-05 8.1593488145e-05 8.9021156036e-05 8.3936573304e-05 5.3529265926e-05 8.17639994e-05 8.5045286357e-05 
5.8467918793e-05 6.4997864299e-05 5.1867412212e-05 7.291118767e-05 5.4190659137e-05 7.8037767412e-05 7.6959079963e-05 7.6506832798e-05 7.7784068269e-05 
6.726101181e-05 5.5906684957e-05 5.8146944006e-05 3.6140131877e-05 6.0615581341e-05 6.2885631105e-05 7.0597415362e-05 4.7619002154e-05 3.5129683362e-05 
7.9297692855e-05 8.0002402372e-05 7.2993659592e-05 5.1449934223e-05 5.5444737942e-05 7.0970624558e-05 7.0967809305e-05 8.046687809e-05 7.0374058983e-05 
5.5956966667e-05 8.7624601449e-05 8.1228819436e-05 6.0229659643e-05 8.434129395e-05 8.9839652715e-05 8.3686255956e-05 5.8186256739e-05 5.2624555634e-05 
5.2131100068e-05 5.1070445716e-05 3.8512815358e-05 4.7696067179e-05 4.2937230749e-05 8.44634966e-05 8.4189623285e-05 8.3009759694e-05 9.0449223166e-05 
9.038128104e-05 8.9396608425e-05 7.1928412233e-05 7.2438796509e-05 7.2713206417e-05 6.9742080927e-05 7.0986340363e-05 7.1303573346e-05 6.6780649915e-05 
6.8478531858e-05 6.8532040162e-05 6.1834154623e-05 6.3950163955e-05 6.4240389697e-05 6.4602447922e-05 6.1242388905e-05 5.733331133e-05 5.9333858456e-05 
5.8153702594e-05 5.5157297315e-05 5.6480574183e-05 5.4469782315e-05 5.2495966467e-05 5.3988333426e-05 5.2393217722e-05 5.0290283443e-05 8.9989928731e-05 
8.9784092026e-05 8.9793482334e-05 8.8861223487e-05 8.9263361336e-05 8.9345770023e-05 8.9042769762e-05 8.8587323332e-05 8.9005407296e-05 8.862358161e-05 
8.8090322221e-05 8.7841922659e-05 8.7404102011e-05 8.7254031515e-05 8.6893805987e-05 8.6437973296e-05 8.5930213477e-05 8.6445769894e-05 8.6013791373e-05 
8.5394881832e-05 8.5305690247e-05 8.4918375621e-05 8.4679755191e-05 8.490863641e-05 8.4580701582e-05 8.3942421562e-05 8.4063846664e-05 8.3399638813e-05 
8.3280706471e-05 4.7739387745e-05 4.5078470077e-05 4.6438281099e-05 5.0116641983e-05 4.8999861504e-05 4.779699308e-05 5.1785347872e-05 5.1107460096e-05 
4.9053074767e-05 5.0501943749e-05 4.6535617435e-05 4.9577620911e-05 4.9380596702e-05 3.9875557659e-05 4.3586606061e-05 4.4860658576e-05 3.4288741479e-05 
3.6715461542e-05 3.8885514601e-05 3.4471895219e-05 3.3656214021e-05 3.3970528598e-05 3.5280715202e-05 3.5093004626e-05 3.7746092823e-05 3.6043629559e-05 
3.6649409567e-05 4.1344448919e-05 3.928504618e-05 3.9741818897e-05 4.6873373542e-05 4.4785878098e-05 4.3549988334e-05 4.3422487161e-05 4.6660076233e-05 
4.8965856354e-05 5.2919147035e-05 5.0822135186e-05 4.9651631811e-05 5.8021319468e-05 5.6030564803e-05 5.4571342994e-05 5.6150539582e-05 5.3173281137e-05 
6.1325509798e-05 5.9434611397e-05 5.8874778079e-05 6.5479488318e-05 6.3749266627e-05 6.2573282882e-05 6.389413295e-05 6.1525752524e-05 6.8702582218e-05 
6.7109562864e-05 6.6663322599e-05 7.1603570283e-05 7.0119546009e-05 6.9624407131e-05 7.427656247e-05 7.2892746474e-05 7.2292634418e-05 7.6846755078e-05 
7.5548106031e-05 7.4873076673e-05 7.9929512976e-05 7.8704941947e-05 7.7779757601e-05 7.9011363501e-05 7.7116992869e-05 8.1789260335e-05 8.0599978662e-05 
8.0568600163e-05 8.2461634002e-05 7.288556304e-05 7.2994060878e-05 7.2481180016e-05 7.3125347185e-05 7.3257997934e-05 7.2947779512e-05 7.2548272599e-05 
7.2711961154e-05 7.3372822722e-05 7.3593845582e-05 7.3102404032e-05 7.3761527635e-05 7.409660477e-05 7.3358450704e-05 7.4497000116e-05 7.4939900444e-05 
7.3973708894e-05 7.5571802121e-05 7.6146901816e-05 7.5053003042e-05 7.669160082e-05 7.7359800334e-05 7.6323403702e-05 7.8025000054e-05 7.8789700133e-05 
7.7557500452e-05 7.964300034e-05 8.0492600859e-05 7.9105401358e-05 8.1212702344e-05 8.2130703238e-05 8.0699105994e-05 8.2944304123e-05 8.3920003814e-05 
8.2214815007e-05 8.5498402636e-05 8.6531900419e-05 8.4615610035e-05 8.5247020708e-05 8.3678733891e-05 8.7238200045e-05 8.8290701872e-05 8.6900400062e-05 
8.8731615465e-05 6.014852672e-05 6.1336579501e-05 5.8837984871e-05 5.9044184941e-05 6.1425397354e-05 6.3262623072e-05 6.2277746929e-05 6.475286965e-05 
6.4054077469e-05 6.4082408336e-05 6.3021668297e-05 6.5517687389e-05 7.4685843812e-05 7.4430883433e-05 7.3210862364e-05 7.5126730003e-05 7.624195318e-05 
7.6224976195e-05 7.5530466591e-05 7.5096217045e-05 7.6834412785e-05 7.7185773907e-05 7.7242162504e-05 7.7670958359e-05 7.8191763922e-05 7.3706037516e-05 
4.8619197654e-05 5.0911384444e-05 4.984162118e-05 4.658790112e-05 4.7856136557e-05 4.9501028379e-05 5.1836336773e-05 4.9416282495e-05 4.731231996e-05 
4.5134048557e-05 4.5746402457e-05 4.3386372613e-05 4.4301201955e-05 4.5647605905e-05 6.6822395719e-05 6.6353699964e-05 6.5111896351e-05 6.7252100139e-05 
6.8330832591e-05 6.3780132205e-05 6.2591423558e-05 6.4579065829e-05 6.3182560122e-05 6.537598067e-05 6.6401329631e-05 6.7910715552e-05 7.1953991569e-05 
7.0658065979e-05 7.1137494968e-05 7.3357487154e-05 7.290609279e-05 7.1394480685e-05 6.995492095e-05 7.1575767919e-05 7.2610465703e-05 7.350035812e-05 
7.4295722529e-05 7.3691785787e-05 8.2805904066e-05 8.2094865088e-05 8.1615212289e-05 8.3349637705e-05 8.3787834912e-05 8.2335318527e-05 8.1199466672e-05 
8.321938774e-05 8.2323465462e-05 8.4367957118e-05 8.5279012305e-05 8.4183161139e-05 8.4929005889e-05 8.4103159017e-05 8.0208891817e-05 7.9642814399e-05 
7.8799316768e-05 8.0503222564e-05 8.1304057654e-05 8.0412918423e-05 7.9242515748e-05 8.0278312212e-05 8.1499810619e-05 7.8118653293e-05 7.7503876995e-05 
7.7967964707e-05 4.2596330101e-05 4.4093394094e-05 4.3682157928e-05 4.1170735704e-05 4.1441934515e-05 4.4996519613e-05 4.363555351e-05 4.1570655136e-05 
4.0111198382e-05 4.2984165102e-05 4.4104229103e-05 4.2846816807e-05 6.6246435827e-05 6.8480901269e-05 6.6535672788e-05 6.5220854697e-05 6.7310116548e-05 
6.8902434093e-05 7.0046286184e-05 6.9469259471e-05 6.8087512883e-05 6.9743646426e-05 5.0742495578e-05 4.8666187269e-05 4.9720414088e-05 5.2790636486e-05 
5.1928533392e-05 5.3865755361e-05 5.2941537051e-05 5.4996752124e-05 5.5622402713e-05 5.3627603606e-05 4.8576075598e-05 5.0677126319e-05 5.4671730016e-05 
5.196354409e-05 7.8743737728e-05 7.7951644116e-05 7.8869270415e-05 7.9480684243e-05 7.8596318478e-05 7.6975300472e-05 7.7834160654e-05 7.6987131335e-05 
7.630108812e-05 7.7211058679e-05 7.8523647297e-05 7.7263645147e-05 7.2224005204e-05 7.3097286671e-05 7.2016497937e-05 7.0725118414e-05 7.1869083356e-05 
6.9759642107e-05 7.0712566652e-05 6.93379982e-05 6.9376367525e-05 7.1640348989e-05 7.2759158102e-05 7.2392561872e-05 7.3307362987e-05 7.297127757e-05 
7.2035619901e-05 7.1592782602e-05 7.235110123e-05 7.0679811384e-05 7.0515015926e-05 7.1162559185e-05 7.0040719176e-05 7.1549143665e-05 6.0504779501e-05 
6.1110331053e-05 6.2396202006e-05 5.8944060241e-05 5.7650704451e-05 6.1724976282e-05 5.9389859739e-05 6.1802263686e-05 6.3403708898e-05 5.7572669215e-05 
5.7799048426e-05 5.585411964e-05 8.5004899446e-05 8.4463753426e-05 8.5290271228e-05 8.384547876e-05 8.2297169871e-05 8.2005158478e-05 8.3255545116e-05 
8.2649475473e-05 8.1395088109e-05 8.4194030879e-05 8.2966354167e-05 5.9774858431e-05 5.9132286258e-05 6.1084337476e-05 6.0140606553e-05 5.8053203045e-05 
5.6275439222e-05 5.5985942236e-05 5.4430005788e-05 5.6530247808e-05 5.7905026775e-05 5.9317269744e-05 5.6351352046e-05 6.9682380688e-05 7.0734132201e-05 
6.9131400839e-05 7.0034561239e-05 7.2054723966e-05 7.2109878224e-05 7.2912297249e-05 7.1115996829e-05 7.1981915544e-05 7.3585616333e-05 6.9873175435e-05 
6.7465894614e-05 6.8696933188e-05 6.5830556327e-05 6.8408260365e-05 6.852796341e-05 6.7121177804e-05 6.5582527529e-05 6.4284033e-05 6.5705132571e-05 
4.1057997388e-05 3.9188384145e-05 4.1440371785e-05 4.3512377486e-05 3.8320018598e-05 4.0511532415e-05 4.0716558701e-05 3.6860334976e-05 3.7037640072e-05 
3.7689674045e-05 4.5671477315e-05 4.6686349034e-05 4.5114623793e-05 4.7743234634e-05 4.8382499642e-05 4.6806918122e-05 5.0665621372e-05 5.09424158e-05 
5.1823721114e-05 5.0084663165e-05 5.3474087038e-05 4.9499162567e-05 8.2925793162e-05 8.2345880237e-05 8.3768115394e-05 8.2333654398e-05 8.0543957423e-05 
8.1525144911e-05 8.0508316212e-05 7.946524277e-05 8.0411714066e-05 8.0634206794e-05 8.0539346181e-05 8.152797263e-05 7.3243580891e-05 7.2594187176e-05 
7.4154059867e-05 7.4043716643e-05 7.2455506559e-05 7.5793233689e-05 7.5098449728e-05 7.5890279115e-05 7.6859179301e-05 7.5437335971e-05 7.6512762437e-05 
7.969662024e-05 8.0568767998e-05 8.01868703e-05 7.859566838e-05 8.2608124653e-05 8.2705508836e-05 8.1315137851e-05 8.2603035333e-05 8.206512548e-05 
8.1220528195e-05 8.2049780707e-05 8.7699032171e-05 8.6402815146e-05 8.6803202194e-05 8.8132156823e-05 8.7969022892e-05 8.8152611836e-05 8.7471803025e-05 
8.6145119463e-05 8.6720601089e-05 8.5646424395e-05 5.2888761285e-05 5.4074318262e-05 5.4863562325e-05 5.675275667e-05 5.8096097073e-05 5.5827676871e-05 
5.7749047636e-05 5.9815339359e-05 5.5831654585e-05 5.3996503799e-05 4.439224562e-05 4.2285436906e-05 4.6468213339e-05 4.5481731245e-05 4.0904003682e-05 
4.2959603433e-05 4.4539864214e-05 4.6679243178e-05 6.3177376373e-05 6.4326304192e-05 6.2226740626e-05 6.1870135321e-05 6.4006643958e-05 6.6723540607e-05 
6.8257033554e-05 6.6837042172e-05 6.5047240155e-05 6.6163703688e-05 6.7718080355e-05 7.7201000082e-05 7.6574702263e-05 7.6903502484e-05 7.8059902751e-05 
7.5922304288e-05 7.5073002592e-05 7.5134300041e-05 7.5352106018e-05 7.6108207842e-05 7.5297656775e-05 8.0158050243e-05 7.8759846673e-05 8.054617512e-05 
7.8944842313e-05 7.8011758475e-05 7.9891042563e-05 7.9540824113e-05 7.7441708798e-05 8.1110810516e-05 7.9059506653e-05 7.9787686404e-05 8.0181913226e-05 
7.8645885708e-05 7.9577741727e-05 8.0483704107e-05 7.8743202887e-05 7.7914053555e-05 4.7382979473e-05 4.4952365727e-05 4.5939525745e-05 4.8605470312e-05 
4.4590426783e-05 4.1610421149e-05 4.3807199958e-05 4.7250338875e-05 4.8859347664e-05 6.1422972123e-05 6.2966737999e-05 5.983080487e-05 6.2627090282e-05 
6.0765474279e-05 5.9273612094e-05 5.9729488741e-05 5.8278308481e-05 8.6344272464e-05 8.51947477e-05 8.7127907422e-05 8.7196008383e-05 8.5865117665e-05 
8.5281416657e-05 8.4246423425e-05 8.3703220378e-05 8.2443608899e-05 8.4434490968e-05 8.4431393751e-05 8.3212483167e-05 8.2530250569e-05 8.2285523112e-05 
7.4493162247e-05 7.6097709534e-05 7.3187856563e-05 7.4231289077e-05 7.6888818196e-05 7.6145825734e-05 7.4417817197e-05 4.7801202856e-05 5.003598076e-05 
4.9208281803e-05 4.6078380172e-05 4.6652047261e-05 4.6642435855e-05 4.5498386272e-05 4.7326843471e-05 4.8213650679e-05 7.0001945609e-05 6.8967882374e-05 
6.8863201001e-05 6.774426666e-05 6.6969032129e-05 6.7688206437e-05 6.6924413252e-05 6.6387252632e-05 7.5097004417e-05 7.4282300275e-05 7.4445600194e-05 
7.3752207161e-05 7.3560617146e-05 7.3886105933e-05 7.2153161042e-05 7.1602621384e-05 7.1289891854e-05 7.2555078042e-05 7.0876125065e-05 7.0075637366e-05 
7.129361354e-05 7.268673392e-05 7.2120174918e-05 7.2862424742e-05 7.1933359084e-05 7.0974051594e-05 7.2149175959e-05 7.0695840324e-05 7.1886209205e-05 
6.935182541e-05 7.0240251001e-05 6.3383586737e-05 6.1335860684e-05 6.475333092e-05 6.1510812422e-05 6.4315546062e-05 6.5974623574e-05 6.4248422497e-05 
6.6539047868e-05 6.4640166578e-05 6.5066846757e-05 6.7617610871e-05 6.8261707764e-05 7.2008869534e-05 7.1743772158e-05 7.0381404911e-05 7.1948462742e-05 
7.0710013375e-05 6.8846318838e-05 6.9602017819e-05 6.8780285611e-05 7.5512465011e-05 7.4647571335e-05 7.5675996655e-05 7.4633787641e-05 7.3854653781e-05 
7.5512505126e-05 5.3163298102e-05 5.2803230548e-05 5.141483425e-05 4.9662147204e-05 5.0546492787e-05 4.870552512e-05 3.6648404463e-05 3.8841903067e-05 
3.722469858e-05 3.9705589731e-05 3.9982302564e-05 6.2023263252e-05 6.06999525e-05 6.0573606933e-05 5.9269215471e-05 5.9587962829e-05 5.7773878786e-05 
8.4689169909e-05 7.8044066782e-05 7.75318238e-05 5.9152413803e-05 5.8316527138e-05 5.5966363537e-05 5.5787841683e-05 5.3946433299e-05 5.3889840473e-05 
7.8894104055e-05 7.8701618081e-05 7.9820607486e-05 6.9984478169e-05 7.1275549695e-05 7.0995085126e-05 6.9305041896e-05 6.7101777777e-05 6.7494591823e-05 
6.8981098932e-05 6.9012092651e-05 6.9603801469e-05 5.7868192172e-05 5.6521491644e-05 5.6833556039e-05 4.7610273513e-05 8.3234156567e-05 8.2052696857e-05 
8.0694420991e-05 8.1408518074e-05 7.6550120544e-05 7.7339773315e-05 5.3769094233e-05 5.164315916e-05 5.3732082801e-05 5.7183921638e-05 5.7017347249e-05 
6.521937668e-05 6.16134336e-05 6.8455902488e-05 7.0812478396e-05 7.2060761845e-05 5.8113074153e-05 5.4375406969e-05 3.706809707e-05 2.9982788345e-05 
3.5308324679e-05 4.2137072949e-05 4.2722837909e-05 7.2284113261e-05 7.2130377828e-05 7.1940817371e-05 7.1807838737e-05 7.1195603578e-05 7.0281530725e-05 
7.1584253049e-05 6.7724332941e-05 6.9106644779e-05 6.9757334979e-05 6.4355515754e-05 6.6103999786e-05 6.69373805e-05 6.2550086622e-05 6.0718305221e-05 
6.3432251107e-05 5.8991473245e-05 5.7469512059e-05 5.9764706098e-05 5.612627008e-05 5.2404083895e-05 5.6759441566e-05 4.7515302717e-05 7.0383414913e-05 
7.1317573554e-05 6.9184413927e-05 6.7730208551e-05 6.6079232084e-05 6.4318647521e-05 6.0599685646e-05 6.247175685e-05 5.7297384752e-05 5.8816594796e-05 
5.0629993372e-05 5.5414821032e-05 9.1012238904e-05 9.0762546534e-05 9.0282776071e-05 8.9611657165e-05 8.7927727575e-05 8.7052053137e-05 8.6243319711e-05 
8.4963127876e-05 8.880329749e-05 8.5546838464e-05 8.4826503216e-05 8.4827546686e-05 8.5100339898e-05 9.1028886398e-05 9.1048825784e-05 9.0984635492e-05 
8.510289116e-05 9.0965426929e-05 9.0656110325e-05 9.0841059534e-05 9.0917668836e-05 9.0859522015e-05 9.0125421539e-05 9.0416473019e-05 9.0673699079e-05 
9.0548991269e-05 9.0432370594e-05 8.9416328995e-05 8.9789567267e-05 9.0139403736e-05 8.9967586631e-05 8.9802338828e-05 8.8586987118e-05 8.9012584062e-05 
8.9426888514e-05 8.9221421616e-05 8.9020831474e-05 8.7704916979e-05 8.8148862422e-05 8.8152498874e-05 8.8371074894e-05 8.8593119092e-05 8.6842207111e-05 
8.7267219717e-05 8.7706054369e-05 8.7484978449e-05 8.7266280942e-05 8.6059473172e-05 8.6437523407e-05 8.683970278e-05 8.6635792229e-05 8.6433969257e-05 
8.5393968273e-05 8.5711524468e-05 8.6054971799e-05 8.588053286e-05 8.5707493974e-05 8.5244607431e-05 8.539012349e-05 7.2709160904e-05 7.3077127611e-05 
7.3256267611e-05 7.3559104629e-05 7.4075796119e-05 7.4834749035e-05 7.5831702746e-05 7.705525156e-05 7.8486579688e-05 8.0101094762e-05 8.1875695789e-05 
8.5799790605e-05 8.7886703234e-05 8.9997543404e-05 8.3786291166e-05 9.0535108339e-05 9.0515545635e-05 8.9482534668e-05 7.2457733224e-05 7.2606274077e-05 
7.2943422823e-05 8.9464026486e-05 7.2812271488e-05 7.3101389529e-05 7.3188396581e-05 7.2962377017e-05 7.2993092462e-05 7.3266196537e-05 7.3361362762e-05 
7.3172722315e-05 7.3094188096e-05 7.3183733654e-05 7.3504300051e-05 7.3699841962e-05 7.3387807502e-05 7.3291607104e-05 7.3445600009e-05 7.3953849097e-05 
7.4265696681e-05 7.3790538864e-05 7.3648804719e-05 7.3910316245e-05 7.4642466627e-05 7.5082144394e-05 7.4422469822e-05 7.4226232399e-05 7.46075526e-05 
7.5578520267e-05 7.6133695903e-05 7.5306626766e-05 7.5052672304e-05 7.5552690904e-05 7.6744360531e-05 7.7407916454e-05 7.6418378063e-05 7.6109010127e-05 
7.6721928806e-05 7.8122561598e-05 7.8884497574e-05 7.7748218589e-05 7.7388846199e-05 7.8105062272e-05 7.9691425461e-05 8.0539946006e-05 7.9271939391e-05 
7.8867177397e-05 7.9675191974e-05 8.1427259647e-05 8.2350369575e-05 8.0969645803e-05 8.0525105131e-05 8.141291782e-05 8.33058778e-05 8.4290086766e-05 
8.2815343819e-05 8.2336229967e-05 8.3291841724e-05 8.5297497209e-05 8.6326712745e-05 8.4781740602e-05 8.5282766332e-05 8.4275453778e-05 8.7371140093e-05 
8.8425376357e-05 8.6837443926e-05 8.6310979541e-05 8.7354893166e-05 8.8942769898e-05 8.8408409328e-05 4.3409119234e-05 5.8078039766e-05 7.3755329357e-05 
7.7885527415e-05 7.816007919e-05 7.9378027599e-05 6.3893435224e-05 8.1193519432e-05 7.5721340964e-05 3.9355168189e-05 4.5258209293e-05 7.2157545458e-05 
5.4906775961e-05 7.5554257658e-05 7.3397663884e-05 7.7512566829e-05 7.8321500417e-05 7.8761178609e-05 7.9305071853e-05 7.8737853333e-05 7.8735119032e-05 
7.8187084192e-05 7.8226112356e-05 7.8186029899e-05 7.8603235685e-05 7.7869760413e-05 7.8632733534e-05 7.8619671909e-05 7.9350925561e-05 4.5106157645e-05 
4.4036103321e-05 4.3257753215e-05 4.4135747299e-05 4.42834824e-05 7.9304524247e-05 7.9337838525e-05 5.7797948288e-05 5.9633425735e-05 5.6990809365e-05 
5.8850718123e-05 5.8847743106e-05 7.4305698363e-05 7.4490108174e-05 7.4115285104e-05 7.4131346452e-05 7.3953532561e-05 5.5903403058e-05 5.6995958295e-05 
7.3054118994e-05 7.301638088e-05 7.2591990053e-05 7.3140214903e-05 7.2731404961e-05 7.4152710748e-05 7.3971860885e-05 4.319230389e-05 4.3147500577e-05 
7.3039987246e-05 7.2953481778e-05 7.3057435505e-05 5.6144518436e-05 5.5011377302e-05 5.3539497357e-05 5.4996046244e-05 5.7491227082e-05 4.2371865491e-05 
4.2288847156e-05 4.1215084499e-05 4.3393083996e-05 4.4512205734e-05 7.3090597034e-05 7.2429637411e-05 7.7136893941e-05 7.6192902615e-05 7.5992524487e-05 
7.5921902099e-05 7.6909162479e-05 7.7143831021e-05 7.6201260308e-05 7.691618332e-05 7.5930152067e-05 8.6012573663e-05 8.5802641615e-05 8.5805305827e-05 
8.5403029418e-05 8.6225783151e-05 8.622728858e-05 8.6667101925e-05 8.6667362035e-05 8.539505122e-05 8.6665924785e-05 8.7185909821e-05 8.5932041575e-05 
8.6452133637e-05 8.7180779439e-05 5.0633290918e-05 4.8866046068e-05 4.8144463045e-05 4.7531428277e-05 5.005494338e-05 8.7632885444e-05 8.7406836795e-05 
8.7625871196e-05 8.6445783062e-05 8.8431523956e-05 8.8422233189e-05 8.7258627296e-05 8.8034027573e-05 8.6668273258e-05 8.5402677961e-05 6.2398121116e-05 
6.4656600156e-05 6.2895974832e-05 6.9874211398e-05 7.0035863502e-05 7.1118767989e-05 7.096952709e-05 7.7370188701e-05 7.7716255573e-05 7.7021739699e-05 
8.8096485727e-05 8.9196594149e-05 8.9201739375e-05 8.9183504802e-05 8.8831644943e-05 8.9011677011e-05 8.8820151541e-05 6.1647528678e-05 6.2565209008e-05 
6.2779000054e-05 6.1664610659e-05 6.3444871037e-05 6.3461352886e-05 7.1984027994e-05 7.281320999e-05 7.2535856996e-05 4.8440925172e-05 4.6779309627e-05 
4.8397146058e-05 4.1295009339e-05 4.0290779555e-05 4.0177945738e-05 7.6933864738e-05 7.7734896847e-05 7.7042745653e-05 8.510504815e-05 8.4678861816e-05 
7.2144930222e-05 7.1314413826e-05 7.1566347945e-05 7.2360484312e-05 6.1113027838e-05 8.050293915e-05 8.1304179006e-05 8.1593398675e-05 3.8128630573e-05 
3.8272731095e-05 3.9688543943e-05 3.6691285728e-05 5.6022084606e-05 5.7031484631e-05 5.7015260529e-05 7.8106670412e-05 8.8628401776e-05 8.2002006402e-05 
8.2419023459e-05 8.3279542025e-05 8.2004551913e-05 8.2877086788e-05 7.1745418267e-05 7.0710276151e-05 4.456372259e-05 4.5522138051e-05 6.2018929662e-05 
6.0488226786e-05 6.1081390185e-05 5.912803642e-05 8.1113333486e-05 7.9893458804e-05 8.0469690716e-05 8.3685469972e-05 8.2420204581e-05 5.3554636344e-05 
5.4859534008e-05 7.0898008385e-05 7.0072292582e-05 6.9578791902e-05 7.0594864046e-05 7.1316927982e-05 7.2991853582e-05 7.2776394657e-05 7.2051802702e-05 
3.8472042993e-05 4.1771563066e-05 3.8957118911e-05 3.8615768311e-05 3.6176823067e-05 4.4838750191e-05 4.5134798127e-05 4.5005876311e-05 4.7793134968e-05 
6.3885855166e-05 6.4621236709e-05 5.6520115116e-05 5.5442041676e-05 5.6831493234e-05 8.5254191266e-05 8.6029980773e-05 8.5124772553e-05 8.6015176733e-05 
8.6179416777e-05 4.9712556387e-05 4.8205696561e-05 4.6686955608e-05 4.8511198628e-05 4.8187615906e-05 7.2887949361e-05 7.2181553175e-05 7.3589819146e-05 
5.7767212868e-05 5.958302028e-05 5.8141769536e-05 8.069792422e-05 8.1411836535e-05 8.2048670758e-05 8.1195215288e-05 6.7633768073e-05 6.8493734591e-05 
6.6952361957e-05 6.7676908826e-05 8.4209336451e-05 8.4603151719e-05 8.4212793145e-05 7.1636418478e-05 7.0096068937e-05 6.6787679495e-05 7.2198888767e-05 
7.2711001155e-05 7.2886337961e-05 7.3578839778e-05 7.3569623409e-05 7.2169195093e-05 8.9216093262e-05 8.812533483e-05 8.973910954e-05 9.0344346503e-05 
8.9848781015e-05 9.0326144339e-05 8.9272347287e-05 8.8888448789e-05 8.8329268031e-05 8.8870319966e-05 8.0411834522e-05 8.1499312652e-05 7.5189682676e-05 
7.4956285689e-05 7.4715161078e-05 7.5109516276e-05 7.5084173855e-05 7.4408273445e-05 7.4292236637e-05 8.4606374135e-05 5.9312744943e-05 6.0694917328e-05 
7.8042752668e-05 7.7957491145e-05 7.8750488114e-05 7.8874255684e-05 5.5619797119e-05 5.3623548092e-05 4.742847312e-05 5.7900168203e-05 8.9721597193e-05 
8.8677395482e-05 8.8312113712e-05 6.7267825757e-05 6.8535125229e-05 6.8414210548e-05 6.7127001721e-05 7.1963078225e-05 8.4115364567e-05 8.3444598871e-05 
8.3685230237e-05 8.3039478585e-05 8.3430447976e-05 7.0854527549e-05 7.2286813437e-05 7.5879655553e-05 7.5217530942e-05 7.4472452252e-05 7.5065157571e-05 
8.1192750045e-05 8.054809825e-05 8.1766330673e-05 8.1397017735e-05 3.8324943154e-05 4.0000785916e-05 3.9775253407e-05 8.2055826681e-05 6.4616461745e-05 
6.4603807568e-05 6.4989518098e-05 3.9215787547e-05 7.1638802986e-05 7.1947571966e-05 7.2909717841e-05 7.3188359193e-05 7.8649830923e-05 7.7787616139e-05 
7.791887278e-05 7.8748019002e-05 5.4668527163e-05 8.31719325e-05 8.2329247007e-05 8.2160217945e-05 8.1342601086e-05 8.2172930973e-05 7.0616088364e-05 
3.3920580411e-05 3.3939124735e-05 3.4326570677e-05 8.1227836114e-05 6.1429191861e-05 6.0391303816e-05 6.227945752e-05 7.3777734392e-05 7.3733136186e-05 
7.3269369075e-05 7.3379403694e-05 7.3966544992e-05 7.4459610967e-05 7.9650867544e-05 7.9235085e-05 8.0064699251e-05 7.2186237453e-05 7.0867281174e-05 
7.0964841191e-05 5.6523921163e-05 6.9340057769e-05 6.9353444896e-05 7.0113167917e-05 6.8569896492e-05 8.3009299981e-05 8.3599283591e-05 8.4195139575e-05 
8.2977072727e-05 8.3257267009e-05 8.2530245185e-05 3.7244436099e-05 8.9944922169e-05 8.9405407762e-05 7.5855208336e-05 7.5753258975e-05 7.2589717766e-05 
7.4149149874e-05 6.791296099e-05 6.9617439161e-05 7.1428151626e-05 7.194027304e-05 7.1351909733e-05 7.0742805303e-05 7.4747353612e-05 7.615886387e-05 
7.6480822243e-05 6.6556081179e-05 6.3359094212e-05 6.5061746856e-05 6.3384304626e-05 8.015907894e-05 4.6767711785e-05 4.7375275207e-05 6.6305309376e-05 
6.4264870899e-05 8.5108320148e-05 8.0208521344e-05 7.9397373624e-05 7.8194934029e-05 4.1672235492e-05 4.1494468651e-05 4.3931651712e-05 4.4715501362e-05 
6.0138852729e-05 5.9829629284e-05 5.846587587e-05 6.6299818335e-05 6.7897779204e-05 6.6657098841e-05 6.6316379567e-05 6.1693769436e-05 3.5330470619e-05 
3.5346859626e-05 3.5313519676e-05 8.1457005932e-05 8.1354974477e-05 7.9251862683e-05 8.0009897598e-05 8.0080187073e-05 8.228613278e-05 8.2006673363e-05 
7.6458326179e-05 8.3353880845e-05 8.3792580647e-05 8.4345955736e-05 7.9008101459e-05 7.8406752586e-05 7.9315581804e-05 7.9899744147e-05 7.9319401991e-05 
5.7739787628e-05 5.9772470823e-05 8.1032093514e-05 8.5139391427e-05 8.4324480873e-05 8.3597902283e-05 6.9726476329e-05 6.9961698979e-05 7.1146398057e-05 
7.1400474911e-05 4.2825110845e-05 4.5079107364e-05 6.7470027322e-05 6.9134561276e-05 6.8703183737e-05 6.7037364395e-05 5.9045871829e-05 5.8050602326e-05 
5.9262661256e-05 8.8161129015e-05 8.7765399428e-05 3.6837411106e-05 3.8350064424e-05 8.9926048436e-05 6.0766686212e-05 5.9303669517e-05 6.0506483952e-05 
5.8422678509e-05 5.7142713657e-05 5.7125947192e-05 7.7189400766e-05 7.7344566081e-05 7.9663320468e-05 3.6777953861e-05 6.8977549768e-05 7.0665965942e-05 
7.6335212055e-05 4.5233342073e-05 4.4081071386e-05 4.4075730943e-05 4.4346758467e-05 4.6301697336e-05 8.7782093111e-05 8.7632889351e-05 4.2041154439e-05 
4.2021371676e-05 6.0369834702e-05 6.151727395e-05 7.1973663749e-05 7.1010036551e-05 6.3779461645e-05 6.3181883787e-05 6.1762313321e-05 5.8446813231e-05 
5.8866077917e-05 7.721667379e-05 7.6982664503e-05 6.5040637587e-05 4.9401545366e-05 4.9489888164e-05 5.1615208244e-05 7.1866381684e-05 7.0720958868e-05 
7.1108599314e-05 7.2221670577e-05 7.163506113e-05 7.3239964494e-05 7.7776905751e-05 7.8401142138e-05 4.6849972307e-05 4.5129151232e-05 6.2011026804e-05 
7.1737043103e-05 7.0695962491e-05 7.1915248187e-05 7.0853710668e-05 7.1888785232e-05 7.8799257699e-05 8.4434146565e-05 8.3970934055e-05 6.2588594216e-05 
6.350044924e-05 7.2927450723e-05 7.2300018825e-05 8.2335905947e-05 8.1618923184e-05 8.2810432231e-05 5.8185499352e-05 5.7867648875e-05 6.7987662304e-05 
6.99790311e-05 5.1845576012e-05 5.3434560908e-05 5.005681425e-05 5.8462859307e-05 6.0221565e-05 8.7132826882e-05 6.5470730218e-05 7.9791073692e-05 
7.9062873796e-05 8.0187083482e-05 8.0915033284e-05 6.7752685629e-05 7.0710944312e-05 7.201395805e-05 8.7202249123e-05 8.6231877623e-05 8.58701178e-05 
8.4622745431e-05 8.4129387142e-05 7.8421032602e-05 7.7566026911e-05 6.6822845597e-05 6.6356030641e-05 8.1313421813e-05 8.1425197674e-05 8.2704263096e-05 
7.4510179778e-05 7.4246991317e-05 7.4249096859e-05 7.9642746443e-05 7.6123279331e-05 7.6307861546e-05 4.7302453828e-05 4.7299709405e-05 4.6632028984e-05 
4.563595972e-05 8.3224905021e-05 8.4109594551e-05 6.5112528779e-05 6.5700959232e-05 6.4638299403e-05 4.0850659192e-05 4.3364246045e-05 4.2937604445e-05 
7.7210335721e-05 7.6583875272e-05 4.5994820684e-05 6.5711047416e-05 6.6394076081e-05 8.2299201591e-05 8.6809738621e-05 8.7706412317e-05 7.9114143526e-05 
7.9658146572e-05 7.9405130793e-05 7.8475033973e-05 8.8869574381e-05 8.9895987683e-05 6.5586076606e-05 6.693343914e-05 6.5526419799e-05 6.5503416983e-05 
7.2738920583e-05 7.2771610699e-05 6.406024957e-05 6.4757889344e-05 7.9477993227e-05 8.0545576744e-05 8.0455221427e-05 8.046741272e-05 5.1920737151e-05 
5.3936739643e-05 5.4860906548e-05 6.9756383505e-05 6.9334642121e-05 4.6565570443e-05 4.4026395359e-05 4.3178543491e-05 7.9399918765e-05 7.8805132519e-05 
7.3766747773e-05 7.3898678837e-05 7.0263750051e-05 6.0386567811e-05 8.3702266349e-05 5.6126753776e-05 5.914128591e-05 5.5435325888e-05 5.5403503746e-05 
7.245821016e-05 8.2443485275e-05 8.3460681188e-05 8.4736458589e-05 8.3397790669e-05 8.1204747627e-05 8.2099172391e-05 8.641004204e-05 8.7251766862e-05 
8.549562608e-05 4.6813527323e-05 7.5100256469e-05 7.6227019947e-05 7.6610312561e-05 7.5533958717e-05 6.9685714407e-05 6.9501747129e-05 7.0879790873e-05 
8.3212883361e-05 5.2797577747e-05 5.4423980701e-05 5.3156308772e-05 5.1452991416e-05 8.7245966993e-05 8.6717084417e-05 7.958285966e-05 5.0736608694e-05 
5.2785242434e-05 7.6512658159e-05 7.7269100972e-05 7.8403770289e-05 6.1863462937e-05 6.4000387559e-05 7.6956169153e-05 7.7419230546e-05 7.7424528223e-05 
7.631068e-05 7.6783035304e-05 7.6303201798e-05 3.9888232182e-05 3.8512765614e-05 3.8566968763e-05 6.4577688576e-05 6.5832562708e-05 6.4287955335e-05 
8.0488556595e-05 8.2340617189e-05 5.8440364697e-05 6.1219167064e-05 6.142221766e-05 5.5980778013e-05 5.6347893565e-05 3.3744939366e-05 3.5431343039e-05 
3.429170936e-05 8.4462086831e-05 8.4323201239e-05 8.4324816822e-05 8.4465979574e-05 8.5007450059e-05 7.4796592795e-05 8.0598408857e-05 7.9996121358e-05 
5.5869952703e-05 5.3861430546e-05 6.3266134908e-05 6.2527213516e-05 4.7607203856e-05 8.4934482342e-05 8.5286300923e-05 8.6349260299e-05 7.4853851617e-05 
7.5519007459e-05 7.5305838365e-05 7.4654380476e-05 8.4432176012e-05 6.8740495323e-05 4.2243876228e-05 8.2652208369e-05 8.9029307888e-05 8.9913794259e-05 
8.5198923212e-05 7.6905128655e-05 7.6904546408e-05 7.7841729028e-05 7.7840643235e-05 7.6506988348e-05 9.0390342882e-05 9.0425527286e-05 9.0444667191e-05 
5.0773566572e-05 4.9368808616e-05 5.1522918456e-05 5.0455204515e-05 7.0737289444e-05 3.6623506221e-05 7.568189518e-05 7.0476071516e-05 6.8846469992e-05 
6.7911261509e-05 6.9601994142e-05 7.2262700587e-05 7.0998904678e-05 7.2281524019e-05 4.6837703732e-05 4.5785827942e-05 6.2968184747e-05 8.354125763e-05 
6.8779185273e-05 6.7713754698e-05 6.8368045251e-05 6.8291808386e-05 7.512658347e-05 7.6244069663e-05 7.6696982963e-05 4.9476869843e-05 5.9273837515e-05 
5.8668420294e-05 6.1771717945e-05 6.1087057417e-05 5.1627701077e-05 6.7113984886e-05 6.8996488057e-05 6.8506759379e-05 5.4992584616e-05 5.2936161367e-05 
6.7166363371e-05 4.7719255657e-05 4.5082282086e-05 7.1875174923e-05 7.1851968166e-05 7.0013134191e-05 6.8267361068e-05 7.784143114e-05 7.1296343336e-05 
7.2916998247e-05 7.2374429336e-05 7.3885820844e-05 7.2364752507e-05 7.4639817417e-05 5.5412074609e-05 5.5435552684e-05 7.0342413895e-05 5.4405450318e-05 
5.1770665823e-05 5.5537035638e-05 5.8670371858e-05 6.1678977314e-05 7.3926539136e-05 7.3533285557e-05 4.7539792369e-05 8.0783385066e-05 8.1219864592e-05 
8.1683698375e-05 5.442087302e-05 5.1168519608e-05 5.4002727159e-05 5.3707024904e-05 7.6837172934e-05 7.037002956e-05 6.1755636943e-05 7.4433172002e-05 
7.2974824487e-05 7.3708182407e-05 4.1535322974e-05 4.0935800382e-05 3.982542691e-05 7.1269429419e-05 7.0274517239e-05 5.5826875895e-05 8.6732761758e-05 
8.394071354e-05 8.3934826044e-05 8.2601725558e-05 8.2606453846e-05 7.6994654416e-05 6.9030115386e-05 6.7511271567e-05 8.4250583915e-05 7.0404480224e-05 
7.155067589e-05 7.0495477582e-05 3.7434262321e-05 8.474011555e-05 6.2628410397e-05 5.7015360993e-05 6.0153289283e-05 8.125348018e-05 6.4064151491e-05 
8.2063840492e-05 7.6116862724e-05 7.3095325745e-05 7.2113248348e-05 5.0606829303e-05 5.3432971561e-05 6.9772680818e-05 5.0903306193e-05 5.2884441232e-05 
5.4070343702e-05 5.2164319838e-05 5.9729200384e-05 8.3237899898e-05 7.6115439714e-05 7.4509839001e-05 7.6115027662e-05 4.6707685778e-05 7.291301773e-05 
7.1889314364e-05 7.2898432347e-05 5.6270357771e-05 7.1582632875e-05 7.3618670583e-05 7.3482478111e-05 7.3534588826e-05 4.6575486783e-05 4.5833107617e-05 
4.7843338955e-05 6.8106968422e-05 5.8293086645e-05 6.0598103115e-05 6.123517958e-05 6.1342054406e-05 6.4089001946e-05 5.8276645717e-05 6.8926547066e-05 
6.2957192424e-05 6.1514056486e-05 6.3029810167e-05 6.4325087097e-05 7.1664586432e-05 7.0380447914e-05 6.9493901528e-05 8.0184874891e-05 8.0277514571e-05 
7.4434477794e-05 7.3875469481e-05 4.43628529e-05 4.8469061094e-05 8.2221535839e-05 8.1427191335e-05 8.2166548254e-05 8.1363548892e-05 8.1349665247e-05 
6.9620900073e-05 7.3993092752e-05 7.429984275e-05 7.3505296134e-05 7.4688062668e-05 7.2610411067e-05 5.1249482118e-05 5.2024166303e-05 4.9964832503e-05 
7.551785505e-05 7.2008150212e-05 5.5518722425e-05 5.5690652456e-05 8.0000605393e-05 5.9426953648e-05 7.4143184487e-05 7.3960406433e-05 7.4130861663e-05 
5.222257101e-05 6.2221007997e-05 6.4322675534e-05 4.6837799129e-05 7.2451401003e-05 6.1001914896e-05 6.8874216827e-05 7.0990243087e-05 6.5372480097e-05 
6.8251274008e-05 6.6832704631e-05 6.6399735369e-05 6.7252289802e-05 8.2969695115e-05 8.4143982623e-05 8.5294237276e-05 7.6555886016e-05 8.234079388e-05 
4.1330118408e-05 6.0566772844e-05 7.2409893577e-05 6.8238716099e-05 6.8509992566e-05 6.6545417758e-05 6.6210836723e-05 6.6246166934e-05 7.6911766523e-05 
7.8067611029e-05 7.7794751052e-05 7.4337576577e-05 8.3245949592e-05 7.5096175906e-05 7.3325518842e-05 7.4434515467e-05 7.4430945329e-05 7.6162721976e-05 
4.8842214281e-05 4.045451045e-05 4.2824568671e-05 4.6446343083e-05 4.5462300259e-05 6.7643431333e-05 6.5026321534e-05 6.6504442991e-05 7.9119138028e-05 
8.5051857131e-05 8.4188908181e-05 7.616097769e-05 7.7161164263e-05 7.7164228994e-05 4.9833027191e-05 8.6908649132e-05 5.7180380674e-05 6.9389370334e-05 
8.1218657505e-05 7.4041553811e-05 7.5790844472e-05 4.9572544289e-05 7.5842576195e-05 5.1826582109e-05 5.2335510798e-05 5.3484955128e-05 6.9373150728e-05 
6.8332236418e-05 6.615953978e-05 8.8594739974e-05 8.9662132683e-05 8.9677964409e-05 7.321150427e-05 7.4513306165e-05 4.8608910604e-05 7.5362319803e-05 
8.0706144531e-05 6.6980721421e-05 8.1669224587e-05 8.0768611151e-05 4.2707750802e-05 4.2890666896e-05 4.2383624979e-05 4.0784642569e-05 4.1382847569e-05 
6.8262561747e-05 8.3848423969e-05 5.7751535371e-05 7.9528007214e-05 7.9515660159e-05 8.0296622443e-05 4.1007884082e-05 3.8844374137e-05 4.1083075119e-05 
4.1197335674e-05 3.8867104222e-05 3.8948727912e-05 4.3482424399e-05 4.1390007844e-05 4.4067220208e-05 5.766080575e-05 6.7330391608e-05 6.5182254455e-05 
6.3171729208e-05 7.5886797751e-05 7.7216738234e-05 7.6151995742e-05 7.7212972424e-05 4.4917429874e-05 4.5137673268e-05 4.4218253038e-05 5.418562377e-05 
8.0515254943e-05 8.0372866666e-05 7.258209883e-05 5.0537890503e-05 4.9674529231e-05 4.8562887705e-05 4.7592755254e-05 4.7603814155e-05 7.5221446472e-05 
7.3070868945e-05 7.3324464443e-05 6.9299573857e-05 8.7479781028e-05 8.7976825878e-05 4.8657410674e-05 4.9711652762e-05 5.3924843759e-05 7.274813257e-05 
6.9978984852e-05 5.5961938262e-05 4.9875075312e-05 7.4652143332e-05 7.4661307605e-05 8.5080451842e-05 8.5084570884e-05 7.3194209934e-05 7.3974800682e-05 
8.2951256029e-05 8.2483091999e-05 4.29099928e-05 5.1798021538e-05 5.6751717229e-05 4.428216228e-05 6.2860424955e-05 6.2816011023e-05 6.3166264432e-05 
5.5748945043e-05 6.5242741679e-05 6.6716828203e-05 5.5831045617e-05 7.8460030141e-05 7.8457621048e-05 6.5643492248e-05 6.0137279141e-05 3.5101399348e-05 
3.4907304365e-05 3.5017941657e-05 3.6575289367e-05 6.0875441793e-05 5.8114755933e-05 5.8180941236e-05 6.0782303044e-05 7.3106614272e-05 8.3774330584e-05 
8.2932868692e-05 8.0566043386e-05 6.644235774e-05 6.5213294942e-05 3.824216936e-05 4.0677652061e-05 4.4521259475e-05 7.1181328095e-05 7.6093091077e-05 
7.8242986833e-05 5.0669624365e-05 5.1957307768e-05 6.7698824377e-05 5.0827390632e-05 4.8568073406e-05 4.8326277622e-05 7.9240944096e-05 7.3122399493e-05 
7.3138539173e-05 7.2926744834e-05 5.3192780516e-05 5.3369683815e-05 5.3337757427e-05 3.6795884796e-05 8.6151734079e-05 8.5284994953e-05 5.3218095065e-05 
6.885332304e-05 8.4373515192e-05 7.8800700084e-05 5.3991628956e-05 8.8139965682e-05 7.3026138583e-05 4.9850456017e-05 4.6561922415e-05 4.7596170396e-05 
4.8127191066e-05 7.3131078773e-05 7.3409009914e-05 4.6642053999e-05 4.5788569901e-05 5.3349787847e-05 5.2403079943e-05 5.286227553e-05 5.2445523944e-05 
4.563023505e-05 8.0250461848e-05 8.0237724379e-05 3.3943432022e-05 3.4992774284e-05 3.3717749061e-05 4.512586055e-05 4.3825208665e-05 4.3578674798e-05 
4.4824329076e-05 8.2468935996e-05 6.4765153181e-05 5.1431749273e-05 5.1545067873e-05 5.2148450408e-05 7.3263149936e-05 5.236430899e-05 5.2417517192e-05 
7.9695022481e-05 7.3118528979e-05 4.8689905472e-05 7.7427175141e-05 7.6871512755e-05 7.7521546704e-05 7.7517818202e-05 7.7088221159e-05 5.9819727736e-05 
6.1343218711e-05 6.3343822643e-05 6.3365336688e-05 4.6666520199e-05 7.742961819e-05 4.7126318635e-05 4.9221488627e-05 5.0559195257e-05 6.5985854361e-05 
4.5121223036e-05 5.7273890059e-05 5.7395037668e-05 5.8257627395e-05 8.6728441143e-05 8.5653415807e-05 5.0769469982e-05 5.1906885784e-05 8.1369346939e-05 
8.1381975953e-05 4.6850037552e-05 6.3186415567e-05 5.0951636574e-05 7.767585587e-05 7.5229373608e-05 5.3760124963e-05 5.6400126881e-05 5.6468167918e-05 
4.3209059988e-05 4.3604329319e-05 7.3572723786e-05 8.979248062e-05 4.57319909e-05 3.7323759652e-05 7.6156910607e-05 5.884028564e-05 7.3199567046e-05 
5.1870973155e-05 5.1856084915e-05 5.3165549856e-05 5.144220253e-05 4.9619543095e-05 4.5824705404e-05 4.7849150893e-05 7.31776633e-05 7.9594116507e-05 
8.0386275573e-05 7.5933327998e-05 3.9517361152e-05 3.9625157324e-05 7.9827903436e-05 8.4906558429e-05 7.3349724335e-05 7.2652215698e-05 4.7809996797e-05 
8.0566736995e-05 7.1991734055e-05 4.6860626637e-05 4.7892991151e-05 4.3369458101e-05 7.2626815322e-05 7.5145047517e-05 7.3568335874e-05 5.14068556e-05 
7.8530731407e-05 5.0319533062e-05 3.7014342503e-05 7.0057165289e-05 7.7082843266e-05 3.4372702646e-05 7.2245701193e-05 7.2381556295e-05 4.9652584459e-05 
7.4666902687e-05 7.3290500451e-05 5.5342287606e-05 5.8098902634e-05 4.9068867888e-05 6.1803134104e-05 7.8048143883e-05 5.5325583704e-05 7.8316641712e-05 
7.9472756855e-05 7.5338548872e-05 7.5329247783e-05 7.8229961606e-05 7.870968266e-05 4.9642651202e-05 7.553751039e-05 7.5536269302e-05 8.4696121658e-05 
6.3955489237e-05 6.3928013681e-05 4.8693514679e-05 3.5763229401e-05 7.2460133159e-05 7.8313732708e-05 4.7915191298e-05 4.9747322714e-05 4.9765413287e-05 
7.7994261822e-05 7.7988645462e-05 7.8902448994e-05 9.051480024e-05 8.4236313568e-05 7.8499632115e-05 7.8495578799e-05 5.0812702584e-05 7.8469343557e-05 
7.9587848939e-05 8.2740835349e-05 7.9543223975e-05 7.8925186693e-05 7.5452712812e-05 6.9258672994e-05 6.5918356218e-05 7.0359483782e-05 
Tresca%20Stress 1 3545 double
52384988.507 15304908.407 14670853.862 50957011.352 25001248.829 25022887.383 47146746.383 24999535.591 24998962.427 
48403112.765 50978054.387 55126075.239 56086379.41 53559726.099 50640220.957 52670783.38 55879310.267 55343827.183 
34705488.694 12719228.433 54723577.725 55311808.36 55072174.295 52559095.22 52263322.856 54194633.061 55483060.027 
54178322.88 33390653.886 51346774.223 20471025.375 36986040.069 51131871.899 50645933.331 50230000.106 50024090.305 
50221858.981 50408002.141 49119070.619 46198186.606 42771508.399 39226488.528 35870029.756 32878212.819 30198028.036 
28008668.608 26353564.91 25195592.133 24829118.121 16411899.703 27809333.798 46261695.907 50579895.496 50069209.901 
50091899.082 50069741.798 50249715.49 50012584.666 47726511.07 44537141.131 40983278.721 37524438.696 34378527.377 
31490962.898 29070615.72 27102195.66 25742044.352 24957399.798 24913888.458 25026227.091 25003823.225 24982689.114 
25008844.905 25009836.057 24990940.806 24994787.577 25000295.464 25182578.91 25022082.55 25013591.266 25018363.771 
25009989.013 25016971.809 24992330.143 24987346.549 24970253.835 25026240.228 25097398.873 22650843.702 10643731.762 
5348896.5742 5208140.9089 8530597.3976 11519977.384 14211484.531 16507600.433 18544484.397 20308895.018 21820802.59 
23077553.103 24087415.669 24777800.092 33806015.718 16362567.781 6907896.1281 5120316.5575 6886646.0875 10132279.807 
12899447.14 15383774.812 17554324.118 19447475.941 21081272.154 22468188.451 23612646.103 24464270.316 24931441.163 
44150304.633 34224668.647 19172844.478 2403716.761 24551733.197 54891141.176 51284737.273 46857096.436 40164636.145 
27432678.14 10215040.537 13094310.611 41552650.481 51085920.667 50650874.842 19385707.133 34154253.059 51596899.895 
50632206.183 50062761.097 50038805.232 50300277.223 50723261.834 49056092.925 46241060.63 42762785.741 39216017.721 
35824546.286 32815871.9 30140111.88 27944109.778 26267317.778 25137383.236 24796979.744 15683000.264 26632752.633 
45292031.054 50352927.435 50230789.088 50049084.152 50301592.392 50174477.222 50010073.485 47723414.918 44529241.628 
40976504.349 37501558.606 34316030.893 31440600.4 28988071.432 27044419.335 25664187.625 24917611.369 24906213.287 
25000261.81 24993696.457 24986894.772 24997154.825 25012013.97 25018929.588 24993587.455 25029130.188 25028719.786 
25194588.782 24985400.963 24982918.143 24997357.441 24998925.617 25007745.815 25001943.828 25004427.095 25014096.326 
25072020.178 25099628.755 24156409.853 10941387.775 6144209.3058 5520984.0518 8701066.9875 11659418.436 14266593.046 
16575074.403 18583932.568 20324747.365 21822864.831 23068439.278 24065537.384 24747642.856 35140633.805 17044098.809 
7413791.2713 5680942.2797 7017356.8425 10303039.668 12965741.346 15457898.307 17577592.58 19480547.734 21091100.989 
22457889.621 23589835.803 24437728.479 24906554.915 45152901.606 36093455.106 19099582.551 1657553.2014 23328521.241 
46291126.881 51488379.029 47872496.458 40872426.922 28854588.721 10311155.999 11959277.625 35827497.659 51709802.45 
50431545.674 49189055.274 24992355.365 34467742.441 51778877.134 55260255.617 56104007.062 54422945.078 51422028.864 
51186023.929 51197232.478 24548316.591 25283499.259 43099149.299 42869543.846 53438474.811 55078108.648 52875741.046 
53287935.119 54806622.873 56073553.895 55739111.204 55336710.295 55056727.982 55552221.163 54372349.403 54697284.227 
55131671.542 55340752.083 54345524.294 52541875.419 53754293.09 33246546.821 26081275.742 43826258.698 32945240.835 
21422873.851 24307275.175 26714752.513 52516610.595 22671058.942 43646562.518 21461275.927 30423033.625 17246766.756 
33920808.427 25404848.329 39722723.622 26904842.437 29538395.965 51155906.323 45017557.378 22180540.504 28801472.625 
25878751.13 24540749.264 38914024.262 49847396.358 34955348.787 17647701.567 26136402.283 23988521.248 50909639.1 
35703735.812 24960535.059 25494730.286 28026863.183 53092011.262 25879649.516 14541006.974 13630696.566 15234889.763 
31575920.397 23289292.893 29519682.207 22420410.842 45081919.472 52819161.702 38165928.11 23264654.492 27097514.821 
34121992.468 20005769.761 30696118.084 23602091.693 43883508.438 38162620.596 49504555.838 49260502.221 47257916.027 
25013922.782 28214740.629 24216808.433 9760993.0074 20369410.882 41280449.952 25117126.329 50273080.764 40441448.785 
52913953.962 33264435.341 17978667.51 29843330.81 36077730.325 26077643.816 26651947.487 26068352.586 24923482.213 
25263613.223 47558950.15 42871032.659 29290911.405 25438048.085 24781138.639 25284451.857 27232296.56 25188142.419 
11186575.301 25112381.186 35447358.91 32656094.775 14481404.544 17733849.256 22506194.525 20501975.867 23531248.62 
32337420.639 32839629.129 26904670.039 26024526.904 24552003.44 50965268.327 53058755.501 31755315.963 27798297.133 
20966715.925 35078180.838 29406879.878 50308254.066 29422244.342 28872328.639 23939439.743 26110985.422 24755714.865 
26939676.987 50563308.989 51542590.965 41145999.984 54323921.421 37539063.22 44810073.353 21278946.969 25086763.39 
35287211.376 24574854.571 58420194.082 52488599.158 46607743.553 32532659.651 23439401.115 26825060.922 52340210.738 
11172903.857 20588618.353 7997163.3368 25160090.908 20573557.853 41753920.07 35843319.781 15833849.272 17212441.79 
50971828.923 30239833.613 25031998.853 25108542.359 27852795.305 26769222.329 22179355.683 54198476.677 25629208.794 
53684422.419 19445624.53 23365076.319 53256704.5 19640197.125 15295110.32 37727251.387 22585292.277 41110900.038 
20168934.308 45603823.208 29896459.735 48388671.173 13539486.473 30474945.349 15589263.599 46484892.238 45939609.552 
25992531.883 24945491.853 25151547.22 37393789.192 25534318.722 23982841.282 38501922.484 36070386.443 40888859.354 
29215572.045 42314316.61 23162515.712 27718194.853 22609868.77 24778383.261 28215495.286 38029333.491 40102625.955 
51046001.727 22088134.887 28849727.253 19020495.35 50687462.421 50408826.133 21127716.378 19562001.621 8065133.9742 
46063989.45 40370926.28 31278439.411 28193905.545 25376378.076 31334515.717 36885371.761 24430433.19 25498648.791 
39889526.395 24761568.108 24955906.817 25034520.968 38227961.149 50330934.259 51208396.272 52169558.678 53049175.066 
35398276.321 38686831.908 25009451.383 25074936.142 24947770.316 24980800.316 24866894.145 24986936.434 24435929.603 
35223435.915 33788207.756 52151555.762 54418054.386 53268728.543 54008761.391 55139724.356 53601414.351 55043701.288 
54342950.434 53249425.952 52808365.787 12975308.245 18758507.625 20496868.56 6255169.124 7435158.6937 12235339.332 
9929895.887 9632873.9463 5965757.1872 6038122.5955 8124447.1013 8596053.2765 7011904.2704 8895491.9322 11098985.406 
9623188.4279 10409890.435 14145117.868 12832665.575 12904340.6 16083244.64 14933325.005 15163551.386 18163062.138 
17151103.387 16931376.667 19903124.055 19026170.504 18766546.429 21353682.007 20610535.101 20289082.061 22605931.476 
21974381.75 21588252.495 24004169.171 23500404.727 23594928.557 23124371.805 22736490.856 24614841.405 24248590.693 
24184011.51 24721026.389 31066521.093 26319431.503 23750679.613 24770015.193 17803391.472 20315397.009 14467696.947 
12482635.413 22308696.295 17593274.963 24351729.829 18252567.538 25443470.856 26882397.664 29370826.657 47258307.777 
34107405.036 54671101.805 54097197.472 49545000.731 53659074.3 24984832.634 24972614.87 24863918.014 24925625.576 
24868725.908 24969141.454 24950173.074 24927078.539 25014171.946 24992543.515 24961953.33 25051262.701 25016259.562 
25066219.034 25066399.479 25054335.972 25161878.335 25038675.614 25020483.076 25147010.335 25113750.296 25092649.352 
25197088.521 25053946.418 25052896.233 25207623.663 25214120.075 25099469.523 25156913.255 36195408.512 43862996.697 
52340536.915 46677535.547 52369436.41 52218734.061 50321919.31 51116076.429 51774884.357 50257794.519 50267437.202 
50799779.027 50574435.657 50675100.462 50197723.517 50215519.867 50271877.192 50114272.225 50251011.757 50269103.489 
49921244.507 49577994.892 50153732.753 50215720.213 48933543.603 48459708.217 47498513.72 46060560.908 47237403.391 
43869456.095 42210855.899 42335321.971 44321626.034 44422901.03 41270691.085 39562492.661 40860842.46 37550915.944 
35938588.772 36795463.524 38287445.994 38661720.217 34460178.055 33044330.067 34605658.584 32037039.62 30746346.031 
32281412.423 29786685.015 28731055.479 30314736.5 27948145.734 27121469.349 28576888.075 26242436.495 25705562.512 
26601120.92 26758674.32 27428978.601 25364920.605 25142585.927 25793903.688 25204134.19 36649430.6 34272693.123 
35667932.601 34533954.309 37013518.923 34026319.987 32819071.35 31502202.177 31098445.126 32029754.972 31035515.318 
29374000.194 27744071.431 26596579.327 27154220.28 26519582.314 27515330.301 25446847.953 24465620.848 25177160.07 
24512102.071 25437398.055 26177698.141 25733492.255 25122170.69 26003334.676 42574341.95 42469862.775 43782114.449 
45097573.099 44925473.06 41256927.759 42604014.921 44168607.05 42978873.568 45656640.366 44709018.136 45156276.528 
46803035.411 45490853.797 32890992.143 31257249.985 31433980.66 30067740.582 31558218.834 34159702.788 35765202.13 
34436875.399 34462808.496 32828691.542 33963140.692 31418301.902 23154687.09 22771231.227 20874248.216 18313138.529 
19600171.867 25588123.03 23778244.515 22422021.461 24439341.992 18968347.331 20746470.149 21795885.714 24826790.745 
24415344.838 24664651.976 24545228.763 24852981.754 24064368.287 23949178.988 23460308.113 23860160.297 24124068.396 
24260558.179 24417554.958 24654925.232 23712175.177 26855570.184 26468888.445 26383419.345 26025548.965 26339326.651 
26406933.343 26760910.665 26370656.89 26000650.21 27382133.472 27213391.753 27309272.976 51804271.18 49859925.562 
51294994.567 50906627.169 52005171.533 51010945.399 51148070.765 52954032.157 53200705.608 51656475.16 52593063.898 
52943638.377 24945847.243 21740693.325 25826595.161 24643259.949 28013708.727 20058524 18836273.26 21649827.308 
23678852.856 18805648.438 45098446.375 45190636.921 43858151.941 42499868.565 42335899.313 41343155.506 42999039.468 
41967505.05 42003969.946 40408881.176 44718815.827 46355615.315 40795110.09 44080421.056 22818182.339 22301915.681 
21989561.051 21267122.494 21791496.793 20024220.228 20540322.038 20975847.39 22018859.258 21555450.339 20402697.179 
22889580.444 29841484.391 29327075.822 29942856.334 30309723.84 30840017.507 31545783.618 30449294.562 31433733.332 
31946611.154 29794916.197 12529266.206 16217741.744 13479574.422 15373854.73 11574114.44 17858381.932 18734477.03 
21497422.773 19945445.478 20771784.857 18175310.668 16243884.388 27807667.803 31368594.844 30579486.374 35268514.22 
31797912.684 32192850.959 34650338.003 31461818.992 29108446.69 36446700.548 35963779.913 37570700.431 25306765.519 
25224642.741 25244983.029 25115303.019 25513621.565 25840058.969 25714662.36 25805612.627 25480062.32 25384134.71 
25282099.727 36876102.834 38733491.464 37850400.121 39058160.643 37238837.283 42530483.694 40986859.571 41238113.616 
39871352.366 41429736.936 38915823.641 40346877.25 27988270.907 26493732.832 28271085.103 28592564.674 25083837.206 
25711432.119 27043981.52 27673602.282 27576444.23 24141599.762 29220513.082 27715199.578 29690111.146 31210477.426 
27334316.727 28856637.244 26627641.831 32581068.772 30877062.13 30283607.29 50386273.407 49251335.067 47513934.675 
47724436.734 49868343.356 49987452.474 50563287.624 50702521.363 50792598.654 50683113.339 47701867.501 47897174.463 
44949654.14 47192821.406 48850344.77 45668034.519 41818590.257 41054703.148 38276438.888 36554796.46 42915136.434 
42735651.731 23352046.2 22827023.204 22708511.221 22138141.101 20462418.016 21536838.36 21135723.234 21645896.481 
20563440.533 22845670.646 23028703.851 22295866.09 29119815.086 30095158.279 29707606.529 30073218.346 29109709.418 
28562321.376 28298747.446 27748882.124 28252181.163 28348043.722 27770920.298 25976003.495 26443190.932 26929724.342 
26337972.373 25951172.457 25626759.434 25578055.207 25504748.612 25577991.375 25390787.064 25691762.717 24740772.285 
24530441.294 24743171.322 24742147.392 24652894.288 24475798.651 24603752.383 24255659.709 23947553.932 24246608.809 
39919779.345 41341802.559 40001110.205 37015613.017 38540166.978 39620541.663 35247234.877 36924319.959 38499509.312 
39558856.652 50216917.306 49578468.262 48134941.707 47845111.215 49005200.643 50191111.237 48010634.254 46680559.142 
36786582.527 35175397.978 36483160.602 36186186.284 37830094.153 33688170.996 32869614.5 34122299.355 35414195.998 
33758893.029 32576370.813 16672543.579 17688895.994 18738451.162 18679023.413 17607403.715 15965609.846 16036765.354 
18882138.791 19090539.781 20315468.603 26546902.239 26120695.766 25806772.843 26497333.777 25824225.521 25411789.279 
25775973.629 26946153.445 25464647.379 24303024.012 24983827.188 24721870.946 24357314.155 23699970.231 23236080.934 
23615285.537 23973875.123 50575212.383 51201241.917 51446991.365 51911097.024 52324515.966 52706308.779 51785044.508 
50670528.465 51201817.004 34227601.123 35869401.067 37093840.898 34052278.545 35807324.281 36904121.979 37071692.91 
38374571.792 25002021.294 25041206.904 24986636.165 24773308.288 24919703.957 24864348.188 24916911.231 25759031.616 
25370527.348 25296086.735 25339478.792 25556872.121 25734966.597 25826126.514 27474906.5 28146566.382 28589049.123 
28728375.456 27437020.316 28717015.272 27926613.999 53582434.051 53219196.523 52409136.441 50554022.582 52261209.379 
51230746.546 52355974.027 52974701.666 52674473.712 25495670.67 23072174.56 24214079.548 27033848.889 25662186.694 
27300124.756 27913615.355 29081623.458 16180679.318 14440927.326 12880216.908 16477249.315 14792742.445 13086241.422 
15476256.451 14242710.741 12193311.322 10818390.082 17138260.288 16375648.657 19823844.053 10863332.921 13619580.437 
10708956.708 16031854.996 13263617.393 15137957.705 19263370.67 17639579.481 18093637.492 19505544.45 33192679.021 
30459679.118 29296497.84 33429708.394 30247007.993 27684007.888 21413541.419 24545740.38 26033156.13 21728292.809 
26308535.329 20963447.854 28306920.444 28773163.917 29280239.227 29965496.415 28859800.426 29904853.867 31045617.004 
31546803.046 21314533.985 21481202.352 22500022.825 22875594.219 23623355.791 23678424.311 43629760.152 43978387.596 
45566987.969 47089478.371 45525237.106 46740070.867 52392744.974 51918547.293 52065519.367 52889582.925 52489255.545 
37928639.881 36549442.04 38984148.461 40914751.319 39158947.589 39936529.217 23631464.762 27405055.779 27256824.66 
28062747.784 30060557.055 35572793.524 37619119.849 32530941.574 38710329.573 19755881.695 18998537.753 19769775.426 
30982084.072 31887046.454 32278482.577 31006928.861 25103088.028 26313813.687 23131946.065 22074386.98 21282302.6 
38173484.619 39194465.098 39242563.059 47486326.276 25273065 25047825.993 25179251.86 24968020.96 23418117.172 
23663729.91 39607035.718 40960001.192 39097785.827 39457345.36 39354927.242 16047635.278 24906758.286 26934592.401 
46756844.485 50733891.943 50221734.191 50082105 50478289.32 50230121.256 50146794.813 47652918.996 44450248.714 
40962989.963 37575902.681 34321041.274 31400755.816 28996480.754 27134448.237 25715869.534 24982886.285 14959589.763 
14532919.376 18006031.339 17204637.192 24968678.865 24966663.707 24841982.708 24834060.75 31738280.202 23763380.174 
19823676.918 23079695.308 50291958.52 40107898.667 30431338.775 35594041.095 38277840.61 50630740.395 50572552.017 
50920833.171 50316689.236 50332369.905 50065635.175 50336535.01 50842783.022 50441250.568 50364145.393 50050652.742 
50161975.05 50220146.011 50170171.794 50028178.839 50134847.64 50118388.977 50075061.281 50044161.129 50143450.382 
50191259.751 50276903.07 50196440.98 50274542.942 50403042.062 49599144.157 50529802.706 50476467.666 50360234.234 
50629041.985 46915537.747 48497058.93 49607262.243 49142468.481 48471099.328 43618831.596 45397305.66 46933303.176 
46270483.449 45421298.857 40132828.809 41855583.638 43617591.597 42762278.101 41849123.318 36661511.699 38377996.808 
40106218.348 39212728.331 38380406.383 33563434.086 35134533.35 36659742.529 35839552.952 35126531.63 30798010.844 
32128468.069 33531819.202 32821155.503 32106859.892 28497372.078 29584326.668 30787967.63 30156124.429 29545049.442 
26737704.239 27463900.49 28447811.172 27918935.477 27433410.276 25436162.11 26047565.105 26688605.542 26313152.67 
25996002.671 24890143.866 24995679.743 25378235.733 25139565.492 24973266.671 24814323.265 24877983.297 33110884.681 
26064474.534 43850384.32 32901684.539 21441184.403 24283945.809 26702487.351 52793391.038 22542663.743 43441644.192 
21436445.937 30415222.219 17211412.334 33451904.215 25402031.237 39652531.273 26824125.687 29397390.015 50685805.869 
44026147.059 22167040.705 28801554.826 25866598.576 24520579.286 38672804.208 50231894.563 34851494.543 17631911.16 
26149239.463 23967374.773 51369874.966 35599368.71 24930327.338 25505798.075 27996721.923 50794314.602 25740540.377 
14578147.673 13646147.89 15906759.104 31390737.744 22752805.911 29448664.475 22385128.507 44973045.632 52565487.206 
38156848.745 23263863.096 27043862.311 32699778.549 20045782.965 30611342.55 23461273.385 43690584.502 37954219.398 
49334872.857 48904395.423 42500788.102 24987127.168 28198631.761 24195165.876 9841937.9493 20308315.752 40977458.026 
25092799.297 50023981.884 40329483.692 53754534.874 33194050.616 17994685.128 29776271.716 35977443.139 26000630.302 
25801661.472 26016514.107 24916855.183 25259070.351 48595783.541 42838449.134 28887588.451 25422977.046 24754675.753 
25276889.864 27244296.651 25201413.208 11543449.271 25050681.258 35372328.332 32536767.1 14515856.041 17720672.249 
22490652.317 20504581.273 23496797.66 32225022.497 32731406.357 26877696.15 26014761.596 24527846.211 50570341.534 
52297970.417 31187897.197 27739770.459 20979319.987 34651132.264 29353554.424 50288838.522 29427365.464 28694106.328 
23916408.95 26095991.557 24764789.062 26924519.739 49290206.159 51927897.937 40934771.621 52723114.005 37472534.245 
44538671.565 21514504.403 25074233.719 35068473.022 24618836.772 49389407.481 52303535.633 46555474.412 32465957.014 
23453820.409 26802204.441 52707085.628 11294275.924 20433090.544 8299406.3354 25999285.761 20357682.478 41798332.593 
35747351.301 15933390.101 17089540.933 52478639.485 30205000.765 24993632.301 25100077.342 27788364.466 26434180.256 
22180973.082 54390776.544 25619232.633 53453377.821 19313429.75 23387496.007 53484008.236 19659295.982 15315596.635 
37689414.387 22501332.797 40881833.707 20193915.371 46116753.364 29738664.104 47978522.455 13564677.246 30414270.315 
16170101.232 46568499.369 45727234.253 25981804.073 24906931.329 25163322.253 34258688.454 25483917.833 23962159.1 
38416390.441 35981649.779 39986471.464 29169689.48 42235940.041 23191271.09 27670959.35 22596677.508 24764870.966 
28097919.993 37643048.416 40059392.403 51113459.637 20109680.644 28129487.375 18938572.704 49206291.258 50152317.75 
21143763.385 19598983.748 8401159.1089 45929662.077 40277930.523 31232620.78 28113732.534 25376482.928 31248297.765 
36250006.331 24397391.228 25427334.499 39896790.534 24738273.77 24933328.404 25044838.949 38063599.55 33993356.287 
51967240.241 36541586.666 51361456.367 50847512.555 53114548.825 25075940.495 24999295.508 24931059.283 24963558.869 
24963569.482 24844401.636 34905536.47 36406393.651 25252716.142 27243195.478 31816299.247 24693372.011 18332468.277 
26182001.841 20381312.594 11013365.481 13924154.995 16791112.785 22008396.419 23496365.904 24379458.463 17320335.149 
25604399.524 37184042.409 26974417.669 32382188.193 52142945.497 46085695.445 38752221.555 53070358.089 24941134.546 
24963807.394 24908004.444 24831688.764 24851757.117 24937174.398 24956878.18 24912020.433 24976124.858 25001609.099 
24951962.454 25001717.077 25037355.149 25043678.265 25041514.486 25063358.109 25148785.015 25025112.389 25053396.211 
25136413.944 25105324.893 25120889.684 25183402.392 25070379.536 25067327.958 25210662.55 25108269.132 25218566.233 
25162947.019 54801036.897 53943125.014 53949370.843 54639126.107 54864205.912 53950922.934 53567283.76 54293692.659 
53404347.542 51778502.909 41363591.539 34451454.954 51032602.033 52172302.687 45179099.892 52212857.244 51261021.151 
50159092.745 51244311.476 50050084.748 50389703.404 50367643.365 50506703.594 50190565.669 50045563.648 50069795.856 
50062059.2 50219624.121 50140079.685 50111757.434 49331615.963 49803735.446 50087752.822 49952951.462 48531364.388 
48228686.412 46061635.136 47428608.524 47004369.125 42204320.308 43900757.659 44337152.295 42340694.383 44379382.63 
39571315.523 41281976.212 40861073.64 35875411.032 37521481.456 38245641.728 36746625.05 38636023.209 32986024.215 
34423286.25 34521030.245 30703254.338 31985852.55 32220393.795 28675508.573 29725675.565 30246903.3 27044698.636 
27886322.289 28515723.088 25668423.876 26189212.46 26695647.817 26552016.677 27377305.146 25110135.977 25302919.792 
25740020.432 25187335.872 19594229.803 13529797.804 20803743.762 8027990.9563 6805708.2153 10319003.093 12586273.996 
10031811.784 6523964.4659 6361149.8285 8421467.8371 7139291.8156 8698964.8451 9106202.2234 9785675.6793 11232511.607 
10495551.125 12918110.269 14202673.298 13000054.292 15006469.41 16162663.104 15234486.178 17202638.558 18196819.48 
16996801.876 19070096.493 19929156.986 18796558.407 20623940.381 21369823.689 20305590.761 21974725.921 22602629.919 
21597828.161 23486017.467 23978070.485 23117542.321 23584710.128 22737037.474 24223878.447 24581987.793 24153769.698 
24690672.836 35485562.745 34105441.944 36436739.098 36823004.59 34424861.141 32690245.794 33922390.156 30961667.954 
31316979.504 30900775.126 31834062.451 29199242.102 27120186.946 26624416.991 27727731.602 27496450.852 26475177.323 
25166206.105 24431314.802 25474651.66 25367761.216 24501910.294 25692558.241 26176285.529 25118233.087 25995029.253 
43789718.077 42314276.551 42425534.617 45088666.362 45072036.538 42403838.73 40975522.676 42677055.127 44077498.434 
45707098.943 44992987.541 46600102.116 47096924.212 45503804.344 31342890.766 31173950.559 32818970 31473538.288 
29994978.673 34367578.304 35679800.868 34135131.406 34375784.548 33896589.52 32727354.238 31357000.175 20831273.5 
22717038.752 23131797.224 19591149.487 18300338.643 23716427.086 25522585.742 24430480.401 22451857.317 20746565.004 
18986843.468 21794482.908 24630660.274 24410388.327 24808476.85 24849376.614 24515618.167 23920776.456 24055610.596 
23873671.479 23446183.543 24381358.583 24246800.774 24100175.865 24638845.066 23689083.423 26369603.855 26426704.107 
26834904.454 26325183.327 26009522.339 26363223.508 26738047.002 26398754.107 25986638.037 27201149.86 27352855.143 
27292156.372 51774019.028 48982183.126 52057034.499 52385179.354 51328889.336 52211459.297 52107448.445 53241555.505 
52988814.316 52766218.575 52319581.485 52563784.418 25541840.063 21491140.049 24577779.035 27664954.037 24350912.073 
21493241.933 18725777.958 19972873.121 23460052.892 18582217.904 43633988.377 45013088.805 44954935.319 42150174.578 
42237078.286 41817342.774 42861231.432 41265140.033 40296679.548 41822719.249 46193464.091 44511421.675 40653302.47 
43970743.875 21980981.075 22303154.398 22814085.418 21811624.063 21264473.85 20983258.736 20545773.711 20028706.959 
21569900.408 22021198.584 20429451.268 22903575.523 29918546.463 29304848.539 29805218.868 30798844.982 30280388.279 
31368255.222 30406721.334 31448311.65 31873486.238 29767469.743 13523786.775 16234986.73 12576939.149 11613772.553 
15375776.954 18713626.947 17868233.713 19900781.028 21418859.695 18122606.05 20686694.577 16248928.279 29735002.513 
30882640.93 26810225.935 30681397.276 34816322.593 30932430.949 34128482.997 31781322.614 28579833.538 35396588.403 
36064655.999 37010419.176 25211645.186 25328256.913 25090957.439 25240758.332 25683432.888 25817927.87 25509848.088 
25453030.951 25749117.851 25398714.566 25255427.36 37752487.946 38670118.914 36818542.072 37173311.066 38976916.31 
41209392.247 40906528.622 42492646.311 41397250.494 39836158.995 38879027.086 40272242.277 28222498.879 26436714.317 
27943705.064 28529426.473 25053082.994 27012697.001 25677526.875 27497546.154 27646868.825 24110830.817 29149006.836 
29598701.881 27638695.963 31089184.669 27279243.523 26498619.196 28751999.108 30766366.239 32490060.99 30199817.046 
49672292.357 50929188.716 48320398.072 47557700.589 50216716.037 50403708.301 49937764.349 50086978.808 50200161.177 
50921063.802 46974581.507 46614724.538 46978538.34 44320919.155 43796690.208 45274836.78 39104867.957 38717161.866 
37267982.585 41926169.496 35610296.784 42209526.449 22704817.48 22833886.458 23356212.115 22130255.422 21147970.929 
21541979.066 20471610.989 20594730.12 21654567.823 22289371.778 23022304.785 22836580.742 29662060.499 30020096.233 
29099612.946 29121716.016 30011177.52 28255190.186 28530391.367 28211336.642 27720091.047 28290963.173 27719098.935 
26407687.209 25981858.961 26338369.785 26894416.781 25559793.495 25629987.89 25944958.465 25498041.484 25546422.116 
25649353.324 25367192.521 24733226.411 24505293.974 24713339.602 24721271.467 24612361.453 24576651.975 24452794.245 
24239368.216 24222267.055 23934414.611 41159141.142 39686949.512 39759774.128 38351326.007 36729132.682 39406859.418 
36590943.594 34956630.986 38229308.038 39237369.504 49159869.606 50255379.849 47608122.856 48195733.279 50307213.406 
49800687.841 48361214.411 46681892.035 36412832.522 35094410.361 36724505.68 37808322.243 36126495.18 34050507.519 
32781678.579 33636070.131 35342347.956 33691079.349 32496886.061 17680717.557 16720103.785 18661018.058 18772892.498 
16099005.58 15995387.898 17638308.311 18900339.498 19103006.55 20332063.522 26098240.869 26549626.118 25788242.035 
25809304.902 26478560.687 25765202.959 25393489.147 26916505.683 25445695.296 24679176.391 24986867.961 24317495.868 
24332493.451 23225887.071 23702437.353 23593144.774 23975921.289 51129922.831 51519736.811 50758218.062 51242399.905 
51756295.472 52506977.95 52069661.548 50622180.091 50382120.365 35773312.776 34089784.873 37025709.703 33895966.055 
35705526.793 36926039.175 36774886.903 38239290.214 25019233.85 24974715.19 24958468.158 24906279.552 24738558.334 
24841548.969 24900949.364 25384789.031 25758553.527 25295313.503 25345454.058 25566191.544 25738302.716 25814616.153 
28142876.604 27436570.821 28692627.063 28558586.531 27416925.372 27884775.323 28698485.006 48494085.298 44534474.941 
51596456.166 52066087.6 48719540.31 52994797.583 51020605.101 53417865.339 52138992.756 22998274.96 25433392.674 
24081622.559 26914356.87 27223176.669 25541517.319 27811062.58 28991060.937 14475274.013 16148968.868 12989372.577 
14833487.415 16482220.89 13159213.189 12398314.193 14387866.787 15380871.228 11096602.31 17082109.753 19741679.288 
16277002.092 10881195.818 13662406.608 10955786.238 13626792.271 16102257.279 15922221.219 18224643.49 20225221.022 
19662549.882 18237399.368 30136891.478 32861608.904 29005944.464 33209200.036 30049013.256 27516593.616 23830184.231 
20999221.94 25532267.715 25883152.46 21439597.856 20920676.406 28736200.246 28286582.525 29907523.845 29231143.815 
28778871.887 30975769.145 29837135.726 31468624.36 21450341.136 21303648.133 22488643.303 23604018.739 22844917.32 
23649376.283 43930439.346 43553599.265 45482237.942 46527630.865 45381943.576 46838045.978 51268300.684 52117720.976 
51743648.091 52153133.602 53181178.33 36489094.194 37918241.765 38960758.981 39902909.799 39122637.081 40890187.703 
23610380.436 27231654.921 27370551.407 29058670.857 26714881.495 34612955.474 31515484.605 36463341.59 37996313.523 
19043800.45 19800097.93 19801215.684 31819648.963 30926127.438 30952473.329 32191680.319 26115148.398 24896603.558 
22999911.009 21911558.908 21180778.779 38016581.163 39085070.304 39126704.896 47148170.501 25042400.66 25230313.78 
24984279.564 25159959.045 23386499.888 23689589.349 39208642.84 40441845.91 38585583.051 39358619.917 39209941.13 
11071069.211 12822974.565 28816002.625 40419850.595 47523306.287 34793174.14 53524375.374 51154229.298 51171992.59 
51284905.572 50858627.35 50086948.717 47825679.688 48526160.298 46421512.71 46714314.221 42818668.426 37842055.734 
44745353.998 24733584.917 32734121.913 35282017.295 5612449.3411 15060757.979 19983393.808 6269429.3095 18715619.977 
2307440.1432 29992059.463 38441465.058 24950939.339 52850530.941 51860593.375 45180073.374 50991004.093 38001457.188 
42366653.68 31596878.453 24582851.513 14758433.403 5560660.5247 19389940.116 6974631.9684 45348647.63 29958148.301 
52301946.197 53557113.06 24984493.14 25024406.778 25010705.903 24991891.574 25000525.044 25013173.259 24987478.378 
25094948.636 24993121.325 25007196.7 25034891.312 25031410.234 25180771.162 24983165.826 24996138.458 25000227.74 
25183047.018 24986889.828 24998630.668 25008269.131 24985783.881 25023286.321 25016779.078 24991000.33 25003167.785 
24984465.836 24998963.771 25005967.264 24984044.465 25000205.488 24972887.079 24981409.464 25011334.835 24995416.747 
25007814.091 25008159.649 24993768.035 25012005.572 25002023.658 24988273.678 25015856.254 25012218.664 25029146.65 
24995839.364 25007591.186 24996652.675 24994930.689 25014728.286 25007678.656 25015404.722 25031298.445 24982148.318 
25083987.813 25015291.311 24995102.213 25027343.312 25002183.92 25226054.782 25080432.285 33894663.183 16221973.842 
6889371.7618 5275052.0361 6896544.6628 10266766.018 12913169.47 15389239.6 17572352.077 19470413.906 21089405.492 
23601156.008 24456859.1 24948200.027 22462293.642 24988426.811 24982430.113 24850528.194 40865122.623 40078128.2 
28363400.811 24840634.985 29316416.06 19154810.127 13698827.002 23782999.608 19868404.31 8549236.0912 6339668.6893 
11034998.416 13751240.359 8758364.9202 5237074.0779 5310665.7703 5943303.8536 6777903.4981 5639545.3039 6055230.2281 
7747348.9335 5409540.91 5592616.3894 6150569.315 9442210.6544 10918851.314 8668665.5437 7796237.1665 9560340.1603 
12207879.718 13653955.844 11613031.772 11017064.104 12257879.684 14793758.457 16013546.051 14253325.114 13654708.999 
14828031.23 17037661.033 18071360.422 16554968.241 16063073.181 17061349.179 19024223.799 19885524.406 18571490.338 
18077034.127 19053314.206 20712209.497 21453379.532 20317290.69 19901507.773 20717809.641 22166708.449 22769489.469 
21824085.293 21459012.808 22162519.822 23338288.394 23851442.239 23065035.054 23332379.603 22761004.3 24271919.413 
24614757.54 24076438.738 23835838.809 24258643.536 24745757.791 24603777.353 52976622.36 35507296.459 19903571.879 
27233998.192 26623720.453 21729896.386 29054712.942 21962874.348 28029671.088 52303832.761 53312146.489 19043012.639 
37388482.993 27991056.625 22943648.159 27475032.55 25739909.991 26536731.948 26137014.104 26366206.798 26366389.355 
26794402.903 26916421.946 26789540.71 21258895.911 21447232.077 21583704.608 21574748.59 21417026.24 49075704.695 
49295305.189 51097040.746 51403349.118 51154742.592 21135916.923 21434186.324 36166593.688 34778172.955 36663613.204 
35299240.86 35104773.512 18975617.298 20185877.772 20034438.219 20036254.002 18853969.953 37798882.594 36484759.246 
11320621.323 8885625.1355 12392991.17 11016981.011 15978262.528 17724625.709 18827412.098 48951420.31 51235606.183 
13612247.911 16236912.829 15971030.912 42344928.835 44593520.975 45053210.405 44589872.186 41775282.03 50176257.52 
50245610.975 50164769.813 49938415.612 49964214.847 8585258.9365 11395446.318 27115718.236 27488664.154 27578836.212 
27930637.375 27493711.425 27089227.926 27456014.572 27465105.679 27899386.842 25056875.667 25038936.488 25035007.513 
25111158.324 25041140.617 25043853.969 25030714.993 25042366.22 25159035.262 25056445.121 25034973.709 25149395.064 
25098889.897 25037937.577 54748019.109 54959766.327 53480488.272 54101727.332 55309808.066 25023247.293 25046907.032 
25007112.634 25023173 25004416.679 24985181.021 25033924.098 25015266.228 25056883.184 25199176.959 27252910.126 
25499763.234 28358136.79 29166577.888 28539390.425 27527662.879 28152748.788 16130022.408 16681096.105 15580053.566 
24962799.733 24999416.915 24950259.299 24981504.201 25002372.712 24972568.406 24983518.048 39092723.458 38271288.536 
37507624.902 39065025.799 37499579.382 37496670.991 27643425.37 21231165.114 20486952.188 54511999.818 54716630.806 
54623924.706 50080746.718 50195966.934 50142477.324 15886978.867 16634703.454 15521814.139 25100526.465 25189942.56 
13646415.531 16332162.724 16233663.368 13551683.468 30986425.094 26324622.815 26029493.1 25987525.524 50019898.648 
50087455.684 50049376.359 50167544.493 43893495.694 43023471.269 43019706.91 27085790.642 25018482.673 25183567.19 
25028360.607 25154956.095 25168280.296 25280781.416 28270466.561 28821110.059 49970101.003 48778019.277 36499199.397 
37696115.223 36825024.133 38689694.207 25463847.465 25753806.652 25375569.985 25040810.333 25013608.37 45039580.704 
42856504.195 17108233.708 18767725.687 20478598.608 17127352.577 15412463.403 11610255.518 13508400.659 15382703.768 
50423885.676 49162770.119 51573752.929 50590760.936 51005719.402 44712263.173 47301773.989 51220429.119 49904911.974 
36748872.439 36735911.891 39117162.47 40309159.481 39153313.156 23592713.563 23754314.874 23377224.595 23746191.787 
23921906.013 54939073.193 53002810.083 42001700.196 38473871.973 37777913.317 29742179.802 30306640.241 29180114.002 
40894182.306 39125603.763 40073221.182 24988926.402 25157799.566 25371799.487 25202983.884 22609602.15 25017466.21 
19443034.308 21778564.503 25110433.183 25008304.572 25114069.805 14314335.876 19771133.088 18649239.776 15746956.087 
10823785.707 10946163.236 29216948.011 29376256.821 30331224.926 24962853.113 24911880.567 24918523.274 24988599.61 
24938362.485 24980658.052 24841985.071 24724780.582 24607024.288 24714310.75 26362846.482 26005188.876 11889829.108 
11171626.645 10511254.802 14488570.207 16005858.226 14565959.387 16166145.872 25014830.919 38890703.863 37911338.422 
23175144.816 22325800.71 21986235.745 22794664.923 40325318.089 41865359.39 50557926.504 39848163.84 24908751.619 
24760984.129 24599821.97 28140452.601 26548670.543 27284171.438 28789917.451 13628982.046 22821077.89 22300009.067 
22731445.821 22176124.377 22296477.733 31313928.378 30257846.682 13554470.922 11814946.873 11225669.378 13001872.589 
25219457.364 25783110.489 25509979.376 25784319.919 52641309.507 53118923.144 52121166.768 25256321.192 22094419.079 
36755494.629 36036192.735 50127868.123 29767050.879 29253027.463 29197461.026 28715129.164 24336336.07 24773835.485 
23982780.725 23594408.714 40687382.655 23440870.678 23438464.447 22742341.138 22736622.227 22734133.125 18967518.6 
50476997.748 50404692.715 50684395.342 25476979.202 34432016.546 35768701.246 33946894.567 6192129.9071 6360246.414 
8184620.286 9033457.3535 7939279.5616 12940956.206 19054309.6 18584967.023 19508387.717 12341011.338 31313860.977 
31237491.7 41417087.164 32688941.126 32640961.93 31989467.03 20150245.577 24955206.623 24969922.39 25379106.758 
25621650.252 25515914.962 25734810.046 51767789.182 24947437.834 24852618.01 13552671.746 14513656.163 30048997.555 
29083874.959 33682341.175 32235257.925 15582939.61 19631985.911 24398403.12 18180897.006 10416946.041 14162063.3 
14750867.007 21148719.478 28600326.676 26135398.632 28914807.778 26120771.219 51878831.056 52733956.099 22924944.171 
24051849.053 25108052.371 26373749.587 26709472.009 25111981.509 52254845.457 53119467.999 52039329.344 51452687.795 
37191628.955 37050108.086 38457068.125 35217188.292 33699719.826 34540704.207 35176114.273 31288618.09 51155668.271 
50574641.117 50564548.062 23506532.351 22744638.361 18569913.648 19581408.107 19484448.703 25805096.377 25829470.298 
14763987.727 24846975.78 24538062.15 24748399.184 26531122.682 26425914.856 25923210.021 26088859.773 25913346.639 
39683774.817 37787888.885 26040674.022 23377976.463 23261018.965 24965870.097 25057903.952 25523733.807 23164606.644 
23723220.829 52723388.777 51059399.687 29625728.359 27946020.229 27675308.158 29450181.232 36862247.955 39010771.455 
39916018.654 24580726.055 24418461.632 50057871.073 50088864.926 24942297.015 35725936.224 33571833.476 30252124.028 
31939077.528 35306066.376 35517115.198 24505059.222 23662382.313 22505618.983 50190462.651 25421104.139 22749399.561 
15241293.621 51211206.747 52150337.159 52385246.336 52321478.275 51801952.323 24439525.145 24405483.717 51836401.525 
50040647.442 40390756.51 38632372.449 13523395.769 16104711.756 34376920.705 34395209.315 36017857.726 42052746.3 
40864261.242 21998256.6 20973865.58 35365000.519 42780357.446 42475842.733 41080836.407 30295197.35 30809871.717 
30416076.045 29924320.519 30652178.208 29650285.475 26743356.532 26473353.607 53034931.495 53634927.044 26032302.749 
17235654.114 19911278.869 18051012.102 20732075.997 18080992.589 26840137.55 25302423.299 25266290.585 35696741.091 
35406740.4 21040793.78 25643641.449 25000263.777 24825889.796 24641223.685 38128870.627 38069749.867 29800049.477 
21656182.707 40359694.099 36013113.16 42312091.588 42062453.448 39875051.761 24965171.645 35915013.891 24967861.317 
24706218.561 24318066.361 24596581.608 26947384.721 30404537.351 29819351.637 24908457.214 24941411.038 24754159.862 
23110644.553 22821071.073 17715779.898 16992950.318 31356060.355 31209841.279 25959799.069 26021183.705 25622913.204 
28122230.572 28572354.115 28547144.39 26433747.437 20503765.677 21571195.588 44625063.734 44136707.088 46748337.101 
47248389.863 23869785.03 23693673.966 32839061.217 32926111.489 32774361.188 50295298.218 49955787.453 49302786.696 
17681989.572 16665398.278 50313004.409 30222568.444 29013771.467 25685114.841 24720258.478 24726114.398 18787292.437 
25123714.356 25548022.855 25584622.536 24850946.006 24958576.195 30787789.204 27857521.818 29262500.8 29812913.908 
29614301.75 25337203.629 31392020.215 31005462.991 23985165.587 23024879.14 22178686.27 22187849.492 42324434.118 
40984644.124 39826134.771 31389295.937 31468028.464 53728825.678 53330327.894 51645759.274 25545118.992 25962326.999 
14834818.144 13105515.449 26039066.433 40400867.561 25385233.361 33296348.789 29328505.659 35216949.139 35843671.068 
21413178.219 25743450.177 25500547.651 25066053.22 25214930.805 24049770.83 24404203.579 24514764.731 24523571.846 
24540037.146 50857963.817 25457532.024 25165721.306 24199356.3 24439394.178 28244649.979 22522713.544 20754601.985 
25561086.913 43596901.965 42498686.42 43925482.201 45013410.965 24240174.01 24009641.543 23244869.732 43740631.796 
42207101.309 22602616.831 22901570.618 17708885.166 37810150.871 36118334.637 27679250.847 27470928.765 27454453.748 
27858131.069 27609965.73 27878442.922 53023472.953 52429268.837 52063252.218 34141109.204 31137507.534 32500135.862 
23691759.023 23936979.368 31377753.161 35647102.144 35805244.75 40944067.587 40289866.572 50572258.824 50986641.343 
50719203.269 25080639.334 25038055.658 25027560.549 25312672.798 25199996.099 28784145.172 25331014.649 25549231.986 
40379066.5 41857329.372 32707064.236 33158732.735 50805631.536 24644002.188 24846747.815 25020176.628 22398727.202 
21454389.601 20335292.45 21343020.909 25340698.001 30222013.249 50142016.572 25460934.481 24917602.245 24968995.794 
24992451.383 27421538.14 27430300.466 27216562.739 27231875.409 27753182.215 24963073.996 24950546.104 24959738.107 
54453459.753 53375027.898 54795507.993 53474170.979 26474997.693 51483456.26 22497321.466 29470498.025 31009747.866 
31389928.838 29854723.472 20221132.886 22111102.265 20225492.758 51831992.508 52958122.523 34140287.911 25399988.509 
31488611.395 32542532.68 32491891.621 20824723.327 27494566.906 26517501.118 26885326.19 42403320.759 36961251.997 
34700608.463 32061132.489 32219115.495 40557646.753 26163054.777 23039774.244 23492856.837 41285085.506 42882784.818 
32583847.627 44635137.908 46917789.822 19682712.098 19682265.952 23027574.999 25807115.74 20541789.176 26857147.589 
25656300.024 24855733.933 23891667.433 24831046.301 23593265.385 37105313.37 36837644.878 30427757.013 32595042.075 
37713529.276 31114592.401 34375589.326 30999724.145 7917195.6755 9829696.4563 43844333.356 20208083.603 20615759.531 
20994494.645 38190742.813 54116904.775 46645783.697 52680560.255 25397002.883 31276600.756 31855647.549 26594258.314 
27234593.678 25993628.96 52868856.282 52457580.337 52921059.838 30948912.637 18104068.963 39457217.495 24024398.691 
25224672.031 25164961.039 25497845.126 25557003.718 20027379.798 21951895.741 24950245.916 24903266.966 29763592.564 
33151287.021 29844607.175 50956126.505 25061723.765 33961221.148 39256295.654 35573192.535 25881185.092 32266408.177 
25561257.652 19088393.933 29330355.131 27041464.031 39320809.619 35883965.31 18712049.222 42327124.597 41194508.317 
39787286.591 41032051.447 36816041.836 25039827.416 27451184.909 28125187.713 27430814.444 46512357.172 22206822.503 
24032160.33 22222125.503 41218573.974 24403567.962 6268721.8809 6357938.3638 6129886.1011 45052713.377 46553611.485 
45083138.171 23554495.287 27251035.687 20949398.678 23630345.662 34156308.306 30936269.466 38269981.583 21539545.686 
31445137.233 33274400.436 31912057.331 30090471.375 32555385.63 29920353.384 19973831.742 26331551.909 26393157.527 
24736674.299 23898664.92 49196601.979 44334257.793 21594020.722 20976881.182 22019292.052 21425379.572 21427290.4 
21217738.814 10503040.644 8977733.1499 28194980.484 27130760.565 29986325.286 37445280.417 34956519.947 39476406.63 
23644716.547 28747231.669 34441648.917 33648534.479 25524841.615 41261194.914 22629848.918 21563593.618 22619328.905 
40145848.333 36763359.956 35118681.292 52223232.065 30029195.385 38157846.181 24125933.606 30978086.518 33907247.144 
32808670.331 33651465.924 32774339.247 31482854.031 25260293.887 25079132.413 25098410.09 23409223.45 22128100.427 
51567532.082 38974774.883 16219382.178 22586454.217 21585227.369 24818988.059 25569940.021 25774466.764 18691106.22 
18772043.873 19653422.836 8911011.7574 24292040.342 28531655.865 29425782.129 28694235.931 28707518.329 27878493.108 
51111454.318 50045907.152 47957545.726 47698120.158 48075571.461 21606800.378 25975663.235 24615512.554 26812483.681 
23973253.247 24099898.354 27911412.131 27629083.778 27603768.337 42443230.015 24162506.87 39401000.892 19555791.127 
25677865.97 29126174.962 28258467.823 51038648.614 26073308.127 41072499.31 53601871.987 52080534.777 31898098.477 
30018768.542 33712515.428 24898106.534 24961824.795 24980452.484 27747795.41 9729230.275 43782993.16 18875726.77 
20303121.931 27242586.111 21007170.145 20213355.718 52464061.586 52888206.161 52622485.755 52422414.806 52935505.829 
33209829.626 25245844.662 36707457.598 22112980.686 22120475.279 21817225.174 49459381.185 51194502.834 51188197.709 
50967687.293 50919362.976 50959654.488 47622443.034 48292260.407 45915919.802 38040098.764 24488320.488 27749109.686 
36427197.611 28212513.777 27561385.317 28124433.471 27592466.432 51851801.147 51750888.387 52361224.228 42271100.843 
20468074.016 21021481.079 10974117.737 45401922.725 45808786.106 46248605.79 47359734.24 46542951.605 28437276.914 
15293080.726 12561573.748 32233790.653 24451258.855 24622872.899 45013858.092 44986481.373 36900776.286 9888496.0411 
31834408.017 38771474.906 43762754.526 28692846.099 28675200.508 25055092.251 25068232.439 7178438.4374 21547385.237 
21969219.107 21618423.239 52630334.059 43525789.082 38403471.498 47029138.099 12338420.931 12626377.796 16142193.769 
31649043.598 34890952.231 34089620.963 38325355.345 27064211.444 27072861.214 28759845.572 35142805.992 50113211.909 
50206652.781 50206133.391 50086566.426 13341574.613 25717104.484 20864097.727 14003877.886 23160884.526 23348500.422 
22708181.111 25760449.661 26557232.576 27902672.262 50225820.151 49888283.608 48348245.017 18135058.545 17640666.415 
18003096.119 44602495.294 43968587.519 25589172.79 39927993.513 43516968.931 44006019.703 26756358.057 20645140.224 
20644335.164 19121857.232 39259233.576 38507942.71 38866952.145 50230456.168 24242668.202 24254693.941 39079024.913 
20397903.408 24395292.334 25961144.074 39383648.743 24728406.594 8289454.6201 45217840.695 50044784.445 52550326.112 
50532141.519 8290014.3088 6244836.4673 48201015.224 49753599.988 25255332.819 35765139.507 44395023.216 43757826.642 
45562852.018 21532583.604 21540580.476 50292925.562 50408233.299 50197653.184 52495713.1 52215945.954 52222539.227 
52040649.348 21621732.128 29078167.426 54605951.806 54016442.255 54048574.442 6955727.9444 52670060.465 53200005.263 
26401106.42 23165539.476 52372934.617 26750294.642 27288603.471 26316154.105 26319576.818 25886472.908 35030582.789 
32967650.093 30188061.206 30382940.722 46698968.976 26762133.103 50699013.906 50912172.543 51763303.159 27595146.99 
45594620.028 24905639.826 23106136.787 20651018.727 24239235.042 23930869.864 51781240.063 52481473.783 22070249.019 
22074272.671 48570793.474 16096699.184 53428127.6 27354338.368 28433715.977 39330719.822 29053558.993 36351222.827 
51449420.731 52035820.03 16518014.112 24968051.278 44956678.99 51368192.66 28092715.146 36519340.463 17977933.398 
46782231.54 46791976.27 44410901.959 45990854.316 52196883.98 49645592.59 47853853.679 17965270.239 20021797.834 
21019322.955 16079919.042 51969052.835 51879028.986 19779377.615 25076100.917 6468689.8432 17250977.855 52263324.534 
25995231.224 34484376.866 49448945.136 48998955.179 46197941.015 17268286.619 17631787.086 21434304.342 45490686.612 
20418642.011 40705704.855 50670583.041 20721044.638 25854436.841 50092555.19 35857371.502 35540315.263 46530213.709 
28498001.494 6669203.5398 37497632.677 36816451.542 50499254.885 11946715.3 25270715.425 37780384.76 27142848.105 
20575125.659 28010715.55 28031645.4 26193073.23 19772328.409 47054575.959 27988919.715 28008447.949 23623391.007 
29159488.095 28976166.067 46956360.947 51227474.846 40373638.776 27154346.621 48706948.499 47934860.693 47883624.384 
27130258.802 27153657.833 19042948.604 24973941.62 24999712.542 27008293.446 27018191.773 47448092.029 25584805.718 
26517039.017 22607722.49 25398939.473 24881571.153 28394024.973 28442493.61 14939027.32 22371263.257 
Strain%20xx%20component 1 3545 double
0.00356743 0.000141941 0.000131061 0.00507204 0.000237961 0.000208126 0.000126165 0.000237791 0.000207808 
0.000134098 0.00216042 0.0014444 0.000776557 0.000467888 0.0027635 0.00173313 0.00104992 0.000616021 
0.000322692 0.000118288 0.00330751 0.00159856 0.00086601 0.000467734 0.004197 0.00234064 0.00121289 
0.000658854 0.000315136 0.00443852 0.000192582 0.000339597 0.000609043 0.000939765 0.000805368 0.00066839 
0.000573137 0.000504768 0.000467658 0.000440122 0.000407365 0.000373711 0.00034157 0.00031295 0.000287515 
0.000266622 0.000250803 0.000239921 0.000236382 0.000154868 0.000263578 0.000453903 0.000822125 0.000889777 
0.000732898 0.000624255 0.00053663 0.000483162 0.000454651 0.000424123 0.00039035 0.000357315 0.000327216 
0.000299695 0.000276594 0.000257873 0.000244933 0.000237534 0.000237269 0.000208982 0.000211173 0.000214702 
0.000219687 0.00022493 0.000229845 0.000234408 0.000237476 0.000238704 0.000208314 0.000209951 0.000213087 
0.000217216 0.000222296 0.000227327 0.000232222 0.000235768 0.000238089 0.00023835 2.4229e-05 1.15083e-05 
2.59282e-05 4.89311e-05 7.41619e-05 9.85033e-05 0.000121669 0.000142486 0.00016119 0.00017744 0.000191139 
0.000201729 0.000209088 0.000211939 6.77651e-05 1.6261e-05 1.74648e-05 3.78292e-05 6.13513e-05 8.7199e-05 
0.000110334 0.000132314 0.000151961 0.000169495 0.000184458 0.000196686 0.00020575 0.000210843 0.000210451 
9.99723e-05 3.31751e-05 -6.5108e-06 1.07522e-05 0.000153997 0.000471705 0.00237782 0.000117768 6.61717e-05 
1.13577e-05 -1.4247e-05 7.64565e-05 0.000285115 0.00142485 0.00302987 0.000180972 0.000317844 0.000594645 
0.00104601 0.00080234 0.000661691 0.000560883 0.000496828 0.000467143 0.000440567 0.000407402 0.000373527 
0.000341243 0.000312439 0.000286943 0.000266034 0.000250077 0.000239137 0.000236116 0.000143096 0.000249753 
0.000426268 0.000871585 0.00092603 0.000724184 0.000618164 0.000525716 0.000480155 0.000454846 0.000424283 
0.000390252 0.000357148 0.00032674 0.0002993 0.000275948 0.000257294 0.000244165 0.000237107 0.000237081 
0.000238034 0.000208636 0.000210936 0.000214712 0.00021967 0.000224967 0.000229923 0.000234743 0.000237725 
0.000238654 0.000207962 0.00020963 0.000212938 0.000217073 0.000222246 0.000227414 0.000232394 0.000236079 
0.000238249 0.000238231 3.32541e-05 1.61277e-05 3.04606e-05 5.2049e-05 7.58519e-05 9.98852e-05 0.000122692 
0.000143187 0.000161611 0.000177668 0.000191172 0.000201693 0.000208872 0.00021137 7.50512e-05 2.23305e-05 
2.23962e-05 4.12267e-05 6.34104e-05 8.90773e-05 0.000111307 0.000133315 0.000152394 0.000169928 0.000184605 
0.000196618 0.000205524 0.000210533 0.000210052 0.000105084 4.25659e-05 -1.76503e-05 9.60873e-06 0.000135284 
0.000294446 0.00194986 0.000124429 7.29692e-05 1.37307e-05 -1.44914e-05 6.58115e-05 0.000256178 0.000943737 
0.00360391 0.00013825 0.000207737 0.000324935 0.00395126 0.00240212 0.00116303 0.00061791 0.00373685 
0.00459007 0.0029297 0.000231479 0.000237416 0.000397646 0.000396228 0.00366875 0.0019284 0.00220972 
0.00282641 0.00286658 0.000945077 0.00129968 0.00162409 0.00201318 0.00137761 0.000535063 0.000698151 
0.000827791 0.000989778 0.00074993 0.000469752 0.000541783 0.000242282 0.000225196 0.000385789 0.000284623 
0.000169269 0.000212135 0.000245234 0.00066545 0.000105 0.000386125 0.000180351 0.000278991 0.000106967 
0.000227446 0.000227162 0.0003595 0.000226688 0.00022918 0.000482044 0.000389584 0.000192355 0.000269893 
0.000243991 0.000212769 0.000303115 0.000465023 0.000322956 0.00014399 0.00023197 0.000206156 0.000792907 
0.000294728 0.00021937 0.000234511 0.000253441 0.00118353 0.000176605 0.000113116 5.74912e-05 3.5776e-05 
0.000202799 0.0001055 0.000259756 0.000183539 0.000419881 0.000769581 0.000354661 0.000203042 0.000255993 
0.000254084 0.000172268 0.000288595 0.000132871 0.000381284 0.000304728 0.000431732 0.000456968 0.000407195 
0.000219734 0.000250053 0.000204802 7.26277e-05 0.000144487 0.000336037 0.000223516 0.00058836 0.000352567 
0.00107242 0.000313291 0.000153991 0.000245618 0.000314139 0.000206515 0.000156273 0.000235027 0.000216144 
0.000236204 0.000444626 0.00040111 0.000165088 0.000221284 0.000212613 0.000239978 0.000235303 0.000228745 
2.76594e-05 0.000186088 0.000318692 0.000291485 0.000119466 0.000138159 0.00019251 0.000168101 0.000203678 
0.000248502 0.000269801 0.000238011 0.000241395 0.000214496 0.000672743 0.000651854 0.0002554 0.000256278 
0.000182886 0.000242351 0.000279027 0.000540491 0.000271512 0.000186691 0.000208379 0.000247862 0.000207487 
0.000243319 0.000439919 0.000553899 0.000336905 0.000499277 0.000353585 0.000388248 5.11362e-05 0.000221627 
0.000256558 0.000213828 0.000743319 0.00105313 0.000423547 0.000299919 0.000204099 0.000250249 0.00224462 
8.94491e-05 9.82877e-05 4.6904e-05 3.71239e-05 7.75814e-05 0.000394756 0.000283924 0.000134425 6.17227e-05 
0.000704368 0.000259149 0.000219248 0.00023203 0.000264522 0.000149116 0.000193942 0.00171869 0.000232642 
0.00071586 6.59571e-05 0.000189878 0.000914115 0.000164994 0.000112848 0.000341993 0.000138931 0.000344107 
0.000161123 0.000417948 0.000212978 0.000452191 7.44276e-05 0.000275022 1.82583e-05 0.000424004 0.000423504 
0.000237808 0.000213997 0.00023757 0.000325235 0.000226412 0.000209163 0.000335163 0.000341301 0.000331581 
0.000264805 0.000382851 0.000196367 0.000260035 0.000188461 0.000212705 0.000206958 0.000284583 0.000371774 
0.000776095 0.000145252 0.000165261 0.000102392 0.000456229 0.000716467 0.000180348 0.000170031 3.00673e-05 
0.000435618 0.000341986 0.000296927 0.00024349 0.000222801 0.00029135 0.000271382 0.000211178 0.000242663 
0.000377797 0.000217241 0.000211329 0.000238403 0.00031969 0.00288893 0.00229807 0.00232507 0.00047928 
0.000327136 0.000354987 0.00023817 0.000238504 0.000237562 0.000209695 0.000211662 0.000210069 3.19049e-05 
7.74028e-05 6.82244e-05 0.0019405 0.00151965 0.00203079 0.00118352 0.00089934 0.00139715 0.000742376 
0.000580365 0.000853389 0.000615673 1.38771e-05 1.92518e-05 2.82151e-05 2.74326e-05 1.83238e-05 2.11477e-05 
1.77657e-05 2.85275e-05 4.74073e-05 3.51925e-05 3.97415e-05 7.1834e-05 5.92745e-05 6.08654e-05 9.34272e-05 
8.10319e-05 8.1376e-05 0.000120045 0.000108334 0.000105552 0.00013813 0.000127655 0.000127295 0.000157202 
0.000147823 0.000144539 0.000173596 0.000165485 0.000162148 0.000186852 0.000180078 0.00017672 0.000197835 
0.000192404 0.000188581 0.000208668 0.000205084 0.000205758 0.000202221 0.000198659 0.000211683 0.000210059 
0.000209805 0.000211666 7.12953e-05 4.82405e-05 4.34142e-05 4.61024e-05 3.35506e-05 5.69525e-05 6.51328e-05 
8.28155e-05 0.000110204 7.69724e-05 0.000148608 0.000141901 0.000207666 0.000200398 0.000242638 0.000377534 
0.000290457 0.000592821 0.00154565 0.000504953 0.00149134 0.00021274 0.000211546 0.000213291 0.000211236 
0.000212012 0.000215699 0.000213846 0.000215001 0.000219524 0.000217051 0.000217541 0.000224324 0.00022161 
0.000221352 0.00022924 0.000226784 0.000226172 0.000233168 0.000230834 0.000230414 0.000236679 0.000234987 
0.000234229 0.000237983 0.000237299 0.000236919 0.000238737 0.000238729 0.000239207 0.000333687 0.00039914 
0.000480143 0.00048711 0.000599303 0.00055401 0.000698827 0.000847201 0.000705957 0.000829733 0.00076828 
0.000720007 0.000806976 0.000694999 0.00068745 0.000629128 0.000648164 0.000604196 0.000557711 0.000565195 
0.000502956 0.000475355 0.000494621 0.000506591 0.00045607 0.000459532 0.000451471 0.000437786 0.000447289 
0.000417066 0.000401376 0.000398365 0.000420106 0.000418175 0.000392538 0.000376454 0.000386753 0.000357072 
0.000341845 0.000347374 0.000363742 0.000365316 0.000327387 0.000313961 0.000326665 0.000304891 0.000292525 
0.00030551 0.000283448 0.000273399 0.000287613 0.000265982 0.00025811 0.000271215 0.000249697 0.000244632 
0.000251932 0.000254157 0.000259821 0.00024159 0.000239477 0.000245165 0.000239807 0.000280508 0.00024924 
0.000273655 0.000263227 0.000294039 0.000265923 0.000245804 0.000227351 0.000230788 0.000220881 0.000214615 
0.00020034 0.000242968 0.000229578 0.000237568 0.000232001 0.000243566 0.000216884 0.000205959 0.000215157 
0.000208909 0.000219016 0.000229604 0.000222993 0.00021719 0.00022122 0.000362479 0.000359402 0.000383405 
0.000402061 0.000403429 0.000336881 0.000361516 0.000386141 0.000362473 0.000426872 0.000403047 0.000413959 
0.000435705 0.000404417 0.000277837 0.000257009 0.000265495 0.000253047 0.0002716 0.000301488 0.000316754 
0.000298546 0.000292232 0.000288978 0.000304394 0.00027541 0.000176766 0.000165036 0.000157738 0.000140537 
0.000153524 0.000196964 0.000187782 0.000180111 0.000197534 0.000149918 0.000164475 0.000175507 0.000217203 
0.000212816 0.000215907 0.000214796 0.000218255 0.000208775 0.000208278 0.000203712 0.000207948 0.000210602 
0.000211769 0.000213295 0.000215847 0.000206696 0.000244669 0.000238809 0.000240089 0.000236459 0.000241387 
0.000245664 0.000247692 0.000243436 0.000239524 0.000249904 0.000250373 0.000253373 0.000538087 0.000443 
0.000517639 0.000479818 0.00060757 0.000700108 0.000548093 0.000735276 0.000808227 0.000897195 0.000873667 
0.000971689 0.000120293 9.20432e-05 0.000133535 0.000126626 0.000156896 8.37413e-05 7.97586e-05 0.000101231 
0.000123755 6.88025e-05 0.000404622 0.000402545 0.000384396 0.000362639 0.000365269 0.000367796 0.000384812 
0.000368936 0.000364221 0.000347421 0.00040487 0.000423941 0.000343265 0.000403017 0.000194289 0.000188173 
0.00018659 0.000180196 0.000186197 0.000166293 0.000172487 0.000174198 0.000184305 0.000178241 0.000172939 
0.000192497 0.000272289 0.000268459 0.000275583 0.000281003 0.000285007 0.000287957 0.000277363 0.000289151 
0.000295759 0.000269805 9.24256e-05 0.000109506 8.84487e-05 9.06637e-05 7.26858e-05 0.000128494 0.000125997 
0.000141864 0.000123044 0.000120618 0.000104576 8.81179e-05 0.000161601 0.000196321 0.000195115 0.000248266 
0.000215131 0.000204253 0.0002359 0.000195746 0.000165745 0.000263052 0.000255706 0.000278846 0.00022822 
0.000225122 0.000224319 0.000222852 0.00022981 0.00023376 0.000230881 0.000230682 0.000226933 0.000230559 
0.000223819 0.000327953 0.000350714 0.000336607 0.000347188 0.000324196 0.000392097 0.000370824 0.000380435 
0.000365693 0.000386012 0.000357163 0.000358988 0.000226041 0.000217353 0.000235226 0.000242788 0.000208252 
0.000216294 0.000231525 0.000239401 0.000235446 0.000199527 0.000251279 0.000217042 0.000237889 0.000249552 
0.000207275 0.000218225 0.000195929 0.000259548 0.000238004 0.000227507 0.000509452 0.000454316 0.000431724 
0.000452567 0.000470147 0.00052018 0.000539712 0.000587899 0.000606318 0.000565686 0.000425133 0.000422064 
0.000388773 0.000417476 0.000426031 0.000412747 0.000371616 0.000365727 0.00032397 0.000295781 0.000359587 
0.000358964 0.000203719 0.000198436 0.000197806 0.000193062 0.000177562 0.000187434 0.000182655 0.000186365 
0.000176325 0.000197821 0.000198247 0.00019218 0.00027481 0.000284389 0.00027872 0.000280321 0.000270921 
0.000263355 0.000263179 0.000258244 0.000264833 0.000267545 0.000262312 0.000245744 0.000249543 0.000252858 
0.000247151 0.000242797 0.000238661 0.000240121 0.000240711 0.000242035 0.000241234 0.000243447 0.000215498 
0.00021368 0.000214516 0.000213438 0.000212644 0.000211826 0.000211867 0.00021103 0.00020877 0.000210611 
0.000319384 0.000342612 0.000323909 0.000279642 0.000303837 0.000324277 0.000250199 0.000272609 0.000294178 
0.000310944 0.000501669 0.000461985 0.000446962 0.000444679 0.000456331 0.000525336 0.000446415 0.000424786 
0.000336861 0.000321122 0.000338161 0.000338119 0.000354315 0.000310895 0.000306903 0.000318922 0.000332012 
0.00030719 0.000296133 0.000139155 0.000148553 0.000159042 0.00015498 0.000140422 0.000127824 0.000131427 
0.000152332 0.000155996 0.000164453 0.000237714 0.000233853 0.000228945 0.000234718 0.000226994 0.00022215 
0.00022755 0.000241121 0.000224793 0.000210268 0.000217422 0.000213717 0.000209056 0.00020455 0.000199179 
0.000201704 0.000204426 0.00109012 0.000924385 0.000973757 0.000750859 0.000850225 0.000777724 0.00071941 
0.000603265 0.000634904 0.000281609 0.000304947 0.000315077 0.000271881 0.000289819 0.000306673 0.000302218 
0.000327651 0.000220428 0.000221422 0.000219283 0.000217041 0.000217724 0.000218412 0.000219318 0.000237936 
0.000235316 0.000233292 0.000231656 0.000233549 0.000236071 0.000235411 0.000245783 0.000252182 0.000258794 
0.00025757 0.000247951 0.000262483 0.000255155 0.00099379 0.000569338 0.000792207 0.0005302 0.00097342 
0.00114801 0.00118795 0.00146069 0.00163737 0.000181638 0.000160201 0.000157417 0.000191689 0.000161913 
0.000181004 0.00019477 0.00020968 0.000125907 0.000116091 0.000101539 0.000126187 0.000112624 0.000100824 
5.88434e-05 4.46584e-05 4.24146e-05 4.34483e-05 7.75383e-05 7.98621e-05 0.000100381 6.08584e-05 6.6164e-05 
5.17183e-05 4.87515e-05 3.14471e-05 2.67128e-05 3.4282e-05 4.43001e-05 5.74553e-05 6.41257e-05 0.000221866 
0.000185042 0.000176659 0.000229815 0.000194048 0.000168349 8.96893e-05 0.000128488 0.000135781 9.00517e-05 
0.000136656 7.66712e-05 0.00024751 0.000254564 0.000262325 0.000267381 0.000251658 0.000259885 0.000275242 
0.000282809 0.000172615 0.000176067 0.000185801 0.000186516 0.000195637 0.000197786 0.000401182 0.000410506 
0.000428015 0.000440668 0.000421765 0.000439449 0.000648399 0.000699394 0.00077545 0.00084823 0.000740701 
0.000348694 0.000330067 0.000366213 0.000383615 0.000363415 0.00037493 0.000206185 0.000258109 0.000254953 
0.000198997 0.000203359 0.000263409 0.000294207 0.000250696 0.000300356 0.000168253 0.000163258 0.000171256 
0.000292947 0.000300124 0.000302296 0.000290167 0.000140179 0.000160092 0.000136218 0.000115498 0.000117667 
0.000312449 0.000323064 0.00033054 0.000443788 0.000223007 0.000220767 0.000221147 0.000218198 0.000196707 
0.000200449 0.000310689 0.000333056 0.000304328 0.000343791 0.000336324 0.000146541 0.000237162 0.000249684 
0.00038799 0.00094058 0.000944563 0.00071815 0.000521429 0.000618784 0.000476077 0.000454089 0.00042351 
0.000390215 0.000357822 0.0003269 0.000299082 0.000276078 0.000258108 0.000244707 0.000237795 0.000138105 
0.000132165 0.000165574 0.000158758 0.000237607 0.000237684 0.000236582 0.000236509 0.000294944 0.000222058 
0.000185171 0.00021663 0.000487019 0.000364021 0.000285315 0.000335068 0.000348818 0.000951437 0.000770288 
0.000478666 0.000608351 0.000759885 0.000870917 0.000946484 0.00100253 0.000990611 0.000990337 0.00069048 
0.000763858 0.000870932 0.000805307 0.000756989 0.000599604 0.000642801 0.000687175 0.000664204 0.000639391 
0.000513205 0.000546445 0.000537986 0.000573217 0.00059652 0.000471627 0.000489802 0.000508822 0.000501051 
0.000486601 0.000446961 0.00046218 0.000471564 0.000468322 0.000461989 0.000415591 0.000432525 0.000447269 
0.000440674 0.000432764 0.000382275 0.000398631 0.000415536 0.000407334 0.000398563 0.000349112 0.000365374 
0.000382024 0.000373542 0.000365493 0.000319599 0.000334605 0.000349035 0.000341265 0.000334465 0.00029332 
0.000305893 0.000319268 0.000312537 0.000305626 0.000271259 0.00028159 0.000293131 0.000287129 0.000281212 
0.000254354 0.000261238 0.000270904 0.000265808 0.000261016 0.000241996 0.000247796 0.000254038 0.000250424 
0.000247386 0.000237006 0.000237866 0.000241542 0.000239206 0.000237554 0.000236205 0.000236876 0.00024301 
0.000225335 0.000386006 0.000285221 0.000170203 0.00021205 0.000245249 0.000611431 0.000107419 0.000385101 
0.000180508 0.000279107 0.000108199 0.000226085 0.00022718 0.000359418 0.000226378 0.000228886 0.000488765 
0.000380022 0.00019227 0.000269806 0.0002439 0.000212489 0.000301772 0.000463113 0.000322512 0.000144367 
0.000232201 0.000206246 0.00076361 0.000295139 0.000219107 0.000234641 0.000253346 0.00101478 0.000176814 
0.00011422 6.03172e-05 3.99988e-05 0.000203151 0.000105144 0.000259669 0.000183752 0.000418897 0.000771479 
0.000355299 0.000203071 0.000255515 0.000245488 0.000172751 0.000287937 0.000133751 0.000380293 0.00030454 
0.000423044 0.000453191 0.000364147 0.000219622 0.000250149 0.000205109 7.40424e-05 0.000145629 0.000334433 
0.000223434 0.000585197 0.000352689 0.00113102 0.000313148 0.000154345 0.000245893 0.000313683 0.000207209 
0.000152208 0.000234779 0.000215937 0.000236198 0.000444445 0.000400856 0.000165276 0.000221382 0.00021228 
0.000239952 0.000235661 0.000228957 3.18403e-05 0.000186453 0.000318447 0.000291265 0.000120145 0.00013893 
0.000192671 0.000168489 0.000203571 0.000248168 0.000269841 0.000238026 0.000241373 0.00021441 0.000725693 
0.000625587 0.000250719 0.00025582 0.000183077 0.000241105 0.000278567 0.000529801 0.000271627 0.000186589 
0.000208052 0.000247749 0.000207962 0.000243292 0.00041556 0.000524504 0.000336595 0.000492858 0.00035318 
0.000384908 5.16922e-05 0.000221593 0.000256375 0.00021432 0.000306539 0.000988356 0.000421822 0.000299483 
0.000204265 0.000250044 0.00214922 9.12356e-05 0.000100434 5.08226e-05 4.28005e-05 7.96163e-05 0.000395459 
0.000283954 0.000135498 6.44448e-05 0.000572865 0.000259763 0.000219001 0.000232219 0.000263896 0.000150653 
0.000193961 0.00192469 0.000232611 0.000735574 5.94356e-05 0.000190604 0.000889594 0.000165559 0.00011431 
0.000342033 0.000139946 0.00034324 0.000161953 0.000415121 0.00021355 0.000449183 7.69771e-05 0.000274955 
2.31168e-05 0.000423757 0.000420883 0.000237817 0.000213432 0.000237852 0.000306628 0.000226168 0.000208985 
0.000334786 0.000340833 0.00032465 0.000264626 0.000382696 0.000196761 0.000259575 0.000188667 0.000212869 
0.000207009 0.000282817 0.000371692 0.000788888 0.000132337 0.000162896 0.000104574 0.000444924 0.000717181 
0.000180659 0.000170503 3.35332e-05 0.000434475 0.000341781 0.000296531 0.000243561 0.000222988 0.000291159 
0.000268555 0.000210716 0.000241947 0.000377907 0.00021712 0.000211011 0.000238461 0.000319108 0.000320463 
0.000478977 0.000343733 0.00363319 0.00199475 0.00285944 0.000238553 0.000238106 0.000237407 0.000209381 
0.000209751 0.000211272 7.30828e-05 8.4173e-05 3.86525e-05 5.12196e-05 7.29477e-05 4.64102e-05 2.5082e-05 
4.56847e-05 5.26151e-05 7.30769e-05 5.45638e-05 7.03385e-05 0.000107888 0.000143951 0.000197824 0.00013484 
0.000191273 0.000324368 0.000221772 0.000275239 0.000977002 0.000289175 0.00035045 0.00109272 0.000211117 
0.000212426 0.000210978 0.000212874 0.000211711 0.000213588 0.000215512 0.000214709 0.000216859 0.000219379 
0.0002174 0.000221535 0.000224237 0.000221235 0.000226737 0.000229292 0.000226113 0.000230998 0.000233426 
0.000230534 0.000235153 0.000236831 0.000234256 0.000237535 0.000238165 0.00023708 0.000238845 0.000238865 
0.000239201 0.00181637 0.00251883 0.00205817 0.000994749 0.00134759 0.00149914 0.00059613 0.000795274 
0.000933764 0.000618887 0.000381162 0.000322602 0.000470376 0.000564562 0.000451473 0.000529719 0.000924617 
0.000700399 0.000698876 0.000764858 0.000879889 0.000904681 0.000771991 0.000721518 0.000622962 0.000683473 
0.000644657 0.000546716 0.000597682 0.000562647 0.000469183 0.000494623 0.000499212 0.000486083 0.000450177 
0.000457905 0.000437794 0.000450718 0.000444717 0.000401393 0.000417426 0.000420291 0.000398643 0.000417815 
0.000376552 0.000392675 0.000386854 0.000341355 0.000356908 0.000363485 0.000347275 0.000365185 0.000313471 
0.000327244 0.000326256 0.000292154 0.000304442 0.000305105 0.000272884 0.000282841 0.000287188 0.000257385 
0.00026536 0.000270684 0.000244172 0.000249177 0.000253498 0.000251436 0.000259304 0.000239074 0.000240834 
0.000244653 0.000239598 2.61747e-05 1.97923e-05 3.39318e-05 2.28994e-05 3.13551e-05 2.30212e-05 2.68286e-05 
3.26164e-05 3.88865e-05 5.03932e-05 4.30982e-05 6.1421e-05 7.35334e-05 6.34431e-05 8.3006e-05 9.50822e-05 
8.32133e-05 0.000109451 0.000120929 0.000106872 0.000128553 0.000138995 0.000128255 0.00014845 0.000157673 
0.00014529 0.000165959 0.000173903 0.000162561 0.000180263 0.000187014 0.000176979 0.000192424 0.000197795 
0.000188722 0.000204899 0.000208398 0.000202134 0.000205589 0.000198657 0.000209753 0.000211205 0.000209435 
0.0002113 0.000273609 0.000249408 0.00028038 0.000293901 0.000263868 0.000245965 0.000265725 0.000230762 
0.000227816 0.000214903 0.000221019 0.000200649 0.000237554 0.000230062 0.000243054 0.0002436 0.000231881 
0.000215465 0.000206072 0.000217307 0.000218682 0.000209177 0.000222845 0.000229856 0.000217398 0.000221488 
0.000383272 0.000359052 0.000362122 0.000404364 0.000401665 0.000360462 0.000335464 0.000360277 0.000385124 
0.00041551 0.000402781 0.000426945 0.000434781 0.00040172 0.000265504 0.000257172 0.000278063 0.000271779 
0.000253247 0.00029885 0.000316627 0.000301911 0.000291882 0.000304245 0.000288592 0.000275402 0.000158583 
0.000165882 0.000177178 0.000154315 0.000141377 0.000188168 0.000197419 0.00019814 0.000180884 0.000165214 
0.000150805 0.00017613 0.000215693 0.000212873 0.000217114 0.000218287 0.000214701 0.000208193 0.000208817 
0.000208083 0.000203713 0.000213111 0.000211621 0.00021041 0.000215846 0.000206536 0.000240088 0.000238632 
0.000244548 0.000241368 0.000236418 0.000243436 0.000247532 0.000245625 0.000239498 0.000250341 0.000249746 
0.000253238 0.000483924 0.000426718 0.00049492 0.000566737 0.00045939 0.000481782 0.000600174 0.000770108 
0.000714166 0.000807739 0.000784799 0.000950843 0.000134666 9.40475e-05 0.000120999 0.000157541 0.000127723 
0.000103186 8.2218e-05 8.6294e-05 0.000125614 7.11982e-05 0.000383323 0.000401171 0.000403474 0.000364507 
0.000361432 0.00036852 0.000384125 0.000367677 0.00034742 0.000363357 0.000421628 0.000403159 0.000342842 
0.000402044 0.000186816 0.000188495 0.000194548 0.000186549 0.00018046 0.000174658 0.00017291 0.00016678 
0.00017868 0.000184705 0.000173392 0.00019286 0.000275343 0.000268325 0.000272084 0.000284768 0.00028087 
0.00028899 0.000277251 0.000287417 0.000295572 0.000269754 9.03377e-05 0.000110777 9.38756e-05 7.45938e-05 
9.22469e-05 0.000127198 0.000130003 0.000124273 0.000142858 0.000106235 0.000122144 9.07251e-05 0.000191686 
0.000195247 0.000156528 0.000209443 0.000246752 0.000194545 0.000234023 0.000203631 0.000164758 0.000253422 
0.000261875 0.000276276 0.00022516 0.000228414 0.000222729 0.000224359 0.000230825 0.000233778 0.000229878 
0.000226827 0.000230385 0.000230738 0.000223779 0.000336568 0.000350613 0.000328208 0.000323861 0.000347123 
0.000380329 0.000370814 0.000392063 0.000385967 0.00036562 0.000357119 0.000358655 0.0002353 0.000217802 
0.00022684 0.000243062 0.000208474 0.000231639 0.000216499 0.000235359 0.000239532 0.000199822 0.000251334 
0.000238206 0.000217358 0.000249589 0.000207781 0.000196631 0.000218285 0.000238166 0.000259949 0.000227811 
0.000447878 0.000496509 0.000450474 0.000423282 0.00054632 0.000515998 0.000473067 0.00059817 0.000577892 
0.000592726 0.000409131 0.000407152 0.000411206 0.000382199 0.000387473 0.000395718 0.000346441 0.000348556 
0.000315809 0.000351845 0.000288703 0.000355047 0.000197808 0.000198498 0.000203839 0.000193031 0.000182876 
0.000187562 0.000177714 0.000176778 0.000186614 0.000192269 0.000198443 0.000197881 0.000278363 0.00028382 
0.000274566 0.000270936 0.000279849 0.000262775 0.00026317 0.000264446 0.000257963 0.000267004 0.000261798 
0.000249212 0.000245787 0.000247146 0.000252521 0.000240021 0.000238789 0.000242764 0.000240711 0.000241801 
0.00024306 0.000241049 0.000214241 0.000213353 0.000215308 0.000213052 0.000212241 0.000211458 0.000211557 
0.000210862 0.000210333 0.00020861 0.000341612 0.00031891 0.000322877 0.000303214 0.000278715 0.00032403 
0.00027151 0.000249556 0.000293308 0.000309453 0.00045935 0.000492852 0.000440252 0.000444791 0.00052173 
0.000453719 0.000446987 0.000423784 0.000338129 0.000321007 0.00033689 0.000354487 0.0003377 0.000318715 
0.000306592 0.000310699 0.000331718 0.000307269 0.00029604 0.000148851 0.000139929 0.000155346 0.000159607 
0.000132417 0.000128854 0.000141484 0.000153104 0.000156568 0.000165149 0.000233783 0.000237848 0.000228935 
0.000227029 0.000234735 0.000227625 0.0002222 0.000241065 0.000224831 0.000213567 0.000217558 0.00021058 
0.000209253 0.000199306 0.000204708 0.000201684 0.000204646 0.000941227 0.000871834 0.00104717 0.000751153 
0.000699726 0.000767493 0.00084942 0.000611865 0.000620262 0.000304738 0.000281843 0.000315381 0.000271601 
0.000290046 0.000301694 0.000306778 0.000327364 0.000221289 0.00022025 0.000219093 0.000217482 0.000216803 
0.000218249 0.000219219 0.00023553 0.000238024 0.000233434 0.000231801 0.000233679 0.000236195 0.000235405 
0.000252278 0.000245638 0.000257518 0.00025876 0.000247919 0.00025486 0.000262468 0.000536794 0.000372868 
0.000581944 0.000695109 0.00043982 0.00116332 0.00101539 0.00147024 0.00153674 0.000160886 0.00018229 
0.000158049 0.000191971 0.000181684 0.000162865 0.000195584 0.000210308 0.00011703 0.000126526 0.000103152 
0.000114022 0.000127287 0.000102415 4.60127e-05 4.81626e-05 6.17323e-05 4.74691e-05 8.0092e-05 0.00010239 
8.17691e-05 5.45123e-05 6.93395e-05 6.35637e-05 3.57574e-05 5.20219e-05 3.13329e-05 4.80628e-05 3.94329e-05 
6.70257e-05 6.12718e-05 0.000185424 0.000221597 0.000177299 0.000229566 0.000194318 0.000169266 0.00012463 
8.76516e-05 0.000135023 0.000136708 9.19768e-05 7.77431e-05 0.000254574 0.000247731 0.000267425 0.00026221 
0.000251607 0.000275314 0.000259895 0.000282961 0.0001763 0.000173119 0.000186215 0.000195978 0.000186705 
0.000198033 0.000410036 0.000400798 0.000427216 0.000436634 0.000420227 0.000437082 0.000735921 0.000647216 
0.000779193 0.000721081 0.000825382 0.00032993 0.000349035 0.000366541 0.000375142 0.00036348 0.000383625 
0.000206011 0.000254718 0.000257793 0.000198068 0.000190265 0.000257691 0.000244453 0.000286312 0.000296315 
0.000163769 0.000168852 0.000171659 0.000299888 0.000292528 0.000289922 0.000302069 0.000160222 0.00014158 
0.000137324 0.000117209 0.000119145 0.000312008 0.000323266 0.000330075 0.000439173 0.000220759 0.000222807 
0.000218416 0.000221139 0.0001968 0.000200929 0.000308503 0.000329426 0.000301799 0.000343523 0.000336228 
-6.42626e-06 6.43609e-05 7.27426e-06 7.31831e-05 0.000125771 0.000215827 0.000796022 0.00360153 0.00441067 
0.0036898 0.00297993 0.00277261 0.00013003 0.000133292 0.000115125 0.000114522 9.37368e-05 5.37461e-05 
0.000108041 -2.49861e-06 2.21286e-05 3.42527e-05 -4.53309e-06 -1.23751e-05 -4.45386e-06 3.50835e-05 0.000100782 
1.38145e-05 0.000195323 0.000267803 0.000149772 0.000518638 0.00134954 0.000460519 0.00213661 4.90841e-05 
8.89245e-05 1.80222e-05 4.33625e-06 -9.56894e-06 -8.12161e-06 0.000110241 3.47208e-05 0.000312416 0.000196611 
0.00156455 0.000653811 0.000207858 0.000209911 0.000213009 0.00021699 0.000227408 0.000232538 0.000235955 
0.000238307 0.0002219 0.000237933 0.000238092 0.000237988 0.00023872 0.000207702 0.000207855 0.000208297 
0.000238695 0.000208204 0.000210343 0.000209253 0.000208532 0.000209438 0.000214018 0.000211834 0.000210349 
0.000210914 0.000211968 0.000218347 0.000215733 0.000213944 0.000214583 0.000215774 0.000223511 0.000220703 
0.000218376 0.000219664 0.000220729 0.000228909 0.000226016 0.000225986 0.000224969 0.000223551 0.000233743 
0.000231201 0.000228826 0.000229943 0.000231165 0.000236933 0.000235325 0.00023363 0.000234761 0.00023508 
0.000238195 0.000237964 0.00023676 0.00023776 0.000237922 0.000238915 0.000238227 6.74816e-05 1.67566e-05 
1.86519e-05 3.86068e-05 6.14472e-05 8.87227e-05 0.00011039 0.000132361 0.000152204 0.000169769 0.000184572 
0.000205744 0.000210884 0.000210623 0.000196592 0.00020947 0.000209335 0.000211211 9.84252e-05 9.50132e-05 
4.73061e-05 0.000210913 5.18148e-05 1.99529e-05 1.71741e-05 3.11618e-05 2.36519e-05 1.42281e-05 2.4521e-05 
1.56035e-05 1.90536e-05 1.6773e-05 3.19224e-05 4.54289e-05 2.91288e-05 2.70221e-05 3.41884e-05 5.50002e-05 
6.80104e-05 5.14274e-05 4.69738e-05 5.6525e-05 8.19683e-05 9.39329e-05 7.56974e-05 6.86013e-05 8.30148e-05 
0.000104255 0.000116954 9.95731e-05 9.47885e-05 0.000104788 0.00012687 0.000138218 0.000122333 0.00011739 
0.000127465 0.000147266 0.000156808 0.00014303 0.000138633 0.000147546 0.000165702 0.00017356 0.000161529 
0.000156918 0.000165973 0.000181158 0.000187837 0.000177562 0.000173742 0.000181252 0.00019415 0.000199147 
0.000191171 0.00018789 0.000194147 0.000203713 0.000207527 0.000201587 0.000203691 0.000199107 0.000209977 
0.000211444 0.000208978 0.000207366 0.000209903 0.00021147 0.0002112 0.000458456 0.000251881 0.000157664 
0.000255886 0.000237465 0.000185593 0.000166512 0.000190169 0.000266039 0.000525116 0.000633294 0.000139405 
0.00028362 0.00025321 0.000186687 0.000254183 0.000224923 0.000237671 0.000232078 0.000234556 0.000234612 
0.000240604 0.000243175 0.000240629 0.000180318 0.000180441 0.000183022 0.000183114 0.000182853 0.000430527 
0.000437492 0.000437657 0.000449018 0.000435263 0.000180529 0.000183091 0.000262065 0.000241361 0.000267565 
0.000247327 0.000246643 0.000150593 0.000161724 0.000159637 0.000159416 0.00014877 0.000283591 0.000267006 
2.01215e-05 2.4578e-05 2.49826e-05 1.67874e-05 2.12904e-05 0.000138713 0.000148012 0.00043216 0.00044109 
1.80119e-05 2.06625e-05 1.74079e-05 0.000398597 0.000424246 0.000427066 0.000424083 0.00039506 0.000523745 
0.000531821 0.000534839 0.000486764 0.000486135 2.22802e-05 3.04029e-05 0.000257633 0.000261652 0.000262508 
0.000265171 0.000260247 0.000257358 0.000261338 0.000260007 0.000264851 0.00023335 0.000234018 0.000234058 
0.000232152 0.000232189 0.000232301 0.000229964 0.000229917 0.000230587 0.000227989 0.000225358 0.000226175 
0.000223444 0.000225322 0.0011005 0.00160942 0.00142405 0.00180178 0.00142992 0.000222797 0.000224284 
0.000222726 0.000230864 0.000220488 0.000220379 0.000221178 0.000219138 0.000227997 0.000228911 0.000159308 
0.000133399 0.000163607 0.00025137 0.000242973 0.000235557 0.000243585 0.000138686 0.000143766 0.000133683 
0.000217427 0.000216212 0.000214574 0.000216057 0.000218196 0.000216882 0.000218061 0.000371428 0.000363727 
0.000353461 0.000371259 0.000356253 0.000356394 0.000239412 2.99392e-05 3.2477e-05 0.00179111 0.00215928 
0.00203178 0.00055264 0.000574727 0.000579782 0.000134999 0.000143262 0.000133083 0.000235923 0.000234361 
6.84932e-05 8.12927e-05 8.96718e-05 7.59984e-05 0.000195345 0.000241307 0.000236603 0.000237828 0.000624383 
0.000622269 0.00056292 0.000651283 0.000417229 0.000409192 0.000409104 0.000255915 0.00021954 0.000239552 
0.000238376 0.000239242 0.000239383 0.000240002 0.000247435 0.000251721 0.000484744 0.000455168 0.000329895 
0.000341954 0.000328048 0.000350656 0.00022488 0.000227442 0.000222908 0.000238487 0.00023816 0.00042696 
0.000401022 7.89506e-05 8.16052e-05 9.94446e-05 6.34273e-05 6.09407e-05 7.41862e-05 8.98082e-05 9.19627e-05 
0.000595908 0.000494287 0.000697125 0.000590849 0.000787444 0.000407901 0.00041505 0.000533981 0.000449667 
0.000347159 0.000349509 0.000323313 0.000341894 0.000330166 0.000205728 0.00020698 0.000204134 0.000206855 
0.000208159 0.00115141 0.00107929 0.000388488 0.000358254 0.000350954 0.000282995 0.000288353 0.000277631 
0.000383564 0.000363552 0.000371755 0.000218453 0.000221071 0.000241132 0.000239942 3.28544e-05 4.47929e-05 
6.33719e-05 3.72226e-05 0.000238641 0.000238025 0.000238734 4.65956e-05 0.000101759 2.81625e-05 3.00477e-05 
5.36591e-05 6.24389e-05 0.000277955 0.00027869 0.000288606 0.000214719 0.000215962 0.0002115 0.000210471 
0.000211082 0.000210382 0.000211697 0.000211383 0.000211602 0.000211217 0.00024344 0.000239656 0.00010072 
9.44573e-05 8.8976e-05 0.000116973 0.000128599 0.000113879 0.000126273 0.000238175 0.000357116 0.000348864 
0.00019659 0.000188543 0.000186771 0.000194329 0.000347468 0.00036363 0.00061582 0.000365819 0.000211391 
0.00021237 0.000211427 0.000206923 0.000196146 0.000207677 0.000218479 5.9307e-05 0.000199642 0.000195222 
0.000198651 0.000193919 0.000195196 0.000298037 0.000287205 0.000114804 9.98287e-05 9.03403e-05 0.000106744 
0.000240093 0.000228884 0.000226307 0.000230652 0.000769863 0.000830163 0.000732579 0.000222971 0.000108899 
0.000349533 0.000341197 0.000599779 0.000269734 0.000262284 0.000264767 0.000257563 0.000209133 0.000212856 
0.000204602 0.000201694 0.000342892 0.00020414 0.000203667 0.000197583 0.000196893 0.000197497 0.000103791 
0.000861281 0.000853181 0.000875452 0.000242459 0.000263455 0.00028382 0.000265615 5.43178e-05 5.57575e-05 
4.92299e-05 6.2719e-05 6.69086e-05 0.000102502 0.000165845 0.00016151 0.000170016 4.48622e-05 0.000297993 
0.000296578 0.000386015 0.000311095 0.000310741 0.00030439 5.57198e-05 0.00023762 0.000237898 0.000230556 
0.00023262 0.000229894 0.000236171 0.000778277 0.000210926 0.000211328 0.000115004 0.000119955 0.000284022 
0.000274462 0.000320119 0.000305371 3.83689e-05 3.78939e-05 4.92846e-05 4.67427e-05 8.78248e-05 0.000120433 
0.000125684 8.8679e-05 0.000165422 0.000137136 0.000166092 0.000233897 0.00112444 0.00143704 0.000104478 
0.000125503 0.000235948 0.000240053 0.000245256 0.000217276 0.000771006 0.000902417 0.000850427 0.000705213 
0.000323928 0.000315369 0.000335041 0.000334993 0.000320252 0.000326414 0.000334676 0.000196016 0.000857123 
0.000849891 0.00075864 0.000203604 0.000196836 0.000161275 0.000170296 0.000169759 0.00023529 0.000233821 
0.000125938 0.000218227 0.000214814 0.000217169 0.000251266 0.000251051 0.000246628 0.000247608 0.000246535 
0.000359442 0.000336385 0.000234889 0.000204161 0.000203022 0.000237857 0.000186331 0.000197328 0.000177198 
0.000187953 0.000959139 0.000911788 0.000238198 0.000226377 0.000217174 0.000229055 0.000293925 0.000347428 
0.000374895 0.000211567 0.000210706 0.000649612 0.000587298 0.000210791 0.000289988 0.000226659 0.000194359 
0.000220174 0.000253842 0.000254352 0.000209096 0.000200644 0.00019269 0.000700766 0.000182191 0.000165711 
0.000128192 0.00105352 0.00101755 0.000898537 0.000841209 0.000755562 0.000211005 0.000210839 0.00064203 
0.000515156 0.00038429 0.000365106 3.4521e-05 5.15531e-05 0.000298517 0.000291935 0.000313784 0.000400117 
0.00038689 0.000184395 0.000174517 0.000331889 0.000360991 0.000360951 0.000334826 0.00028091 0.000284851 
0.000279052 0.000275399 0.000288248 0.000278328 0.000254052 0.000251531 0.00194747 0.00243509 0.00015347 
0.000107828 0.000123466 0.000123483 0.000139188 0.000124238 0.000244623 0.000233363 0.000236308 0.000316724 
0.000318639 2.75966e-05 4.15216e-05 0.000219679 0.000217206 0.000215758 0.000319274 0.000312362 0.000245747 
5.23138e-05 0.000327765 0.000291632 0.000354553 0.000400202 0.000377715 0.000219104 0.000341754 0.000217415 
0.000213705 0.000210512 0.000214091 0.000191917 0.000277226 0.00027214 0.000217565 0.000219209 0.000216867 
0.000202036 0.000199644 0.000153104 0.000145169 0.000265456 0.000256973 0.000242918 0.000241413 0.000238709 
0.000252135 0.000258664 0.000258639 0.00023864 0.000168367 0.000178632 0.000386125 0.00038573 0.000409352 
0.000412429 0.000208083 0.000206567 0.000278141 0.00028506 0.000269783 0.000523818 0.000463488 0.000456141 
0.000148753 0.000139362 0.0010508 0.000227714 0.00021008 0.000230759 0.000215395 0.000214259 0.000162423 
0.000218972 0.000223769 0.000223038 0.000213014 0.000211731 0.00023797 0.000195272 0.000200756 0.000213338 
5.09889e-05 3.8323e-05 0.00022746 0.00023096 0.000206352 0.000198374 0.000191103 0.000191079 0.000361787 
0.000343668 0.000323424 0.000288951 0.00028747 0.00240067 0.00286227 0.00306746 0.000223886 0.000228772 
0.000113789 0.000101571 0.000207062 0.000384375 0.000235538 0.000249418 0.000198558 0.000266145 0.000269804 
0.000169745 0.00023787 0.000234597 0.000237801 0.000238798 0.000208719 0.00021281 0.000213474 0.000212569 
0.000214439 0.000778 0.000217205 0.00021532 0.000204959 0.000206045 0.000235332 0.000139519 0.000138749 
0.000233677 0.000401092 0.000392074 0.000410072 0.000419247 0.000209882 0.000208405 0.000199378 0.000383889 
0.000364856 0.000188582 0.000192789 0.000153169 0.000354541 0.000337611 0.00025964 0.000257951 0.00025778 
0.000262997 0.000260802 0.000263217 0.000713447 0.000640738 0.000651413 0.000301751 0.000249569 0.0002598 
0.000204554 0.000208275 0.000217898 0.00029504 0.00030507 0.000370824 0.000358695 0.000818364 0.000702529 
0.000832809 0.000238608 0.000238273 0.000238271 0.000228333 0.000225057 0.000269712 0.000241088 0.000243181 
0.000352605 0.000368398 0.000246127 0.000242695 0.000909772 0.000215828 0.000218291 0.000221255 0.000183683 
0.000176153 0.000165001 0.00017323 0.000231769 0.000259596 0.000495349 0.000226899 0.000213632 0.000211935 
0.00022032 0.000247888 0.000247902 0.00024897 0.000249083 0.000254147 0.000209818 0.000209349 0.000209508 
0.00092709 0.000913064 0.000908697 0.000730721 0.00021781 0.000722926 0.000186148 0.000259665 0.000275213 
0.000275565 0.000259928 0.000155542 0.000162468 0.000155095 0.0010915 0.000929542 0.000281694 0.000227176 
0.000282943 0.000296382 0.000299696 7.6904e-05 0.000243525 0.00023213 0.000237981 0.000356678 0.000301746 
0.000239859 0.000204833 0.000209071 0.000329889 0.000159799 0.000137041 0.000133422 0.000367817 0.000384183 
0.000291312 0.00038494 0.000412483 0.000141713 0.000142372 0.000160502 0.000176846 0.000172754 0.000226636 
0.000216204 0.000206324 0.000197676 0.000206295 0.000195801 0.000277196 0.000276446 0.000274945 0.000276603 
0.000319867 0.000250796 0.000238361 0.000194837 6.73134e-05 7.39374e-05 0.000385968 0.000176401 0.000180159 
0.000183607 0.000302687 0.000520785 0.000423358 0.000483048 0.000218865 0.000291196 0.000204449 0.000229744 
0.000235485 0.000221372 0.000793987 0.000568547 0.00072464 0.000292691 5.89946e-05 0.000323925 0.000208602 
0.000237217 0.000237745 0.000240655 0.000239955 0.000166603 0.000116619 0.000141295 0.000219228 6.01796e-05 
6.32599e-05 5.98742e-05 0.000600601 0.000237869 0.000271899 0.000336206 0.000273817 0.000244017 0.000248438 
0.000241904 0.000156321 0.000268463 0.00023171 0.000347501 0.000320246 7.07376e-05 0.000359076 0.000341816 
0.000318837 0.000336767 0.000306567 0.00022075 0.000245626 0.000252116 0.000245535 0.000417553 0.000178525 
0.000195949 0.000178957 0.000380378 0.000197825 4.92776e-05 4.41488e-05 4.24086e-05 0.000404325 0.000424 
0.000402003 0.000124673 0.000194486 0.000137857 0.000143796 0.000249328 0.000214647 0.000327474 0.000102521 
0.000202789 0.000229732 0.000220959 0.000194343 6.20996e-05 0.000267357 8.52078e-05 0.000247087 0.000245529 
0.000207615 0.000197901 0.000460029 0.000382745 0.00018868 0.000183019 0.0001919 0.000186337 0.000186417 
0.000118944 8.27886e-05 7.66174e-05 0.000250022 0.000237535 5.29692e-05 0.000348662 0.000328015 0.00036958 
0.000197792 0.000254567 0.000270852 0.000280131 0.000242982 0.000392401 0.00018473 0.000174311 0.000184839 
0.0003426 0.000336988 0.000321032 0.00217585 0.000280011 0.000355039 0.000157998 0.000290057 0.000304181 
0.000306729 0.000310833 0.00028896 0.00027148 0.000223736 0.00022161 0.000222801 0.000196877 0.000192993 
0.00319248 0.000366515 0.000110345 0.000106619 9.38378e-05 0.000121242 0.00013477 0.00013466 0.000155381 
0.000159487 0.000165361 7.55863e-05 0.00021206 0.000263159 0.000271592 0.000262357 0.000262373 0.000254853 
0.00074293 0.00051903 0.000445011 0.000441733 0.000444389 9.09285e-05 0.000137934 0.00012174 0.000250157 
0.000209071 0.000210385 0.000255073 0.00025514 0.000254999 0.000361966 0.00020954 0.000343625 6.60576e-05 
0.00024331 0.000271026 0.000262844 0.000469599 0.000225308 0.000335953 0.000766039 0.000484603 0.00029568 
0.000253354 0.000307133 0.000214621 0.000213238 0.000213409 0.000243217 8.25016e-05 0.000383206 0.000152717 
0.000176946 0.000181459 0.000183744 0.000176478 0.000547632 0.000519595 0.000643567 0.000587124 0.000486256 
0.000313113 0.00022437 0.000272092 0.000189003 0.000189208 0.000187784 0.000449853 0.000499627 0.000464595 
0.000462047 0.000485731 0.000499503 0.000427716 0.000450391 0.000416558 0.000304653 0.000127983 0.00015812 
0.000337984 0.000264522 0.000256839 0.000261898 0.000257094 0.000518756 0.000497904 0.000534182 0.000382768 
0.000177683 0.000181626 4.57427e-05 0.000420487 0.000421982 0.000422646 0.000441245 0.00042226 0.000268425 
0.000113714 9.3328e-05 0.000302179 0.000211545 0.000212363 0.000401664 0.000403851 0.000290447 3.13193e-05 
0.000300011 0.000302263 0.000380671 0.000272295 0.000272085 0.000236685 0.000236846 2.58647e-05 0.000173813 
0.000192362 0.000189222 0.000838134 0.000385504 0.000303283 0.000434695 6.6833e-05 6.85635e-05 8.32248e-05 
0.000245792 0.000322655 0.000318891 0.000293598 0.000249479 0.000249519 0.000186767 0.000256403 0.000721305 
0.000726989 0.00071809 0.000645345 9.2961e-05 0.000193686 0.000166998 9.81186e-05 0.000188589 0.000203731 
0.000197823 0.000244822 0.000150014 0.000157986 0.00054342 0.000470524 0.000447346 0.000105862 0.000144246 
0.000154318 0.000404069 0.000401955 0.000162424 0.000367252 0.000400126 0.000390786 0.00024766 0.000163703 
0.000163383 0.000148987 0.000309665 0.00030332 0.000305679 0.000597423 0.000210886 0.000211695 0.00030903 
7.86986e-05 0.000213179 0.000228821 0.000310501 0.00021321 3.21422e-05 0.00038781 0.000493228 0.000692502 
0.000471214 4.20458e-05 3.4111e-05 0.000453561 0.000483232 0.000238655 0.00033147 0.000408673 0.00040753 
0.000403061 0.000185259 0.000185432 0.000830164 0.000715187 0.000832867 0.000594016 0.000623559 0.000677604 
0.000683717 0.000189259 0.000176429 0.000793999 0.000681348 0.0006662 2.43501e-05 0.000479039 0.000547124 
0.000249129 0.00018844 0.000706289 0.000237767 0.000245074 0.00023147 0.000231653 0.000224914 0.000249709 
0.000221405 0.000186071 0.00018613 0.000424077 0.000237773 0.00212786 0.00150152 0.00136807 0.000169623 
0.00041449 0.000204489 0.000192428 0.000164788 0.000210506 0.000208567 0.000613723 0.000555245 0.000191275 
0.00019128 0.000460679 8.14963e-05 0.000494617 0.000255218 0.000268297 0.000309029 0.000242109 0.00026745 
0.00286557 0.00287401 0.000127214 0.000212551 0.000402479 0.000597348 0.000261605 0.000280703 0.000138648 
0.000444634 0.000444686 0.000418038 0.000434922 0.00115647 0.00048071 0.000451373 0.000138981 0.000172511 
0.000181531 0.000132102 0.000538139 0.000526609 0.000171446 0.000237488 3.57073e-05 0.000126613 0.0015453 
0.000245933 7.20922e-05 0.000472336 0.000463806 0.000427434 0.000127457 0.000141165 0.000172277 0.000427289 
0.000173274 0.000376023 0.000574573 0.000121816 0.000224737 0.000765345 8.07814e-05 7.88967e-05 0.000436747 
0.000271138 2.97501e-05 0.00028364 0.000278611 0.000634437 7.76523e-05 0.000219003 0.000284875 0.000252261 
0.000176551 0.000266532 0.000266811 0.000231323 0.000168575 0.000444825 0.000253254 0.000253325 0.000206119 
0.000165738 0.000165987 0.000438874 0.0038788 9.72004e-05 0.000252325 0.00046291 0.000455696 0.000455399 
0.00025559 0.00025578 0.0001637 0.000209301 0.000237821 0.00025288 0.00025297 0.000450963 0.000223164 
0.000249568 0.000196877 0.000222216 0.000215469 0.00026226 5.54094e-05 2.6454e-05 0.000156923 
Strain%20xy%20component 1 3545 double
-5.53951e-05 -8.5026e-06 -8.26176e-06 -0.000326864 3.47373e-07 3.035e-07 8.86672e-06 2.34363e-07 3.34735e-07 
1.04244e-05 3.7183e-05 4.74064e-05 1.37711e-05 1.41552e-06 2.06316e-05 2.85655e-05 3.35619e-05 3.93135e-06 
-2.91136e-06 -3.26765e-06 -7.11662e-05 2.41424e-05 -2.5831e-06 1.32632e-06 -0.000151104 -3.67016e-05 1.21522e-05 
1.40181e-06 -2.09227e-06 -0.000196158 1.27399e-05 1.75297e-05 2.17537e-05 5.67042e-06 -8.18026e-06 -2.58523e-06 
-2.08709e-06 5.47396e-07 -5.42817e-07 -1.56448e-06 -1.09234e-06 -1.04564e-06 -9.23298e-07 -7.17743e-07 -7.93863e-07 
-6.63178e-07 -6.46786e-07 2.72311e-07 3.64928e-07 -8.73396e-07 1.5286e-05 2.32329e-05 2.37808e-05 -8.14514e-06 
-7.48889e-06 -2.3384e-06 -5.91112e-08 -1.20631e-06 -1.32996e-06 -1.29534e-06 -1.05513e-06 -1.18585e-06 -1.17952e-06 
-7.75572e-07 -6.48483e-07 -4.01304e-07 -3.21601e-07 5.40619e-07 5.41558e-07 -2.39042e-08 -1.9485e-07 -5.07292e-07 
-7.19177e-07 -9.60829e-07 -5.97532e-07 -5.38663e-07 3.15825e-07 6.90038e-07 1.82543e-08 1.06086e-07 -5.67516e-07 
-7.55535e-07 -1.01922e-06 -9.57455e-07 -6.56494e-07 -2.14173e-07 8.95529e-07 5.96262e-07 -3.95249e-07 -7.90454e-07 
-2.70383e-07 -6.33965e-07 -1.2258e-07 1.15774e-07 1.44974e-07 1.85024e-07 -1.62968e-08 -2.85648e-08 2.34364e-08 
-8.48885e-08 -1.20198e-07 -2.57225e-08 1.69911e-06 -4.23394e-07 -1.04862e-06 -7.90159e-07 -3.01835e-07 3.01927e-08 
-3.9739e-07 3.94477e-08 3.25847e-08 -4.6651e-09 5.29929e-08 9.19509e-08 -8.94136e-08 2.72268e-08 3.13463e-08 
0.000105535 0.000144318 0.000103102 -1.10274e-05 -0.000133087 -0.000292289 -0.000655638 6.129e-05 0.000131729 
0.00013233 5.6178e-05 -7.32655e-05 -0.000190701 -0.000506841 -0.000353715 4.26462e-06 1.33097e-05 -2.16973e-05 
-5.35629e-06 3.44825e-06 1.15094e-06 4.9227e-06 3.32753e-06 -7.05167e-07 -6.45087e-07 -3.88323e-07 -5.85281e-07 
-5.78068e-07 -1.78481e-07 -1.7004e-07 -3.29245e-07 -3.66133e-07 -1.14458e-08 2.57911e-07 -5.00897e-06 9.30354e-06 
1.02388e-05 -1.61148e-05 3.55631e-06 1.21908e-06 2.50628e-06 5.49487e-06 -2.79301e-07 -1.11957e-06 -6.18149e-07 
-4.1883e-07 -6.817e-07 -6.09006e-07 -2.5915e-07 -1.41048e-07 -1.80093e-07 -2.66399e-07 3.0074e-07 3.57504e-07 
1.38064e-07 -8.30812e-08 -1.78494e-07 -4.05818e-07 -4.30087e-07 -4.56712e-07 -3.6343e-07 -1.58815e-07 3.5721e-08 
6.51192e-07 2.65521e-08 1.16581e-07 -3.53314e-07 -5.16719e-07 -6.66853e-07 -6.16093e-07 -4.10834e-07 -1.04769e-07 
6.06386e-07 3.86713e-07 -1.92718e-07 -2.92608e-07 1.15445e-07 -1.30852e-07 2.76581e-07 -1.4032e-07 3.85779e-07 
-7.29887e-08 1.4214e-07 -1.16652e-07 -5.44171e-08 -4.18924e-08 1.55358e-08 -1.65669e-07 2.57411e-06 -3.15268e-07 
-4.74616e-07 -5.08631e-07 -1.86451e-07 7.71019e-08 -2.37238e-07 1.93427e-08 2.45955e-08 1.29706e-08 -3.02685e-09 
6.22029e-08 -4.6873e-08 2.21939e-08 -3.787e-09 0.000104436 0.00015323 0.000106703 -5.15946e-06 -0.000131429 
-0.000157586 -0.00076288 6.1493e-05 0.00013589 0.000140378 5.9713e-05 -6.8479e-05 -0.000170612 -0.000395807 
-0.000650219 3.79011e-06 5.96354e-08 -4.08577e-07 -0.000112169 -3.33454e-07 -1.38966e-05 5.27388e-07 -7.84833e-05 
-0.000187554 -1.68511e-05 -2.42129e-06 -3.3522e-06 -8.77726e-07 -6.99013e-07 -8.893e-05 3.1622e-05 9.66064e-06 
-1.39495e-05 -4.22208e-05 -2.45496e-06 1.63293e-05 2.79346e-05 1.26055e-05 1.01495e-05 1.45279e-06 5.47436e-06 
-5.84861e-07 -3.15798e-06 -7.37704e-07 3.64908e-07 2.74674e-06 -0.00011943 -7.39351e-05 -4.00333e-05 -9.16238e-05 
-8.94243e-05 -3.84188e-05 -4.08184e-05 4.86266e-05 -9.9089e-05 -7.06162e-05 -5.43245e-05 -6.27626e-05 -8.36086e-05 
-8.82085e-05 -3.64777e-05 -6.9364e-05 -9.36811e-05 -0.000110269 1.32696e-05 -1.08111e-05 -3.1386e-05 -3.69852e-05 
-1.46437e-05 -1.45196e-05 -0.00010009 -1.87443e-05 -5.73787e-05 -4.82035e-05 -5.58324e-05 -5.63794e-05 0.000157641 
-0.000103745 -2.54305e-05 -2.46875e-05 -6.06443e-05 -8.97454e-06 -0.000112246 -5.19914e-05 -6.70124e-05 -4.61332e-05 
-0.000117768 -6.24388e-05 -8.42382e-05 -7.65267e-05 -3.96741e-05 8.8027e-05 -5.21263e-05 -1.90718e-05 -2.11553e-05 
-5.29321e-05 -2.74493e-05 -3.7595e-05 -0.000109058 -6.89994e-05 -0.000106021 3.20167e-05 -1.68734e-05 -3.63242e-05 
-4.50992e-05 -7.48321e-05 -7.09267e-05 -4.42281e-05 -9.27347e-05 -5.43507e-05 -2.16591e-05 -3.12013e-06 -8.34433e-05 
9.4372e-05 -3.43167e-05 -2.19465e-05 -0.000101703 -8.94654e-05 -0.000101307 -5.37933e-05 -4.41665e-05 -1.45133e-05 
-1.30725e-05 -1.87233e-05 -4.17865e-05 -0.000106881 -6.22192e-05 -6.96069e-06 -3.46136e-06 -8.38565e-05 -2.11488e-05 
-4.37736e-05 -0.000105113 -7.5597e-05 -7.86934e-05 -3.05239e-05 -6.79852e-05 -4.82503e-05 -6.24149e-05 -4.35662e-05 
-0.000114562 -0.000104596 -6.58132e-05 -2.73744e-05 -2.73234e-05 3.49919e-06 0.000125087 -4.94383e-05 -4.57733e-05 
-1.39804e-05 -0.000109111 -2.0037e-05 -4.84631e-06 -5.35001e-05 -0.000120493 -1.07023e-05 -1.04797e-05 -8.16573e-05 
-5.3144e-05 7.42525e-06 4.93105e-05 -7.31607e-05 0.000102353 -3.63885e-05 -1.34741e-05 -5.76169e-06 -3.61758e-05 
-0.000116006 -5.11075e-05 -0.000132667 0.000122473 -4.98447e-05 -5.88969e-05 -3.16626e-05 -3.05961e-05 -0.00030405 
-3.21105e-05 -9.78913e-05 -3.53297e-05 -1.6557e-06 -7.57576e-05 -2.99838e-05 -0.000110344 -2.02656e-05 -7.74063e-05 
-9.11014e-06 -9.26104e-05 -1.38043e-05 -1.28869e-05 -1.57566e-05 -0.000115617 -1.28115e-05 1.21266e-05 -3.33253e-05 
0.000101911 7.81861e-06 -8.92728e-05 0.000137861 -4.39847e-05 -7.0936e-05 -7.04679e-05 -0.000105398 -8.98171e-05 
-7.32822e-05 1.55554e-06 -0.000118174 -1.61283e-05 -6.69667e-05 -7.3128e-05 -2.08957e-05 -4.3101e-05 -4.49415e-05 
-3.48895e-05 -8.69618e-06 -6.00084e-06 -8.26094e-05 -4.64984e-05 -2.37656e-05 -8.73328e-05 -2.74468e-05 -3.87969e-05 
-6.58174e-05 -6.44977e-05 -6.08152e-05 -3.11618e-05 -6.75351e-05 -6.56824e-05 -0.000113211 -8.62266e-05 -5.37221e-05 
5.7251e-05 -3.31151e-05 -8.47588e-05 -9.32057e-05 0.000106672 -1.91704e-05 -4.13689e-05 -1.20358e-05 -3.22203e-05 
-2.26344e-05 -9.11816e-05 -1.88995e-05 -8.93231e-05 -5.34215e-05 -5.10799e-05 -6.89296e-05 -5.36775e-06 -3.42437e-06 
-2.71326e-05 -3.49407e-05 -2.30307e-06 6.04859e-07 -9.87333e-05 -0.000155489 -0.000136778 -0.000413471 5.24775e-05 
4.05398e-05 5.78503e-05 5.18501e-07 5.32873e-07 4.68917e-07 -7.74311e-07 -1.29614e-06 -1.3097e-06 1.87027e-06 
8.04051e-06 4.49464e-05 4.66331e-05 3.33787e-05 -9.33081e-05 8.56978e-05 6.80574e-05 3.93344e-05 6.21162e-05 
5.66573e-05 0.000113174 0.000110415 -1.13611e-05 -1.02567e-05 -1.14726e-05 -1.56785e-05 -1.59263e-05 -3.12403e-05 
-2.21801e-05 -3.87332e-05 -1.76378e-05 -1.79522e-05 -3.41115e-05 -2.1567e-05 -2.27556e-05 -3.94609e-05 -1.56467e-05 
-1.61497e-05 -3.84022e-05 -1.50863e-05 -1.58764e-05 -3.11386e-05 -9.92438e-06 -1.02038e-05 -2.54506e-05 -1.08021e-05 
-1.13324e-05 -2.10077e-05 -5.89478e-06 -6.0567e-06 -1.69635e-05 -6.79674e-06 -7.05914e-06 -1.30103e-05 -6.2141e-06 
-6.48908e-06 -1.34446e-05 -5.33488e-06 -5.68324e-06 -1.47586e-05 -9.58116e-06 -1.60868e-05 -2.4463e-06 -2.77196e-06 
-7.96525e-06 -3.74861e-06 4.98229e-05 6.2824e-05 -2.84074e-06 7.49119e-05 5.77685e-05 4.20176e-06 2.50571e-05 
-2.24623e-05 -2.60218e-05 1.4491e-05 -4.26004e-05 -3.7362e-05 -8.15495e-05 -4.11199e-05 -0.000110181 -0.000158852 
-6.23124e-05 -0.000223004 -0.000356265 -9.90167e-05 -0.000193375 -4.56671e-06 -3.95477e-06 -7.88112e-06 -3.54511e-06 
-4.5467e-06 -8.02833e-06 -7.35169e-06 -1.16466e-05 -7.32568e-06 -7.01223e-06 -1.41633e-05 -1.15359e-05 -1.13741e-05 
-1.76799e-05 -1.10148e-05 -1.1286e-05 -2.16545e-05 -6.48986e-06 -6.87277e-06 -1.71151e-05 -6.10715e-06 -7.18437e-06 
-1.3008e-05 -2.02882e-06 -2.92818e-06 -9.50377e-06 -4.6862e-06 -8.91911e-07 -1.26598e-06 5.65703e-05 6.06416e-05 
0.000107405 7.57861e-05 7.59721e-05 0.00011669 4.80086e-05 3.4476e-05 9.76602e-05 -8.61647e-06 -1.51147e-05 
3.58579e-05 3.91102e-06 -1.63769e-05 -1.18897e-05 -5.7433e-06 -1.54554e-05 -3.113e-06 -2.61167e-06 -4.18846e-06 
-8.83179e-06 -7.88207e-06 -1.18084e-05 -9.80891e-06 -1.61809e-05 -8.36355e-06 -1.14105e-05 -1.2642e-05 -1.9486e-05 
-1.5514e-05 -1.57017e-05 -3.60571e-05 -2.23046e-05 -3.2259e-05 -1.41002e-05 -1.40076e-05 -2.86583e-05 -1.43256e-05 
-1.41463e-05 -3.21431e-05 -1.91674e-05 -3.18205e-05 -1.84305e-05 -1.76814e-05 -3.10229e-05 -9.84016e-06 -9.59679e-06 
-2.65801e-05 -1.05402e-05 -9.98742e-06 -1.95153e-05 -8.40254e-06 -7.74523e-06 -1.79174e-05 -6.08113e-06 -4.83222e-06 
-1.56323e-05 -1.09601e-05 -1.86075e-05 -1.75916e-06 -1.02e-06 -6.89584e-06 -9.94679e-07 -0.000111191 -0.000118185 
-0.000112999 -0.000115256 -0.000108499 -0.000112476 -0.000116966 -0.000118617 -0.000116506 -0.000119187 -0.000120172 
-0.000119186 -7.93284e-05 -7.90341e-05 -7.48577e-05 -6.97653e-05 -7.02984e-05 -7.77167e-05 -7.61629e-05 -7.28085e-05 
-6.84282e-05 -6.98942e-05 -6.43156e-05 -6.80255e-05 -6.38111e-05 -8.33796e-05 -5.66428e-05 -7.09315e-05 -5.57466e-05 
-5.58149e-05 -4.14555e-05 -6.37369e-05 -4.67469e-05 -2.61809e-05 -3.4137e-05 -7.99422e-06 -1.98304e-05 -2.89192e-05 
-3.23254e-05 -6.15722e-06 -9.78738e-05 -0.000103132 -9.72328e-05 -9.70523e-05 -9.21012e-05 -8.4045e-05 -8.24526e-05 
-9.06846e-05 -9.75007e-05 -8.48689e-05 -7.71113e-05 -8.5891e-05 -9.71812e-05 -9.94654e-05 -9.08001e-05 -8.00942e-05 
-7.92876e-05 -0.000102943 -9.58879e-05 -8.93425e-05 -9.50495e-05 -7.05399e-05 -8.13588e-05 -8.17644e-05 -4.81079e-05 
-4.47335e-05 -4.195e-05 -3.66247e-05 -3.99684e-05 -4.75326e-05 -4.10291e-05 -3.75714e-05 -3.5145e-05 -3.11924e-05 
-2.55247e-05 -3.28253e-05 -3.12329e-05 -2.77423e-05 -4.69708e-05 -4.85425e-05 -4.27235e-05 -3.95447e-05 -3.78972e-05 
-2.89565e-05 -3.57994e-05 -3.40686e-05 -3.12675e-05 -4.97174e-05 -4.331e-05 -3.81529e-05 1.85003e-05 2.25046e-05 
3.53433e-05 3.69977e-05 4.77241e-05 1.96993e-05 -9.49487e-06 9.78144e-05 9.39096e-05 6.76315e-05 9.04406e-05 
0.000133112 -9.31429e-05 -8.87154e-05 -0.000102866 -0.000107369 -0.000112021 -8.90452e-05 -8.78682e-05 -9.93683e-05 
-0.00010677 -7.72447e-05 -5.99218e-05 -5.98578e-05 -7.01983e-05 -7.94909e-05 -8.05817e-05 -7.40538e-05 -6.75388e-05 
-7.69133e-05 -8.10824e-05 -8.71068e-05 -5.798e-05 -4.70777e-05 -9.10957e-05 -5.44661e-05 -5.44928e-05 -5.76608e-05 
-5.12462e-05 -4.77391e-05 -4.47705e-05 -5.30576e-05 -4.93029e-05 -5.83922e-05 -6.08941e-05 -6.50389e-05 -4.26375e-05 
-6.4243e-05 -6.42123e-05 -5.95459e-05 -5.80257e-05 -5.24599e-05 -5.71241e-05 -6.64066e-05 -6.7869e-05 -6.08759e-05 
-5.50752e-05 -6.95516e-05 -5.797e-05 -7.73199e-05 -6.44603e-05 -7.52679e-05 -5.56661e-05 -8.21701e-05 -8.78589e-05 
-9.92366e-05 -9.47075e-05 -9.92641e-05 -8.87747e-05 -7.98837e-05 -6.75819e-05 -8.69465e-05 -7.23217e-05 -7.83573e-05 
-6.3627e-05 -0.000108346 -9.96037e-05 -9.68928e-05 -9.5925e-05 -9.72736e-05 -8.80147e-05 -7.77636e-05 -2.87451e-05 
-2.90332e-05 -3.65793e-05 -2.90805e-05 -3.50637e-05 -3.88326e-05 -4.03099e-05 -4.55488e-05 -4.1607e-05 -2.71913e-05 
-4.12545e-05 -8.04149e-05 -7.00595e-05 -7.96968e-05 -7.83558e-05 -8.85618e-05 -5.2994e-05 -6.7232e-05 -5.56344e-05 
-6.12889e-05 -4.78221e-05 -6.20234e-05 -7.60076e-05 -0.000102053 -9.72906e-05 -9.75644e-05 -9.36076e-05 -9.19376e-05 
-8.76156e-05 -8.86415e-05 -8.65159e-05 -9.16111e-05 -8.5448e-05 -9.1042e-05 -0.000105676 -0.000105769 -0.000107983 
-0.00010822 -0.000111645 -0.000109286 -0.000109428 -0.000112562 -0.000114302 3.11276e-05 2.43265e-05 1.93077e-05 
9.59654e-06 -1.654e-06 -1.04658e-05 -1.36442e-06 -7.9309e-06 3.0352e-05 4.72793e-06 -2.33741e-06 9.16969e-06 
-1.12371e-05 8.3958e-06 -1.04379e-05 -2.05822e-05 -6.13723e-05 -4.16492e-05 -3.20875e-05 -4.45726e-05 -2.48366e-05 
-2.53846e-05 -2.53925e-05 -3.15559e-05 -2.51079e-05 -2.1971e-05 -2.06484e-05 -2.2951e-05 -2.95917e-05 -3.64532e-05 
-3.46037e-05 -3.77056e-05 -4.59512e-05 -3.97435e-05 -2.88658e-05 -2.86612e-05 -3.73436e-05 -4.59817e-05 -4.49947e-05 
-4.97129e-05 -4.16498e-05 -3.83994e-05 -3.41007e-05 -2.62242e-05 -2.37439e-05 -1.26756e-05 -1.78182e-05 -2.60189e-05 
-2.24531e-05 -2.11024e-05 -2.02866e-05 -1.41416e-05 -1.02549e-05 -8.7645e-06 -3.47724e-06 -8.79668e-06 -2.10455e-05 
-2.09676e-05 -1.47396e-05 -1.1798e-05 -1.04386e-05 -1.00067e-05 -6.1721e-06 -1.91747e-05 -1.72344e-05 -1.28568e-05 
-8.69064e-05 -8.45345e-05 -9.46666e-05 -0.00010778 -0.000103558 -9.78198e-05 -0.000112601 -0.00010462 -9.34713e-05 
-7.99553e-05 -1.2245e-05 -1.71602e-05 -3.56792e-05 -3.55673e-05 -2.15095e-05 -9.31512e-06 -3.31831e-05 -4.77724e-05 
-6.43483e-05 -6.63575e-05 -5.48869e-05 -4.69103e-05 -4.38886e-05 -5.80141e-05 -4.68976e-05 -4.54591e-05 -4.28664e-05 
-6.83696e-05 -6.86392e-05 -3.4378e-05 -3.46741e-05 -3.32375e-05 -4.60134e-05 -5.81101e-05 -4.95954e-05 -3.97065e-05 
-6.09422e-05 -5.56904e-05 -6.78976e-05 -5.47707e-05 -4.99093e-05 -5.10915e-05 -6.0772e-05 -5.91783e-05 -5.7887e-05 
-5.48252e-05 -5.94118e-05 -4.99532e-05 -5.3848e-05 -5.65005e-05 -5.94869e-05 -6.11507e-05 -4.96076e-05 -5.23698e-05 
-5.86065e-05 -6.35415e-05 0.000112131 0.000142802 0.000143265 0.000147297 0.000153041 0.000137698 0.000139434 
0.000136936 0.000132754 -0.000104498 -9.6346e-05 -9.58493e-05 -0.000109819 -0.000106961 -0.000101222 -0.000104936 
-9.30747e-05 -3.07991e-05 -2.34886e-05 -1.99506e-05 -2.65101e-05 -1.98409e-05 -3.02617e-05 -3.56522e-05 -2.6053e-05 
-1.88038e-05 -1.90666e-05 -2.29122e-05 -2.89732e-05 -2.99048e-05 -3.40781e-05 -6.35278e-05 -6.75141e-05 -6.33093e-05 
-7.06164e-05 -5.68542e-05 -5.74081e-05 -5.3005e-05 -8.23022e-05 -7.69999e-05 -3.90052e-05 -3.26615e-05 4.30634e-06 
7.9701e-05 9.56553e-05 2.19385e-05 -0.000132383 -0.000108549 -0.000102298 -0.000109059 -0.000112954 -0.000113082 
-0.000116428 -0.000115572 -0.000116056 -6.03288e-05 -4.11205e-05 -4.24308e-05 -6.9147e-05 -6.11684e-05 -5.15678e-05 
-7.3356e-05 -6.10486e-05 -5.52103e-05 -5.00284e-05 -8.26965e-05 -8.07449e-05 -9.58079e-05 -5.20066e-05 -6.72362e-05 
-5.08156e-05 -6.14524e-05 -4.70399e-05 -3.28557e-05 -2.04308e-05 -2.90774e-05 -6.081e-05 -4.33194e-05 -0.000113217 
-0.000112029 -0.000117547 -0.000117496 -0.000120209 -0.000117152 -2.99293e-05 -5.50268e-05 -7.39861e-05 -6.95675e-05 
-8.60266e-05 -3.54132e-05 -8.42642e-05 -7.96011e-05 -7.41413e-05 -7.86831e-05 -8.69422e-05 -8.83921e-05 -8.15947e-05 
-7.60937e-05 -7.49193e-05 -6.95629e-05 -7.21701e-05 -8.28999e-05 -7.94923e-05 -7.4838e-05 -5.23135e-05 -4.09017e-05 
-3.13652e-05 -3.17481e-05 -4.22777e-05 -2.8322e-05 7.62586e-05 5.0526e-05 8.54528e-05 0.000118853 0.00011507 
-6.12853e-05 -7.3109e-05 -4.00135e-05 -4.22366e-05 -5.29335e-05 -4.1059e-05 -2.147e-05 -2.61745e-05 -3.08011e-05 
-4.01343e-05 -5.29983e-05 -6.18079e-05 -4.69861e-05 -4.91652e-05 -5.2958e-05 -3.55586e-05 -2.47158e-05 -1.9857e-05 
-2.87081e-05 -3.59011e-05 -4.27777e-05 -4.4276e-05 -0.000112385 -0.000115579 -0.000107308 -0.000103499 -0.000100899 
-0.000102065 -9.87542e-05 -9.49135e-05 -3.237e-05 -4.58992e-05 -4.06201e-05 -4.91529e-05 -5.23116e-05 -6.91712e-05 
-6.5671e-05 -7.03099e-05 -4.64812e-05 -6.14879e-05 -8.54483e-05 -9.14406e-05 -1.03792e-06 3.12297e-07 1.22101e-05 
8.82815e-06 -1.83407e-05 6.15726e-06 3.76819e-06 3.90389e-06 1.46876e-06 1.45091e-06 -2.55141e-07 -4.85046e-07 
-6.54003e-07 -3.41294e-07 -5.65616e-07 -6.11643e-07 -4.00607e-07 -9.9735e-07 5.19472e-10 -2.43127e-07 -4.06172e-06 
-4.12047e-06 4.63299e-06 1.35765e-06 2.34796e-07 2.91584e-07 3.2326e-07 2.85864e-07 1.51603e-05 1.30322e-05 
7.90967e-06 8.2694e-06 1.03281e-05 1.09992e-05 1.18786e-05 1.1274e-05 1.28173e-05 -2.725e-06 7.86691e-07 
-2.22574e-06 -1.29178e-05 -3.27176e-05 -1.59011e-07 2.96018e-06 -1.63698e-05 1.15119e-06 5.13546e-06 6.89221e-08 
-1.09498e-06 7.046e-06 -2.28676e-07 2.67603e-06 3.18243e-07 -2.48029e-07 1.36292e-06 -4.62966e-07 7.37503e-07 
2.94897e-06 3.46043e-07 4.10058e-06 9.16502e-07 2.68431e-06 5.22373e-07 7.65005e-07 4.73212e-06 2.40403e-06 
1.70675e-06 -9.35679e-07 -4.36342e-07 1.88262e-07 -4.55082e-07 -5.51236e-07 -6.78225e-07 -6.88366e-07 -4.84962e-07 
-3.0017e-07 -2.95331e-07 -7.43314e-07 -8.35153e-07 -4.04793e-07 -5.55137e-07 -4.71386e-07 -5.61013e-07 -6.18577e-07 
-6.04682e-07 -5.98974e-07 -4.89761e-07 -6.52054e-07 -4.82164e-07 -4.8644e-07 -4.57256e-07 -4.98585e-07 -7.08727e-07 
-6.31867e-07 -4.33688e-07 -4.39642e-07 -3.5274e-07 -4.60035e-07 -5.95628e-07 -3.50412e-07 -4.78669e-07 -3.10882e-07 
-6.90514e-07 -8.16921e-07 -2.99642e-07 -5.33562e-07 -6.59861e-07 -5.01806e-08 -2.70141e-07 -4.67052e-07 -4.8283e-07 
-2.1029e-07 -7.0368e-08 4.00774e-08 -1.86819e-07 -1.37533e-07 -1.35067e-07 7.43096e-08 6.75692e-10 -0.000117376 
-7.33101e-05 -3.93279e-05 -9.03026e-05 -8.83289e-05 -3.78898e-05 -4.02181e-05 3.92302e-05 -9.54369e-05 -6.87165e-05 
-5.37413e-05 -6.16965e-05 -8.23066e-05 -8.41261e-05 -3.598e-05 -6.81981e-05 -9.28954e-05 -0.000108853 1.33729e-05 
-1.2093e-05 -3.11284e-05 -3.61963e-05 -1.45432e-05 -1.42888e-05 -9.79133e-05 -9.57032e-06 -5.59198e-05 -4.79286e-05 
-5.52493e-05 -5.5687e-05 9.71351e-05 -0.000102119 -2.46615e-05 -2.41681e-05 -5.98796e-05 -0.000121177 -0.000110666 
-5.14223e-05 -6.51444e-05 -4.21538e-05 -0.000115251 -5.66932e-05 -8.32256e-05 -7.57997e-05 -3.85396e-05 4.8736e-05 
-5.07748e-05 -1.87712e-05 -2.07114e-05 -4.98886e-05 -2.72521e-05 -3.69413e-05 -0.000107135 -6.66429e-05 -0.000103913 
3.62369e-05 -1.21481e-05 -2.22119e-05 -4.44803e-05 -7.41162e-05 -6.98576e-05 -4.33973e-05 -9.14103e-05 -5.40064e-05 
-2.09127e-05 6.39698e-06 -8.20715e-05 9.58152e-06 -3.32064e-05 -2.18339e-05 -0.000100573 -8.81804e-05 -9.99106e-05 
-4.81427e-05 -4.33981e-05 -1.40098e-05 -1.28176e-05 -9.77967e-06 -4.09221e-05 -0.000102561 -6.14677e-05 -6.61836e-06 
-3.77562e-06 -8.29611e-05 -2.03103e-05 -4.1401e-05 -0.000104145 -7.4421e-05 -7.73254e-05 -3.03842e-05 -6.73246e-05 
-4.76366e-05 -6.19413e-05 -4.3e-05 -0.000113322 -0.000103258 -6.4939e-05 -2.69304e-05 -2.69405e-05 -1.82909e-05 
6.398e-05 -4.8916e-05 -4.51677e-05 -1.38537e-05 -0.000105485 -1.93252e-05 6.2754e-06 -5.27895e-05 -0.00011851 
-1.05401e-05 -1.05255e-05 -8.08979e-05 -5.25495e-05 1.80731e-05 4.4312e-05 -7.12596e-05 8.35008e-05 -3.53324e-05 
-1.39874e-05 -6.75461e-07 -3.56575e-05 -0.000113931 -5.05255e-05 -0.000101385 2.08449e-05 -4.53554e-05 -5.80881e-05 
-3.13886e-05 -3.00982e-05 -0.000523883 -3.15067e-05 -9.4632e-05 -3.44759e-05 5.61094e-06 -7.06993e-05 -2.87213e-05 
-0.000109141 -1.98957e-05 -7.40767e-05 1.48653e-06 -9.1424e-05 -1.30794e-05 -1.23647e-05 -1.5265e-05 -0.000111994 
-1.27152e-05 -0.000187325 -3.26577e-05 6.53375e-05 2.16178e-05 -8.85302e-05 8.5055e-05 -4.33717e-05 -6.97629e-05 
-6.96075e-05 -0.000103682 -8.75209e-05 -7.24766e-05 3.24597e-06 -0.000115983 -1.37615e-05 -6.5498e-05 -7.23444e-05 
-2.0184e-05 -4.05469e-05 -4.21381e-05 -3.43693e-05 -8.23626e-06 -5.97641e-06 -7.24492e-05 -4.58333e-05 -2.3419e-05 
-8.62819e-05 -2.62237e-05 -3.77304e-05 -6.49785e-05 -6.33187e-05 -6.04129e-05 -3.05364e-05 -6.70535e-05 -6.51109e-05 
-0.000111646 -8.38718e-05 -5.23908e-05 1.24304e-05 -2.66854e-05 -7.88563e-05 -9.08128e-05 8.82933e-05 8.80718e-07 
-4.10178e-05 -1.19214e-05 -3.16723e-05 -2.15238e-05 -9.01055e-05 -1.83504e-05 -8.81914e-05 -5.28717e-05 -4.98067e-05 
-6.64556e-05 -5.2555e-06 -3.60854e-06 -2.61674e-05 -3.42224e-05 -2.02571e-06 1.51606e-07 -9.70435e-05 3.44821e-05 
4.21836e-05 4.76263e-05 -0.000461368 -0.000628185 -0.000340389 1.51905e-07 2.33567e-07 1.23503e-07 -6.77202e-07 
-1.13786e-06 -1.24516e-06 5.00788e-05 1.15143e-05 3.53842e-06 6.94839e-05 5.41635e-05 4.78549e-06 6.60671e-05 
8.64999e-05 1.28293e-05 -1.62692e-05 3.36869e-05 1.84336e-05 -1.55506e-05 -3.89132e-05 -8.26567e-05 -3.84295e-05 
-4.07218e-05 -0.000119429 -0.000103375 -5.80476e-05 -0.000354522 -0.000111112 -8.19231e-05 -0.000280808 -3.71677e-06 
-4.19972e-06 -3.33217e-06 -7.51579e-06 -4.36073e-06 -6.90516e-06 -7.5614e-06 -1.10742e-05 -6.60609e-06 -6.82678e-06 
-1.35878e-05 -1.07308e-05 -1.08457e-05 -1.69617e-05 -1.06601e-05 -1.04691e-05 -2.07989e-05 -6.45845e-06 -6.17017e-06 
-1.63635e-05 -6.85861e-06 -6.00113e-06 -1.26432e-05 -3.00085e-06 -2.18626e-06 -9.34556e-06 -1.23167e-06 -4.8626e-06 
-1.68868e-06 -8.50141e-05 -0.000143478 -0.000325332 4.06603e-06 3.18906e-06 -0.000100298 3.52102e-05 3.22865e-05 
4.37214e-05 7.69066e-05 4.90519e-05 4.37771e-05 8.98505e-05 3.7945e-05 5.306e-05 8.45366e-05 -6.11878e-06 
-4.75999e-06 4.13231e-05 2.6705e-06 1.93111e-06 -1.12954e-05 -4.05607e-06 -1.18603e-05 4.01889e-06 3.38449e-06 
2.91029e-06 5.12001e-06 3.94263e-06 7.46323e-06 -5.47467e-06 -3.70852e-06 -3.04333e-06 -3.42562e-06 -1.19436e-05 
-7.48683e-06 -1.19546e-05 -1.08441e-05 -1.78943e-05 -1.48371e-05 -1.4685e-05 -2.13835e-05 -3.50261e-05 -3.14902e-05 
-1.3248e-05 -1.32885e-05 -2.75614e-05 -1.32736e-05 -1.3494e-05 -1.82162e-05 -3.09438e-05 -3.07147e-05 -1.69265e-05 
-1.74358e-05 -2.98018e-05 -8.92673e-06 -9.23228e-06 -2.56417e-05 -9.47177e-06 -9.97448e-06 -1.88008e-05 -7.41646e-06 
-7.99035e-06 -1.73321e-05 -4.89907e-06 -5.88546e-06 -1.06588e-05 -1.5439e-05 -1.82173e-05 -1.31338e-06 -1.86031e-06 
-6.98911e-06 -1.45496e-06 -8.65204e-06 -1.05688e-05 -8.55771e-06 -1.51552e-05 -1.52948e-05 -2.02939e-05 -2.97429e-05 
-3.74944e-05 -1.7507e-05 -1.7276e-05 -3.32545e-05 -2.23391e-05 -2.11166e-05 -3.88759e-05 -1.59926e-05 -1.55233e-05 
-3.77577e-05 -1.57519e-05 -1.50132e-05 -3.06718e-05 -1.00437e-05 -9.88098e-06 -2.51718e-05 -1.12407e-05 -1.06626e-05 
-2.07596e-05 -5.98541e-06 -5.85963e-06 -1.68436e-05 -6.986e-06 -6.7107e-06 -1.28503e-05 -6.42725e-06 -6.10693e-06 
-1.32949e-05 -5.58682e-06 -5.25354e-06 -9.46973e-06 -1.45383e-05 -1.59029e-05 -2.65522e-06 -2.43032e-06 -7.78162e-06 
-3.58163e-06 -0.000111008 -0.000116022 -0.000109098 -0.000106624 -0.000113349 -0.000115298 -0.000111149 -0.000114975 
-0.000116523 -0.000118523 -0.000116888 -0.000116978 -7.42015e-05 -7.8227e-05 -7.83977e-05 -6.94389e-05 -6.90981e-05 
-7.19174e-05 -7.53414e-05 -7.70182e-05 -6.92166e-05 -6.76264e-05 -6.72926e-05 -6.36043e-05 -6.32472e-05 -8.25603e-05 
-5.39167e-05 -6.90486e-05 -5.53813e-05 -4.01595e-05 -5.31443e-05 -4.59151e-05 -6.28587e-05 -3.43625e-05 -2.63026e-05 
-2.60171e-05 -1.97122e-05 -3.17498e-06 -2.72838e-05 -5.93755e-06 -9.60209e-05 -0.000101851 -9.66511e-05 -9.09234e-05 
-9.58786e-05 -8.93663e-05 -8.10023e-05 -8.29007e-05 -9.64786e-05 -7.59753e-05 -8.36975e-05 -8.50326e-05 -8.96501e-05 
-9.8262e-05 -9.63425e-05 -7.83422e-05 -7.91624e-05 -9.48078e-05 -0.000101803 -9.42682e-05 -8.83515e-05 -8.04581e-05 
-6.96924e-05 -8.08943e-05 -4.1422e-05 -4.41085e-05 -4.75086e-05 -3.93579e-05 -3.60545e-05 -4.04999e-05 -4.69823e-05 
-3.47974e-05 -3.71378e-05 -3.23588e-05 -2.51361e-05 -3.06678e-05 -3.06751e-05 -2.7376e-05 -4.2087e-05 -4.79138e-05 
-4.64293e-05 -3.73407e-05 -3.88668e-05 -3.35607e-05 -3.52617e-05 -2.84948e-05 -3.07566e-05 -4.2624e-05 -4.90848e-05 
-3.76309e-05 4.08821e-05 3.13573e-05 2.93376e-05 4.22614e-05 4.01457e-05 6.02305e-06 2.42633e-05 5.94367e-05 
6.42698e-05 3.60248e-05 1.62312e-05 5.60454e-05 -9.88211e-05 -8.39464e-05 -8.82411e-05 -0.000108173 -0.000103866 
-9.59216e-05 -8.46025e-05 -8.562e-05 -0.000103463 -7.2818e-05 -6.82989e-05 -5.68107e-05 -5.74753e-05 -7.88039e-05 
-7.74514e-05 -7.54473e-05 -6.6239e-05 -7.30132e-05 -8.58315e-05 -7.96201e-05 -4.39387e-05 -5.59829e-05 -8.93818e-05 
-5.31594e-05 -5.07343e-05 -5.713e-05 -5.39042e-05 -4.44094e-05 -4.73337e-05 -5.78609e-05 -4.87129e-05 -5.24611e-05 
-6.44886e-05 -6.03113e-05 -4.21879e-05 -6.38053e-05 -5.72333e-05 -5.8831e-05 -6.33905e-05 -5.60932e-05 -5.14196e-05 
-5.99782e-05 -6.69636e-05 -6.55199e-05 -5.38778e-05 -6.8676e-05 -6.32729e-05 -7.62359e-05 -5.69881e-05 -5.43884e-05 
-7.39577e-05 -8.66747e-05 -8.0947e-05 -9.31799e-05 -9.77363e-05 -8.7069e-05 -9.71264e-05 -7.81345e-05 -6.71848e-05 
-8.22257e-05 -5.99046e-05 -5.92557e-05 -7.51886e-05 -9.20236e-05 -9.57473e-05 -0.00010464 -9.13505e-05 -8.48211e-05 
-9.42954e-05 -7.52216e-05 -2.83703e-05 -2.81027e-05 -2.83703e-05 -3.59675e-05 -3.96909e-05 -3.81059e-05 -3.44952e-05 
-4.09721e-05 -4.48886e-05 -2.64926e-05 -4.0662e-05 -7.82727e-05 -6.90602e-05 -7.90198e-05 -8.75733e-05 -7.71793e-05 
-5.47275e-05 -6.59936e-05 -5.19834e-05 -4.67524e-05 -6.01932e-05 -6.10338e-05 -7.50478e-05 -9.66981e-05 -9.62078e-05 
-0.000100774 -9.24519e-05 -9.1032e-05 -8.78364e-05 -8.68241e-05 -9.06362e-05 -8.53248e-05 -8.45713e-05 -8.99607e-05 
-0.000104446 -0.000104408 -0.00010649 -0.000107006 -0.00010746 -0.000110166 -0.000111112 -0.000108062 -0.000112905 
2.55331e-05 3.00331e-05 1.29162e-05 2.0621e-05 6.67905e-06 -8.21879e-07 4.30465e-06 2.99017e-06 2.02294e-06 
1.87992e-05 1.20228e-05 3.13325e-06 9.27973e-06 -1.15316e-05 -1.5171e-05 8.77839e-07 -4.04052e-05 -5.18375e-05 
-3.26925e-05 -2.5125e-05 -4.32001e-05 -2.62099e-05 -2.48433e-05 -3.13006e-05 -2.50512e-05 -2.1784e-05 -2.93501e-05 
-2.27006e-05 -2.04575e-05 -3.43554e-05 -3.60496e-05 -3.93469e-05 -4.54275e-05 -3.73045e-05 -3.66068e-05 -2.77321e-05 
-2.81069e-05 -4.42281e-05 -4.52176e-05 -4.09657e-05 -4.90189e-05 -3.34301e-05 -3.77896e-05 -2.55784e-05 -2.32049e-05 
-1.75447e-05 -1.25653e-05 -2.22215e-05 -2.55516e-05 -1.40376e-05 -1.98925e-05 -2.08818e-05 -1.02994e-05 -8.91059e-06 
-8.89218e-06 -3.78966e-06 -1.43099e-05 -2.05692e-05 -2.05671e-05 -1.14512e-05 -1.0098e-05 -5.97575e-06 -9.81483e-06 
-1.88503e-05 -1.25296e-05 -1.70097e-05 -8.29846e-05 -8.47915e-05 -9.27559e-05 -0.00010163 -0.000105473 -9.58144e-05 
-0.000101918 -0.000110215 -9.11354e-05 -7.78941e-05 -1.17903e-05 -5.4366e-07 -3.03908e-05 -2.88392e-05 1.04413e-06 
-1.11589e-05 -2.78244e-05 -4.39706e-05 -5.34378e-05 -6.51489e-05 -6.29909e-05 -4.26395e-05 -4.58024e-05 -4.426e-05 
-4.58661e-05 -5.70491e-05 -4.15157e-05 -6.71027e-05 -6.75017e-05 -3.44775e-05 -3.39017e-05 -4.5543e-05 -3.29481e-05 
-3.91817e-05 -4.91021e-05 -5.76309e-05 -6.03897e-05 -5.52896e-05 -6.71171e-05 -4.93384e-05 -5.40868e-05 -5.04481e-05 
-5.84868e-05 -6.01044e-05 -5.41741e-05 -5.71614e-05 -5.86287e-05 -4.93079e-05 -5.87254e-05 -5.58932e-05 -5.31897e-05 
-6.03704e-05 -5.18873e-05 -4.92499e-05 -5.80993e-05 -6.29823e-05 5.30409e-05 5.30528e-05 1.94377e-05 8.34732e-05 
8.92942e-05 7.69434e-05 9.95502e-05 0.000104363 9.02632e-05 -9.49789e-05 -0.000102806 -9.4539e-05 -0.000108196 
-0.000105649 -0.000103541 -9.95979e-05 -9.14652e-05 -2.28665e-05 -3.01189e-05 -1.92483e-05 -1.91341e-05 -2.59006e-05 
-2.95934e-05 -3.50268e-05 -1.84429e-05 -2.55445e-05 -1.84658e-05 -2.22208e-05 -2.83478e-05 -2.9371e-05 -3.34425e-05 
-6.68996e-05 -6.27849e-05 -6.97555e-05 -6.23702e-05 -5.61949e-05 -5.2307e-05 -5.65564e-05 -5.73569e-05 -4.75021e-05 
-9.89151e-05 -3.36031e-05 -1.61534e-05 -5.09191e-05 -4.31909e-05 -0.000169255 -0.000295421 -0.000100941 -0.000107343 
-0.000107314 -0.000111397 -0.000114819 -0.000111113 -0.000113756 -0.000114341 -4.05837e-05 -5.969e-05 -4.18187e-05 
-6.05433e-05 -6.83017e-05 -5.07476e-05 -5.28896e-05 -5.81915e-05 -7.05237e-05 -4.88084e-05 -8.02196e-05 -9.33562e-05 
-7.8446e-05 -4.9657e-05 -6.54664e-05 -5.05798e-05 -4.27859e-05 -5.70667e-05 -3.01311e-05 -2.45963e-05 -1.60509e-05 
-3.71898e-05 -5.67054e-05 -0.000108355 -0.000109911 -0.000114305 -0.000115068 -0.000117856 -0.000114614 -4.66931e-05 
-2.1736e-05 -6.80498e-05 -8.01752e-05 -6.33958e-05 -2.93851e-05 -7.87719e-05 -8.32171e-05 -7.77447e-05 -7.33393e-05 
-8.58425e-05 -8.05515e-05 -8.73207e-05 -7.49006e-05 -6.89427e-05 -7.4125e-05 -7.14284e-05 -7.86703e-05 -8.21189e-05 
-7.41458e-05 -3.97724e-05 -5.098e-05 -3.02956e-05 -2.64643e-05 -4.05185e-05 -2.85415e-05 9.54797e-06 4.45451e-05 
3.87226e-05 5.49518e-05 6.70254e-05 -7.19891e-05 -6.02674e-05 -3.87018e-05 -3.96301e-05 -5.17753e-05 -4.09354e-05 
-2.11092e-05 -3.02232e-05 -2.56209e-05 -5.04962e-05 -3.62329e-05 -5.94154e-05 -4.8016e-05 -4.56386e-05 -5.16597e-05 
-2.44787e-05 -3.52942e-05 -1.96089e-05 -3.48804e-05 -2.79053e-05 -4.33238e-05 -4.17023e-05 -0.000113345 -0.000109588 
-0.000105343 -0.000100776 -9.87143e-05 -0.000100391 -9.7242e-05 -9.36267e-05 -2.82546e-05 -4.01191e-05 -4.52351e-05 
-5.18299e-05 -4.85485e-05 -6.8489e-05 -6.50612e-05 -6.88711e-05 -4.60273e-05 -6.02735e-05 -8.42753e-05 -8.97128e-05 
6.24856e-05 -7.5327e-05 0.000145474 0.000133273 6.03458e-05 -0.000161525 -0.000445511 -0.000612322 -0.000470263 
-0.000295475 -0.000658581 -0.000769378 3.33474e-05 3.36829e-05 8.53374e-05 8.36611e-05 0.000115865 0.000147434 
9.97035e-05 0.000131035 0.000152827 0.000154999 3.12769e-05 8.47612e-05 0.000108343 -3.49282e-05 -0.00010779 
1.34517e-06 -0.000157445 -0.000159526 -0.000136747 -0.000260769 -0.00057674 -0.000250263 -0.000637478 0.000145894 
0.000117999 0.00014761 0.00012739 8.17964e-05 3.13484e-05 -0.000109982 -3.81572e-05 -0.00020263 -0.000155684 
-0.000588199 -0.0004005 -1.11296e-07 -6.92646e-07 -2.99734e-07 -4.57346e-07 -6.43497e-07 -3.98415e-07 -1.44919e-07 
3.3935e-07 -7.99342e-07 -1.28618e-07 2.98592e-07 2.48523e-07 3.75454e-07 5.99935e-08 6.56132e-08 -1.94588e-07 
3.35954e-07 -2.3332e-07 -2.19535e-07 -3.49411e-07 -2.43946e-07 -2.59397e-07 -2.34253e-07 -3.65788e-07 -1.48041e-07 
-2.13892e-07 -3.18877e-07 -4.66737e-07 -3.92209e-07 -1.9578e-07 -1.98525e-07 -4.17188e-07 -4.95868e-07 -5.77191e-07 
-5.66594e-07 -3.75876e-07 -6.7149e-07 -4.9396e-07 -4.68427e-07 -6.36047e-07 -5.19671e-07 -7.26891e-07 -2.33152e-07 
-4.48885e-07 -5.27106e-07 -3.26988e-07 -4.85478e-07 -2.33007e-07 6.67608e-08 -3.38572e-07 -2.22262e-08 -1.712e-07 
3.46136e-07 4.59928e-08 -8.19226e-08 -4.7204e-09 2.7074e-07 1.3729e-07 2.62699e-07 -4.93541e-07 -2.55486e-06 
-7.34102e-07 -1.77701e-07 -2.06008e-07 6.19753e-08 2.03484e-07 5.29344e-07 7.76272e-08 -2.30541e-07 -1.30887e-07 
-6.6546e-08 -3.94465e-07 -8.75433e-08 -2.10924e-07 8.12593e-08 9.53889e-08 -9.10701e-08 3.59263e-06 2.66482e-06 
-4.42107e-07 -1.50101e-07 -2.70723e-07 -4.68186e-07 -2.47639e-07 -8.00747e-07 -3.01615e-07 -3.80981e-07 -4.83745e-07 
-6.3203e-07 -5.81796e-07 -2.75472e-07 4.57509e-09 -4.39193e-07 -4.2993e-08 -2.86716e-07 3.88613e-07 -2.93823e-07 
-4.04219e-07 -3.46377e-08 -2.3167e-07 1.50374e-07 -1.47086e-07 2.50722e-07 -1.66987e-07 -3.77159e-08 -1.71834e-08 
2.96643e-07 7.12144e-08 2.67153e-07 1.47464e-07 3.89383e-09 3.60779e-07 3.91123e-07 3.6821e-07 1.84382e-07 
5.80665e-07 2.51594e-07 -4.59528e-08 2.04984e-07 2.13136e-07 5.02558e-08 -1.38436e-07 -1.03636e-07 -7.71802e-08 
5.38639e-08 -8.4472e-08 -2.76614e-08 -2.16587e-08 -1.21869e-07 -2.0006e-07 -8.4057e-08 -4.07764e-08 -9.25142e-08 
-8.19169e-08 -1.12782e-07 -1.02192e-07 -3.66221e-08 -1.37618e-07 -6.22671e-08 -4.47538e-08 -4.3843e-08 -1.30694e-07 
-3.62471e-08 -1.08265e-07 -8.2946e-08 -7.0622e-08 -1.58901e-07 -1.57744e-07 3.76456e-05 -9.17244e-05 -7.70591e-05 
-2.69435e-05 -5.78954e-05 -4.47747e-05 -0.00010307 -3.21299e-05 -1.69456e-05 4.1191e-05 -1.16846e-05 -8.58758e-05 
-6.26922e-05 -5.9974e-05 -8.5314e-05 -4.13184e-05 -6.2516e-05 -5.43322e-05 -5.54458e-05 -5.68964e-05 -5.66058e-05 
-5.54895e-05 -5.27326e-05 -5.50767e-05 -4.74403e-05 -5.40035e-05 -4.9372e-05 -4.9179e-05 -4.30212e-05 1.26853e-05 
2.46483e-05 3.99118e-05 2.22423e-05 2.64961e-05 -4.11562e-05 -4.2897e-05 -9.51953e-05 -0.000106664 -8.88324e-05 
-0.000100419 -9.84673e-05 -6.99626e-05 -7.27515e-05 -7.47186e-05 -7.50826e-05 -7.21955e-05 -8.47913e-05 -8.76044e-05 
-1.12131e-05 -2.15039e-05 -2.97882e-05 -1.15856e-05 -2.04312e-05 -6.74427e-05 -7.26595e-05 3.39813e-05 3.72062e-05 
-1.1317e-05 -1.10927e-05 -1.28736e-05 -3.52179e-05 -1.43387e-05 -2.12026e-05 -1.47865e-05 -2.92507e-05 4.05596e-06 
-1.09498e-06 9.25398e-07 -4.54913e-06 -6.1783e-06 -2.21995e-05 -4.22916e-05 -1.14566e-05 -8.2661e-06 -8.78064e-06 
-1.63001e-05 -1.92862e-05 -1.13082e-05 -8.01759e-06 -1.90926e-05 -1.60665e-05 -6.24175e-06 -5.99672e-06 -5.84796e-06 
-1.25776e-05 -6.57723e-06 -6.40926e-06 -6.72283e-06 -6.89861e-06 -1.64903e-05 -1.07068e-05 -1.12029e-05 -2.10116e-05 
-2.11732e-05 -1.08697e-05 3.72401e-05 -8.08127e-05 -6.36677e-05 -0.000113117 -5.46781e-06 -1.13233e-05 -1.1204e-05 
-1.09563e-05 -6.74601e-06 -7.3923e-06 -7.08418e-06 -1.71192e-05 -1.33893e-05 -1.10594e-05 -2.059e-05 -6.41961e-05 
-6.92976e-05 -8.10647e-05 -9.0219e-05 -9.27505e-05 -9.08853e-05 -8.86482e-05 -9.83903e-06 -9.6259e-06 -9.86886e-06 
-1.37156e-05 -6.58671e-06 -7.28893e-06 -6.35437e-06 -7.09471e-06 -6.66837e-06 -6.77187e-06 -1.88303e-05 -1.86709e-05 
-3.57034e-05 -1.82427e-05 -1.85084e-05 -1.80034e-05 -8.57914e-05 -1.64926e-06 -8.52597e-06 -8.48314e-05 -0.000114107 
1.1858e-05 1.19592e-06 3.55273e-06 -4.04741e-07 -2.00597e-05 -9.69724e-06 -9.99551e-06 -6.61553e-06 -1.26903e-05 
-6.60401e-05 -7.92838e-05 -7.86333e-05 -6.60274e-05 -8.36889e-05 -3.75884e-05 -3.90483e-05 -3.45803e-05 -5.01553e-07 
4.19623e-06 4.39729e-06 -1.85415e-06 -1.50007e-05 -1.48646e-05 -1.52736e-05 -2.08083e-05 -7.16795e-06 -1.79745e-06 
1.05591e-07 -1.61666e-06 -1.97826e-06 -3.72681e-06 -8.36049e-05 -8.62876e-05 -3.47101e-06 -1.41102e-05 -7.23022e-05 
-6.98609e-05 -7.93833e-05 -6.93259e-05 -4.95378e-05 -5.44143e-05 -5.30648e-05 3.56254e-07 -1.55551e-07 -2.07186e-05 
-4.11674e-05 -8.11111e-05 -8.55852e-05 -9.5841e-05 -7.52341e-05 -7.14591e-05 -5.47816e-05 -6.36447e-05 -7.44142e-05 
1.05292e-05 4.78733e-05 5.36377e-05 2.8267e-05 2.67892e-05 4.93859e-05 5.79661e-05 8.98849e-05 9.6904e-05 
-3.12506e-05 -1.32541e-05 -9.75791e-05 -9.04256e-05 -9.39104e-05 -1.45672e-05 -5.38338e-06 -9.11856e-06 -5.37281e-06 
-1.0572e-05 -8.69022e-06 3.57246e-05 5.32592e-05 5.5602e-05 4.8822e-05 -1.02325e-05 -1.03342e-05 -9.77302e-06 
-4.13042e-05 -5.20821e-05 -5.29195e-05 -5.19914e-05 -4.87761e-05 -3.75016e-06 -1.78272e-06 8.27317e-05 8.12578e-05 
1.54874e-05 7.4603e-05 -1.74697e-06 -2.62052e-09 -1.93937e-06 -5.88434e-05 -9.42595e-05 6.53224e-05 -3.04926e-05 
-5.00123e-05 -5.12404e-05 -1.00235e-05 -1.96733e-05 -1.06611e-05 -7.56041e-06 -1.41571e-05 -4.08002e-06 -1.74056e-06 
-2.18693e-06 -1.61297e-06 -4.40649e-06 -1.5064e-06 -3.7205e-06 -1.45451e-06 -3.36745e-05 -3.08898e-05 -1.51796e-05 
-1.55501e-05 -1.5781e-05 -4.05897e-05 -4.92561e-05 -5.15765e-05 -5.99259e-05 -2.41963e-07 -6.13084e-05 -6.04882e-05 
-6.05641e-05 -5.74042e-05 -5.08882e-05 -5.40762e-05 -8.61654e-05 -7.99381e-05 0.000110078 -6.05177e-05 -3.98271e-06 
-6.78425e-06 -3.6428e-06 -0.000112267 -0.00010819 -0.000107299 -0.000110657 -6.57507e-05 -9.78849e-06 -6.4418e-06 
-1.58778e-05 -1.27792e-05 -6.36503e-06 -9.62931e-06 -1.90184e-05 -1.54841e-05 -1.53169e-05 -3.16821e-05 -3.07195e-05 
-1.67027e-06 -5.06846e-05 -4.60942e-05 -4.51049e-05 6.17151e-05 8.19046e-05 7.22167e-05 -4.54808e-05 -1.84305e-05 
-1.38621e-05 -2.67567e-05 2.15621e-06 -6.88777e-05 -7.36197e-05 -6.52964e-05 -7.01049e-05 -6.05617e-05 -6.52995e-05 
-6.32041e-05 -5.82212e-05 -8.98116e-05 -3.14754e-05 -3.72257e-05 -3.18721e-05 -3.78421e-05 -3.20102e-05 -9.17004e-05 
-4.32383e-06 -7.18013e-06 -1.58357e-05 -3.63473e-06 -0.000113822 -0.000109532 -0.000111569 -1.74005e-05 -1.71363e-05 
-3.48278e-05 -3.89519e-05 -2.2109e-05 -4.21501e-05 -6.05451e-06 -6.09834e-06 -6.01393e-06 -5.41185e-05 -9.25488e-06 
-1.86068e-05 -4.70497e-05 -9.89927e-06 -9.5934e-06 -9.58781e-06 1.09878e-05 1.58602e-07 2.77638e-07 -2.67445e-05 
-3.29344e-05 -3.46927e-05 -2.95033e-05 5.27203e-05 -1.0726e-06 -1.4076e-06 -1.54513e-05 -3.0345e-05 -2.80096e-05 
-2.83732e-05 -1.732e-05 -2.57923e-05 -4.35831e-05 -1.72497e-05 2.24729e-06 -2.66586e-05 -1.58797e-05 -1.50467e-05 
-1.4732e-05 -2.42702e-05 -9.1028e-05 -8.32594e-05 -9.34473e-05 -4.95105e-05 -2.36282e-05 -8.85097e-05 -5.8509e-05 
-4.87632e-05 -6.48358e-06 -4.23728e-05 -4.04324e-05 -6.34593e-05 9.77268e-05 0.000106594 0.000114353 0.000105088 
-8.77897e-05 -9.48625e-05 -8.66641e-05 -1.35511e-05 -1.78345e-05 -3.00284e-05 -1.29992e-05 -9.47666e-05 -5.85459e-06 
1.82868e-05 3.34961e-06 -4.31833e-05 -3.81068e-05 -6.17943e-06 -1.19734e-05 -6.03168e-06 -3.37234e-05 -3.8303e-05 
-1.47196e-05 -3.95486e-05 -3.62387e-05 -3.45011e-05 -1.53451e-05 -9.88459e-06 -5.27645e-06 -1.05002e-05 -5.29439e-06 
-6.86928e-05 -7.88285e-05 -4.3717e-05 -9.20787e-06 -1.89071e-05 4.79734e-07 -0.000104336 -0.00010207 -9.67155e-05 
-9.51479e-05 8.00411e-05 8.46832e-05 -0.000104867 -0.000101263 -0.000104941 -0.000109385 -0.00010711 -7.74426e-05 
-4.01397e-05 -6.16412e-06 -2.74998e-06 4.47355e-06 3.86781e-06 -9.97997e-07 -0.000105968 -8.5103e-05 -6.93937e-05 
-6.06735e-05 -7.39902e-05 -7.54364e-05 -6.78581e-05 -6.52562e-05 -4.78855e-05 1.5569e-05 -0.000107513 -9.87261e-05 
-2.50646e-05 -1.17675e-05 6.52976e-05 4.25396e-05 2.58147e-06 -6.7709e-05 -2.7926e-06 -5.35587e-06 8.59654e-05 
6.84008e-05 -1.37384e-05 -3.10523e-05 -4.46188e-05 -5.92596e-05 -8.9812e-05 -9.67838e-05 -8.87328e-05 -1.37244e-05 
-2.7779e-05 -6.04683e-05 -5.79963e-05 -4.20358e-05 -3.45482e-05 -4.59494e-05 -5.40573e-05 -5.16959e-05 -5.63872e-05 
-6.20999e-05 -5.74161e-05 -3.71025e-05 -3.68531e-05 -1.0747e-05 -1.0011e-05 -0.000237426 -0.000270342 -4.96413e-05 
-8.27948e-05 -9.37327e-05 -8.42044e-05 -9.49498e-05 -8.37733e-05 -4.65693e-05 -1.86465e-05 -1.29233e-05 -8.14336e-05 
-7.4834e-05 -2.97058e-06 1.5457e-06 -4.47227e-05 -4.77231e-05 -4.15861e-05 -9.77487e-05 -0.000100957 -0.000100982 
-1.31316e-06 -3.81988e-05 -4.36974e-05 -2.49513e-05 -1.32935e-05 -2.65321e-05 -1.94544e-05 -1.34264e-05 -5.61145e-05 
-5.9099e-05 -5.3349e-05 -5.07427e-05 -0.000111782 -6.72161e-05 -6.36463e-05 -1.93904e-05 -2.49433e-05 -2.60955e-05 
-9.45281e-06 -9.86193e-06 -1.10162e-05 -2.07458e-05 -9.63279e-05 -0.00010234 -2.08475e-05 -2.71218e-05 -1.99995e-05 
-6.6816e-05 -6.28734e-05 -6.23878e-05 -4.81268e-05 -6.20908e-05 -6.46724e-05 -1.3815e-05 -2.60552e-05 1.94896e-06 
1.14118e-05 -3.49126e-05 -2.7494e-05 -9.70124e-05 -9.0816e-05 -0.000103778 -6.80873e-07 -1.3601e-05 -1.47721e-05 
-3.44946e-05 -3.41274e-05 4.77905e-05 -0.000113279 -0.000114915 -3.98461e-05 -2.07194e-05 -1.44588e-05 -1.68828e-05 
-5.69491e-05 -5.79324e-05 -6.24161e-05 -7.74537e-06 -4.18133e-06 -0.000111544 -0.000114409 -0.000117665 -0.000116896 
4.68273e-06 9.2546e-07 -0.000117273 -0.000115337 -5.58983e-05 -4.56236e-05 -3.98531e-05 -4.00527e-05 -7.81716e-05 
-8.84594e-05 -9.33319e-05 -6.03055e-05 -6.57991e-05 -0.000128065 -0.000228106 -0.000258749 -5.75302e-05 -5.90591e-05 
-6.05182e-05 -5.11542e-05 -0.000100372 -1.33367e-05 -1.84981e-05 -5.12482e-05 -5.08334e-05 -5.79683e-05 -5.88643e-05 
-8.86474e-05 -2.57587e-05 -2.43613e-05 -2.81669e-06 -4.97358e-06 -4.72338e-05 -4.43326e-05 -2.06531e-05 -1.43629e-05 
-2.70523e-05 0.000123712 -7.71711e-05 -7.22596e-05 -7.02681e-05 -7.56068e-05 -9.69571e-05 -0.000104306 -9.56015e-05 
-2.85268e-05 -5.14689e-05 -5.23015e-05 -4.01504e-05 -3.89204e-05 -2.78311e-06 -2.85179e-06 -5.2158e-05 -6.89574e-05 
-7.93879e-05 -6.72387e-05 -6.38439e-05 -1.09589e-05 -4.3036e-05 -4.60839e-05 -3.08498e-05 -2.89968e-05 -2.86577e-05 
-2.3946e-05 -2.23398e-05 -2.42672e-05 6.1066e-05 5.54307e-05 4.00989e-05 -8.3267e-05 -0.000107048 -0.000108423 
-4.93175e-05 -4.06615e-05 -5.89658e-05 -0.000102787 -9.53263e-05 -6.63869e-05 -7.5383e-05 -5.80232e-06 -9.31642e-06 
2.41317e-06 1.35779e-07 4.85061e-07 2.71614e-07 -2.83053e-05 -2.85944e-05 -3.65558e-05 -1.97942e-06 -2.27016e-06 
-8.26206e-05 -7.59134e-05 -0.000115682 -0.000118207 8.36725e-05 -3.08054e-05 -2.97917e-05 -2.30103e-05 -7.6077e-05 
-6.91196e-05 -6.73344e-05 -7.44393e-05 -2.24839e-05 -9.1867e-05 -4.43942e-06 -4.1166e-05 -8.42967e-06 -4.35317e-06 
-3.03021e-05 -5.62187e-05 -5.6523e-05 -4.72038e-05 -4.74689e-05 -5.0557e-05 -1.34477e-06 -9.09068e-07 -1.02768e-06 
1.6901e-05 5.97605e-05 3.37064e-05 7.32465e-05 -9.66067e-05 2.13812e-05 -7.16592e-05 -8.35976e-05 -8.09426e-05 
-8.5262e-05 -8.76291e-05 -8.69909e-05 -9.59505e-05 -8.74187e-05 -6.98775e-05 -2.63997e-05 -0.000103369 -3.612e-05 
-7.52573e-05 -6.77876e-05 -5.83595e-05 -3.04412e-05 -6.98277e-05 -6.92784e-05 -6.52739e-05 -2.60914e-05 -0.000103928 
-8.99031e-05 -0.000106223 -9.74394e-05 -4.59712e-05 -0.000114113 -0.000105927 -0.000107691 -7.33043e-05 -6.65093e-05 
-7.78953e-05 -1.17806e-05 9.0749e-06 -8.92424e-05 -8.87853e-05 -0.000101501 -0.000111272 -4.89328e-05 -9.31017e-05 
-8.70999e-05 -9.02052e-05 -8.34589e-05 -8.97488e-05 -7.89082e-05 -6.56699e-05 -6.48166e-05 -7.25664e-05 -6.07973e-05 
-3.41431e-05 -4.93902e-05 -8.79851e-05 -9.24919e-05 -2.18385e-05 -4.36434e-05 -3.97249e-05 -7.2346e-06 -7.0831e-06 
-6.93162e-06 -0.000129932 -0.000118964 -0.000147229 -0.000147415 -6.9358e-05 -5.03277e-05 -0.000104528 -7.84038e-05 
-8.33202e-05 -8.27747e-05 7.56548e-05 4.18429e-05 8.61993e-05 -2.82127e-05 -5.72444e-05 -9.64233e-05 -2.977e-06 
-9.51527e-06 -6.0265e-06 -1.02179e-05 -1.41049e-05 -5.26121e-05 -0.0001015 -0.000110387 -3.51967e-05 6.37358e-05 
5.96441e-05 6.21038e-05 1.31124e-05 -2.8104e-06 -0.000108746 -9.02753e-05 -0.000111617 -1.45944e-05 -0.000113735 
-8.79685e-06 -5.54616e-05 -5.90582e-05 -8.79669e-05 -3.78093e-05 -7.82006e-05 -7.43162e-05 -6.98643e-05 -8.33546e-05 
-8.56109e-05 -7.20245e-05 -0.000100165 -4.0246e-05 -6.31379e-05 -6.71032e-05 -6.274e-05 -7.36374e-06 -8.71237e-05 
-9.28018e-05 -8.66438e-05 -5.49804e-05 -9.43817e-05 -1.76075e-05 -1.78138e-05 -1.78942e-05 -4.09596e-05 -4.12417e-05 
-5.3882e-05 -0.000104633 -3.85556e-05 -2.80059e-05 -3.63947e-05 -0.000116764 -0.000119086 -9.19028e-05 -9.7062e-05 
-0.000116168 -0.000115975 -0.000117704 -0.000118307 5.74189e-05 -7.7982e-05 -8.65533e-05 -2.22438e-05 -2.86898e-05 
-8.11595e-05 -8.30634e-05 -1.29311e-05 -1.13085e-05 -1.3365e-05 -1.39034e-05 -2.22486e-05 -2.31865e-05 -2.31093e-05 
-9.92729e-05 -3.80178e-05 -1.6184e-05 -7.43496e-05 -7.45033e-05 5.95632e-06 5.05631e-05 4.02744e-05 5.30237e-05 
-7.44226e-05 -7.90052e-05 -0.000124353 -0.00012133 -2.17404e-06 -1.35787e-05 -8.06072e-05 -7.89396e-05 -8.02414e-05 
-9.0428e-05 -6.35181e-05 -6.54869e-05 -0.000436051 -4.54854e-05 -5.13002e-05 -0.000107921 -4.35311e-05 -7.63273e-05 
-4.62392e-05 -5.72807e-05 -8.4053e-05 -9.12856e-05 -4.07971e-05 -3.57977e-05 -2.8614e-05 -6.86673e-05 -2.18014e-05 
-0.00038225 -3.91022e-05 -7.65195e-05 -9.68732e-05 -8.5609e-05 -9.078e-05 -9.89656e-05 -0.0001011 -4.56453e-05 
-3.29847e-05 -4.36125e-05 -1.63289e-05 -3.8099e-05 -4.92574e-05 -5.29835e-05 -5.66028e-05 -5.70768e-05 -5.2331e-05 
9.8651e-05 -3.29838e-06 -1.3824e-05 -3.18971e-05 -3.12552e-05 -6.57273e-05 -8.06634e-05 -8.80344e-05 -3.02534e-05 
-2.35821e-05 -3.08404e-05 -5.26671e-05 -4.36032e-05 -4.3263e-05 -5.57348e-05 -7.8627e-06 -8.46547e-05 -3.98479e-05 
-8.79484e-06 -4.44805e-05 -4.12121e-05 9.52603e-05 -7.35562e-05 -6.29947e-05 -0.00027923 -0.00024628 -5.43259e-05 
-9.62112e-05 -6.76262e-05 -1.13242e-05 -4.51863e-06 -4.79714e-06 -7.87305e-05 -1.59642e-05 -5.48846e-05 -6.07233e-05 
-1.29087e-05 -0.000115226 -6.86889e-06 -7.17839e-06 4.01445e-05 3.98573e-05 4.46838e-05 4.88602e-05 4.42274e-05 
-3.35094e-05 -3.61539e-05 -0.000102762 -4.64563e-05 -4.6254e-05 -3.83291e-05 2.63946e-05 2.98581e-05 4.11244e-05 
4.21264e-05 1.45682e-05 2.88522e-05 1.97225e-05 1.1762e-05 2.07358e-06 -0.000104732 -0.000105199 -0.00010826 
-5.39183e-05 -3.37101e-05 -3.57894e-05 -3.93675e-05 -3.60831e-05 4.84065e-06 7.00477e-06 1.90451e-05 -6.37797e-05 
-2.04542e-05 -2.97281e-05 -4.91571e-05 -4.08912e-05 -4.32855e-05 -4.52857e-05 -2.97177e-05 -4.72861e-05 -2.65761e-05 
-7.01239e-05 -5.73933e-05 -4.20561e-05 -9.89662e-06 -1.0189e-05 -5.82645e-05 -5.85657e-05 -4.61541e-05 -3.77988e-05 
-3.51699e-05 -9.873e-05 -6.75549e-05 -1.83776e-05 -1.8046e-05 -3.5327e-06 -3.46503e-06 -1.54565e-05 -7.93603e-05 
-6.51389e-06 -6.68273e-06 4.07765e-05 -6.93947e-05 -0.000102254 -2.81677e-05 1.16437e-05 8.89183e-06 2.22533e-06 
-4.85205e-05 -5.64285e-05 -4.463e-05 -9.18348e-05 -4.06714e-05 -4.09759e-05 -0.000119168 -0.000114607 4.94023e-06 
-5.86014e-06 -7.49316e-06 -1.2886e-06 -3.98957e-05 -4.00098e-05 -6.12803e-05 -4.20203e-05 -8.69454e-05 -2.51537e-05 
-2.48812e-05 -6.98404e-06 -0.000113343 -0.000109987 5.03408e-06 3.11806e-06 -2.84357e-05 -8.74405e-05 -4.80045e-05 
-2.18385e-05 -5.67587e-05 -5.35258e-05 -0.000111829 -5.21832e-05 -2.88645e-05 -1.61661e-05 -3.54919e-05 -8.26825e-05 
-8.30969e-05 -8.12315e-05 -5.75978e-05 -4.87888e-05 -4.9148e-05 -3.97245e-06 -1.89025e-05 -2.53011e-05 -5.74549e-05 
-7.22839e-05 -3.2489e-05 -5.87324e-05 -7.86414e-05 -1.15179e-05 -3.18878e-05 -6.24106e-05 -2.02317e-05 -6.66022e-05 
-5.32816e-05 -3.32139e-05 -1.59752e-05 -1.42099e-05 -5.31083e-06 1.62164e-06 4.61341e-05 4.51295e-05 3.94281e-05 
-6.00178e-06 -3.66574e-05 -3.64471e-05 4.31431e-06 -1.3202e-05 -5.93358e-06 -4.79845e-06 2.08814e-05 2.04226e-05 
-1.10968e-05 -6.64471e-06 -0.000115461 3.5107e-05 3.28743e-05 4.5689e-05 -1.54287e-05 4.97594e-05 5.63172e-05 
-1.76998e-05 -8.7317e-05 -8.55952e-05 -6.1387e-05 -5.90928e-05 -6.41304e-05 -6.37113e-05 -6.81083e-05 -0.000110828 
-0.000111061 -0.0001085 -0.000110361 -4.46288e-05 -6.17666e-05 -0.000557357 -0.000378902 -0.00041599 -0.000115397 
-2.5672e-05 -9.24301e-05 -8.69244e-05 -6.27437e-05 -1.26669e-05 -1.70401e-05 8.69275e-05 4.21078e-05 -3.16442e-05 
-3.17862e-05 -1.61782e-05 5.19849e-06 9.27231e-05 -3.38919e-05 -2.62535e-05 -6.9145e-05 -0.0001079 -7.6934e-05 
-0.000590472 -0.000442088 -6.85823e-05 -4.50003e-06 -1.97477e-05 1.98737e-05 -3.90569e-05 -0.000109702 -7.65952e-05 
-1.12228e-05 -1.14761e-05 -3.16189e-05 -2.19758e-05 -0.000229677 -3.60464e-06 -1.48935e-05 -7.6208e-05 -2.73066e-05 
-2.98547e-05 -3.93829e-05 4.50577e-05 4.29955e-05 -1.97347e-05 -3.09662e-06 -1.58582e-05 -7.86057e-05 -0.000256286 
-1.25398e-05 4.58595e-05 -6.12792e-06 -7.19074e-06 -6.93718e-06 -7.79663e-05 -5.76435e-05 -8.11983e-05 -3.06502e-05 
-4.23367e-05 5.96688e-05 4.04841e-06 -9.78535e-05 -6.77344e-05 -1.16629e-06 3.28431e-05 2.87242e-05 -2.6838e-05 
-8.98979e-06 -1.57194e-05 -7.26756e-05 -0.000106279 0.000102702 -1.58883e-05 -6.41642e-05 -7.39235e-05 -3.55942e-05 
-3.44872e-05 -8.69161e-06 -8.87442e-06 -6.03237e-05 -3.52919e-05 -1.83965e-05 -5.99043e-05 -6.02967e-05 -2.12539e-05 
-0.000104898 -0.000102873 -2.96093e-05 -0.000322036 2.61799e-05 -3.57978e-05 -6.37869e-06 -1.03723e-05 -9.54556e-06 
-2.37801e-05 -2.40466e-05 -2.45919e-05 -1.84483e-07 2.67168e-07 -2.85067e-05 -2.87909e-05 -1.08012e-05 -6.20245e-05 
-2.07688e-05 -2.52491e-05 -5.73037e-05 -5.99945e-05 -4.74627e-05 8.29457e-05 4.99699e-05 -9.87928e-05 
Strain%20xz%20component 1 3545 double
0.000136864 1.06941e-06 -2.1979e-06 -3.79063e-05 -8.81268e-08 -6.69005e-08 -1.12918e-06 3.61138e-08 2.50041e-08 
-3.31496e-07 1.21254e-05 4.87427e-05 -2.03402e-05 -6.59954e-06 9.64196e-05 8.11925e-05 3.04629e-05 -1.21445e-05 
-3.11938e-06 -1.74653e-06 5.50114e-05 -6.14605e-07 3.06963e-06 1.57406e-06 -1.24202e-08 2.93855e-09 1.52136e-09 
7.2225e-10 1.43624e-10 7.93625e-05 -2.30588e-06 -3.18663e-06 -3.53675e-05 1.10121e-06 1.14705e-05 1.59338e-06 
2.77905e-06 1.25228e-06 1.91674e-07 3.8055e-07 5.67309e-07 3.96367e-07 4.71847e-07 4.13853e-07 2.59995e-07 
2.4073e-07 1.37291e-07 -7.95037e-08 -3.60629e-07 3.29602e-07 -5.77721e-06 -1.05846e-05 -3.54092e-05 1.09663e-05 
4.5828e-06 1.87112e-06 1.47672e-06 4.73634e-07 2.14719e-07 4.32128e-07 5.65766e-07 3.9867e-07 4.64888e-07 
5.51351e-07 3.25245e-07 3.5601e-07 2.5041e-08 -1.75682e-07 -2.81457e-07 -7.90452e-08 -4.55731e-08 1.02827e-08 
-1.36928e-07 -8.37735e-08 1.17269e-07 8.21338e-10 1.83244e-08 -2.1509e-08 -6.67367e-08 -3.87286e-08 -1.44619e-07 
-4.9137e-08 -1.92263e-07 4.41977e-08 -1.69095e-08 2.14519e-07 -1.10245e-07 -4.7276e-08 -4.12376e-07 1.03456e-07 
-6.07258e-08 -1.67122e-07 1.18063e-07 -3.75246e-08 -2.79541e-08 -3.97499e-09 2.41326e-08 2.5391e-08 1.10215e-08 
2.45199e-08 1.51689e-08 -3.60881e-08 -2.72124e-06 -5.46245e-07 -6.55705e-07 -1.26509e-07 -6.71065e-08 -4.74131e-10 
5.60357e-09 1.44089e-07 2.35236e-08 -5.68261e-08 -7.23838e-09 -1.11546e-07 8.40867e-08 -7.37994e-08 -9.46998e-08 
-4.88271e-07 -7.37482e-07 -1.98522e-10 2.78874e-06 1.28042e-06 7.39369e-07 0.000109334 5.39376e-07 -5.06057e-06 
-1.31767e-07 1.07648e-06 2.79386e-06 -5.3073e-06 2.70392e-05 0.000139465 -2.42503e-06 2.98575e-06 -1.83904e-05 
2.24131e-06 4.35583e-06 2.04697e-07 2.18157e-06 9.8594e-07 -4.83972e-07 -5.5352e-09 9.80184e-08 1.6655e-07 
2.20616e-08 3.86448e-08 1.6568e-07 4.19233e-08 -3.61734e-09 7.27655e-08 -1.15885e-08 -1.19012e-06 -4.3889e-07 
-6.30833e-06 1.10932e-06 -5.02279e-07 2.76251e-06 -1.76334e-07 2.33104e-06 2.84126e-07 3.90237e-08 3.12293e-08 
2.25843e-08 1.7235e-08 -3.08067e-08 -4.85203e-09 4.53866e-08 -1.60983e-07 1.30017e-07 -5.63051e-08 1.55897e-08 
-1.86822e-08 -3.13726e-09 4.6374e-08 3.39623e-08 -5.00005e-08 -7.34292e-08 6.35139e-08 -8.81246e-08 -6.04808e-08 
-2.76524e-08 2.47807e-08 1.17389e-07 1.48067e-07 -3.28947e-08 7.41088e-08 -8.0844e-09 -1.18912e-08 -1.59759e-07 
5.67032e-09 -5.26696e-09 -4.06645e-07 1.38178e-07 3.83848e-07 2.52595e-07 -2.14118e-07 1.56736e-07 6.98204e-08 
3.07274e-08 -2.79842e-08 -1.05417e-08 -6.54343e-09 -2.54494e-09 -2.23353e-09 -5.21703e-08 1.34142e-06 1.2748e-06 
5.43483e-07 2.36653e-07 1.01556e-07 4.23799e-08 3.21763e-08 -6.86491e-08 -3.4836e-09 6.97449e-08 4.55906e-08 
1.01938e-07 -7.44072e-08 1.28676e-07 1.44469e-08 1.92554e-06 -1.16119e-06 7.32226e-07 2.51334e-06 -2.75071e-06 
4.11336e-06 5.39839e-05 1.80141e-06 3.31166e-06 2.28868e-07 -2.26838e-07 2.02468e-06 -5.49646e-06 7.04123e-05 
-3.18027e-05 -2.18931e-07 -1.10852e-08 -7.03723e-07 9.74111e-05 6.62795e-05 1.27402e-05 -2.65988e-06 0.000123154 
6.61984e-05 6.1648e-05 -1.57153e-06 -1.72702e-07 -1.39904e-06 -6.43921e-07 7.59011e-05 7.57101e-05 2.43158e-05 
2.84793e-05 7.35075e-05 -1.49457e-06 1.60523e-05 6.31096e-06 4.06444e-05 1.18951e-05 -4.91404e-06 -9.11055e-06 
-4.32697e-06 2.53002e-06 9.74313e-07 1.5009e-07 9.00999e-07 -2.09924e-08 -7.09826e-08 -2.68094e-07 1.23223e-08 
-5.98946e-09 4.68758e-08 3.38988e-08 1.28591e-05 7.66783e-08 -6.4882e-08 -3.82082e-08 2.54862e-08 -3.86399e-08 
2.16251e-07 1.22781e-08 -2.09787e-08 4.66025e-09 -6.26144e-09 -4.22501e-06 -4.79244e-06 5.83041e-09 2.8774e-08 
7.64405e-09 -1.85143e-08 -4.17398e-08 -8.33177e-08 -4.33193e-08 -3.78394e-08 -4.76557e-09 -6.26856e-10 -1.58978e-05 
4.38178e-08 3.5281e-09 -2.50107e-08 -7.69468e-10 4.35493e-05 -9.33968e-09 1.93797e-08 1.90863e-07 -6.82588e-07 
-9.15826e-09 -1.55076e-07 -3.62736e-09 3.65103e-08 -5.75958e-07 1.27379e-05 -3.10034e-10 -4.47805e-09 -2.47401e-08 
-2.13307e-08 4.32505e-09 1.23429e-08 -6.43624e-08 -6.58233e-08 -3.10828e-08 -3.72961e-06 -1.23225e-06 -1.10644e-05 
-2.63445e-08 5.43143e-08 3.30434e-08 1.58915e-08 -9.7341e-09 1.45868e-08 1.45587e-08 -1.47758e-06 3.70424e-09 
-3.94003e-06 -8.0011e-09 4.37456e-09 4.76852e-08 7.51325e-09 -6.57904e-09 -2.05611e-07 1.31209e-08 -3.99301e-08 
4.42609e-09 -7.46671e-07 -1.06708e-07 1.45889e-08 -3.28191e-08 -4.53333e-08 -5.96516e-08 -3.1276e-08 1.37546e-08 
-2.08368e-08 6.33072e-08 5.2685e-09 -5.98331e-08 2.83803e-08 -7.57108e-09 -3.65417e-08 -3.73657e-09 9.96915e-09 
3.57071e-09 -4.92411e-09 3.10674e-08 7.92688e-09 1.65962e-08 9.30234e-06 5.93249e-07 2.98243e-07 -1.27662e-08 
-2.49326e-08 -1.13583e-07 2.70243e-09 2.06136e-06 2.26206e-08 1.05732e-07 -3.05551e-08 7.24825e-08 -3.38639e-09 
-2.56152e-08 -9.90478e-07 2.09051e-06 3.48054e-08 -6.50121e-06 -3.33338e-08 -7.91137e-07 -6.47145e-07 -1.68589e-08 
7.24343e-09 -1.15047e-08 2.57628e-05 1.75293e-05 -3.23491e-07 -1.68704e-09 2.12762e-09 -1.95403e-09 8.26966e-05 
1.16914e-08 -4.30316e-08 1.28543e-07 -1.41375e-06 2.17485e-07 4.11025e-09 1.24776e-08 5.96001e-08 1.79451e-07 
-1.481e-06 -7.30109e-09 5.57809e-09 5.54655e-08 -1.25447e-07 -1.23837e-08 3.47923e-09 2.26104e-05 -3.7169e-08 
-1.31112e-05 -1.80438e-06 -9.70703e-10 1.31044e-05 -2.08225e-08 -1.03141e-07 -7.80112e-09 6.85163e-08 5.03651e-09 
-1.60063e-09 -1.16583e-06 1.02584e-08 -1.14088e-06 1.43964e-07 -8.1866e-09 -1.70061e-07 -5.05373e-07 -5.91986e-07 
2.02816e-08 -3.83878e-08 1.04321e-07 -1.39451e-05 1.68209e-08 -2.35866e-08 -6.1557e-08 2.66419e-08 -4.33387e-07 
3.45336e-09 -2.08401e-08 4.89186e-08 -1.94429e-08 3.71102e-08 4.04983e-08 -9.69068e-08 -4.94416e-08 -2.43373e-08 
-7.36447e-06 4.20755e-07 -3.8508e-07 -1.45166e-08 -2.60008e-06 3.94489e-06 1.9455e-08 -1.49635e-08 1.30494e-07 
-4.85866e-07 2.68344e-08 1.93781e-08 -3.04325e-08 5.54258e-08 -3.15176e-08 1.08795e-07 1.73149e-08 -4.13191e-08 
5.88831e-08 -4.92476e-09 -5.97439e-08 2.70701e-08 1.77191e-08 2.42857e-05 1.96852e-05 2.12629e-05 -5.41446e-06 
-3.25672e-06 -3.95927e-06 -1.09336e-07 1.18697e-07 -2.91765e-07 -6.57415e-08 1.66122e-08 -3.58551e-08 2.96516e-07 
-2.37672e-06 6.63629e-07 2.85289e-06 1.71067e-05 3.51144e-05 2.941e-05 -2.61719e-05 1.17838e-05 -1.30163e-05 
5.55286e-07 -3.01229e-05 -7.24496e-06 1.78089e-07 -1.12068e-06 -2.42036e-07 1.70171e-07 -5.03603e-07 -5.97103e-07 
-1.61632e-07 -3.86162e-08 -8.61316e-08 -3.43097e-08 3.94578e-07 1.26004e-08 1.54796e-07 6.6474e-07 1.08475e-07 
-5.28242e-08 -4.58507e-07 -3.32023e-09 4.5429e-09 3.51674e-07 -1.42077e-08 -9.59541e-08 5.0222e-08 -4.23543e-08 
5.41542e-08 2.05894e-07 9.16238e-09 1.36328e-08 -1.55263e-07 -2.45384e-08 2.45433e-08 -4.33268e-09 -3.4836e-08 
5.0285e-08 -8.31304e-08 -1.03517e-07 5.56289e-08 3.768e-09 -5.99908e-09 -1.78896e-08 -6.74013e-08 2.45486e-08 
-6.4347e-08 -6.67162e-08 2.5087e-07 -1.10816e-06 1.83692e-06 -2.62566e-06 -2.59143e-07 -4.11909e-07 1.92656e-07 
-8.46723e-07 -7.97356e-07 2.16004e-06 1.06014e-07 2.36952e-07 -1.47642e-06 1.80443e-06 -5.43212e-06 -1.37078e-05 
-6.41623e-06 2.1288e-05 7.54798e-05 -1.85939e-05 9.66802e-05 5.19359e-08 -1.1338e-07 -1.31296e-07 4.63193e-08 
-3.42111e-08 1.22845e-07 -4.00321e-08 1.09807e-07 -2.78625e-10 -4.41641e-08 -6.40184e-09 -1.17799e-08 -9.85299e-08 
1.22504e-07 1.22073e-07 -9.13717e-08 -5.44463e-08 3.8847e-08 3.8011e-08 1.80743e-08 3.63394e-08 -1.22867e-07 
1.89055e-09 9.54606e-09 -3.2694e-08 -1.51399e-08 1.13858e-07 -2.0588e-07 1.16723e-08 -2.28067e-06 -3.97584e-06 
-6.17127e-06 6.84229e-06 -4.4127e-06 -5.44541e-08 -2.15044e-05 3.63559e-07 -2.98356e-06 2.67339e-06 8.88658e-06 
1.1844e-05 5.37167e-06 2.74718e-06 2.29775e-06 -1.44477e-06 -2.56948e-07 1.68795e-06 2.69304e-06 -2.6751e-07 
1.1846e-06 5.40951e-07 6.31653e-07 -6.30231e-07 -1.00273e-06 -5.81935e-07 -4.76148e-08 1.63786e-09 -1.90546e-06 
2.23486e-07 1.47289e-07 -3.44485e-07 -1.40775e-07 -2.99949e-07 2.77152e-07 1.4406e-07 -1.52965e-07 1.75041e-07 
3.1479e-07 -1.32611e-07 -3.12089e-08 -5.53927e-10 -4.00256e-08 4.50893e-08 -2.64818e-07 1.83419e-07 1.60337e-07 
-3.05632e-08 1.40323e-07 7.20196e-08 3.46984e-08 1.99586e-08 3.9157e-08 -1.23831e-07 -6.06613e-08 1.16962e-07 
-2.27689e-07 7.06513e-08 2.28768e-08 -1.32405e-07 -5.18442e-08 1.20278e-07 2.82511e-07 1.56153e-07 4.03225e-08 
2.27507e-07 1.93035e-07 1.04606e-07 -2.17123e-08 6.76126e-08 -9.39633e-09 7.85782e-08 -2.50067e-07 -1.77289e-07 
-1.75966e-07 1.65384e-08 -1.96861e-08 7.55518e-08 4.47022e-08 1.0246e-08 -1.30495e-07 2.69922e-08 -2.18007e-07 
3.81867e-08 -1.33519e-07 9.71044e-08 -1.4593e-07 8.4696e-08 -1.41023e-07 2.02852e-07 1.37769e-07 -4.55527e-08 
-2.08033e-07 -2.91917e-07 2.44005e-07 -8.26558e-09 -5.62587e-07 -2.64942e-07 -1.21008e-06 -5.15441e-07 -9.59834e-07 
-8.13496e-07 -8.40075e-07 -7.08864e-08 -7.21572e-08 -2.66148e-07 -7.91226e-08 -4.69463e-09 1.33961e-07 8.59304e-08 
9.86106e-08 -1.79573e-07 5.61133e-08 1.76884e-08 1.13459e-07 -3.44184e-08 -2.1837e-07 -1.05926e-08 1.05277e-08 
1.86802e-07 -4.52695e-08 -2.08595e-07 -1.57795e-07 5.7765e-08 1.022e-07 -3.25011e-08 -7.3452e-08 -3.24109e-09 
3.85723e-08 7.74031e-08 2.22674e-09 3.98689e-08 3.69609e-08 6.35657e-08 1.64634e-08 -2.37118e-08 5.48895e-08 
4.37108e-08 3.89834e-08 -2.15955e-08 1.12494e-08 2.04778e-08 1.30577e-09 -6.84482e-08 2.68403e-08 4.91406e-08 
1.94905e-09 -5.18946e-08 2.58334e-08 4.60854e-08 -9.05403e-08 2.4407e-08 5.02826e-09 5.96792e-06 -3.02653e-06 
2.49601e-06 -3.39914e-06 8.44277e-06 4.07131e-06 5.08374e-09 8.54927e-06 1.7918e-05 1.14939e-05 1.73076e-05 
6.75842e-06 -7.78776e-07 -3.51955e-07 2.40157e-07 -2.83977e-08 -4.57625e-08 -2.82944e-07 -5.43876e-07 -2.44011e-07 
2.08324e-07 -4.92613e-09 -6.48132e-08 9.08164e-08 7.14393e-08 1.74477e-07 -1.86494e-07 -5.93861e-09 -7.9268e-08 
-4.66683e-08 -2.17594e-07 1.15075e-08 -1.48925e-07 -5.60384e-07 -5.20194e-08 -2.93398e-07 -4.13906e-08 -6.47274e-08 
-2.67032e-08 5.93124e-09 5.61608e-08 -6.39273e-08 -1.2188e-07 -9.86639e-08 4.6957e-09 -3.20235e-08 8.8568e-09 
1.72681e-08 -3.24395e-08 7.25643e-10 3.63972e-10 -1.00049e-07 -5.89056e-08 -1.61242e-07 -7.15707e-08 -1.17923e-08 
-4.96771e-08 3.61535e-08 -2.69169e-07 -1.09954e-07 -2.2594e-07 -9.26614e-08 -2.32284e-09 -2.38154e-07 -1.21883e-08 
-3.139e-08 3.57454e-08 1.49005e-07 7.5705e-08 -5.99007e-08 2.51601e-07 1.22717e-08 3.73934e-07 1.86212e-07 
-4.05979e-07 4.65064e-07 -1.11858e-07 2.15087e-07 2.72167e-08 8.51494e-08 -4.12384e-08 -1.41811e-07 -4.80935e-08 
-3.06741e-08 -5.061e-08 2.18925e-08 -3.77584e-08 2.53089e-09 -1.11336e-08 1.08019e-07 -3.96732e-09 -2.09782e-08 
-3.9491e-08 2.24003e-07 -4.31164e-08 1.4331e-07 -1.15422e-07 4.61398e-08 4.47847e-08 1.94272e-09 1.32873e-07 
-7.85473e-08 3.54117e-08 -6.42865e-08 6.77324e-08 -2.0944e-07 2.61001e-08 -2.62132e-08 -1.85347e-07 7.2118e-09 
-1.12261e-07 -3.37603e-08 -1.06448e-07 -4.9559e-08 -3.53936e-09 -4.64504e-08 -4.18957e-08 -1.01958e-08 -2.93434e-07 
-2.29576e-07 -5.09593e-08 -1.4293e-07 -7.17914e-08 -4.29724e-08 9.7788e-08 -4.70841e-06 -3.67446e-06 -2.10344e-06 
-2.85927e-06 -4.02916e-06 4.76733e-07 -5.46002e-06 1.84188e-06 4.41983e-06 3.81817e-06 -6.42956e-06 -3.33994e-06 
-9.33489e-07 -2.42835e-06 -4.11508e-06 -1.29304e-05 -1.42345e-05 -7.71575e-06 -2.43422e-06 -7.38963e-07 -1.96353e-06 
1.14571e-07 6.5859e-08 3.74186e-08 3.95299e-08 -4.5697e-08 1.77979e-08 -1.31253e-07 4.69261e-08 3.50816e-08 
4.7445e-08 1.06523e-07 -2.79762e-08 -1.16696e-08 -9.21858e-08 -2.22534e-08 -8.93005e-08 -1.10127e-07 -1.15686e-08 
7.25096e-09 1.45155e-07 -2.02007e-09 3.56393e-08 2.28886e-08 -1.6193e-07 5.63324e-08 -2.36599e-09 6.22315e-08 
-4.66164e-08 1.34111e-08 7.25602e-08 3.84496e-08 5.63346e-08 -1.58811e-08 -1.04969e-07 -4.04139e-08 -4.77971e-08 
3.87793e-08 -3.08621e-09 7.13029e-09 -2.95963e-08 2.08523e-08 1.41544e-08 5.50114e-08 9.77286e-09 3.93488e-08 
-6.74597e-08 2.33799e-07 -4.09352e-08 -9.07444e-08 -9.67287e-08 -1.12665e-07 -3.36424e-08 1.72924e-07 2.58987e-08 
-5.93939e-08 1.50449e-06 -8.61141e-07 -8.32185e-07 -8.30696e-07 4.44011e-07 2.5823e-06 -1.73083e-06 -1.06303e-07 
-1.5328e-07 -6.27718e-08 -1.14152e-07 9.58861e-08 -3.60626e-08 3.96809e-08 -7.11139e-08 -6.45173e-09 -1.23457e-07 
-2.49991e-07 -4.98811e-08 -1.00764e-07 4.53849e-08 -3.33001e-08 -2.47423e-08 1.07849e-07 -6.82665e-08 -2.12258e-07 
2.27575e-08 7.56434e-08 9.95279e-08 7.44799e-08 5.99716e-08 4.08318e-08 2.11697e-08 -1.08527e-07 4.97716e-09 
2.24091e-08 3.24876e-08 6.21408e-08 -5.56149e-09 3.1715e-08 2.75537e-08 -3.42791e-09 -1.96645e-08 -6.87654e-08 
5.30501e-08 1.08715e-07 -2.39596e-06 -4.45176e-06 -6.57515e-06 -1.80943e-05 -9.88773e-06 2.31401e-06 -7.83601e-06 
-1.42416e-05 -1.55032e-05 -1.45535e-08 3.47491e-09 1.44477e-07 -1.64714e-07 -4.31648e-08 8.19525e-08 -1.13982e-07 
1.21538e-07 5.32553e-08 7.49845e-08 -2.51174e-08 -4.23397e-08 -7.89189e-08 2.09743e-08 2.14776e-08 -2.81821e-08 
4.70785e-08 6.52849e-08 6.55002e-08 2.42763e-08 3.08038e-08 -4.40216e-08 -1.14031e-07 5.71449e-08 -6.3373e-08 
1.37714e-07 6.34322e-08 1.41156e-07 -9.36173e-08 3.32468e-05 -7.16009e-06 1.48285e-05 -2.39731e-06 1.15562e-05 
9.30002e-06 -7.17033e-08 4.43789e-05 9.23663e-05 -2.1186e-08 -1.22561e-07 -2.0503e-07 -2.33158e-07 7.49899e-09 
-4.29809e-08 -5.9188e-08 -1.09252e-07 -1.22923e-07 -4.37699e-08 -1.04683e-08 5.88363e-08 1.19087e-07 -1.41157e-07 
-2.7429e-07 8.29805e-08 -3.44002e-07 -1.90691e-07 -1.6097e-07 -3.33016e-07 -1.09652e-07 2.84784e-07 -7.54913e-08 
-1.39074e-07 -4.69791e-07 -6.84593e-07 -7.08558e-07 2.18028e-07 -8.64961e-07 2.24804e-07 -1.22427e-06 -3.08979e-08 
2.59421e-09 -2.46302e-07 -2.39683e-07 -1.84749e-07 2.90197e-07 -4.49341e-07 -8.6609e-07 -3.31097e-07 -3.31936e-07 
-2.39348e-07 -7.49273e-07 -1.47408e-07 6.66557e-08 1.64464e-07 1.4408e-07 -8.30074e-08 -3.37416e-08 1.12699e-07 
7.42803e-08 2.60567e-08 -4.06936e-08 7.29039e-08 5.42222e-08 1.26319e-07 8.08831e-08 -9.62748e-08 -1.93317e-07 
-5.79248e-07 -9.83071e-07 -5.46869e-07 -1.36689e-06 5.32233e-06 1.05911e-05 -4.51217e-07 1.36991e-05 2.03713e-06 
-8.97656e-08 -3.88596e-08 2.0445e-07 -1.53716e-07 3.72763e-09 -5.95234e-09 -1.20007e-08 -4.12629e-08 -3.96709e-08 
8.44937e-07 -9.36362e-07 -2.36197e-08 -3.13215e-07 1.40875e-06 1.85017e-07 2.79524e-08 -5.15957e-08 8.54105e-09 
-1.66034e-08 9.30258e-08 9.5913e-08 -7.1206e-09 1.36187e-07 -3.52264e-07 -3.53633e-08 1.60091e-07 1.59387e-07 
8.99771e-10 1.69451e-07 7.23911e-08 -1.39867e-06 6.17204e-08 7.08533e-09 9.38793e-09 8.03837e-08 1.34125e-08 
4.9453e-08 2.3856e-07 -4.57276e-07 2.16677e-07 -5.25081e-08 1.16684e-07 -9.44134e-07 -2.33042e-07 -1.13585e-06 
-1.1947e-05 -3.15086e-05 1.27125e-05 3.04391e-06 2.5499e-06 3.64655e-06 4.23449e-07 1.14283e-07 4.42565e-07 
4.91519e-07 4.0186e-07 2.66207e-07 2.83124e-07 2.65981e-07 1.13265e-07 6.48406e-08 -1.57106e-07 2.39374e-06 
-4.04116e-06 -1.04729e-06 -2.41642e-06 -1.33158e-07 -1.42968e-07 -3.03079e-07 -1.44926e-07 -1.33954e-06 -1.53687e-06 
-1.78226e-06 -2.55451e-06 -2.29671e-05 -8.50542e-06 -1.60429e-06 -1.42024e-06 2.64141e-06 -1.96834e-05 -4.07721e-05 
-1.84819e-05 -3.23624e-05 -2.49016e-05 1.49928e-05 1.10027e-05 -1.18245e-05 9.95218e-07 3.28952e-06 1.89655e-06 
5.98322e-06 9.22763e-06 8.44608e-06 6.24325e-06 4.13218e-06 2.63041e-06 2.41093e-06 1.65187e-06 2.00374e-06 
1.70181e-06 1.37019e-06 4.04035e-06 2.3894e-06 1.42104e-06 6.23273e-07 1.16566e-06 2.29e-06 1.22091e-06 
5.94346e-07 4.6024e-07 1.83219e-08 -4.19234e-07 -8.1825e-08 1.29196e-07 5.92342e-07 3.49514e-07 -3.75713e-08 
2.50574e-07 2.10946e-07 5.15697e-07 5.49072e-07 1.2619e-07 3.66049e-07 2.90677e-07 4.15946e-07 5.25506e-07 
3.39524e-07 4.49712e-07 2.50095e-07 3.44336e-07 4.85011e-07 3.69442e-07 2.98367e-07 6.02729e-08 2.39234e-07 
4.01805e-07 1.56299e-07 2.69103e-07 1.81292e-07 1.64745e-07 2.69087e-07 2.48423e-07 2.02095e-07 2.32951e-07 
1.40712e-07 3.72623e-07 2.96081e-07 2.11013e-07 -1.26932e-07 -1.98113e-07 1.11482e-07 6.84611e-08 4.68229e-08 
-4.35276e-08 -3.03314e-07 -1.46724e-08 2.29164e-07 -8.1324e-09 -1.23117e-07 -2.1404e-07 -6.24611e-08 -5.96883e-08 
4.32263e-08 1.55657e-07 -1.63075e-08 -3.66878e-08 -8.48206e-09 -4.48037e-08 5.07677e-06 3.4648e-08 -4.31172e-08 
3.17725e-08 1.68725e-09 6.38232e-08 2.67354e-08 -8.16346e-09 -9.85392e-09 -1.04344e-08 -4.58428e-08 4.18122e-08 
-3.38735e-07 1.05529e-09 -7.82216e-08 6.35115e-09 -7.48298e-09 1.50367e-07 -4.59559e-07 5.59186e-08 3.94954e-08 
-2.17634e-08 -1.24571e-08 -8.27009e-07 3.1653e-08 -1.79525e-08 6.07444e-08 9.22461e-09 3.23299e-06 4.03454e-08 
-7.06694e-08 -2.46884e-07 2.36738e-07 6.92783e-09 -8.00379e-07 -4.63223e-08 -4.69228e-08 -6.77615e-08 -2.81179e-06 
3.95306e-08 2.47634e-09 -1.63164e-08 -3.3594e-07 -2.48448e-08 -4.18795e-08 6.56577e-08 -1.31834e-07 1.29029e-07 
-3.17321e-06 -1.324e-06 -9.69405e-06 4.23257e-10 -6.51941e-08 -6.70838e-08 4.05125e-08 -2.88793e-08 5.58685e-08 
4.86443e-08 -2.52734e-06 1.4366e-08 -3.14814e-06 -6.3912e-08 1.89086e-08 -1.93343e-08 2.57748e-09 1.93898e-08 
-6.79032e-07 4.72162e-09 -2.15607e-09 3.57203e-08 -1.99459e-07 1.04493e-07 -7.74489e-08 -5.90975e-08 -1.57631e-08 
3.71669e-08 2.48557e-08 7.42473e-09 2.65117e-07 -4.65915e-08 -4.10946e-08 4.56556e-08 -9.68845e-08 6.43472e-09 
5.22303e-08 1.21316e-08 2.12749e-09 -2.78229e-08 1.94391e-08 -2.33221e-08 2.19669e-09 -3.95388e-09 2.84751e-06 
1.9463e-06 -2.82409e-06 4.88763e-08 2.55046e-08 9.14675e-08 -4.61383e-09 1.75473e-08 -1.68901e-08 -8.92575e-08 
1.10207e-07 -2.70477e-07 3.40908e-08 3.83416e-08 -2.83648e-06 1.21384e-06 -6.02046e-08 8.75742e-07 -4.6244e-08 
-4.76265e-08 -3.07401e-07 1.18386e-09 1.43814e-09 1.64615e-08 -9.74059e-06 -1.88565e-05 1.96305e-07 -5.93966e-08 
5.25994e-09 -3.28518e-08 3.40116e-06 5.88341e-09 1.15682e-07 -1.78618e-07 -5.36933e-07 2.56235e-07 -1.53527e-08 
5.87409e-09 -9.65104e-09 -4.79588e-07 1.21029e-06 2.05257e-08 -1.72199e-08 1.70986e-08 1.02912e-07 -3.29778e-08 
-1.75241e-08 4.57588e-05 2.96436e-08 -9.58986e-07 -5.13563e-07 3.79445e-09 2.29153e-06 1.56737e-09 3.83893e-08 
-9.10025e-09 -9.02553e-08 -7.88123e-08 4.55997e-08 -7.17592e-07 7.26633e-08 -8.62359e-07 -7.14904e-08 3.04192e-08 
-5.82826e-08 -9.40512e-08 -7.9654e-08 -5.50907e-09 -2.60944e-08 1.89625e-08 -2.56751e-06 -4.15403e-09 -2.32855e-09 
7.74436e-08 -8.05319e-08 -1.10176e-07 3.61234e-08 -3.77408e-09 -2.83284e-08 -2.19149e-10 9.97361e-09 -4.36815e-08 
4.24766e-08 2.172e-07 6.60511e-09 8.86158e-06 5.36824e-07 -1.69478e-07 -6.04714e-08 1.4212e-06 -1.44653e-06 
1.15695e-08 -4.3851e-09 -1.56151e-07 -2.2784e-07 -1.09609e-08 -3.23772e-08 4.72162e-09 1.20255e-08 2.51795e-08 
-1.25637e-07 -1.19361e-08 2.28962e-08 -8.70031e-08 -2.5885e-08 -9.66102e-09 -3.71722e-08 -6.58662e-08 1.61907e-06 
1.1094e-06 -1.55588e-06 -4.9078e-05 -5.56057e-07 3.47993e-05 -9.85024e-08 6.31117e-08 3.57574e-08 3.28379e-08 
3.00029e-09 -8.85199e-08 2.76858e-07 3.44482e-07 -7.12356e-07 -4.05613e-07 -1.07452e-06 -2.38198e-06 1.75636e-06 
-3.58456e-06 1.47811e-07 2.51268e-06 -1.39933e-06 1.24598e-07 1.45015e-06 -1.88251e-06 -2.23681e-06 -1.81461e-06 
-2.42238e-06 -3.17702e-07 -1.3538e-07 1.7425e-06 4.11263e-05 -2.2802e-07 -1.01144e-05 -7.10862e-06 1.55008e-08 
-5.852e-08 -7.28008e-08 -4.17279e-09 2.79571e-08 6.93402e-09 -9.48078e-08 -5.45832e-08 -9.04778e-09 -5.60559e-08 
-1.00875e-08 1.17826e-07 -1.98388e-08 5.45803e-08 7.64754e-08 -5.37389e-08 -7.65151e-08 6.6776e-08 -6.15809e-08 
1.26495e-07 9.02994e-08 -1.1367e-08 1.01491e-07 3.39802e-08 4.97209e-08 7.64859e-08 1.79338e-07 -5.89623e-08 
-4.01413e-08 2.34239e-05 2.09839e-05 1.05258e-05 1.72742e-06 -7.27965e-06 3.47483e-05 -2.45778e-06 2.21475e-06 
-2.12922e-07 1.19922e-06 1.00423e-06 1.02505e-06 -2.07428e-07 -6.99678e-06 -7.88454e-07 -5.66816e-06 1.3579e-05 
-2.3473e-06 5.66476e-06 1.20839e-06 -3.66539e-06 2.53232e-06 2.82777e-06 1.15961e-06 -2.67166e-06 -1.2518e-06 
-1.13941e-06 1.49843e-07 -1.27191e-08 1.42441e-07 -4.56915e-07 -4.45626e-07 2.30118e-07 -1.28e-06 -2.30314e-06 
-2.84791e-07 -1.24161e-07 -3.58781e-07 4.46504e-07 3.76776e-08 -1.55459e-07 2.60726e-07 3.13492e-07 1.79695e-08 
-1.19142e-07 7.97217e-08 1.50192e-07 -5.32297e-09 -3.88086e-08 3.04766e-08 2.1632e-08 -1.66305e-07 -3.74095e-08 
5.85923e-08 2.31176e-07 -5.2668e-08 9.0081e-08 2.0062e-08 -3.46423e-09 1.18595e-07 1.28855e-08 -2.36048e-08 
7.07396e-08 8.46544e-08 -2.66989e-07 -2.73725e-08 4.08002e-08 1.099e-07 -5.8299e-08 -5.60076e-08 1.49746e-07 
-2.86845e-07 -2.35166e-07 6.57291e-07 -2.2049e-07 4.81748e-07 2.30832e-07 1.65477e-07 1.87065e-07 -1.75313e-07 
-2.58062e-07 8.3777e-08 1.24402e-07 -6.93474e-07 -5.66993e-08 1.67553e-07 -3.96462e-07 -1.77413e-07 1.02588e-07 
3.13867e-07 -2.49242e-08 2.26344e-08 -1.78369e-07 -2.3708e-08 9.25824e-08 -2.13083e-07 -3.45109e-08 9.86605e-08 
-8.88473e-08 -7.55975e-08 4.1945e-08 7.43242e-08 -7.91001e-09 4.79172e-08 5.0063e-08 -2.9159e-08 -7.36854e-10 
6.12022e-08 3.90412e-08 1.19862e-07 -2.66348e-08 -5.52333e-09 -5.39072e-09 -5.80043e-08 1.00908e-07 8.84047e-08 
4.81432e-08 2.76196e-07 7.66145e-08 2.72867e-07 2.76791e-08 2.36199e-07 4.25634e-08 -4.35151e-09 1.21912e-07 
-7.71256e-08 -4.23048e-07 -2.38473e-07 -4.45034e-08 1.53255e-07 1.35038e-08 -4.41368e-09 -5.83791e-08 3.66783e-09 
-1.22961e-07 -8.54817e-08 -3.87022e-08 -1.29351e-07 -3.84284e-08 8.65499e-09 -4.0769e-08 -8.76331e-08 -2.25107e-07 
1.09069e-07 1.28009e-08 1.75804e-07 2.79965e-07 8.9485e-08 3.58153e-08 7.48549e-08 -1.89972e-07 4.85299e-08 
-1.54264e-07 1.93711e-08 -6.13358e-07 -2.37042e-07 9.86998e-08 -2.46296e-07 -1.28893e-07 -8.76168e-08 -4.35139e-08 
-8.91193e-08 -2.23996e-08 2.96204e-08 1.99182e-07 -2.16737e-07 -2.7769e-08 7.52838e-08 3.28798e-07 8.62793e-08 
-6.26089e-08 2.36306e-07 -1.7466e-07 -6.60978e-08 -2.23322e-07 -1.0379e-07 1.5111e-08 -6.28648e-08 1.33246e-08 
1.53915e-07 1.07577e-07 8.73086e-08 2.72314e-08 1.71148e-08 2.23892e-08 -1.57721e-08 2.15447e-08 4.96223e-08 
-5.58798e-08 -5.23132e-08 -4.79997e-08 -8.89617e-09 1.40384e-08 -5.52723e-08 3.43711e-08 -7.82701e-08 -1.88465e-08 
-3.41961e-08 -3.97076e-08 3.30388e-08 -1.51827e-08 -5.20285e-08 -2.32854e-08 6.00674e-08 1.2586e-08 7.41546e-08 
-1.04088e-08 -1.36691e-06 -1.27943e-06 8.2859e-08 1.39969e-06 -2.28548e-06 -1.32064e-06 5.61887e-06 -2.06481e-06 
-6.48675e-07 -8.62416e-06 -8.93464e-06 -4.40301e-06 1.18412e-08 1.03883e-08 7.99082e-07 -2.76552e-07 -2.80243e-07 
-1.81986e-07 -6.08089e-07 -4.48397e-07 2.5427e-07 -3.37107e-07 1.45161e-07 2.05742e-07 4.64551e-08 -8.90637e-08 
-9.02234e-08 -7.69173e-08 -4.17889e-08 5.56869e-08 -3.18467e-08 -1.54213e-07 1.05066e-09 -5.57619e-08 -2.49585e-08 
-5.92156e-08 9.55511e-09 -6.96865e-08 -2.71314e-08 -1.13088e-08 1.32832e-08 -1.96551e-08 -8.72777e-09 4.47706e-09 
-7.01645e-08 9.09023e-10 3.95856e-08 -5.4386e-08 -4.19106e-08 -4.25651e-08 -3.05698e-08 -7.84586e-08 -1.40469e-08 
-9.00192e-08 1.24756e-08 -1.64885e-07 -1.94145e-08 2.40025e-08 -1.78972e-07 1.94337e-07 -1.91867e-07 1.72083e-07 
-2.90233e-07 1.06747e-07 1.59797e-07 -1.09659e-07 -2.00791e-07 -7.16892e-08 2.02111e-07 -3.90769e-07 2.58069e-07 
2.93518e-07 -2.69189e-07 3.96578e-07 -9.65513e-09 -1.81558e-07 3.46039e-08 -6.01454e-07 -2.14661e-07 4.90681e-07 
3.69283e-07 1.49658e-07 3.22879e-08 -1.01347e-08 2.57697e-08 -7.32391e-08 -2.20204e-08 3.0297e-08 -5.57775e-08 
1.99063e-10 7.49955e-08 2.58856e-08 -3.56324e-08 1.14649e-07 -1.26928e-08 1.25167e-07 9.98524e-08 -2.26526e-08 
1.10912e-07 7.98334e-09 1.81661e-08 -3.28877e-08 -3.55224e-08 -4.90946e-08 1.19335e-07 7.32961e-09 -7.34458e-08 
-1.40142e-07 -2.10269e-07 -1.45749e-07 -3.45405e-08 1.11819e-07 -6.16214e-08 3.52986e-08 6.26814e-08 -1.02839e-07 
-8.7474e-08 -3.85266e-08 -1.31473e-07 -2.19067e-07 -3.83633e-08 -8.71923e-08 -3.97641e-08 -8.31997e-09 2.10938e-07 
-1.87879e-06 2.34123e-07 -7.76736e-07 -8.67375e-07 -7.70441e-07 2.64728e-07 7.45743e-08 7.93728e-07 1.07486e-06 
1.26778e-06 5.24252e-07 -1.12759e-06 -4.82187e-07 4.66705e-07 -1.3114e-06 -9.65049e-07 -2.92369e-06 -7.51098e-07 
-1.54105e-06 -5.62384e-07 -1.29119e-06 -7.3601e-08 6.02857e-08 9.45258e-09 5.49077e-08 1.34684e-08 -2.85835e-08 
5.23779e-08 -3.15231e-08 3.50677e-08 2.78061e-08 6.15427e-08 7.02035e-08 -1.15748e-07 -7.37211e-08 -9.71615e-09 
-1.52692e-07 4.0545e-08 -1.58464e-07 4.68953e-08 8.51726e-09 -6.34529e-08 -8.31584e-09 -1.18352e-07 2.16995e-07 
-4.19843e-08 -3.52157e-08 -3.87591e-08 -8.00602e-08 -4.32274e-08 -3.37392e-09 4.23137e-09 3.43137e-08 2.94709e-09 
-2.70306e-08 1.41491e-07 9.69563e-08 7.56349e-08 1.46281e-08 5.28603e-08 1.46437e-08 -9.44854e-09 3.40887e-08 
3.54013e-08 2.67508e-08 5.14376e-08 3.17722e-07 2.46629e-07 -3.43319e-08 3.72446e-09 -4.13987e-08 -3.76521e-08 
2.77346e-07 -8.40788e-08 2.95346e-07 -2.7092e-08 -4.8924e-07 -2.2529e-07 1.07793e-07 4.59123e-07 7.01689e-07 
-6.49595e-07 -3.39467e-07 5.13733e-08 6.93066e-09 -3.83419e-08 -1.5192e-07 7.40463e-08 1.53452e-07 -9.65195e-08 
-1.81938e-07 -4.13655e-08 -1.20255e-07 -1.34784e-07 -1.00707e-08 8.86903e-08 -1.25525e-08 -2.56032e-08 -7.76791e-08 
-6.36896e-08 -4.95282e-08 1.04345e-07 1.46785e-07 1.25439e-07 7.36984e-08 3.18361e-08 1.19049e-07 7.34174e-09 
5.30361e-08 -2.24164e-09 8.92058e-08 3.68944e-09 1.79853e-08 1.40145e-08 -9.91667e-08 -7.46525e-08 3.77129e-08 
-1.2666e-08 -6.29095e-08 8.53733e-09 -1.82116e-08 7.91377e-08 2.21238e-06 -1.7161e-05 -1.48332e-05 -2.12855e-06 
3.47054e-06 4.54385e-06 5.78939e-06 -4.26327e-06 -4.28214e-06 6.62682e-08 -7.36841e-08 1.86082e-07 -1.67544e-07 
-6.93614e-08 -1.42071e-07 -1.67637e-08 1.03377e-07 8.86274e-08 4.64264e-08 2.78826e-08 -3.21099e-08 -5.70049e-08 
-1.6051e-08 4.83661e-08 2.71288e-08 2.77396e-08 6.31439e-08 8.00278e-08 8.78612e-08 5.01287e-08 4.94138e-09 
-7.55294e-08 1.08402e-07 6.10367e-08 6.24815e-08 -4.21887e-08 5.13368e-08 -1.21362e-07 2.47029e-06 -2.32834e-05 
9.0325e-06 5.85216e-06 -4.26379e-06 -1.50788e-05 -1.73619e-05 -2.00761e-06 -1.61929e-05 1.05166e-07 -1.46969e-07 
-2.20972e-07 -9.53282e-08 -3.5739e-08 -2.27766e-07 -2.82945e-08 1.68836e-08 8.49147e-08 -1.50243e-07 -1.2567e-07 
-1.41334e-07 6.46042e-08 -1.48461e-07 -2.616e-07 8.81948e-08 -5.30677e-07 -2.20886e-07 -3.43044e-07 -2.03383e-07 
-6.53122e-07 -3.5338e-07 -2.68613e-07 -4.4001e-08 -2.30889e-07 -4.61754e-07 1.91625e-07 9.0314e-07 5.60192e-07 
1.05932e-07 3.94211e-07 1.4963e-07 -1.65733e-07 -1.90229e-07 -3.51131e-07 -8.22758e-08 8.17794e-08 -5.84509e-07 
-7.25142e-07 -7.20405e-07 -1.82247e-07 -1.44281e-07 -4.88641e-07 -4.70443e-08 -6.37625e-08 9.32882e-08 9.91039e-08 
-4.88322e-08 1.71213e-07 4.88767e-08 7.24402e-08 -8.54344e-08 9.65249e-09 3.01311e-08 6.62971e-08 -3.04923e-08 
9.89972e-08 -7.0155e-08 4.62192e-08 -5.50536e-08 -2.23607e-07 -9.31212e-08 1.34023e-07 -4.33811e-07 -5.74914e-07 
-1.13889e-06 3.30188e-06 -1.99295e-06 -3.04062e-08 -1.07604e-07 1.56657e-07 -3.41892e-08 1.16932e-08 -2.32088e-08 
3.12235e-08 -3.38021e-08 1.8363e-08 -9.00068e-07 2.50338e-07 -2.68916e-07 -7.5169e-07 2.31623e-07 -3.29417e-07 
-2.01917e-08 3.15177e-08 4.99941e-09 -5.44639e-08 -1.17852e-07 -2.79233e-08 1.16314e-08 -3.12059e-07 1.52957e-07 
-1.75032e-08 2.69995e-07 1.61728e-07 6.26647e-08 1.40468e-07 2.45352e-08 2.86511e-07 2.30097e-09 3.70425e-08 
3.76982e-08 5.74027e-09 -5.5282e-08 -3.35433e-08 2.71957e-07 -1.80685e-07 -3.66136e-08 3.92214e-08 5.35297e-08 
1.19077e-06 1.87382e-06 1.90322e-06 -2.40983e-07 -1.35979e-06 -8.6747e-06 7.89586e-05 0.000202896 8.85088e-05 
0.00014302 0.000184669 0.000125773 -7.9263e-07 -1.46762e-06 1.07999e-06 -5.52317e-08 2.24438e-06 -6.39113e-07 
-4.35802e-07 -5.60212e-07 7.60643e-07 1.26101e-06 5.77268e-07 9.47554e-07 -1.58724e-07 4.36582e-06 -2.9682e-06 
3.48727e-06 -1.26766e-06 2.79879e-06 -8.56216e-07 6.36077e-06 7.89228e-05 6.09889e-06 0.000173595 4.38545e-07 
-2.52263e-06 1.88363e-06 1.40627e-06 -1.05174e-06 6.111e-06 2.99386e-06 1.32127e-06 -1.36096e-05 -7.64368e-08 
0.000112379 5.34966e-05 -3.31472e-08 -6.92191e-08 -6.44755e-08 2.8425e-08 -2.62999e-09 -9.31592e-09 7.23955e-08 
5.39797e-09 -8.03719e-08 3.08424e-08 -2.44166e-08 3.15953e-08 -4.50668e-09 -2.57358e-08 -3.83685e-08 -1.41667e-08 
-8.47122e-08 -5.60069e-08 -2.11291e-08 1.46504e-08 -2.37755e-08 -1.58281e-07 3.26523e-08 9.55348e-08 -2.62517e-09 
1.47986e-08 -2.33626e-07 -5.08725e-08 6.44553e-08 -3.2936e-08 1.29654e-08 6.65095e-09 -1.29069e-07 -5.83263e-08 
-6.23099e-09 -5.8791e-08 -1.23169e-07 -2.15699e-08 -1.63996e-08 -9.72707e-08 -1.59028e-08 8.41031e-08 -3.59287e-08 
4.42788e-08 1.75665e-07 2.55504e-08 -2.80976e-08 -7.24346e-08 -6.49212e-08 -1.32053e-08 -4.33993e-08 1.04468e-07 
-2.14387e-08 -9.25065e-09 1.88037e-07 -4.79733e-08 1.88305e-08 -4.00411e-08 3.47849e-08 -1.52921e-06 -8.61404e-07 
1.98421e-08 -7.3014e-08 -3.00984e-08 2.92614e-08 -2.25399e-08 -4.76538e-08 -1.2391e-08 1.04989e-08 -1.05419e-08 
3.29058e-10 -4.09617e-08 -4.7373e-08 4.06252e-09 -1.57999e-08 -5.23559e-08 1.22523e-08 -1.82919e-06 -4.39818e-07 
-1.95172e-08 -9.41542e-08 -1.19771e-06 -7.80759e-07 3.88627e-07 -6.63266e-07 -9.67456e-07 -1.13861e-07 7.16572e-07 
1.28113e-07 -1.33103e-06 1.73718e-07 -5.14489e-07 2.85448e-07 2.30885e-07 9.82398e-08 2.87713e-07 -4.77022e-07 
2.56343e-07 9.9796e-08 4.13095e-08 3.3085e-07 -3.59155e-08 7.14117e-08 1.89774e-08 -4.22436e-07 6.11899e-08 
-1.81842e-07 1.07149e-07 1.57418e-08 3.27884e-09 1.88413e-07 -8.93338e-08 5.76239e-08 7.7086e-08 5.88641e-08 
2.04702e-08 -1.01642e-07 8.00224e-08 -3.51531e-08 -1.43727e-07 7.09783e-08 -9.36732e-09 2.86374e-08 2.46246e-08 
-8.95064e-08 2.46582e-08 -2.24005e-09 2.06291e-08 -1.16936e-08 -1.39051e-08 -2.96868e-08 -2.62291e-08 -1.85835e-08 
-8.02139e-09 -3.64004e-08 2.79408e-08 5.59738e-08 6.10906e-08 1.98738e-08 -3.6898e-08 1.94456e-08 -4.38263e-09 
-5.73837e-08 1.54687e-08 -3.71109e-08 -6.259e-08 -6.32393e-08 -6.45831e-08 1.71904e-06 -1.06623e-07 -4.21491e-08 
7.61882e-09 -7.08844e-09 -1.15583e-09 2.36779e-08 -2.29751e-08 9.08168e-09 1.13408e-05 -3.40483e-06 3.94827e-08 
9.45932e-09 -3.63639e-09 1.8924e-09 6.47843e-09 1.00399e-08 -4.48413e-08 -5.81286e-08 -4.3163e-09 -2.59929e-08 
-2.88621e-08 -3.30722e-08 3.62856e-08 1.70038e-08 1.97902e-08 -4.01081e-09 1.16748e-08 1.54279e-08 -3.95273e-06 
-3.86257e-06 -2.62916e-06 -4.61334e-07 -2.25639e-06 -1.41651e-08 7.81058e-09 -7.9798e-08 -8.94955e-08 -1.20099e-07 
-2.24046e-07 2.74071e-07 -1.50017e-08 -5.12219e-08 -7.43753e-08 5.26563e-08 5.97183e-08 -4.24116e-08 -9.79268e-08 
-2.8729e-07 1.08072e-07 1.9787e-07 -1.58065e-07 5.90154e-08 -1.50412e-08 -7.42306e-08 -4.05799e-06 -6.34135e-07 
2.90134e-07 -7.3435e-07 -9.41468e-08 8.10956e-08 -6.40572e-08 4.78008e-08 1.56298e-07 4.22438e-08 1.52018e-06 
1.69724e-06 1.27466e-06 4.69053e-07 6.05965e-07 4.10317e-08 3.62109e-07 1.05693e-07 5.53299e-08 7.72306e-08 
-7.02645e-08 -7.35775e-08 -1.05467e-08 2.11379e-08 3.32648e-08 1.05371e-07 2.91872e-08 1.44434e-07 1.63324e-08 
1.19372e-08 4.82212e-08 -3.06402e-08 -6.01288e-08 -7.5703e-09 2.7788e-08 -1.82293e-08 2.21266e-08 -1.30248e-08 
1.29062e-08 5.47715e-08 2.08204e-06 6.34364e-05 3.73938e-05 4.88061e-05 -1.02737e-05 9.78633e-09 -5.31279e-08 
-1.22105e-08 6.61278e-08 -6.53805e-09 -4.32724e-08 -3.30122e-08 -1.86889e-08 2.28801e-08 1.01766e-08 -9.92218e-08 
1.51204e-07 -4.35095e-07 4.00734e-08 9.01974e-09 7.73655e-08 3.31598e-08 6.94319e-08 2.58907e-09 -1.65645e-09 
9.87633e-09 -1.09829e-07 1.03877e-08 -2.41153e-08 -1.43607e-08 -1.28293e-08 3.00403e-09 2.64014e-07 1.13742e-07 
-2.74349e-09 1.29343e-07 1.71343e-07 3.77173e-08 3.17662e-08 -4.01199e-07 -4.18172e-07 3.74252e-05 4.79131e-05 
3.167e-05 2.05285e-06 1.04182e-06 3.06593e-06 2.73168e-08 3.40303e-08 -7.96276e-08 5.87177e-08 2.01529e-08 
1.77681e-07 1.32693e-07 1.68013e-07 1.02821e-07 2.6051e-08 -2.57781e-09 -1.39624e-08 -5.14155e-09 1.65329e-06 
6.23957e-07 1.06013e-06 6.25014e-07 2.13805e-07 1.04622e-07 3.61958e-07 -1.23055e-08 -4.57109e-08 -1.40326e-07 
-1.18312e-07 -7.77865e-09 2.81385e-10 -1.49713e-09 -2.39793e-08 -2.59379e-08 6.41505e-07 -8.72127e-07 -6.12872e-08 
1.11468e-08 5.97003e-09 -2.79433e-08 -2.5102e-08 -6.67437e-09 -1.27092e-08 -2.54543e-08 -9.51655e-08 2.85651e-08 
-8.71934e-08 3.38971e-07 3.14349e-07 1.38049e-07 2.1031e-07 3.23266e-08 -2.46243e-08 1.42293e-09 1.33921e-07 
-4.66838e-06 -2.09898e-06 -3.27284e-06 -1.5899e-05 -2.62223e-06 1.02633e-07 -3.98922e-06 6.18729e-07 -4.8028e-07 
8.67494e-09 2.45696e-08 7.04772e-08 -1.45484e-09 -4.31179e-08 -9.19415e-09 -3.9953e-08 -2.45955e-08 5.32865e-08 
1.58841e-08 2.53159e-06 6.53376e-06 1.31208e-06 -1.2423e-06 1.05071e-06 8.71075e-08 1.41019e-07 9.78084e-08 
5.84323e-09 6.16449e-08 5.29207e-08 2.33781e-08 -1.90087e-08 2.62401e-09 2.42286e-09 1.24087e-07 -4.11886e-07 
-1.17248e-06 -3.96681e-07 -2.76071e-08 1.16121e-07 1.78229e-08 3.19463e-07 3.01689e-08 -1.55335e-07 -4.85447e-08 
1.35393e-07 -3.74953e-09 1.10716e-07 8.09738e-09 1.9006e-07 -8.47047e-08 -4.93811e-08 -5.92677e-08 -1.38372e-07 
-6.87187e-08 -3.30908e-08 -5.56259e-08 -3.0736e-08 -2.62824e-09 -4.31992e-08 -2.41143e-08 -9.70553e-09 -1.18487e-08 
1.58978e-08 3.84005e-08 -1.47682e-08 -3.8401e-08 2.77886e-08 -5.99975e-08 -4.87877e-08 3.22144e-08 3.80589e-08 
1.64156e-08 -4.64668e-08 2.38557e-08 2.09396e-08 4.56961e-08 1.87638e-08 -3.07359e-06 4.02522e-08 -4.02207e-08 
-4.40721e-08 -3.30745e-08 2.80902e-09 1.07963e-07 4.5634e-08 2.43468e-08 3.35083e-07 -9.43498e-09 1.84268e-08 
1.76413e-08 -1.16684e-08 -2.58028e-08 1.85564e-07 -5.8768e-11 -5.57903e-08 8.76188e-08 5.39217e-08 -1.06033e-07 
-1.60088e-07 -3.61517e-08 -3.27864e-08 1.77196e-09 5.80049e-06 9.81088e-06 4.07191e-06 4.67515e-09 -4.59166e-07 
3.31654e-07 4.78673e-08 1.42205e-07 -3.68629e-08 -2.62729e-08 2.70159e-09 -1.24274e-08 -2.35448e-08 -3.00873e-08 
4.65097e-08 4.0533e-08 -2.19268e-08 -5.56542e-09 2.13214e-09 2.91832e-08 8.65873e-09 -4.52983e-09 3.03708e-08 
4.95673e-06 5.50937e-06 -9.45574e-06 -8.7141e-09 -3.74668e-08 3.14591e-08 -8.91165e-08 -6.18807e-09 6.7612e-08 
3.53073e-09 -6.91279e-08 4.66882e-08 -8.49916e-09 -9.1266e-09 -2.1114e-08 -2.58744e-09 -1.54243e-08 7.26112e-08 
4.0982e-08 1.25172e-08 1.72599e-07 1.70543e-07 2.09668e-07 -5.29691e-07 -1.30566e-07 -5.55969e-08 4.87032e-08 
1.76055e-08 4.4099e-08 -2.26263e-08 -2.27519e-06 -2.68437e-08 -4.76136e-08 -3.64749e-08 1.90017e-08 4.57315e-08 
2.23922e-08 3.50823e-08 -1.09057e-09 -4.87503e-07 -8.29261e-07 -1.19909e-06 -9.72747e-07 -1.5474e-08 -5.6043e-09 
7.60535e-08 -4.22228e-07 4.92216e-08 2.50314e-07 -7.99066e-08 -3.89203e-08 1.07356e-05 3.6629e-05 3.60823e-08 
5.70684e-08 2.12531e-08 -1.78971e-09 4.66945e-08 4.49598e-09 -1.90763e-06 1.00894e-05 -5.42022e-06 -9.72504e-06 
1.71674e-09 -2.92353e-08 -5.77855e-08 1.96525e-07 1.41529e-07 1.11409e-07 4.90797e-08 2.10207e-08 -6.86913e-06 
-2.00916e-05 5.95679e-06 -2.99882e-08 1.31859e-08 2.176e-08 -2.22532e-09 3.12086e-08 -3.6011e-08 -1.69923e-09 
-5.95241e-09 -5.82971e-08 8.30096e-09 -2.88304e-08 8.26871e-09 4.25428e-08 7.64574e-08 -2.38506e-09 -1.07946e-07 
-3.38803e-08 -2.97833e-08 4.39723e-09 -3.71964e-08 -1.69976e-08 -2.06282e-07 1.82693e-07 1.49636e-07 -2.19228e-08 
-5.84426e-09 3.92679e-06 -1.26122e-05 1.18616e-07 -3.97578e-08 1.04645e-07 1.00428e-07 1.05885e-07 -2.4877e-08 
2.55431e-08 -1.05282e-09 -6.96987e-08 -6.51104e-07 -8.12703e-07 -6.24839e-08 8.1008e-08 -3.51392e-08 1.29278e-07 
8.05697e-08 -1.87189e-07 3.65917e-07 2.10491e-09 2.35027e-08 2.62051e-08 -2.41068e-05 9.45759e-08 -8.83915e-08 
4.97249e-08 1.96388e-05 5.3853e-07 1.30873e-05 -7.56022e-06 7.86162e-06 5.84183e-08 -1.93578e-08 -3.3871e-06 
-6.62761e-06 2.86803e-07 -2.80003e-08 -1.4528e-07 -4.42385e-07 5.99807e-08 -1.93156e-08 -4.712e-09 3.3806e-07 
-1.35683e-08 1.56585e-08 2.41143e-08 -5.07164e-08 -1.85724e-07 5.81007e-08 -3.03821e-08 6.99822e-08 3.61927e-08 
4.90582e-08 4.74903e-08 6.44041e-08 6.54272e-08 3.22932e-08 3.30342e-08 5.15016e-05 5.66683e-05 -5.21506e-07 
8.58734e-08 -4.70409e-08 1.10857e-07 -8.48489e-08 4.67089e-08 1.37886e-09 4.11308e-08 -6.33254e-09 -5.72456e-08 
-1.12702e-08 -4.4794e-07 -1.51689e-06 -5.51921e-08 -4.01372e-08 -2.947e-08 -4.34057e-08 3.10088e-08 1.38694e-07 
-2.27902e-07 -1.09838e-07 -9.7317e-07 -5.96768e-07 1.32287e-07 1.0809e-08 -2.9235e-09 4.53745e-08 -5.12451e-08 
-6.7539e-08 6.09707e-08 -3.16071e-08 6.37994e-08 1.18706e-08 3.22318e-08 -2.88781e-08 -4.75453e-09 -2.42963e-09 
6.52517e-09 3.2246e-09 -1.55753e-08 -5.16501e-08 2.0937e-08 1.03731e-07 -2.34798e-08 -5.91437e-09 2.45012e-08 
-5.28308e-08 -7.44944e-08 4.16633e-08 -5.77817e-08 1.81014e-09 1.66957e-08 -7.53766e-07 -5.17937e-07 -3.24373e-06 
-2.81418e-06 -1.12937e-08 1.09426e-09 9.4525e-08 8.89285e-09 1.17933e-07 -5.26704e-08 -4.93032e-07 5.83562e-08 
1.44241e-08 4.63388e-08 -1.29374e-05 2.38056e-08 4.21291e-08 4.96147e-08 -5.3582e-08 -5.88617e-08 1.34317e-08 
4.30579e-09 5.80678e-08 -3.47232e-08 -8.90432e-08 1.66148e-09 -1.82252e-08 7.3317e-08 1.57396e-07 8.08687e-08 
-1.45998e-06 -1.06234e-06 -1.38343e-08 -3.17936e-08 7.23202e-08 1.34825e-08 4.4862e-08 -3.55638e-08 -1.4512e-07 
5.34062e-08 6.15114e-10 5.72866e-08 -5.12528e-08 5.98567e-05 9.01993e-05 4.83673e-05 -1.73372e-08 2.36242e-08 
9.38518e-08 -1.07908e-08 1.14546e-07 8.1002e-08 2.79326e-08 -1.7893e-07 -5.10866e-07 1.46028e-07 -1.25263e-07 
3.73343e-08 -8.97389e-09 -2.17378e-08 1.48974e-07 2.86714e-08 3.2604e-09 -5.53672e-08 -3.69547e-08 -6.28525e-08 
2.28156e-08 -8.60788e-06 3.83918e-08 2.95776e-08 4.10704e-08 2.85045e-09 5.93111e-08 8.16684e-08 1.44932e-07 
-1.4873e-08 -2.28919e-07 -9.05267e-08 -1.12223e-07 -3.36419e-07 -2.21405e-08 -4.12072e-08 -3.65585e-08 -8.74459e-09 
2.67371e-08 1.80072e-08 1.25121e-08 1.12031e-08 -3.99871e-08 2.67825e-08 -1.49904e-08 3.73545e-08 -7.84878e-08 
1.53456e-08 -4.12253e-08 -2.15571e-08 6.94318e-06 1.64414e-05 5.87262e-06 2.14392e-08 1.74362e-08 1.32958e-07 
-2.78618e-09 -3.78989e-09 1.74439e-07 5.15369e-08 -6.00288e-08 -3.91051e-08 1.1734e-08 9.86419e-06 6.51646e-06 
-1.3569e-05 -1.82704e-08 1.53065e-08 -2.0617e-09 3.66267e-08 -1.31964e-09 1.33345e-08 -1.09854e-07 -7.79335e-08 
-5.42302e-09 -1.05152e-08 -8.92124e-08 -9.68816e-08 -9.05668e-06 1.27657e-08 -1.50384e-08 -4.03014e-08 -5.13965e-08 
-2.90927e-08 3.27726e-09 -2.98989e-08 -3.8558e-08 2.65601e-08 1.69489e-06 -1.82302e-08 -4.5406e-08 -5.54037e-08 
-4.07454e-08 3.89358e-08 -5.06638e-08 -9.45462e-09 2.20679e-08 2.665e-08 -8.38758e-08 -5.83926e-09 -5.73767e-08 
-1.38589e-06 -1.04907e-05 -5.55219e-08 -7.36211e-06 -4.52999e-11 1.0085e-05 -2.72078e-08 -3.27813e-08 -6.27214e-08 
6.6439e-09 7.83865e-10 -3.04927e-09 -9.00408e-08 5.86937e-08 2.95025e-05 1.15612e-06 7.63016e-08 5.05266e-08 
7.3964e-08 -1.32947e-08 4.65066e-08 -6.6136e-07 -2.79396e-08 3.86327e-08 1.54152e-09 -1.95735e-07 -3.62508e-08 
-1.92358e-08 -1.09179e-07 9.63411e-08 -1.10649e-07 -1.55691e-07 6.18903e-08 -6.11335e-09 -5.78176e-08 -7.82038e-08 
-3.35691e-08 -1.80996e-06 -1.59096e-06 1.44915e-07 -3.15286e-08 1.43909e-07 8.90837e-08 2.08383e-08 4.17608e-08 
9.25082e-08 -5.58517e-08 -5.61209e-08 -1.38665e-08 -2.97592e-08 1.60483e-07 -1.47764e-07 -5.18122e-09 -1.20246e-06 
-7.40598e-07 -2.3151e-08 -1.27325e-07 -1.8765e-07 2.26171e-08 1.23355e-07 -2.57197e-07 3.89567e-09 7.63793e-10 
1.04972e-08 -3.64955e-06 2.8449e-06 -1.13461e-05 -2.46376e-06 6.82871e-09 3.44498e-09 3.37424e-08 4.1394e-08 
7.55428e-08 1.5238e-08 1.53653e-05 9.73607e-06 1.5318e-05 1.01237e-08 3.70764e-07 4.11757e-08 1.74237e-08 
4.15588e-08 7.24257e-08 2.04394e-08 4.0183e-08 -2.78233e-08 -5.88225e-08 1.15061e-07 -3.07942e-08 8.04549e-08 
1.67031e-08 -8.9615e-07 5.43048e-06 -4.49607e-08 3.94477e-08 -4.09564e-08 -8.28689e-08 2.07508e-08 -3.51852e-08 
1.30921e-08 1.92477e-08 2.62044e-08 1.10403e-07 -4.37993e-06 -4.85073e-06 -3.2449e-08 -1.57667e-07 2.64115e-08 
1.94833e-08 -1.04846e-07 -4.74186e-09 -2.91371e-08 -5.85751e-10 5.15232e-08 -1.22611e-08 -8.83585e-06 -5.0822e-08 
7.16609e-08 4.65189e-08 -2.32451e-08 1.12906e-07 -1.13413e-07 -1.18275e-07 -9.11727e-08 -1.99523e-07 -2.72812e-07 
-3.9282e-07 2.35824e-08 3.47478e-07 1.09906e-06 -3.68511e-07 2.89103e-08 6.30546e-08 -1.09967e-07 1.25478e-07 
1.54442e-07 -2.55144e-08 1.17237e-07 7.85656e-08 -1.67849e-06 -3.67361e-08 3.64701e-07 -3.86215e-09 2.19269e-08 
2.72117e-09 3.85029e-08 -6.17116e-07 -2.23218e-06 3.68978e-09 -1.46981e-08 -2.6647e-08 -1.86733e-08 -6.28276e-09 
-3.72283e-08 1.60732e-07 -4.48534e-08 -8.74994e-08 6.36306e-08 -1.46039e-06 -6.0568e-07 2.00413e-07 -1.09281e-06 
5.02994e-09 -1.97337e-08 -1.23868e-05 -1.69019e-06 9.59955e-08 2.16384e-07 -2.37959e-08 2.15502e-08 -1.17034e-08 
-1.00125e-05 1.80547e-08 8.84464e-08 7.29555e-05 1.14108e-08 6.32725e-08 3.83485e-08 -6.22087e-10 -2.98708e-08 
-9.3701e-08 9.93738e-08 -7.20895e-08 4.30735e-08 9.98399e-09 2.60282e-09 2.4694e-08 3.42966e-08 2.57614e-08 
4.90969e-05 9.20764e-08 9.74153e-08 2.5585e-07 4.33418e-07 1.37637e-07 -2.4631e-07 3.28271e-07 2.95719e-08 
1.23278e-08 3.45195e-08 -8.11594e-08 1.46057e-08 -2.02575e-08 6.28699e-08 -5.46226e-09 -2.1268e-08 8.37767e-08 
-6.1321e-06 -1.50561e-06 -7.13777e-07 -1.10062e-06 -9.44207e-07 -4.68501e-08 -3.75772e-07 -1.47951e-07 2.03093e-08 
-3.68727e-08 -2.31554e-08 -8.56991e-08 4.70592e-08 -2.36946e-08 -1.08342e-07 -1.46112e-08 -1.74433e-08 -5.94245e-07 
4.84229e-09 5.73166e-08 -1.58985e-08 -1.91212e-06 -7.71564e-09 -4.49744e-08 5.94049e-05 2.36329e-05 2.25754e-08 
9.57725e-08 -2.01395e-09 -5.61529e-08 -3.34455e-08 -1.0489e-07 -4.4506e-09 5.54895e-08 -7.57847e-08 -6.64601e-09 
-1.98228e-08 3.33704e-08 -2.39963e-09 -4.5615e-10 5.75484e-06 5.49859e-06 1.05763e-05 1.17866e-05 5.9713e-06 
1.01028e-08 -1.59862e-08 -8.32562e-08 -5.42707e-09 6.72452e-09 -2.7011e-08 -3.85526e-06 1.63649e-06 3.02225e-06 
4.4614e-07 -2.22228e-06 2.80274e-06 -2.24437e-06 -2.98236e-06 -1.30264e-06 -3.63994e-08 -7.37702e-08 -1.08848e-07 
-3.72836e-09 -2.63532e-08 3.11906e-08 -1.44853e-08 -3.06921e-08 2.54646e-06 -2.76832e-06 2.32055e-06 -7.82873e-08 
-6.31265e-09 -6.07831e-08 3.72318e-08 -4.9498e-07 -5.01612e-07 -5.73329e-07 -1.42189e-06 -3.72168e-07 2.86554e-08 
1.2789e-08 1.20289e-08 3.19065e-08 -6.6122e-09 -5.14307e-08 -2.7665e-07 -3.81869e-07 -2.06571e-07 2.20546e-08 
4.92158e-08 -5.29989e-08 -3.19306e-07 1.46497e-09 2.94528e-09 1.02634e-07 5.58713e-08 -1.63145e-07 -3.0443e-08 
1.30501e-08 1.78961e-08 4.62405e-06 -7.84526e-08 -9.8007e-08 -5.93541e-07 1.12617e-06 1.24647e-06 5.83069e-07 
-4.41164e-07 7.03099e-08 3.80987e-08 4.69214e-08 -6.05876e-08 3.27955e-08 1.28988e-07 1.13929e-07 2.57681e-06 
2.98329e-06 2.0881e-06 -4.91948e-07 1.42462e-06 8.04195e-07 2.06857e-06 9.05725e-08 4.01352e-08 1.48533e-09 
7.2647e-10 -1.22631e-08 3.64102e-08 -8.25388e-09 -3.4096e-06 -3.23112e-06 -2.60744e-07 -3.87521e-09 -4.33394e-08 
-8.03619e-09 -3.46874e-07 -1.5248e-07 8.69271e-08 -7.35526e-06 -7.56412e-06 -3.28925e-06 -1.35244e-08 -1.19965e-07 
7.10046e-08 -3.33731e-08 8.35584e-08 -2.63942e-07 -1.68401e-07 2.32854e-06 -5.29645e-08 -1.63313e-08 -1.80101e-07 
2.61877e-07 2.37858e-08 -4.85301e-08 -6.94829e-08 -3.97264e-08 1.81225e-07 -1.21766e-05 -8.11298e-06 -6.63141e-06 
-6.67666e-06 2.21201e-07 7.59619e-08 -1.23635e-06 1.01511e-06 -5.05012e-07 -3.02722e-06 -3.65032e-06 1.97241e-06 
-7.31748e-07 -1.57418e-08 -7.38875e-09 2.7786e-06 1.54364e-06 8.77159e-06 -5.4426e-07 4.26011e-06 5.89242e-06 
-2.68896e-06 -4.67645e-09 -8.18224e-08 -4.67106e-06 -2.88228e-06 -4.2172e-06 2.86866e-08 -1.00733e-06 -3.05351e-06 
3.84154e-08 -3.90527e-08 3.80775e-05 -1.23642e-10 -1.69904e-08 4.90731e-08 -1.73926e-08 -5.69575e-08 5.93959e-08 
2.73834e-07 2.61184e-07 -1.04476e-07 1.64099e-07 6.55954e-09 0.000126419 9.30228e-05 3.77421e-05 8.7212e-08 
-5.92603e-07 3.94368e-07 -5.14744e-07 -1.78068e-06 -7.75724e-09 -6.20352e-09 -5.72018e-06 -2.93211e-06 -3.02547e-08 
-8.84591e-09 -1.12378e-05 -6.88545e-07 -2.42039e-06 3.89276e-08 -1.00729e-07 6.3953e-08 -1.39148e-06 -2.73641e-07 
8.76147e-05 0.000134963 -2.01745e-08 -5.77118e-08 -5.46719e-07 1.11742e-05 4.73438e-08 -4.93032e-08 -1.85664e-08 
-1.66797e-07 -4.72102e-08 -2.48599e-07 -2.90309e-07 7.36084e-05 -5.85518e-08 -9.21797e-07 6.63219e-08 -3.51795e-08 
2.52445e-08 -2.08513e-08 7.04309e-06 6.45396e-06 -1.49623e-08 7.726e-08 4.15092e-08 -1.42403e-08 6.44419e-05 
2.33686e-08 -1.77977e-06 9.02032e-08 -1.83467e-07 -1.28415e-06 -1.43701e-08 -6.61737e-09 -2.1136e-08 -2.30543e-07 
4.57029e-10 -4.25079e-06 -7.28052e-07 -9.19468e-08 4.01887e-08 3.98038e-06 5.33504e-08 -2.59791e-06 -3.62058e-07 
1.19932e-07 -4.43942e-08 -1.3193e-07 1.72778e-08 -5.6049e-06 6.09451e-07 4.71244e-08 2.29125e-07 -2.42976e-08 
1.7295e-08 2.79132e-08 1.11383e-07 8.77551e-09 2.43991e-08 -2.97319e-07 1.97631e-08 -5.11724e-09 -4.06062e-08 
3.04032e-08 -2.22567e-08 -1.05233e-06 0.000119391 -1.53976e-06 2.58786e-08 6.77798e-08 -1.10603e-07 -1.48309e-07 
-5.0984e-08 2.49985e-08 2.29614e-08 -4.32797e-08 -1.08941e-07 -2.92724e-09 2.96293e-08 -2.98714e-07 3.4342e-08 
2.4702e-08 4.68745e-08 -2.14118e-08 -7.41176e-08 -7.11807e-08 -1.98456e-06 1.07046e-06 7.4893e-08 
Strain%20yy%20component 1 3545 double
-0.00180731 -4.67091e-05 -4.97711e-05 -0.00229171 -7.16077e-05 2.94344e-05 -0.000446192 -7.17741e-05 3.01668e-05 
-0.000461914 -0.000939337 -0.000337039 -8.26354e-05 -6.07843e-05 -0.00132355 -0.000634387 -0.000168731 -6.87283e-05 
-7.12011e-05 -3.84856e-05 -0.000995426 -0.000355591 -0.000163695 -0.000100871 -0.00168245 -0.000698211 -0.000235962 
-0.000129558 -8.7489e-05 -0.00205823 -5.78581e-05 -0.000101291 -0.000197384 -0.000392187 -0.000302669 -0.000239275 
-0.000188132 -0.000156674 -0.000139921 -0.00013175 -0.000122308 -0.00011204 -0.000102244 -9.41654e-05 -8.6405e-05 
-8.01899e-05 -7.5527e-05 -7.19804e-05 -7.07157e-05 -4.83291e-05 -7.90979e-05 -0.000129404 -0.000316481 -0.000351286 
-0.000270435 -0.000215309 -0.00016942 -0.000147854 -0.000135843 -0.000127167 -0.000117114 -0.000107096 -9.83998e-05 
-9.00511e-05 -8.33125e-05 -7.76627e-05 -7.37438e-05 -7.14583e-05 -7.12257e-05 2.66786e-05 1.87857e-05 6.47596e-06 
-9.5196e-06 -2.70487e-05 -4.41896e-05 -5.92729e-05 -6.93736e-05 -7.30705e-05 2.88144e-05 2.33199e-05 1.27653e-05 
-1.16502e-06 -1.81961e-05 -3.56518e-05 -5.22664e-05 -6.45744e-05 -7.17861e-05 -7.23708e-05 -0.000203867 -9.52786e-05 
-4.02937e-05 -1.26261e-05 -2.13415e-07 4.98486e-06 5.04824e-06 2.30878e-06 -1.35526e-06 -4.62814e-06 -6.56758e-06 
-5.5637e-06 -9.23612e-07 9.52845e-06 -0.00031289 -0.000146196 -6.44269e-05 -2.55424e-05 -4.9899e-06 2.40922e-06 
5.36776e-06 3.77168e-06 7.70059e-07 -3.01279e-06 -5.65782e-06 -6.36498e-06 -3.6402e-06 4.04327e-06 1.91192e-05 
-0.000397499 -0.000266655 -0.000120604 -6.21499e-06 7.52884e-06 -7.18922e-05 -0.000972164 -0.000438281 -0.000340154 
-0.000195959 -5.75639e-05 7.37693e-06 -1.00086e-05 -0.000502843 -0.00142899 -5.88685e-05 -9.21586e-05 -0.000190405 
-0.000439841 -0.00030481 -0.000235964 -0.000185821 -0.000153648 -0.000139771 -0.00013209 -0.000122144 -0.000111941 
-0.000102393 -9.3715e-05 -8.59923e-05 -7.98705e-05 -7.51079e-05 -7.16665e-05 -7.07764e-05 -5.08137e-05 -7.95165e-05 
-0.000119286 -0.000347615 -0.000373192 -0.000266023 -0.00021607 -0.000165724 -0.000145967 -0.000136055 -0.000127179 
-0.000116976 -0.000107184 -9.81181e-05 -8.97535e-05 -8.2906e-05 -7.72759e-05 -7.3381e-05 -7.11994e-05 -7.13297e-05 
-7.1541e-05 2.73359e-05 1.94302e-05 6.87164e-06 -9.34827e-06 -2.7031e-05 -4.44931e-05 -5.97956e-05 -6.99821e-05 
-7.33256e-05 2.94698e-05 2.38643e-05 1.32843e-05 -8.79716e-07 -1.81099e-05 -3.58197e-05 -5.25859e-05 -6.51299e-05 
-7.21997e-05 -7.25742e-05 -0.000218989 -9.9551e-05 -4.55997e-05 -1.6237e-05 -1.52142e-06 3.93339e-06 3.71706e-06 
1.70567e-06 -1.70726e-06 -4.86645e-06 -6.56093e-06 -5.6202e-06 -7.81396e-07 1.04286e-05 -0.000327483 -0.000154043 
-6.91904e-05 -2.91017e-05 -7.40565e-06 9.0079e-07 4.10763e-06 2.75675e-06 1.94645e-07 -3.39849e-06 -5.78651e-06 
-6.29782e-06 -3.46736e-06 4.40757e-06 1.98828e-05 -0.000411062 -0.000282457 -0.000114452 -7.61384e-06 1.63108e-05 
-3.60606e-05 -0.000852939 -0.000451566 -0.000350187 -0.000207068 -5.60076e-05 1.02678e-05 -2.1028e-05 -0.000318612 
-0.00161305 -0.000470385 3.02792e-05 -9.0062e-05 -0.00164988 -0.000650861 -0.000201228 -0.000115231 -0.00169436 
-0.00200235 -0.00124058 -7.20895e-05 -7.11459e-05 -8.46534e-05 -9.87723e-05 -0.00131194 -0.000509691 -0.00078683 
-0.000939477 -0.000828842 -0.000139152 -0.00025095 -0.000348049 -0.000501268 -0.000281209 -8.2313e-05 -0.000116206 
-0.000143753 -0.000187532 -0.000155187 -9.14544e-05 -0.000105787 -9.30212e-05 -4.16487e-05 -0.000150999 -7.98791e-05 
-2.62419e-05 -1.92258e-05 -5.80877e-05 -0.000296946 -9.37781e-05 -0.000135611 -1.41148e-05 -7.58607e-05 -2.58532e-05 
-0.000153705 -3.46725e-05 -0.000112454 -4.87999e-05 -6.26274e-05 -0.000134171 -0.000167347 -1.12455e-05 -7.63377e-05 
-6.7077e-05 -2.37055e-06 -0.000135206 -0.000141011 -9.44297e-05 -3.72715e-06 -4.33608e-05 -2.4518e-05 -0.00031284 
-9.56916e-05 -1.62931e-05 -4.98856e-05 -6.1277e-05 -0.000417169 -5.20727e-05 -3.33424e-06 -4.50655e-05 -0.000128654 
-0.000109263 -0.000154381 -6.46543e-05 -2.29865e-05 -0.000132754 -0.000366605 -0.00010634 -8.47459e-06 -7.34157e-05 
-0.000154939 -5.78262e-06 -8.37306e-05 -6.16209e-05 -0.000144342 -0.000117603 -0.000155888 -0.000138878 -0.000111087 
-2.81963e-05 -5.82841e-05 -2.9161e-05 -9.71539e-06 -2.64399e-05 -0.000163444 -2.36153e-05 -0.000191686 -0.000119624 
-0.000333558 -9.28838e-05 -9.38746e-07 -6.29198e-05 -9.52354e-05 -4.49247e-05 -0.000155666 -4.60261e-05 -2.49346e-06 
-5.85988e-05 -0.000131164 -0.000123196 -0.000127877 -3.57904e-05 6.81577e-06 -6.9435e-05 -5.04898e-05 -3.84527e-05 
-7.96535e-05 -4.30389e-05 -9.34144e-05 -8.1026e-05 2.57198e-06 -9.9619e-06 -1.61959e-05 -1.32287e-05 -1.82841e-05 
-7.99012e-05 -7.89263e-05 -4.93857e-05 -5.84203e-05 -1.3118e-05 -0.00025294 -0.000263279 -0.000125175 -6.58782e-05 
-6.19276e-06 -0.000133194 -8.29111e-05 -0.00017026 -7.36676e-05 -7.73812e-05 -4.08996e-06 -7.23545e-05 -3.45175e-05 
-5.39563e-05 -0.000153544 -0.000211265 -0.000151148 -0.000104814 -0.000105561 -0.000165996 -0.00019928 -2.59446e-05 
-0.000113705 -2.67387e-05 -0.000129205 -0.000500237 -0.000144966 -8.53434e-05 -1.35745e-05 -6.58503e-05 -0.000831011 
5.31603e-07 -6.49618e-05 -2.24593e-05 -0.000228148 -0.000127159 -0.000118834 -0.000101175 2.47881e-06 -8.47187e-05 
-0.00025415 -6.63022e-05 -9.55132e-06 -4.92121e-05 -7.84231e-05 -8.83442e-05 -7.47772e-06 -0.000521151 -4.40927e-05 
-0.000159444 -0.000174089 -3.12547e-05 -0.000467473 -7.18164e-06 -1.26042e-05 -0.000103448 -4.48349e-05 -0.000132243 
-1.58142e-05 -0.000146732 -7.19521e-05 -0.0001356 -2.63928e-05 -7.28663e-05 -0.00013895 -0.000145111 -0.00013825 
-5.13098e-05 6.40259e-06 -6.51996e-05 -9.60514e-05 -3.55981e-05 -1.01209e-05 -0.000108485 -0.000101991 -0.000168758 
-6.77861e-05 -0.000125044 -2.20218e-05 -7.26001e-05 -2.12511e-05 -3.15848e-05 -5.91285e-05 -0.000153599 -0.000113094 
-0.000315725 -0.000120084 -0.000149141 -4.15292e-05 -0.000122117 -0.000255372 -1.06447e-05 -3.49882e-06 -4.62086e-05 
-0.000133063 -0.000123501 -8.85551e-05 -5.64705e-05 -3.42728e-05 -8.29873e-05 -0.000164036 1.69697e-06 -7.20139e-05 
-0.000113208 -2.03365e-05 1.65313e-05 -7.11129e-05 -0.000110551 -0.00131239 -0.000952852 -0.000883976 -8.04511e-05 
-7.68892e-05 -8.68832e-05 -7.13752e-05 -7.1788e-05 -7.09268e-05 2.27071e-05 1.30061e-05 2.17093e-05 -0.000221407 
-0.000327273 -0.000307816 -0.000748409 -0.000444251 -0.000703158 -0.000310191 -0.000166958 -0.000414387 -0.000113957 
-8.84054e-05 -0.000233358 -0.000135327 -0.000115961 -0.000167653 -0.000185407 -4.33775e-05 -6.74961e-05 -0.000107538 
-8.79378e-05 -6.2146e-05 -1.74876e-05 -3.03789e-05 -3.41727e-05 -4.27884e-06 -1.07401e-05 -1.59486e-05 3.21068e-06 
6.2949e-07 -4.47124e-06 3.90466e-06 4.12494e-06 1.47613e-06 2.61595e-06 3.88197e-06 2.41468e-06 -1.01883e-06 
7.93056e-07 7.86107e-07 -4.07711e-06 -2.37062e-06 -2.2683e-06 -6.42239e-06 -5.34528e-06 -4.93682e-06 -6.72848e-06 
-6.90408e-06 -6.73968e-06 -2.37004e-06 -5.0099e-06 -6.30001e-06 -6.79702e-06 -8.0988e-06 5.38784e-06 3.45576e-07 
-1.21669e-06 8.77499e-06 -0.000284822 -0.000232195 -0.000219907 -0.000214219 -0.000151868 -0.000193627 -0.000106828 
-6.50401e-05 -0.000161021 -0.000138817 -0.000140571 -7.13898e-05 -6.1868e-05 -0.000122076 -4.62869e-05 -6.60239e-05 
-0.000112976 -9.98156e-05 -0.000489354 -0.000101849 -0.000436088 1.23718e-05 1.60849e-05 6.95366e-06 1.60912e-05 
1.1329e-05 1.65182e-06 7.40941e-06 2.29473e-06 -9.51173e-06 -1.96299e-06 -5.76517e-06 -2.50898e-05 -1.69904e-05 
-1.69029e-05 -4.09299e-05 -3.29393e-05 -3.1092e-05 -5.39051e-05 -4.67677e-05 -4.37208e-05 -6.32985e-05 -5.83645e-05 
-5.41295e-05 -6.90646e-05 -6.69041e-05 -6.22071e-05 -6.74284e-05 -7.08155e-05 -7.03855e-05 -8.70845e-05 -0.000112748 
-0.000115656 -0.000159721 -0.000217454 -0.000186115 -0.00025918 -0.000360704 -0.000297501 -0.000326293 -0.000283116 
-0.000284682 -0.000321701 -0.000252818 -0.000242702 -0.000214715 -0.000221828 -0.000205302 -0.000178985 -0.000182703 
-0.000156076 -0.000143526 -0.000149527 -0.000156353 -0.000137331 -0.000137175 -0.000136328 -0.000132091 -0.000136388 
-0.000125328 -0.000120411 -0.000120941 -0.000126954 -0.000128178 -0.000117784 -0.000112592 -0.000116017 -0.000107051 
-0.000102263 -0.000103737 -0.000108853 -0.000109215 -9.76815e-05 -9.3638e-05 -9.73576e-05 -9.1342e-05 -8.73686e-05 
-9.06944e-05 -8.47511e-05 -8.15784e-05 -8.57395e-05 -7.94396e-05 -7.69445e-05 -8.0741e-05 -7.40252e-05 -7.2659e-05 
-7.29266e-05 -7.48727e-05 -7.5878e-05 -7.20683e-05 -7.15269e-05 -7.22794e-05 -7.14007e-05 -0.000115097 -0.000103227 
-0.000105818 -9.69576e-05 -0.000109681 -9.03514e-05 -8.65067e-05 -8.22999e-05 -7.58012e-05 -9.6097e-05 -8.52483e-05 
-7.43812e-05 -5.43011e-05 -4.59507e-05 -4.99698e-05 -4.54975e-05 -5.38464e-05 -3.82031e-05 -3.18178e-05 -3.54157e-05 
-3.0319e-05 -3.6701e-05 -4.25821e-05 -3.8653e-05 -3.36717e-05 -4.23225e-05 -0.000152422 -0.000147024 -0.000147189 
-0.000145142 -0.000146691 -0.000157847 -0.000157713 -0.000158309 -0.000165348 -0.000138211 -0.000149185 -0.000142097 
-0.000139758 -0.000158776 -7.93382e-05 -7.05154e-05 -7.17021e-05 -6.46876e-05 -7.30578e-05 -8.66967e-05 -9.43009e-05 
-8.74074e-05 -8.73778e-05 -8.04225e-05 -8.6891e-05 -7.36737e-05 -3.40091e-05 -3.47899e-05 -2.61911e-05 -1.76123e-05 
-1.81933e-05 -4.38805e-05 -3.56382e-05 -2.87969e-05 -3.7915e-05 -1.30185e-05 -2.08182e-05 -2.3529e-05 -2.7615e-05 
-2.29958e-05 -2.3594e-05 -1.98381e-05 -2.43041e-05 -2.2442e-05 -1.88872e-05 -1.59539e-05 -1.6322e-05 -1.46736e-05 
-1.17136e-05 -1.61493e-05 -1.67114e-05 -1.17807e-05 -5.60731e-05 -4.99245e-05 -5.2147e-05 -4.86518e-05 -5.46807e-05 
-6.20512e-05 -6.19251e-05 -5.82162e-05 -5.48532e-05 -5.99571e-05 -6.19782e-05 -6.58893e-05 -0.000208818 -0.00015631 
-0.000203129 -0.000173544 -0.000252885 -0.000282443 -0.000192977 -0.000357637 -0.000407198 -0.000405889 -0.000420146 
-0.000486964 -0.000126049 -0.000110361 -0.00011126 -9.01311e-05 -0.000107888 -8.93406e-05 -7.35509e-05 -7.86421e-05 
-7.71293e-05 -0.00010538 -0.000140867 -0.000144137 -0.000140274 -0.000139075 -0.000133619 -0.0001223 -0.000130266 
-0.000127493 -0.000130021 -0.000121682 -0.000136648 -0.000142332 -0.000127924 -0.00013189 -1.90409e-05 -1.80185e-05 
-1.51739e-05 -1.22628e-05 -1.33866e-05 -1.00681e-05 -1.06009e-05 -1.35286e-05 -1.76166e-05 -1.72688e-05 -8.96881e-06 
-2.16755e-05 -7.20679e-05 -7.07743e-05 -7.48263e-05 -7.83953e-05 -7.93459e-05 -7.94167e-05 -7.43839e-05 -8.05731e-05 
-8.42047e-05 -7.03351e-05 -1.06528e-05 -1.85964e-05 -1.75438e-05 -2.58434e-05 -1.75443e-05 -1.94537e-05 -2.54448e-05 
-3.55142e-05 -3.54272e-05 -4.289e-05 -3.36991e-05 -3.40516e-05 -0.000155044 -0.000150964 -0.000154782 -0.000159339 
-0.000157444 -0.000130307 -0.000144091 -0.000142181 -0.000139346 -0.000144157 -0.000153334 -0.0001596 -3.65559e-05 
-2.92385e-05 -3.02068e-05 -2.48866e-05 -3.9289e-05 -4.50427e-05 -4.03997e-05 -4.0751e-05 -3.51967e-05 -4.12578e-05 
-3.08368e-05 -9.94482e-05 -0.000108032 -0.000104188 -0.000110407 -0.00010158 -0.000123831 -0.000118619 -0.000117989 
-0.000112612 -0.000118065 -0.000108528 -0.000116974 -5.40612e-05 -4.67834e-05 -5.54286e-05 -5.77337e-05 -4.00797e-05 
-4.14916e-05 -4.97725e-05 -5.35033e-05 -5.27099e-05 -3.28039e-05 -6.14114e-05 -5.33498e-05 -6.28103e-05 -7.09561e-05 
-5.29533e-05 -6.07441e-05 -5.0936e-05 -7.93868e-05 -7.10416e-05 -6.97489e-05 -0.000161192 -0.00014353 -0.000155195 
-0.000138124 -0.000133795 -0.000156797 -0.000163177 -0.000187665 -0.000223251 -0.0001788 -0.000165188 -0.000170705 
-0.00016739 -0.00016665 -0.000132456 -0.000150842 -0.000115523 -0.000135517 -0.000145625 -0.000147996 -0.000169502 
-0.000167797 -1.11277e-05 -1.25897e-05 -1.01024e-05 -9.31316e-06 -6.07994e-06 -8.60001e-06 -8.5504e-06 -1.09549e-05 
-8.15447e-06 -1.44476e-05 -1.71774e-05 -1.36348e-05 -7.97686e-05 -8.3349e-05 -7.99021e-05 -7.90137e-05 -7.49133e-05 
-6.96758e-05 -7.13064e-05 -6.92417e-05 -7.45614e-05 -7.7307e-05 -7.56128e-05 -6.96767e-05 -6.99951e-05 -6.95698e-05 
-6.63672e-05 -6.29269e-05 -5.82628e-05 -6.27436e-05 -6.6275e-05 -6.81078e-05 -7.06075e-05 -6.97862e-05 -7.92706e-06 
-7.94123e-06 -2.39927e-06 2.15842e-06 2.1134e-06 1.60811e-07 4.32704e-06 -6.33969e-06 -6.99731e-06 -3.25071e-06 
-0.000143378 -0.000140614 -0.000133819 -0.000124864 -0.000126122 -0.000125663 -0.000123658 -0.000133921 -0.000144367 
-0.000152068 -0.000151889 -0.000140658 -0.000144795 -0.000143443 -0.000135184 -0.000164572 -0.000144163 -0.000145348 
-0.000100138 -9.37656e-05 -0.000100088 -0.000100071 -0.000105872 -8.98139e-05 -8.91806e-05 -9.37306e-05 -9.80828e-05 
-8.78682e-05 -8.31983e-05 -6.62153e-07 -2.0548e-06 -3.87334e-06 -5.5091e-06 -6.75016e-06 -3.49507e-06 -4.56358e-07 
-9.76373e-06 -8.43258e-06 -1.44933e-05 -4.86546e-05 -4.48054e-05 -3.94516e-05 -4.63455e-05 -3.95849e-05 -3.51303e-05 
-3.88839e-05 -5.17704e-05 -3.50878e-05 -2.56164e-05 -3.13297e-05 -3.01344e-05 -2.80127e-05 -2.14511e-05 -2.02879e-05 
-2.32575e-05 -2.67269e-05 -0.000432424 -0.000402325 -0.000327141 -0.000223656 -0.000398092 -0.000369825 -0.000296897 
-0.000204455 -0.000188826 -8.71294e-05 -9.5266e-05 -0.000102361 -8.80728e-05 -9.85726e-05 -0.000103037 -0.000106068 
-0.000109584 -2.13446e-05 -1.97521e-05 -1.28252e-05 -1.4665e-05 -9.67272e-06 -1.83768e-05 -2.2968e-05 -5.41211e-05 
-5.40659e-05 -4.97855e-05 -4.43831e-05 -4.69015e-05 -5.05351e-05 -4.78045e-05 -5.52834e-05 -5.9817e-05 -6.45203e-05 
-6.30304e-05 -5.76224e-05 -6.75842e-05 -6.35249e-05 -0.000290127 -0.000108878 -0.000225037 -0.00016625 -0.000331819 
-0.000470669 -0.00041129 -0.000489201 -0.000569682 -4.75668e-05 -3.91929e-05 -4.82995e-05 -5.53343e-05 -6.12831e-05 
-6.40432e-05 -6.22126e-05 -6.56397e-05 -6.70215e-06 -2.03473e-07 -1.72657e-06 -1.13593e-05 -7.81327e-06 -6.21508e-06 
-6.4401e-05 -8.25595e-05 -6.05218e-05 -4.55959e-05 -5.53929e-05 -4.27328e-05 -5.30072e-05 -2.44168e-05 -3.55833e-05 
-3.34306e-05 -0.00010709 -0.000103111 -0.000135745 -0.000176212 -0.000162862 -0.00013065 -0.000161227 -0.000121129 
-0.00011833 -9.95916e-05 -0.000110953 -9.31212e-05 -8.18524e-05 -0.000168558 -0.000154769 -0.000150552 -0.000140175 
-0.000139917 -0.000172984 -5.76574e-05 -6.13552e-05 -6.55556e-05 -6.86635e-05 -6.05631e-05 -6.55111e-05 -7.28522e-05 
-7.6978e-05 -1.93856e-05 -1.82358e-05 -2.20782e-05 -2.70848e-05 -2.86957e-05 -2.7785e-05 -0.000128907 -0.000127954 
-0.000132801 -0.000138999 -0.000135629 -0.000136588 -0.000286228 -0.000304543 -0.000343353 -0.000416426 -0.000340686 
-0.000104733 -9.8281e-05 -0.000109885 -0.000115986 -0.000109828 -0.000112778 -9.53519e-06 -7.28503e-05 -6.91371e-05 
-0.000139043 -0.000153419 -0.000159357 -0.000162032 -0.000139917 -0.000167127 -6.40447e-06 -3.41156e-06 -4.62736e-06 
-8.63522e-05 -8.81454e-05 -8.816e-05 -8.32983e-05 -7.44978e-05 -6.95226e-05 -5.34523e-05 -6.29757e-05 -5.17905e-05 
-0.000113917 -0.00012029 -0.00011681 -0.000140541 -3.17975e-05 -2.71791e-05 -3.1186e-05 -3.04974e-05 -2.52365e-05 
-2.5636e-05 -0.000159164 -0.000165556 -0.000163925 -0.000113975 -0.000115415 -5.15307e-05 -7.1255e-05 -8.2702e-05 
-0.000101191 -0.000386003 -0.000379961 -0.000262572 -0.000165714 -0.000216476 -0.000142193 -0.000135815 -0.000126827 
-0.000116994 -0.000107514 -9.8118e-05 -8.96754e-05 -8.29357e-05 -7.78914e-05 -7.36954e-05 -7.15605e-05 -4.57392e-05 
-4.73292e-05 -5.5976e-05 -5.41305e-05 -7.15772e-05 -7.14737e-05 -7.08364e-05 -7.08837e-05 -9.64377e-05 -7.0797e-05 
-5.93264e-05 -6.7982e-05 -0.000148578 -0.000103232 -9.07552e-05 -0.000105105 -9.41774e-05 -0.000393894 -0.000277107 
-0.000137158 -0.000203546 -0.000287059 -0.000339391 -0.000384307 -0.000422768 -0.000407236 -0.000406694 -0.00025017 
-0.000284141 -0.000342282 -0.000305767 -0.000282637 -0.000204936 -0.000227617 -0.000247083 -0.00023708 -0.000225976 
-0.000160967 -0.000176484 -0.000173741 -0.00019226 -0.000205275 -0.000141034 -0.000149975 -0.000158872 -0.000155614 
-0.000148153 -0.000133636 -0.000138169 -0.000140849 -0.00014025 -0.000138311 -0.000124513 -0.000129695 -0.000133865 
-0.000132352 -0.000129704 -0.00011444 -0.000119712 -0.000124413 -0.000122235 -0.000119596 -0.000104697 -0.000109863 
-0.00011442 -0.000111979 -0.000109784 -9.59223e-05 -0.000100419 -0.000104725 -0.000102182 -0.000100516 -8.7971e-05 
-9.19651e-05 -9.56805e-05 -9.38326e-05 -9.17231e-05 -8.15317e-05 -8.47591e-05 -8.77406e-05 -8.61753e-05 -8.45004e-05 
-7.6713e-05 -7.88196e-05 -8.13367e-05 -7.98531e-05 -7.8687e-05 -7.27137e-05 -7.47457e-05 -7.64277e-05 -7.54097e-05 
-7.45181e-05 -7.11165e-05 -7.14118e-05 -7.2416e-05 -7.16089e-05 -7.1427e-05 -7.06929e-05 -7.11753e-05 -9.31349e-05 
-4.18245e-05 -0.000151297 -7.99967e-05 -2.68592e-05 -1.92063e-05 -5.80862e-05 -0.000278435 -9.62107e-05 -0.000135025 
-1.45052e-05 -7.57753e-05 -2.71462e-05 -0.000152395 -3.45918e-05 -0.00011231 -4.89668e-05 -6.28654e-05 -0.000149274 
-0.000164641 -1.11742e-05 -7.59953e-05 -6.70444e-05 -2.00182e-06 -0.000135239 -0.000148079 -9.43343e-05 -4.54611e-06 
-4.33909e-05 -2.46422e-05 -0.000309814 -9.55328e-05 -1.59607e-05 -4.99183e-05 -6.11774e-05 -0.000392214 -5.25349e-05 
-4.43898e-06 -4.72472e-05 -0.000137939 -0.000109804 -0.000152708 -6.47959e-05 -2.34398e-05 -0.000132703 -0.000356794 
-0.00010619 -8.49977e-06 -7.30676e-05 -0.000146916 -6.16534e-06 -8.35238e-05 -6.23978e-05 -0.000144085 -0.000117008 
-0.000170518 -0.000140917 -0.000118648 -2.81228e-05 -5.83691e-05 -2.94333e-05 -1.14874e-05 -2.7031e-05 -0.000161361 
-2.37242e-05 -0.00019618 -0.000118995 -0.000327011 -9.25102e-05 -1.42192e-06 -6.31318e-05 -9.54523e-05 -4.5241e-05 
-0.000152375 -4.60069e-05 -2.00136e-06 -5.86857e-05 -0.000142436 -0.000123314 -0.000127727 -3.5835e-05 7.17583e-06 
-6.95327e-05 -5.04516e-05 -3.85108e-05 -8.46354e-05 -4.34064e-05 -9.35256e-05 -8.07905e-05 1.81319e-06 -1.10708e-05 
-1.64386e-05 -1.36132e-05 -1.83564e-05 -8.02609e-05 -7.89206e-05 -4.9373e-05 -5.84404e-05 -1.31945e-05 -0.000271477 
-0.000251325 -0.000122823 -6.56949e-05 -6.3878e-06 -0.000132502 -8.26307e-05 -0.000173234 -7.34785e-05 -7.80927e-05 
-3.67323e-06 -7.23278e-05 -3.48075e-05 -5.39117e-05 -0.000166269 -0.000215462 -0.000149858 -0.000136451 -0.000105462 
-0.000165927 -0.000201855 -2.58848e-05 -0.000113277 -2.68024e-05 -7.17848e-05 -0.000465562 -0.000147546 -8.5407e-05 
-1.36148e-05 -6.5602e-05 -0.000745203 -9.37299e-07 -6.74415e-05 -2.53658e-05 -0.000237296 -0.000129015 -0.000118983 
-0.000101148 1.72949e-06 -8.66028e-05 -0.000238997 -6.65333e-05 -9.53449e-06 -4.97904e-05 -7.80392e-05 -8.79974e-05 
-7.54586e-06 -0.000538834 -4.39578e-05 -0.000183713 -0.000175681 -3.17581e-05 -0.000451039 -7.73483e-06 -1.41143e-05 
-0.000103458 -4.61313e-05 -0.000131793 -1.64433e-05 -0.000155613 -7.24461e-05 -0.0001374 -2.81307e-05 -7.27735e-05 
-0.000145231 -0.000147226 -0.00013911 -5.13465e-05 7.40998e-06 -6.58057e-05 -9.15347e-05 -3.56046e-05 -9.98204e-06 
-0.000108547 -0.000101658 -0.000164711 -6.77032e-05 -0.000124792 -2.21537e-05 -7.21906e-05 -2.15275e-05 -3.17713e-05 
-5.98132e-05 -0.000152066 -0.000113212 -0.000317597 -0.000110854 -0.000147621 -4.3744e-05 -0.000129876 -0.000265847 
-1.08976e-05 -3.925e-06 -4.89663e-05 -0.000132709 -0.000123308 -8.84872e-05 -5.65734e-05 -3.43993e-05 -8.27452e-05 
-0.00016017 2.27777e-06 -7.16879e-05 -0.000113398 -2.01765e-05 1.69789e-05 -7.10174e-05 -0.000110435 -8.96702e-05 
-0.000117324 -9.85117e-05 -0.00154175 -0.000788677 -0.000966261 -7.19495e-05 -7.14481e-05 -7.09167e-05 2.34082e-05 
2.23384e-05 1.36024e-05 -0.000319993 -0.000339842 -0.000229992 -0.000239225 -0.000291264 -0.000228191 -0.000150928 
-0.000221285 -0.00019232 -5.9252e-05 -0.000104059 -0.000134226 -0.000162746 -0.000136309 -5.4716e-05 -6.5349e-05 
-0.000115083 -6.57775e-05 -3.98526e-05 -0.000108514 -0.000342486 -6.51054e-05 -9.49893e-05 -0.000316028 1.68226e-05 
1.29913e-05 1.6619e-05 7.36693e-06 1.19989e-05 7.8606e-06 2.0423e-06 2.73555e-06 -1.54916e-06 -9.25657e-06 
-5.36073e-06 -1.68531e-05 -2.51059e-05 -1.68159e-05 -3.28448e-05 -4.1088e-05 -3.10581e-05 -4.71046e-05 -5.44999e-05 
-4.39731e-05 -5.86307e-05 -6.36332e-05 -5.45451e-05 -6.74926e-05 -6.95201e-05 -6.2662e-05 -7.10578e-05 -6.7637e-05 
-7.0386e-05 -0.000466272 -0.000793919 -0.000623406 -0.000230711 -0.000320298 -0.000421803 -0.000129904 -0.000168744 
-0.00025948 -0.000170204 -0.000115192 -9.44308e-05 -0.000129891 -0.000198624 -0.000148158 -0.000180777 -0.000391888 
-0.000257151 -0.000281502 -0.000287036 -0.000350506 -0.000358598 -0.000302854 -0.000269951 -0.000216254 -0.000244871 
-0.000228543 -0.000179701 -0.000205459 -0.000186597 -0.00014308 -0.000155588 -0.000157801 -0.000153474 -0.000137933 
-0.000137426 -0.000132157 -0.000136268 -0.000136303 -0.000120362 -0.000125451 -0.000127106 -0.000121005 -0.000128176 
-0.00011271 -0.000117872 -0.000116157 -0.000102109 -0.000106939 -0.000108742 -0.00010354 -0.00010932 -9.33852e-05 
-9.75926e-05 -9.70586e-05 -8.71897e-05 -9.11334e-05 -9.05226e-05 -8.13113e-05 -8.44707e-05 -8.54724e-05 -7.65338e-05 
-7.91068e-05 -8.04247e-05 -7.24157e-05 -7.37245e-05 -7.45669e-05 -7.26178e-05 -7.55565e-05 -7.13412e-05 -7.17842e-05 
-7.21141e-05 -7.12286e-05 -0.000176438 -0.000122608 -0.000189718 -7.1743e-05 -4.71518e-05 -9.35183e-05 -0.000112577 
-6.63858e-05 -3.39025e-05 -2.03781e-05 -3.71911e-05 -1.30609e-05 -6.14731e-06 -1.82027e-05 -1.16065e-06 1.57936e-06 
-6.15831e-06 3.00978e-06 2.9124e-06 3.80799e-07 2.92533e-06 1.84283e-06 1.71669e-06 1.79383e-07 -1.49203e-06 
1.8948e-07 -2.75482e-06 -4.36843e-06 -2.71158e-06 -5.57981e-06 -6.53784e-06 -5.21922e-06 -6.96488e-06 -6.71289e-06 
-6.94847e-06 -4.85097e-06 -2.14072e-06 -6.67794e-06 -6.0704e-06 -8.0631e-06 7.13202e-07 5.95635e-06 -8.0432e-07 
9.11711e-06 -0.000105594 -0.000103446 -0.000114543 -0.000109145 -9.71328e-05 -8.67294e-05 -9.06945e-05 -7.60142e-05 
-8.2134e-05 -8.54514e-05 -9.63588e-05 -7.50101e-05 -5.00234e-05 -4.60645e-05 -5.4286e-05 -5.3724e-05 -4.56059e-05 
-3.56048e-05 -3.20449e-05 -3.83188e-05 -3.68044e-05 -3.0568e-05 -3.86171e-05 -4.26627e-05 -3.3791e-05 -4.25284e-05 
-0.000148177 -0.000146419 -0.000151444 -0.000148206 -0.000146292 -0.000156548 -0.000156118 -0.000163717 -0.000158173 
-0.000148132 -0.000153011 -0.000148963 -0.000145913 -0.000161658 -7.1781e-05 -7.07395e-05 -7.94285e-05 -7.2943e-05 
-6.48577e-05 -8.73889e-05 -9.44441e-05 -8.69271e-05 -8.75609e-05 -8.70406e-05 -8.04969e-05 -7.3678e-05 -2.68493e-05 
-3.53751e-05 -3.47478e-05 -1.89832e-05 -1.86215e-05 -3.60861e-05 -4.42943e-05 -3.84423e-05 -2.92487e-05 -2.15241e-05 
-1.37327e-05 -2.40914e-05 -2.34982e-05 -2.29937e-05 -2.75718e-05 -2.41574e-05 -1.97892e-05 -1.89059e-05 -2.24641e-05 
-1.62252e-05 -1.60617e-05 -1.61042e-05 -1.14916e-05 -1.45456e-05 -1.67001e-05 -1.17218e-05 -5.20958e-05 -4.99177e-05 
-5.59531e-05 -5.46785e-05 -4.8634e-05 -5.82397e-05 -6.17891e-05 -6.19218e-05 -5.48756e-05 -6.19386e-05 -5.98595e-05 
-6.57126e-05 -0.000206462 -0.000169879 -0.000207125 -0.000247037 -0.000183974 -0.000197178 -0.000259897 -0.000380884 
-0.00034496 -0.00038975 -0.000363349 -0.000453672 -0.000112203 -0.00011237 -0.000126884 -0.00010802 -9.07893e-05 
-8.12373e-05 -7.62734e-05 -9.20998e-05 -7.82362e-05 -0.000106892 -0.000139481 -0.000144567 -0.000141254 -0.000133102 
-0.000138151 -0.000126866 -0.000129867 -0.000122035 -0.000121143 -0.000129476 -0.000143648 -0.000136584 -0.000127779 
-0.000132015 -1.55154e-05 -1.83572e-05 -1.92601e-05 -1.3621e-05 -1.26367e-05 -1.39793e-05 -1.10741e-05 -1.05784e-05 
-1.75689e-05 -1.79713e-05 -9.28222e-06 -2.18789e-05 -7.45612e-05 -7.06067e-05 -7.19113e-05 -7.9087e-05 -7.80333e-05 
-8.04632e-05 -7.42461e-05 -7.93105e-05 -8.41354e-05 -7.02252e-05 -1.93211e-05 -2.02192e-05 -1.22362e-05 -1.94515e-05 
-2.76067e-05 -2.656e-05 -2.07975e-05 -3.6937e-05 -3.6385e-05 -3.52793e-05 -4.48092e-05 -3.59872e-05 -0.000151075 
-0.000149952 -0.000153029 -0.000151482 -0.000157266 -0.000141328 -0.000142678 -0.000129612 -0.000138279 -0.0001507 
-0.000142914 -0.000156602 -2.93148e-05 -3.66567e-05 -2.49168e-05 -3.01305e-05 -4.04357e-05 -4.50368e-05 -3.93076e-05 
-3.50994e-05 -4.07684e-05 -4.13097e-05 -3.08463e-05 -0.000103959 -0.000107919 -9.94733e-05 -0.000101856 -0.00011021 
-0.000118134 -0.000118273 -0.000123799 -0.000118101 -0.000112793 -0.000108623 -0.000116946 -5.5789e-05 -4.70449e-05 
-5.44302e-05 -5.79685e-05 -4.03901e-05 -4.98482e-05 -4.17289e-05 -5.28841e-05 -5.34605e-05 -3.33347e-05 -6.15838e-05 
-6.29612e-05 -5.38025e-05 -7.11121e-05 -5.35661e-05 -5.1309e-05 -6.1378e-05 -7.12839e-05 -7.93991e-05 -7.02743e-05 
-0.000156568 -0.000174924 -0.000149842 -0.000164178 -0.000175823 -0.000166154 -0.000145056 -0.000204803 -0.000196514 
-0.000228491 -0.000172095 -0.000170074 -0.000170269 -0.000166166 -0.000154037 -0.000146282 -0.000130989 -0.00011918 
-0.000141018 -0.000164895 -0.000143682 -0.000165005 -1.00933e-05 -1.25523e-05 -1.11554e-05 -9.33154e-06 -8.73499e-06 
-8.70037e-06 -6.35605e-06 -8.47699e-06 -1.11775e-05 -1.37794e-05 -1.73673e-05 -1.46432e-05 -7.958e-05 -8.31175e-05 
-7.94685e-05 -7.46478e-05 -7.87173e-05 -7.09643e-05 -6.95099e-05 -7.41818e-05 -6.89272e-05 -7.69553e-05 -7.52323e-05 
-6.97345e-05 -6.95907e-05 -6.63264e-05 -6.92695e-05 -6.2801e-05 -5.84871e-05 -6.28472e-05 -6.63828e-05 -6.81231e-05 
-6.96632e-05 -7.04502e-05 -1.96645e-06 -7.56828e-06 -7.82282e-06 2.90725e-06 2.32384e-06 4.805e-06 4.42865e-07 
-6.06497e-06 -3.02604e-06 -6.75306e-06 -0.000140296 -0.00014235 -0.00013319 -0.000125995 -0.000124214 -0.000124757 
-0.000133138 -0.000122959 -0.000143576 -0.000150762 -0.00014426 -0.000157648 -0.000146201 -0.000149293 -0.000170612 
-0.000146455 -0.000149338 -0.000147607 -9.99473e-05 -9.35929e-05 -0.000100098 -0.000105893 -0.000100198 -9.35514e-05 
-8.88595e-05 -8.98984e-05 -9.80027e-05 -8.77709e-05 -8.30598e-05 -2.69038e-06 -1.34248e-06 -6.17412e-06 -4.41911e-06 
-1.28532e-06 -4.55807e-06 -7.79379e-06 -1.04995e-05 -9.11866e-06 -1.49932e-05 -4.47803e-05 -4.86638e-05 -3.94419e-05 
-3.95902e-05 -4.6377e-05 -3.88741e-05 -3.52564e-05 -5.17198e-05 -3.51173e-05 -3.02277e-05 -3.12882e-05 -2.57252e-05 
-2.81774e-05 -2.04926e-05 -2.14991e-05 -2.33753e-05 -2.68936e-05 -0.000325556 -0.000390057 -0.000407823 -0.000246235 
-0.000286543 -0.000351843 -0.000381242 -0.000217918 -0.000220132 -9.54633e-05 -8.68408e-05 -0.000102324 -8.80567e-05 
-9.83457e-05 -0.000105992 -0.000102743 -0.000109412 -1.96071e-05 -2.11671e-05 -1.26332e-05 -9.1743e-06 -1.44849e-05 
-1.81054e-05 -2.28326e-05 -5.42626e-05 -5.41768e-05 -5.00091e-05 -4.44239e-05 -4.68839e-05 -5.06747e-05 -4.77685e-05 
-5.98184e-05 -5.51985e-05 -6.30671e-05 -6.44455e-05 -5.75521e-05 -6.33132e-05 -6.74146e-05 -0.000212003 -9.89138e-05 
-0.000219244 -0.000297426 -0.000169084 -0.000383613 -0.000435337 -0.000454537 -0.000517594 -3.99618e-05 -4.81234e-05 
-4.89509e-05 -5.58816e-05 -6.50809e-05 -6.21576e-05 -6.29315e-05 -6.64154e-05 -1.20141e-06 -7.8612e-06 -2.76282e-06 
-9.1592e-06 -1.26603e-05 -7.48945e-06 -6.52203e-05 -8.66824e-05 -6.62018e-05 -4.9204e-05 -5.77119e-05 -5.536e-05 
-4.47156e-05 -3.65154e-05 -3.77608e-05 -2.68052e-05 -0.000109628 -0.000111418 -0.000143667 -0.000169274 -0.000185727 
-0.00016475 -0.000133949 -0.000118344 -0.000120811 -9.96933e-05 -0.000111209 -9.35626e-05 -8.28002e-05 -0.00015523 
-0.000168651 -0.000150283 -0.000140745 -0.000141211 -0.000174482 -6.15737e-05 -5.76957e-05 -6.87023e-05 -6.56221e-05 
-6.06866e-05 -7.27978e-05 -6.57037e-05 -7.67749e-05 -1.86883e-05 -2.00443e-05 -2.24629e-05 -2.90641e-05 -2.74507e-05 
-2.81317e-05 -0.000128162 -0.000128852 -0.000132786 -0.000137143 -0.000135921 -0.000140163 -0.000305487 -0.000285712 
-0.000333477 -0.000320566 -0.000407005 -9.83861e-05 -0.000104803 -0.000109699 -0.000112617 -0.000109816 -0.0001161 
-9.46518e-06 -6.88375e-05 -7.24635e-05 -0.000147253 -0.000132471 -0.000154089 -0.000133769 -0.000155871 -0.000162692 
-3.7917e-06 -6.88721e-06 -5.0003e-06 -8.78167e-05 -8.61062e-05 -8.30982e-05 -8.77508e-05 -7.03687e-05 -7.51864e-05 
-5.42807e-05 -6.43937e-05 -5.34797e-05 -0.000113797 -0.000119945 -0.000116803 -0.000141989 -2.70354e-05 -3.18153e-05 
-3.04646e-05 -3.11843e-05 -2.55209e-05 -2.5781e-05 -0.000157059 -0.000162827 -0.000160534 -0.00011381 -0.000114963 
-6.24152e-05 1.70653e-05 -0.000199003 -0.000346206 -0.000446943 -4.97972e-06 -0.000282778 -0.00157411 -0.00195113 
-0.00173626 -0.00127024 -0.00119537 -0.000453314 -0.000461223 -0.000430641 -0.00043479 -0.000381607 -0.000309603 
-0.00040826 -0.000160475 -0.000243436 -0.000273306 -3.47067e-05 -8.8854e-05 -0.000121936 5.63196e-06 1.73129e-05 
-1.03609e-05 1.2607e-06 -1.29204e-05 6.48753e-06 -0.000148752 -0.000566873 -0.000110211 -0.000953036 -0.000309254 
-0.00037321 -0.000233789 -0.000161769 -8.69173e-05 -3.04866e-05 1.49078e-05 6.83181e-06 -2.99472e-05 -5.00491e-06 
-0.000649771 -0.000186263 2.94626e-05 2.36671e-05 1.28477e-05 -9.01414e-07 -3.5733e-05 -5.26474e-05 -6.46722e-05 
-7.2408e-05 -1.75012e-05 -7.16023e-05 -7.18879e-05 -7.1961e-05 -7.30573e-05 3.00237e-05 2.96598e-05 2.84479e-05 
-7.31284e-05 2.86993e-05 2.21544e-05 2.53777e-05 2.72879e-05 2.50706e-05 9.69997e-06 1.62631e-05 2.1913e-05 
1.94199e-05 1.59172e-05 -5.05028e-06 3.15867e-06 9.54945e-06 6.85194e-06 2.97472e-06 -2.25507e-05 -1.35318e-05 
-5.05631e-06 -9.40861e-06 -1.35328e-05 -4.04558e-05 -3.10749e-05 -3.11932e-05 -2.69923e-05 -2.24617e-05 -5.64389e-05 
-4.86819e-05 -4.02145e-05 -4.4419e-05 -4.85904e-05 -6.74091e-05 -6.22457e-05 -5.62436e-05 -5.97882e-05 -6.19138e-05 
-7.24167e-05 -7.16589e-05 -6.70205e-05 -7.0036e-05 -7.13808e-05 -7.34403e-05 -7.22193e-05 -0.000313327 -0.000145223 
-6.53007e-05 -2.67041e-05 -5.75233e-06 1.11336e-06 5.02455e-06 3.39178e-06 2.72796e-07 -3.33772e-06 -5.90038e-06 
-3.87616e-06 3.7276e-06 1.88365e-05 -6.28629e-06 2.38959e-05 2.43043e-05 1.4362e-05 -0.000383856 -0.000375101 
-0.000260961 1.48988e-05 -0.000269898 -0.000171902 -0.000123629 -0.000216248 -0.000178592 -7.79321e-05 -5.392e-05 
-0.000100165 -0.000125191 -8.08561e-05 -3.29102e-05 -2.03166e-05 -4.44515e-05 -5.68898e-05 -3.56258e-05 -8.84912e-06 
-2.70777e-06 -1.54966e-05 -2.22678e-05 -1.05471e-05 1.37396e-07 2.85334e-06 -1.62479e-06 -3.58368e-06 -3.57577e-07 
5.3108e-06 4.82645e-06 3.98659e-06 2.49043e-06 4.71083e-06 4.3324e-06 2.64065e-06 4.19244e-06 4.07059e-06 
3.67907e-06 1.39443e-06 -5.72831e-07 1.76463e-06 2.39633e-06 1.08053e-06 -2.38541e-06 -4.00543e-06 -1.70736e-06 
-7.81076e-07 -2.52799e-06 -5.2418e-06 -6.27737e-06 -4.74654e-06 -4.14653e-06 -5.32291e-06 -6.4395e-06 -5.88298e-06 
-6.52484e-06 -6.27602e-06 -6.45704e-06 -4.65652e-06 -2.65075e-06 -5.31322e-06 -4.69359e-06 -5.93172e-06 1.63083e-06 
6.26263e-06 -7.75239e-07 -2.55514e-06 1.67472e-06 1.03061e-05 6.55202e-06 -0.000190137 -0.000147673 -1.8062e-05 
-7.10449e-05 -4.85407e-05 -1.3273e-05 -0.000128303 -1.09765e-05 -7.8719e-05 -0.000215338 -0.000267806 -2.21538e-05 
-0.000162034 -6.10741e-05 -2.8581e-05 -6.54992e-05 -3.86996e-05 -4.86565e-05 -4.33861e-05 -4.59318e-05 -4.59663e-05 
-5.12687e-05 -5.39029e-05 -5.12765e-05 -1.25559e-05 -1.43425e-05 -1.37031e-05 -1.3969e-05 -1.19087e-05 -0.000164171 
-0.000170755 -0.000178288 -0.000168483 -0.000173603 -1.08061e-05 -1.20779e-05 -0.000143276 -0.000132716 -0.000150205 
-0.000140881 -0.000140859 -1.36237e-05 -1.62295e-05 -1.72199e-05 -1.6956e-05 -1.46865e-05 -0.000152649 -0.0001494 
-0.000103193 -7.66718e-05 -0.000110468 -9.94818e-05 -0.000143335 -1.06241e-05 -1.41785e-05 -0.000167113 -0.000168641 
-0.000122699 -0.000145935 -0.000142873 -0.00012106 -0.000127276 -0.000129279 -0.000127306 -0.000118971 -0.000168181 
-0.000167565 -0.000172311 -0.000153364 -0.000149294 -7.42874e-05 -8.25046e-05 -7.59926e-05 -7.81411e-05 -7.83506e-05 
-7.85556e-05 -7.58945e-05 -7.5848e-05 -7.79412e-05 -7.57575e-05 -7.83753e-05 -5.41951e-05 -5.67808e-05 -5.70581e-05 
-4.94823e-05 -5.06719e-05 -5.0881e-05 -4.36074e-05 -4.33164e-05 -4.38839e-05 -3.69707e-05 -2.88552e-05 -3.11358e-05 
-2.36098e-05 -2.87323e-05 -0.000244777 -0.000400592 -0.000415306 -0.000519326 -0.000338796 -2.07311e-05 -2.49145e-05 
-2.07501e-05 -4.71185e-05 -1.30694e-05 -1.29716e-05 -1.67906e-05 -9.49825e-06 -3.69816e-05 -3.85222e-05 -0.000152729 
-0.000150258 -0.000147823 -6.15029e-05 -5.78349e-05 -5.28107e-05 -5.65836e-05 1.96819e-06 1.13142e-06 2.52101e-06 
-5.42225e-06 1.12516e-06 5.2085e-06 1.3222e-06 -5.48095e-06 -1.8004e-06 -5.4045e-06 -0.000111222 -0.000108743 
-0.000105506 -0.000111142 -0.000106644 -0.000106563 -5.35691e-05 -0.000192736 -0.000186212 -0.000467024 -0.000580553 
-0.000604649 -0.000181515 -0.000194679 -0.000194209 2.03283e-06 1.56557e-06 2.95599e-06 -6.15128e-05 -5.44933e-05 
-3.68742e-05 -4.4195e-05 -3.54985e-05 -2.7516e-05 -0.000149877 -5.47073e-05 -4.86264e-05 -5.13364e-05 -0.000216653 
-0.000217247 -0.000185458 -0.000226578 -0.000125537 -0.000122794 -0.000122773 -7.32533e-05 -9.22201e-06 -7.08578e-05 
-7.15431e-05 -7.03732e-05 -7.07709e-05 -6.95287e-05 -5.76852e-05 -6.06762e-05 -0.000151169 -0.000141428 -9.83436e-05 
-0.000103466 -9.94498e-05 -0.000107969 -3.50235e-05 -3.8865e-05 -3.43193e-05 -7.10495e-05 -7.13494e-05 -0.000129289 
-0.000123297 -5.72541e-05 -7.55341e-05 -6.65269e-05 -8.59829e-05 -6.5498e-05 -1.88779e-05 -1.86942e-05 -2.68927e-05 
-0.000205649 -0.000164689 -0.000291932 -0.000213347 -0.000315641 -0.000118045 -0.000113304 -0.000185885 -0.000125457 
-0.000103618 -0.000104647 -0.000120036 -0.000123361 -0.000116831 -6.20457e-06 -3.80008e-06 -5.90373e-06 -3.70444e-06 
-3.86969e-06 -0.000255747 -0.00033437 -0.000119922 -0.00010361 -0.000106086 -8.45748e-05 -8.60729e-05 -8.28071e-05 
-0.000116091 -0.000109648 -0.000113094 -3.047e-05 -3.12465e-05 -7.06632e-05 -7.15408e-05 -0.000187169 -0.0002133 
-0.00017522 -0.000184107 -7.00037e-05 -7.11024e-05 -7.02296e-05 -8.59013e-05 -5.44011e-05 -0.000156323 -0.000142177 
-3.55249e-05 -2.62497e-05 -8.29192e-05 -8.2679e-05 -8.62847e-05 5.05778e-06 -2.19853e-06 1.49089e-05 2.05895e-05 
1.69427e-05 2.08397e-05 1.17268e-05 9.82477e-06 5.68276e-06 1.0082e-05 -5.8234e-05 -5.4877e-05 2.2295e-06 
1.85962e-06 3.07654e-07 -8.82396e-07 -4.19601e-06 -4.0653e-06 -7.40102e-06 -7.1288e-05 -0.000108632 -0.000104769 
-2.20991e-05 -1.81956e-05 -1.53858e-05 -1.91957e-05 -0.000121227 -0.000129552 -0.000216058 -0.000112584 1.51292e-05 
7.11773e-06 6.00857e-06 -5.95436e-05 -5.13439e-05 -5.32679e-05 -6.10063e-05 -4.64314e-05 -7.1726e-06 -6.96254e-06 
-8.15725e-06 -7.52132e-06 -6.98698e-06 -8.91474e-05 -8.54149e-05 3.66345e-06 3.11289e-06 -2.90032e-07 7.18435e-07 
-7.16502e-05 -3.94996e-05 -3.55907e-05 -4.07554e-05 -0.00036174 -0.00041098 -0.000326296 -3.18135e-05 -0.000162133 
-0.000104779 -0.000101846 -0.000206249 -7.02302e-05 -6.5684e-05 -6.77064e-05 -6.30208e-05 -2.80693e-05 -3.16948e-05 
-2.67759e-05 -2.33753e-05 -0.000127854 -1.3545e-05 -1.60333e-05 -1.24815e-05 -1.46003e-05 -1.24788e-05 -4.29005e-05 
-0.000339199 -0.000336074 -0.000352264 -7.18827e-05 -9.7055e-05 -0.000101141 -9.06384e-05 -1.39722e-05 -1.51412e-05 
-2.4369e-05 -1.75367e-05 -8.05464e-06 -2.46934e-06 -2.68772e-06 -1.903e-06 -3.5675e-06 -6.29788e-05 -8.90658e-05 
-8.84454e-05 -0.000118193 -9.31602e-05 -9.29672e-05 -9.12798e-05 -0.000190966 -7.09421e-05 -7.12998e-05 -4.12625e-05 
-4.40501e-05 -3.92551e-05 -5.05684e-05 -0.000335242 1.76734e-05 1.37586e-05 3.26154e-06 2.08164e-06 -8.31074e-05 
-7.95685e-05 -9.55227e-05 -9.04666e-05 -0.000133689 -0.000180749 -0.000226585 -0.000168318 1.21313e-06 3.11402e-06 
3.06951e-06 -0.000168601 -0.000138302 -0.000140308 -0.000139253 -4.47587e-05 -0.000392708 -0.00045819 -0.000154093 
-0.000155848 -6.14347e-05 -5.21052e-05 -5.80914e-05 -3.37425e-05 -0.000352058 -0.000450776 -0.000385661 -0.000289684 
-0.000101856 -0.000102374 -0.000108535 -0.000100245 -9.55257e-05 -9.70882e-05 -0.000100156 -0.000141858 -0.000354523 
-0.000340934 -0.00029426 -1.83627e-05 -1.44521e-05 -1.63612e-06 -3.76906e-06 -3.40873e-06 -4.78149e-05 -4.50327e-05 
2.73473e-06 -2.42361e-05 -1.97841e-05 -2.02351e-05 -7.25144e-05 -7.38307e-05 -7.32267e-05 -7.21687e-05 -7.31619e-05 
-0.000112402 -0.000104211 -4.59926e-05 -5.99757e-06 -8.48968e-06 -7.12857e-05 -4.33016e-05 -4.39548e-05 -3.46059e-05 
-3.58369e-05 -0.000468766 -0.000390037 -6.27915e-05 -5.42242e-05 -5.3737e-05 -6.27161e-05 -0.000109156 -0.000110169 
-0.000112864 4.78603e-06 3.03255e-06 -0.000228443 -0.000195228 1.79468e-05 -9.83449e-05 -0.000152575 -0.000153544 
-0.000156209 -0.000157513 -0.000158734 -3.04573e-05 -2.57759e-05 -1.63343e-05 -0.000257425 -4.76962e-05 -3.51969e-05 
1.9272e-06 -0.000455171 -0.000475102 -0.000403326 -0.000388773 -0.000326016 2.74644e-06 2.11742e-06 -0.000261758 
-0.0001754 -0.000115158 -0.000109268 -0.000107133 -0.000108767 -8.74355e-05 -8.74678e-05 -9.5419e-05 -0.000119942 
-0.00011612 -1.79041e-05 -1.3862e-05 -9.7914e-05 -0.000164246 -0.000156951 -0.000162255 -7.81469e-05 -7.91611e-05 
-7.58653e-05 -7.46863e-05 -8.35984e-05 -7.97098e-05 -7.46772e-05 -7.39934e-05 -0.000622461 -0.000746618 -0.000153154 
-2.67967e-05 -3.6655e-05 -2.34708e-05 -3.35471e-05 -2.42566e-05 -5.6037e-05 -4.97366e-05 -5.88034e-05 -9.42323e-05 
-9.34888e-05 -0.000190419 -0.00023408 -2.81443e-05 -2.75364e-05 -2.35334e-05 -0.000110518 -0.000113638 -6.30955e-05 
-0.000203196 -0.000166129 -0.00014565 -0.000167023 -0.00012003 -0.000113241 -1.26683e-05 -0.000102105 -3.13089e-05 
-3.01669e-05 -2.5718e-05 -2.67842e-05 -5.57922e-05 -7.42651e-05 -7.19977e-05 -9.4065e-06 -1.61044e-05 -1.44147e-05 
-6.67941e-06 -7.23019e-06 -3.62456e-07 3.35715e-07 -7.16685e-05 -7.08515e-05 -6.28995e-05 -5.8471e-05 -5.8389e-05 
-5.97349e-05 -6.43955e-05 -6.44104e-05 -4.99192e-05 -1.34879e-05 -1.74782e-05 -0.000165791 -0.000158348 -0.00016944 
-0.000172154 -1.62844e-05 -1.1769e-05 -7.92427e-05 -7.99854e-05 -7.898e-05 -0.000169096 -0.000144845 -0.000140918 
-2.48943e-06 -1.14875e-06 -0.000412462 -7.01571e-05 -6.60552e-05 -4.03999e-05 -7.97337e-06 -1.9748e-06 -2.60609e-06 
-3.26466e-05 -3.64262e-05 -3.72084e-05 7.46995e-06 1.49448e-05 -7.11875e-05 -6.28563e-05 -7.47626e-05 -7.23569e-05 
-0.000272135 -0.000230973 -8.25221e-05 -7.59511e-05 -2.45898e-05 -1.73286e-05 -1.36288e-05 -1.35552e-05 -0.00013848 
-0.000132029 -0.000133059 -8.05657e-05 -7.93178e-05 -0.000802624 -0.000963397 -0.00123582 -3.65889e-05 -4.10683e-05 
-8.75088e-06 -7.15646e-06 -4.52622e-05 -0.000115239 -5.42424e-05 -0.000149916 -0.000150049 -0.000154224 -0.000158122 
-2.67093e-05 -5.4173e-05 -4.99129e-05 -6.82795e-05 -6.76525e-05 -2.23684e-05 -2.30251e-05 -7.63584e-06 -2.17393e-06 
-1.3159e-05 -0.000306764 -3.82944e-05 -3.55392e-05 -2.93427e-05 -3.19783e-05 -5.57463e-05 -4.55593e-05 -3.29592e-05 
-4.68908e-05 -0.000128914 -0.000123735 -0.000127954 -0.000132751 7.84009e-07 -1.02403e-06 -2.03966e-05 -0.000139936 
-0.000133124 -2.1419e-05 -2.17847e-05 -6.16714e-07 -0.000105715 -0.00010007 -7.23763e-05 -7.18399e-05 -7.16238e-05 
-7.5546e-05 -7.50214e-05 -7.57488e-05 -0.000346219 -0.000283845 -0.000283357 -8.68546e-05 -7.11072e-05 -7.92355e-05 
-2.14246e-05 -1.89446e-05 -0.00015228 -9.55988e-05 -9.52391e-05 -0.000118532 -0.000116923 -0.00032083 -0.000265868 
-0.000332896 -7.19498e-05 -7.16817e-05 -7.16341e-05 -3.65918e-05 -2.93158e-05 -7.61583e-05 -7.18925e-05 -7.27059e-05 
-0.000119346 -0.000127221 -8.62888e-05 -9.30086e-05 -0.000325406 -1.66636e-05 -1.82322e-05 -1.9561e-05 -2.32858e-05 
-1.85436e-05 -1.48293e-05 -1.98625e-05 -4.45114e-05 -6.64439e-05 -0.000156197 -3.5173e-05 7.01035e-06 1.4665e-05 
-2.11527e-05 -5.74517e-05 -5.74841e-05 -5.97919e-05 -5.98825e-05 -6.32854e-05 2.2199e-05 2.32138e-05 2.2906e-05 
-0.000199141 -0.000250341 -0.000178299 -0.000176434 -4.70421e-05 -0.000305313 -2.23228e-05 -6.47209e-05 -7.29996e-05 
-7.37465e-05 -6.55892e-05 -2.45252e-05 -3.28134e-05 -2.42173e-05 -0.000406841 -0.000344003 -8.70772e-05 -3.46683e-05 
-7.67718e-05 -8.31155e-05 -8.53649e-05 -0.000173597 -5.38369e-05 -4.55265e-05 -4.9336e-05 -0.000165808 -0.000106036 
-0.00015037 -0.000130511 -0.000139021 -0.000163845 -7.01093e-05 -5.40113e-05 -6.20856e-05 -0.00012198 -0.000129946 
-8.08995e-05 -0.000167266 -0.000168206 -2.4243e-05 -2.45541e-05 -3.97302e-05 -5.24765e-05 -1.08632e-05 -4.89174e-05 
-4.16428e-05 -3.87175e-05 -3.15753e-05 -3.87627e-05 -2.89774e-05 -0.000163078 -0.000160879 -7.27804e-05 -0.000108251 
-0.000142111 -0.000121602 -0.000149197 -0.000141472 -8.95716e-06 -1.08719e-05 -0.000151143 -4.80056e-06 -5.46741e-06 
-6.02303e-06 -6.52303e-05 -0.000108725 -6.09021e-05 -8.68144e-05 -3.68055e-05 -8.28016e-05 -0.000130023 -4.60181e-05 
-5.04813e-05 -4.24641e-05 -0.000385922 -0.00024862 -0.000350899 -8.62325e-05 -0.000133683 -0.000125019 -1.18194e-06 
-6.25333e-05 -6.54485e-05 -6.62254e-05 -6.27141e-05 -1.04084e-05 -6.41189e-05 -7.47935e-05 -2.28341e-05 -0.000268308 
-0.000299653 -0.000268684 -0.0002294 -6.85165e-05 -8.80397e-05 -0.000115154 -0.00010593 -6.70574e-05 -8.00425e-05 
-6.82261e-05 -8.93301e-06 -7.05893e-05 -4.96814e-05 -0.00013335 -9.4819e-05 -0.000106962 -0.000146112 -0.000140299 
-0.000143142 -0.000150492 -0.000102967 -2.70603e-05 -5.51903e-05 -5.97538e-05 -5.51117e-05 -0.000146585 -2.74702e-05 
-3.66589e-05 -2.76531e-05 -0.00011809 -3.81488e-05 -1.98881e-05 -2.6045e-05 -2.45167e-05 -0.000147552 -0.000146573 
-0.000145792 -7.84561e-05 -0.00013399 -0.00011539 -0.000139566 -0.000103303 -8.53773e-05 -0.000109347 -8.03368e-05 
-0.000109648 -0.000110789 -9.64143e-05 -9.34636e-05 -0.000293096 -6.87194e-05 -9.13928e-05 -6.63291e-05 -6.1945e-05 
-3.47347e-05 -3.17634e-05 -0.000143608 -0.000165739 -6.92894e-06 -6.31721e-06 -9.17222e-06 -8.40871e-06 -8.52707e-06 
-5.30931e-05 -5.49937e-06 -3.35348e-06 -5.82811e-05 -5.00711e-05 -0.000275078 -9.83308e-05 -9.24591e-05 -0.000107563 
-2.8031e-05 -6.13944e-05 -5.68843e-05 -5.14045e-05 -7.26754e-05 -0.000117862 -2.57833e-05 -2.25997e-05 -2.5927e-05 
-9.82087e-05 -0.000100197 -9.36727e-05 -0.000800098 -7.88109e-05 -0.00010623 -4.85287e-05 -8.31855e-05 -8.69778e-05 
-8.88921e-05 -8.98357e-05 -8.04465e-05 -7.29898e-05 -3.08221e-05 -2.58895e-05 -2.49674e-05 -2.54105e-05 -9.30729e-06 
-0.00127522 -0.000109768 -1.96981e-05 -9.5032e-05 -0.000111348 -0.000126665 -0.000112312 -0.000112225 -5.8783e-06 
-4.24093e-06 -7.50801e-06 -2.20607e-06 -1.92054e-05 -6.94596e-05 -7.35381e-05 -6.73732e-05 -6.74431e-05 -6.33181e-05 
-0.000239543 -0.000164566 -0.000137825 -0.000145454 -0.000147548 -0.000142042 -0.000140276 -0.000127016 -6.5709e-05 
-1.00323e-05 -1.45616e-05 -6.34364e-05 -6.56602e-05 -6.56528e-05 -0.00015167 -1.04214e-06 -0.000113987 -0.000162535 
-6.97476e-05 -7.47331e-05 -7.11104e-05 -0.000125566 -4.17634e-05 -0.000156798 -0.000190381 -0.00010914 -8.4092e-05 
-6.46951e-05 -8.78304e-05 2.59054e-06 1.03768e-05 1.01418e-05 -5.43294e-05 -8.85281e-07 -0.000147762 -1.03708e-05 
-5.22354e-06 -6.48757e-05 -6.13257e-06 -4.88633e-06 -0.000230264 -0.000225561 -0.00029139 -0.000252802 -0.000204594 
-9.26421e-05 -3.01175e-05 -0.00013332 -1.47219e-05 -1.48733e-05 -1.20748e-05 -0.000155511 -0.000170999 -0.000177248 
-0.000182605 -0.000144102 -0.000174385 -0.000160484 -0.000147384 -0.000151934 -0.00011727 -9.03334e-05 -0.000108645 
-0.000100043 -7.42848e-05 -6.87426e-05 -7.09813e-05 -6.89067e-05 -0.000200543 -0.000202758 -0.000221271 -0.000124938 
-6.2275e-06 -8.60409e-06 -4.80385e-05 -0.000135803 -0.000138677 -0.000142882 -0.000142184 -0.000146311 -7.74436e-05 
-1.35148e-05 -1.16265e-05 -8.80248e-05 4.1827e-07 2.2852e-06 -0.000143468 -0.000140805 -0.000157057 -6.49769e-05 
-8.78718e-05 -0.000135354 -0.000144163 -8.0825e-05 -8.07031e-05 -6.49381e-05 -6.52608e-05 -5.74563e-05 -2.22157e-05 
-6.91562e-06 -6.6542e-06 -0.000399495 -0.00013534 -0.000126049 -0.000144955 -8.41092e-05 -8.66836e-05 -0.000116538 
-0.000133884 -9.44216e-05 -9.37149e-05 -0.00014399 -6.17914e-05 -6.18056e-05 -7.78275e-05 -0.000113497 -0.000266023 
-0.000264043 -0.00026131 -0.000226697 -5.16148e-05 -0.000114513 -6.02554e-05 -5.33216e-05 -3.01398e-05 -1.11228e-05 
-1.00819e-05 -7.19934e-05 -8.81827e-05 -0.000108409 -0.000173591 -0.000142126 -0.000148679 -3.49813e-05 -4.23897e-06 
-1.2392e-06 -0.000136499 -0.000131931 -6.20098e-05 -0.000115088 -0.000126079 -0.000153021 -6.18082e-05 -2.25012e-05 
-2.2223e-05 -2.01308e-05 -0.000162623 -0.000163417 -0.000165449 -0.0002022 -6.24988e-06 -1.14904e-05 -0.000161031 
-0.000128356 -1.61736e-05 -4.10797e-05 -0.00015112 2.51548e-06 -4.82661e-05 -0.000112227 -0.000171007 -0.000212642 
-0.000178148 -3.61972e-05 -3.62935e-05 -0.000139196 -0.000148316 -7.09295e-05 -8.31614e-05 -9.51297e-05 -0.000106881 
-0.000161025 -1.08833e-05 -1.10077e-05 -0.000324166 -0.000260107 -0.000317755 -0.000250238 -0.000272369 -0.000287941 
-0.000262153 -6.68239e-06 -9.98049e-05 -0.000153388 -0.000144906 -0.000131703 -5.60472e-05 -0.000101769 -0.000104882 
-6.97726e-05 -3.00071e-05 -0.000236183 -4.89479e-05 -5.47705e-05 -4.41054e-05 -4.41755e-05 -4.01376e-05 -0.000123145 
-0.000121082 -0.000118269 -0.000118506 -0.000147292 -4.89625e-05 -0.000847316 -0.000535774 -0.000449775 -8.23296e-05 
-0.000147814 -3.85832e-05 -3.3553e-05 -5.79873e-05 -3.13438e-06 -6.77094e-06 -0.000165826 -0.00012707 -1.10814e-05 
-1.11109e-05 -0.000173575 -0.000117519 -0.000122858 -6.82511e-05 -7.72701e-05 -0.000157946 -4.29805e-05 -0.000155545 
-0.00115476 -0.00114771 -1.2194e-05 1.278e-05 -0.000152843 -0.000228809 -7.0807e-05 -0.000114722 -1.62062e-05 
-0.000134299 -0.000134338 -0.000128315 -0.000132953 -0.000387628 -0.000148358 -0.000137401 -1.66836e-05 -5.99624e-06 
-8.43863e-06 -1.00817e-06 -0.000213562 -0.000214592 -4.89178e-06 -6.71981e-05 -3.78328e-05 -1.79959e-05 -0.000526276 
-6.96664e-05 -0.000316487 -0.000143148 -0.0001385 -0.000144364 -1.88427e-05 -7.35205e-06 -2.32658e-05 -0.000132741 
-9.24888e-06 -0.000101467 -0.000190421 -4.40884e-05 -4.01945e-05 -0.000287237 -0.000332308 -0.000329761 -0.000136996 
-8.08628e-05 -4.65996e-05 -0.000157335 -0.000124694 -0.000203363 -6.67707e-05 -3.51626e-05 -0.000158961 -6.5564e-05 
-8.39943e-06 -7.94355e-05 -7.95898e-05 -4.3652e-05 -6.71685e-06 -0.000136762 -6.11347e-05 -6.11785e-05 -9.4153e-06 
-0.000128084 -0.000127917 -0.000139629 -0.00168474 -0.00037702 -6.56719e-05 -0.000139136 -0.0001376 -0.000137314 
-7.18065e-05 -7.20418e-05 -3.67371e-06 2.3998e-05 -7.17335e-05 -6.83262e-05 -6.84429e-05 -0.000136268 -3.72634e-05 
-6.88552e-05 -1.005e-05 -3.50949e-05 -3.15106e-05 -6.93375e-05 -0.000247832 -0.000127877 -3.72258e-05 
Strain%20yz%20component 1 3545 double
-0.000176013 -6.63326e-07 6.34623e-07 -1.04554e-05 -9.20917e-08 1.3525e-08 1.05038e-06 3.95485e-08 4.80501e-08 
-3.03732e-06 3.97422e-05 6.86896e-05 1.01003e-05 -7.68779e-06 -8.94132e-06 4.8701e-05 3.79611e-05 -1.13647e-06 
-6.49429e-07 -1.71233e-06 -3.95465e-06 1.97202e-05 1.18455e-05 3.30288e-08 2.35856e-07 -1.50392e-05 1.12197e-05 
3.0066e-06 -2.38985e-06 -0.000157606 -3.0073e-06 -4.41168e-06 -4.19326e-06 4.04154e-06 -2.3938e-06 1.75653e-07 
-2.67161e-06 -1.3052e-06 4.5881e-08 1.19636e-07 6.61899e-08 -2.74667e-08 -4.10502e-08 1.12522e-07 7.84627e-08 
8.20357e-08 3.75214e-08 3.00341e-08 -1.89562e-08 -1.45866e-08 4.83383e-07 -7.14488e-06 -1.31487e-05 -1.54318e-06 
-1.81895e-06 -8.20121e-07 -3.09015e-06 -7.307e-07 7.92016e-08 3.4245e-07 1.21884e-07 -1.46814e-07 2.0978e-07 
3.13184e-07 2.09146e-07 1.69899e-07 1.89642e-07 -1.02329e-07 -2.42224e-08 5.07969e-08 1.41553e-07 2.68253e-07 
3.25053e-07 3.21443e-07 3.19401e-07 1.89198e-07 -6.99633e-08 -3.39409e-07 8.68589e-08 2.25632e-07 2.52312e-07 
2.36425e-07 3.06495e-07 3.02862e-07 1.59791e-07 1.04608e-07 -9.31875e-08 -2.66567e-07 1.26302e-07 2.28952e-07 
-6.78234e-08 -1.33909e-07 3.03537e-08 -4.63171e-08 2.41922e-08 -1.04523e-08 1.97551e-10 2.7425e-09 1.23437e-08 
-6.85718e-08 -4.09364e-09 -6.98224e-08 -1.86658e-06 -7.94997e-07 -4.04297e-07 -2.89387e-07 -2.14487e-08 -1.78298e-07 
-2.70075e-08 6.1155e-09 4.03621e-08 2.4374e-08 3.16573e-08 5.70994e-08 5.02232e-08 3.16247e-08 4.26323e-08 
9.06579e-07 -2.19991e-06 -2.32324e-06 -4.51947e-06 -1.71788e-06 7.63969e-06 2.16405e-05 -1.23289e-06 -2.17889e-06 
-3.43155e-06 -4.94105e-06 -2.22886e-06 1.02445e-05 3.67485e-05 -8.59441e-05 -5.64387e-07 2.08964e-06 -6.06022e-06 
4.97385e-06 -1.44169e-06 3.66807e-07 -1.287e-06 -1.01427e-07 -5.26624e-08 7.68107e-08 -1.29982e-09 -4.14319e-08 
-2.60233e-08 2.42402e-08 3.42031e-08 6.25344e-08 9.20763e-08 -5.02162e-08 -4.64724e-08 -2.39585e-07 1.49269e-07 
2.26604e-06 5.08679e-06 -1.04607e-07 -7.51713e-08 -6.63964e-07 1.32092e-06 4.46928e-07 -1.48253e-07 -3.6749e-08 
-3.0165e-08 9.86914e-08 -1.08298e-07 -4.99272e-08 -4.64854e-08 2.73845e-08 -8.57777e-08 -3.95716e-08 -4.26994e-09 
-1.98693e-08 5.35077e-08 1.72664e-07 -1.57837e-09 1.90315e-08 5.20054e-08 7.6341e-08 -2.48563e-08 1.18322e-07 
-1.91873e-08 -3.03255e-08 -1.28436e-07 5.11293e-08 3.54562e-09 -1.58954e-08 -7.13539e-08 -2.54573e-08 1.35668e-08 
-9.8817e-08 -1.07305e-08 -1.51323e-06 -5.96517e-07 -4.7844e-07 -2.84288e-07 -1.18102e-07 -1.84488e-08 -2.77355e-08 
-2.28468e-08 -1.47442e-08 8.79416e-09 1.14925e-08 1.39977e-07 -1.58149e-08 6.71649e-08 -7.4703e-11 -6.50627e-12 
1.27327e-12 3.95306e-12 5.75356e-12 3.27928e-12 2.74597e-12 1.81313e-12 1.49277e-12 2.8575e-13 4.34646e-13 
3.44163e-13 1.58092e-12 2.37952e-13 9.78212e-13 -2.1441e-06 1.93487e-06 1.63959e-06 -3.30337e-07 -5.90621e-07 
-1.75703e-06 5.85314e-07 -7.84129e-07 1.28239e-06 -6.72748e-07 3.84532e-06 -2.13475e-07 -7.27689e-06 6.24212e-06 
-5.45216e-05 -1.62125e-07 5.7286e-09 -7.02352e-06 -8.28619e-05 0.000136454 6.83804e-05 1.3759e-05 -0.000145119 
-6.29961e-05 2.67917e-05 -1.87273e-06 -5.21275e-06 -7.56454e-06 -3.76989e-06 -6.78105e-05 0.000132745 8.31968e-05 
3.50011e-05 7.79642e-05 4.1012e-05 6.48652e-05 4.65939e-05 7.62803e-05 4.33828e-05 4.86585e-06 1.21139e-05 
1.65545e-05 2.91547e-05 1.13026e-05 -3.36219e-06 7.14214e-06 -2.56845e-08 2.78152e-08 4.59485e-07 2.31905e-08 
2.91951e-08 1.12109e-08 9.38374e-09 -1.86566e-05 1.67146e-08 1.41722e-07 -9.14745e-09 3.3207e-08 5.07534e-08 
5.6142e-08 -1.27702e-08 3.60665e-09 -2.81937e-08 -7.38831e-08 -1.28975e-06 2.57605e-06 -1.84247e-08 2.21663e-08 
1.6277e-08 -3.23563e-08 -3.42083e-08 1.53974e-06 4.70677e-08 -2.99786e-08 -2.84199e-08 6.94654e-09 4.73148e-06 
1.43527e-08 3.25409e-09 -2.09632e-08 -1.36717e-08 -7.55137e-05 -6.23901e-08 4.94596e-08 4.66363e-08 2.32806e-07 
-8.74714e-08 9.13993e-08 9.27968e-09 6.22403e-09 3.31965e-07 -6.07406e-06 -5.37447e-08 -3.80509e-08 3.86743e-08 
-3.32209e-07 1.97224e-09 -1.61424e-08 2.27634e-08 2.84058e-07 -5.63536e-08 7.41532e-06 2.00359e-06 1.5496e-05 
1.23408e-08 2.32262e-08 -1.35021e-08 -1.34426e-07 1.05906e-07 -5.38956e-08 -4.67898e-08 -1.74801e-07 -2.61641e-08 
6.88692e-06 -2.03662e-08 -2.4287e-08 3.89978e-08 -1.17685e-08 1.08114e-08 -3.00411e-07 1.02126e-08 -1.84368e-08 
-9.45098e-09 1.65049e-06 2.91053e-08 -6.02336e-08 -1.01169e-08 5.16284e-08 1.54172e-07 -2.53871e-09 4.45602e-08 
1.73145e-07 2.55887e-08 3.74968e-08 -1.20792e-08 -7.96402e-08 -5.5325e-08 -1.10529e-08 4.03447e-09 -3.8487e-08 
6.53952e-08 4.18534e-09 -2.03595e-08 -1.46381e-08 6.53687e-09 -1.63149e-05 1.51286e-05 -3.32852e-07 -4.33246e-08 
4.31049e-09 2.5426e-08 1.38717e-08 -2.85958e-06 1.77007e-09 -8.59269e-08 5.53149e-09 3.38328e-08 2.41408e-09 
-1.94145e-09 6.52869e-06 -2.09653e-06 -5.26479e-08 -4.78588e-06 7.48355e-08 7.3249e-07 -5.98741e-07 -6.51761e-09 
-1.07365e-07 -3.81239e-09 -4.32671e-07 -2.24058e-05 6.75158e-07 1.68206e-09 1.59e-08 2.27092e-08 2.54187e-05 
1.56934e-07 -1.55572e-07 5.46719e-08 -1.71184e-07 2.63608e-08 -1.51482e-07 -3.71493e-08 3.32084e-08 -1.33159e-07 
-1.58295e-05 2.53075e-08 6.63589e-09 2.89587e-08 3.56218e-08 6.14943e-08 2.43991e-08 7.93308e-05 -9.90692e-09 
1.76349e-05 -4.80216e-07 1.55782e-08 -2.73757e-06 3.10516e-08 -3.21353e-08 1.52384e-08 1.68103e-08 6.18978e-09 
-5.30898e-08 1.47247e-06 -3.71625e-08 1.3339e-06 -5.88991e-08 -1.16191e-08 2.50685e-07 1.50232e-06 8.18171e-07 
-8.48097e-09 5.43993e-09 -1.36497e-09 4.06205e-06 3.43953e-08 -1.37397e-08 -1.42478e-08 1.08922e-07 5.63653e-09 
9.06883e-09 3.23745e-08 5.87553e-09 -7.36308e-09 8.68372e-09 2.93625e-08 -9.50943e-09 -8.72259e-08 -5.78483e-08 
6.96917e-07 8.96891e-08 -1.70239e-07 6.76841e-09 -1.23995e-06 -6.06487e-06 9.21999e-09 1.80269e-08 5.27594e-08 
-5.02336e-08 -5.46685e-08 2.29217e-08 -2.09631e-08 -2.3996e-08 -2.67684e-08 -6.21878e-08 2.206e-08 9.26665e-08 
-3.97674e-08 2.33473e-08 -1.63571e-08 -9.04237e-08 -1.83576e-08 -2.10962e-05 4.75664e-05 3.60004e-05 -5.02489e-06 
-1.44202e-06 -7.43277e-06 -1.20418e-07 -3.57527e-07 1.42962e-08 6.93698e-08 -3.74778e-08 -2.07531e-08 2.86413e-07 
-1.30368e-06 1.93021e-06 6.80315e-05 9.39077e-05 7.29272e-05 2.16916e-05 -4.62897e-06 3.80296e-05 1.40994e-05 
1.10321e-06 9.21287e-06 6.1523e-06 4.6846e-07 -4.5784e-07 1.35103e-06 -1.65727e-08 -3.39154e-07 1.15312e-06 
4.4974e-07 -3.69434e-07 -5.95337e-08 -6.94575e-08 -3.77264e-08 -2.25249e-07 -3.09562e-07 -2.22169e-08 1.92211e-07 
2.52624e-07 -5.32496e-08 -1.26096e-07 -1.46451e-07 7.09082e-08 4.50212e-08 1.80647e-08 -2.68409e-08 -7.99315e-08 
-1.13523e-07 2.90509e-08 1.92126e-08 5.08136e-09 -6.65738e-08 2.12536e-08 -3.65484e-08 5.95331e-10 7.76956e-09 
-2.17696e-08 1.70457e-08 -4.93992e-08 2.15432e-08 4.12215e-08 -1.35603e-07 2.12913e-08 4.6513e-08 -3.11911e-08 
-1.40586e-07 -2.74656e-08 -1.67213e-07 -6.41254e-09 -3.69563e-06 -5.61254e-07 -1.7716e-06 5.05263e-07 -4.8454e-08 
9.30101e-07 -1.00383e-06 -2.3797e-07 -1.9514e-06 4.14903e-07 3.76065e-07 1.97888e-06 2.78371e-06 1.04508e-05 
5.57557e-07 -7.44486e-06 -6.47748e-06 1.34959e-05 -2.63439e-05 -4.48242e-08 2.20512e-08 1.21103e-07 -6.28893e-08 
-9.41292e-09 -8.33326e-08 1.38001e-08 1.34023e-07 1.27419e-07 1.63399e-07 -1.36966e-07 7.42629e-09 -5.97866e-08 
-1.24292e-07 6.64561e-08 8.84728e-08 -7.43431e-08 1.25292e-07 9.67563e-08 -5.40801e-08 6.48919e-08 -5.86924e-08 
-1.8721e-07 -8.61162e-08 -1.00481e-07 1.71108e-07 1.33271e-07 1.46498e-07 8.59093e-08 -4.8531e-07 -6.85816e-06 
-4.10105e-06 1.15618e-05 1.4633e-06 8.54222e-06 8.73948e-07 -6.79104e-06 6.13487e-06 -2.66548e-06 -3.87676e-06 
-1.09994e-05 -3.58086e-06 -1.36489e-05 -3.01996e-07 2.08946e-06 -9.52357e-07 -1.39382e-06 -2.39582e-06 -2.89577e-06 
-8.47874e-07 7.5766e-07 1.02793e-06 -1.63277e-06 2.35011e-06 9.39895e-07 -1.34375e-07 -2.49495e-08 4.61535e-07 
-1.14661e-07 9.14339e-08 -3.23902e-08 2.31406e-07 -6.98744e-08 -5.09835e-08 7.93666e-08 2.42756e-08 -1.0882e-07 
8.53089e-08 1.34051e-08 -3.52375e-08 -1.02015e-07 -1.48317e-07 1.05986e-07 1.10448e-07 2.74643e-08 1.6593e-07 
3.09528e-08 3.0326e-08 1.01967e-07 -5.6374e-08 -1.77857e-08 2.18348e-08 -9.15661e-08 -9.99492e-09 -1.30057e-07 
8.4782e-08 -4.17697e-08 1.30427e-07 2.87024e-08 3.60169e-09 -6.83599e-08 6.46148e-08 5.51814e-08 -3.04118e-07 
-1.70646e-07 -6.84217e-08 1.29679e-07 -4.59888e-08 1.73901e-07 -7.43339e-08 2.65679e-08 4.89802e-08 -9.66068e-08 
-1.06451e-07 8.76871e-08 1.0575e-07 2.50937e-08 -1.30179e-08 -7.33184e-09 -1.02491e-07 -3.62249e-08 2.12575e-08 
3.40509e-08 4.82414e-08 -7.92655e-09 -5.23744e-08 8.75768e-09 2.12679e-08 1.46724e-07 3.27754e-07 5.3377e-07 
7.84919e-07 9.8738e-07 -2.45617e-07 -7.66379e-08 6.34894e-07 -3.43348e-07 1.2723e-06 9.13442e-07 2.14405e-06 
2.92296e-06 1.06581e-06 -9.33027e-08 1.95172e-07 2.08469e-08 -7.76348e-08 1.32495e-07 9.75682e-08 1.36894e-07 
1.83215e-07 8.5445e-08 7.12654e-08 -1.15673e-07 9.71478e-08 2.61617e-07 7.35159e-08 1.3752e-07 1.37609e-07 
3.59172e-08 -1.92569e-08 1.2169e-07 -3.53366e-08 2.18516e-07 -6.58781e-08 -1.3327e-08 3.37842e-08 5.28824e-08 
-2.65883e-08 -3.67988e-08 -4.28885e-09 5.46263e-09 -4.63476e-08 -9.16469e-08 -3.30224e-09 -8.89282e-09 -5.71009e-09 
-3.06682e-09 3.81658e-08 2.85452e-08 -6.57963e-09 -6.79797e-08 -5.63643e-08 -1.86993e-08 3.01574e-08 4.80968e-08 
2.83536e-08 -2.50481e-09 2.72862e-08 3.39246e-08 1.87744e-08 7.96276e-09 -9.21603e-09 -3.37819e-06 8.37117e-06 
-3.38088e-07 6.09434e-06 -8.99804e-06 -8.9138e-06 5.62822e-06 -1.49082e-06 -1.33361e-05 -1.65662e-05 -2.43992e-05 
-1.23573e-05 6.17051e-08 -1.97178e-07 9.70969e-08 1.34507e-07 4.9391e-07 -2.57705e-08 -6.29833e-08 -4.46864e-07 
-1.91766e-07 -4.48366e-07 3.84846e-07 3.96378e-07 -2.56825e-07 -1.12749e-07 2.04314e-08 5.05758e-08 3.10805e-07 
2.28134e-07 1.62586e-08 -5.8587e-08 4.85399e-07 9.49581e-07 1.32859e-07 5.41184e-07 8.03529e-09 -2.66441e-08 
-3.2682e-08 2.38191e-08 -6.03462e-08 -3.08523e-08 -2.18152e-09 -7.4455e-08 -2.32084e-08 -8.72628e-09 5.12277e-08 
-3.39073e-08 1.02297e-07 3.49813e-08 4.5534e-08 5.54644e-08 -2.72904e-08 3.75835e-08 -8.38748e-08 4.83362e-08 
-4.36938e-08 -1.60501e-08 1.16322e-07 1.31742e-07 3.40932e-07 6.32359e-08 1.47629e-07 -1.29325e-08 5.18153e-08 
3.53357e-08 1.61918e-07 3.62462e-08 1.29994e-07 1.42542e-07 -3.76644e-07 6.98085e-08 -4.83748e-07 -7.7243e-08 
-3.99593e-07 -1.07539e-08 5.08693e-08 -4.08344e-08 -4.6459e-07 -2.17378e-07 1.35474e-07 2.68559e-07 -1.9889e-08 
-1.57637e-08 -4.07006e-08 -1.31307e-07 1.54346e-09 1.13335e-07 4.35836e-08 4.84294e-08 1.12677e-07 6.86883e-08 
6.47797e-08 5.27233e-08 1.08965e-07 -2.05321e-08 -7.74145e-08 -1.94256e-07 5.42397e-08 -1.44103e-07 -1.48051e-07 
-1.14765e-07 -6.29867e-08 -5.07624e-08 -9.09343e-08 2.48302e-08 6.389e-08 2.09829e-07 7.70892e-08 1.53969e-07 
9.32654e-08 -7.237e-08 -2.01607e-09 -9.75592e-08 6.95032e-08 8.78441e-08 1.22462e-07 -8.3767e-08 -6.01095e-08 
-4.199e-08 -9.59794e-08 1.43048e-07 -1.22342e-07 -1.15746e-07 -2.01583e-07 1.2125e-06 3.46562e-06 2.91e-06 
3.21817e-07 4.45599e-07 -2.08738e-06 -3.03367e-06 -7.41525e-06 -5.26952e-06 -8.47641e-06 4.37198e-06 2.22044e-06 
1.1854e-06 1.76733e-06 1.13435e-05 2.9235e-06 3.31778e-06 3.20804e-06 8.46574e-07 4.87515e-07 6.20046e-07 
-3.5935e-07 -1.40537e-08 -1.2608e-09 -1.24297e-08 1.21064e-08 4.08871e-08 5.66237e-09 -3.80516e-08 7.48763e-09 
1.19742e-10 -5.36844e-08 -4.33846e-08 -5.42308e-08 -5.09658e-08 -1.45104e-08 6.76448e-08 5.25147e-08 -2.69643e-08 
-7.61631e-09 -2.19482e-08 -2.20514e-08 3.09867e-10 -1.23707e-08 -2.3561e-08 7.84773e-08 3.58302e-08 -7.53723e-09 
2.96155e-08 2.72981e-08 4.69343e-08 4.14189e-08 -4.92397e-09 -3.03718e-08 1.38117e-07 5.17572e-08 5.59245e-08 
3.05841e-08 8.13326e-09 -3.81688e-08 -1.38345e-08 -1.26354e-08 1.65779e-07 -7.33952e-08 9.03133e-09 -7.17304e-08 
-2.22595e-07 6.97434e-08 -1.3686e-07 6.29207e-08 3.04076e-07 1.3567e-08 2.44223e-07 -6.00529e-08 -3.90301e-07 
-2.87752e-07 -7.02442e-07 2.26264e-06 1.29096e-06 1.53069e-06 7.26881e-07 -1.39692e-06 2.37968e-06 7.67942e-07 
-4.41917e-08 -9.12604e-08 -2.13312e-07 1.96099e-08 1.44913e-08 1.78774e-07 8.20395e-08 1.32776e-07 -5.44041e-08 
-4.46372e-08 5.34616e-08 5.13708e-08 1.53621e-07 8.34769e-08 -2.55408e-08 3.10034e-08 1.31542e-07 3.09959e-08 
-8.02567e-08 -1.33391e-07 6.12135e-09 5.48878e-09 2.59164e-08 -4.40904e-08 -1.63403e-08 4.42658e-08 1.70022e-08 
-3.54718e-09 -2.18295e-08 4.56233e-08 -2.6057e-08 4.65644e-09 -9.67428e-09 1.72744e-08 -6.83644e-08 -5.107e-08 
-6.41157e-08 -8.73532e-09 1.79909e-06 4.09408e-06 5.82815e-06 1.42492e-05 9.39044e-06 6.11312e-06 1.26384e-05 
6.93741e-06 3.57309e-06 1.61772e-07 9.01779e-08 6.50605e-08 1.27506e-08 -1.28966e-07 9.632e-08 -7.42342e-09 
1.11811e-07 -3.6715e-08 3.28279e-08 9.12327e-08 -4.59087e-08 6.36611e-08 -7.50534e-08 9.88391e-09 1.07916e-10 
1.97339e-09 6.62065e-08 7.70726e-08 1.86451e-08 3.31703e-08 5.41488e-09 -3.24451e-08 -3.9714e-08 -8.86747e-08 
-5.6701e-08 5.85756e-08 2.59507e-09 4.25018e-08 -5.79782e-05 1.68558e-05 -1.23639e-05 1.30663e-05 -4.05744e-05 
-3.98257e-05 3.83199e-06 3.62951e-05 -5.97995e-05 -1.15949e-07 2.16761e-07 5.13674e-08 -1.12366e-07 1.74461e-07 
1.97766e-07 2.62848e-08 -2.09831e-07 6.93673e-08 5.86964e-08 8.95955e-09 -2.52407e-08 1.47237e-07 1.29483e-07 
-4.0401e-07 -4.02387e-07 2.93842e-07 2.87278e-08 1.45656e-07 9.61683e-08 -3.02674e-07 -2.72661e-07 -5.28582e-08 
-3.28154e-07 -1.15329e-08 -4.84295e-07 4.57979e-07 -8.83771e-07 -5.38405e-07 -1.16579e-07 -8.29157e-07 3.37514e-08 
6.155e-08 -4.99712e-09 5.76778e-08 1.77328e-07 1.90299e-07 8.95649e-07 -1.48305e-07 -4.86129e-07 -2.66657e-07 
-5.50787e-07 -2.17826e-07 4.41934e-08 1.3544e-07 -1.28773e-08 3.89263e-08 3.64032e-08 7.89394e-08 -7.38615e-08 
1.37058e-07 1.68326e-08 5.02763e-08 -1.37463e-08 7.00977e-08 8.68763e-08 -6.28539e-08 2.22446e-07 1.62935e-07 
2.80903e-07 7.62872e-07 7.12658e-07 6.10632e-07 -4.74795e-06 -1.1742e-05 -4.22347e-06 4.62783e-07 -6.65425e-07 
-1.97523e-08 -5.52659e-08 4.51159e-08 3.16499e-08 -1.3874e-07 1.03379e-07 5.90588e-08 -3.13298e-08 3.46518e-08 
-1.6316e-06 -3.20077e-07 -2.97784e-07 4.37413e-07 -1.4104e-07 1.42575e-07 4.56958e-08 -2.4057e-08 -5.36778e-09 
5.30622e-08 9.66132e-08 -2.86361e-08 8.73075e-08 2.62833e-07 1.70623e-07 -1.67885e-07 -1.62235e-07 -1.43659e-07 
1.07514e-07 6.39331e-08 -1.17886e-07 1.64845e-06 1.35178e-08 7.80151e-08 -5.30459e-08 2.30436e-09 -4.3931e-08 
2.11539e-08 -9.43568e-08 -1.07282e-07 1.25306e-07 -1.24854e-07 5.73924e-08 -3.11676e-06 2.66012e-09 -2.24068e-06 
3.84755e-07 4.50442e-06 -2.01717e-07 -1.54174e-08 -1.46806e-06 -1.27254e-06 -6.63098e-08 -1.02494e-08 -1.51397e-08 
4.61803e-08 -8.37248e-09 6.97146e-09 3.02762e-08 8.16321e-08 3.80276e-08 1.11006e-07 2.92665e-08 -3.08756e-06 
-1.49782e-06 -3.89729e-06 -1.17811e-06 2.67751e-08 -2.5125e-08 1.48131e-08 -8.84978e-08 -3.00273e-06 -1.73586e-06 
-2.27598e-06 -3.15955e-06 -3.74978e-06 -4.58061e-06 -5.64919e-07 -8.10312e-07 2.26928e-06 4.44876e-06 1.07432e-05 
1.14833e-06 -2.37095e-07 -4.21989e-06 -9.88807e-07 4.22531e-06 5.56801e-06 6.56996e-06 1.41677e-06 8.40903e-07 
-2.3409e-06 -4.2404e-06 -3.5e-06 -6.17572e-08 -9.76295e-07 -7.91257e-07 -2.83343e-07 2.24733e-07 3.48738e-07 
-1.33419e-06 -3.46865e-06 1.34334e-07 -2.72381e-06 -3.25918e-06 -8.064e-09 -1.15552e-06 -5.28016e-07 -8.84493e-07 
8.92101e-08 -2.70908e-08 -1.17813e-07 4.71132e-08 -9.6671e-08 2.91305e-08 7.11091e-08 -2.27617e-08 6.12405e-08 
8.93342e-08 1.40857e-07 1.59181e-07 -2.6949e-08 -5.12295e-08 4.35522e-08 1.0158e-07 5.18309e-09 -1.1939e-07 
-1.14706e-07 -1.75009e-08 5.37614e-08 1.65679e-07 -6.60701e-08 -1.87376e-07 -7.08201e-08 7.91022e-08 1.05045e-07 
-2.14831e-08 -1.11617e-07 8.18948e-08 1.46228e-07 1.81168e-07 4.46425e-09 -3.19095e-08 7.10285e-08 1.26268e-07 
1.09843e-07 9.82416e-08 -1.34039e-08 7.3772e-08 2.42749e-08 2.78124e-07 4.50414e-08 -7.35104e-08 -1.44578e-08 
3.83142e-08 1.50067e-08 7.21685e-08 -7.5416e-08 -7.43184e-09 -2.07692e-08 -2.94685e-08 -2.59945e-08 1.68192e-08 
-2.07965e-08 2.02223e-07 -2.58703e-08 9.50843e-09 1.0956e-08 2.05549e-08 -9.0788e-07 1.95307e-07 -1.94888e-08 
-2.38182e-08 1.52081e-08 -2.64841e-08 -2.28101e-07 1.88499e-08 3.89903e-08 2.48236e-08 1.74645e-08 -3.72164e-07 
8.97363e-08 -1.91037e-08 -5.75993e-08 1.68828e-08 1.49397e-08 -3.48208e-08 5.38722e-07 2.30508e-09 3.61171e-08 
3.87479e-08 -6.00476e-09 -4.13274e-06 2.8058e-08 -3.43533e-09 2.45128e-08 6.89161e-09 -9.27115e-06 8.92688e-08 
5.20423e-08 -6.45328e-08 -6.2165e-07 1.15956e-07 -5.5546e-08 -3.12568e-08 -1.31599e-09 1.28067e-07 1.76507e-06 
3.73191e-08 -5.75546e-10 2.013e-08 -3.2626e-07 3.16127e-08 6.40504e-08 -3.38532e-08 6.17423e-09 5.81058e-08 
2.71443e-07 1.24789e-07 -1.1878e-06 -4.111e-09 -2.00529e-09 2.49694e-08 1.17256e-07 3.91794e-09 1.44131e-07 
-1.75621e-08 -4.62023e-07 -5.26832e-09 -1.74989e-06 3.66188e-08 -1.04162e-08 -6.25327e-09 -3.56985e-08 -5.43519e-08 
-1.75527e-07 -2.77417e-08 -7.34554e-08 -3.99611e-08 1.22832e-07 -8.8745e-08 9.46667e-08 1.93289e-08 -8.9628e-08 
-1.2713e-07 -3.59675e-08 -6.91894e-08 -1.76302e-07 -9.99074e-08 -8.10077e-08 -1.93206e-08 3.03455e-08 4.12149e-08 
-1.61983e-08 1.46882e-08 -2.36085e-09 -5.65467e-08 2.37335e-08 -1.12266e-08 6.47345e-09 2.2833e-08 -9.87401e-06 
1.40204e-06 1.52697e-06 -1.17399e-08 2.50929e-08 8.07292e-08 2.86302e-08 -1.01416e-06 -3.91779e-09 1.94835e-07 
-2.62082e-08 1.8821e-08 -4.32997e-09 4.58851e-09 1.80574e-06 1.21e-06 -5.91163e-08 -1.55884e-06 -4.54285e-08 
4.04137e-07 4.1025e-07 1.79287e-08 1.06078e-07 2.76462e-08 1.89203e-05 -8.64871e-06 3.52095e-07 4.63285e-08 
1.46764e-08 -1.30711e-08 -3.48289e-05 -9.71798e-08 5.14229e-08 5.98823e-08 8.35222e-07 2.25814e-08 -2.00086e-08 
7.29795e-08 -2.98726e-08 -1.99191e-08 1.36215e-06 -8.6818e-09 8.16975e-09 4.54827e-09 -5.60363e-08 -9.56823e-08 
-2.50552e-08 -4.20346e-06 2.0332e-08 -4.13788e-06 -6.18494e-07 2.27504e-08 1.13623e-06 3.04516e-10 1.14168e-07 
1.34169e-09 -1.28069e-07 -2.81696e-08 4.41028e-08 1.21699e-06 -9.74153e-08 -1.88204e-07 -5.65283e-08 2.80888e-09 
1.04271e-07 2.27265e-07 -7.12345e-09 3.69756e-08 -2.98339e-08 5.41728e-09 3.69469e-06 -2.32609e-08 -2.35427e-08 
-3.3991e-08 -5.39984e-09 2.49993e-07 -5.6013e-08 3.53766e-08 -3.99727e-08 6.44584e-09 3.26931e-08 7.3779e-09 
6.82349e-08 1.8399e-07 -2.31065e-08 5.168e-06 -6.95862e-08 -2.79377e-07 8.78995e-08 -1.52489e-07 -1.61488e-06 
2.19962e-08 -2.03578e-08 5.54825e-08 7.36884e-08 3.95748e-08 2.87429e-08 7.09514e-08 5.51678e-08 -3.05852e-08 
-2.20823e-08 1.26719e-08 -1.49727e-08 1.17976e-08 -4.96655e-08 5.70032e-08 7.43684e-08 2.19005e-08 -1.58717e-06 
-1.52302e-06 3.03009e-07 7.34955e-06 -7.76569e-06 -3.0478e-05 8.49865e-08 5.95673e-08 -1.61819e-08 -2.35781e-08 
9.94511e-08 7.27101e-08 -3.85696e-07 1.17654e-06 -1.52088e-06 -7.05381e-07 9.9349e-07 4.21058e-06 1.2885e-06 
1.87287e-06 -4.09574e-06 -7.97612e-07 2.89229e-07 -1.97124e-06 -2.02282e-06 1.53407e-06 1.28789e-06 -3.40718e-07 
-7.99284e-07 -2.09967e-08 -1.19085e-06 1.33454e-06 1.22232e-05 8.84242e-06 4.35864e-06 2.9544e-05 -4.4612e-08 
1.30302e-07 9.10907e-09 -1.50752e-07 2.80083e-08 -1.57013e-07 2.97639e-08 -2.33477e-07 -4.95255e-08 -9.68847e-09 
2.19536e-07 -3.28088e-08 -2.55854e-08 1.1909e-07 1.59474e-08 5.02304e-08 2.98128e-08 -1.31328e-08 -8.37388e-08 
-9.5302e-10 1.00167e-07 -1.39045e-07 2.31975e-07 1.46433e-07 -6.64816e-09 -2.96769e-07 -1.67102e-07 -3.92884e-08 
-6.9406e-08 1.41664e-05 2.55067e-06 -3.0381e-05 2.48973e-06 5.92617e-06 -7.6329e-06 -1.14483e-06 -4.90437e-07 
-3.24428e-06 -8.48421e-07 1.67705e-06 -1.60195e-06 -1.35948e-06 1.46485e-06 -7.34743e-06 -3.62113e-07 7.27972e-06 
-3.71871e-07 -3.35881e-06 -1.14738e-06 -4.48036e-07 -4.18018e-06 2.46438e-06 -1.72351e-06 -6.00507e-07 -1.28881e-07 
1.59773e-07 -2.31271e-06 -8.81098e-08 -3.51349e-07 -3.92438e-07 1.72474e-07 3.89455e-07 3.4625e-07 -1.44732e-07 
-3.52366e-07 -5.78568e-10 -2.79702e-08 1.93621e-07 -1.73054e-07 1.10121e-07 -2.57069e-07 -2.20908e-07 4.16071e-08 
-1.02185e-07 5.59112e-08 1.13542e-07 2.37318e-08 1.1117e-07 -1.89125e-08 -1.64641e-07 -6.66597e-08 -4.20094e-08 
2.4493e-08 5.40522e-08 -1.06831e-07 7.52645e-08 1.79411e-07 -3.65393e-08 8.04443e-08 7.1325e-09 2.76386e-08 
4.75551e-08 5.57938e-08 6.59164e-08 4.27554e-08 2.1829e-07 -1.01148e-08 -9.78839e-08 2.40336e-08 7.48848e-09 
1.20035e-07 6.7949e-08 7.55656e-08 -4.69355e-08 -4.22018e-07 1.09431e-07 -3.64696e-07 -1.02849e-06 -7.27629e-07 
2.60099e-07 9.71955e-08 -2.19319e-07 2.46749e-08 1.07681e-07 1.51846e-07 -6.20375e-08 -5.57988e-08 1.87794e-08 
-1.45809e-07 1.79567e-08 -5.36423e-09 -1.84104e-08 8.18601e-08 5.18474e-08 -3.83399e-08 1.8051e-08 4.0834e-08 
8.39029e-10 8.72225e-09 3.3193e-08 -1.09691e-08 2.66415e-08 3.4792e-08 1.70065e-08 2.07729e-08 -9.90911e-09 
2.07687e-08 -4.56804e-08 3.18911e-08 1.57101e-07 -4.57195e-08 -7.10132e-08 3.9496e-08 -4.86913e-09 1.56952e-07 
-2.37014e-09 2.95718e-08 -5.45446e-08 8.45019e-08 2.23891e-07 1.22333e-07 1.13061e-07 -9.48984e-08 -6.47176e-08 
-9.30645e-08 5.20029e-08 2.78068e-07 1.15169e-07 -2.16868e-08 7.08046e-08 3.64494e-08 -1.02217e-07 -6.78488e-08 
-2.29461e-08 -6.78907e-08 -6.88522e-08 5.62042e-08 5.83798e-08 2.68533e-08 2.20288e-08 -3.11843e-08 8.7372e-09 
2.9808e-07 -4.23821e-08 8.59051e-08 9.7417e-08 8.37431e-09 -6.27649e-08 -7.63366e-08 -5.90632e-08 4.47152e-07 
3.84225e-07 2.9436e-07 -5.99736e-07 6.20945e-07 6.26106e-07 -5.69253e-08 1.40463e-07 -1.04759e-07 8.72316e-08 
-8.18292e-08 8.09738e-08 7.50796e-08 -2.3008e-08 -3.18355e-09 -2.18085e-07 6.38558e-08 2.49269e-08 6.57295e-08 
-4.76845e-08 1.68247e-07 -2.68319e-08 -9.6404e-08 6.96814e-09 -9.83647e-08 -2.04907e-08 5.25909e-08 8.25675e-09 
7.45752e-08 -5.24268e-08 -1.55206e-08 -1.44463e-08 5.49242e-08 -4.38058e-08 -3.06857e-08 -3.92654e-08 -3.55836e-08 
-3.45747e-09 5.25999e-08 3.93821e-08 4.36492e-08 7.64235e-09 -2.50981e-08 -4.40138e-08 -4.81613e-09 -3.49465e-08 
-1.80416e-08 4.32526e-08 7.01488e-08 5.59083e-08 5.90367e-09 1.71127e-08 5.95256e-08 1.88361e-08 -1.58128e-08 
1.82115e-09 -2.64782e-06 -1.22424e-06 -5.43946e-07 1.2312e-06 -1.11802e-06 7.40495e-07 -6.48395e-07 1.29489e-07 
-3.89271e-07 -8.17004e-06 -4.79689e-06 -4.1575e-06 3.37741e-07 -1.61083e-07 -3.75619e-07 -5.28884e-07 4.63454e-09 
-7.42588e-08 1.92118e-07 -3.76692e-08 -1.63259e-07 -3.90947e-07 -2.88049e-07 1.86648e-07 1.47779e-07 -2.11806e-07 
-1.2229e-07 1.48539e-07 2.43082e-07 5.18838e-08 -3.98893e-08 8.15074e-08 3.51917e-07 3.60082e-08 1.77201e-07 
1.96828e-07 -3.94092e-08 -4.36607e-08 -4.80532e-08 2.02364e-08 3.03763e-08 -5.89293e-08 -8.69523e-10 -5.55941e-08 
1.64148e-08 -5.09411e-08 5.75696e-08 -6.78586e-08 6.55723e-08 -5.47415e-08 -2.51647e-09 2.39867e-08 8.14693e-08 
7.94072e-08 -3.34678e-08 -1.47477e-09 -5.4015e-08 -1.10205e-07 1.70589e-07 2.28209e-07 1.458e-07 1.55599e-07 
5.97418e-08 -2.86407e-08 5.82665e-08 -1.77044e-08 2.28444e-08 2.11224e-07 -6.1513e-08 1.62297e-07 -7.82134e-07 
-5.00196e-07 -8.28654e-07 -8.87821e-08 -1.60564e-07 5.88217e-08 6.26532e-08 1.09831e-07 6.86823e-07 -1.13427e-08 
-3.98937e-08 -2.37733e-07 -7.54842e-08 -1.00098e-07 -1.34338e-07 1.82861e-08 4.18225e-08 7.11983e-08 3.01461e-08 
4.97185e-08 2.66724e-08 2.48627e-08 4.68308e-08 -4.90944e-08 1.12584e-07 3.48053e-08 -1.41619e-07 -8.25261e-08 
-4.42267e-08 -1.10977e-07 2.04249e-08 -1.13542e-07 -1.55574e-08 2.48795e-08 -3.17657e-09 1.60808e-07 8.36382e-09 
6.78723e-08 2.70439e-08 6.51942e-10 -7.13044e-08 1.27987e-07 1.04325e-08 4.5068e-08 -3.06802e-08 1.06561e-07 
-8.64573e-09 1.23311e-07 -5.16569e-08 -5.09621e-09 6.40481e-08 -6.7003e-08 -2.43873e-07 -1.40243e-07 -1.0317e-07 
-5.3946e-07 9.56388e-07 -2.01023e-06 1.68872e-06 7.27762e-07 -1.5992e-06 -1.58327e-06 -7.47798e-07 -2.30745e-06 
-7.63489e-07 -6.93194e-08 6.43992e-07 4.92715e-07 -3.19824e-08 6.15276e-07 3.68194e-06 1.05955e-06 3.57502e-06 
5.75935e-07 -4.01953e-07 1.21911e-06 -5.64461e-08 -5.46594e-08 -1.60154e-08 -1.9987e-08 1.6988e-08 3.53158e-08 
5.25286e-09 5.16432e-08 2.56836e-08 -6.96717e-09 6.3607e-09 -7.25074e-08 1.17016e-08 6.59956e-08 -5.71533e-08 
-6.36665e-09 -7.10436e-08 -2.35811e-09 -7.16402e-08 -1.0919e-07 -7.61301e-08 3.42344e-08 -1.08148e-08 4.38551e-08 
-2.17311e-08 -1.21961e-08 1.26939e-08 8.98263e-09 5.29513e-08 4.23939e-08 8.42708e-09 5.08631e-08 2.79743e-08 
2.47446e-08 -2.01299e-07 8.2057e-08 7.34075e-09 7.17992e-08 8.02943e-09 6.9883e-08 -4.65275e-08 3.40399e-08 
-1.2364e-08 -3.23522e-08 -1.7565e-08 -1.45704e-08 -2.14784e-07 -4.036e-08 3.54198e-07 3.12725e-07 7.86605e-08 
1.73425e-07 4.02793e-07 -2.45463e-07 8.1081e-08 9.47373e-07 3.58484e-07 2.70946e-07 6.37864e-08 -8.33944e-07 
1.85853e-07 5.37347e-07 -6.09787e-08 -1.22963e-07 -1.30201e-07 -6.6434e-08 6.49491e-08 -1.37662e-07 1.11105e-07 
-3.41049e-09 1.42886e-07 2.66946e-08 -2.11955e-08 1.0457e-07 6.05895e-08 7.92788e-08 -3.50525e-08 1.00929e-08 
7.90442e-08 1.9539e-07 1.38893e-07 -2.13247e-08 -2.60187e-08 9.98189e-08 4.95451e-08 8.37989e-09 -4.74153e-09 
-2.10013e-08 4.53226e-08 2.20069e-08 1.01763e-07 2.9503e-08 4.35095e-08 -3.80558e-08 5.10438e-08 -4.48114e-08 
-5.65239e-08 -4.73625e-08 -4.02898e-08 -4.47835e-08 -1.04034e-08 4.83014e-07 4.0167e-06 1.19408e-05 5.79675e-06 
2.41778e-06 -1.19844e-07 6.68237e-06 -1.73108e-06 -9.31983e-07 9.48425e-08 1.55607e-07 6.02958e-09 -8.90399e-08 
-7.92668e-08 6.56357e-08 9.47468e-08 4.63066e-08 -1.54425e-08 -1.41741e-08 7.53178e-08 2.15296e-09 -3.45166e-08 
-3.79741e-08 4.05375e-09 2.56244e-09 6.11902e-08 6.10975e-08 -2.30016e-08 3.44487e-08 9.22175e-08 5.13056e-08 
5.03351e-08 2.02535e-08 -1.17893e-08 3.16139e-08 -4.86237e-08 -5.61541e-08 -5.54115e-09 -3.74994e-06 -6.20621e-06 
1.70836e-05 7.08176e-06 -3.27924e-06 5.79892e-06 -7.80412e-06 8.27302e-06 -2.99312e-05 5.15489e-08 -1.37627e-07 
4.94325e-08 2.72321e-08 3.32791e-07 2.15214e-07 9.62754e-08 -1.01015e-07 1.20887e-07 7.80369e-08 1.37763e-07 
1.20644e-07 1.0257e-07 1.93803e-07 -1.3023e-07 -6.30139e-07 -3.43195e-07 -3.61926e-08 1.41781e-07 -7.07199e-08 
1.36458e-07 -1.32344e-07 -2.22545e-07 -2.51088e-07 -5.33442e-07 -2.07961e-07 1.20829e-07 -1.51807e-06 -6.02601e-07 
-4.47535e-08 -4.05716e-07 -1.804e-07 1.89206e-07 2.28527e-08 1.16728e-07 4.98688e-07 1.79885e-07 -6.49653e-08 
-1.53087e-07 -1.73152e-07 1.67916e-07 -4.02694e-07 6.66248e-07 8.0341e-08 6.45219e-08 3.40213e-08 -4.72503e-08 
4.84033e-09 -2.00661e-08 7.48709e-08 1.60628e-07 5.73458e-08 3.59877e-08 6.53155e-08 -2.85807e-08 -7.50646e-08 
-3.18988e-08 1.35133e-07 7.30308e-08 7.50449e-08 2.89004e-07 2.24882e-07 1.97208e-07 -1.10205e-06 -9.23356e-08 
1.91623e-06 -1.74059e-06 -1.23322e-06 -1.32207e-07 -4.79355e-08 -4.94326e-09 9.67599e-08 -4.20707e-08 -5.72892e-08 
-8.24213e-09 -4.20879e-08 3.4279e-08 -3.36827e-07 -4.46121e-07 2.53874e-07 8.68896e-07 4.51996e-07 1.94985e-07 
-3.31549e-08 5.52478e-08 -2.47529e-08 1.71584e-07 1.82339e-08 4.96666e-08 2.4856e-08 8.1679e-08 2.56691e-07 
-2.49572e-07 -2.99711e-09 -1.99452e-07 1.34673e-07 9.83666e-08 -6.08235e-08 1.97394e-07 7.60767e-08 1.4505e-08 
2.72844e-08 -3.49774e-08 -1.80823e-08 1.06594e-08 1.86614e-07 3.44331e-07 4.4219e-10 -7.30077e-08 -2.62837e-08 
-2.77143e-06 -3.46752e-06 -3.4129e-06 -2.18811e-06 -4.33533e-07 4.71073e-06 3.32219e-05 -4.70292e-05 -4.22504e-05 
-0.000129603 -4.3922e-05 -2.05423e-05 2.54925e-06 -3.88607e-06 -2.52223e-06 8.41697e-08 -4.09832e-06 2.80883e-06 
-2.90831e-06 -9.69612e-07 -3.21258e-06 -2.63274e-06 -1.12899e-06 5.15194e-07 -4.33923e-06 -1.69032e-06 -1.0257e-06 
-6.28244e-06 5.49012e-06 -7.04023e-06 2.25001e-06 2.39908e-05 6.07661e-06 1.45828e-05 -1.35966e-05 -4.31586e-06 
1.62645e-07 -1.59061e-06 -4.18185e-06 -2.84379e-06 -6.09033e-06 -1.13836e-06 -6.74179e-06 4.80822e-06 -1.05015e-06 
4.88672e-05 3.16195e-05 4.49969e-08 1.03855e-07 1.95862e-07 2.64451e-07 2.44474e-07 2.63525e-07 9.50824e-08 
-2.23626e-07 2.84079e-07 -1.99134e-07 -1.42519e-07 -1.23923e-07 -2.61704e-07 8.34028e-08 -9.27975e-09 1.01679e-07 
-1.83997e-07 2.27693e-08 7.96264e-08 1.12263e-07 6.90961e-08 6.07462e-08 -3.26847e-09 2.98501e-07 2.8441e-07 
2.14529e-07 1.17098e-07 1.11181e-07 1.84997e-07 3.36526e-07 1.64074e-07 2.33865e-07 1.32542e-07 1.21938e-07 
3.39118e-07 2.53103e-07 4.6026e-07 2.39601e-07 1.78077e-07 3.40538e-07 2.94583e-07 3.6849e-07 1.22335e-07 
1.26372e-07 3.49145e-07 3.0589e-07 3.48603e-07 2.36484e-07 -3.97098e-08 1.75781e-07 1.07813e-07 2.90513e-07 
1.92928e-09 -1.09315e-07 -1.08221e-07 2.76597e-08 5.59847e-09 -1.97725e-07 -3.67803e-07 -3.56255e-07 -4.09052e-07 
-2.38761e-09 -8.74478e-08 -1.7758e-08 -1.78069e-08 -1.40169e-08 -1.89622e-08 6.27875e-09 -9.03275e-09 -1.3586e-08 
2.82315e-08 -1.34613e-09 -3.72864e-09 1.31055e-08 1.00107e-08 3.47396e-08 -7.06205e-08 -1.32468e-06 -3.08645e-07 
-2.14246e-07 2.36884e-08 -6.23382e-07 -4.20816e-07 -2.21733e-07 -1.2077e-08 -7.34658e-07 -1.03818e-07 6.69881e-08 
-8.01036e-08 -6.99105e-07 1.24334e-08 -1.15457e-08 -7.09702e-08 -1.69394e-07 -2.25537e-07 -3.26365e-07 -4.92351e-08 
7.35342e-08 -1.20567e-07 -1.27526e-07 -2.46626e-07 -7.9462e-08 -3.05975e-08 -1.02943e-07 -1.648e-07 -3.77548e-09 
-5.67651e-08 9.45119e-08 -5.83654e-08 -2.21224e-09 -2.38254e-09 2.17522e-08 -1.62658e-08 6.89655e-08 -1.87079e-08 
-2.48876e-08 1.34874e-08 4.93292e-08 -3.56329e-08 -1.05591e-07 -3.28233e-08 -1.50004e-08 2.63406e-08 -5.63741e-09 
-6.21885e-08 -1.78574e-08 2.83934e-09 2.00165e-08 3.61322e-11 -1.46599e-08 -3.75427e-09 2.69438e-08 -3.14338e-08 
2.69786e-09 -8.40142e-09 4.4394e-09 -2.86053e-08 8.15085e-08 2.38375e-08 9.42236e-08 7.24378e-08 -1.20823e-08 
-7.19317e-09 -1.10399e-08 -1.07724e-07 4.02289e-08 -2.09914e-08 1.74963e-08 3.15266e-06 -1.27579e-07 1.28526e-08 
1.52009e-08 -1.15893e-08 3.40325e-08 2.9971e-09 2.56801e-10 5.53716e-08 -7.73805e-06 -3.05138e-05 -8.89192e-08 
-1.46058e-07 4.82761e-09 -2.70071e-08 1.37132e-08 -2.14109e-08 2.22032e-08 -1.61588e-09 -3.3727e-08 1.51836e-08 
4.10598e-09 3.94436e-08 1.64287e-08 -1.70774e-08 1.35256e-09 5.9283e-08 6.36185e-09 2.76286e-08 3.13967e-06 
3.3576e-06 -1.99924e-07 4.28264e-06 -1.08953e-07 1.40308e-09 1.38581e-08 8.90361e-08 -4.80281e-08 -2.35462e-07 
-6.2537e-08 -1.31028e-07 -1.15797e-08 -1.32599e-08 -3.70325e-08 -5.3512e-08 7.82633e-08 2.13687e-07 4.76795e-08 
-1.54191e-07 1.81089e-07 2.60241e-07 2.34302e-08 -2.39137e-07 -6.42481e-08 -2.19224e-08 3.33142e-06 8.47416e-06 
-1.42664e-07 6.92276e-07 -8.46839e-07 5.41236e-10 -1.02158e-08 1.18581e-08 -1.73296e-07 -1.00574e-07 -1.36635e-06 
-2.43582e-06 -2.314e-06 2.53825e-07 -1.13864e-07 -2.24265e-07 2.60038e-07 3.60872e-08 4.66938e-08 6.30872e-08 
9.48509e-08 1.2172e-07 5.3943e-08 -3.32626e-08 -5.3285e-08 -4.03039e-08 1.06525e-07 1.03236e-07 5.77313e-09 
2.67683e-08 2.42863e-07 6.70071e-08 4.56844e-08 1.13472e-07 -2.47087e-08 1.69659e-09 6.85343e-08 1.30543e-08 
5.13947e-08 3.32712e-08 4.9389e-05 4.76718e-05 1.41592e-05 3.45856e-05 8.08355e-05 1.79715e-07 1.17412e-07 
1.04231e-08 1.15331e-07 1.74064e-07 4.43546e-08 2.67115e-08 4.13466e-08 1.62039e-07 9.42163e-09 -1.00864e-07 
-1.56452e-07 -2.09637e-07 -2.24703e-08 -5.58105e-08 -6.0477e-08 -2.03235e-08 -3.48906e-08 -4.04567e-08 -5.95883e-09 
-3.76959e-08 1.02435e-07 -5.13753e-09 1.56615e-08 2.52607e-07 6.26731e-08 6.1265e-08 5.12365e-08 3.9312e-08 
5.75948e-08 3.12467e-08 8.50223e-08 -5.77256e-09 2.13221e-08 -8.62706e-07 -4.34692e-07 3.03038e-05 4.06346e-05 
0.000124412 -1.01963e-06 -1.28653e-06 -2.19218e-06 -4.22466e-08 9.18786e-08 -2.60828e-08 2.869e-08 5.32183e-08 
4.2036e-08 4.6975e-08 -8.546e-08 -6.51433e-08 -1.11952e-07 -1.13719e-08 -5.30341e-08 -3.58196e-08 -1.38538e-07 
2.81995e-07 -3.31768e-07 2.85439e-07 -1.70583e-08 1.65489e-08 -1.01662e-07 2.68035e-08 9.19243e-08 4.65286e-08 
-2.06636e-08 -1.18476e-08 -2.63092e-08 -5.93309e-09 -3.00914e-08 -3.59209e-08 -2.50596e-07 3.94723e-07 -4.60847e-08 
8.34029e-09 -3.12447e-08 5.92714e-08 3.61229e-08 -2.20779e-08 1.36274e-08 -3.86142e-08 9.15206e-08 -4.82119e-08 
8.96452e-09 3.35959e-08 1.98212e-07 4.75728e-08 2.03841e-07 -1.1829e-07 -2.09022e-08 -4.55799e-08 -8.34476e-08 
3.32303e-06 -1.39261e-06 6.17792e-06 8.65007e-06 4.13617e-06 9.49661e-07 -4.8238e-06 2.09648e-06 -2.00408e-07 
6.25945e-08 -2.43946e-08 -4.07681e-08 -1.89326e-08 -3.84543e-08 -1.47294e-08 6.16126e-08 3.49932e-08 -7.89501e-08 
2.5549e-08 2.60062e-05 1.31636e-06 -2.50725e-06 -2.8851e-06 -1.80317e-06 -3.34934e-08 3.61596e-08 -1.85962e-09 
2.06051e-08 -8.71736e-09 2.6933e-08 -7.54897e-09 -2.9756e-08 4.89499e-08 -3.68464e-08 -7.67254e-07 -1.5997e-06 
-1.06458e-06 -1.4878e-06 -7.36429e-08 -1.94357e-07 -1.03761e-07 1.15349e-07 2.01802e-08 -6.60224e-07 -2.06334e-07 
1.28906e-07 4.77935e-08 1.07242e-07 9.61898e-08 5.78153e-08 8.05522e-08 -1.81747e-08 3.3923e-08 6.86192e-08 
2.06954e-08 3.95459e-08 8.95926e-09 -6.33508e-08 3.45037e-09 8.07717e-08 -1.91855e-08 -1.38738e-08 -7.97987e-08 
-1.16064e-07 -3.69365e-08 -1.17789e-07 -4.12703e-08 -3.69954e-08 9.54264e-09 -1.7236e-08 -2.97027e-08 6.27741e-08 
-8.9917e-10 -1.09743e-08 -6.08012e-09 4.25075e-08 -2.64009e-08 -3.02457e-08 1.29028e-06 2.25906e-10 -5.04453e-08 
2.48379e-09 2.81231e-08 8.00072e-08 7.50226e-08 -3.20309e-09 2.47725e-08 7.93506e-09 1.98895e-08 3.68147e-08 
4.51031e-09 5.66914e-09 -3.50632e-08 1.87641e-08 6.87728e-08 -3.88163e-08 1.28149e-07 -8.4232e-09 -6.08588e-08 
1.03877e-07 -4.39753e-08 -1.35746e-08 -6.92946e-09 -1.76783e-06 8.86402e-07 5.09092e-06 -6.70311e-09 -3.97206e-07 
8.17363e-08 3.28321e-08 -1.0885e-06 6.37935e-09 1.95133e-08 -7.76413e-09 -2.82702e-09 3.2801e-08 2.11879e-08 
-1.08672e-08 2.54793e-08 2.68987e-08 2.91824e-08 3.46331e-08 1.58508e-09 1.16835e-09 -1.29615e-08 3.17928e-08 
-4.50804e-06 -4.28329e-06 -3.40804e-06 4.06392e-08 -7.90031e-08 3.63103e-08 -3.97744e-08 1.36643e-07 -5.09669e-08 
2.31548e-07 -2.96711e-08 -1.57722e-07 -7.70886e-08 -1.75412e-08 -1.47863e-08 -1.89213e-08 1.7542e-07 -9.55092e-09 
3.52077e-08 3.00367e-08 3.40826e-08 -4.50616e-08 -3.49434e-08 -6.02564e-07 -1.29702e-08 -9.30152e-09 3.12462e-08 
-3.19972e-08 -2.84958e-09 -6.93568e-09 -2.4998e-07 5.56951e-08 8.11579e-09 5.84201e-08 -6.82873e-08 9.77639e-09 
1.14516e-08 3.40973e-08 1.09233e-08 2.73104e-07 -2.22203e-07 4.01469e-07 -2.51903e-07 1.1087e-07 -2.13162e-08 
1.29213e-08 -7.32253e-07 -1.84847e-07 1.73098e-07 2.11849e-07 3.2894e-08 -6.35638e-06 1.55562e-05 -2.39263e-07 
-5.05758e-07 -1.02994e-09 1.60894e-08 1.39743e-08 3.37721e-09 7.70763e-06 -2.72644e-06 3.23161e-07 4.32206e-06 
-4.11813e-08 7.33044e-08 2.98883e-08 7.69979e-08 2.47163e-08 -4.20588e-08 1.81989e-08 6.0537e-08 4.58288e-06 
-6.46829e-07 -8.1148e-06 1.9305e-08 -1.51423e-08 6.87618e-08 5.69659e-09 1.73235e-08 -3.26719e-08 -2.6361e-08 
5.37226e-08 -4.51865e-09 -8.40922e-09 2.39453e-08 3.72189e-08 5.50051e-08 1.15938e-07 4.14655e-08 -1.51727e-08 
8.97398e-08 -2.83781e-08 -4.8937e-08 -3.44643e-08 -6.79798e-09 1.11055e-08 -7.52099e-08 -4.94359e-08 -3.9752e-09 
-1.27033e-09 -1.26231e-05 -7.07366e-06 -4.75777e-08 -4.30141e-08 7.75661e-08 8.30089e-09 3.31241e-08 7.17961e-08 
-4.00674e-08 -4.47627e-09 -4.99523e-08 -1.78556e-07 -4.4828e-07 -4.96587e-08 6.31345e-11 6.9336e-08 -1.29826e-07 
2.55646e-07 -3.66702e-08 1.11215e-08 1.66452e-08 1.17165e-08 3.29672e-08 -4.18904e-06 -5.62085e-08 -1.57285e-08 
-5.69213e-08 -3.2948e-05 -1.98597e-05 -4.60326e-05 -2.02595e-05 -1.28348e-05 6.21023e-08 -6.58972e-09 1.10877e-05 
6.92895e-06 -5.41693e-10 -3.52768e-08 1.39372e-07 5.51544e-07 2.26807e-09 -4.42951e-09 -8.01695e-08 -5.71955e-08 
-1.07979e-09 4.30975e-08 1.84979e-08 4.86055e-08 2.08408e-07 2.15174e-07 1.88952e-07 -1.62715e-08 5.87316e-09 
-1.51971e-08 -5.84976e-08 -1.95261e-08 7.10804e-08 4.12961e-08 9.64449e-09 2.46284e-06 1.06079e-05 4.85097e-07 
-1.12545e-07 -1.0934e-07 2.52719e-08 -5.84935e-08 -2.64488e-08 9.32621e-09 3.12084e-08 -1.41239e-08 -3.67887e-09 
4.57992e-08 7.45637e-07 -1.76183e-07 2.55606e-09 3.62568e-08 -1.04328e-08 -8.19291e-08 -6.92534e-08 -1.29672e-08 
2.13763e-08 -6.88919e-08 8.1665e-07 2.35188e-07 -2.86418e-08 -1.48244e-08 -1.86957e-09 2.05397e-08 5.95528e-09 
2.91004e-08 1.49749e-08 1.13386e-09 6.02235e-10 6.78986e-09 1.17089e-09 1.80607e-08 4.58913e-09 1.60087e-08 
3.07588e-08 -1.90228e-08 -4.84082e-09 -2.4744e-08 -3.73897e-08 6.65875e-08 -2.54e-08 -4.92549e-08 -9.43263e-10 
-1.6964e-08 2.20951e-08 -4.03841e-08 -1.43036e-08 2.71609e-08 2.50042e-08 7.83229e-07 5.89759e-07 2.5614e-06 
2.18673e-06 2.2269e-08 -4.02914e-09 -4.85241e-08 -8.46663e-08 -2.36977e-08 3.54915e-07 1.20192e-06 1.06313e-06 
4.53586e-08 2.43047e-08 -5.6543e-06 8.38455e-08 -3.34418e-09 -5.0314e-08 2.0867e-08 -3.92195e-08 -2.20267e-08 
-1.4039e-08 -6.09659e-08 -1.04715e-08 2.43844e-08 5.45899e-08 5.24818e-08 -1.43025e-07 -3.4861e-08 2.38653e-08 
-1.61234e-06 8.24366e-08 1.30578e-08 -4.31852e-09 4.06881e-08 -1.43567e-10 -1.25311e-08 2.5362e-08 1.69152e-07 
4.15499e-08 5.23966e-08 5.34613e-08 -1.91992e-08 0.000124858 4.54289e-05 7.5767e-06 3.26111e-08 -1.40143e-08 
-5.77541e-08 -3.39178e-08 -1.34713e-07 2.65658e-08 -6.73164e-09 -2.66002e-07 -1.20661e-07 -4.55956e-07 -1.79392e-07 
-7.59204e-08 -3.40149e-08 -3.28371e-08 -1.54001e-07 2.36297e-08 -2.46607e-08 4.21006e-09 1.68455e-09 1.02955e-08 
-1.19403e-08 -4.64877e-06 -3.34145e-08 -4.00909e-08 6.99654e-09 3.45471e-08 -1.42649e-08 -1.38992e-07 -2.58379e-08 
-3.58041e-08 1.63441e-07 8.8448e-09 2.81211e-08 1.58279e-07 1.64919e-08 3.1201e-08 1.80233e-08 1.45928e-07 
7.35774e-08 5.88365e-08 1.89134e-09 -1.21835e-08 7.15946e-08 2.69051e-08 2.01842e-08 -1.63002e-08 4.84106e-08 
2.63633e-09 3.04368e-08 4.91491e-08 -3.21021e-06 -1.41074e-05 -3.85103e-06 2.87501e-08 -5.45374e-08 5.54208e-08 
1.27883e-08 2.18025e-09 -3.37371e-07 -6.46844e-08 -1.73497e-08 1.25804e-08 2.06663e-08 -1.038e-05 -1.76497e-05 
-9.60337e-06 -8.98852e-08 -2.12888e-07 -5.8875e-08 -2.24074e-08 3.47018e-08 2.30124e-09 5.1896e-08 2.31149e-07 
-2.3853e-08 6.97473e-09 4.76272e-09 2.61534e-08 -8.63948e-06 -2.4465e-08 3.71438e-08 -4.13673e-08 -4.83385e-08 
-5.71894e-09 4.59162e-08 1.28103e-08 -4.28257e-09 -6.76387e-08 -2.97783e-07 -2.54662e-08 6.07125e-08 9.3475e-09 
2.31434e-08 1.22313e-09 1.37885e-08 3.37131e-09 -2.63099e-08 3.70547e-08 6.34678e-09 3.65003e-08 1.82757e-08 
1.4028e-05 1.15762e-05 3.98802e-05 1.16478e-05 -5.16854e-08 -1.50575e-05 -2.50997e-08 -4.00477e-08 -3.11172e-08 
1.86053e-08 -3.14202e-08 -4.81782e-08 -8.81838e-08 -3.71488e-08 -4.27018e-05 -7.26159e-05 2.30395e-09 1.90554e-08 
-4.29775e-09 -9.13303e-08 -4.48034e-08 -2.26386e-07 -7.6954e-09 5.33519e-09 3.51561e-08 4.84627e-07 -3.64158e-09 
-6.29427e-08 1.40254e-08 -9.22096e-08 1.88814e-07 5.57695e-08 -8.13931e-08 -8.14532e-09 1.57801e-08 4.43765e-08 
-2.81253e-08 1.42729e-06 1.72977e-06 -6.18289e-08 9.11177e-09 1.23719e-07 -9.27152e-08 1.89884e-08 -1.03379e-07 
4.81299e-08 -3.47326e-10 -4.67825e-08 4.73895e-08 -2.17876e-09 -1.6783e-07 -1.10088e-07 6.46677e-09 1.00061e-06 
9.40781e-07 2.58696e-07 1.68382e-07 -9.85533e-08 2.16717e-07 -1.69759e-07 2.1617e-07 -2.55323e-09 -1.05579e-10 
6.46715e-09 6.83335e-06 1.2208e-05 1.13866e-05 1.64971e-05 -5.08113e-09 -3.3555e-08 1.31835e-08 -7.83876e-09 
-5.625e-08 -2.92528e-08 -1.02103e-05 -1.7535e-06 -1.18045e-05 -2.21548e-08 3.36726e-07 -1.73639e-07 6.01677e-08 
-4.97771e-08 -2.78629e-09 1.82206e-08 -6.62317e-10 4.51682e-08 -1.29299e-07 1.83954e-08 -2.64264e-08 -1.07405e-07 
-2.78282e-07 -1.73416e-06 -7.52715e-06 2.10353e-08 -1.2401e-08 4.51173e-09 -3.0331e-09 -2.15288e-08 9.37458e-08 
1.49825e-08 -5.17684e-08 3.91118e-08 -5.75976e-08 2.75849e-06 4.74485e-06 1.17193e-07 1.06769e-07 9.22089e-08 
-1.8407e-08 3.60927e-08 -1.40097e-09 1.36279e-09 -7.54105e-10 7.67613e-08 -2.34609e-08 3.37517e-06 -1.02196e-07 
2.5608e-08 3.97332e-09 4.05194e-08 1.33217e-08 3.97377e-08 1.12921e-07 -1.51891e-07 5.90674e-07 9.20687e-07 
8.12389e-07 5.32705e-08 -8.94864e-07 -5.84339e-07 -6.27787e-07 -4.71475e-08 -4.50605e-08 -9.13924e-09 5.32706e-08 
-1.08534e-07 3.79611e-08 -1.27127e-07 -4.63096e-08 -9.14148e-07 -9.02665e-08 -6.02683e-09 5.70087e-09 -2.31393e-08 
2.00064e-09 8.78777e-09 6.32627e-07 2.09009e-06 2.73385e-10 1.43656e-09 2.31696e-08 4.97095e-09 3.54945e-08 
1.51275e-07 -1.07945e-07 -5.31333e-08 -8.99752e-09 2.89296e-08 1.87026e-06 -2.98762e-06 -2.24415e-06 -4.87357e-07 
8.67935e-09 -2.98389e-08 4.10148e-06 7.4791e-06 4.78505e-08 -3.85359e-08 -5.2881e-08 4.52235e-08 1.16572e-08 
2.93339e-06 5.29832e-09 6.79186e-08 -1.18267e-05 4.39741e-08 1.59316e-08 6.28395e-08 -8.50541e-08 -9.22507e-10 
1.25153e-08 -3.62236e-08 -1.97589e-08 8.46593e-10 -3.21136e-08 8.94392e-09 -2.03033e-08 3.84542e-08 -2.62476e-09 
-4.03649e-05 5.81652e-08 -4.67363e-08 1.41869e-07 1.22915e-07 -1.052e-07 3.76449e-07 -2.18956e-07 -5.55819e-09 
-1.96954e-08 -2.9033e-09 1.63448e-07 5.13339e-08 -4.56699e-08 5.3752e-08 -3.62761e-08 -2.39851e-08 8.65532e-10 
3.59312e-06 3.99112e-07 1.5473e-06 1.27945e-06 1.96171e-06 3.56282e-07 -3.32795e-07 -1.51887e-07 -3.67938e-09 
-1.95605e-08 1.86599e-09 2.80533e-08 -6.73385e-08 6.68007e-08 1.62895e-07 1.54761e-08 -6.21418e-08 -4.86346e-09 
1.14156e-08 2.67279e-08 -8.994e-09 -8.21698e-07 1.33832e-08 1.31231e-08 2.30809e-05 3.4689e-05 -2.41513e-09 
-5.70715e-08 -1.88447e-08 7.82717e-09 6.38164e-08 8.72573e-08 -3.42574e-08 -1.12631e-07 3.36514e-07 -3.48136e-08 
-2.02998e-08 -1.11874e-08 -2.86112e-08 1.74433e-08 -7.54633e-06 1.34195e-06 -1.32257e-05 -1.34927e-05 2.47433e-07 
-5.61439e-08 2.10198e-08 -5.82317e-08 6.57222e-09 -4.06036e-09 2.17263e-08 2.36885e-06 -3.4088e-06 1.14584e-06 
-7.02139e-07 -1.69673e-06 -2.16922e-06 3.27005e-06 1.81177e-06 2.12483e-06 -1.60539e-07 2.0401e-07 -5.6745e-09 
1.61848e-08 1.58155e-08 1.11577e-08 2.85702e-08 2.49104e-08 -9.94496e-06 -4.64494e-06 -6.67618e-06 1.42413e-08 
-1.08224e-08 4.36417e-09 -3.59924e-08 2.01182e-07 3.84986e-07 7.65118e-07 1.18527e-06 7.13466e-07 5.36552e-08 
-8.1774e-08 3.82778e-08 5.64056e-09 -1.30691e-08 -8.14596e-10 3.85387e-07 5.33024e-07 -2.45374e-07 -4.48707e-08 
-3.5946e-08 -5.38368e-08 1.47278e-07 2.36839e-09 6.36302e-08 -5.04597e-09 3.51732e-08 1.46525e-07 -3.91127e-08 
7.88112e-09 -6.68099e-09 -1.86781e-05 1.58073e-07 -1.52001e-08 1.06364e-06 -9.42575e-07 -1.99997e-06 -2.31713e-06 
-5.78815e-07 5.76795e-08 -7.17579e-08 -1.00045e-07 1.31197e-08 3.31147e-08 -1.95399e-07 -8.24589e-08 -2.15533e-06 
-1.41449e-06 -3.97979e-06 -1.48891e-06 -1.41854e-06 -8.96519e-07 -2.43694e-06 -2.99007e-06 7.76418e-08 1.63012e-08 
1.57191e-08 4.8732e-08 -3.71536e-08 -1.5248e-07 -6.25395e-07 8.37801e-07 8.96377e-07 -5.14042e-08 -3.40133e-08 
-4.71699e-08 3.35535e-07 -1.16556e-08 -6.55586e-09 4.60684e-06 5.97113e-06 3.17012e-06 6.44768e-09 -1.91367e-08 
1.47515e-08 3.30934e-09 -1.50909e-07 -3.65142e-10 -1.82626e-07 -3.17397e-06 9.60984e-09 -3.22167e-08 1.838e-07 
5.44742e-07 -5.3892e-09 4.05943e-09 6.18377e-08 3.50621e-09 9.42125e-08 4.01203e-06 -2.40063e-06 -2.99726e-05 
-6.28868e-06 1.00998e-07 2.31104e-07 5.60572e-07 1.35616e-07 -4.92808e-06 -5.12542e-06 -7.34881e-06 -4.01326e-06 
1.2541e-06 2.96792e-08 -1.99361e-08 -1.3215e-06 -8.10085e-06 -4.39926e-06 -6.58142e-06 -9.30697e-06 -2.84164e-05 
-3.65201e-05 8.66811e-09 -1.3144e-07 2.45099e-05 4.29866e-06 1.50985e-05 8.28449e-08 -2.79038e-06 8.48106e-06 
7.55795e-09 -1.51139e-07 -5.45762e-05 5.58492e-08 -9.00043e-09 2.08803e-08 -3.88307e-08 4.85993e-08 -7.11099e-08 
-5.40087e-08 1.4549e-07 -2.17146e-07 1.01534e-06 -5.31792e-08 3.07032e-06 2.53677e-06 -1.50807e-05 -2.24962e-07 
4.36137e-07 2.6121e-06 7.34086e-07 5.38292e-07 -4.45958e-10 -5.38521e-09 7.04266e-07 4.12367e-06 -2.49414e-08 
-1.1424e-08 -6.89073e-06 -2.5249e-07 -4.46072e-06 1.92761e-08 -4.56456e-09 2.21766e-07 2.37806e-06 9.21886e-08 
-4.05011e-05 -4.87991e-06 -7.79523e-08 9.60603e-09 8.98583e-07 -1.16276e-05 -1.31267e-08 -7.61683e-08 -6.68501e-08 
1.48206e-07 -1.87227e-07 -3.93469e-08 -3.22166e-08 -1.86873e-05 -8.52082e-07 3.07518e-07 -6.39022e-08 1.57598e-08 
-1.21688e-08 -9.05492e-09 -7.98164e-06 -2.44438e-06 4.33246e-09 -7.7604e-08 -3.59473e-08 -5.98112e-08 -5.18616e-05 
5.95798e-08 -8.25459e-07 2.17466e-07 4.53295e-07 1.95116e-06 7.14698e-08 -5.26954e-08 -1.15553e-08 6.99384e-08 
5.15281e-09 -6.81105e-06 -9.41331e-06 5.31253e-08 -3.59631e-08 -1.90277e-06 4.084e-07 4.96979e-07 2.49707e-07 
7.53625e-08 8.05737e-08 1.68292e-07 -1.54493e-07 -2.20966e-06 -1.44832e-06 3.09726e-08 -1.71709e-07 -2.7768e-08 
1.48438e-08 1.09061e-07 1.2372e-08 -1.751e-08 -3.24813e-08 9.41232e-08 -8.23351e-09 -6.2471e-09 -1.91724e-08 
-2.53942e-08 1.05568e-08 2.27614e-07 -6.3773e-05 3.61406e-08 1.79298e-08 -6.47729e-08 -1.78047e-08 -5.94015e-08 
4.04947e-08 -3.42127e-08 -2.01139e-08 1.3709e-08 -1.06866e-07 2.13999e-08 -5.03147e-09 -2.54196e-08 -1.72015e-08 
3.3944e-08 -1.67742e-08 -4.66831e-09 -4.91161e-09 -7.45878e-08 -1.0727e-06 -1.27201e-06 -4.05007e-08 
Strain%20zz%20component 1 3545 double
-0.00157244 -4.06213e-05 -2.67456e-05 -0.00255273 -7.11722e-05 -0.000101751 0.000137099 -7.05354e-05 -0.000101773 
0.000136907 -0.00101987 -0.000859305 -0.000421316 -0.000172243 -0.0012636 -0.000905183 -0.000615661 -0.000283244 
-0.00010702 -3.35817e-05 -0.00198307 -0.00095239 -0.000458595 -0.000171898 -0.00222812 -0.00134029 -0.000714133 
-0.000306058 -9.7824e-05 -0.00216288 -5.5333e-05 -9.27767e-05 -0.000215539 -0.000361228 -0.000312268 -0.000238612 
-0.000190723 -0.000155306 -0.00014001 -0.000131964 -0.000122065 -0.000112043 -0.000102629 -9.37667e-05 -8.62128e-05 
-7.98857e-05 -7.52366e-05 -7.20637e-05 -7.1072e-05 -4.6056e-05 -7.75665e-05 -0.000137028 -0.00032597 -0.000353106 
-0.000270434 -0.000216984 -0.000172199 -0.000145357 -0.000136414 -0.00012701 -0.000116989 -0.000107305 -9.81023e-05 
-8.98123e-05 -8.28355e-05 -7.73307e-05 -7.34102e-05 -7.13068e-05 -7.11781e-05 -0.000100936 -9.84658e-05 -9.46704e-05 
-9.00039e-05 -8.47682e-05 -7.96169e-05 -7.50994e-05 -7.20985e-05 -7.10551e-05 -0.000101553 -9.98099e-05 -9.67284e-05 
-9.24917e-05 -8.74919e-05 -8.21525e-05 -7.7196e-05 -7.34357e-05 -7.13239e-05 -7.11677e-05 7.65214e-05 3.64852e-05 
6.03594e-06 -1.55393e-05 -3.14625e-05 -4.41393e-05 -5.43039e-05 -6.19223e-05 -6.8443e-05 -7.4045e-05 -7.90706e-05 
-8.40466e-05 -8.9196e-05 -9.48982e-05 0.000105339 5.63479e-05 2.09609e-05 -4.92839e-06 -2.39156e-05 -3.82583e-05 
-4.93901e-05 -5.8177e-05 -6.54103e-05 -7.13211e-05 -7.65923e-05 -8.15416e-05 -8.66535e-05 -9.21093e-05 -9.82917e-05 
0.000127489 9.84902e-05 5.50863e-05 -3.43051e-06 -6.79751e-05 -0.000194218 -0.00120006 0.000134985 0.000115704 
7.83507e-05 2.93781e-05 -3.68354e-05 -0.000134113 -0.000682355 -0.00143456 -4.24805e-05 -8.85735e-05 -0.00022139 
-0.000404617 -0.00030608 -0.000234803 -0.00017888 -0.000150097 -0.000139856 -0.000131786 -0.000122185 -0.000112116 
-0.000102287 -9.39346e-05 -8.62877e-05 -7.99712e-05 -7.50889e-05 -7.21319e-05 -7.0929e-05 -3.15154e-05 -6.37039e-05 
-0.000143973 -0.000326785 -0.000360544 -0.000267961 -0.000206236 -0.000164656 -0.000144621 -0.00013603 -0.000127003 
-0.000117204 -0.000107147 -9.80974e-05 -9.00338e-05 -8.29981e-05 -7.75966e-05 -7.36035e-05 -7.14386e-05 -7.08092e-05 
-7.08321e-05 -0.00010088 -9.84931e-05 -9.48411e-05 -9.0064e-05 -8.48483e-05 -7.95757e-05 -7.5193e-05 -7.21973e-05 
-7.09118e-05 -0.000101451 -9.97513e-05 -9.66186e-05 -9.25002e-05 -8.74321e-05 -8.21881e-05 -7.72372e-05 -7.36698e-05 
-7.14769e-05 -7.07784e-05 8.00197e-05 3.58978e-05 6.5375e-06 -1.51737e-05 -3.18812e-05 -4.44835e-05 -5.39618e-05 
-6.20566e-05 -6.85109e-05 -7.40134e-05 -7.90632e-05 -8.39692e-05 -8.91419e-05 -9.50938e-05 0.000107412 5.69048e-05 
2.10759e-05 -4.87966e-06 -2.34755e-05 -3.84952e-05 -4.92384e-05 -5.80934e-05 -6.52652e-05 -7.12974e-05 -7.65674e-05 
-8.14824e-05 -8.65969e-05 -9.2091e-05 -9.83822e-05 0.000126389 9.97503e-05 5.21367e-05 -3.44936e-06 -5.7156e-05 
-7.11137e-05 -0.000875708 0.00013364 0.00011165 7.73545e-05 2.5304e-05 -3.27832e-05 -8.66003e-05 -0.000390214 
-0.00179626 0.000138024 -0.000101763 -9.77149e-05 -0.00203377 -0.00146189 -0.000700968 -0.000270137 -0.00178443 
-0.00231047 -0.00146063 -6.24593e-05 -6.94948e-05 -0.000134993 -0.000134275 -0.00204467 -0.00113688 -0.00118386 
-0.00157806 -0.00171497 -0.000548208 -0.000793267 -0.0009675 -0.00119683 -0.000828648 -0.000215464 -0.000326301 
-0.000426465 -0.000549291 -0.000362958 -0.000171208 -0.00022157 -6.38057e-05 -7.86553e-05 -0.000100417 -8.76023e-05 
-6.12688e-05 -8.2655e-05 -8.01817e-05 -0.000209116 -4.70461e-06 -0.00010732 -7.12559e-05 -8.69705e-05 -3.47266e-05 
-3.14592e-05 -8.24448e-05 -0.000105733 -7.62041e-05 -7.139e-05 -0.000149584 -9.33694e-05 -7.75799e-05 -8.28549e-05 
-7.57787e-05 -9.01543e-05 -7.20867e-05 -0.000137525 -9.7942e-05 -6.01968e-05 -8.07906e-05 -7.78534e-05 -0.000300279 
-8.51501e-05 -8.70115e-05 -7.90661e-05 -8.23408e-05 -0.000539153 -5.3378e-05 -4.70993e-05 -5.22418e-06 3.90694e-05 
-4.02375e-05 2.14565e-05 -8.35933e-05 -6.88245e-05 -0.000122786 -0.000244415 -0.000106198 -8.33437e-05 -7.82055e-05 
-4.21279e-05 -7.13261e-05 -8.77674e-05 -3.05046e-05 -0.000101501 -8.00885e-05 -0.000112879 -0.000133796 -0.000114798 
-8.20703e-05 -8.2134e-05 -7.52528e-05 -2.70113e-05 -5.04784e-05 -7.39641e-05 -8.56327e-05 -0.00019852 -9.96413e-05 
-0.000509015 -9.43682e-05 -6.55858e-05 -7.82084e-05 -9.38795e-05 -6.91427e-05 -7.29695e-07 -8.10054e-05 -9.15354e-05 
-7.60579e-05 -0.000134122 -0.000119088 -1.59163e-05 -7.94513e-05 -9.40304e-05 -7.30726e-05 -7.91304e-05 -8.15006e-05 
2.2345e-05 -6.13337e-05 -9.65531e-05 -9.01444e-05 -5.23579e-05 -5.49568e-05 -7.55702e-05 -6.63632e-05 -7.94683e-05 
-7.23048e-05 -8.17523e-05 -8.07999e-05 -7.83899e-05 -8.63053e-05 -0.000235397 -0.000212016 -5.62611e-05 -8.1576e-05 
-7.5717e-05 -4.68214e-05 -8.39731e-05 -0.000177129 -8.47296e-05 -4.68406e-05 -8.75338e-05 -7.5128e-05 -7.40877e-05 
-8.10654e-05 -0.000116107 -0.000171659 -7.93107e-05 -0.000176353 -0.000106208 -9.51583e-05 6.39712e-05 -8.38509e-05 
-6.10651e-05 -8.00792e-05 -0.000385888 -0.000375083 -0.000119253 -9.19794e-05 -8.16441e-05 -7.89949e-05 -0.00118611 
-3.851e-05 -1.43232e-05 -1.04856e-05 8.32495e-05 2.12455e-05 -0.000118257 -7.8239e-05 -5.85962e-05 9.98722e-06 
-0.000258281 -8.25219e-05 -8.99038e-05 -7.83031e-05 -7.96588e-05 -2.57682e-05 -7.98973e-05 -0.00097379 -8.07721e-05 
-0.00031998 4.69361e-05 -6.79061e-05 -0.000294714 -6.76207e-05 -4.29525e-05 -0.00010219 -4.03268e-05 -9.08566e-05 
-6.22131e-05 -0.000116407 -6.04385e-05 -0.000134692 -2.04875e-05 -8.65501e-05 5.13069e-05 -0.000119037 -0.000122222 
-7.99104e-05 -9.45533e-05 -7.37624e-05 -8.62e-05 -8.17774e-05 -8.52779e-05 -9.71321e-05 -0.000102439 -6.98695e-05 
-8.44283e-05 -0.000110386 -7.46611e-05 -8.03098e-05 -7.16483e-05 -7.75874e-05 -6.34439e-05 -5.61833e-05 -0.000110813 
-0.00027649 -9.91257e-06 -6.69643e-06 -2.60838e-05 -0.000146515 -0.000266839 -7.27007e-05 -7.13728e-05 6.91468e-06 
-0.000129427 -9.35478e-05 -8.9266e-05 -8.01253e-05 -8.07797e-05 -8.92431e-05 -4.59327e-05 -9.12175e-05 -7.30396e-05 
-0.000113335 -8.43561e-05 -9.76893e-05 -7.15801e-05 -8.97006e-05 -0.00137442 -0.00113471 -0.00124435 -0.000171763 
-0.000107116 -0.000114455 -7.14186e-05 -7.13774e-05 -7.13622e-05 -9.96559e-05 -9.62716e-05 -9.93528e-05 8.10643e-05 
0.000108368 0.000105082 -0.000980072 -0.00088035 -0.00112924 -0.000634612 -0.00048149 -0.000735793 -0.000369216 
-0.000250468 -0.000395128 -0.000251725 4.36804e-05 6.39721e-05 6.76949e-05 6.5949e-06 2.1315e-05 3.6655e-05 
3.05198e-05 1.47538e-05 -1.2947e-05 -2.03298e-06 -1.94859e-06 -2.89111e-05 -2.0777e-05 -1.88411e-05 -4.13634e-05 
-3.49972e-05 -3.28405e-05 -5.31777e-05 -4.81982e-05 -4.56256e-05 -6.02998e-05 -5.64209e-05 -5.54802e-05 -6.69727e-05 
-6.3686e-05 -6.21097e-05 -7.26681e-05 -6.98949e-05 -6.8503e-05 -7.73337e-05 -7.48742e-05 -7.35921e-05 -8.19106e-05 
-7.94971e-05 -7.78271e-05 -8.84499e-05 -8.57752e-05 -8.5403e-05 -8.36958e-05 -8.16473e-05 -9.31067e-05 -9.01852e-05 
-8.93753e-05 -9.43984e-05 9.28849e-05 8.01185e-05 7.38604e-05 7.12371e-05 5.17037e-05 5.75784e-05 1.96792e-05 
-4.78287e-06 2.21368e-05 2.67321e-05 -4.31054e-06 -3.03568e-05 -6.11313e-05 -3.26519e-05 -8.023e-05 -0.000139022 
-7.71808e-05 -0.000270857 -0.000808202 -0.000210632 -0.000767621 -9.65583e-05 -9.76253e-05 -9.43114e-05 -9.73687e-05 
-9.58486e-05 -9.32066e-05 -9.48646e-05 -9.30482e-05 -9.00028e-05 -9.22195e-05 -9.0679e-05 -8.53607e-05 -8.76337e-05 
-8.77462e-05 -8.0713e-05 -8.29796e-05 -8.36036e-05 -7.67408e-05 -7.88277e-05 -7.9921e-05 -7.41801e-05 -7.55605e-05 
-7.72009e-05 -7.22425e-05 -7.29007e-05 -7.49229e-05 -7.34144e-05 -7.20566e-05 -7.2301e-05 -0.000107058 -0.000121455 
-0.000163347 -0.000152593 -0.000194464 -0.000180147 -0.000250601 -0.000310245 -0.000237696 -0.000314064 -0.000292599 
-0.000264444 -0.000297194 -0.000254408 -0.000249974 -0.000221049 -0.000231382 -0.000207546 -0.000184602 -0.000188727 
-0.000157291 -0.000144583 -0.000153829 -0.000159924 -0.000133337 -0.00013737 -0.000134992 -0.000131021 -0.00013259 
-0.00012506 -0.000120407 -0.000118668 -0.00012547 -0.000124276 -0.000117661 -0.000113017 -0.00011575 -0.000106992 
-0.000102565 -0.000104418 -0.00010915 -0.000109713 -9.82746e-05 -9.43265e-05 -9.83255e-05 -9.14761e-05 -8.78964e-05 
-9.1891e-05 -8.5086e-05 -8.20591e-05 -8.64894e-05 -7.98987e-05 -7.75574e-05 -8.16512e-05 -7.51496e-05 -7.35871e-05 
-7.67191e-05 -7.68316e-05 -7.87982e-05 -7.24904e-05 -7.18588e-05 -7.40883e-05 -7.22854e-05 -7.06014e-05 -6.24771e-05 
-7.17161e-05 -7.11286e-05 -7.90348e-05 -7.53375e-05 -6.81427e-05 -6.19948e-05 -6.63541e-05 -5.34048e-05 -5.537e-05 
-5.40391e-05 -8.07463e-05 -7.87087e-05 -8.03657e-05 -7.98421e-05 -8.13821e-05 -7.64124e-05 -7.46951e-05 -7.69935e-05 
-7.64357e-05 -7.81211e-05 -8.01265e-05 -7.90386e-05 -7.86022e-05 -7.66172e-05 -8.9756e-05 -9.06517e-05 -0.000101075 
-0.000110105 -0.000109697 -7.65286e-05 -8.7296e-05 -9.7631e-05 -8.46759e-05 -0.000124645 -0.00010887 -0.000116953 
-0.000126952 -0.000105771 -8.48267e-05 -7.99672e-05 -8.29376e-05 -8.04536e-05 -8.49912e-05 -9.20282e-05 -9.54012e-05 
-9.05117e-05 -8.78174e-05 -8.9217e-05 -9.33628e-05 -8.64347e-05 -6.13055e-05 -5.58834e-05 -5.60646e-05 -5.27361e-05 
-5.81652e-05 -6.53221e-05 -6.50814e-05 -6.45351e-05 -6.83986e-05 -5.86636e-05 -6.1769e-05 -6.51048e-05 -8.11181e-05 
-8.13228e-05 -8.23852e-05 -8.35696e-05 -8.30891e-05 -7.98274e-05 -8.1106e-05 -8.05526e-05 -8.21393e-05 -8.38932e-05 
-8.57788e-05 -8.44702e-05 -8.53413e-05 -8.34699e-05 -8.07225e-05 -8.10176e-05 -8.0503e-05 -8.04364e-05 -8.00024e-05 
-7.86347e-05 -7.96062e-05 -7.93155e-05 -7.91611e-05 -8.13924e-05 -8.07211e-05 -8.03056e-05 -0.000157718 -0.000118364 
-0.000149297 -0.000135064 -0.000185516 -0.000244386 -0.000169446 -0.000225128 -0.000250953 -0.000320612 -0.000300735 
-0.000323596 2.66202e-06 7.96838e-06 -9.54086e-06 -1.51724e-05 -2.10537e-05 2.33412e-06 -2.79029e-06 -9.69602e-06 
-1.97658e-05 1.56946e-05 -0.000112861 -0.000110256 -0.000104545 -9.59436e-05 -9.92855e-05 -0.000105034 -0.000109029 
-0.000103392 -0.000100383 -9.65425e-05 -0.00011474 -0.000120679 -9.22536e-05 -0.000116362 -7.51553e-05 -7.29618e-05 
-7.34364e-05 -7.19621e-05 -7.40637e-05 -6.69313e-05 -6.94288e-05 -6.88614e-05 -7.14102e-05 -6.90175e-05 -7.02073e-05 
-7.31515e-05 -8.56595e-05 -8.45582e-05 -8.58486e-05 -8.68299e-05 -8.81286e-05 -8.93217e-05 -8.68051e-05 -8.94652e-05 
-9.06197e-05 -8.54819e-05 -3.49505e-05 -3.90177e-05 -3.02746e-05 -2.76873e-05 -2.36516e-05 -4.6852e-05 -4.31149e-05 
-4.54665e-05 -3.76503e-05 -3.33947e-05 -3.04266e-05 -2.31148e-05 -3.14079e-06 -1.91975e-05 -1.68219e-05 -3.8188e-05 
-2.49366e-05 -3.15965e-05 -3.90441e-05 -2.29772e-05 -1.13472e-05 -5.10508e-05 -4.35114e-05 -5.08846e-05 -8.2074e-05 
-8.39693e-05 -8.31431e-05 -8.47899e-05 -8.16362e-05 -8.09141e-05 -8.16859e-05 -8.1434e-05 -8.21457e-05 -8.1084e-05 
-8.27379e-05 -9.79736e-05 -0.000103942 -9.94858e-05 -0.000101381 -9.54687e-05 -0.000114788 -0.000108018 -0.000112387 
-0.00010848 -0.000114854 -0.00010649 -0.000103648 -7.36354e-05 -7.27976e-05 -7.71141e-05 -7.91577e-05 -7.20134e-05 
-7.51313e-05 -7.77584e-05 -7.9639e-05 -7.8111e-05 -7.13736e-05 -8.12851e-05 -7.02658e-05 -7.48327e-05 -7.65245e-05 
-6.62342e-05 -6.74636e-05 -6.22858e-05 -7.70114e-05 -7.17245e-05 -6.76698e-05 -0.000160416 -0.000130564 -0.0001174 
-0.000134365 -0.000144133 -0.000165754 -0.00017574 -0.00020397 -0.000200554 -0.00018948 -0.000107871 -0.00010717 
-9.44129e-05 -0.000107335 -0.000114916 -0.000110008 -9.36217e-05 -9.56379e-05 -7.63208e-05 -6.33652e-05 -8.14661e-05 
-8.26029e-05 -8.24941e-05 -7.96173e-05 -8.04081e-05 -7.87192e-05 -7.35302e-05 -7.66068e-05 -7.45937e-05 -7.51573e-05 
-7.20339e-05 -7.85806e-05 -7.75276e-05 -7.6503e-05 -8.34506e-05 -8.60688e-05 -8.5308e-05 -8.6293e-05 -8.37939e-05 
-8.30759e-05 -8.21418e-05 -8.09326e-05 -8.16268e-05 -8.15118e-05 -7.99187e-05 -7.54074e-05 -7.69136e-05 -7.85291e-05 
-7.73947e-05 -7.71088e-05 -7.72976e-05 -7.59547e-05 -7.47724e-05 -7.44493e-05 -7.31334e-05 -7.44462e-05 -8.89118e-05 
-8.8124e-05 -9.08936e-05 -9.22993e-05 -9.21288e-05 -9.07964e-05 -9.26297e-05 -8.76579e-05 -8.6412e-05 -8.88744e-05 
-7.54476e-05 -8.66576e-05 -8.16433e-05 -6.65176e-05 -7.62102e-05 -8.50994e-05 -5.42421e-05 -5.95022e-05 -6.41473e-05 
-6.80176e-05 -0.000157298 -0.000135621 -0.00012868 -0.000128734 -0.000136639 -0.000166729 -0.000128292 -0.00011938 
-0.000101366 -9.74313e-05 -0.00010198 -0.000102033 -0.000106232 -9.47447e-05 -9.31605e-05 -9.63804e-05 -0.000100308 
-9.39496e-05 -9.10805e-05 -5.92983e-05 -6.2883e-05 -6.64724e-05 -6.40605e-05 -5.74236e-05 -5.32428e-05 -5.61161e-05 
-6.11228e-05 -6.331e-05 -6.42623e-05 -8.0903e-05 -8.0935e-05 -8.12283e-05 -8.08261e-05 -8.02446e-05 -8.01036e-05 
-8.07981e-05 -8.09659e-05 -8.12696e-05 -7.89688e-05 -7.97248e-05 -7.86796e-05 -7.7719e-05 -7.85195e-05 -7.66983e-05 
-7.63729e-05 -7.61287e-05 -0.000473155 -0.000352817 -0.000425934 -0.000320387 -0.0002979 -0.000255442 -0.000245898 
-0.000217725 -0.0002469 -8.32073e-05 -8.98252e-05 -9.10672e-05 -7.87539e-05 -8.1766e-05 -8.72469e-05 -8.40132e-05 
-9.35345e-05 -8.53178e-05 -8.6405e-05 -8.84335e-05 -8.67407e-05 -8.91488e-05 -8.5685e-05 -8.40976e-05 -7.87357e-05 
-7.7633e-05 -7.86732e-05 -8.02375e-05 -7.99634e-05 -7.95218e-05 -8.0356e-05 -8.15878e-05 -8.23802e-05 -8.32747e-05 
-8.33154e-05 -8.15707e-05 -8.34268e-05 -8.20813e-05 -0.000475661 -0.0002393 -0.000339414 -0.000175542 -0.000423903 
-0.000466597 -0.000573018 -0.000757193 -0.000805232 -5.74566e-05 -5.18326e-05 -4.67454e-05 -5.8513e-05 -4.3025e-05 
-5.01954e-05 -5.6771e-05 -6.18881e-05 -5.11095e-05 -4.96497e-05 -4.2748e-05 -4.9088e-05 -4.49221e-05 -4.04089e-05 
2.30277e-06 1.60912e-05 7.71993e-06 8.51941e-07 -9.59887e-06 -1.59134e-05 -2.02652e-05 -1.54151e-05 -1.28719e-05 
-7.71787e-06 2.49756e-05 3.09898e-05 4.5213e-05 6.0278e-05 5.13109e-05 3.05947e-05 4.1698e-05 -4.34676e-05 
-2.85692e-05 -3.31676e-05 -5.06925e-05 -4.32568e-05 -3.66203e-05 3.38201e-05 1.02907e-05 6.73249e-06 2.11813e-05 
1.46176e-06 4.28271e-05 -8.12981e-05 -8.28086e-05 -8.42748e-05 -8.51754e-05 -8.18689e-05 -8.31383e-05 -8.67406e-05 
-8.82715e-05 -6.55437e-05 -6.75937e-05 -7.02159e-05 -6.83494e-05 -7.1576e-05 -7.28523e-05 -0.000116595 -0.000120967 
-0.0001261 -0.000129262 -0.000122657 -0.000129554 -0.000200204 -0.000229525 -0.000257964 -0.000274373 -0.000240456 
-0.000104384 -9.94339e-05 -0.000109759 -0.000114559 -0.000108499 -0.00011211 -8.43335e-05 -7.91943e-05 -7.96704e-05 
-2.68112e-05 -2.16795e-05 -4.42403e-05 -5.62171e-05 -4.76252e-05 -5.72492e-05 -6.94187e-05 -6.84098e-05 -7.13372e-05 
-8.84945e-05 -9.08651e-05 -9.16666e-05 -8.85779e-05 -2.79695e-05 -3.88204e-05 -3.53619e-05 -2.24775e-05 -2.81106e-05 
-8.51075e-05 -8.67468e-05 -9.16237e-05 -0.000129421 -8.19394e-05 -8.29209e-05 -8.14159e-05 -8.04293e-05 -7.34859e-05 
-7.48882e-05 -6.50772e-05 -7.19121e-05 -6.01038e-05 -9.85227e-05 -9.4641e-05 -3.58383e-05 -7.09057e-05 -6.37298e-05 
-0.000123371 -0.000350521 -0.000368816 -0.000265779 -0.000163354 -0.000209327 -0.000143679 -0.000136078 -0.000126979 
-0.000117049 -0.000107259 -9.8001e-05 -8.97549e-05 -8.28699e-05 -7.72839e-05 -7.33877e-05 -7.1384e-05 -3.9001e-05 
-3.07786e-05 -4.46817e-05 -3.88636e-05 -7.07341e-05 -7.10637e-05 -7.1032e-05 -7.09458e-05 -7.89801e-05 -5.95508e-05 
-4.87924e-05 -5.46851e-05 -0.000157642 -0.000103693 -7.5658e-05 -9.02422e-05 -0.000105664 -0.000363379 -0.000291575 
-0.000172013 -0.000213503 -0.000282269 -0.000341759 -0.000370278 -0.000376628 -0.000387047 -0.000386767 -0.000250084 
-0.000288836 -0.000336133 -0.000308832 -0.000283891 -0.000201014 -0.000223932 -0.0002496 -0.000235456 -0.000221023 
-0.000158826 -0.000177211 -0.000170747 -0.000185797 -0.000194185 -0.000141524 -0.000148603 -0.000155393 -0.000152327 
-0.000146705 -0.000134068 -0.000138394 -0.000141937 -0.000140107 -0.000138013 -0.00012454 -0.000129451 -0.000133952 
-0.000131796 -0.000129384 -0.000114644 -0.000119554 -0.000124629 -0.000122077 -0.000119611 -0.000104897 -0.000109475 
-0.000114599 -0.000112065 -0.000109688 -9.57904e-05 -0.00010043 -0.000104797 -0.00010255 -0.000100113 -8.79381e-05 
-9.17221e-05 -9.59336e-05 -9.38081e-05 -9.18803e-05 -8.12872e-05 -8.45258e-05 -8.81246e-05 -8.62637e-05 -8.45466e-05 
-7.62369e-05 -7.8479e-05 -8.13649e-05 -7.98259e-05 -7.85741e-05 -7.26866e-05 -7.43258e-05 -7.61674e-05 -7.51739e-05 
-7.41874e-05 -7.12033e-05 -7.1631e-05 -7.26954e-05 -7.20944e-05 -7.16858e-05 -7.10659e-05 -7.11216e-05 -6.4271e-05 
-7.86301e-05 -9.98243e-05 -8.79732e-05 -6.15e-05 -8.26138e-05 -8.01709e-05 -0.000182318 -4.61469e-06 -0.000106803 
-7.11082e-05 -8.71152e-05 -3.4744e-05 -3.13093e-05 -8.25238e-05 -0.000105813 -7.59245e-05 -7.10077e-05 -0.000158186 
-8.95697e-05 -7.75698e-05 -8.31007e-05 -7.5728e-05 -9.02128e-05 -7.11086e-05 -0.000136175 -9.77113e-05 -5.98693e-05 
-8.09467e-05 -7.78156e-05 -0.000264577 -8.55304e-05 -8.70545e-05 -7.91624e-05 -8.23296e-05 -0.000430455 -5.30644e-05 
-4.71068e-05 -5.73735e-06 4.29457e-05 -4.01335e-05 2.01501e-05 -8.34123e-05 -6.86699e-05 -0.000122242 -0.000242078 
-0.000106748 -8.33587e-05 -7.8072e-05 -4.17219e-05 -7.14159e-05 -8.74854e-05 -3.05991e-05 -0.000100768 -8.03446e-05 
-0.000105337 -0.000134623 -0.000100979 -8.20553e-05 -8.21595e-05 -7.52706e-05 -2.66512e-05 -5.08328e-05 -7.40471e-05 
-8.55403e-05 -0.000195988 -0.000100143 -0.000584066 -9.45106e-05 -6.54769e-05 -7.82852e-05 -9.3366e-05 -6.94496e-05 
9.5208e-08 -8.08333e-05 -9.1723e-05 -7.60302e-05 -0.0001251 -0.000118736 -1.60646e-05 -7.95004e-05 -9.40567e-05 
-7.29997e-05 -7.93941e-05 -8.1583e-05 2.31602e-05 -6.13158e-05 -9.63137e-05 -9.0149e-05 -5.22502e-05 -5.47106e-05 
-7.54906e-05 -6.63436e-05 -7.93529e-05 -7.17782e-05 -8.17649e-05 -8.0813e-05 -7.83703e-05 -8.61805e-05 -0.000262646 
-0.000202169 -5.27797e-05 -8.14627e-05 -7.57026e-05 -4.64797e-05 -8.38907e-05 -0.000168243 -8.48863e-05 -4.63245e-05 
-8.75895e-05 -7.50526e-05 -7.42124e-05 -8.11015e-05 -0.00010573 -0.000164187 -8.00015e-05 -0.000160437 -0.00010609 
-9.2267e-05 6.4468e-05 -8.38729e-05 -6.12211e-05 -8.03803e-05 -0.000130211 -0.000337061 -0.000116443 -9.16315e-05 
-8.17366e-05 -7.90071e-05 -0.00114324 -3.88696e-05 -1.40354e-05 -1.09774e-05 8.44199e-05 2.10663e-05 -0.000118415 
-7.83104e-05 -5.89017e-05 9.47151e-06 -0.000179813 -8.28337e-05 -8.97594e-05 -7.80569e-05 -7.95283e-05 -2.70917e-05 
-7.99096e-05 -0.00111444 -8.08327e-05 -0.000335276 5.06879e-05 -6.80574e-05 -0.000264623 -6.76295e-05 -4.29222e-05 
-0.000102206 -4.01724e-05 -9.04634e-05 -6.23688e-05 -0.000108349 -6.04197e-05 -0.000133288 -2.11274e-05 -8.6618e-05 
5.25623e-05 -0.000117426 -0.00011979 -7.98913e-05 -9.46755e-05 -7.36278e-05 -8.51012e-05 -8.16113e-05 -8.52684e-05 
-9.68228e-05 -0.000102396 -6.76363e-05 -8.43359e-05 -0.000110355 -7.4852e-05 -8.0292e-05 -7.15777e-05 -7.75463e-05 
-6.2932e-05 -5.58754e-05 -0.00011066 -0.000273084 -8.06838e-06 -6.01795e-06 -2.61052e-05 -0.000140355 -0.000261061 
-7.27496e-05 -7.13781e-05 6.58725e-06 -0.000129126 -9.34819e-05 -8.908e-05 -8.01358e-05 -8.08156e-05 -8.92325e-05 
-4.62369e-05 -9.12762e-05 -7.28766e-05 -0.000113285 -8.43838e-05 -9.77338e-05 -7.1659e-05 -8.93312e-05 -9.7041e-05 
-0.000164046 -0.000102121 -0.00185199 -0.000989823 -0.00163138 -7.13116e-05 -7.10972e-05 -7.13118e-05 -9.97575e-05 
-9.93834e-05 -9.63837e-05 0.000105785 0.000110468 8.25319e-05 8.22274e-05 9.46121e-05 7.71077e-05 5.33522e-05 
7.57711e-05 5.9185e-05 -5.06521e-06 2.08311e-05 2.50498e-05 2.60285e-05 -3.88766e-06 -5.52735e-05 -2.97356e-05 
-3.03189e-05 -0.000102466 -7.39318e-05 -7.09291e-05 -0.000466987 -0.000103554 -0.000113131 -0.000574953 -9.76737e-05 
-9.66274e-05 -9.74167e-05 -9.43555e-05 -9.59477e-05 -9.49909e-05 -9.32738e-05 -9.32118e-05 -9.22332e-05 -9.00233e-05 
-9.07653e-05 -8.75886e-05 -8.53374e-05 -8.7687e-05 -8.2921e-05 -8.0667e-05 -8.36397e-05 -7.87408e-05 -7.66789e-05 
-7.97619e-05 -7.55668e-05 -7.41197e-05 -7.70365e-05 -7.28771e-05 -7.22267e-05 -7.48059e-05 -7.20361e-05 -7.33381e-05 
-7.23787e-05 -0.00108547 -0.00145097 -0.00121632 -0.000536845 -0.000780362 -0.000823302 -0.000259316 -0.000390586 
-0.00045386 -0.000244017 -0.000111206 -9.39336e-05 -0.000152242 -0.000197941 -0.000146172 -0.000167011 -0.000330296 
-0.000250962 -0.00023768 -0.000287527 -0.000331219 -0.000341895 -0.000282063 -0.00026318 -0.000217433 -0.000247383 
-0.000226606 -0.000174992 -0.000200958 -0.000183143 -0.000141542 -0.000152345 -0.000155489 -0.000149729 -0.000133002 
-0.000137717 -0.000130756 -0.000134387 -0.000131715 -0.000120441 -0.000125019 -0.000125433 -0.000118655 -0.000123959 
-0.000112994 -0.000117624 -0.000115806 -0.000102481 -0.000106965 -0.00010915 -0.000104412 -0.000109586 -9.43019e-05 
-9.82919e-05 -9.83779e-05 -8.78193e-05 -9.13716e-05 -9.17291e-05 -8.19544e-05 -8.49622e-05 -8.64109e-05 -7.7346e-05 
-7.97699e-05 -8.15665e-05 -7.35995e-05 -7.50159e-05 -7.67027e-05 -7.66251e-05 -7.87197e-05 -7.18562e-05 -7.24793e-05 
-7.39229e-05 -7.22836e-05 6.57434e-05 4.41062e-05 6.74782e-05 2.13015e-05 6.5624e-06 3.07551e-05 3.71528e-05 
1.50514e-05 -2.16529e-06 -1.30598e-05 -2.32792e-06 -2.07826e-05 -2.89219e-05 -1.91259e-05 -3.52222e-05 -4.14897e-05 
-3.29235e-05 -4.82224e-05 -5.30542e-05 -4.58943e-05 -5.64663e-05 -6.04325e-05 -5.55614e-05 -6.37174e-05 -6.69435e-05 
-6.22642e-05 -6.99718e-05 -7.26867e-05 -6.84952e-05 -7.48615e-05 -7.73775e-05 -7.35633e-05 -7.94852e-05 -8.19157e-05 
-7.78271e-05 -8.57874e-05 -8.84005e-05 -8.37073e-05 -8.54734e-05 -8.16836e-05 -9.01884e-05 -9.31782e-05 -8.93833e-05 
-9.43952e-05 -7.19466e-05 -6.25124e-05 -7.11456e-05 -7.91593e-05 -7.14851e-05 -6.8196e-05 -7.48154e-05 -6.6241e-05 
-6.24848e-05 -5.5475e-05 -5.30153e-05 -5.36587e-05 -8.02626e-05 -7.90091e-05 -8.08996e-05 -8.14752e-05 -7.97106e-05 
-7.70287e-05 -7.46246e-05 -7.67348e-05 -7.79025e-05 -7.64714e-05 -7.9006e-05 -8.01754e-05 -7.86174e-05 -7.67181e-05 
-0.000100251 -9.07438e-05 -8.98954e-05 -0.000108883 -0.000108683 -8.71885e-05 -7.67327e-05 -8.36731e-05 -9.60227e-05 
-0.000113234 -0.000105462 -0.000117215 -0.00012236 -0.000101135 -8.30531e-05 -7.99332e-05 -8.49577e-05 -8.53738e-05 
-8.05001e-05 -9.07274e-05 -9.51217e-05 -9.20836e-05 -8.73972e-05 -9.29874e-05 -8.90077e-05 -8.65386e-05 -5.64086e-05 
-5.59146e-05 -6.12185e-05 -5.8107e-05 -5.267e-05 -6.52836e-05 -6.53714e-05 -6.84201e-05 -6.49209e-05 -6.17994e-05 
-5.87488e-05 -6.5147e-05 -8.23437e-05 -8.14267e-05 -8.11934e-05 -8.31993e-05 -8.34634e-05 -8.10164e-05 -7.98876e-05 
-8.22756e-05 -8.05186e-05 -8.43293e-05 -8.58376e-05 -8.39227e-05 -8.52862e-05 -8.34304e-05 -8.05094e-05 -8.08666e-05 
-8.07431e-05 -7.99835e-05 -8.04571e-05 -7.93341e-05 -7.95998e-05 -7.86562e-05 -7.91187e-05 -8.07815e-05 -8.13744e-05 
-8.03455e-05 -0.000134227 -0.000108553 -0.000139464 -0.000168959 -0.000127832 -0.00013115 -0.000184643 -0.000226123 
-0.000212811 -0.000255619 -0.000254513 -0.0003104 -9.29813e-06 8.15556e-06 2.8505e-06 -2.1179e-05 -1.56837e-05 
-9.50093e-06 -2.87053e-06 2.45332e-06 -2.05061e-05 1.57361e-05 -0.000103955 -0.000108821 -0.000111305 -9.88716e-05 
-9.53851e-05 -0.000103476 -0.000108773 -0.000105167 -9.69264e-05 -0.000100072 -0.00011819 -0.000113443 -9.20543e-05 
-0.000115289 -7.33645e-05 -7.2954e-05 -7.5138e-05 -7.41335e-05 -7.1878e-05 -6.88409e-05 -6.94031e-05 -6.68752e-05 
-6.91221e-05 -7.13923e-05 -7.03113e-05 -7.32265e-05 -8.60223e-05 -8.46431e-05 -8.56937e-05 -8.81739e-05 -8.68773e-05 
-8.93416e-05 -8.69589e-05 -8.91217e-05 -9.04451e-05 -8.55114e-05 -3.01532e-05 -3.88292e-05 -3.50627e-05 -2.37175e-05 
-2.77332e-05 -4.3263e-05 -4.69126e-05 -3.7408e-05 -4.56782e-05 -3.04714e-05 -3.30804e-05 -2.36147e-05 -1.68517e-05 
-1.86831e-05 -1.62067e-06 -2.53536e-05 -3.80572e-05 -2.25509e-05 -3.86945e-05 -3.16983e-05 -1.10265e-05 -4.35345e-05 
-5.08438e-05 -5.08003e-05 -8.39182e-05 -8.22844e-05 -8.47707e-05 -8.32181e-05 -8.15293e-05 -8.0816e-05 -8.1665e-05 
-8.21041e-05 -8.12334e-05 -8.12235e-05 -8.26287e-05 -9.9577e-05 -0.000103991 -9.79808e-05 -9.50471e-05 -0.000101399 
-0.000112096 -0.000108089 -0.000114791 -0.000114638 -0.000108213 -0.000106344 -0.000103385 -7.68482e-05 -7.28218e-05 
-7.39156e-05 -7.92628e-05 -7.20118e-05 -7.76996e-05 -7.49845e-05 -7.81067e-05 -7.97856e-05 -7.12949e-05 -8.13294e-05 
-7.48656e-05 -7.01877e-05 -7.6446e-05 -6.60127e-05 -6.22359e-05 -6.69405e-05 -7.13677e-05 -7.72894e-05 -6.72088e-05 
-0.000127657 -0.000158147 -0.000131121 -0.000107142 -0.000181709 -0.000155839 -0.000143336 -0.000206696 -0.000199807 
-0.00019917 -9.92333e-05 -9.85881e-05 -0.000101083 -9.01313e-05 -9.60243e-05 -0.000101499 -8.6939e-05 -9.31143e-05 
-7.25192e-05 -7.878e-05 -6.01184e-05 -8.0699e-05 -8.04223e-05 -7.97126e-05 -8.25059e-05 -7.8692e-05 -7.46046e-05 
-7.66018e-05 -7.35387e-05 -7.20786e-05 -7.51688e-05 -7.6484e-05 -7.74712e-05 -7.85487e-05 -8.52445e-05 -8.58389e-05 
-8.35638e-05 -8.41146e-05 -8.6174e-05 -8.21593e-05 -8.30544e-05 -8.163e-05 -8.09885e-05 -8.14368e-05 -7.98601e-05 
-7.68338e-05 -7.54477e-05 -7.7437e-05 -7.84994e-05 -7.58373e-05 -7.72642e-05 -7.70933e-05 -7.46859e-05 -7.42845e-05 
-7.43032e-05 -7.30097e-05 -9.1099e-05 -8.82066e-05 -8.88467e-05 -9.24616e-05 -9.20607e-05 -9.27147e-05 -9.07979e-05 
-8.76771e-05 -8.88874e-05 -8.64425e-05 -8.59383e-05 -7.56746e-05 -8.08878e-05 -7.597e-05 -6.61968e-05 -8.53651e-05 
-5.89662e-05 -5.41974e-05 -6.40748e-05 -6.79518e-05 -0.000136862 -0.000151622 -0.000125917 -0.000126633 -0.000162313 
-0.000129428 -0.000126898 -0.000117295 -0.000102141 -9.74055e-05 -0.000101396 -0.000106468 -0.000101614 -9.63564e-05 
-9.32686e-05 -9.45023e-05 -0.000100042 -9.39914e-05 -9.11217e-05 -6.26081e-05 -5.93948e-05 -6.37718e-05 -6.64833e-05 
-5.62922e-05 -5.30831e-05 -5.72615e-05 -6.10556e-05 -6.32226e-05 -6.436e-05 -8.0916e-05 -8.10506e-05 -8.12363e-05 
-8.03064e-05 -8.08416e-05 -8.08388e-05 -8.01308e-05 -8.09431e-05 -8.12295e-05 -7.86294e-05 -7.988e-05 -7.91265e-05 
-7.75892e-05 -7.66677e-05 -7.85446e-05 -7.63579e-05 -7.62262e-05 -0.000405886 -0.000310563 -0.000450466 -0.000302703 
-0.000228113 -0.000238345 -0.000283099 -0.000208682 -0.000215698 -8.94165e-05 -8.36012e-05 -9.11578e-05 -7.85706e-05 
-8.21801e-05 -8.37987e-05 -8.75189e-05 -9.33285e-05 -8.6381e-05 -8.53183e-05 -8.83896e-05 -8.93385e-05 -8.66778e-05 
-8.5723e-05 -8.41693e-05 -7.76432e-05 -7.87307e-05 -7.86028e-05 -8.02792e-05 -8.00758e-05 -7.95497e-05 -8.03658e-05 
-8.24852e-05 -8.15371e-05 -8.32696e-05 -8.32692e-05 -8.15799e-05 -8.2064e-05 -8.34853e-05 -0.000183163 -0.000126075 
-0.000258207 -0.000228233 -0.000134744 -0.000595309 -0.000381283 -0.000796515 -0.000749128 -5.14605e-05 -5.72453e-05 
-4.66909e-05 -5.83014e-05 -4.98068e-05 -4.29812e-05 -5.66445e-05 -6.1653e-05 -4.96175e-05 -5.07533e-05 -4.31628e-05 
-4.48744e-05 -4.89903e-05 -4.06732e-05 8.25783e-06 1.65396e-05 1.80306e-06 5.55556e-07 -9.7559e-06 -2.00894e-05 
-1.61991e-05 -7.90716e-06 -1.36846e-05 -1.59023e-05 3.29875e-05 2.5883e-05 4.83989e-05 5.31647e-05 6.34875e-05 
4.10529e-05 3.1446e-05 -2.885e-05 -4.33261e-05 -3.36178e-05 -5.04653e-05 -4.31501e-05 -3.68956e-05 1.30944e-05 
3.48437e-05 6.71636e-06 1.07896e-06 2.06763e-05 4.23014e-05 -8.27317e-05 -8.13447e-05 -8.52086e-05 -8.41086e-05 
-8.17925e-05 -8.67046e-05 -8.30991e-05 -8.8355e-05 -6.74017e-05 -6.55129e-05 -7.01523e-05 -7.15344e-05 -6.83153e-05 
-7.26757e-05 -0.000120508 -0.000116281 -0.00012577 -0.000127954 -0.000121338 -0.000126813 -0.000249689 -0.000207705 
-0.000255779 -0.000229951 -0.000247272 -9.91585e-05 -0.000104623 -0.00011006 -0.000112481 -0.000108712 -0.000114581 
-8.43141e-05 -7.96957e-05 -7.91639e-05 -2.09634e-05 -2.49791e-05 -4.34842e-05 -4.6773e-05 -5.49661e-05 -5.70674e-05 
-6.85443e-05 -6.95062e-05 -7.13878e-05 -9.07772e-05 -8.83963e-05 -8.84029e-05 -9.18421e-05 -3.84226e-05 -2.85356e-05 
-3.56396e-05 -2.27047e-05 -2.79641e-05 -8.48321e-05 -8.70442e-05 -9.12514e-05 -0.000126896 -8.3013e-05 -8.18275e-05 
-8.0606e-05 -8.14023e-05 -7.33893e-05 -7.50756e-05 -6.47844e-05 -7.08393e-05 -6.04213e-05 -9.84224e-05 -9.47751e-05 
2.76695e-05 -3.54142e-05 7.93128e-05 0.000115106 0.000134299 -6.83185e-05 -0.000312885 -0.00181908 -0.00224933 
-0.00175607 -0.00148027 -0.00135267 0.000136623 0.000136188 0.000130697 0.00013094 0.000120154 0.00010622 
0.000124312 6.62027e-05 9.04628e-05 9.7969e-05 1.28118e-05 4.03453e-05 5.42103e-05 -1.81706e-05 -4.58266e-05 
-1.96426e-06 -7.63259e-05 -7.35049e-05 -6.56162e-05 -0.000171272 -0.000570121 -0.000176739 -0.000987866 0.000109034 
0.000121739 8.88431e-05 6.76724e-05 4.05768e-05 1.22164e-05 -5.6121e-05 -1.96484e-05 -0.000127187 -6.9903e-05 
-0.000718792 -0.000257594 -0.000101544 -9.99811e-05 -9.6713e-05 -9.24953e-05 -8.21757e-05 -7.71988e-05 -7.34634e-05 
-7.09007e-05 -8.75948e-05 -7.14138e-05 -7.10572e-05 -7.07349e-05 -7.10102e-05 -0.000101683 -0.000101691 -0.0001013 
-7.09472e-05 -0.000101227 -9.92319e-05 -0.000100442 -0.000100885 -0.000100443 -9.57795e-05 -9.76445e-05 -9.92814e-05 
-9.84842e-05 -9.76099e-05 -9.13127e-05 -9.36566e-05 -9.56473e-05 -9.46699e-05 -9.35827e-05 -8.62109e-05 -8.88229e-05 
-9.13046e-05 -9.00213e-05 -8.87738e-05 -8.08159e-05 -8.35885e-05 -8.34465e-05 -8.48066e-05 -8.61784e-05 -7.6193e-05 
-7.83235e-05 -8.0843e-05 -7.9591e-05 -7.83444e-05 -7.28123e-05 -7.43446e-05 -7.61349e-05 -7.52008e-05 -7.42663e-05 
-7.11173e-05 -7.17113e-05 -7.27507e-05 -7.21512e-05 -7.16768e-05 -7.10558e-05 -7.12351e-05 0.000106163 5.55365e-05 
1.99877e-05 -5.23982e-06 -2.39433e-05 -3.84007e-05 -4.95048e-05 -5.81951e-05 -6.53896e-05 -7.13317e-05 -7.65791e-05 
-8.65168e-05 -9.19761e-05 -9.83272e-05 -8.1563e-05 -9.99788e-05 -0.00010004 -9.65282e-05 0.000121777 0.000120949 
9.01312e-05 -9.67032e-05 9.29537e-05 6.52032e-05 4.5953e-05 7.81449e-05 6.73362e-05 2.79076e-05 1.25364e-05 
3.64449e-05 4.49696e-05 2.75714e-05 1.30029e-07 -1.07007e-05 6.42313e-06 1.30862e-05 5.77167e-07 -1.99654e-05 
-2.79115e-05 -1.5281e-05 -1.02166e-05 -1.96191e-05 -3.49442e-05 -4.12646e-05 -3.16361e-05 -2.79248e-05 -3.53609e-05 
-4.69051e-05 -5.21143e-05 -4.42207e-05 -4.16261e-05 -4.69916e-05 -5.63122e-05 -6.00706e-05 -5.41574e-05 -5.16873e-05 
-5.61411e-05 -6.37058e-05 -6.6966e-05 -6.19642e-05 -6.02695e-05 -6.37199e-05 -6.98728e-05 -7.26815e-05 -6.84383e-05 
-6.69265e-05 -6.99616e-05 -7.53221e-05 -7.7822e-05 -7.40262e-05 -7.26967e-05 -7.52977e-05 -8.0344e-05 -8.28126e-05 
-7.90791e-05 -7.78387e-05 -8.02954e-05 -8.52925e-05 -8.78335e-05 -8.40332e-05 -8.52408e-05 -8.27478e-05 -9.05933e-05 
-9.33729e-05 -8.91705e-05 -8.78016e-05 -9.05027e-05 -9.49703e-05 -9.34811e-05 -0.000121429 -4.48319e-05 -5.97891e-05 
-7.91507e-05 -8.09456e-05 -7.38713e-05 -1.6366e-05 -7.67906e-05 -8.0221e-05 -0.000157249 -0.00020077 -5.02031e-05 
-5.21355e-05 -8.23539e-05 -6.77095e-05 -8.0791e-05 -7.97443e-05 -8.09745e-05 -8.08394e-05 -8.08395e-05 -8.08982e-05 
-8.10027e-05 -8.1053e-05 -8.1065e-05 -7.18923e-05 -7.11672e-05 -7.25526e-05 -7.24544e-05 -7.3274e-05 -0.000116811 
-0.000113746 -0.000112915 -0.000122218 -0.000117796 -7.27187e-05 -7.33159e-05 -5.10495e-05 -4.65588e-05 -5.0359e-05 
-4.56436e-05 -4.53225e-05 -5.86094e-05 -6.22747e-05 -6.11012e-05 -6.10518e-05 -5.73687e-05 -5.62055e-05 -5.04593e-05 
3.59385e-05 2.20686e-05 3.66902e-05 3.57632e-05 5.19704e-05 -5.48121e-05 -5.73296e-05 -0.000113805 -0.000114212 
4.49089e-05 5.43117e-05 5.38052e-05 -0.000118825 -0.000127094 -0.000127491 -0.000127018 -0.000118327 -0.000166799 
-0.000172308 -0.000172589 -0.000148949 -0.000148503 2.20467e-05 2.24703e-05 -7.7749e-05 -7.8531e-05 -7.87572e-05 
-7.99129e-05 -7.91011e-05 -7.77051e-05 -7.84603e-05 -7.9013e-05 -7.98795e-05 -7.67955e-05 -7.5916e-05 -7.58346e-05 
-7.82412e-05 -7.7743e-05 -7.76737e-05 -7.983e-05 -8.00117e-05 -7.99742e-05 -8.18579e-05 -8.41642e-05 -8.35516e-05 
-8.55617e-05 -8.42653e-05 -0.000606705 -0.000943263 -0.000754296 -0.00101939 -0.000857279 -8.65484e-05 -8.53763e-05 
-8.6453e-05 -7.88371e-05 -8.89172e-05 -8.88073e-05 -8.76014e-05 -8.98546e-05 -8.18262e-05 -8.15591e-05 -3.17889e-06 
7.86825e-06 -6.43624e-06 -8.14143e-05 -7.93983e-05 -7.82331e-05 -8.01437e-05 -6.03412e-05 -6.21433e-05 -5.84995e-05 
-9.08577e-05 -9.31676e-05 -9.41454e-05 -9.31142e-05 -9.11943e-05 -9.21626e-05 -9.11165e-05 -0.000111448 -0.000109193 
-0.000106164 -0.000111426 -0.000106859 -0.000106976 -7.96268e-05 7.00634e-05 6.70612e-05 -0.0010425 -0.00128733 
-0.0012065 -0.000180428 -0.000189154 -0.000193463 -5.87623e-05 -6.20597e-05 -5.83533e-05 -7.47502e-05 -7.7011e-05 
-1.3427e-05 -1.58135e-05 -2.31788e-05 -2.07885e-05 -1.93034e-05 -7.99769e-05 -8.04752e-05 -7.99017e-05 -0.000216739 
-0.000214676 -0.000184309 -0.000232465 -0.000124905 -0.000122743 -0.000122728 -7.81807e-05 -9.00509e-05 -7.22827e-05 
-7.14672e-05 -7.22421e-05 -7.22606e-05 -7.30038e-05 -8.12368e-05 -8.18592e-05 -0.000148456 -0.000134469 -9.92031e-05 
-0.000102163 -9.78595e-05 -0.000103978 -8.13219e-05 -8.07824e-05 -8.08046e-05 -7.1588e-05 -7.15448e-05 -0.000127398 
-0.000118948 -9.16699e-06 -2.29537e-06 -1.41058e-05 9.8487e-06 2.07917e-06 -2.39731e-05 -3.06056e-05 -2.7851e-05 
-0.000212997 -0.000162491 -0.00023456 -0.00020429 -0.000275779 -0.00012677 -0.000128817 -0.000169947 -0.000145141 
-0.000104314 -0.000104811 -8.7007e-05 -9.35282e-05 -9.1371e-05 -8.54306e-05 -8.70407e-05 -8.49576e-05 -8.70653e-05 
-8.75489e-05 -0.000643769 -0.000524071 -0.000116277 -0.000106309 -0.000104231 -8.50206e-05 -8.66533e-05 -8.34486e-05 
-0.000114573 -0.000108753 -0.000110744 -8.05667e-05 -8.1362e-05 -7.30002e-05 -7.21318e-05 6.50744e-05 7.27725e-05 
4.83875e-05 6.24363e-05 -7.22876e-05 -7.15824e-05 -7.22348e-05 1.6881e-05 -2.03149e-05 5.37307e-05 4.7525e-05 
-7.81939e-06 -1.55725e-05 -8.35341e-05 -8.3982e-05 -8.66547e-05 -9.41367e-05 -9.16185e-05 -9.69963e-05 -9.89636e-05 
-9.7721e-05 -9.89564e-05 -9.58381e-05 -9.4786e-05 -9.30527e-05 -9.48236e-05 -7.93018e-05 -7.91648e-05 -4.4215e-05 
-4.13289e-05 -3.84493e-05 -4.98022e-05 -5.33169e-05 -4.71084e-05 -5.09708e-05 -7.15807e-05 -0.000106378 -0.000104496 
-7.47354e-05 -7.30472e-05 -7.33972e-05 -7.50241e-05 -9.68863e-05 -0.000100185 -0.000209646 -0.000108382 -9.69882e-05 
-9.40346e-05 -9.31412e-05 -6.31558e-05 -6.20568e-05 -6.61358e-05 -6.7369e-05 -5.45947e-06 -8.24943e-05 -8.07173e-05 
-8.16253e-05 -7.98833e-05 -8.07046e-05 -8.94915e-05 -8.6485e-05 -5.09146e-05 -4.40976e-05 -3.86791e-05 -4.59908e-05 
-7.21685e-05 -8.11399e-05 -8.1712e-05 -8.13404e-05 -0.000242484 -0.000253076 -0.000237474 -8.19074e-05 2.4091e-05 
-0.000104704 -0.00010241 -0.000202751 -8.54553e-05 -8.41968e-05 -8.4429e-05 -8.33639e-05 -7.76579e-05 -7.75768e-05 
-7.62383e-05 -7.63081e-05 -9.20417e-05 -8.16728e-05 -8.04388e-05 -7.93093e-05 -7.80897e-05 -7.92517e-05 -2.60778e-05 
-0.000318352 -0.000318971 -0.00031915 -7.29782e-05 -7.12638e-05 -7.82335e-05 -7.48964e-05 -1.73422e-05 -1.74093e-05 
-1.08319e-05 -1.9271e-05 -2.53554e-05 -4.29051e-05 -6.98847e-05 -6.83972e-05 -7.13463e-05 7.81473e-06 -8.95579e-05 
-8.91948e-05 -0.000114799 -9.34436e-05 -9.32045e-05 -9.13661e-05 5.78189e-05 -7.13982e-05 -7.12645e-05 -8.11119e-05 
-8.07914e-05 -8.16747e-05 -7.95025e-05 -0.000257958 -9.80077e-05 -9.64273e-05 -5.07125e-05 -5.24055e-05 -8.59597e-05 
-8.34311e-05 -9.62198e-05 -9.19969e-05 4.0887e-05 6.08956e-05 7.53639e-05 5.32483e-05 -3.83375e-05 -5.30277e-05 
-5.5223e-05 3.49749e-05 -1.13963e-05 1.73616e-06 -1.1473e-05 -8.10255e-05 -0.000516731 -0.000718974 2.13985e-05 
1.26898e-05 -7.48232e-05 -8.05162e-05 -8.01946e-05 -7.8558e-05 -0.000253734 -0.000282164 -0.000288854 -0.000242444 
-9.51695e-05 -9.12602e-05 -9.70124e-05 -0.000100528 -9.62551e-05 -9.83101e-05 -0.000100388 -2.3308e-05 -0.000299452 
-0.000312536 -0.000275303 -7.93747e-05 -7.81502e-05 -6.84388e-05 -7.13589e-05 -7.13059e-05 -8.02969e-05 -8.08642e-05 
-5.51424e-05 -8.31712e-05 -8.35767e-05 -8.43845e-05 -7.65444e-05 -7.58806e-05 -7.42783e-05 -7.51062e-05 -7.42615e-05 
-0.000105796 -9.9342e-05 -8.09308e-05 -8.49324e-05 -8.33475e-05 -7.1269e-05 -6.13282e-05 -6.55944e-05 -6.1216e-05 
-6.52683e-05 -0.000310282 -0.000333689 -7.50368e-05 -7.37775e-05 -7.00413e-05 -7.12186e-05 -7.91989e-05 -0.000101577 
-0.000112178 -9.26451e-05 -9.16429e-05 -0.000230523 -0.000197635 -9.80799e-05 -8.19581e-05 -3.17648e-05 -1.71619e-05 
-2.73224e-05 -4.17635e-05 -4.12193e-05 -7.64647e-05 -7.4907e-05 -7.55503e-05 -0.000254119 -5.7528e-05 -5.5969e-05 
-5.5739e-05 -0.000398013 -0.000355628 -0.000307529 -0.000279441 -0.000275814 -9.16037e-05 -9.12484e-05 -0.000208341 
-0.00016311 -0.000115269 -0.000109642 3.14092e-05 2.41408e-05 -9.03837e-05 -8.75559e-05 -9.3523e-05 -0.000120054 
-0.00011587 -7.13114e-05 -6.87758e-05 -0.000100234 -8.35327e-05 -8.70551e-05 -7.37562e-05 -8.69506e-05 -8.81441e-05 
-8.70492e-05 -8.59861e-05 -8.76628e-05 -8.50821e-05 -7.67609e-05 -7.59817e-05 -0.00105901 -0.00139837 -5.00059e-07 
-3.46413e-05 -3.7135e-05 -4.27315e-05 -4.53137e-05 -4.2807e-05 -8.06951e-05 -7.87372e-05 -7.60005e-05 -9.51321e-05 
-9.64449e-05 6.99961e-05 8.32917e-05 -8.20802e-05 -8.12419e-05 -8.23588e-05 -8.94034e-05 -8.5143e-05 -7.82167e-05 
6.48793e-05 -6.87046e-05 -6.12139e-05 -7.99073e-05 -0.000119923 -0.000113334 -8.84274e-05 -0.000102599 -7.96924e-05 
-7.86681e-05 -7.91322e-05 -8.024e-05 -5.82363e-05 -8.68677e-05 -8.57287e-05 -8.9242e-05 -8.70336e-05 -8.67643e-05 
-8.37217e-05 -8.24857e-05 -6.54792e-05 -6.2336e-05 -8.30793e-05 -7.98066e-05 -7.71292e-05 -7.8377e-05 -7.7242e-05 
-8.23971e-05 -8.33491e-05 -8.32371e-05 -8.08787e-05 -6.63498e-05 -6.90746e-05 -9.3551e-05 -9.70112e-05 -0.000101204 
-0.00010137 -8.21947e-05 -8.34284e-05 -8.51069e-05 -8.78244e-05 -8.17197e-05 -0.000165577 -0.000137313 -0.000136103 
-6.27013e-05 -5.91482e-05 -0.000429504 -6.74892e-05 -6.17142e-05 -8.15709e-05 -8.88204e-05 -9.09731e-05 -6.85074e-05 
-7.98492e-05 -8.02806e-05 -7.95851e-05 -9.44375e-05 -9.7258e-05 -7.1569e-05 -5.6768e-05 -5.38665e-05 -6.03951e-05 
9.4309e-05 8.26403e-05 -6.19865e-05 -6.642e-05 -7.78402e-05 -7.74918e-05 -7.60526e-05 -7.61139e-05 -9.575e-05 
-9.05724e-05 -8.15104e-05 -8.9255e-05 -8.91055e-05 -0.00136818 -0.00162926 -0.00159367 -8.0303e-05 -8.0364e-05 
-4.50489e-05 -4.04187e-05 -6.93322e-05 -0.000115324 -7.76334e-05 -4.21228e-05 -2.07724e-05 -4.71477e-05 -4.71343e-05 
-6.13135e-05 -7.86592e-05 -7.9109e-05 -7.25592e-05 -7.33566e-05 -7.98112e-05 -8.13332e-05 -8.81887e-05 -9.01606e-05 
-8.62773e-05 -0.000284703 -7.65374e-05 -7.69838e-05 -7.52447e-05 -7.46023e-05 -7.71501e-05 -4.02811e-05 -4.53031e-05 
-7.99788e-05 -0.00011644 -0.000114848 -0.000120702 -0.000122437 -9.02571e-05 -8.8877e-05 -7.67146e-05 -0.000104306 
-9.90664e-05 -7.162e-05 -7.32414e-05 -6.53383e-05 -0.000106574 -0.000101782 -8.02748e-05 -7.9696e-05 -7.97181e-05 
-8.02895e-05 -7.96162e-05 -8.02773e-05 -0.000210873 -0.000199619 -0.000207398 -9.21434e-05 -7.64632e-05 -7.71959e-05 
-7.85299e-05 -8.10838e-05 -2.78296e-05 -8.53741e-05 -8.98892e-05 -0.000108092 -0.000103505 -0.000306679 -0.000249473 
-0.000305673 -7.13741e-05 -7.12556e-05 -7.12662e-05 -8.21285e-05 -8.38261e-05 -8.29074e-05 -7.25674e-05 -7.30608e-05 
-9.98483e-05 -0.000103096 -6.84798e-05 -6.41177e-05 -0.000375215 -8.53335e-05 -8.56991e-05 -8.63991e-05 -6.8721e-05 
-6.74693e-05 -6.43871e-05 -6.56908e-05 -8.02106e-05 -8.27433e-05 -0.00015268 -8.20751e-05 -9.45932e-05 -9.71752e-05 
-8.5424e-05 -8.16563e-05 -8.16467e-05 -8.10029e-05 -8.10061e-05 -8.16686e-05 -9.93073e-05 -9.96272e-05 -9.95802e-05 
-0.000484227 -0.00043961 -0.000483904 -0.000331682 -7.30162e-05 -0.0002451 -7.01775e-05 -8.35031e-05 -8.65781e-05 
-8.64913e-05 -8.32583e-05 -5.60508e-05 -5.57306e-05 -5.59122e-05 -0.000480367 -0.000377906 -8.35153e-05 -8.2467e-05 
-8.83837e-05 -9.13125e-05 -9.18454e-05 4.25239e-05 -8.13645e-05 -7.99146e-05 -8.0811e-05 -8.12052e-05 -8.37842e-05 
-3.84312e-05 -3.1721e-05 -3.01729e-05 -7.06397e-05 -3.83991e-05 -3.55118e-05 -3.05756e-05 -0.000105245 -0.000108694 
-9.01268e-05 -9.18422e-05 -0.00010285 -5.02146e-05 -5.04645e-05 -5.16488e-05 -5.33103e-05 -6.93855e-05 -7.61388e-05 
-7.48326e-05 -7.1838e-05 -7.10077e-05 -7.18325e-05 -7.14174e-05 -4.86967e-05 -4.94362e-05 -8.6582e-05 -7.07754e-05 
-7.46964e-05 -5.46806e-05 -3.82978e-05 -2.29401e-05 -2.48996e-05 -2.71483e-05 -0.000100071 -7.35471e-05 -7.48569e-05 
-7.6115e-05 -9.98576e-05 -0.000264867 -0.000198572 -0.000227385 -7.80258e-05 -8.92619e-05 -3.18034e-05 -7.88425e-05 
-7.92593e-05 -7.669e-05 -0.00024794 -0.000169219 -0.000224604 -8.84688e-05 3.22422e-05 -8.5237e-05 -8.88597e-05 
-7.48388e-05 -7.37524e-05 -7.47449e-05 -7.58625e-05 -6.69348e-05 -2.23841e-05 -2.86884e-05 -8.41424e-05 8.81854e-05 
0.000101152 8.9306e-05 -0.000203853 -7.24429e-05 -7.88337e-05 -9.45857e-05 -7.19062e-05 -7.57876e-05 -7.21362e-05 
-7.43715e-05 -6.31565e-05 -8.47496e-05 -7.79101e-05 -8.80208e-05 -9.05278e-05 1.56199e-05 -9.09914e-05 -8.62932e-05 
-7.50399e-05 -7.97079e-05 -8.71592e-05 -8.29516e-05 -8.15934e-05 -8.23377e-05 -8.15791e-05 -0.000118203 -6.45471e-05 
-6.8468e-05 -6.46892e-05 -0.000112388 -6.85676e-05 -1.26761e-05 -7.93569e-06 -7.80137e-06 -0.00010942 -0.000118156 
-0.000109759 -1.96175e-05 -2.69423e-05 -9.2247e-06 -3.17191e-06 -6.26277e-05 -5.54031e-05 -9.33417e-05 -9.43159e-06 
-3.99701e-05 -5.09327e-05 -5.34744e-05 -4.33961e-05 0.000100725 -8.50216e-05 2.81526e-06 -7.74081e-05 -7.86464e-05 
-7.40306e-05 -7.11407e-05 -0.000135925 -9.07677e-05 -7.78113e-05 -7.57225e-05 -7.83352e-05 -7.62517e-05 -7.62167e-05 
-2.82037e-05 -3.31437e-05 -3.13924e-05 -8.21292e-05 -8.02753e-05 9.59303e-05 -0.000107855 -9.99974e-05 -0.000111906 
-7.26792e-05 -8.27623e-05 -7.18161e-05 -8.93633e-05 -7.30693e-05 -0.000117624 -6.81715e-05 -6.49664e-05 -6.81801e-05 
-0.000103396 -0.000101443 -9.7246e-05 -0.00113335 -8.61731e-05 -0.000106524 -4.69094e-05 -8.85261e-05 -9.31517e-05 
-9.33269e-05 -9.4801e-05 -8.91719e-05 -8.50906e-05 -8.26891e-05 -8.38779e-05 -8.47386e-05 -7.34971e-05 -7.86985e-05 
-0.00165721 -0.000110044 -3.88862e-05 -4.96897e-06 7.73593e-06 2.62643e-06 -9.818e-06 -9.7557e-06 -6.40423e-05 
-6.65683e-05 -6.76234e-05 -3.1459e-05 -8.26391e-05 -8.30137e-05 -8.48439e-05 -8.35241e-05 -8.35207e-05 -8.19857e-05 
-0.000292652 -0.000160851 -0.000129932 -0.000125985 -0.000126612 2.21102e-05 6.86273e-07 2.39335e-06 -7.89935e-05 
-8.52877e-05 -8.38989e-05 -8.20766e-05 -8.11743e-05 -8.10885e-05 -9.00164e-05 -8.93814e-05 -9.83196e-05 4.17836e-05 
-7.44118e-05 -8.40201e-05 -8.20762e-05 -0.000154709 -7.86421e-05 -7.6806e-05 -0.00036029 -0.000219262 -9.06029e-05 
-8.06888e-05 -9.38846e-05 -9.31026e-05 -9.57787e-05 -9.58255e-05 -8.08404e-05 -3.50125e-05 -0.000100638 -6.08885e-05 
-7.35566e-05 -5.00081e-05 -7.61407e-05 -7.35399e-05 -0.000160283 -0.000149203 -0.000194187 -0.000176676 -0.000135284 
-9.44098e-05 -8.32189e-05 -5.94316e-05 -7.4729e-05 -7.47165e-05 -7.52808e-05 -0.000127061 -0.00015019 -0.000128092 
-0.000128506 -0.000154935 -0.000157285 -0.000113307 -0.000128929 -0.000112674 -8.02084e-05 -1.62187e-05 -2.13543e-05 
-0.000101859 -8.15175e-05 -8.057e-05 -8.17794e-05 -8.06415e-05 -0.000153722 -0.00014305 -0.000157124 -0.000110339 
-7.3525e-05 -7.41452e-05 9.79308e-07 -0.00012145 -0.000121027 -0.000119461 -0.000127144 -0.000118008 -8.16884e-05 
-4.28923e-05 -3.51018e-05 -9.16882e-05 -9.07825e-05 -9.20606e-05 -0.000110259 -0.00011272 -5.61561e-05 1.43722e-05 
-9.09558e-05 -7.14422e-05 -0.000101121 -8.20606e-05 -8.20764e-05 -7.35303e-05 -7.35328e-05 1.34521e-05 -6.49023e-05 
-7.94732e-05 -7.82541e-05 -0.000272 -0.000106991 -7.57878e-05 -0.000122853 9.4289e-06 7.28093e-06 1.43625e-05 
-4.83816e-05 -9.77604e-05 -9.63737e-05 -6.39795e-05 -8.04348e-05 -8.04253e-05 -4.66712e-05 -6.11452e-05 -0.000267262 
-0.000272002 -0.000263947 -0.000226884 -1.94487e-05 -3.29021e-05 -4.56976e-05 -1.86606e-05 -6.78574e-05 -8.24929e-05 
-8.04399e-05 -7.40145e-05 -2.64559e-05 -2.12673e-05 -0.000179912 -0.000140087 -0.000127937 -3.04296e-05 -6.0024e-05 
-6.56022e-05 -0.000114347 -0.000115214 -4.30117e-05 -0.000104208 -0.000117219 -9.88511e-05 -7.96495e-05 -6.05223e-05 
-6.04816e-05 -5.50919e-05 -6.29534e-05 -5.98873e-05 -6.05625e-05 -0.000207976 -8.76864e-05 -8.58259e-05 -6.36163e-05 
2.1252e-05 -8.44012e-05 -8.04333e-05 -6.82999e-05 -9.23865e-05 6.80468e-06 -0.000124965 -0.000149078 -0.000285116 
-0.000160324 -2.20972e-06 9.31062e-07 -0.000134997 -0.000146916 -6.63022e-05 -0.000105068 -0.000135776 -0.000130568 
-0.00010237 -7.4752e-05 -7.4761e-05 -0.000310979 -0.000261985 -0.000319478 -0.000187283 -0.000190921 -0.000219211 
-0.000240086 -7.82603e-05 -3.27512e-05 -0.000393114 -0.000312919 -0.000298517 1.32764e-05 -0.000172271 -0.000218012 
-7.6818e-05 -6.77988e-05 -0.000323429 -8.0896e-05 -8.16204e-05 -8.02146e-05 -8.02612e-05 -7.91643e-05 -5.41165e-05 
-4.31017e-05 -2.88491e-05 -2.88709e-05 -0.000117787 -8.08878e-05 -0.00104853 -0.000756893 -0.000723006 -3.7394e-05 
-0.000113078 -7.05253e-05 -6.38466e-05 -4.43052e-05 -8.8909e-05 -8.64369e-05 -0.000240735 -0.000215009 -7.719e-05 
-7.71929e-05 -0.000138605 1.44977e-05 -0.000169567 -8.00019e-05 -8.18207e-05 -6.47049e-05 -7.99307e-05 -4.81199e-05 
-0.00145494 -0.00149872 -4.92333e-05 -9.65425e-05 -0.000105364 -0.000192647 -8.17453e-05 -7.09793e-05 -5.24759e-05 
-0.000132814 -0.000132893 -0.000124013 -0.000129247 -0.00058762 -0.000145673 -0.000135041 -5.2375e-05 -7.1334e-05 
-7.41696e-05 -5.62285e-05 -0.000162715 -0.000164569 -7.12987e-05 -7.29958e-05 8.78913e-07 -4.65672e-05 -0.000768946 
-7.54685e-05 0.000104895 -0.000142759 -0.000139668 -0.000121034 -4.64985e-05 -5.7414e-05 -6.38172e-05 -0.00012584 
-7.02261e-05 -0.000117362 -0.000198872 -3.33676e-05 -7.91084e-05 -0.000287174 0.000108936 0.000107901 -0.000128256 
-8.15144e-05 7.1098e-06 -5.40041e-05 -6.57649e-05 -0.00022981 -5.78664e-06 -7.86477e-05 -5.38239e-05 -7.99149e-05 
-7.20082e-05 -8.00852e-05 -8.00808e-05 -8.0379e-05 -6.94242e-05 -0.000131606 -8.23108e-05 -8.23452e-05 -8.43401e-05 
-1.60749e-05 -1.6308e-05 -0.00012769 -0.00198554 0.000121168 -7.9951e-05 -0.000139292 -0.000136498 -0.000136397 
-7.86486e-05 -7.87119e-05 -6.85676e-05 -9.99682e-05 -7.09105e-05 -7.90568e-05 -7.90407e-05 -0.000134798 -7.96382e-05 
-7.74452e-05 -8.00416e-05 -8.01186e-05 -7.88406e-05 -8.26888e-05 8.22886e-05 4.18601e-05 -5.13745e-05 
Stress%20xx%20component 1 3545 double
96344500 29544900 27780300 100486000 49954500 50058600 -1812300 49963500 50054900 
-1499550 101014000 107931000 111898000 106212000 95596600 99350200 110420000 111222000 
69598000 24705000 120737000 115255000 107690000 100185000 112086000 117217000 110369000 
104710000 66604600 99424600 40719400 73949400 101551000 99082400 99831200 99907400 
100611000 100738000 98292400 92411300 85502800 78454900 71703300 65670600 60340300 
55957000 52615500 50355200 49628600 32341400 55507400 93585600 97753200 98903100 
100146000 100174000 100737000 99723100 95479300 89047900 81940700 74996400 68662400 
62903300 58038600 54100700 51394400 49835500 49804400 50065400 50027900 49994100 
50030700 50023100 49959600 49969100 49975900 50001400 50060800 50068900 50050100 
50042900 50021200 49975200 49946000 49912700 49950500 49972300 -8585470 -3871180 
3178910 10419400 17125500 23099100 28422400 33050400 37102400 40619000 43646300 
46157200 48174800 49555500 -6005110 -6292320 -329659 7001870 13840300 20304700 
25852900 30806700 35119000 38899700 42168900 44938800 47210500 48919400 49885400 
-4487190 -11034700 -9804860 1875740 36236600 92613900 98909700 -3487430 -8525850 
-11074600 -7456820 18061500 63153100 101450000 92289100 38873600 69132300 99404100 
101674000 100023000 99982900 101004000 101178000 98171000 92517100 85518300 78406100 
71634000 65560400 60219500 55819200 52479200 50163300 49563400 30475500 53231400 
87539800 100962000 100117000 99834000 100853000 100879000 99720700 95555500 89092500 
81903700 74957800 68562600 62800900 57885700 53951700 51198100 49730400 49783400 
50024500 50054200 50035700 50024100 50039100 50026000 49949700 49988900 49960500 
49973600 50052900 50051200 50084300 50035900 50024600 49975200 49950900 49904700 
49927200 49961400 -7443490 -3154180 3878000 10907500 17394000 23320600 28591800 
33159300 37170300 40658400 43657300 46149700 48137400 49480000 -5463440 -5460020 
501134 7536920 14183000 20624100 25993700 30976900 35189300 38978300 42197800 
44934900 47174500 48878100 49854300 -4819110 -10145100 -12567000 1378960 33322600 
82095200 98990300 -3378410 -8312270 -11872600 -7832000 15892900 59396500 97691600 
94801100 -1218770 50049600 69078600 109730000 114509000 109780000 106654000 108244000 
109999000 104546000 49121800 50061600 85753600 83730500 117634000 113651000 106811000 
118178000 119989000 109213000 108871000 118236000 119312000 111113000 107413000 110098000 
110052000 109002000 106122000 101864000 103675000 49477700 49070000 78561200 60146100 
37239900 47611300 52555900 93995700 17752100 79682900 40630100 59117400 22896500 
41858700 50012000 75157100 48922300 48536000 102044000 78502900 43603800 56988200 
51649100 48923500 60554800 98692100 67959800 32953200 50518100 45862600 96159600 
61384200 49483400 50655100 54226300 105923000 37141300 25862800 10159600 -740169 
39211700 13721600 55449700 40750800 87686900 93312600 74473400 46261000 53978100 
47942700 39347100 60781000 26397700 77964800 62171100 91568700 97452000 93019700 
48742700 53656700 45232500 16080300 31520500 66206900 49935100 101337000 73069700 
106147000 65849200 35464500 52318300 65864600 44547700 25230700 51033100 49695200 
50442200 94444400 83990600 29247700 48578100 49522400 50557500 50797100 50115900 
875812 39950500 67046800 61637300 27735600 31185200 43291200 37868900 45721700 
51793100 56783400 51494000 51648200 48576200 98834600 96655000 50210600 54563500 
41766000 46692800 58636700 100397000 57541800 37719600 47792400 52182200 45483300 
52407900 94961900 96136100 67294400 105129000 74262000 78073000 -1942020 49334900 
51339700 47491700 107778000 96927300 87673300 63274500 46147600 53176200 104716000 
20682700 18179200 9267520 -7067130 9101740 82824300 58506300 31196100 8395520 
100292000 55208600 49915000 50127800 55605300 28327000 44227700 104451000 50622000 
106358000 3235710 41652100 91485500 37571100 25166600 71731200 28952800 70218000 
36086400 86218400 44156600 96083500 15359400 58409700 -5459430 87811600 88113800 
51311700 49800100 50306500 70973900 49768600 47556600 69806000 71681100 64799600 
56395600 79665000 43785600 54964100 42009900 46889100 43643900 55019300 77930600 
98430700 25313700 27838200 20752100 97170800 100519000 40874600 38986000 3739020 
91288500 70350500 62369000 52265400 49029600 61470400 51267500 48837900 51007700 
79311400 48713600 49892900 50089700 66086000 99782700 102042000 98674300 104954000 
70147200 75911600 50011700 50061200 49901200 49941200 49731900 49962500 -7991450 
-4657490 -5294600 102637000 99114400 99799000 106965000 108437000 108799000 109863000 
107194000 104719000 104447000 -4836130 -7123450 -6290390 3298340 -415729 -2610680 
-1935130 2322620 9713820 6021470 6858050 16284200 12937000 12990300 21785900 
18741100 18481900 27961300 25281500 24486200 32053200 29716400 29550700 36194300 
34161300 33423400 39766400 38017200 37255100 42662800 41177100 40433100 45174600 
43911100 43053300 47971300 46962900 47042200 46189300 45273500 49198500 48483000 
48320100 49447700 -3117590 -4806580 -5427480 -4311220 -2666800 -388744 7845290 
14955300 14326300 8171660 24458900 27788800 43811000 37902300 53271900 83358100 
59061600 100316000 107504000 93443800 115266000 49925000 49908200 49696800 49852500 
49679100 49868700 49841700 49768600 49985700 49932600 49797300 50017600 49956500 
49880600 50050900 50050400 50025700 50070000 50022400 50140500 50234400 50186800 
50287200 50139200 50127700 50344700 50408300 50160200 50317700 70763200 85449800 
100633000 90375400 100362000 98622400 99361700 97214400 95252300 99632700 100208000 
96348800 99416000 99379300 100631000 100414000 100670000 100072000 100569000 100506000 
99594500 98714700 100033000 99958600 97237100 96823800 94695300 91824900 93798700 
87514100 84241900 83538700 88126400 87578100 82396600 79045100 81208400 74971200 
71786400 72945500 76375800 76708600 68777000 65952200 68606200 64013300 61435000 
64216600 59528200 57440000 60415000 55865500 54227300 56973900 52495600 51419400 
53070100 53449400 54689600 50764400 50309300 51555300 50366300 56781800 50369300 
55833700 54031200 60237900 55082500 50735800 46776300 48005600 44319100 43623800 
41067100 52305300 49780500 51350500 50382900 52452600 47410400 45305000 47189800 
46109300 47987800 50024200 48763900 47780600 48111700 73097300 72774100 78270200 
82693000 82940600 66812700 72482000 78110800 72143300 88774500 82628800 85591200 
90804900 82227300 58631100 54403800 56297400 53931000 57609000 63548500 66531800 
62815500 61361800 61114500 64184200 58435800 38413300 35661100 34618200 31199600 
34141400 42438300 40871100 39598300 42949000 33688700 36481300 38866200 48213300 
47508600 48180900 48178400 48673000 46614900 46750100 45882300 46842400 47579700 
48039500 48092000 48639300 46877700 52574700 51627900 51782900 51188700 51903500 
52384700 52855300 52137300 51458000 53502000 53471100 53895400 96652700 93414900 
94365900 95231400 95656500 96750200 99255900 91944400 91616500 95975000 92490200 
93385700 19058500 13616100 23114200 23037800 28730400 13132800 13298600 17915000 
23244400 8585660 83599200 82932900 78966900 74009300 75007100 76393800 79751500 
76286400 75013300 71742800 83951900 87930100 70333600 83807800 43499600 42160900 
42000700 40725300 42030300 37671800 39055000 39252700 41304600 39923200 39286200 
42916800 57842100 57050200 58416000 59396000 60254600 60935000 58856400 61114700 
62401800 57371900 20600400 23973200 19208300 19142600 15555400 28286300 27307700 
30287500 25926500 24852600 21791500 17983000 26518700 34880500 34364800 46243500 
38715000 38121400 44492700 35323900 28597900 50701300 48428000 53313500 50127800 
49909200 49664900 49695400 50299000 50805400 50460800 50392600 49920000 50339000 
49496500 68760700 73427700 70448200 72454700 67745100 81889400 77332400 79593600 
76554200 80860300 74879900 74718200 48413900 46941900 50421600 52031300 45277300 
47000600 49982800 51528500 50692100 43770700 53727200 46365800 50556900 52661100 
44142800 46144500 41659800 54405500 49969800 47652100 99634900 96119800 88959900 
94861100 99520200 100657000 101808000 100900000 98334400 101149000 87046100 85594100 
78142100 84769500 94793700 85031200 81431600 75352500 64669400 57990600 71213100 
71105900 46233800 44912200 44939800 43899600 40540100 42651500 41551100 42239900 
40120300 44639200 44556300 43395300 57889500 59844600 58753000 59193600 57337200 
55921200 55787100 54789500 55922500 56369900 55289800 51874500 52726900 53519300 
52432100 51653300 51026900 51059200 50941400 51132700 50762700 51328700 49172200 
48752100 49324000 49401300 49192000 48886000 49180000 48254000 47686700 48362200 
63754000 69291300 65438400 55849900 61358400 66110700 49165100 53616900 57882800 
61217600 100288000 98099800 93163900 92675900 97379400 100631000 93133100 87961900 
70781800 67584200 71080600 71064100 74427800 65498900 64639600 67093800 69788800 
64784200 62573800 32067200 34119900 36428800 35375100 31914900 29255400 30293600 
34467200 35398800 36939100 51486300 50857800 50084000 50928500 49635700 48823700 
49810600 52063600 49434400 46756100 47993900 47218300 46274700 45699600 44543400 
44936500 45314800 98237100 94943500 103817000 100588000 91795300 91398400 95481200 
95664200 99069400 58949900 63755800 65608200 56627400 60059100 63615600 62382100 
67986900 49375500 49717700 49706500 49055200 49561000 49120800 49013000 51149500 
50549600 50370400 50373000 50636000 50961800 51004900 52880000 54042700 55232800 
55062400 53211500 55885500 54469800 105275000 103581000 105809000 98925500 104450000 
103025000 101596000 103495000 111480000 38614800 34252400 32979600 40386300 33128900 
37320700 40635300 43813100 28583600 26773800 23312600 28343600 25444800 22850200 
9111620 4572130 5593190 6861530 14045400 15470500 19498800 12377700 12833000 
9634800 3833590 151836 -3418320 -4358610 -993936 4120610 3645390 42771300 
34509600 33852100 45373700 38327100 33233100 9028850 18819300 20961100 11042400 
21858100 5903990 53115400 54477500 55983600 56926800 53866300 55437700 58450600 
59903400 38497800 39364200 41331400 41153400 43144500 43707400 83622000 85840500 
89576600 92016800 87886700 91928800 93980500 95031900 96275700 92676800 93007700 
73202600 69321900 76875500 80470600 76245000 78702400 46900600 54524700 54025300 
36156500 36270400 49786600 56711100 48139800 57706100 38368400 37441600 39199800 
61604700 63128100 63642800 61179200 27211100 32126100 27744200 22296000 23581100 
64190000 66218500 68160400 92692000 49247100 49054900 48859100 48228900 43634500 
44473600 60641900 65357000 58870500 71410100 69597000 30840200 49803800 52824500 
89814200 102124000 100722000 99767100 100716000 100352000 100021000 95365000 88920000 
81910100 75094500 68619600 62782700 57934300 54145200 51339300 49887600 28773000 
27897700 34607400 33608800 49911100 49905600 49675200 49659300 62096900 46968000 
39238600 46365000 97971200 80415300 60468100 71017600 76372500 100436000 101629000 
95852400 99940600 99829300 99685300 100045000 101930000 100797000 100890000 99852100 
99937400 100174000 99886400 99865200 100476000 100045000 99898200 100112000 100245000 
100535000 100364000 100583000 100742000 101067000 99147000 100644000 101101000 100691000 
100933000 93859200 97084100 99074600 98358900 97059100 87258800 90818900 93932600 
92514500 90893400 80268100 83654300 87244700 85501100 83642300 73261500 76674700 
80205000 78412000 76692200 67090800 70223000 73248500 71634200 70210200 61581400 
64191100 67009300 65589200 64125900 56934700 59069900 61533400 60252700 58992000 
53354100 54772100 56848500 55774900 54714000 50777000 51971000 53307800 52530400 
51899400 49740300 49895900 50683900 50194500 49799100 49581900 49706300 49613300 
49091000 78658000 60255900 37401000 47594800 52561400 92590700 18151700 79527300 
40645300 59143000 23086000 41650700 50017200 75141900 48848500 48470300 98783800 
76590600 43589700 56975300 51633600 48881900 60289800 97563200 67873700 33000400 
50560700 45877300 99026900 61473600 49444000 50676100 54212900 99735200 37182300 
26040000 10631900 -202357 39258200 13664900 55430000 40775000 87481000 96289400 
74605100 46264200 53901400 46535000 39426200 60654400 26540700 77804800 62158900 
87444100 95859900 80592200 48721800 53670300 45283900 16309100 31728400 65995800 
49909900 100370000 73119800 104368000 65837100 35519100 52361100 65771900 44668300 
24579900 50986400 49673500 50433300 94754200 83947100 29301100 48594200 49468900 
50547100 50870900 50158800 1552740 40011300 66993300 61603100 27848600 31298600 
43317100 37934000 45696800 51719000 56793800 51498200 51641900 48557800 100108000 
96953600 49594400 54469800 41798100 46465600 58551000 99688500 57578100 37667000 
47743800 52162600 45567500 52401400 87304600 91612100 67279200 102000000 74174100 
77488100 -2036940 49329700 51321000 47586400 77889800 98905800 87213700 63185700 
46178500 53146800 108863000 20966200 18520300 9963490 -6430330 9430240 82985400 
58509600 31371500 8874200 94282500 55316400 49864700 50141100 55490600 28643000 
44223600 111830000 50622100 103570000 1651360 41777900 95935100 37662600 25400500 
71739600 29101400 70075400 36225900 85352900 44260700 94874900 15791900 58394000 
-4695140 87680500 87563700 51311900 49747800 50329000 65270900 49719100 47524500 
69729400 71594500 63602000 56366500 79655500 43857600 54885800 42043000 46917900 
43637300 54743200 77911500 101221000 23004000 27435700 21098000 93805400 99853400 
40926100 39067200 4344930 91045100 70324000 62287900 52271800 49062900 61447100 
50900000 48770400 50864600 79325500 48695400 49851900 50108200 65980500 67935000 
100889000 72820200 104130000 99902300 108984000 50063300 50023800 49864600 49925000 
49945200 49680300 -5312710 -4013440 -6946940 -4562250 -3222930 -5192170 -4748990 
-4738980 -1262930 12868200 5330770 6648460 13932800 23710000 42606200 26600500 
36453300 71308200 48917300 56059000 90103700 74725500 73836400 98042500 49870400 
49903000 49837500 49623700 49663100 49808300 49855300 49719800 49926800 49973000 
49795900 49957100 49993700 49865100 50055500 50052000 50008600 50038600 50078600 
50163200 50200700 50244100 50264400 50126000 50137200 50349000 50166200 50428600 
50306600 110607000 112056000 101751000 104944000 108070000 109495000 101990000 106681000 
104443000 101396000 80902300 68334600 98373700 98428300 86239700 98770000 101845000 
100222000 97701600 99836600 101165000 102202000 99266600 99505200 99702000 100021000 
99736800 100200000 100057000 100350000 97925400 98851100 99143000 98355300 95714000 
96190600 91851300 94563300 93188500 84248600 87606000 88164800 83611300 87515100 
79061200 82429100 81213200 71676800 74941700 76316600 72942100 76674100 65847300 
68745300 68520500 61361200 63924500 64142500 57339700 59405500 60336900 54097900 
55745700 56872500 51317500 52401400 53316000 52978900 54592000 50218400 50586500 
51450700 50328300 -6016560 -3917860 -5223190 361504 3945910 -1097180 -1555090 
3000760 6622710 10194000 7395250 13261900 16536900 13411300 19055000 22040700 
18786700 25459300 28106000 24694100 29848800 32188000 29727800 34260600 36273400 
33544700 38095100 39815500 37318900 41202500 42689400 40475400 43910900 45164700 
43067700 46928300 47928800 46177900 47013800 45272900 48440600 49123600 48264500 
49385900 55820000 50386100 56747000 60248700 54148000 50747900 55048400 47986500 
46868500 43667700 44373500 41124300 51352600 49867100 52312800 52465600 50351700 
47249600 45318000 47477000 47907400 46150600 48730600 50079700 47823200 48150400 
78212700 72737200 73097900 83119800 82613900 72338100 66597000 71842200 78034900 
85748100 82502900 88515700 90354000 81678200 56276500 54426800 58668000 57627200 
53961200 62877400 66512600 63633400 61292000 64169200 61022100 58420400 34735700 
35825400 38450900 34276400 31322800 40901500 42510800 43053800 39715200 36601100 
33842600 38969100 48136900 47512300 48184300 48686500 48170400 46734700 46616800 
46875900 45873800 48062500 48017500 47537300 48647100 46844400 51788100 51597100 
52552500 51900500 51176900 52132300 52827300 52386700 51453100 53459700 53471300 
53873700 89954800 87515300 91776500 92451800 90694700 92987300 93519000 94273400 
93078800 94480800 95530000 98715800 23349000 13961700 19179500 28881400 23206100 
18176800 13654200 13534400 23545900 9084480 78831100 82666500 83416400 74904700 
73847800 76234700 79636700 76376100 71761400 74872900 87419000 83633300 70255900 
83647600 42032100 42211900 43548300 42093000 40764700 39330500 39120600 37754600 
39998200 41376900 39363600 42985600 58359300 57022500 57799200 60213100 59396400 
61097600 58822800 60819600 62378600 57367300 19541700 24158600 20804800 15855700 
19370900 27494100 28542400 26120200 30437400 22063700 25089600 18424900 33840900 
34761600 25512600 37779100 46082400 35138900 44175500 38017200 28486700 48098800 
50544100 52960500 49916700 50144800 49659300 49676300 50459800 50823100 50312500 
49906700 50330800 50366300 49497200 70454100 73406700 68828800 67668200 72458100 
79581500 77363100 81883300 80869500 76544000 74873900 74659600 50431300 47034200 
48560800 52067800 45302500 50013100 47047600 50647000 51552800 43799200 53716600 
50624500 46409900 52661900 44238500 41818900 46148000 50029500 54483800 47730200 
92990800 95378100 92957300 86730100 99632400 100554000 98661700 99253800 98384900 
95348400 82733500 82499200 83317500 76952400 79198500 83713700 71506700 72789300 
63382900 69909900 56906500 70568500 44939700 44923000 46262800 43891900 41589800 
42676300 40548600 40204100 42282000 43405100 44595700 44636300 58698600 59740000 
57843200 57334700 59110500 55712300 55891500 55858800 54741200 56268800 55197800 
52674500 51892000 52430500 53463900 51038400 51039900 51655800 50938900 51084500 
51251400 50744700 49273900 48695000 49139200 49363300 49112000 49111900 48843800 
48237400 48309400 47667300 69134600 63716900 65314500 61226700 55705700 66118300 
53466000 49073400 57741500 60962500 96230900 98772400 91432600 92253300 99643400 
96527700 92836200 87657600 71069000 67575800 70791200 74445400 70981100 67060000 
64577600 65462500 69747600 64813400 62559300 34160500 32191700 35432900 36521000 
30451800 29437100 32108300 34604400 35488100 37063600 50843300 51505000 50081300 
49637300 50927800 49828000 48819200 52056900 49446400 47170900 48018700 46812000 
46326400 44558300 45735200 44918400 45345000 102845000 96217200 99377800 101186000 
98116400 96766500 98031100 97403500 97819700 63722500 59003300 65687700 56572400 
60100600 62269500 63647800 67951800 49700500 49346700 49681300 49530100 49017400 
49103000 48992800 50585000 51168400 50391800 50404000 50661100 50976500 51006500 
54057000 52855400 55048800 55233000 53209800 54414400 55894800 87434300 82907400 
83812800 96377000 86795200 98162500 101019000 103318000 111622000 34398000 38757100 
33085900 40425200 37434200 33297200 40793400 43925200 26921900 28661200 23592800 
25682600 28508800 23113700 6106120 5117390 9649470 7525040 14467200 19802800 
15734700 10027900 13368300 12794000 822427 4343350 -2686690 -483023 -3667210 
3959630 4902720 34581600 42751000 33966000 45299900 38362700 33344200 18011700 
8564530 20777000 21725800 11399400 5961130 54463100 53167500 56930300 55963200 
53846000 58482100 55422000 59960700 39398500 38564100 41409600 43201300 41166600 
43756600 85738400 83558200 89392700 91260100 87576700 91159500 98063600 93056000 
99514200 95874000 95642100 69303900 73261500 76954200 78737000 76239100 80457000 
46862300 53992200 54486100 35608800 34706700 48900600 47223900 55378200 57123500 
37523700 38468500 39262200 63111800 61528100 61155500 63607000 32108400 27454900 
27922800 22580300 23812000 64113400 66281300 68074800 91518800 49059000 49202200 
48273000 48858900 43638000 44568900 60314700 64792000 58528400 71366600 69608600 
-6040960 15991400 -12484200 -7348710 -2357090 56338800 92796900 98540700 98062800 
97336800 102227000 100191000 -1642670 -1732310 -3830000 -4473410 -5214290 -9488390 
-3895650 -12163400 -12320400 -11603500 -3941260 -9396910 -9493750 8408530 25060500 
2411950 46146700 70488500 35200600 90831200 95958500 77270700 94753700 -10422800 
-5365550 -12506700 -10208800 -8340060 -4516840 26196000 8273570 72171900 46529900 
94260400 90903300 50011600 50079000 50040000 50010500 49985400 49988800 49950200 
49988200 49981000 49918000 49971600 49972300 50012900 50018600 50016700 50042000 
50004800 50055200 50108700 50044200 50018400 50059500 50056800 50008600 50075200 
50029500 50008700 50034600 50006400 50033700 50006000 50004600 49992100 49974800 
50043100 50035400 49987900 50002300 49985200 49979400 50036300 50018300 49991900 
49955300 50004600 49962600 49953700 49974000 49959400 49990700 49994100 49940000 
49929200 49883900 49979600 49969500 49909900 50016100 49947800 -6037130 -6132250 
-217811 7043250 13771700 20561100 25813300 30771900 35130200 38936300 42173300 
47196900 48908800 49895400 44919100 49982500 49986400 49737700 -3950990 -3954050 
-7334320 49697400 -6801310 -7291260 -4558280 -7929860 -6798100 -2039480 1917580 
-3310490 -4335300 -1715120 5052380 9083910 3626780 2331360 5418060 12056200 
15514900 10808500 9342840 12323400 18952600 21897500 17367500 15574200 19137900 
24429000 27328300 23270700 22051500 24496600 29562300 32108900 28524000 27411800 
29671800 34074500 36137700 33133300 32172400 34113800 38079200 39763300 37156100 
36148200 38127900 41440600 42899600 40641600 39795900 41460200 44358300 45538600 
43659500 42912800 44361100 46676700 47689700 46149200 46672400 45529200 48566000 
49204900 48164700 47659600 48561400 49508400 49157800 92139900 47873200 35130600 
54120600 51424600 41896800 29544100 43114400 55930000 93042400 96384100 30636700 
54215800 54184100 41097900 54112600 49218300 51465300 50539800 50931400 50935900 
51974000 52375400 51972500 40732700 40639000 41277700 41283600 41359900 88882400 
89145400 89568600 93422100 89980300 40904300 41401600 50529300 46502300 51328000 
47310300 47158400 33812800 36198500 35631100 35606600 33319200 54851300 51255100 
-2461670 331997 -1877440 -2975640 -5053330 31279100 33171400 88365000 92331500 
-4335070 -5262650 -5872880 83571100 89059700 89565800 89019300 82884900 99725200 
100197000 99848300 98580400 99478000 -31289.9 1321050 54184700 54965100 55154200 
55741800 54771400 54129800 54909200 54730900 55677100 50079700 50061800 50049300 
50137300 50063700 50078600 50038000 50038100 50163200 50038400 49998500 50027500 
49923900 49991000 108425000 110688000 109812000 110782000 105412000 49970100 50025600 
49959400 49987200 49958700 49953100 49862300 49896400 50043100 50147300 26146600 
20460800 27561600 53726300 52042400 50696700 52276500 32126900 33242900 31003200 
49784900 49954600 49868000 49941200 49954300 49911400 49934800 77981400 76379800 
74239200 77946000 74805300 74841000 51525200 -6404760 -5260060 113600000 115026000 
103210000 99971300 99998000 100211000 31284100 33163000 30904000 50168100 50303400 
13267700 15709800 18239200 15630800 34723200 51880500 51227800 51315100 100004000 
99888600 100400000 100212000 87553700 85877900 85857300 53978900 50019300 50360300 
50043700 50336300 50325900 50561200 53098100 53871700 98824300 95918500 69293700 
71721500 68801200 73414500 49460500 49784400 49051300 50120400 49996900 89545800 
83970500 14271400 13640200 18343000 8707360 9544450 15779000 19413100 19362800 
97607500 94009700 95992100 96750600 100755000 87120500 91598400 96581400 95150200 
72911500 73390300 66288000 70343900 68082800 47042100 47491800 46685300 47465100 
47755000 109027000 104703000 81148600 75791700 73683300 59429400 60564000 58318600 
80441800 76274600 77933500 48287400 48836900 50743300 50406200 -5527250 -4385170 
2541920 -4239180 50205800 49983900 50211000 4810440 19713300 -4485610 -2975190 
9917380 12583300 58386300 58568600 60609500 49891900 49669300 49829000 49987800 
49869300 49993900 49639600 49447900 49217900 49427500 52137800 51492100 23382700 
21917500 20529200 26922200 29380500 25988500 28619300 50004100 74867800 73232500 
43830200 42233600 42030900 43507900 71769600 74927300 98000400 76605100 49825900 
49489900 49197200 43618600 41699400 44230300 46196100 10478800 45560700 44552700 
45266700 44217900 44543900 62583500 60339700 26725200 23252000 20814600 24686900 
50431100 50071700 49747900 50394900 94884800 94599800 95381200 49239200 14058500 
73394100 71672700 99972200 57367900 55966000 56394500 55055600 46297200 46919700 
45345500 44927300 70262400 46159500 45873900 44721700 44417900 44704700 20982300 
102139000 101157000 102161000 50973200 54067700 58481800 55014100 11560500 11817700 
9651660 13269700 14865500 23475700 38081700 37131900 38976700 5998840 62572900 
62292300 80852600 65307500 65259800 63892800 -386517 49911200 49962700 50334200 
50618400 50322100 50988400 98563800 49879100 49709800 26757400 27808600 59783500 
57817800 67234200 64191900 -397388 -3812860 -4396370 -730029 20327100 27993500 
29205900 8877130 28626800 21979600 28692000 50865000 103702000 111083000 13459900 
18134900 50176000 51776100 52560100 47801600 94436800 94979100 96171700 95624600 
67672300 65665900 69780000 70342000 67267300 68569700 70280100 35399000 101993000 
100756000 99578400 45702900 44412500 37092800 39029900 38928000 50976800 50830000 
29246900 48663400 48189100 48702200 52953100 52813100 51830800 52135600 51814600 
75139300 70400100 51007200 46684600 46253100 49952400 39988200 42499200 38474000 
40872700 97211400 98740700 50622000 48471800 46383500 48510600 60249500 72527700 
78674000 49148900 48814600 99932900 100617000 49865300 60111100 41735900 34259700 
40000200 47606600 47668900 46142000 44509400 43327700 99519300 38746700 35792200 
29714000 101186000 98815000 98891200 96567500 93469300 48869200 48789100 95628700 
95684000 80674900 76651300 584141 4321130 62819400 61298900 65785300 83985900 
81220400 41307100 39312700 69783500 71996800 72443500 66033700 59385200 60231200 
59124500 58364200 60711600 58692900 53451900 52917000 110765000 114171000 24769700 
23035800 25959500 26882600 29788000 26991900 52569400 50388400 50453800 66564400 
67035900 -6794220 -6538670 48732500 48208600 48149100 66008500 64194700 52332400 
-1974840 64181000 57363000 70280500 84015200 79284600 49675700 71775700 47998300 
47212500 46793100 47540900 40428700 58824700 57800300 49537100 49458100 49033500 
46148300 45555300 35296600 33519600 56273200 54372500 51688500 51648500 51031800 
54037200 55202200 55206900 51597700 37914000 40001200 77692800 78065300 82881000 
83399500 46878500 46847700 58694400 60229700 56775800 99911300 97808200 96686800 
34145900 32084900 102854000 47682800 43897000 50440300 49148500 49293300 37291400 
48257400 49102600 48885500 49665700 49866700 49961400 40699600 41159400 44214600 
-7141790 -7145950 46781400 48028300 45910700 44578400 43146200 43141000 73864100 
70154400 65409600 61084700 60835500 104512000 110764000 105404000 49113200 49943800 
25645300 22946300 44638300 80682500 50591000 47233400 35431600 50829000 51392200 
37312400 51134100 50670700 50144400 50405600 46609900 47502100 48723300 48890100 
48558400 97969900 47475000 47221900 45255700 45321300 50408800 29036700 29736600 
50671500 83614400 81887400 85750300 87550500 48477500 48008300 44584400 78893400 
74977000 42027300 42975200 35301300 74469500 70951100 54883700 54541600 54516800 
55446500 54971500 55485500 93079500 93444100 94308900 63589800 52654800 54472900 
45702500 46745100 39771500 61456600 63786100 77334300 74659000 99889100 99311600 
100466000 50071300 50023500 50027300 50148800 49898800 56952300 50634600 51067600 
73089100 76203300 50812500 49558100 102622000 48640800 49102500 49694300 40768100 
39366400 37038400 38595900 50392700 55290800 99257500 49921700 49765800 49900700 
49355500 53203900 53205100 53305200 53325800 54264100 49956500 49908000 49921500 
107845000 104711000 107868000 104425000 47013300 96441000 41404700 55426900 58444300 
58463900 55425600 34201000 35193200 34128900 101843000 102677000 58943000 50013600 
59952700 62625900 63225200 5858260 52444200 50406900 51490000 70870400 62280500 
44925100 38245400 38599700 64823700 32023200 27890900 26488600 76412700 79653300 
61605900 77385900 83714000 31034400 31152800 34294800 37168700 39104100 48901300 
46993200 44918600 43440800 44905600 43176100 52691100 52655700 58394500 56495100 
64133500 49533400 44660000 35157200 14925700 16293700 78636000 40364800 41187200 
41942100 67626900 89464200 80061600 89604200 47944000 61447200 38185900 49803100 
50833900 48128700 93671800 92459900 91526800 61550200 4387640 66072500 48046800 
50399400 50327100 50935000 51027200 37717900 22485600 27403600 48998300 -4830330 
-6187290 -4826350 95784700 50149100 56626800 69602100 55842800 51657700 51778500 
51090700 35448800 57050800 50027900 71388500 68063600 8931720 72751100 69148800 
63677100 67286500 63604800 49060800 52846100 54037000 52831600 87074900 39309500 
42645000 39392000 79565200 42982500 9984460 8363120 8072670 83122900 87739800 
82639700 23361000 35478100 23874200 23356900 50366700 43613200 67989300 18106400 
39194500 45341100 44294100 38352100 -5772140 56931800 13356900 52417100 52358000 
45500200 43465500 96659300 77081300 43060300 41787800 43634700 42407900 42420200 
23773100 18719800 17447600 53648800 51339900 -6742280 73539100 69371700 77837800 
43700200 54479200 62634100 62140800 51014100 82352800 40827800 38657700 40840300 
74757200 70801200 67592500 106254000 59144900 74554100 33096100 61168300 64138900 
64605400 65471800 61112200 57571400 49480700 49333400 49677300 43660200 43883400 
108530000 76940300 24092600 18025600 13975500 19247500 23302500 23289400 35445800 
36498400 37635000 17287100 47594600 55899400 57566200 55863800 55860200 54421300 
102413000 100333000 94404600 91933200 92353700 11176200 22081900 19317500 53167600 
47540200 47531100 54458100 54317100 54288500 73011900 48265600 71386200 4043110 
51298800 57361400 55724000 98091100 49089400 66644100 99587400 85648000 62395200 
53988100 64780700 49690400 49918500 49932700 52361100 18971200 78197500 34530900 
40466600 37371000 41964200 40377100 93740100 91802600 93652900 93562900 92054400 
65823300 49681000 53552100 42580700 42621800 42490100 93349000 98129900 92941000 
90884300 99909300 96180300 87683200 93744700 85647700 62175700 23270200 28948200 
71050800 55881400 54497000 55508600 54540500 95468700 92517800 93862100 79660100 
40557000 41308100 7229570 87650900 87776900 87645300 92050600 87297600 56580600 
25308200 20719200 63623400 48839500 49141800 82764700 83405800 56258700 2722530 
63118200 60374300 77859100 57219400 57172900 50116200 50122500 1979960 38571300 
43900800 43192800 95213500 79579800 61261800 90386100 9840770 9757810 11143300 
47393500 67897700 67087700 57784900 53275900 53286700 37707400 51311400 99452000 
99953900 100289000 100133000 17677500 36890800 34378300 19024100 41428700 46237900 
44943300 51501900 28516800 28949500 99832400 99277300 92891500 21999200 32984500 
35518500 83791100 83641700 33187000 77221800 84338500 79915300 52855100 36210600 
36158700 32997200 60190700 58672900 59011300 99340300 48220700 48040000 60123700 
9273060 48064600 49948000 61173000 49369500 4062890 84737900 96077300 100363000 
88822500 7232490 5358290 95309600 99108600 50824600 70858500 87499600 86385700 
81983800 41985100 42017800 100636000 100324000 100731000 94667300 94292400 96086900 
98349700 43199200 33811600 108389000 104739000 106712000 1701280 101807000 104375000 
52648400 41409800 90297200 51466400 52737900 50356200 50394000 49111800 49103900 
42690900 34773800 34759100 87718900 51467300 102679000 98410300 95282800 33441700 
85517400 44596600 42606100 34197600 48342600 47653600 101602000 103040000 43365600 
43363100 88714500 10551600 102641000 54167300 56549400 60365700 53558600 50919600 
107406000 103399000 28515300 49922900 82449600 97229300 55450900 56836400 30867700 
93274100 93274600 87554500 91127100 95203800 98644300 94865400 30916200 39388800 
41298400 30403900 94505100 92074700 39226100 50134100 5616690 27965800 108129000 
51921700 -5275330 98468300 97685600 88625100 28109900 32053000 38141400 89410300 
39344600 79733100 99004500 25049400 49061700 99946400 -4245690 -4594530 91273200 
56954100 3625410 54564000 55670200 100236000 13162600 48106800 54737800 53668000 
40157700 55998600 56059500 50349700 38420800 93176700 54194600 54205200 46895600 
29387300 29449400 91624000 98932700 -3543210 53668600 97164100 95552000 95515000 
54005700 54023200 37515500 49948400 49931500 53612100 53625500 94582800 48908200 
52807600 44728100 48844700 47527200 55699600 -4415970 -2955960 33620000 
Stress%20xy%20component 1 3545 double
-703303 -1374880 -1336290 -3816970 58926.3 49019.8 1434220 40673 54063 
1685880 927845 1950930 1327260 654955 787042 1259360 2128360 637919 
-471047 -528137 -1263410 887033 -380441 434976 -2011590 -925314 636471 
228201 -338918 -3307570 2075520 3128630 2767080 511798 -666969 -256706 
-227943 124044 -72060 -242020 -169988 -165253 -147088 -114683 -127196 
-105938 -102857 46090.4 61601.3 -133408 2503490 4011790 2238970 -584709 
-678708 -238943 64603.9 -166698 -201414 -200752 -165448 -188731 -188900 
-124171 -103670 -63431.8 -50089.5 89706.3 90239 -3114.84 -29952 -79662.1 
-113148 -151607 -92611 -83151.7 54519.1 114450 3322.9 18264.1 -89763.9 
-119393 -161322 -150886 -102137 -30901.6 147909 99181.3 -63858.6 -127737 
-43686.6 -102411 -19816.8 18703.9 23413 29884.2 -2633.88 -4612.6 3786.34 
-13708.8 -19408.7 -4150.52 274651 -68387.1 -169390 -127638 -48764.9 4875.64 
-64186.1 6369.89 5261.27 -753.52 8557.93 14848.9 -14438.8 4396.09 5061.06 
17073100 23341100 16669700 -1778420 -21473400 -38013800 -16506400 9915520 21307900 
21399000 9080940 -11823500 -30755400 -24630100 -7774590 705368 2340660 -2300310 
-258268 354136 156317 723243 559695 -97922.3 -93492.8 -56271.2 -90814.5 
-91284.4 -27584.8 -26439.8 -51984.5 -57532.9 268.701 44293.2 -801906 1535420 
1881830 -1325750 358963 162761 342932 866899 -23335.3 -167373 -91328.9 
-62630.9 -107248 -96718.6 -40740.3 -21699.7 -27692.4 -41178.7 50948.3 60497 
25120.3 -12686 -27339.9 -63292.9 -66487.1 -70212.6 -54827.1 -21792.1 9272.16 
108202 4654.92 19942.8 -55191.7 -80846.6 -104436 -95773.3 -62472 -13230.1 
101218 65351.4 -31132.8 -47284.4 18646.4 -21136.2 44659.8 -22661.9 62306.4 
-11785.4 22953.2 -18837.9 -8786.11 -6766.03 2508.27 -26747.7 416030 -50909.9 
-76663 -82161.4 -30125.8 12453.5 -38320.8 3123.6 3971.05 2094.51 -488.215 
10045.1 -7569.69 3583.47 -612.125 16895400 24783000 17249500 -830644 -21209500 
-30008500 -23703900 9948490 21981200 22700300 9651770 -11052400 -27513400 -29229500 
-13708900 612141 9628.86 -66655.6 -1536600 -48525.3 -1347090 -24164.6 -1379380 
-2486690 -142704 -391843 -542004 -142109 -113514 -1126050 1233930 205694 
-118157 -827162 -176962 585768 981438 398829 355946 508229 535498 
-88773.7 -393000 -97206.7 161171 411893 -19277200 -11938400 -6425360 -14790900 
-14440500 -6203300 -6589720 5316890 -15998800 -11381300 -8772640 -10132900 -13502500 
-14220200 -5888800 -11189700 -15126300 -17802900 2154810 -1687280 -5068230 -5970850 
-2362350 -2343950 -16140900 -2971910 -9261390 -7784620 -9014810 -9103960 13875600 
-16743700 -4105050 -3984170 -9791500 -406606 -18123900 -8396700 -10823100 -7448070 
-19007500 -10070300 -13600700 -12357700 -6388510 8305700 -8410510 -3079500 -3414380 
-8508400 -4432750 -6069170 -17609900 -11112700 -17104900 5419050 -2700930 -6005230 
-7281750 -12082500 -11453100 -7143400 -14975500 -8737750 -3495340 -311104 -13459200 
5764450 -5539200 -3544210 -16420000 -14439100 -16357900 -8662040 -7130530 -2342250 
-2108130 -2990720 -6734670 -17248300 -10046600 -1123470 -556208 -13540000 -3412560 
-7069650 -16972800 -12201600 -12703800 -4929650 -10979200 -7791550 -10079300 -7034870 
-18493300 -16884700 -10626500 -4418320 -4411320 426737 14347700 -7940100 -7389970 
-2257620 -17601800 -3234250 -620854 -8637580 -19452900 -1727940 -1690130 -13185700 
-8580400 1335010 6795420 -11782700 15840600 -5871080 -2126470 -918053 -5840400 
-18719500 -8252360 -12922200 8604240 -8019910 -9507890 -5112610 -4938840 -7888760 
-5186140 -15807800 -5706370 -261608 -12229200 -4832740 -17807700 -3272850 -12500000 
-709691 -14952000 -2227070 -2077910 -2542900 -18666100 -2068790 267671 -5379430 
9934980 1282300 -14415600 10830700 -7103110 -11456100 -11371000 -17019800 -14482100 
-11834200 298676 -19078200 -2586420 -10815600 -11806400 -3373700 -6924490 -7235020 
-5632090 -1403210 -966112 -13564000 -7507430 -3837200 -14091000 -4428800 -6218120 
-10626600 -10399100 -9820490 -5030380 -10905800 -10606100 -18278500 -13896100 -8665280 
5473100 -5319360 -13669500 -15052100 17016900 -1944400 -6680500 -1943650 -5204170 
-3638700 -14706600 -3050500 -14422200 -8625720 -8246300 -11096400 -866548 -550538 
-4374990 -5641270 -371560 100515 -15930400 -3536640 -3613240 -10044100 8329270 
6561150 9369220 86565.4 88966.5 78488.4 -124853 -209135 -210948 305535 
1303570 7274800 1756860 1275850 -2594140 5187630 4972510 2193070 6099990 
6739530 9291770 13510900 -1834470 -1655860 -1849430 -2532350 -2572370 -5044910 
-3582200 -6255880 -2848830 -2899620 -5509610 -3483340 -3675360 -6373490 -2527060 
-2608350 -6202360 -2436450 -2564090 -5029020 -1602760 -1647900 -4110270 -1744460 
-1830120 -3392650 -951942 -978096 -2739470 -1097560 -1139950 -2101000 -1003430 
-1047840 -2171050 -861344 -917612 -2382970 -1547060 -2597590 -394904 -447500 
-1285970 -605032 8066790 10168400 -449530 12124200 9350140 695291 4067490 
-3610960 -4180760 2362260 -6852770 -6008410 -13136600 -6604690 -17755700 -26012200 
-10013700 -26593800 -13065300 -13217300 -7996510 -736158 -637702 -1271850 -571817 
-733759 -1294620 -1185690 -1879510 -1180440 -1130170 -2285390 -1859970 -1834100 
-2852850 -1775460 -1819410 -3494410 -1044530 -1106350 -2760940 -982997 -1156850 
-2097570 -324620 -469656 -1531810 -753897 -141128 -201642 9172270 10066200 
16764300 10413400 9682790 16032200 4982700 3079350 10374700 -723299 -1358380 
3493200 410889 -1592150 -1229060 -634203 -1726050 -349384 -314913 -495074 
-1343530 -1244280 -1789690 -1485690 -2599760 -1333740 -1826380 -2027950 -3127700 
-2495380 -2527780 -5811480 -3589830 -5194510 -2270500 -2256980 -4620030 -2309830 
-2281700 -5186340 -3090850 -5132730 -2973980 -2853450 -5006810 -1587680 -1548520 
-4290330 -1700870 -1611550 -3149970 -1355510 -1249160 -2891920 -980127 -778188 
-2522350 -1768150 -3003130 -281786 -162147 -1111260 -157964 -17940900 -19073900 
-18235300 -18601900 -17507400 -18154300 -18880400 -19147900 -18808000 -19237700 -19399000 
-19241700 -12808700 -12761600 -12087000 -11264900 -11350600 -12549200 -12298600 -11756700 
-11049600 -11286000 -10384900 -10984200 -10303800 -13463400 -9111180 -11423600 -8967810 
-8980610 -6657010 -10257100 -7509580 -4183540 -5468270 -1246210 -3158680 -4629040 
-5180970 -945508 -15799600 -16649600 -15697400 -15669100 -14868900 -13566400 -13307700 
-14637700 -15737800 -13700500 -12447300 -13866500 -15692600 -16061600 -14662800 -12934500 
-12804000 -16622100 -15483600 -14427100 -15348000 -11391600 -13138300 -13203600 -7767780 
-7223040 -6773360 -5913390 -6453190 -7675220 -6624990 -6066810 -5674800 -5036430 
-4121060 -5299920 -5042580 -4479450 -7583370 -7837270 -6897430 -6384000 -6117890 
-4673930 -5779170 -5499530 -5047090 -8026950 -6992140 -6159270 2370160 3781850 
5127460 5770770 5941210 2211330 -930503 9311860 8121000 5147820 7339220 
9674270 -15033500 -14322700 -16604500 -17335100 -18082100 -14378200 -14189300 -16045100 
-17239600 -12471800 -9650770 -9636610 -11310000 -12810800 -12990600 -11942600 -10887300 
-12401500 -13073500 -14049700 -9340570 -7576560 -14690700 -8776140 -8799580 -9311250 
-8275440 -7709200 -7229710 -8568230 -7961830 -9429590 -9833450 -10502800 -6885450 
-10374100 -10367200 -9613820 -9368160 -8469380 -9222350 -10720800 -10957300 -9827850 
-8891100 -11229300 -9362460 -12487000 -10410600 -12155900 -8990630 -13269900 -14188500 
-16025100 -15294100 -16029800 -14336700 -12901200 -10892000 -14019600 -11654200 -12624200 
-10245200 -17481500 -16063400 -15629000 -15475800 -15685200 -14186800 -12526100 -4639680 
-4686400 -5905390 -4694210 -5660310 -6268980 -6507710 -7353910 -6717330 -4388600 
-6660570 -12977400 -11303500 -12860000 -12641500 -14291400 -8542920 -10843100 -8971690 
-9886430 -7710980 -10006500 -12259900 -16477400 -15709200 -15752600 -15113700 -14845300 
-14147400 -14312600 -13969100 -14791800 -13797900 -14699200 -17062500 -17076500 -17432700 
-17473200 -18025300 -17645600 -17664600 -18171900 -18453200 4590440 4094510 3170930 
1601630 -232001 -1562680 -135161 -825072 3902380 697846 -315650 1539970 
-1760690 1410150 -1712360 -3260990 -10139900 -6668140 -5130260 -7152370 -3957990 
-4050980 -4100150 -5095530 -4054330 -3547870 -3334440 -3706180 -4778610 -5886600 
-5588060 -6088610 -7420150 -6417850 -4659820 -4626710 -6028670 -7423440 -7264180 
-8026100 -6724080 -6199180 -5505010 -4233200 -3832600 -2044630 -2875250 -4199730 
-3623660 -3405400 -3273420 -2281030 -1653340 -1412760 -558925 -1418120 -3397320 
-3385070 -2379140 -1904290 -1685000 -1615420 -996279 -3095750 -2782640 -2075660 
-14007300 -13624900 -15265100 -17386900 -16704200 -15777500 -18167600 -16874500 -15069100 
-12881600 -1820020 -2747230 -5729470 -5715260 -3449370 -1370290 -5323150 -7682090 
-10384600 -10710400 -8857730 -7570560 -7081280 -9364700 -7570480 -7337560 -6918310 
-11036400 -11080700 -5551910 -5599670 -5367580 -7430810 -9384470 -8009530 -6412530 
-9841650 -8993520 -10964700 -8843210 -8058110 -8249190 -9812480 -9555330 -9346910 
-8852270 -9592680 -8065490 -8695050 -9123180 -9605570 -9874380 -8010450 -8456640 
-9463710 -10260600 7323450 10903400 10714500 13794900 12560000 12533200 13743900 
16216200 14893000 -16867200 -15549600 -15467400 -17726100 -17262300 -16334500 -16933200 
-15017400 -4972060 -3791110 -3219880 -4279700 -3202500 -4885440 -5756000 -4204800 
-3033850 -3076170 -3697380 -4676440 -4826910 -5501020 -10257300 -10900800 -10221700 
-11401600 -9179510 -9268780 -8557820 -5896300 -9222060 -4259830 -4561770 786016 
5552380 5646830 567849 -4098130 -17527300 -16518800 -17610100 -18237800 -18258500 
-18798000 -18659600 -18737100 -9742950 -6641030 -6852780 -11167000 -9878720 -8328360 
-11846800 -9858980 -8916850 -8080190 -13355000 -13040300 -15471800 -8399670 -10859200 
-8207330 -9922790 -7596040 -5304400 -3295040 -4688980 -9816770 -6987470 -18268800 
-18080100 -18974800 -18961800 -19404500 -18913600 -4816680 -8867510 -11932500 -11225700 
-13880000 -5706430 -13605400 -12852300 -11970500 -12703600 -14037500 -14271100 -13173100 
-12284700 -12098400 -11233400 -11654200 -13386700 -12836400 -12084800 -8430510 -6589320 
-5047670 -5104770 -6806890 -4553520 8560420 5231490 8043130 10025100 11179900 
-9888800 -11798700 -6454720 -6810940 -8539410 -6622240 -3466640 -4224950 -4972050 
-6447390 -8526870 -9943990 -7544160 -7898490 -8511150 -5742340 -3991380 -3206680 
-4634240 -5795370 -6905550 -7147830 -18145800 -18661200 -17327700 -16712800 -16293400 
-16467300 -15930500 -15311500 -5202380 -7410810 -6558270 -7936390 -8446640 -11169800 
-10604500 -11320300 -7463100 -9892360 -13784800 -14751700 -160303 53227.9 2006020 
2315470 -1495560 632029 437570 644017 210845 252751 -27941.4 -69992 
-100663 -52377.6 -89798.7 -97702.4 -63639.2 -159650 1902.08 -36837.9 -652880 
-662665 760686 231060 40733.4 49907.5 54937.9 48886 2492320 2130650 
1295020 1360110 2186040 2264640 1960200 1874690 2363910 -223257 239855 
227239 -1279130 -3054020 68434.7 372127 -1109780 200483 500395 51477.3 
-18583 654169 36389.9 303861 68608.2 11136.8 173904 -25297.3 108364 
491729 122046 642377 149346 373068 101021 151696 775052 412414 
298102 -139173 -55711.9 47679.7 -57368.3 -74245.1 -102176 -101683 -66367.6 
-37855.2 -38166 -115773 -129199 -57999 -83199.1 -70446.4 -88221.6 -96734.3 
-93321.3 -93049.4 -75878 -103926 -76089.5 -76142.6 -71808.5 -78700.6 -113421 
-100877 -68650.6 -69740.1 -55795.3 -73192 -95151.8 -55549.4 -76267.8 -49160.5 
-109990 -130660 -47275.2 -84974.2 -105282 -6134.94 -41930.2 -73903.4 -76376.1 
-32265.7 -8815.81 8732.82 -28195.6 -20085 -19553.8 14652.8 2639.44 -18945400 
-11837400 -6311400 -14577400 -14263500 -6117850 -6492770 4840310 -15408600 -11074500 
-8678440 -9960700 -13292200 -13561000 -5808410 -11001400 -14999400 -17574200 2056340 
-1895420 -5026620 -5843450 -2346120 -2306690 -15789500 -1495250 -9025790 -7740220 
-8920640 -8992140 8807950 -16481200 -3980860 -3900280 -9668000 -8442760 -17868800 
-8304740 -10521200 -6804890 -18600900 -9142200 -13437100 -12240300 -6205340 4632530 
-8192210 -3030960 -3342700 -8018430 -4400900 -5963590 -17299200 -10732100 -16764400 
6031870 -1931850 -3809670 -7181810 -11966900 -11280400 -7009160 -14761500 -8682410 
-3374800 863721 -13237700 231178 -5359870 -3526020 -16237600 -14231600 -16132300 
-7749890 -7006430 -2260940 -2066970 -1525690 -6595040 -16550400 -9925210 -1068180 
-606967 -13395400 -3277110 -6686250 -16816300 -12011700 -12482900 -4907080 -10872500 
-7692430 -10002800 -6943440 -18293100 -16668700 -10485300 -4346610 -4349480 -1732790 
7870930 -7856490 -7292170 -2237150 -17016200 -3119290 931007 -8522790 -19132700 
-1701750 -1697520 -13063000 -8484370 3049470 6192550 -11475700 13130100 -5700520 
-2209600 -96159.6 -5756690 -18384300 -8158360 -17907300 1486480 -7294920 -9377260 
-5068360 -4858430 -15521600 -5088580 -15281200 -5568420 913122 -11411900 -4628820 
-17613300 -3213100 -11962000 208730 -14760300 -2110000 -1993560 -2463500 -18080700 
-2053230 -7348130 -5271610 6241330 3511580 -14295700 6842390 -7004090 -11266600 
-11232000 -16742500 -14111400 -11704100 573228 -18724400 -2199230 -10578300 -11679900 
-3258610 -6511890 -6782350 -5548070 -1328950 -962159 -11649000 -7400010 -3781220 
-13921300 -4231250 -6046960 -10491100 -10208600 -9755520 -4929370 -10828000 -10513800 
-18025800 -13516000 -8450290 1140550 -4283540 -12716300 -14665400 14373800 146076 
-6623790 -1925170 -5115570 -3459350 -14532900 -2961780 -14239400 -8536920 -8040670 
-10697400 -848421 -580293 -4219080 -5525260 -326768 27308.6 -15657500 5583350 
6657190 7718220 -9233810 -18969500 -8307120 27449.5 40544.1 22686.9 -109172 
-183202 -200902 8104480 1865170 575172 11245100 8768320 783156 10690100 
13997000 2088820 -2612530 5460180 2997890 -2488910 -6258140 -13317600 -6182570 
-6542250 -19234000 -16660600 -9327610 -22264500 -23391000 -13173400 -17537900 -599270 
-676903 -537432 -1212850 -703727 -1113590 -1219220 -1787060 -1064590 -1099880 
-2192450 -1730220 -1748510 -2736860 -1718330 -1687340 -3356210 -1039440 -992885 
-2639550 -1104230 -965873 -2038660 -481383 -350032 -1506250 -195991 -782380 
-269914 -3088840 -4199820 -10321200 299774 -85536.6 -4589290 4012790 2971550 
3432370 9461150 8075900 7105780 14408200 5106230 7790460 12353500 -317042 
-519845 4707220 300263 234052 -856341 -334357 -1047240 523514 433326 
385732 736503 535521 1022400 -857211 -584293 -461545 -516378 -1906500 
-1190850 -1916920 -1734890 -2870670 -2388120 -2361450 -3441050 -5644960 -5070330 
-2134260 -2139380 -4442860 -2140730 -2175500 -2937190 -4992650 -4954140 -2731530 
-2813320 -4809610 -1440290 -1489480 -4138770 -1528260 -1609480 -3034570 -1196070 
-1288930 -2797380 -788989 -948529 -1719490 -2491130 -2940100 -209552 -298127 
-1126320 -232311 -1396470 -1706390 -1378340 -2447770 -2470330 -3277400 -4802850 
-6055620 -2827680 -2790350 -5371120 -3608050 -3410570 -6278960 -2582960 -2507120 
-6098220 -2543970 -2424650 -4953610 -1622040 -1595750 -4065230 -1815300 -1721930 
-3352580 -966582 -946264 -2720100 -1128130 -1083670 -2075160 -1037860 -986119 
-2146880 -902041 -848209 -1529070 -2347390 -2567900 -428645 -392321 -1256310 
-578068 -17913600 -18724500 -17602900 -17204700 -18294000 -18611100 -17940000 -18560800 
-18809700 -19132700 -18866500 -18885100 -11981000 -12631200 -12658400 -11211800 -11157100 
-11612800 -12165900 -12436400 -11176600 -10920000 -10865800 -10270000 -10212700 -13331100 
-8672260 -11119500 -8907550 -6447560 -8549240 -7375390 -10115500 -5505030 -4203260 
-4159860 -3139210 -463333 -4366340 -909929 -15501600 -16442700 -15602100 -14678700 
-15479600 -14424800 -13073400 -13381600 -15572700 -12263800 -13511400 -13727800 -14477100 
-15867200 -15557100 -12651300 -12783900 -15309100 -16438000 -15221800 -14267000 -12992800 
-11254700 -13063000 -6688090 -7122090 -7671000 -6354590 -5821290 -6539520 -7586360 
-5618650 -5996770 -5224570 -4058300 -4951700 -4952500 -4420290 -6794630 -7735720 
-7495920 -6028020 -6274530 -5417500 -5692330 -4599370 -4964580 -6881350 -7924780 
-6074970 6213560 5175830 4226270 5608100 6406700 1146700 2879820 5452920 
6473890 3452580 1468760 4202950 -15951100 -13552100 -14241600 -17460400 -16769200 
-15488200 -13661700 -13824700 -16705200 -11756500 -11003400 -9144500 -9255720 -12703500 
-12481500 -12164800 -10677400 -11774500 -13843700 -12837400 -7069680 -9018120 -14414000 
-8565170 -8192760 -9225530 -8704520 -7171390 -7643720 -9343760 -7866520 -8471880 
-10414000 -9739300 -6812830 -10303400 -9240190 -9498370 -10234400 -9055860 -8301390 
-9682870 -10811100 -10577600 -8697720 -11087800 -10218700 -12311900 -9203810 -8784170 
-11944200 -13997200 -13072300 -15047300 -15782700 -14061100 -15684400 -12618500 -10824900 
-13257200 -9652350 -9540070 -12112700 -14842600 -15440700 -16883000 -14737000 -13671300 
-15204300 -12116000 -4579340 -4535920 -4579510 -5806580 -6407730 -6151620 -5568490 
-6614790 -7247290 -4275760 -6564890 -12630000 -11142100 -12752100 -14131700 -12451500 
-8825240 -10643100 -8379710 -7538210 -9709480 -9846720 -12104900 -15612700 -15534300 
-16270900 -14927100 -14699100 -14182500 -14019600 -14634400 -13776800 -13656300 -14524600 
-16862700 -16857600 -17191500 -17277200 -17350800 -17786500 -17937700 -17443900 -18227400 
4286930 4513800 2130320 3383070 973340 -119261 703287 440866 354100 
2499540 1999660 566758 1552540 -1808950 -2389410 161352 -6470160 -8314030 
-5229390 -4005690 -6931820 -4184920 -4011580 -5054300 -4045030 -3517660 -4739590 
-3665730 -3303620 -5547950 -5821410 -6353790 -7335560 -6023830 -5909680 -4476680 
-4537250 -7140370 -7300050 -6613610 -7914010 -5396720 -6100700 -4128910 -3745550 
-2831090 -2026830 -3586260 -4124270 -2264220 -3209780 -3369780 -1660530 -1436360 
-1433550 -609392 -2309740 -3320740 -3320060 -1848280 -1629990 -964570 -1584440 
-3043360 -2022810 -2746350 -13374700 -13665800 -14956600 -16392800 -17014600 -15453700 
-16438200 -17782200 -14691900 -12548900 -1876360 -53718.5 -4879460 -4624810 163113 
-1742880 -4457550 -7068010 -8623690 -10515300 -10165400 -6879520 -7391640 -7143920 
-7403890 -9208840 -6700170 -10831800 -10897000 -5567910 -5474980 -7354830 -5320830 
-6327750 -7929840 -9307060 -9752390 -8928780 -10838600 -7965900 -8732770 -8145280 
-9443640 -9704660 -8747130 -9229730 -9466210 -7961270 -9482590 -9025100 -8588720 
-9748360 -8378700 -7952670 -9381790 -10170200 4249410 4578800 1240590 7939000 
8992660 7332440 8364530 12554300 10516100 -15328700 -16593900 -15255800 -17463900 
-17050300 -16707900 -16072100 -14757500 -3690650 -4862210 -3106460 -3088340 -4181250 
-4777520 -5655000 -2975560 -4122670 -2979140 -3585720 -4575420 -4740700 -5398370 
-10801600 -10137300 -11262600 -10070000 -9073020 -8445100 -9131200 -6866110 -8206490 
-12549700 -2899650 -2840520 -3157810 -2851150 -8289890 -12385700 -16299500 -17332400 
-17328200 -17986200 -18538000 -17940400 -18366200 -18460000 -6554290 -9639760 -6753880 
-9777730 -11030400 -8195850 -8541840 -9397270 -11389200 -7883020 -12954800 -15075700 
-12668900 -8020100 -10573200 -8169150 -6908530 -9214030 -4863960 -3964680 -2587060 
-5996850 -9153440 -17486600 -17734800 -18451000 -18569700 -19024400 -18503500 -7521520 
-3493200 -10973600 -12934700 -10228600 -4732490 -12718300 -13436200 -12552000 -11841000 
-13859900 -13004600 -14098100 -12092000 -11133200 -11970100 -11534400 -12703600 -13260600 
-11973000 -6406970 -8215160 -4874920 -4253570 -6522870 -4587000 967409 5109290 
3703170 5572260 5814660 -11617800 -9724390 -6242880 -6391480 -8352370 -6600790 
-3408360 -4878720 -4135540 -8123820 -5818890 -9558570 -7714190 -7327850 -8302240 
-3953080 -5699630 -3166600 -5630520 -4504570 -6994030 -6731860 -18300300 -17693800 
-17010200 -16272900 -15940400 -16196900 -15686200 -15103700 -4537910 -6477340 -7303550 
-8368840 -7838770 -11059600 -10506000 -11088200 -7390380 -9696720 -13595400 -14472600 
10102100 -12159100 23523200 21558400 9763240 -27880100 -30500900 -10995600 -7125490 
-5151180 -14619100 -18642600 5395300 5449460 13805900 13534700 18744100 23846400 
16129900 21186400 24715100 25067300 5056640 13702800 17516300 -5637100 -17397100 
221128 -25400000 -27798200 -22065400 -31839300 -26550900 -30386500 -20658300 23597300 
19089100 23871100 20598300 13223700 5067340 -17749500 -6158810 -33439000 -25114400 
-23872300 -35330800 -17605 -110755 -46512.7 -71240.8 -100161 -60437.9 -19707.1 
57665.8 -125817 -17553.5 51056.6 42971.3 63561.9 9876.13 10785.1 -30876 
57196.5 -37138.7 -34161.9 -55509 -38671.1 -40963.9 -35761.2 -57391.9 -22601.1 
-33054.3 -49795.9 -72588.1 -60908.6 -29534.5 -29801.9 -64931.9 -76679.1 -90085.5 
-88699.5 -57721.6 -105299 -75950.1 -72003.7 -99056.2 -80372.7 -113979 -33760.2 
-68611.9 -81287.5 -48930 -74504.7 -34034.9 14564.1 -50784.6 283.588 -23880.9 
59030.2 10814.6 -9621.73 2732 47116 25174.6 45538.4 -79871.3 -413118 
-118731 -28728.9 -33308.6 10011.1 32863.3 85488.7 12534.4 -37235.2 -21140.4 
-10757.1 -63712.8 -14141.6 -34059.4 13122 15403 -14704.9 580620 430779 
-71369.3 -24237.5 -43626.5 -75740.4 -40037.4 -129418 -48856.1 -61617.1 -78138.2 
-102144 -94007.5 -44566.4 723.942 -70937.5 -6945.58 -46310.9 62764.4 -47474.5 
-65315.4 -5589.93 -37418.7 24283 -23763.3 40501.3 -26983.5 -6112.56 -2780.77 
47915.4 11502.6 43155.3 23823.6 623.657 58263 63167.7 59469.6 29778.3 
93780.7 40636.5 -7426.44 33107.8 34423.6 8117.09 -22356.8 -16736.9 -12466.1 
8694.6 -13642.3 -4467.4 -3497.33 -19681.3 -32309.5 -13573.6 -6584.34 -14935.6 
-13228.5 -18213.3 -16501.6 -5918.31 -22228.1 -10055 -7232.52 -7074.63 -21104.5 
-5856.35 -17481.9 -13403.5 -11403.5 -25657.2 -25471.6 6086180 -14788100 -12444100 
-4349110 -9347860 -7230400 -16632600 -5188390 -2734940 5987010 -1052460 -13868100 
-10087300 -9683250 -13776500 -6670520 -10094400 -8772400 -8952370 -9186590 -9139650 
-8959250 -8513950 -8892580 -7660940 -8720790 -7972840 -7941660 -6947280 2135720 
4041120 6606740 3706630 4436480 -6646140 -6927210 -15349600 -17206600 -14319100 
-16195100 -15880000 -11298300 -11748500 -12066100 -12124900 -11658900 -13664400 -14120800 
-1810610 -3472990 -4810200 -1870850 -3298570 -10891600 -11733800 5573840 6213760 
-1827300 -1791050 -2078930 -5675960 -2304330 -3410630 -2376660 -4714340 642719 
-98382.2 182614 -708115 -968733 -3585430 -6830140 -1848410 -1333370 -1416480 
-2630680 -3112730 -1824450 -1293240 -3081470 -2592950 -1004450 -964942 -940914 
-2027950 -1058610 -1031480 -1082170 -1110560 -2660020 -1725770 -1806110 -3390570 
-3416860 -1752300 2090500 -3386810 -2660620 -4541720 -536967 -1825780 -1806380 
-1766500 -1085880 -1191060 -1141300 -2762290 -2160050 -1782730 -3322310 -10345300 
-11175300 -13072900 -14566300 -14975300 -14674600 -14313200 -1588970 -1554550 -1593800 
-2213080 -1061630 -1175390 -1024110 -1143310 -1074640 -1091180 -3035750 -3010620 
-5760440 -2940860 -2984900 -2903340 -13852100 -263722 -1373220 -3137530 -4007890 
411192 203532 502121 -29501.8 -3239590 -1566070 -1614260 -1065020 -2046250 
-10665900 -12804200 -12699100 -10663800 -13493500 -6068020 -6303840 -5582150 -44611.1 
565115 679364 -201137 -2412460 -2391590 -2457650 -3358350 -1154980 -287668 
19698.4 -258281 -316874 -599085 -13498900 -13931800 -523054 -2254630 -11668400 
-11272900 -12810800 -11185000 -7998400 -8785920 -8568120 60360 -22479.3 -3332450 
-6634690 -13098800 -13820500 -15476500 -12149000 -11540300 -8847710 -10278800 -12018000 
1546550 6803200 5739430 3514760 2547880 8281720 10035600 12762200 15656500 
-5042200 -2137220 -15740700 -14584600 -15149500 -2352060 -869178 -1472350 -867475 
-1706890 -963960 2064990 8656380 9024770 7929200 -1651170 -1667550 -1576950 
-6660350 -8401910 -8535670 -8394920 -7875540 -603016 -285454 13385800 13149000 
2521150 12072300 -279142 2576.94 -310212 -9502630 -15221600 10570600 -4922400 
-8077530 -8275880 -1617420 -3175500 -1720360 -1219230 -2284730 -658034 -280352 
-352807 -259745 -711116 -243099 -600525 -234721 -5435890 -4986090 -2451610 
-2511450 -2548770 -6555270 -7954720 -8329660 -9677870 -36077.5 -9891060 -9760050 
-9779940 -9269810 -8217620 -8732300 -13897700 -12888800 13355500 -9761880 -642318 
-1094980 -587978 -18126100 -17468700 -17324600 -17865800 -10619200 -1580550 -1040210 
-2563840 -2063570 -1027800 -1553710 -3069730 -2500710 -2473780 -5116910 -4961310 
-267287 -8183470 -7442150 -7282230 5832230 7097260 7090430 -7343240 -2954010 
-2235420 -4317340 332872 -11120400 -11886300 -10542400 -11319000 -9779260 -10544200 
-10206100 -9401480 -14483400 -5082390 -6010980 -5146600 -6110670 -5168910 -14808800 
-323890 -573689 -1285190 -584521 -18370400 -17676600 -18007800 -2810480 -2767790 
-5625260 -6291240 -3570890 -6807410 -977741 -984824 -971189 -8740390 -1493230 
-3003210 -7586240 -1597080 -1547660 -1546900 1791380 28359.8 47646.1 -4316450 
-5316300 -5600390 -4762070 5009800 -173036 -227140 -2495420 -4900750 -4521490 
-4580250 -2794890 -4163110 -7035870 -2780860 373146 -4298030 -2564720 -2430060 
-2379220 -3902570 -14684800 -13432900 -15075500 -7993700 -1590460 -4973270 -9435470 
-7855860 -1043710 -6840780 -6527370 -10247000 8859060 8430490 9561590 10487800 
-14166700 -15308100 -13983000 -2185840 -2877990 -4846210 -2096700 -15285500 -377959 
1796800 369826 -6973040 -6153430 -997923 -1933570 -974054 -5443730 -6183450 
-2377210 -6385390 -5851040 -5570260 -2475980 -1594350 -850060 -1693440 -852963 
-11081300 -12719700 -7057930 -1486770 -3052900 80291 -16847200 -16481100 -15617300 
-15364000 6002650 6867270 -16930700 -16349900 -16943600 -17660200 -17283200 -12494000 
-6473780 -994995 -443953 558823 568689 -160990 -17101800 -13718600 -11181400 
-9767330 -11918000 -12151500 -10957500 -10537500 -7732630 1469270 -17360000 -15942200 
-4047910 -647985 4597210 2923380 141538 -5712790 -450836 -864633 9821030 
9193160 -2212820 -5008680 -7204770 -9568380 -14496800 -15622000 -14320800 -2208900 
-4478030 -9764660 -9365650 -6784150 -5534900 -7380870 -8690560 -8346010 -9103340 
-10025900 -9269710 -5989630 -5949460 -1733740 -1614770 -7841650 -7742910 -7991830 
-13371100 -15136700 -13598400 -15332900 -13528800 -7518540 -3008320 -2084020 -13143100 
-12078400 -477268 255964 -7220960 -7705640 -6714600 -15771400 -16288200 -16303700 
-198954 -6122160 -7011720 -3977170 -2139290 -4278000 -3139750 -2165420 -9060830 
-9542920 -8614450 -8193440 -18048400 -10851900 -10275700 -3129740 -4026360 -4212730 
-1526330 -1592410 -1779040 -3350340 -15551200 -16521800 -3364230 -4377510 -3227060 
-10788100 -10151300 -10072900 -7770130 -10026900 -10443600 -2181670 -4163280 375662 
1901270 -5637260 -4439360 -15660500 -14660400 -16752600 -44913.5 -2156970 -2357960 
-5570680 -5511440 3055180 -18287900 -18552900 -6432790 -3344650 -2333790 -2726430 
-9195580 -9354200 -10078300 -1249930 -674115 -18007400 -18471700 -18996000 -18871800 
760210 152756 -18930800 -18619300 -9026260 -7367240 -6435550 -6467780 -12597800 
-14262900 -15049600 -9735720 -10622700 -3546360 -5675960 -5944730 -9289250 -9536020 
-9773670 -8261540 -16206900 -2147920 -2984470 -8237380 -8177980 -9323720 -9467680 
-14315000 -4157280 -3931490 -451762 -800311 -7626970 -7158300 -3334280 -2318650 
-4367550 11141700 -12461100 -11668100 -11346700 -12208700 -15654500 -16843200 -15438200 
-4604330 -8294110 -8431070 -6468020 -6266810 -449302 -460403 -8422430 -11109700 
-12797800 -10857900 -10309600 -1769800 -6943570 -7437100 -4979990 -4680720 -4625950 
-3865250 -3605830 -3917130 6158820 6235560 4579530 -13440700 -17281700 -17502200 
-7963590 -6565630 -9491960 -16589000 -15384900 -10706600 -12159100 -474282 -826033 
358977 24832.4 81178.6 46707.4 -4568640 -4615530 -5901510 -317361 -364458 
-13326300 -12240100 -18673100 -19079600 6514000 -4973540 -4809540 -3713870 -12285100 
-11161800 -10873700 -12020800 -3628210 -14831900 -689449 -6646110 -1360180 -701866 
-4891800 -9076880 -9126030 -7621010 -7663830 -8162490 -216619 -146433 -165587 
1574600 4974850 3223940 7008010 -15598700 2172580 -11571700 -13497200 -13067800 
-13764900 -14147900 -14047800 -15494100 -14116900 -4601710 -1373760 -16684800 -5831030 
-12149600 -10943100 -9421100 -4903120 -11274600 -11186200 -10539400 -4165530 -16770400 
-14493900 -17138500 -15717100 -7381190 -18424300 -17104500 -17389100 -11821500 -10721000 
-12574900 -1848800 1519420 -14411700 -14337800 -16389900 -17966700 -7902050 -15032700 
-14064100 -14565700 -13476700 -14492000 -12742000 -10569100 -10431500 -11715700 -9771640 
-5463090 -7933660 -14184200 -14918200 -3527180 -7048900 -6375520 -1168280 -1143820 
-1119350 -21476500 -15381400 -21935200 -21909700 -11199400 -8124830 -16864700 -12659800 
-13453400 -13365700 6586180 5623810 8252220 -4554220 -9240550 -15552000 -480626 
-1533660 -970251 -1647380 -2275090 -8496270 -16389700 -17823000 -5682430 10316400 
9652080 10052700 1813620 -450743 -17552700 -14563500 -18012000 -2354380 -18359800 
-1417980 -8956570 -9535060 -14203600 -6050740 -12575700 -11998600 -11251300 -13434400 
-13798100 -11599200 -16163700 -6497840 -10194300 -10834500 -10130100 -1139470 -14068800 
-14985100 -13991300 -8866070 -15240100 -2843920 -2877240 -2890260 -6576820 -6624130 
-8668420 -16894300 -6193420 -4495620 -5851050 -18844300 -19223600 -14828100 -15672500 
-18748900 -18716200 -18998300 -19097300 9292420 -12590300 -13975500 -3589860 -4630870 
-13105300 -13412900 -2060910 -1768540 -2158200 -2245170 -3592720 -3744210 -3731750 
-16030700 -6140230 -2613890 -12004600 -12029800 966127 8193530 6524520 8598780 
-12017700 -12756000 -20530500 -19549400 -348941 -2186250 -13016600 -12747500 -12957500 
-15013300 -10250500 -10569800 -12675800 -7343300 -8277080 -17426400 -7027510 -12320700 
-7464150 -9246250 -13568700 -14737200 -6586700 -5779330 -4618880 -11088400 -3520480 
-8604620 -6307550 -12357700 -15640600 -13820700 -14651700 -15974400 -16319100 -7371360 
-5326740 -7042980 -2637300 -6151650 -7952550 -8554140 -9138710 -9215270 -8448970 
9423980 -445903 -2199850 -5122660 -5015030 -10605200 -13013500 -14208100 -4883500 
-3807570 -4979580 -8503250 -7039510 -6984570 -8964620 -1269410 -13656700 -6426430 
-1417820 -7181130 -6653400 15133000 -11877200 -10137400 -22304900 -26369600 -8770080 
-15533300 -10916400 -1827440 -728214 -773192 -12712100 -2578370 -8828610 -9806270 
-2084590 -18603900 -1109220 -1159210 5468840 5657050 5115740 6282980 6751500 
-5408820 -5836680 -16574500 -7501900 -7469220 -6189490 4369680 4516670 6519880 
6661170 2276400 4343210 3238060 1950530 382654 -16896700 -16984400 -17474500 
-8701300 -5441930 -5777660 -6355510 -5825100 801392 1233430 2926680 -10283100 
-3303090 -4800640 -7939370 -6583030 -6967640 -7287230 -4774120 -7606750 -4290030 
-11324900 -9269270 -6789010 -1597650 -1644700 -9379340 -9431820 -7410550 -6104850 
-5677280 -15921300 -10879400 -2966230 -2912660 -567187 -556253 -2496490 -12815400 
-1051850 -1079120 3796950 -11184000 -16493700 -4509120 1898790 1454660 379629 
-7795580 -9107940 -7203680 -14804900 -6566010 -6615180 -19238900 -18493500 562985 
-526625 -713368 -131268 -6426380 -6427280 -9869370 -6769020 -14039800 -4061570 
-4017700 -1125500 -18298700 -17753400 733909 536951 -4556280 -14121100 -7752480 
-3526780 -9143380 -8624330 -18056000 -8368460 -4633160 -2549990 -5729500 -13352000 
-13418900 -13118000 -9263380 -7837550 -7895100 -331889 -3051790 -4084950 -9240470 
-11667900 -5245590 -9483250 -12669500 -1859060 -5150410 -10545200 -3252290 -6269820 
-8472400 -5364570 -2580290 -2273290 -834883 265915 7470260 7303320 6382960 
-920311 -5919590 -5885610 443648 -1332820 -483025 -489978 2510890 2356050 
-686177 -1072990 -18637800 3361130 3360540 4783820 -2492010 7886490 8219120 
-2856130 -14099900 -10707700 -9911720 -9541080 -10354900 -10287200 -10997500 -17881200 
-17920500 -17509900 -17810400 -7174330 -9973020 -16819300 -17557000 -20447900 -18630100 
-4104190 -14895600 -14008800 -10106200 -2044990 -2751260 10461100 6033770 -5109940 
-5132870 -2577470 859877 14472600 -5471210 -4237930 -11132400 -17387900 -12393500 
-13366600 -9246910 -11075800 -725399 -3145020 2614270 -6305360 -17700300 -12369500 
-1797430 -1838350 -5091140 -3532350 -14735600 -558244 -2384760 -12306900 -4409700 
-4821090 -6360250 6461190 6020560 -3186920 -496857 -2561360 -12694300 -10085900 
-2022700 7422340 -967595 -1142370 -1075010 -12591100 -9309100 -13112200 -4932220 
-6836860 9672110 634429 -15801900 -10937100 -34480.7 5316170 4650360 -4313940 
-1450410 -2538950 -11703700 -17144700 12055700 -2549320 -10360700 -11905100 -5746030 
-5569230 -1402200 -1431730 -9740180 -5699260 -2951780 -9671990 -9735370 -3431750 
-16927800 -16600800 -4759440 -5452390 4235670 -5778920 -1010420 -1657310 -1523780 
-3838260 -3881290 -3971360 -29612.6 45972.8 -4601490 -4647390 -1727960 -10015100 
-3351740 -4077130 -9252710 -9687490 -7662740 13422800 8087810 -15952900 
Stress%20xz%20component 1 3545 double
3233270 172243 -354859 -897294 -14204.5 -11157.7 -182336 5834.03 4037.09 
-53549 582388 2444980 -1657240 -964719 2594440 3370850 1667410 -1453480 
-504096 -282211 1248650 62047.7 278308 208277 -27029.2 3157.49 6520.11 
-20663.9 42.5782 1476920 -373230 -508964 -4015240 90604.4 1058300 185425 
362558 194511 31712.2 62244.4 92408.1 64757 76811.7 67329.6 42387.8 
39183.3 22367.5 -12732.7 -58208.4 52673.1 -934846 -1525920 -3240360 898285 
470640 232074 214097 75842.4 35447.3 70608.2 92143.2 65071.5 75649.3 
89486.1 52884.2 57731.3 4200.54 -28313.9 -45433 -13104.2 -7653.48 1443.41 
-22273.3 -13597.2 18977.2 227.712 3094.79 -3383.92 -11130.5 -6576.4 -23615.8 
-8127.37 -31162.5 7123.88 -2657.27 34765.3 -17679.2 -7583.27 -66213.1 16848.1 
-9896.18 -27192 18817.9 -6313.52 -4760.1 -875.085 3676.28 3886.97 1563.29 
3730.51 2185.19 -6142.11 -439361 -87989 -105910 -20584.2 -11065.3 -331.07 
648.643 23028.5 3571.48 -9393.12 -1381.72 -18233.3 13334.1 -12199.1 -15628.1 
-79225.4 -119775 -687.83 451280 208817 420015 3181540 87167.1 -818049 
-21996.3 173919 452912 -851293 521110 4019620 -391510 456932 -2308660 
170767 425638 28222 327333 157170 -78027.4 -884.685 15826.4 26896.9 
3567.61 6244.31 26752 6766.61 -583.448 11751.4 -1872.31 -192220 -70884.1 
-938487 -76186.9 -33169.4 284251 -21283.3 345961 44763.4 6302.07 5040.94 
3645.08 2781.64 -4973.06 -783.288 7327.71 -25992 20993 -9090.91 2517.19 
-2995.97 -506.488 7487.33 5483.93 -8073 -11856.1 10254.5 -14228.1 -9769.48 
-4465.26 4000.91 18953.4 23905.6 -5310.97 11965.7 -1304.32 -1919.58 -25795.1 
916.516 -850.316 -65690.1 22320.8 62002.6 40796.6 -34585.4 25313.7 11274.1 
4961.66 -4519.4 -1702.13 -1055.74 -411.153 -359.216 -8421.42 216769 205970 
87800.1 38228.1 16403.5 6844.6 5196.49 -11086 -562.562 11261.9 7361.39 
16459.2 -12013.8 20775.5 2332.35 311198 -187782 118061 405938 -444160 
1162660 2887650 291086 534992 37005.1 -37147.9 327012 -886462 5482560 
-672649 -35363.7 -1963.36 -113741 1827290 1974360 901287 -325122 2717690 
1123540 1544580 -253740 -28175.1 -226092 -104076 1478850 2831070 856942 
801498 1878720 -112247 1070150 178213 1291790 695985 -673963 -946338 
-388757 169272 107180 18457.9 102428 -3280.03 -11487.3 -42871 2204.02 
-1097.58 7406.28 5537.85 1342040 12384.9 -9919.54 -6335.74 4337.71 -6413.97 
35195.8 1923.31 -2918.15 759.923 -974.613 -643296 -772937 750.343 4852.48 
1340.77 -3247.1 -6398.49 -11593.7 -6567.79 -6322.02 -799.441 -226.537 -1464970 
7318.88 400.18 -4000.89 -35.5517 2897480 -1564.95 2903.24 30716.2 -110134 
-1376.62 -24992.2 -469.472 5759.15 -92383.9 1191150 488.89 -940.347 -3837.49 
-2681.89 494.111 2310.65 -10468.8 -10076.4 -4733.35 -580613 -194746 -1841480 
-4370.98 8833.13 5237.21 2350.39 -1716.89 2849 2243.02 -172469 1025.29 
-214953 -860.583 486.49 7782.79 1517.58 -1096.36 -32970.1 2112.75 -6685.89 
810.091 -121367 -16620.4 2463.32 -5373.11 -7618.07 -9545.21 -5028.12 2204.09 
-3345.4 10156.7 1201.84 -9420.84 4339.25 -1425.03 -6062.78 -776.504 1449.35 
675.048 -626.309 5025.34 1351.65 2486.31 975010 226374 49475.7 -1943.86 
-4235 -18131.1 745.635 289192 3842.7 17096 -5175.73 11822.6 -619.594 
-4099.8 -174248 230926 6060.81 -998818 -4783.78 -127387 -104437 -2839.39 
1352.87 -1975.44 2165380 1212410 -51468.4 47.0237 155.529 -208.3 2673880 
1642.52 -7020.63 20593.2 -228046 35202.3 1378.09 2232.38 9388.98 28983.2 
-189483 -1056.74 711.456 9017.24 -20022.8 -1999.87 351.177 743604 -6005.24 
-1206460 -291628 -249.3 997907 -3558.14 -16865.8 -823.012 10954.2 1251.49 
-429.591 -188159 1683.53 -181035 23081 -1137.82 -27255.2 -80858.7 -94929.4 
3306.15 -6488.7 16966 -2275560 2645.92 -4023.55 -9570.12 4871.85 -69194.7 
701.832 -2861.65 7767.46 -2976.23 5855.93 6451.01 -15657.7 -7612 -3375.38 
-661389 68425.5 -62018.5 -2478.11 -426044 436022 2956.06 -2630.83 20997.9 
-77787.7 4736.91 3534.04 -4850.91 8871.91 -4796.75 18054.2 2520.48 -6583.63 
10189.7 -950.088 -9978.64 4428.16 3180.14 588131 637123 354431 -831245 
-525444 -639035 -17617.3 19243.1 -47080.5 -10957.8 2357.44 -6125.93 48309 
-383717 107251 40670.8 842620 995722 1684630 -1804410 487621 -1068920 
-110724 -2417240 -851876 28954.5 -180722 -38823.8 27408.4 -81330.2 -96346.6 
-26024.6 -6264.63 -14095.8 -5672.86 63606.6 1806.71 24787.5 107168 17271.4 
-8784.77 -74287.6 -780.492 477.082 56548.6 -2529.31 -15739.6 7870.15 -7056.33 
8512.3 33019.3 1267.7 1982.03 -25287.3 -4173.47 3750.97 -908.826 -5846.84 
7904.74 -13629.6 -16968.4 8745.76 378.764 -1194.04 -3102 -11175.1 3693.29 
-10649.1 -11076.5 40430.7 -179348 297231 -424678 -42241.7 -66624.7 30883.7 
-136479 -128738 348668 17634.8 39135 -236630 292076 -875493 -2186340 
-1034170 2597940 4116140 -2725390 5730480 8090.73 -18624 -21492.9 7157.77 
-5840.61 19599.7 -6733.49 17462.3 -218.673 -7334.98 -1249.02 -1991.34 -16037.3 
19632.4 19719.7 -14792.5 -8847.11 6355.7 6192.49 2936.66 5987.83 -19736.3 
388.602 1657.97 -5144.51 -2335.49 18488.5 -33151.3 1956.17 -369198 -619488 
-927431 908765 -455267 36679.1 -2194580 64884.3 -169380 223287 842398 
1057680 475330 345057 221325 -158176 -2034.3 217728 369598 -23464.3 
193023 88022.8 96733.7 -91979 -161159 -92847.6 -7002.85 998.755 -306799 
36850.4 24555.1 -54929.8 -22009.1 -47803.5 45513.1 23990.3 -23996.8 28926.2 
51430 -20831.6 -4338.79 537.534 -5921.18 7757.51 -42242.9 30083.5 26294.5 
-4508.7 23023.2 11938 5952.91 3494.28 6541.61 -19725.9 -9633.66 18998.4 
-36621.5 11591.1 3880.62 -21285.4 -8321.83 19524.4 45678.2 25434.8 6662.68 
36941.6 31341 17149 -3352.06 11018.4 -1449.17 12736.7 -40285.2 -28562.3 
-28405.1 2721.66 -3189.19 12215.2 7206.12 1692.87 -21118.3 4270.66 -35269.5 
6073.41 -21614.2 15645.7 -23611.3 13596.2 -22794.3 33217.8 22713.4 -6838.2 
-32968 -46592.3 39874.3 -866.522 -90474.3 -42248.2 -195124 -82945.6 -154582 
-130581 -135419 -11251.3 -11536.2 -42829.6 -12672.9 -595.337 21901.8 14205.8 
16177.8 -28762.9 9296.86 3159.74 18496.9 -5663.98 -35376.5 -1849.57 1520.76 
29993.5 -7359.7 -33771.9 -25591.8 9254.8 16324 -5398.7 -11992.2 -640.46 
6089.41 12358.3 200.258 6305.43 5825.17 10104.9 2483.39 -4006.39 8675.55 
6849.98 6118.72 -3656.51 1619.04 3353.94 223.225 -11018.6 4351.16 7982.29 
404.068 -8292.44 4240.93 7492.19 -14539.3 4027.08 924.421 805831 -471099 
322608 -497656 1013210 351513 118812 855738 1524350 909584 1420320 
483411 -125713 -56807.9 38832.9 -4594.19 -7346.98 -45700.5 -87893.8 -39432 
33613.1 -747.218 -9814.98 15332.5 12133.2 28694.5 -29608.3 -500.203 -12270.5 
-7050.77 -34650.4 2279.08 -23452.3 -89782.1 -7982.75 -46800 -6831.41 -10603.6 
-4478.1 782.344 8892.81 -10507.2 -19862.9 -16103.8 606.766 -5326.17 1241.39 
2652.66 -5060.72 280.993 262.315 -15915.4 -9254.8 -25783.3 -11348.5 -1633.35 
-7716.77 5994.95 -43683.8 -17952 -36693.4 -15138.6 -575 -38642.2 -2135.4 
-5202.75 5623.6 23937.6 12076.4 -9832.4 40871 2181.42 60686 30447.8 
-65165.9 75257.9 -17811.1 34932.7 4569.12 14050.9 -6330.63 -22492.8 -7804.29 
-5036.73 -8261.17 3419.3 -6123.65 402.372 -1836.66 17401.2 -706.367 -3400.26 
-6473.15 36536.9 -6512.43 23524.5 -18221.2 7795.88 7768.85 809.845 22003.8 
-12168.5 6312.07 -9874.62 11388.2 -33802.7 4205.46 -4198.8 -29867 1110.36 
-18162.6 -5438.91 -17151.4 -7958.28 -651.911 -7413.07 -6769.22 -1584.44 -47289.5 
-37091.8 -8218.17 -23126 -11449.3 -6870.07 15843.1 -650189 -592235 -339571 
-461517 -646191 80043.6 -791927 205168 484335 482582 -1036630 -538636 
-150144 -391761 -690001 -2085350 -2353340 -1244230 -391764 -118359 -316147 
19181.2 10434.3 5850.76 6182.15 -7580.22 2667.82 -21394.7 7380.94 5477.9 
7466.91 17024.5 -4676.92 -2060.36 -14620.8 -3288.16 -14160.5 -17526.5 -1672.09 
1321.32 23592.9 -184.182 5934.75 3912.19 -25947.7 9209.87 -253.686 10178.7 
-7418.46 2258.87 11800.2 6308.44 9201.6 -2463.27 -16863.2 -6422.79 -7934.66 
6037 -750.915 880.289 -5056.57 3099.68 2000.86 8652.19 1350.21 6104.69 
-10491.1 38197.6 -6212.17 -14398 -15313.3 -17828.6 -5237.34 28189.3 4542.87 
-9171.18 229186 -134933 -133258 -133158 76502.6 392237 -278310 -16360 
-24294.4 -9750.16 -17956.4 15993.2 -5276.16 6774.12 -11119.1 -599.956 -19433.2 
-40018.3 -7759.51 -16498.3 7109.77 -5585.24 -4202.6 17209.2 -11249 -34501.9 
3478.96 12021.5 15900.3 12027.5 9665.44 6544.56 3409.51 -17571.4 730.184 
3565.46 5273.43 9960.54 -1016.71 5026.42 4349.31 -658.71 -3317.64 -11249.5 
8434.37 17443.3 -94316.7 -358005 -498326 -1736230 -801228 212305 -789392 
-1560130 -1721730 -2155.73 835.142 23624.9 -26416.3 -6735.9 13511.2 -18129.8 
19970.2 8456.22 11963.1 -4236.51 -7019.1 -12944 3225.82 3326.72 -4496.36 
7672.26 10587.6 10584.4 3939.85 5009.76 -7097.12 -18362.9 9302.91 -10118.3 
22342.7 10306 22922.8 -15010.3 2670250 -1093050 1486690 -207682 933252 
674394 15966.3 2211910 4476640 -3490.94 -19904.5 -33194.6 -37687 1147.58 
-6979.85 -9567.92 -17630.8 -20072 -7311.34 -1920.09 9301.51 19015.6 -23030.4 
-44360 13422.8 -55624.5 -30902.2 -26095.8 -53914.1 -17811.4 45831.7 -12341.7 
-22599.6 -75831.4 -110488 -114293 35495.1 -139563 36424.1 -197651 -4841.58 
513.888 -39730.6 -38572.1 -29790.3 46877.8 -72677.1 -139775 -53314.7 -53543.9 
-38544 -120978 -23735.5 10854.8 26671.1 23415.6 -13316.2 -5328.35 18365.6 
12212.2 4056.99 -6727.67 11638.8 8641.52 20287.7 12951.4 -14987.9 -30612 
-92879.6 -157970 -87669.9 -219923 571617 1059300 -49525.7 1169960 173606 
-14010 -5881.7 33625.8 -24200.9 1154.93 -349.078 -2151.54 -6507.44 -6272.79 
137256 -150744 -3171.44 -49871.9 228519 30503.8 4313.41 -8542.05 1168.1 
-2319.16 15386.3 15835.6 -846.168 21954.1 -56940.4 -5800.16 25781.5 25640.6 
452.762 27715.4 12049.1 -225035 9874.52 1028.37 1420.09 12887.1 2050.17 
7868 38970.8 -73212.7 35458.4 -8077.69 19204.6 -152670 -37620.5 -184218 
-1907610 -2531970 1011580 323050 386413 448324 69060.1 18832.6 71871.5 
79753.8 65236.5 43268.9 45947.1 43128.6 18415.3 10545.5 -25343.3 386231 
-652518 -169595 -390312 -21493.3 -23070.1 -48925.1 -23395.9 -218046 -249179 
-288169 -412573 -3304320 -1362000 -259465 -231003 382998 -1542480 -3981390 
-2709310 -3861890 -2260790 1276790 861218 -932254 67078.9 251189 217347 
587741 760004 774833 633482 525921 313496 266887 192173 243413 
257995 185868 603082 317175 175894 101329 185135 353923 189926 
95625.8 74893.2 3522.57 -67282.9 -12842.4 21042 96253.8 57057.9 -5868.61 
40860.5 34254.6 83850.4 89256.3 20581.5 59503.4 47124.7 67660.3 85399.4 
55010.1 72983.6 40555.4 55999.6 78768 59821 48490.7 9877.19 38953.8 
65247.8 25371.6 43704.2 29387.5 26855.4 43745.6 40222.6 32835.2 37705.1 
22889.8 60372.6 47891.8 34226.3 -20426.5 -31892.2 18134.9 11116.3 7660.85 
-6988.1 -48952.8 -2309.56 37038.1 -1260.63 -19862.4 -34549.2 -10073.3 -9654.21 
6987.36 25097.7 -2629.12 -5923.47 -1369.36 -7231.17 650544 5581.89 -6970.27 
5132.37 279.1 10310.9 4339.42 -1318.27 -1594.81 -1681.85 -7401.77 2534.51 
-54688.5 170.739 -12625.3 1026.98 -1212.38 24282.6 -72944.5 9032.31 6378.81 
-3517.53 -2012.61 -98982.7 5117.09 -2899.46 9807.07 1489.3 711376 6518.3 
-11411.1 -39892.4 38273 1115.26 -129297 -7480.42 -7577.82 -10942.6 -304054 
6384.06 399.384 -2636.23 -54216.7 -4011.53 -6757.29 10603.9 -21310 20836 
-504363 -206153 -1513800 65.1085 -10534.6 -10834.6 6541.46 -4664.07 9009.87 
7854.6 -283585 2322.35 -87352.3 -10312.3 3053.11 -3111.32 407.111 3135.04 
-109650 761.555 -348.231 5767.84 -42042.4 16863.2 -12512.2 -9539.1 -2546.42 
6000.7 4014.8 1200.68 42817.2 -7518.43 -6640.06 7366.5 -15646.2 1037.83 
8434.52 1958.95 343.167 -4498.24 3150.42 -3767.07 353.439 -636.003 244507 
199229 -456221 7886.66 4117.97 14758 -751.762 12598.5 -2724.2 -14414.9 
17793.9 -43671.8 5506.08 6189.82 -455688 165973 -9733.48 111772 -7478.12 
-7778.13 -49665.3 191.029 237.448 2658.49 -482741 -1427400 31653 -9584.73 
849.465 -5302.73 -115923 948.803 18677 -28856.8 -86761.2 41389.2 -2475.51 
946.858 -1559.31 -77483.8 146577 3321.64 -2781.24 2757.72 16615.6 -5321.68 
-2829.39 1876320 4785.16 -121900 -82913 612.616 128542 250.666 6199.35 
-1469.08 -14571.6 -12730.8 7362.77 -116181 11739.3 -136090 -11545.3 4911.09 
-9411.41 -15193.9 -12898.9 -891.066 -4214.07 3061.93 -415011 -672.36 -379.723 
12498.5 -12999.4 -17816.2 5833.45 -618.506 -4574.58 -37.7647 1608.88 -7053.07 
6855.56 35054.8 1067.47 885161 86683.5 -27370.2 -9776.83 215431 -115050 
1868.63 -707.848 -25230.5 -36796.4 -1770.65 -5237.79 763.218 1938.84 4067.83 
-20284 -1929.21 3694.84 -14061.8 -4181.54 -1560.89 -6001.74 -10645.2 261412 
149858 -251108 -1101480 141191 871781 -15905 10189.7 5773.4 5301.71 
484.403 -14292.5 44778.7 55629.5 -115088 -65527.9 -173653 -385072 283618 
-579298 24200.9 405910 -226067 20377.7 234471 -304220 -361330 -292914 
-391127 -51323.6 -21784 281260 2228160 718786 -1633210 156254 2502.91 
-9449.09 -11754.1 -674.929 4513.48 1120.38 -15307.4 -8812.21 -1461.31 -9048.7 
-1628.3 19023.8 -3201.12 8808.57 12347.2 -8677.45 -12356 10780.9 -9941.25 
20426.8 14578.9 -1834.12 16382.6 5485.13 8028.21 12352.8 28957.8 -9520.76 
-6480.48 980421 585156 376899 176912 -325846 1469310 -196772 153717 
-21581.3 104874 144462 165589 -41423.9 -1013990 -31312.4 -870979 1122690 
-361801 711054 146780 -293662 212601 240697 80488.4 -298457 -174516 
-128846 33797.7 1267.27 22571.5 -70569.2 -92613.5 13702 -195352 -365608 
-45745.2 -20040.4 -57920.2 72056.8 6083.3 -25097 42088 50598.6 2897.93 
-19230.9 12859.3 24240.8 -862.09 -6265.23 4911.55 3493.91 -26845.1 -6039.57 
9459.56 37318.7 -8502.91 14538.5 3240.66 -556.73 19138.6 2080.41 -3811.38 
11420.8 13667.7 -43108.5 -4419.66 6583.89 17745.2 -9413.39 -9043.29 24179.1 
-46315 -37971.2 106192 -35619.3 77845.2 37292.2 26728.8 30224.4 -28321 
-41693 13535.4 20091.8 -112020 -9155.42 27059.9 -64031.5 -28654.1 16566.8 
50689.3 -4024.49 3655.23 -28803.3 -3827.97 14950.3 -34411.4 -5572.47 15931.3 
-14346 -12206.9 6772.8 12000.8 -1277.04 7737.05 8084.01 -4707.64 -119.073 
9882.43 6303.71 19352.6 -4300.1 -891.759 -871.06 -9365.29 16292.2 14273.2 
7772.81 44582.6 12370.7 44055.2 4462.26 38136 6867.76 -700.795 19686.7 
-12454.6 -68315 -38518.5 -7182.78 24744.3 2180.56 -712.526 -9426.56 589.506 
-19847.5 -13802.7 -6249.71 -20885.3 -6204.6 1397.15 -6582.48 -14149.7 -36346.7 
17581.4 2067.91 28374.4 45181.3 14445.6 5785.47 12092.8 -30668.4 7776.72 
-24966.3 3085.74 -99436 -38304.6 15877.4 -39765.6 -20812.3 -14137.6 -7026.74 
-14380.5 -3618.24 4774.45 32156.6 -34992 -4482.93 12145.4 53084.1 13931.8 
-10111.1 38157.6 -28204.3 -10674.7 -36061 -16753.4 2439.91 -10150.8 2150.84 
24853.7 17371.6 14097.1 4395.87 2762.49 3612.48 -2545.97 3478.19 8009.26 
-9022.74 -8446.13 -7750.03 -1436.22 2267.78 -8924.25 5549.45 -12637.2 -3042.88 
-5522.27 -6413.19 5336.76 -2451.66 -8399.78 -3761.53 9699.72 2031.98 11971.8 
-1680.51 -260197 -202576 -30745.3 151234 -350959 -227790 613811 -180427 
-99803.5 -683058 -764713 -312621 1903.12 1676.27 129088 -44646.9 -45270.6 
-29406 -98231.5 -72430.6 41069.5 -54445.3 23429.1 33186.4 7485.62 -14364.3 
-14558.6 -12422.2 -6752.22 8988.67 -5140.86 -24898.3 140.483 -9015.1 -4035.43 
-9563.98 1542.61 -11254 -4379.97 -1825.03 2144.46 -3174.56 -1410.12 722.427 
-11330.4 149.8 6392.79 -8782.15 -6765.96 -6868.97 -4931.21 -12661.1 -2267.51 
-14530.6 2013.88 -26619.8 -3133.9 3874.88 -28908.3 31383.2 -30991.4 27794.3 
-46870.5 17241.1 25806.4 -17712.4 -32425.7 -11582.2 32644.5 -63120.8 41733.9 
47451.8 -43427.7 64049.3 -1547.12 -29328 5579.48 -97134.2 -34704.4 79225.6 
59634.5 24182.4 5216.2 -1635.45 4161.68 -11825.3 -3555.66 4891.96 -9005.94 
32.9787 12109.9 4180.26 -5753.45 18505.8 -2050.13 20206.4 16121.3 -3665.49 
17904.4 1291.18 2932.6 -5307.32 -5737.33 -7925.44 19264.5 1183.1 -11855.4 
-22627 -33950 -23534.1 -5574.14 18055.7 -9949.7 5699.15 10120.6 -16604.2 
-14119.6 -6223.31 -21220 -35374.1 -6195.26 -14081.2 -6418.39 -1343.36 34061.4 
-298809 36418.6 -125562 -140182 -111207 30549 -4899.51 100629 149223 
156862 84631.2 -182079 -77909.9 75300.8 -211752 -176649 -472169 -121750 
-248807 -90746.9 -208606 -11873.7 9733.75 1526 8865.32 2174.87 -4615.18 
8457.59 -5089.59 5661.96 4489.97 9937.14 11335.2 -18689.5 -11900.9 -1566.05 
-24650.4 6545.82 -25583.5 7573.8 1375.2 -10244.5 -1342.64 -19108.2 35034.4 
-6779.46 -5685.99 -6258.09 -12925.8 -6979.83 -545.188 683.669 5539.84 473.972 
-4364.95 22845.7 15654 12210.9 2361.51 8535.42 2364.08 -1526.56 5501.77 
5715.23 4316.67 8305.14 51297 39830.7 -5548.95 587.922 -6703.36 -6088.09 
44773.7 -13584.7 47699 -4391.03 -79436.1 -36623.2 17384.3 74085.3 104462 
-108040 -54820 8295.69 1118.59 -6190.16 -24516.1 11945.4 24771.7 -15572.8 
-29372.5 -6677.57 -19421.6 -21760.3 -1617.39 14322.8 -2025.42 -4134.26 -12543.9 
-10286.5 -7998.79 16849.8 23700.3 20256.8 11901.3 5138.41 19220.9 1184.08 
8563.18 -361.833 14402.7 595.145 2902.27 2261.17 -16010.7 -12054.2 6088.99 
-2045.21 -10158.7 1379.92 -2941.97 12778.3 237449 -1310950 -1051000 -231854 
371039 397713 478652 -481438 -486497 10698 -11900.5 30041.7 -27045.9 
-11198.1 -22939.4 -2709.4 16682.9 14305.7 7496.09 4501.55 -5187.04 -9199.44 
-2592.01 7809.2 4380.02 4475.53 10194.4 12916.9 14185.6 8093.09 794.091 
-12194.5 17502.2 9848.46 10087.9 -6811.68 8288.53 -19594.1 -417626 -3573510 
1360050 633359 -663326 -876985 -1180320 -200932 -1101490 16981.7 -23731.1 
-35683.8 -15394.9 -5776.49 -36786 -4571.54 2725.71 13714 -24258.7 -20296.1 
-22828.3 10434.8 -23977.6 -42267 14253.1 -85720.3 -35691 -55417 -32854.1 
-105497 -57087.7 -43389.3 -7106.88 -37304.6 -74593.2 30951.6 145965 90531.9 
17115.4 63705 24168.3 -26774.7 -30723.5 -56691.7 -13298.4 13214.4 -94421.5 
-117149 -116357 -29445.8 -23294.5 -78975.5 -7595.58 -10298.1 15061.5 16000.2 
-7877.95 27635.9 7891.17 11695.4 -13795.8 1560.27 4865.12 10705.2 -4923.87 
15984.9 -11327.6 7448.93 -8887.19 -36108.4 -15037.4 21610 -60126.3 -63647.1 
-108093 334179 -254528 -4908.24 -17370.5 25287.9 -5522.25 1885.87 -3741.36 
5039.28 -5456.64 2963.33 -145345 40460.7 -43447.4 -121471 37369.1 -53205.6 
-3261.33 5088.91 808.201 -8792.01 -19026.6 -4502.05 1883.11 -50401 24696.6 
-2826.01 43609.8 26123.1 10116.6 22675.9 3962.58 46234.7 371.295 5982.57 
6086.89 925.493 -8931.88 -5416.72 43904.5 -29208.1 -5911.25 6332.58 8638.63 
192397 303610 307247 -39064.7 -219755 -1315360 5816520 4671970 1862830 
3193360 5047760 3139440 -128109 -237091 174428 -8979.98 362728 -103623 
-70508.4 -90732.3 122939 203572 93249.8 152861 -25645.9 705549 -478848 
564139 -204404 452039 -137224 931960 5128820 -96375.1 6008920 70688.5 
-407923 303736 226798 -170183 987706 484962 214742 -1917330 -10970.1 
5373700 4911740 -5522.37 -11337.9 -10541.5 4491.62 -434.255 -1472.9 11749.3 
906.138 -13040.2 5040.91 -3911.7 5122.56 -673.713 -4239.7 -6459.72 -2542.78 
-13658.7 -9127.42 -3490.07 2285.14 -4003.18 -25809 5211.72 15357.6 -655.55 
2245.57 -37934.3 -8260.29 10356.6 -5493.56 1984.26 919.28 -20865.7 -9451.31 
-1141.23 -9572.74 -19999 -3484.3 -2658.19 -15742.2 -2600.95 13510.4 -5782.71 
7162.21 28377.5 4140.39 -4498.14 -11669.7 -10454.5 -2070.83 -6963.16 16946.7 
-3433.87 -1464.23 30463.2 -7686.61 3135.42 -6420.37 5697.2 -246904 -139038 
3199.56 -11875.9 -4979.68 4595.98 -3766.2 -7822.07 -2114.06 1588.65 -1808.61 
-68.2905 -6757.73 -7816.75 544.149 -2811.13 -8537.76 1733.46 -295475 -70890 
-2865.05 -15283 -193435 -125880 62912.2 -106970 -156229 -18334.1 115710 
20760.3 -214991 28067.8 -83195.8 45966.8 37250.2 15859.4 46435.5 -77208.1 
41216.6 16017.7 6629.46 53379.7 -5993.87 11343.2 2936.77 -68289.9 9817.21 
-29558.2 17116.1 2417.64 465.737 30366.5 -14612.8 9126.57 12324.6 9445.29 
3239.53 -16586.2 12754.6 -5793.12 -23271.5 11406.1 -1677.95 4464.01 3865.12 
-14510.7 3927.56 -521.25 3169.88 -1994.44 -2297.62 -4847.79 -4398.21 -3171.79 
-1402.68 -5930.2 4457.43 8863.4 9672.88 3094.56 -6017.46 3083.62 -912.395 
-9491.31 2366.84 -6052.9 -10177.2 -10367.5 -10501.2 294673 -17087.3 -6880.37 
1308.49 -1142.69 -275.42 3862.44 -3805.05 1586.23 1511920 -313442 6296.84 
1788.67 -544.03 254.075 1099.91 1594.6 -7235.95 -9402.29 -708.334 -4201.26 
-4641.95 -5320.93 5859.82 2655.35 3113.19 -776.213 1840.45 2355.18 -632519 
-622828 -407122 -55981.1 -338207 -2380.43 1217.89 -12736.7 -14352.5 -19142.3 
-35993.6 44322.9 -2513.19 -8359.52 -12046.2 8384.06 9602.92 -6684.21 -15767.7 
-46399.1 17454.8 32038.3 -25442.6 9646.73 -2533.04 -12123.9 -654050 -77965.1 
46949 -118588 -15014.2 13414.1 -10154.8 8235.9 25785.7 7173.15 225945 
247814 184305 74939.6 95133.4 6639 58498 17212.7 9112.7 12594 
-11164.8 -11739.2 -1647.79 3477.56 5422.75 17068.5 4747.47 23391.4 2664.13 
1955.52 7834.19 -4932.39 -9712.5 -1202.54 4507.14 -2946.66 3521.57 -2141.25 
2030.06 8837.17 311544 2727830 1904720 1799780 -386231 1495.16 -8631.73 
-1999.55 10705.7 -1176.95 -7022.52 -5398.12 -3110.77 3681 1636.86 -15930.8 
24466.4 -70194.1 6512.46 1477 12507 5386.1 11095.7 361.046 -330.045 
1493.99 -17902.7 1614.11 -3956.07 -2463.03 -2178.51 436.243 43148.4 18695.5 
-155.519 21071.3 28147 6254.35 5141.36 -64722.6 -67428.9 1444600 1516930 
944932 276729 128361 398789 4293.12 5324.8 -13043.1 9561.59 3294.39 
28631.2 21371.6 27056.4 16523.9 4328.37 -395.992 -2241.58 -814.531 206089 
72581.2 142761 67673.1 34894.9 17100 59015.3 -1906.67 -7473.24 -22608.2 
-19070.8 -1222.06 60.3507 -198.96 -3851.2 -4147.76 97372.1 -139481 -9691.05 
2019.04 1163.73 -4291.35 -4088.69 -1098.4 -2092.48 -4080.55 -15354.8 4798.63 
-13779.7 54701.6 50753.7 22258.5 33958.9 5202.93 -4080.84 127.86 21548.6 
-803664 -392649 -264537 -2079960 -211542 -2166.42 -635360 -10565.2 -88956 
1695.65 4138.77 11573.7 -34.9823 -6774.11 -1600.24 -6633.74 -4030.19 8542.75 
2443.94 277924 407384 210877 -201264 169505 14246.1 22873.2 15878 
1236.99 10221.9 8817.87 3733.58 -3113.51 464.602 404.897 19904.2 -66753.5 
-189407 -64333.8 -4379.92 18822.2 2905.44 51603.4 4820.92 -25399.7 -7745.72 
21801.4 -697.847 18120.6 1457.67 30972.5 -13865.2 -8092.25 -9802.1 -22592.1 
-11261.7 -5425.24 -9135.5 -5198.7 -644.159 -7050.71 -3859.37 -1535.56 -1977.11 
2437.86 6137.13 -2506.83 -6318.36 4375.61 -9799.48 -7849.54 5437.96 6375.93 
2585.98 -7584.73 3769.99 3313.49 7586.34 3253.35 -404825 6744.91 -6572.22 
-7266.56 -5414.35 446.3 17403.4 7346.97 3930.02 54063.9 -1579.24 2811.86 
2742.5 -1989.65 -4221.14 30280 174.664 -9200.27 13967 8584.52 -17247.4 
-25796.9 -5856.38 -5329.32 274.223 533686 859714 388475 715.102 -74107.8 
54019.5 8016.82 11533.2 -5867.5 -4173.29 509.601 -1951.4 -3853.11 -4903.94 
7459.81 6480.22 -3346.36 -992.015 254.12 4664.47 1352.55 -874.67 4833.38 
403622 450698 -743279 -1365.07 -5956.75 5187.31 -14300.3 -1143.51 10867.8 
481.114 -11272.4 7371.59 -1487.87 -1583.02 -3466.09 -470.811 -2508.44 11828.8 
6812.59 2317.64 28227.2 27661.1 34087.1 -85540.4 -21067.8 -8971.2 7856.14 
2839.98 7099.12 -3635.47 -227179 -4584.91 -7850.75 -5953.91 2946.7 7537.75 
3734.71 5803.05 38.2827 -78689.2 -133874 -193670 -157083 -2688.78 -1028.04 
12100.1 -68161.5 7979.06 40480.4 -12820.2 -6289.79 768296 1547660 5865.83 
9282.01 3459.77 -276.941 7574.5 689.239 -200348 774268 -475869 -915200 
458.962 -4553.84 -9147.68 32162.1 23224.5 18228 8069.25 3522.55 -514645 
-1705400 538324 -4921.06 1998.18 3346.3 -466.864 4879.77 -5815.01 -277.025 
-1024.28 -9478.25 1259.92 -4733.6 1398.72 6909.02 12443.7 -323.163 -17396.1 
-5236.8 -4600.83 705.576 -6180.92 -2852.78 -33281.9 29471.9 24136.3 -3595.92 
-999.47 291572 -953716 19179.3 -6422.44 16885 16233.5 17221.9 -3827.61 
4410.21 -314.377 -11325.3 -81420.7 -111207 -10172 13195.1 -5526.46 20997.5 
13262.5 -30111.4 59381.9 293.006 3731.9 4150.28 -2437460 15237.2 -14336.7 
7906.63 1317990 26288.4 962397 -599726 1115030 9223.44 -3264.63 -338606 
-1008500 46848.8 -4197 -23423.8 -71441.3 9795.75 -3021.01 -614.024 55146.6 
-1848.21 2457.92 3809.78 -7956.23 -29757.4 9596.19 -4678.56 11412.5 5963.16 
8033.17 7768.69 10559.5 10680.4 5306.34 5454.77 1737380 1640820 -84151.3 
13783.3 -7678.43 17777.2 -13742.4 7504.27 244.304 6668.57 -975.311 -9080.25 
-1648.59 -72147.4 -244898 -8971.77 -6537.71 -4822.83 -6853.66 5173.26 22440.7 
-36784.1 -17345.9 -156798 -95939.7 21552.3 2082.34 -563.069 7628.77 -8328.34 
-10960.2 9782.59 -5160.89 10278.9 2015.1 5289.98 -4771.23 -851.999 -483.881 
941.016 355.963 -2682.83 -8452.91 3438.58 16797.5 -3739.24 -918.5 4000.5 
-8512.07 -11941.8 6751.31 -9318.77 205.551 2614.51 -121582 -83499.1 -523422 
-454193 -1914.92 80.9985 15355.4 1549.01 19131.4 -17201 -74396.2 13211 
2218.22 7372.17 -907655 3874.63 6813.47 7987.66 -8764.86 -9628.67 2061.12 
627.689 9327.41 -5657.35 -14527.6 191.52 -2903.32 11828.5 25430 13073.1 
-235578 -171474 -2190.7 -5096.7 11612.6 2098.36 7198.95 -5872.47 -23178.4 
8831.72 274.457 9372.29 -8166.42 1702030 2318400 1106970 -2815.24 3783.65 
15047.2 -1860.98 18478.8 13261.4 4552.31 -28497.5 -82347 23749.8 -19733.2 
5964.26 -1426.68 -3490.9 24149.6 4685.38 458.489 -9006.34 -6075.61 -10277 
3588.69 -809747 6171.61 4744.59 6580.03 418.121 9592.81 13140.8 23301 
-2388.8 -36678.9 -14337.8 -17821.6 -54015.9 -3708.98 -6717.24 -5980.36 -1134.57 
4555.55 2838.4 1951.54 1752.59 -6178.37 4598.62 -2341.29 6147.85 -12635 
2531.65 -6559.16 -3332.06 827869 1787420 717451 3615.44 2853.36 21533.5 
-517.838 -692.939 28301.6 8449.57 -9544.94 -6065.09 2131.67 860832 650322 
-1051630 -2908.08 2518.67 -314.997 5890.98 -249.48 2260.08 -17695.5 -12498.5 
-653.768 -1477.62 -14352.6 -15599.5 -673698 1971.79 -2507.96 -6575.21 -8367.97 
-4780.06 444.072 -4897.98 -6217.86 4356.3 262544 -2977.87 -7475.5 -9172.43 
-6648.19 6301.84 -8132.92 -1502.66 3614.7 4350.31 -13709.4 -1026.72 -9515.6 
-55074.8 -876913 -142333 -719060 -8.29033 983338 -4461.48 -5236.29 -10033.5 
1172.83 190.791 -528.199 -14571.5 9370.55 1947680 -42129.8 12414.5 8127.69 
12050.8 -1985.75 7668.62 -106812 -4488.63 6225.95 253.235 -31305.7 -5736.59 
-2894.01 -17520 15645.7 -17636.1 -25177.9 9957.78 -1024.27 -9096.97 -12379 
-5308.01 -291992 -256831 23288.2 -5129.98 23177.7 14358.4 3271.6 6749.19 
14912.4 -9058.96 -9127.61 -2260.88 -4854.22 26298.4 -23727.4 -744.9 -193556 
-118958 -3163.39 -20515.6 -30268.6 3594.97 19816.2 -41322.5 470.053 17.1451 
1537.21 -647078 624071 -1608040 -182023 1068.84 702.246 5473.15 6673.91 
12209.2 2437.12 1241290 1258470 1496310 1806.55 59932.4 6817.3 2616.39 
6762.4 11754.9 3351.74 6537.61 -4585.88 -9534.22 18564.5 -5037.86 12929.4 
2664.89 -144781 703328 -7230.64 6446.68 -6416.88 -13276.2 3406.21 -5639.78 
2162.67 3015.03 4310.18 17830.2 -706930 -782413 -5224.96 -25201.9 4512.84 
3363.79 -16723.4 -642.665 -4764.69 -64.5077 8373.17 -1960.75 -1429280 -8292.99 
11551.7 7483.47 -3472.55 18189.8 -18407.8 -19148.1 -14853.1 -31905.2 -43691.4 
-63112.8 3793.71 56490 177813 -59373.7 4744.98 10206.6 -17584.9 20255.6 
24992 -4055.84 18970.6 12704.8 -271128 -5849.7 58910.4 -571.028 3581.89 
405.025 6192.96 -98850.2 -360082 491.287 -2478.08 -4454.11 -3166.61 -1063.53 
-6068.15 25844.6 -7306.66 -14099.4 10291 -235907 -97840.8 32362.3 -176860 
763.96 -3144.57 -2026550 -272797 15532.9 35317.3 -3934.63 3449.49 -1919.87 
-1701190 3128.37 14469.3 2185150 1954.69 10484.1 6144.65 55.9426 -4663.06 
-14961.2 16225.5 -11523 7024.97 1560.59 362.884 3930.66 5472.31 4056.31 
969282 15191.3 15632.5 41317.1 70026.2 22295.5 -39788.8 53057.6 4669.69 
1882.21 5474.28 -13298.6 2279.54 -3188.65 10246.8 -851.93 -3326.81 13547.7 
-650870 -199786 -118754 -177150 -151837 -7558.96 -60659.5 -23874.7 3333.98 
-6062.69 -3828.45 -13757 7682.85 -3800.99 -17272.9 -2487.11 -2604.33 -95957.5 
835.534 9351.39 -2481.46 -314316 -1252.51 -7038.48 4684770 2758260 3798.68 
15513.8 -169.664 -9193.25 -5469.84 -17151.2 -690.712 8839.86 -11972.1 -1169.91 
-3306.46 5363.81 -440.476 -126.418 760083 792360 1144380 1463600 911725 
1844.68 -2632.12 -13307.1 -1004.97 1042.66 -4452.22 -619310 249672 454529 
49313.3 -341499 412622 -362498 -480940 -210493 -5726.65 -11932.1 -17567.8 
-347.644 -4158.34 5063.63 -2219.37 -4849.42 407554 -418375 359355 -12389.3 
-1122.74 -9863.18 5967.08 -79638.1 -80681.4 -92249.6 -229119 -59726.7 4793.25 
1958.9 1837.43 5343.81 -1199.33 -8438.6 -44336.3 -61348.1 -32934.5 3554.02 
8124.75 -8380.19 -51279.4 443.442 541.77 16669.9 9052.38 -26365 -5022.67 
2000.65 2731.38 506959 -12399.4 -15685.8 -95521.7 181958 201656 94399.5 
-70664.4 11557.7 6376.42 7759.65 -9757.96 5356.73 20841.2 18490.5 271707 
313027 226404 -51856.6 230437 130504 335328 15522.6 6455.62 142.876 
19.2889 -1924.27 5878.34 -1293.47 -451903 -516365 -41684.7 -709.297 -7102.36 
-1407.88 -55707 -24366.9 13999.2 -1185840 -1231130 -530741 -2143.57 -19406.6 
11357.2 -5467.51 13870.4 -42505.1 -26712 278835 -8664.98 -2739.09 -28965.4 
42316.2 3750.65 -7846.1 -11038.5 -6547.83 29231.2 -2024870 -1082900 -661304 
-811077 35674.5 12184.4 -198202 158576 -81656.9 -488311 -588688 318444 
-118128 -2681.33 -1239.86 198926 152678 770774 -110332 471849 578343 
-284334 -807.896 -13204.5 -445978 -337661 -427491 4594.85 -162592 -429174 
6258.48 -6375.67 3075080 -19.5529 -2721.31 7909.74 -2818.07 -9227.1 9689.28 
44294.8 42199.9 -16791.1 26891.6 1065.92 4340410 4718760 2655330 14107.2 
-95552.6 65118 -82890.7 -287312 -1377.55 -1112.52 -634044 -406838 -4932.11 
-1571.83 -1638910 -111292 -385965 6351.34 -16205 10550.7 -223813 -44003.8 
1944910 3627970 -3357.83 -9464.29 -88213 1386890 7681 -7838.06 -3137.07 
-26753.1 -7096.16 -39821.2 -46548.6 3734620 -15265.8 -147550 10667 -5781.24 
3928.37 -3482.16 934002 830375 -2519.59 12538.2 6668.58 -2443.27 3272930 
3833.46 -287433 16122.3 -28244.9 -207307 -2366.25 -1174.92 -3477.52 -36897.9 
-21.4064 -686111 -93113.5 -14919 6474.33 377696 8625.17 -419624 -58148.1 
19512.5 -7211.39 -21189.6 2895.09 -697279 98806.4 7555.18 37337.6 -3894.4 
2697.3 4565.27 18200.7 1404.97 3837.02 -47676.1 3213.51 -760.004 -6665.36 
4983.14 -3574.36 -169489 2394030 -248712 4259.83 11254.7 -17304.2 -23706.7 
-8189.67 4151.01 3601.41 -7157.8 -17568.9 -432.741 4877.6 -47875.5 5535.07 
4081.95 7519.03 -3495.99 -12038.6 -11377.9 -320660 172951 12061.1 
Stress%20yy%20component 1 3545 double
-6445420 -930675 -1432400 1624480 -44847.5 21199600 -94297900 -35300.9 21365500 
-97808600 1423890 22533500 30989100 17789900 -5598870 5356110 29212500 26576000 
5983420 -618672 32636700 30845500 22177800 6973430 17346400 28363900 27070200 
15833500 1578330 360803 270735 498589 1366900 -2149100 256844 -132012 
769190 49535.4 71474.6 58977.3 -36647.5 7083.75 26551.9 -80531.9 -50644.8 
-56539.2 -90440.7 -20901.4 28296.2 -481216 168094 2886510 -1297590 -948935 
141408 278547 935950 -271019 120682 18642 -12937.3 -6053.37 -75946.3 
-43031.7 -89455 -91880.3 -75744.9 -70700.6 -21442.6 20623100 18956800 16364600 
13012300 9326430 5700220 2536180 415769 -354262 21071200 19927600 17697400 
14773100 11179900 7501650 3998070 1403660 -98213.4 -213006 -45437800 -21122400 
-7518480 476002 5112030 7993890 9585990 10409600 10849000 11212900 11714700 
12677800 14256500 16865300 -67510400 -32538600 -13558800 -3234860 3124360 6609090 
8898790 10045000 10699500 11037400 11463100 12144200 13392500 15520000 18984800 
-84853700 -59435400 -28194200 -871529 12503100 16301900 5049430 -93331600 -74149000 
-44521900 -14428900 6862050 15381100 15080100 -5991220 134811 1110210 -101132 
467794 72830.8 -75016.4 438364 -261689 76667.4 38118.9 -482.996 3886.65 
-13891.7 -35416.8 -12334.2 -47849.7 -41917.9 -35426.4 -3771.45 -847565 54847.4 
881968 357959 -341920 -66852.7 258768 678738 -277909 131145 35388.6 
-11743.5 -31839.3 -53340.6 -33595.5 -72428.4 -84915.4 -89571.4 -65101.5 -28873.8 
24091.6 20773900 19106900 16457000 13051300 9326210 5628810 2417520 261878 
-415088 21226100 20049700 17839400 14835400 11205400 7460430 3923580 1255830 
-214292 -237677 -48197500 -21841900 -8408660 -122747 4896230 7822310 9375090 
10307800 10792200 11177000 11721400 12666900 14277100 17027100 -70504400 -33954700 
-14294200 -3823580 2744210 6381490 8678820 9889490 10606900 10983800 11447500 
12162100 13420900 15587700 19141300 -88205200 -62614700 -28160700 -1406290 14030700 
11694500 7676360 -96446800 -76655200 -47496700 -14511500 6882410 14530900 14039200 
-9455.18 -99568600 21389900 2052870 12647700 28358300 28048500 17224300 8963620 
11913900 6556590 90165.5 223323 7865130 3788120 25347400 26828600 13409500 
26293600 32683100 28097700 26149600 34134300 33618500 27893400 18284000 22987700 
24833800 24632800 17694500 9924710 12494800 -4696920 5968640 -8143560 1269350 
5656170 10243400 3564930 -10023500 -14373600 -4590110 9219800 1803710 1436460 
-19733700 7721900 -1071120 4422250 1394820 2113080 -11447700 10719600 1067760 
1407600 14176900 -10262500 -744077 547611 9093120 6047430 8604400 -1659270 
-1684180 11421100 4721060 3394240 10287000 193761 7051630 -6412110 -27309600 
-11216600 -28277400 3049990 7390680 -1565860 -10958600 18086.1 12098900 774669 
-18145500 10589200 646766 -5031590 -6941260 -6058150 -6651940 -822578 1541130 
8698240 3854030 7441890 2778000 3905610 -14483300 10020400 1681370 -3202460 
13050000 249254 10440800 2478270 -259979 3929350 -25179300 5638710 14383500 
2827690 36323.5 -686885 -18100100 7055580 16285200 583307 4634430 6959930 
-16463000 2934000 484486 1469750 8854420 7257860 9581570 8579160 9871510 
-1261820 450527 5073980 3223740 11814000 -2067320 -5092130 -11282400 2530680 
11227500 -13991800 180399 873117 1790520 -4951030 13477000 463304 6392810 
4393170 -5986590 -6035080 -11551300 10109400 108173 -11444800 -42400900 9348640 
-8485610 8636200 18842600 -6378760 -4149500 1049940 10990700 2121920 10306000 
6319740 -8202900 -1938070 -49926700 -23987000 -120707 -3707180 9884280 -15270200 
442862 2639220 12961900 4703740 215913 -10048400 11696500 14226400 5925260 
17111500 -35543200 5930860 -12786800 9761150 4899360 -214495 -740408 -6733280 
7504930 -4975300 -1879060 -430641 -930484 2219650 -30858500 -4108940 -2613770 
4614890 16272500 1405370 1384060 7449830 12140100 -1855470 87749.7 -16026900 
2676690 -2368160 8511130 1239370 8136120 7431180 655051 -15779800 -379825 
-3064300 -17562200 -22973100 -2504170 2396150 1125810 10026100 10958600 -8583710 
-551362 -4843310 110766 3813670 7507780 1010750 -19085900 15005400 183353 
13796.9 10341700 18432500 99061.4 -3415060 560000 4409620 5091530 14451600 
4904690 4565320 16265.2 -54923.3 76286.7 19742100 17648300 19542000 -48918000 
-70044000 -66047300 6645260 10434600 7424950 17988300 24217500 17546300 25529300 
20340800 13505900 14436600 -25812300 -37320300 -40804500 -8140740 -14280000 -23401900 
-19012400 -12327100 -769250 -4571160 -5082980 3989370 1626960 581149 7213560 
5753840 4614170 9202210 8449380 7675050 10165400 9724680 9379920 10639200 
10413700 10204900 11070000 10906200 10699500 11446900 11229100 11093200 12135800 
11720900 11506800 13887200 13031100 12793000 12431100 11880000 15880900 14613000 
14238700 16679800 -60648000 -50097700 -47972100 -46346900 -32599500 -40871500 -19922900 
-8939130 -29498700 -26681600 -22271900 -6681020 232677 -14204400 6548000 9630520 
-6127970 17200500 19244100 10692600 24737000 17564700 18340400 16372200 18335800 
17267900 15298800 16501100 15415200 12994700 14560400 13731500 9734720 11420200 
11399900 6415330 8102180 8474350 3704340 5186610 5864250 1784280 2806960 
3713530 547034 995137 2031900 958782 164880 314654 2829260 1229430 
5908560 152501 -2556900 -428099 -712960 -4758360 -6131060 -808761 659931 
-4541450 -1662490 -515236 1059660 794759 1238360 219009 958430 899782 
-34048.7 -190824 427950 164006 -335777 96993.8 -229590 -206818 -462042 
-80134.2 -25292.7 -330250 -222195 -657962 -19162.5 64513.4 10798.3 14909.4 
61808.5 89265.3 51279.3 70644.8 126621 122715 124178 19361 79332.8 
226752 60921.1 107865 115460 76382.2 112280 129445 210650 172979 
601480 307227 470338 104598 78247.5 284048 102263 -7133890 -6579730 
-5474480 -4160300 -4984460 -2474830 -2952880 -3253540 -1527100 -6898670 -4827420 
-3321490 4289750 5276030 4906980 5561170 4414620 6207540 6897910 6716510 
7468670 6684030 6060980 6502700 7261490 5542590 -10078600 -9034900 -7436600 
-5693310 -5914620 -13110300 -11391900 -9828180 -13115600 -2485850 -6562540 -4218710 
-2137110 -8731120 935803 1496360 1829610 2606760 1937480 848228 137647 
473763 42768.7 1448240 984470 2050710 4362580 3377780 4904260 5650710 
6401780 3530330 4778930 5851180 4914490 7368470 6549090 6714670 8671350 
9421360 9497950 10281800 9496240 9269650 10059700 10403300 10620000 11195000 
11944700 11033900 11078400 11591200 4000190 4992890 4582280 5138990 4084130 
2684450 2847700 3416150 3911910 3454710 3021840 2330050 -6806780 -5747050 
-7707650 -5783600 -7527620 -5004850 -2890690 -12302300 -13397100 -6547100 -11260700 
-10650900 -20754700 -19095600 -16448500 -11992700 -14062000 -14839300 -11477300 -11154700 
-9219890 -19564100 -4507610 -5368850 -5782420 -7036880 -5580050 -2767560 -3443770 
-3900010 -4821940 -4032740 -3511680 -3529090 -5782690 -2586030 9042660 8856630 
9411970 9639450 9794020 9185360 9482530 8930280 8689580 8343200 9904680 
8322980 2223230 2259070 1819910 1348630 1406890 1598660 2043680 1399350 
1033240 2433440 3947990 3276460 2083930 318224 977743 4384230 2840020 
1628450 321090 -1567980 -551241 -1757520 -24652600 -21242200 -22178100 -19619900 
-21489100 -15944200 -16911300 -19286700 -20709100 -15096400 -17666700 -17528600 7362800 
8826580 8555390 9682450 6835540 5774590 6644900 6551880 7582020 6436840 
8365720 -273503 -667098 -749353 -1456860 -1029270 -1437880 -1720570 -906848 
-697982 -551267 -334703 -2159980 3166250 4274090 3471050 3488130 5163030 
5360450 4545330 4216750 4146540 6241690 3219120 2685100 1981420 885038 
2102380 1076000 1776840 -347950 42936.7 -371765 -610642 -1902220 -5817780 
-526195 1463290 2151030 2626050 2012320 -2822150 1915590 -8289980 -10134300 
-11684900 -9563390 -2069110 -5995930 393892 -5619620 -11189200 -13705300 -14249400 
-13980300 11533700 10829000 11360200 11213600 10879400 10989600 10668700 10369700 
10323900 10354700 9761800 10153000 621279 451535 831541 1156710 1480630 
2131970 1763290 1896140 1106140 672498 710998 929994 1117370 1442970 
1794830 2274840 3069730 2142710 1359230 1040630 396456 737488 13087000 
12958300 14290700 15278200 15190100 14700600 15661100 13146800 12838300 13822000 
-11009100 -8772900 -8509250 -9506080 -8105470 -6576510 -11243600 -12068900 -12972700 
-13587800 706783 -777474 -2407730 -2307990 -199975 687840 -2248290 -4123180 
201086 574127 299242 293347 104956 779801 668346 446960 325440 
976594 1306010 9483580 9793640 10115100 9452390 8141750 8043200 8991120 
8283790 8839250 8033820 5232950 5849930 6733510 5531740 6578340 7268250 
6776990 4756620 7459410 8656700 7816090 7831780 7983480 9196570 9095470 
8600770 7978820 163408 -5082030 9192460 8438850 -9713830 -10967200 -4091580 
327440 6086670 -615932 -891619 -1822080 -1522150 -2684030 -2568880 -3574760 
-2641200 10326200 10765300 12218700 11632100 12834300 10876600 9880580 3978280 
3810580 4649520 5788940 5339200 4670850 5261570 4252460 3649230 3012150 
3279590 3856270 2574670 2998190 13916900 13924400 12060300 893933 8017890 
3268700 7089340 9645800 16690300 1583930 2037430 -259248 476033 -2936220 
-2273730 -885258 -668641 7162120 7988620 6631620 6123650 5988760 5558790 
-10804400 -15985200 -11039300 -7525560 -7436020 -4339600 -5288620 -1399720 -3607250 
-4122680 -21349500 -21590400 -29667300 -38368700 -34466600 -26277200 -32769500 -12654500 
-14517000 -10790500 -9689700 -8077440 -7198340 -32699300 -26955700 -25313400 -26165000 
-22839800 -34437400 3823470 3449730 3024780 2648770 3434730 2877970 2226160 
1791110 7483400 7978620 7753190 6649530 6908140 7271670 -1992580 -1123020 
-995209 -1599760 -2135630 -1100460 -9364660 -8070800 -6585820 -11169600 -9560920 
-31068.7 136630 -16447.4 -217124 -187585 -64490.6 12059600 1070730 1680510 
-18463600 -21380500 -18522600 -16998400 -14974100 -17820000 10158000 10521800 10792100 
344719 419194 580540 860643 -7481330 -4977740 -2904530 -6545620 -3802150 
-4687910 -5403390 -4103980 -1677810 8092310 9007990 8103230 8060300 7785200 
7955810 -15267700 -15191600 -16780700 -2531980 -3374130 -1156000 -9570.5 -854452 
-538237 816609 297185 -71071.2 -122624 -80271.6 -32154.3 101763 44422.5 
-2307.41 -57134.3 -22146.8 -4037.39 -49552 -122363 -86642.7 -77349.1 -924951 
-1097520 -1178420 -778319 -26043.8 -27372 23174.6 11409.2 -1106500 -328402 
-250678 398543 -1003260 1013470 -264235 -64484.1 1815680 -733717 2514580 
-1181370 633298 -315100 -187882 -492178 326957 78435.2 175888 -159802 
159876 -68507.9 31784.1 -75294.2 235114 -174579 46711.2 29176.9 -37799.1 
260270 369783 204261 325068 377177 27828.2 -309862 173380 9618.71 
-322380 98394.4 134507 35922.4 81886.5 117479 35484.8 24878.2 85152 
-24151.9 59433.9 50024.3 -55700 46426.4 -21414.5 -38096.9 -28972.8 -75555.4 
30703.9 1097.46 -64501.5 -17499.6 -34243.2 -34224.7 16781.7 -40268.7 334.952 
-65166.8 -6552.08 -41511.4 -48201.5 -44279.7 -98398.4 20019.9 -38715.8 -73507.5 
-116941 -150709 -41596.9 -52765.8 -151625 -52516 -123282 -66096.9 -95541.6 
-91858.1 -25464.1 -56557.2 -24310.2 -6186.96 -105344 13919.4 -47964 -4697010 
5938860 -8129470 1263700 5566820 10243700 3568420 -12544700 -14757000 -4485360 
9146500 1824400 1218210 -19509000 7737290 -1049750 4371520 1338400 -1204710 
-11380000 10730700 1124270 1412000 14240100 -10315500 -2852100 548768 8947060 
6047980 8584690 -2161880 -1635350 11478000 4715840 3412290 1468270 126639 
6872170 -6748550 -28953800 -11313900 -28004600 3021500 7307170 -1604580 -8427920 
71063.2 12093500 831384 -16867600 10528600 659770 -5155920 -6899130 -5943280 
-10482000 -1871790 -4020160 8707290 3838530 7399890 2492110 3833900 -14098300 
9990920 372468 -3070240 13369100 320408 10360300 2442500 -314033 3886890 
-24640100 5635070 14474800 2805760 -2389300 -708254 -18051900 7048840 16343500 
561333 4656690 6959250 -17266100 2876600 452592 1509230 8735170 7067660 
9542200 8519720 9852170 -1339990 455563 5077860 3217790 11797100 -356143 
-6448820 -10762100 2540680 11197200 -13904900 214091 -845091 1838910 -5101670 
13548500 466315 6353370 4398220 -11077300 -11500000 -11307400 2459330 101489 
-11479200 -43000700 9358710 -8405530 8641220 -6014860 -5597970 -4746440 1021330 
10988300 2165810 18480200 6077360 -8608700 -2344590 -51684300 -24286300 -97047.7 
-3704360 9765330 -15535300 -10672000 2610590 12954200 4593070 264413 -9924020 
11678100 24254400 5952270 12686700 -36326500 5858170 -10153100 9672140 4653310 
-214111 -964994 -6662920 7408800 -6868230 -1946850 -979578 -1190400 2229700 
-31893700 -4541170 -2879200 4607890 16474100 1284450 929331 7438650 12159000 
-1881110 130528 -15451100 2689780 -2311780 8498350 1301570 8091450 7403360 
529858 -15522400 -404453 -921758 -16292000 -22746400 -2868250 -308692 -405991 
9986390 10894700 -8983150 -553130 -4805390 104582 3792040 7490430 1057440 
-18371300 15106500 208543 -20651.5 10368900 18515100 123543 -3407690 1704040 
5290980 1409210 8623830 8413310 18682400 -86746.6 26862.2 66430.2 19889900 
19677600 17756000 -68818200 -72525000 -50350800 -51469200 -62060900 -49558300 -33158900 
-47845200 -40830700 -8515210 -20279200 -26390200 -29793600 -21578600 1772280 -5753330 
-13049500 8235960 6605650 -5950240 4806550 -1860840 1856560 11118800 18491100 
17693400 18447800 16433200 17408700 16582100 15378500 15484700 14652500 13046700 
13818300 11455300 9722370 11417400 8130250 6382510 8472360 5121840 3575050 
5826810 2751050 1715390 3619250 860204 442122 1936870 112928 924576 
304369 24763200 22551500 14536400 17976400 21907100 20336300 11370400 18576800 
12905000 7018170 -191554 999231 1871480 -5271690 -2049990 -2682470 -590133 
-87353.8 -4312350 -148809 388706 1570370 -1716590 -815410 -219951 170598 
-382004 -103819 -216976 153976 -708512 -749185 -1021500 -1539800 -1271350 
-162371 -192155 -230307 -643351 -13253 -66239.2 -238122 -312705 -662430 
45801.8 -22999.4 -23140.3 56124.3 29913.2 51393.2 133766 40510.3 137842 
132334 152871 94370.9 36684.2 245900 133805 81628.9 149102 166302 
110746 164872 184580 248971 329543 640187 508165 82353.1 94705.3 
288814 125820 -38751200 -26923400 -41357200 -14928000 -8736510 -19924900 -24078000 
-12994300 -5135840 -1238340 -5575570 1230230 3665730 221671 5459670 6937580 
4349780 8266600 9043830 7492750 9557530 10035500 9289100 10312400 10565900 
10108400 10845600 11022500 10625000 11186700 11428600 11048200 11707600 12134800 
11464800 13052100 13925300 12452900 12828900 11885500 14679400 15975000 14309500 
16732500 -5444220 -6625270 -7058050 -4864330 -4175130 -3002550 -2532290 -1576440 
-3209330 -4862470 -6908420 -3415480 4902730 5266150 4285900 4442030 5531950 
6696100 6855980 6187050 6640900 7426480 6499020 6062820 7251180 5504730 
-7631780 -8917060 -9861850 -6130710 -5893700 -11176900 -12817600 -12798800 -9717840 
-5286070 -7263490 -4677950 -3431730 -9310160 1794520 1457000 921832 1945370 
2577310 489783 115855 827690 -227.391 969637 1406050 2035990 4778990 
3311100 4214310 6281430 5475260 4674640 3462610 4836270 5770380 6435490 
7263780 6626080 9504070 9416240 8663660 9528280 10297100 10055000 9261220 
10647200 10377100 11041400 11982400 11204300 11088200 11593300 4595950 4991750 
4016960 4084660 5136650 3407280 2867540 2713720 3907600 3021930 3465380 
2358800 -12828300 -9896680 -11992900 -11714300 -11155800 -11409000 -10529400 -11649400 
-12104800 -10785400 -9049060 -6065840 -16548100 -19397500 -20881600 -14035800 -12107300 
-11627500 -11958500 -15295300 -9396990 -19695900 -5616240 -5482200 -4567080 -5475670 
-6853640 -3782900 -3382940 -2723130 -3926750 -4734640 -3878840 -3543300 -5768410 
-2609050 9351590 8800850 9014190 9762000 9575920 8861050 9403210 9106980 
8298880 8639980 9858350 8300390 1844800 2280020 2238640 1445780 1429080 
1425980 2050480 1587600 1051440 2454840 1825110 2994620 3662430 661779 
6094.41 2652360 4179790 72595.6 1477220 -802196 -1887290 -2049280 -21547600 
-21022800 -24511400 -20541800 -19200300 -19138600 -16696100 -15834800 -20487300 -17200800 
-14861900 -16981500 8815750 7332290 9661380 8572720 6647050 5790390 6835070 
7601680 6535310 6426950 8371420 -700182 -653448 -250505 -1096510 -1410920 
-925106 -1632200 -1433090 -540478 -725537 -348985 -2160310 3410480 4251720 
3124780 3442360 5102360 4544970 5336040 4087400 4226980 6136920 3171810 
1973410 2605050 855023 2017470 1762630 967623 37505.6 -336323 -427455 
-5980860 -6072550 -3556190 -8135870 70077.4 -215560 -1062070 -602220 -1381330 
-6368800 -11130400 -10722000 -10587600 -11615500 -8262910 -6791750 -5619430 -2776070 
-10414100 -13558400 -12948600 -13434600 11361300 10835600 11538900 11208000 10641900 
10977400 10818800 10282300 10335600 10125200 9738750 10310600 887015 476078 
662878 1518640 1197800 1809050 2159050 1166260 1944190 715561 763458 
1160600 954564 1800610 1490610 2128670 3025860 2295370 1339260 1027840 
742633 433588 14354800 13014200 13101400 15423600 15209000 15736400 14747500 
13201800 13850300 12884300 -8716300 -10802800 -8364250 -8115640 -9395030 -6382270 
-11915300 -11118000 -12845300 -13390600 -1998560 -1733730 -3281650 -3693240 -958858 
-3012250 -3472600 -4629810 315741 612242 212229 91326.7 257378 475552 
708459 761567 344764 1008740 1328980 9683440 9373250 9343750 10027900 
8855430 7886830 7995080 8177490 8725240 7965080 5850850 5228610 6734060 
6573560 5523140 6783910 7235390 4767080 7460550 7793440 7825550 8644630 
7976620 9056750 9199000 8566920 7946560 5903200 -6379500 880412 5184080 
-3813060 -7216710 -4724210 -664309 -717208 -922946 -553481 -1785640 -1529100 
-2642390 -3590290 -2505920 -2601970 10793100 10354800 12255300 12923000 11661800 
10929000 9898220 3779650 3973930 4612010 5789930 5346290 4643020 5269910 
3647770 4265060 3268500 3029940 3871170 3024560 2613790 -8396830 -719798 
-11923900 -7501730 -10414200 5385330 -777949 12914700 19097100 1948290 1531240 
-360004 381271 -2437450 -3062610 -974399 -783151 7824060 6952680 6483860 
5783460 5901040 5359380 -11866400 -16671800 -11023900 -8094340 -7801040 -5688830 
-4703560 -4679170 -3936540 -1806130 -22668500 -22066800 -30961700 -35598800 -40046300 
-33491800 -26644100 -14508100 -12579300 -10795800 -9764240 -8156290 -7388170 -27211900 
-32847200 -25329900 -23113000 -26285000 -34794000 3398490 3833820 2639060 3012220 
3402910 2254780 2829580 1856870 7902240 7362010 7702400 6850410 6573160 
7225000 -1182780 -1985350 -1047660 -1404260 -2244300 -2065830 -4452890 -10677300 
-3702600 -7830330 -10081600 123819 -38603.4 39526.9 -37976.2 -202174 -250677 
12060700 1733720 1145570 -20190400 -17439900 -17633200 -13888200 -16060300 -17032800 
10460000 10083500 10729300 494226 375471 908867 647474 -5152740 -7574600 
-3038190 -6766420 -4082620 -4673760 -5317130 -4113200 -2339300 9036570 8076710 
8074550 8104530 7727820 7950240 -14901400 -14729500 -16166200 -2505320 -3273860 
-15057200 8308850 -45758700 -75083400 -94896000 14783400 7655490 2926590 1147960 
-2004110 7902630 7582390 -95902200 -97797800 -92008900 -93226000 -82000100 -68157700 
-87306600 -37635300 -55176900 -61249700 -8800700 -21714900 -28429100 3631850 11516500 
-1493820 14713700 17798900 11979800 7790610 7352520 11588800 2124060 -68283000 
-80015200 -53142100 -36995400 -20799600 -8114500 10734200 3747100 12673400 13878400 
4370740 12440500 21200400 20000100 17713200 14819900 7485680 3928290 1395310 
-196320 11315900 -76022.7 -94241.1 -88443 -343165 21323200 21237800 20996100 
-358674 21064800 19715700 20348000 20747100 20283700 17058600 18423300 19642200 
19102500 18345900 13954700 15674600 17023200 16456500 15636500 10251200 12144200 
13957500 13038700 12153000 6497180 8462750 8442780 9342440 10285200 3124260 
4751220 6551960 5650400 4770170 818905 1898200 3172860 2420940 1971900 
-238636 -124291 915256 256511 -46590.4 -433354 -193235 -67566700 -32301100 
-13779500 -3506620 2917250 6410120 8794710 9941190 10591000 10977400 11409900 
13341700 15451900 18921300 12152400 20011700 20103400 17945900 -81879500 -79915900 
-57141700 18040300 -58781300 -38287500 -27305500 -47903000 -39472900 -16927500 -10753900 
-22012800 -27638600 -17486700 -5420420 -1536160 -8259350 -11223900 -5859460 1742700 
4092020 -1831.31 -1841920 1489380 5734880 7186060 4877950 3914370 5671200 
8447510 9217520 7831370 7143290 8332020 9770210 10210900 9442180 9108470 
9678270 10514000 10718500 10316700 10168000 10457400 10930900 11084300 10791100 
10677600 10912700 11334900 11548100 11196500 11064600 11326300 11961200 12424500 
11729600 11552900 11961700 13023500 13744500 12733100 13016700 12413700 14916900 
16067000 14288200 13755800 14931300 17019500 16106100 -13096200 -16689300 6743870 
1317180 5229640 9776340 -18101800 10626500 247814 -10712700 -8918860 4536080 
-17788200 3422110 6324480 2479430 6638260 5218540 6047540 5627770 5617690 
4831690 4392450 4824960 9579860 9177210 9502860 9450820 9902550 -9139440 
-9074980 -11765800 -9069680 -11942400 10000300 9878500 -14966100 -13944500 -16175500 
-15419400 -15456900 7285780 7452850 7062110 7115930 6914630 -15633800 -16027600 
-22383700 -16025400 -23761500 -21759400 -31650700 7155320 6971220 -8859740 -9201190 
-27067900 -32178100 -31767900 -354494 -8146.04 -282045 -27284.1 -131269 -496877 
539086 -139413 -1283850 -429048 -15632400 -16921500 300327 84895.3 101933 
226207 480574 313253 111966 500962 242401 3637800 3094270 3030580 
4649760 4378390 4341320 5853190 5907820 5832710 7244400 8940450 8468600 
10021800 8958600 22089600 25530900 19241200 21995200 20411100 10638000 9777510 
10635600 5089870 12237200 12265100 11428000 12969600 7246090 6953360 -24279400 
-25380200 -22768400 3188710 3452910 4116830 3791090 10044600 10205000 9818180 
13793000 15216800 16054300 15260200 13828900 14592800 13843600 33261.4 75483.7 
114175 38178.2 46648.8 72810.4 4201040 -42381000 -40592400 27047700 28620000 
14590800 -103063 -351923 178054 9807550 10276800 9886150 2128500 3649660 
-3757260 -4567420 -1985940 -1094180 -21065100 4069940 5158960 4610850 26066.8 
-276979 319789 557716 -100565 -35860.9 -38861.2 814195 13072600 225191 
-12151.9 329553 231988 568022 3813930 3411660 -1107100 -1529910 126126 
-220665 -248506 -660783 7481840 6771220 7504650 126272 7092.32 -286322 
-709149 -7738620 -11754100 -8478660 -15437700 -10887400 743578 1883360 159171 
-1732820 -3348140 -6450880 -3365390 -1083090 -112895 711947 -2604480 856560 
109310 43322.3 -5332740 -4812410 -4124520 12813100 13449300 12762400 13458200 
13510800 23046100 11703000 -935342 1223870 -109348 63792.4 91185.3 104583 
-254502 -151069 -373703 8082210 8083530 384485 97646.1 -41045200 -46058500 
-35999600 -39971100 355731 55949.8 309496 -16599500 -5521640 -34265800 -30801800 
-4491880 -1745440 101799 204165 61727.1 16030300 14434700 18078700 19321400 
18515100 19382200 17343400 16895300 15961000 16943300 3413210 3920810 7474040 
6960600 6206860 7884990 7929910 6936200 7025800 21888.4 -355956 -34344.3 
8507260 8840980 9378750 9019630 -3939980 -4736670 508503 -662793 18128700 
16340600 16021100 568450 1715670 2074200 1044250 -6606750 12158300 11897900 
11865100 11683100 11889400 50546.2 158408 8773500 7630010 6174910 7560890 
80554.5 6723280 7447210 6558310 -9743150 -10677300 -7862670 8087430 -29733100 
21883.5 119624 -245698 2457810 2993020 2694570 3275550 7984320 7419660 
7973060 8574190 -5782170 11000600 10389200 10793600 10258600 10790900 -2721380 
1265180 437250 863076 203097 -4176320 -3709440 -2539710 529126 364971 
-2238180 304622 2756170 6519230 10861400 10738400 10940700 -11425900 60258 
108150 -580151 18070.6 58760.7 -10320.2 -40237700 74541.5 23313.5 6431810 
5932250 6850600 4675900 -4485260 18668100 17801600 8708550 8769210 488670 
638106 105994 261434 -28199000 -39139100 -48967600 -35478600 6336910 9043940 
9401240 -32693100 -20458200 -22858500 -20655500 5857510 8309800 17929700 -28326400 
-27330300 2144830 4588120 3564980 7257230 -8507860 -9902060 -6132320 -5065570 
-1103320 -1813630 -1869750 49741.6 117026 171832 53354 -19202500 -276633 
-299829 -1257080 9851820 10286300 10780300 10916000 10959200 5251230 5790930 
9347130 9502160 10298400 10358300 658558 340922 170403 487740 179565 
-1071040 -765437 5640530 12742200 12091800 21855.1 2889960 3520540 4257110 
4720870 -7475700 -2393220 1999580 3143670 2618930 1375470 -4869340 -1384110 
-101031 15752700 15274200 58091.7 793332 18720200 -2622330 -19546000 -21960100 
-20817600 -18860800 -19078500 7448810 7937570 9566670 -393997 1605740 3334170 
9319450 -213938 -4869740 -4085400 -7733810 -9316750 15234300 15079400 -5948870 
-2333270 14767.8 38817 -22304200 -21585300 477910 13224.1 -311567 -1988.89 
-15923.9 8631160 8885010 367295 -12844700 -11215700 -14268400 1392980 1438490 
1800260 1820510 654752 865828 358313 340861 20622100 25988200 -24780200 
1284400 87640.5 3140510 1879560 3000750 4008190 4664100 2789410 186207 
470189 -42017700 -51067000 8705140 8678920 9500130 -3419810 -4623900 2443250 
-43255800 -15604300 -13283400 -13968800 -596.839 -5184.76 12242100 91341.8 7825060 
7822620 8637790 8635650 407871 2053220 2216750 12879100 11452300 11679000 
12438900 12143300 10509400 10126500 1817260 1416590 2294850 3213100 3046580 
3664680 3022720 3029090 4990800 8539620 8324370 -11449100 -9813600 -10593700 
-11006900 10640300 11583900 965642 1265340 437219 -673725 -1982040 -1773350 
9717110 9389270 3569710 -440186 -716397 6644060 13072500 14369900 10636700 
7616420 7076420 6850800 16469300 18085000 16581.8 -1005870 -3357810 -1944460 
-59349400 -50655400 -3301880 -1556390 8609350 9738860 10078800 10089400 -6948030 
-6691170 -8336730 1402800 1593870 13738900 19877800 9782730 7041880 6359760 
5849560 5382090 3877240 -4470.76 3787550 -17289100 -20898700 -17091300 -17749100 
5576340 3965050 4718470 708503 909883 9285590 9411100 13012000 14207500 
11798900 -1234810 6205520 6702480 7410500 6874310 3389790 -868374 1993850 
5355850 -1986740 -1420590 -1143020 -1599320 14706800 14184100 9086850 -5718990 
-5463160 8106780 8316610 10462500 135513 262431 1258980 1276330 1314040 
767909 732080 738663 -12228100 -10369900 -9379140 821578 851835 -296813 
9203190 10045900 -20043600 -1647140 -876723 -1704560 -2163640 -742795 -1468360 
-677540 -87740.4 -38129.2 -26250.3 7359790 8814190 1090170 84184.4 47894.8 
-3144190 -3852080 -2892890 -4681010 5019340 11090600 10901100 10799800 7336190 
7917170 7990190 7405210 5769640 2626480 -1012310 7593120 16395300 18040700 
10354600 3886550 3880230 3435620 3423290 2994020 19655500 19846800 19784800 
20501300 13514800 22151100 13975600 4229930 -6062830 7730830 3031140 2200730 
2042100 2846500 5111370 3644460 5161090 4985440 3447670 -628018 7722030 
1852110 1331450 1033160 -34618500 4414470 5559780 5082960 -13525600 -3594770 
-18132300 -15946400 -17651300 -14936900 -5127850 -2980900 -5104660 -2700140 -3388690 
1486750 -11802500 -10064000 4223080 4184740 1944420 117144 9446020 4390670 
5343140 5336070 6409460 5320480 6867690 -18445300 -18003900 2230790 -5693400 
-10495900 -10638700 -17965500 -19190900 2605310 2593050 -8120490 11098600 11206400 
11314600 5397610 3627620 12407900 8733930 6647790 1042380 -15864600 5260930 
4643260 5512190 -11156600 -11825100 -12871000 350749 -26748300 -6453480 14165400 
1985900 1357450 1369830 2142170 9126370 -6721430 -7516600 9902120 -57890300 
-64813700 -57898400 -5823860 663879 -1520160 -3307740 -5509290 1415180 -1288930 
1000700 8755820 2288750 4575230 -6289010 989535 -19785800 -8857540 -8735820 
-10959100 -11430400 -2551250 9035810 4259040 3664340 4271980 -5843520 6033020 
5069560 6016390 -942261 4863230 -1188500 -2976050 -2738530 -6015940 -4415820 
-5841710 -9465620 -17596500 -17046700 -22431500 -6608580 -4863840 -2571840 -11445200 
-11294100 -9682150 -6987210 -8155080 -63151400 2648710 -15183300 1796300 2696750 
6353900 6367400 -1639590 -11505900 11467200 11207700 11159200 10953900 10934300 
-4026770 4457860 4529970 3851720 4885380 -59745000 1362730 1472810 795329 
7223820 3444640 7415100 8530330 31391 -53364.3 6822930 6849670 6794570 
384044 190384 612044 13879800 1190990 55495.4 -273396 885643 959735 
708759 759297 1444890 1930230 8365750 9358860 9659640 7755310 11209500 
13844800 18559.9 3082560 -14563800 -19185000 -20817900 -16629200 -16610800 9398790 
10053400 9713040 4721350 10242100 2176870 1822990 2607350 2589890 3031790 
6702130 251645 -1365340 -2899560 -3246520 -26473800 -22879300 -20884600 2150950 
12152800 11199600 3013950 2503280 2498700 -9959440 14255200 -2530850 -32894400 
735974 1516940 1786070 2797160 5951430 -12959500 13797900 4801450 1057630 
2613300 988364 15446200 17155500 17104100 4300640 5501820 -7569430 8187230 
11043900 -2431180 11297000 11084600 -10504100 -13358200 -10877000 -10196300 -12943000 
290991 8577680 -11952800 9675600 9659140 10209800 -5144770 -3773850 -8595890 
-10175300 -203778 -5324210 -7302240 -2728760 -6161830 -5987280 -12011900 -14163500 
305403 1159960 1911200 1744180 1887000 -7983470 -10908600 -10608600 -2342430 
10853000 10583200 -7922670 -2193040 -2773660 -3693240 -2173690 -4534270 719041 
4754090 3763730 601941 14741100 15212900 -5286440 -4566260 -16039200 -12835500 
471838 -10329000 -6918590 186936 194036 1400310 1328360 -11480300 6905680 
11715500 11556800 -9524010 -4548870 -8100560 -3231350 -14537200 -15316100 -21124800 
-13953600 535457 448449 -12915800 3001230 3003220 -5047330 -8455040 -489201 
367566 437494 159122 -5697170 -12909400 -2359730 -5460120 6096040 11536600 
11364300 332270 -9977050 -14102800 290061 -438408 -3368910 -758193 9000390 
10393400 -3518840 -2587230 -3077940 -700782 -1807230 -7917230 2871640 6130800 
6175560 5676710 -16110700 -16730900 -17101900 -311076 13151300 11993200 -15817900 
-24189000 11021300 6354170 -13407300 15341000 -8927440 -1522700 -3680830 4260700 
-10081900 -5407790 -6015120 -974931 -381689 821768 3905360 6146470 3317080 
-9118860 10305100 10289800 64420.9 424977 864226 -10236200 -9885740 -7192150 
-2699950 11552600 -10827900 21566300 15458500 17854900 -11286700 8529270 14336200 
1141710 6122580 -1832390 5156770 4307920 5845640 5842450 6300490 -11142400 
-12652400 -14408300 -14471400 -4565060 5154350 10850400 9021710 9124010 -7272400 
-5300780 5287770 6060760 -1817830 13838000 12874700 7705860 10182000 10682400 
10674300 -8055620 -21594600 5388900 1922760 736559 -15078900 7455640 -17426900 
13955300 9204170 5994540 17659000 -7240770 -4932240 1762060 -7049780 5851410 
-219289 -233724 -681646 -582813 5277470 -602815 -718519 5769050 10557300 
10615500 8903250 -8459450 -10956200 10745100 923415 -6263260 4603500 15907800 
948395 -68054900 -396216 -86210 -3719580 4474650 8062770 6553950 -1034650 
9863800 2638040 -371932 -1758170 6269780 -65229 -70989100 -70622900 -1385490 
102530 -8708570 -16684700 -9491410 4404030 -10174400 7054010 -16973400 2334840 
10285200 121428 112190 5936340 10108100 -746874 3415580 3407610 12084700 
-18098500 -18049300 -1804380 2027120 -80166700 2307690 -209449 -260352 -203166 
1127090 1075850 10482000 20021400 -65634 1733120 1713060 -250318 6844140 
1378120 11307000 7284390 7635350 2142020 -53388500 -27868700 2252610 
Stress%20yz%20component 1 3545 double
-3706930 -107296 102397 -44540.3 -14874.8 2187.31 170204 6387.91 7758.65 
-491101 1423980 3287520 1101620 -1062660 -84548.8 2242790 2420260 -228449 
-104000 -276587 -289461 886364 951446 -7181.67 -106512 -424254 707361 
379167 -385996 -2876220 -486050 -689203 -586837 371705 -220515 24155.6 
-378399 -208681 7218.77 19324.3 10692 -4436.42 -6631.5 18171.5 12670.4 
13248.8 6059.68 4850.41 -3064.67 -2435.86 77398.9 -942625 -1094630 -114044 
-185719 -96726.7 -448366 -114409 12791.8 55307.6 19687.7 -23710.7 33879.8 
50581.9 33778.9 27441.6 30629.1 -16528.8 -3914.71 8234.74 22918.6 43386.8 
52556.7 51960.1 51614.2 30566.2 -11298.4 -54819.3 14044.4 36483.3 40811.2 
38248.5 49553.7 48952.5 25824.9 16902.4 -15052 -43054.4 20475.7 37025.2 
-10948.6 -21629.2 4907.26 -7480.96 3907.71 -1688.41 32.0908 443.393 1994.37 
-11071.3 -660.153 -11276.6 -301485 -128407 -65298.5 -46740.8 -3462.74 -28800.2 
-4360.93 988.209 6519.73 3937.06 5113.41 9222.72 8112.32 5108.05 6886.04 
148237 -353273 -373594 -729677 -278288 702698 463167 -198187 -350321 
-552234 -797155 -360394 1650340 2063080 -2086130 -91335.3 323490 -556422 
376635 -115231 50987.6 -146382 -14415.3 -8447.33 12406.8 -207.858 -6686.53 
-4202.24 3915.62 5525.17 10100.9 14871.6 -8109.84 -7505.98 -38784.3 24040.7 
298987 306796 -8846.27 -9965.27 -89686.1 195908 71255.8 -23940.2 -5933.9 
-4870.93 15939.2 -17490.4 -8063.44 -7507.56 4422.13 -13853.2 -6391.78 -689.511 
-3209.34 8642.26 27885.2 -254.202 3073.77 8398.85 12331.4 -4016.06 19109.6 
-3099.29 -4897.02 -20739.7 8258.19 572.131 -2566.05 -11523.9 -4111.67 2189.13 
-15960.1 -1733.2 -244568 -96380.6 -77298.6 -45928.7 -19078.7 -2979.95 -4481.72 
-3690.23 -2381.48 1419.58 1855.22 22605.3 -2554.37 10846.1 13.0895 2.5318 
1.28423 0.332611 0.122219 -0.058973 0.00867595 -0.0446659 2.70703e-05 -0.0167963 -0.00776348 
0.0553115 0.0696829 0.0554328 0.184731 -346408 312677 265039 -53059.8 -95825 
81060.4 -703876 -126746 207426 -108702 621235 -34216.3 -1176090 1155160 
-1187710 -26188.7 925.305 -1134250 -1606950 4092790 4082810 1739610 -2853340 
-1109180 778850 -302475 -842021 -1220540 -608718 -1584750 4857190 2782150 
921025 1985740 2972540 3641870 1963270 2445410 2200020 678996 1393030 
1467760 2053160 1112530 -504446 924419 -3994.35 4488.75 74374.5 3713.69 
4765.72 1837.62 1510.2 -2084910 3302.55 22913.4 -1458.16 5325.87 8358.58 
9833.26 -2042.12 544.64 -4553.95 -11895.9 -212867 415802 -2957.6 3558.88 
2626.37 -5196.06 -5281.31 245267 7547.8 -4813.05 -4585.91 1138.81 416193 
2337.83 566.118 -3378.39 -2226.79 -4895860 -9947.55 8046.91 7825.94 38375.8 
-13723.5 16028.3 1471.41 1032.15 53576.1 -589166 -8731.49 -6128.16 6237.27 
-52975.3 332.225 -2637.94 3976.36 45987.8 -8976.06 1174420 316409 1981890 
2014.82 3733.83 -2167.62 -21614.9 17201.2 -8328.8 -7514.97 -32237.6 -4216.32 
501626 -3325.47 -3910.47 6296.16 -1929.45 1775.33 -47355 1654.29 -2931.53 
-1523.67 263257 4664.29 -8985.34 -1625.21 8360.6 24899.9 -420.942 7219.28 
28331.8 4202.16 6006.6 -1995.11 -12836.8 -8880.59 -1766.73 677.772 -6194.75 
10627.8 674.232 -3294.37 -2365.67 1089.12 -1690450 1869980 -53426.6 -7013.99 
703.907 4561.72 2223.58 -389800 257.189 -13630.4 908.551 5462.04 399.683 
-320.457 956235 -269789 -8220.42 -766392 12042.2 118498 -95265.8 -1024.75 
-17089.6 -597.832 584996 -1386210 109043 225.623 2590.46 3659.62 169479 
25395.5 -24736.2 8944.24 -26867.2 5196.42 -24497.7 -5923.85 5376.99 -20953.3 
-1684910 4063.78 1128.03 4692.08 5741.89 10378.5 3949.68 3306710 -1590.01 
1782400 -75943.4 2542.58 -154674 5035.48 -5095.26 2413.36 2910.75 1098.46 
-8536.08 237849 -5877.25 211055 -9320.89 -1913.25 40933.3 242647 132103 
-1366.94 922.808 -219.099 694192 5570.32 -2193.64 -2315.77 17558.1 1307.17 
1435.7 5216.34 966.073 -1203.88 1422.21 4753.27 -1458.44 -13638.3 -9388.92 
93924.2 15386.6 -26522.1 1345.7 -211346 -599920 1507.45 2917.5 8692.12 
-8142.59 -8774.85 3682.32 -3402.57 -3861.86 -4362.84 -9382.5 3575.19 14965.9 
-6457.42 3801.09 -2624.04 -14604.2 -2926.11 -519756 1479810 949769 -764326 
-232404 -1200190 -19449.9 -57744 2306.6 11211.4 -6045.37 -3325.53 46691.5 
-210188 313379 2728320 4132870 2568570 1226500 -38890.5 1984810 1463810 
58868.3 854219 736104 75895.8 -73726.7 218926 -2595.79 -54680.4 186688 
72877.9 -59422.2 -9565.24 -11148.3 -5946.79 -36343.1 -49946.3 -3475.2 31066.7 
40830.1 -8536.89 -20355.4 -23639.2 11490.6 7277.3 2924.1 -4316.48 -12904.4 
-18328.6 4706 3105.97 823.597 -10744.2 3436.42 -5898.99 102.79 1260.56 
-3510.8 2760.89 -7969.67 3486.66 6672.93 -21889.5 3451.29 7517.88 -5030.49 
-22690.3 -4419.65 -25307.4 885.236 -595963 -88810.8 -284403 83366.9 -6583.98 
150686 -160692 -36677.3 -314181 67202 60105.8 320489 448181 1699040 
89053.5 -882855 -1256900 1754440 -1664690 -7185.71 3597.71 19589 -10127.1 
-1498.83 -13397.3 2281.27 21689.4 20639.3 26448.4 -22066.9 1245.1 -9604.89 
-20022.5 10760.8 14321.9 -11975.5 20247.5 15648.7 -8714.62 10482.8 -9474.96 
-30228 -13908.6 -16228.5 27636.3 21526.1 23659.1 13875.6 -78478.8 -1081060 
-667145 1570760 172017 1079160 69122.5 -573913 680246 -253624 -358189 
-1068000 -381542 -1378930 -2097.09 228032 -113243 -177598 -327633 -370174 
-90459.4 118417 163900 -218459 371442 151065 -21710.8 -4041.84 74453.6 
-18530.9 14747 -5275.58 37343 -11316.6 -8249.76 12799.3 3882.24 -17591.1 
13761.1 2124.87 -5716.09 -16515.7 -23975.9 17097.8 17800.2 4425.02 26789.5 
4971.06 4888.54 16460.4 -9122.59 -2878.86 3521.65 -14803.5 -1617.05 -21006.2 
13685.6 -6751.08 21055.7 4634.48 581.148 -11041.6 10438.5 9108.1 -48922.5 
-27410.2 -10925.3 21046.9 -7356.72 28203 -11866.5 4395.66 8135.08 -15420.9 
-17022 14145.7 17074.4 4044.41 -2105.49 -1196.91 -16553.1 -5838.22 3435.19 
5511.19 7792.41 -1276.91 -8458.4 1425.53 3430.61 23952.6 53142.2 86357.3 
126844 159562 -39320.7 -12100.2 102718 -55156.6 205454 147646 346285 
472007 172268 -15090 31517.5 3340.89 -12554.9 21371.6 15721.8 22070.4 
29562.8 13779.3 11470.7 -18729.4 15659.6 42312.8 11950.7 22282.5 22299.7 
5861.54 -3065.37 19689.7 -5673.88 35324.3 -10593.9 -2109.87 5487.53 8560.81 
-4271.38 -5917.85 -664.188 908.508 -7464.33 -14777.2 -510.845 -1411.37 -895.086 
-464.307 6193.83 4641.45 -1039.45 -10984.8 -9103.57 -3022.41 4873.89 7766.92 
4574.61 -412.508 4403.25 5480.37 3018.4 1275.85 -1500.54 -466535 1326630 
123417 926468 -1009880 -828804 722150 -131432 -1176560 -1293870 -1921940 
-870771 10790.8 -31090.3 16387.1 22244.5 80372.1 -3590.97 -9716.44 -71703 
-30538.1 -71707.6 62175.5 64081.1 -41413.2 -18101.5 3349.03 8166.87 50199.6 
36861.5 2655.42 -9432.89 78395.2 153338 21531.8 87381.9 1315.36 -4285.73 
-5259.19 3866.08 -9727 -4960.86 -333.447 -12003.6 -3728.72 -1387.12 8292.85 
-5457.76 16488.4 5620.81 7320.79 8922.14 -4447.13 6024.32 -13585.4 7764.18 
-7100 -2623.31 18883.6 21402.4 55199.7 10388.5 23993.4 -1998.09 8492.81 
5847.3 26334 6085.37 21207.2 23249 -59726.1 12164.4 -77180.8 -11755.9 
-63715.2 -1103.13 8805.04 -5832.92 -74170.9 -34634.1 22476.9 43938.7 -3192.34 
-2515.38 -6549.36 -21171.4 263.284 18312.4 7051.31 7833.86 18215.2 11109.6 
10483 8482.01 17554.7 -3344.74 -12532.5 -31394.3 8737.06 -23299.5 -23943.5 
-18578.9 -10212.4 -8247.92 -14699.9 4018.14 10331.5 33888.1 12434.2 24884 
15065 -11694.8 -340.024 -15768.8 11241.4 14167.5 19811.1 -13513.6 -9697.4 
-6734.75 -15443.3 23175.9 -19734 -18648.1 -32483.2 160561 555765 469948 
51762.2 72471.9 -314447 -454300 -1002380 -612708 -1102980 705662 358530 
191622 285446 1731650 470705 630118 517138 136698 79043 100300 
-57680.9 -2249.39 -182.998 -1989.86 1968.46 6614.75 927.214 -6129.88 1227.47 
35.8611 -8649.26 -6987.59 -8740.41 -8252.5 -2366.78 10898.2 8448.25 -4380.07 
-1252.7 -3561.72 -3577.07 32.8506 -2013.42 -3819.88 12672.6 5781.5 -1225.35 
4777.44 4406.58 7581.84 6689.51 -795.477 -4906.51 22306.5 8357.6 9071.08 
4972.14 1352.97 -6125.92 -2208 -2018.92 26788.7 -11824.6 1479.68 -11561.5 
-35691.3 11456.7 -21939.6 10418.9 49288.6 2299.51 39796.7 -9333.65 -62688.9 
-46125.8 -104193 363970 208431 247147 110061 -209763 384206 124050 
-7193.96 -14791.9 -34505.9 3118.56 2291.27 28823.9 13207.6 21397.9 -8833.61 
-7265.72 8585.71 8318.54 24833 13499 -4101.01 5051 21287.9 5033.66 
-12926.2 -21515.6 1022.49 886.645 4191.24 -7110.99 -2640.52 7152.95 2756.73 
-564.203 -3532.76 7383.37 -4191.45 765.976 -1548.47 2803.56 -11023 -8230.91 
-10337.1 -1395.29 98047.7 314074 488384 1339870 747101 534327 1296030 
802930 370052 26137.8 14555.8 10518.9 2089.92 -20785.8 15587.7 -1147.61 
18074 -5894.36 5343.98 14780.7 -7377.82 10325.2 -12085.8 1626.54 19.7637 
324.317 10704.7 12463.9 3020.66 5362.58 880.652 -5255.1 -6431.53 -14346.3 
-9179.75 9448.36 398.016 6844.81 -4438590 2165330 314121 1552980 -3140600 
-2275970 315003 1602950 -3348410 -18629.7 35119 8452.45 -18052 28404.5 
32127.6 4367.68 -33791.8 11261.1 9523.52 1499.97 -4003.54 23858.8 20987.6 
-64854.4 -64531.8 47799.1 4878.9 23870.1 15800.9 -48576.7 -43879.7 -8305.7 
-52816.6 -1223.68 -77702.7 74622.3 -141930 -85914.6 -17941 -132837 5890.55 
10508.5 -386.568 9627.86 28963.4 31093.3 146285 -22739.1 -77426.9 -42006.3 
-88006.7 -33789.2 7115.82 21852.4 -2102.92 6256.91 5856.21 12722.5 -11960.2 
22095.4 2750.67 8146.69 -2197.02 11348.3 14054 -10133.9 35907.5 26283.5 
45328.9 123149 115060 98546.8 -497337 -1196930 -410088 72754 -67563.6 
-3242.81 -8975.21 7244.53 5065.96 -22454.9 16652.1 9559.27 -5071.72 5584.99 
-262679 -50890.5 -47430.8 71183.5 -22105.4 23601.9 7397.4 -3873.12 -856.941 
8543.55 15570.6 -4661.4 14064.6 42837.6 27827.9 -26873.6 -25848.1 -22923.9 
17438.7 10418.2 -18989.9 266139 2202.63 12624.4 -8550.17 387.846 -7079.7 
3432.59 -14800.9 -16960.5 20773.1 -20168.1 9297.28 -503687 427.507 -362311 
106497 413798 25326.6 9895.98 -220401 -149177 -10912.9 -1653.16 -2438.9 
7462.06 -1350.03 1126.06 4889.92 13184.8 6141.73 17929.2 4725.64 -498775 
-242136 -629775 -190484 4323.29 -4059.36 2389.9 -14294.8 -485480 -280763 
-367827 -510585 -535658 -699015 -91484.8 -131238 342767 402746 956838 
299997 -15549.8 -401613 -77327.6 390318 421334 511573 112943 99521.4 
-237590 -353251 -314704 10193.2 -115124 -86096.6 -27887.8 29555.3 43573.1 
-207297 -506793 34626.6 -358650 -414177 -1623.84 -183963 -79111 -138993 
14368.1 -4365.71 -19026.3 7712.45 -15614.1 4707.4 11490.5 -3669.92 9888.84 
14433.1 22752.1 25711.2 -4348.16 -8272.97 7036.04 16407.1 837.028 -19277.3 
-18520.8 -2821.42 8684.65 26758 -10669.1 -30259.7 -11438 12773.8 16964.9 
-3469.86 -18027.3 13226 23616.9 29260.1 720.4 -5153.43 11471 20393.7 
17740.5 15868.1 -2163.67 11915.3 3919.76 44919 7275.07 -11872.6 -2335.51 
6187.53 2421.27 11656.2 -12178.9 -1200.26 -3355.39 -4761.34 -4198.93 2716.86 
-3359.81 32671.5 -4180.34 1534.41 1769.62 3318.46 -130905 31537 -3150.53 
-3846.89 2455.32 -4271.6 -36856.7 3044.11 6295.23 4008.57 2817.59 -78497 
14455.9 -3084.94 -9303.92 2726.48 2412.19 -5613.75 88118.8 371.907 5834.94 
6258.08 -969.623 -391362 4530.3 -554.547 3959.68 1113.21 -441757 14419.9 
8407.28 -10439.6 -100436 18729.4 -9032.03 -5049.27 -213.266 20680.6 187110 
6026.7 -92.2074 3250.37 -52750.2 5105.44 10344.1 -5465.35 994.095 9395.66 
43681.3 22397.5 -187531 -663.388 -324.093 4032 18943.8 632.156 23281.5 
-2835.41 -44249.8 -852.976 -165224 5912.35 -1681.84 -1014.25 -5763.85 -8778.14 
-28405.7 -4480.74 -11862.5 -6453.82 20217.2 -14330.6 15288.5 3119.93 -14472.9 
-20532.8 -5808.84 -11174.2 -28495.4 -16140.4 -13084 -3119.02 4901.99 6658.49 
-2615.62 2372.53 -381.218 -9134.21 3829.05 -1813.39 1045.07 3687.31 -958123 
121032 246300 -1894.69 4052.85 13051.5 4624 -139954 -633.198 31470.7 
-4232.3 3037.53 -699.125 741.855 260602 140869 -9552.46 -220679 -7338.99 
65260.1 66318.1 2895.49 17132 4464.98 1673460 -621471 56882.5 7481.21 
2370.3 -2111.84 -1376940 -15693 8304.75 9667.45 134980 3630.4 -3231.32 
11787.4 -4824.37 -3263.42 115855 -1403.57 1318.39 734.724 -9049.79 -15462.1 
-4046.01 -394574 3283.65 -371139 -99946.1 3674.79 107365 49.7263 18445.9 
216.197 -20690.1 -4556.64 7124.53 196589 -15736 -29892.5 -9135.75 454.3 
16882.7 36697.7 -1148.48 5971.44 -4817.97 875.093 596368 -3756.88 -3802.47 
-5488.3 -873.84 40371.3 -9045.92 5713.96 -6456.55 1041.27 5280.78 1190.71 
11019.8 29738.7 -3731.66 477751 -11153.8 -45154.2 14195.1 -22968.2 -158080 
3552.7 -3288.01 8964.21 11892.2 6391.02 4641.4 11459.2 8910.68 -4939.92 
-3576.98 2046.21 -2417.99 1901.63 -8021.21 9204.7 12011.1 3536.83 -256250 
-235353 48879.1 201163 -864980 -1019090 13725.5 9621.47 -2613.28 -3807.58 
16059.7 11741.9 -62356.7 190129 -245782 -114006 160442 680487 208389 
302443 -661963 -128528 46577.3 -318446 -326698 247642 207719 -55241 
-129394 -3395.23 -192314 215835 2026750 1620690 702438 2153600 -7204.06 
21041.6 1470.21 -24344.2 4522.83 -25356.1 4805.64 -37704.2 -7998.4 -1565.88 
35452.6 -5296.7 -4132.91 19233.4 2576.74 8111.47 4813.45 -2120.24 -13525.5 
-152.329 16179 -22457 37467.5 23650.9 -1073.41 -47930.4 -26987.1 -6346.19 
-11210.2 492481 27623.6 -1005440 241941 224831 -407571 -69370.4 -62055.9 
-246510 -102248 258810 -258615 -205978 204008 -1071150 -60292.4 601798 
-33430 -401319 -99320.5 -43155.1 -352792 233932 -169383 -58735.1 -31575.6 
22849.8 -307448 -16148.8 -53466.1 -61763.4 11697.1 49303 56007.5 -22817.2 
-56733.3 -97.5443 -4528.12 31283.1 -27947.3 17780.6 -41507.4 -35668.6 6718.24 
-16505.3 9029.3 18338.1 3831.26 17952.9 -3053.82 -26590.4 -10769.6 -6785.88 
3955.62 8731 -17254.7 12155.5 28975.1 -5901.65 12992.4 1152.43 4463.76 
7681.15 9011.89 10644 6905.15 35256.2 -1633.24 -15809.8 3881.26 1210.68 
19384.8 10972.6 12199.7 -7569.2 -68171.3 17673.7 -58914.1 -166162 -117561 
42027.6 15699 -35425.6 3982.74 17392.1 24533 -10020.9 -9011.97 3036.51 
-23546.7 2900.29 -866.226 -2973.22 13221.4 8375.01 -6193.03 2915.48 6595.84 
135.558 1408.69 5361 -1771 4302.62 5619.2 2746.81 3354.75 -1600.3 
3354.47 -7376.64 5150.68 25371.7 -7383.44 -11467.9 6378.4 -786.162 25346.8 
-382.892 4799.07 -8803.84 13667.5 36165 19772.7 18265.2 -15329.3 -10446.6 
-15038.1 8375.5 44902.8 18600.4 -3499.27 11435.6 5886.61 -16510 -10957.2 
-3710.41 -10966.9 -11121 9074.71 9427.86 4337.25 3556.87 -5038.11 1405.49 
48158.1 -6840.02 13889.1 15760.3 1360.62 -10141.4 -12327.4 -9559.05 72211.6 
62042.7 47541.7 -96584.2 100263 101130 -9202.21 22680.2 -16923.8 14086.9 
-13220.4 13076.9 12127.3 -3710.01 -522.552 -35222.8 10316.1 4035.16 10618.7 
-7703.15 27182.9 -4340.14 -15572.4 1119.39 -15891.8 -3308.41 8492.47 1334.32 
12048.8 -8464.98 -2505.38 -2332.93 8870.99 -7074.48 -4956.11 -6340.9 -5745.92 
-558.886 8494.65 6359.75 7048.97 1234.16 -4053.87 -7107.94 -779.157 -5644.3 
-2914.17 6984.75 11329.3 9029.22 952.621 2763.35 9614.31 3042.36 -2552.52 
293.986 -432091 -197885 -100492 146589 -190910 92754 -156357 -2123.97 
-1625.84 -668381 -362331 -312811 54561.7 -26029.6 -60632.4 -85459.7 726.863 
-12010.3 31008 -6122.94 -26365.2 -63188.6 -46513.3 30162.1 23872.5 -34216.5 
-19758.7 23986.4 39257.5 8381.98 -6445.25 13155.5 56836.8 5816.41 28619.8 
31785.6 -6364.64 -7052.62 -7761.59 3268.07 4906.43 -9518.02 -140.602 -8979.44 
2649.87 -8228.41 9298.32 -10960.7 10589.6 -8842.13 -407.515 3872.01 13157.6 
12823 -5404.78 -241.331 -8723.61 -17798 27553.6 36871.4 23547.5 25140.7 
9643.87 -4622.04 9414.9 -2857.97 3684.38 34122.1 -9929.3 26199.7 -126330 
-80789.1 -133893 -14299.7 -25937.3 9488.37 10125.5 17695 110945 -1787.19 
-6420.51 -38389.7 -12189.6 -16166.4 -21695.1 2951.93 6753.96 11498.6 4867.65 
8028.9 4308.73 4016.21 7562.63 -7924.97 18182.4 5625.16 -22869 -13329.1 
-7139.3 -17923.9 3299.48 -18338.4 -2513.49 4017.04 -508.609 25972.6 1348.15 
10957.6 4361.63 101.377 -11517.5 20674 1683.18 7279.56 -4953.42 17207.6 
-1400.33 19915 -8353.03 -830.999 10340 -10825.7 -39391.5 -22652.2 -16654.7 
-92412.8 135630 -323286 272676 104480 -245181 -245589 -104578 -271606 
-82303.3 -11135.3 103903 79543.8 -5133.61 99213.5 568766 170737 577262 
92842.4 -64984.1 196763 -9126.54 -8826.31 -2586.34 -3227.83 2744.32 5703.31 
848.994 8340.12 4148.16 -1124.8 1028.27 -11709 1888.53 10658.2 -9230.19 
-1029.93 -11473.1 -382.805 -11569.8 -17634.4 -12296.5 5528.95 -1748.39 7085.23 
-3510.41 -1970.13 2049.52 1449.61 8551.43 6846.77 1360.84 8214.96 4518.12 
3996.23 -32511 13252.3 1185.99 11595.5 1295.97 11285.4 -7513.36 5497.11 
-1997.41 -5224.16 -2836.65 -2327.75 -34679.6 -6518.13 57213.3 50519.2 12706.7 
28035.8 65061.8 -39631.5 13091.6 154352 65055.6 43763.8 10331.5 -119230 
30174.7 86757.6 -9844.43 -19859.4 -21028.4 -10734 10489.8 -22230.8 17941.5 
-552.766 23075.9 4310.27 -3425.94 16887 9787.82 12805.3 -5661.63 1629.99 
12766.3 31559.1 22436.3 -3441.52 -4200.75 16123.7 8002.76 1355.65 -765.681 
-3390.77 7319.85 3555.79 16435.6 4765.51 7027.72 -6148.33 8242.52 -7236.54 
-9129.25 -7650.28 -6506.86 -7232.72 -1678.85 158.543 268885 829748 551574 
256077 1992.42 538767 -225827 -134042 15320.9 25127.3 982.053 -14392.2 
-12807.3 10593 15301 7484.55 -2491.87 -2288.43 12163.6 347.147 -5576.07 
-6132.08 655.407 414.333 9882.89 9868.65 -3713.26 5565.04 14894.3 8286.24 
8127.66 3273.17 -1901.77 5107.1 -7853.75 -9068.24 -897.075 -830899 -963969 
1282610 790359 -548859 346448 -519294 364273 -1326660 8331.86 -22232.9 
7976.24 4394.04 53757.9 34746.4 15549.5 -16315.2 19527.3 12602.5 22252.2 
19488.6 16568.6 31300 -21061 -101823 -55468.9 -5855.61 22878 -11430.2 
22021.3 -21390.4 -35958.3 -40565.2 -86203 -33634.8 19535 -245275 -97384.3 
-7233.88 -65559.5 -29134.5 30541.7 3680.41 18829.7 80553.1 29064.7 -10556.6 
-24762.4 -28028.9 27120.6 -65100.1 107612 12974 10420 5496.69 -7629.11 
779.219 -3235.15 12093.2 25944 9260.42 5812.38 10549.9 -4614.93 -12124.2 
-5150.18 21820.9 11797.7 12117.3 46665.2 36314.3 31855.8 -99423.3 5401.04 
187912 -168308 -74725.1 -21353.3 -7744.27 -796.185 15626.3 -6793.35 -9252.6 
-1330.76 -6797.93 5536.49 -54500.3 -72046.9 40983.3 140281 73036.1 31463.9 
-5354.63 8923.74 -3997.93 27711.2 2944.39 8020.49 4014.24 13177.8 41477.2 
-40316.6 -470.641 -32214 21756.2 15896.3 -9823.49 31890.8 12286.5 2342.97 
4407.07 -5648.91 -2920.52 1720.94 30164.7 55597.9 66.4749 -11791.4 -4243.08 
-447100 -560198 -550132 -352646 -69594.1 835355 2518690 -1223300 -813032 
-2830580 -1236090 -540752 412565 -628070 -406489 13922.8 -661744 454400 
-469199 -156133 -518505 -424403 -182145 83676.4 -700252 -272562 -166301 
-1014420 885930 -851507 362517 3026780 -353120 1831820 -407691 -695939 
27632.3 -255107 -673983 -458501 -982799 -184255 -1089150 900400 -170311 
2785490 1840220 7275.69 16793.4 31661.8 42742.2 39502.5 42569.6 15359.7 
-36118.6 45906.1 -32162.4 -23018.9 -20014.9 -42268.8 13471.9 -1491.7 16441 
-29718.7 3682.46 12871.5 18139.7 11174.2 9837.56 -511.555 48221.7 45970.8 
34674.3 18956.1 17970.7 29893.9 54395.5 26529.6 37818.5 21416.5 19707.6 
54816.4 40906 74374.9 38705.6 28770.3 55029.2 47599.1 59552.1 19761.1 
20415.4 56415.4 49417.7 56318.8 38194.6 -6413.1 28398.8 17416.6 46927 
311.306 -17655.9 -17474.8 4467.23 904.536 -31935.7 -59404.6 -57468.4 -66080.2 
-390.081 -14127.1 -2868.99 -2875.33 -2265.26 -3063.63 1013.83 -1458.79 -2194.12 
4559.56 -217.363 -601.558 2116.71 1617.73 5610.72 -11406.7 -214128 -49645.2 
-34597.5 3825.72 -100693 -68011.8 -35804.5 -1952.94 -118702 -16776.7 10822.1 
-12933.2 -112926 2029.42 -1869.72 -11464.7 -27367.5 -36435 -52722.5 -7958.97 
11880.7 -19480.3 -20603.1 -39838.7 -12832.9 -4942.09 -16624.9 -26619.5 -608.631 
-9170.1 15265.7 -9426.31 -356.659 -384.232 3513.15 -2627.44 11137.8 -3022.99 
-4021.21 2177.65 7967.21 -5755.02 -17055.6 -5301.06 -2422.6 4254.48 -910.026 
-10043.8 -2884.2 458.473 3232.98 5.40654 -2368.04 -606.505 4351.84 -5075.14 
435.364 -1357.14 716.687 -4618.4 13163 3850.92 15217.5 11698.7 -1950.92 
-1163.98 -1782.9 -17395.6 6497.87 -3390.71 2826.68 423343 -20385.1 2095.2 
2449.4 -1873.53 5506.1 851.367 49.9859 8937.14 -1029420 -3413680 -14318.8 
-23303.1 770.46 -4349.25 2208.32 -3455.11 3584.12 -259.673 -5446.59 2451.89 
658.485 6366.49 2653.34 -2748.65 228.446 9589.59 1032.94 4476.35 490075 
542030 -25812.2 608236 -36756.8 235.625 2242.89 14606.4 -7532.37 -37686.1 
-9766.78 -21034 -1849.28 -2122.46 -5973.59 -8612.69 12653.1 34738.1 7811.2 
-24892.8 29284 42249.6 3953.2 -38416.1 -10348.1 -3504.97 538203 1313830 
-23001.8 111917 -136647 71.8373 -1653.32 1898.56 -27997.8 -16258.3 -196587 
-355010 -324559 40648.3 -18381.2 -36077.7 42191.4 5824.28 7536.85 10186.4 
15310.5 19650.6 8711 -5373.05 -8608.53 -6511.49 17211.3 16682.4 934.11 
4330.39 39237 10826 7384.88 18343.8 -3981.91 282.43 11098.7 2125.71 
8320.54 5382.87 3033120 2189110 758113 1325010 4031870 29060.3 18984.4 
1696.41 18636.9 28154.5 7176.94 4335.56 6704.75 26192.4 1533.25 -15736.7 
-24673.2 -33397.7 -3637.89 -9017.57 -9769.1 -3289.62 -5633.54 -6533.67 -962.149 
-6061.41 16584.9 -814.976 2544.49 40842.3 10152.6 9910.69 8256.28 6332.51 
9279.86 5044.2 13711.7 -935.076 3439.48 -139350 -69995.3 1212130 1023520 
4343340 -143131 -165809 -285018 -6816.65 14845.4 -4207.29 4636.93 8598.17 
6923.44 7732.37 -13698.7 -10428.2 -17681.4 -1836.65 -8564.36 -5784 -35454.6 
32262.2 -39309.7 31520.7 -2764.09 2671.57 -16428.7 4324.16 14875.5 7513.74 
-3338.37 -1913.57 -4249.22 -958.371 -4867.28 -5812.1 -38059.7 64347.8 -7468.17 
1323.59 -5067.69 9549.37 5840.96 -3562.78 2207.48 -6236.81 14780.9 -7788.16 
1428.77 5593.56 32284.4 7888.66 33208.9 -18863.3 -3315.81 -7303.81 -13386 
456868 -149749 627728 1020620 422668 144737 -714509 291493 -44339.8 
10088.3 -3942.44 -6547.73 -3030.94 -6187.87 -2371.03 9956.38 5652.58 -12748.5 
4133.83 1512620 82133.3 -404978 -466216 -291202 -5412.02 5839.1 -301.322 
3305.95 -1428.79 4328.47 -1212.3 -4798.59 7905.93 -5951.08 -123385 -257457 
-171228 -238962 -11894.6 -31390 -16758.6 18903.5 3439.45 -105741 -33068.8 
20942.7 7809.66 17313.2 15527.1 9329.57 13048.3 -2912.89 5501.68 11103.2 
3350.23 6395.29 1457.33 -10223.5 567.169 13044.8 -3100.28 -2241.18 -12887.2 
-18741.3 -5961.12 -19008.2 -6648.81 -5945.1 1569.58 -2784.36 -4819.61 10114.1 
-137.364 -1763.36 -972.224 6873.67 -4242.37 -4860.57 211878 17.5882 -8137.49 
414.135 4543.5 12962.2 12156.8 -484.921 4037.07 1434.41 3213.42 5950.15 
734.386 920.223 -5662.09 3022.1 11098.4 -6257.33 20717.6 -1335.02 -9815.48 
16775.9 -7099.73 -2185.24 -1115.22 -172504 84979.2 525735 -1074.19 -63484.4 
13187.5 5285.77 -130969 1012.54 3136.23 -1268.68 -469.141 5303.76 3426.81 
-1748.28 4123.84 4377.56 4724.08 5604.81 261.025 193.526 -2077.92 5261.84 
-378662 -360110 -290823 6563.42 -12711.7 5903.55 -6390.34 22117.2 -8228.36 
37458.7 -4741.94 -25432.8 -12426 -2832.18 -2387.65 -3055.42 28510.7 -1543.93 
5676.67 4832.97 5494.68 -7278.71 -5646 -96500.3 -2095.94 -1502.83 5056.84 
-5162.23 -451.123 -1117.31 -21248 9001.19 1317.25 9436.86 -11015.7 1566.26 
1839.13 5503.73 1751.63 44519.6 -35575.6 65493.1 -40091.6 17929.2 -3434.66 
2097.41 -117605 -29666.2 28756.2 34881.6 5314.15 -357504 509275 -38024.7 
-81049.8 -165.056 2598.71 2254.24 549.287 690062 -200606 10626.8 439574 
-6660.66 11835.3 4818.26 12421.3 3974.65 -6809.32 2937.17 10348.9 416495 
-44109.5 -775883 3127.33 -2430.3 11108.9 923.258 2800.51 -5272.79 -4253.01 
8677.55 -718.355 -1344.51 3882.02 6009.21 8883.65 18724.5 6695.6 -2451.78 
14472.6 -4600.54 -7901.16 -5557.89 -1088.96 1791.86 -12109.4 -7952.35 -617.157 
-181.842 -922514 -532928 -7667.39 -6938.05 12547.7 1363.19 5396.66 11584.6 
-6493.35 -713.129 -8065.96 -16379.5 -45316.9 -8017.52 41.9235 11563.4 -20446.8 
41971.5 -5798.17 2338.73 2694.09 1900.82 5334.17 -507572 -9018.28 -2498.75 
-9182.23 -2155020 -1348160 -3780790 -1797230 -1071320 10034.2 -1057.97 1229670 
883117 -101.244 -5716.86 22839.9 89444.9 354.02 -719.672 -12960.9 -9248.56 
-192.612 6969.97 2999.62 7824.07 33818.4 34917.3 30702.2 -2643.59 930.051 
-2472.43 -9462.89 -3168.24 11469.1 6668.33 1553.86 100613 234406 78933.7 
-18093.8 -17574.6 4178.34 -9423.79 -4244.81 1503.19 5047.06 -2279.89 -616.99 
7372.49 120838 -28127.2 423.483 5865.36 -1673.89 -13213.5 -11157.4 -2093.32 
4206.47 -10920.1 132010 38130.4 -4626.43 -2412.6 -276.798 3311.63 968.961 
4705.96 2428.08 191.158 156.922 1078.24 173.438 2939.4 761.558 2602.47 
4970.54 -3064.4 -776.711 -3990.7 -6043.73 10756.6 -4104.07 -7956.14 -151.243 
-2745.05 3549.22 -6526.59 -2312.51 4399.88 4050.92 126563 95328.7 413493 
353022 3608.63 -639.497 -7839.81 -13691.7 -3825.72 56109.4 192310 166846 
7334.82 3935.33 -384448 13578.9 -482.352 -8117.4 3390.55 -6313.46 -3552.77 
-2257.8 -9838.59 -1685.76 3951.71 8826.42 8503.88 -23034.4 -5521.87 3919.03 
-260259 13650.1 2181.18 -657.176 6581.31 -13.73 -2018.8 4109.43 27363.6 
6763.37 8565.48 8615.55 -3121.46 3666180 1110570 224817 5268.44 -2259.24 
-9293.44 -5447.97 -21738.8 4287.83 -1084.89 -42659.3 -19021.1 -73500.6 -28512.3 
-12235.8 -5491.41 -5299.83 -24871.4 3816.77 -3972.88 689.493 288.545 1676.44 
-1911.33 -415509 -5393.37 -6472.32 1137.62 5585.57 -2304.27 -22351.9 -4057.87 
-5778.56 26380.8 1411.64 4524.64 25543.1 2664.77 5039.59 2919.64 23608.1 
11921.3 9512.86 314.991 -1967.02 11538.6 4321.81 3252.81 -2641.83 7815 
422.928 4909.45 7927.41 -393351 -1548810 -477734 4621.47 -8794.88 8976.45 
2074.26 363.488 -54307.7 -10438.1 -2815.42 2019.95 3330.45 -961818 -1803780 
-868500 -14517.8 -34383.9 -9509.09 -3607.92 5617.96 360.764 8380.78 37332.2 
-3850.28 1134.87 807.895 4299.43 -695734 -3935.24 6015.86 -6660.84 -7795.12 
-910.804 7430.39 2082.09 -686.079 -10936.7 -47672.2 -4103.75 9826.38 1543.41 
3753.93 194.879 2216.62 541.187 -4256.4 5977.45 1037.02 5898.3 2965.03 
895807 1064170 3086310 1149180 -8344.66 -1488560 -4044.42 -6482.13 -5044.57 
2986.74 -5089.28 -7763.94 -14225.8 -5950.49 -2788030 -6050350 375.807 3088.6 
-713.624 -14775.3 -7257.63 -35850.2 -1250.67 861.395 5674.58 78442.2 -555.619 
-9703.18 2688.54 -14588 30684.7 9146.32 -13011.3 -1165.93 2542.59 7163.93 
-4563.32 230469 279352 -9913.76 1493.26 20037.5 -14906.8 3077.14 -16696.1 
7778.99 -46.1447 -7544.95 7659.29 -344.311 -26630.1 -17645.4 1026.18 161499 
151973 41919.7 27314.6 -15747.8 35012.6 -27369 34984.3 -408.705 -14.1182 
1047.73 1191600 1362610 1514020 2193550 -817.602 -5438.96 2294.81 -1266.59 
-9088.24 -4722.2 -867069 -238454 -1163820 -3592.4 54888 -27981.9 9722.08 
-8038.29 -449.173 2942.91 -106.199 7307.6 -20721.5 3140.02 -4254.04 -16893.3 
-44494.8 -278999 -924020 3396.91 -1977.88 734.613 -424.283 -3478.31 15174 
2419.7 -8347.82 6302.51 -9301.13 445095 765417 19348.6 17308.1 14966.1 
-2839.79 5963.1 -213.685 232.942 -130.468 12384.8 -3793.63 528738 -16478.8 
4144.1 650.779 6525.59 2169.66 6459.95 18248.1 -24483.1 95429 148704 
131215 8828.63 -144101 -93841.6 -100861 -7503.54 -7170.92 -1479.39 8881.78 
-17319 6308.27 -20406.9 -7333.93 -146609 -14596.5 -674.202 918.864 -3738.71 
327.5 1425.49 102985 337464 48.762 236.06 3750.95 811.897 5736.45 
24577 -17392.6 -8578.56 -1463.72 4667.21 302452 -482615 -362495 -78928.6 
1409.03 -4830.91 699455 1207210 7729.1 -6226.2 -8522.53 7311.93 1889.18 
583039 829.048 10944.7 -775421 7086.92 2548.4 10238.9 -13753.8 -173.772 
1998.57 -5873.69 -3213.8 125.383 -5174.36 1458.35 -3262.89 6220.47 -418.058 
-952611 9374.24 -7488.92 23226.8 20292.5 -16329.2 60969.5 -34858.3 -883.965 
-3173.55 -457.75 26425.3 8303.86 -7388.84 8667.87 -5864.48 -3892.52 137.243 
361931 63663.9 247013 206569 316752 58128.3 -53581.5 -24354.5 -598.132 
-3146.58 314.577 4516.15 -10886.2 10785.3 26408 2506.45 -10036.6 -134.106 
1843.18 4304.2 -1462.44 -141277 2158.78 2293.08 2445730 3377060 -411.51 
-9219.92 -3068.83 1286.39 10320.3 14131.8 -5541.56 -18184.7 54415.6 -5603.39 
-3275.07 -1722.39 -4620.29 2817.7 -989304 189556 -1455560 -1672550 15561.3 
-9085.09 3407.45 -9258.59 1075.69 -651.045 3517.43 380501 -513419 193714 
-110039 -260743 -316859 528020 291575 343139 -25868.6 33229.7 -761.184 
2586.82 2544.26 1799.4 4600.71 4012.32 -1278820 -636140 -879758 2291.45 
-1743.21 708.193 -5706.3 32468.1 62153.8 123542 191348 115220 8652.91 
-13156.4 6231.15 893.175 -2098.03 -118.128 62244 86076.9 -39414.5 -7093.33 
-5821.9 -8576.02 23824.3 371.526 10273.9 -812.491 5682.11 23681.5 -6293 
1276.34 -1074.71 -1643470 25538.8 -2381.45 171763 -151938 -322298 -373377 
-93341.2 9290.58 -11609.4 -15960.7 2115.31 5342.23 -31430.3 -13185.8 -216304 
-149825 -399543 -173636 -229005 -144507 -393379 -482718 12547.4 2643.11 
2547.5 7869.58 -5780.46 -24215.3 -82931 138215 144773 -8208.95 -5479.37 
-7612.37 54175.1 -1889.42 -953.224 742908 953946 511735 1037.62 -3084.27 
2420.95 563.967 -24024.3 58.6301 -29135.9 -360049 1564.85 -5187.3 29799.4 
88475.3 -854.768 655.626 10183.4 581.878 15306.7 640307 -457090 -3620580 
-1225120 16398.3 37404.4 90044.9 22698.2 -796021 -827467 -1186130 -647995 
202601 4806.18 -3215.59 -106786 -822994 -391358 -806334 -1106220 -2998360 
-3906110 1400.51 -21014.9 2320020 488817 1713450 13457.8 -422262 1168460 
1219.21 -24392.8 -3886730 9019.17 -1459.34 3372.21 -6271.1 7849.24 -11328.1 
-8498.28 23675.4 -34684.5 164010 -8593.09 -258878 -123960 -1218130 -36192.9 
70477.5 421429 118320 86622.7 -62.1154 -857.897 54673.2 502493 -4024.14 
-1831.68 -1017950 -40547.9 -681778 3107.58 -741.872 36025.2 383383 15134.2 
-1087810 -479731 -12560 1575.35 145174 -1449440 -2123.71 -12226.3 -10748.7 
23927.5 -30245.7 -6371.31 -5219.45 -800669 -132417 49256.8 -10300.5 2551.83 
-1954.12 -1448.56 -1051090 -329190 705.488 -12532.8 -5797.47 -9590.08 -2690980 
9621.54 -132833 34761.2 72654.7 315044 11567.1 -8493.17 -1849.99 11279.7 
841.845 -1100000 -1217360 8684.79 -5805.76 -186359 66226.1 80975.3 40308.7 
12168.8 13079.7 27313.3 -24817.3 -226140 -233551 5009.23 -27324.6 -4488.21 
2406.23 17612.2 1994.4 -2827.41 -5237.93 15185.7 -1334.07 -1023.06 -3084.68 
-3544.71 1888.9 36713.8 -1242560 6109.44 2888.5 -10394.9 -2885.32 -9599.8 
6536.73 -5532.66 -3242.6 2218.84 -17261.3 3453.21 -819.264 -4116.32 -2776.92 
5478.16 -2704.38 -748.419 -785.394 -12064.3 -173043 -205116 -6516.13 
Stress%20zz%20component 1 3545 double
-915322 53110.4 2287480 -1262880 25490.6 12913.7 -45588.5 164758 57080.5 
-1045700 -68501.1 -1738640 -164243 -825291 -3206570 -5323200 -1043640 579239 
199816 173263 11340100 4670740 -2414440 -4930330 7603240 8846590 -574167 
-3638670 -89878 -751250 676447 1888980 -189972 294340 -549340 -54073.4 
408213 266965 57399.2 24530 2656 6569.67 -35623.9 -16160.8 -19613.1 
-7410.13 -43541.1 -34359.2 -29268.1 -114232 412304 1822200 -2596230 -1172160 
169830 74329.7 526777 127430 28499.4 44003.5 7194.59 -39681.5 -27900.6 
-4467.35 -12419.6 -38262.6 -21865.7 -46236 -13751.7 12956.3 20312.5 29025.8 
13588.1 4289.32 -21607.3 -19963.9 -24340.5 -28768.7 16649.6 41797.2 13737.9 
23427.9 -11816 -8602.93 -28300.2 -27539.5 -23586.2 -18708.2 -136761 163920 
-34464.3 5332.16 64384.2 59178.9 -536.771 35238.9 13432.2 1211.45 4695.72 
2109.68 -20.0028 -90.5946 65926.8 184160 235213 95040.7 67251.5 40268.4 
54250.9 39186.9 10357.6 4754.08 6360.45 2451.63 -14773.6 -9132.29 22530.8 
-32653.7 -459612 168078 -418705 346374 -1145730 -328623 -702103 -506728 
-226408 -396146 -258326 -4606940 7459400 -6136030 2781200 1684480 -3529110 
2923030 -17976 40734.9 1354190 299179 63166.5 87225.2 -7222.79 -24315.5 
3225.54 -70903.4 -60054.4 -64121.7 -38858.8 -110596 -28411.3 2269770 2606740 
-2957660 1673040 587740 -261734 1465900 820844 -63251.6 135126 63792 
-48628 -25864.9 -50006.5 -78880.5 -87303.4 -136727 -125513 -103739 55195.2 
138580 66816.2 61977.7 29910.9 15194.9 -11724.9 -37376 -69335.8 -95916.1 
-25242.2 82100.6 85412.9 89706.3 38235.6 9395.64 -28454.1 -57865 -123459 
-97561.6 52358.7 112251 39748.5 13494 48903.4 -7763.11 1852.35 58827 
9160.08 2456.46 8917.63 11573.1 12863.2 6325.88 -15253.9 -234769 125822 
287909 89141.1 148404 18036.1 62304.2 61111.8 34115.5 17211.2 15600.6 
19135.9 -5163.79 2661.09 41190.4 -1368730 -882583 -1269860 -732258 2202590 
4502830 6444640 -1886910 -2046290 -1567760 -1389240 -51867.8 3990090 10710200 
-3369320 -1255420 64892.7 817456 6652380 4747940 -1841670 -2034080 7866420 
7997280 2337570 1646010 490055 -263859 -1944220 10981600 4664990 1700410 
11672200 10627100 -2648770 -2121880 7719620 9475160 192195 -1296760 810674 
-122511 -1516860 -2507640 -3200100 -3779220 30830 -6723.55 31615.4 25516.9 
1484.38 -376.418 -2707.92 -590028 22829.8 -14879.7 -8409.22 10705.6 6214.49 
25300.7 6994.41 18039.6 -968.461 -15230.7 -195836 501978 6130.82 15718.8 
2436.32 -590.06 -56486.2 -175161 -18166 -27020.4 3233.75 -8898.49 -558599 
24655.2 29.5482 8655.68 -6565.58 2182660 -11270 -16465.3 26181.4 -210935 
-56033.8 136388 -6472.95 -11052.4 46517.8 473337 42863.3 7072.16 1361.36 
86812 3320.3 -4681.11 1273.08 -14275.5 10131.7 523299 -3882.73 539942 
-2126.85 3763.65 -1035.17 -15078 26207.1 -22276.9 4629 793610 30854 
697272 10002 -537.439 12973.2 -36652.5 21502.3 -141510 -9895.08 2923.54 
8129.49 -449300 -21374.7 -2633.2 5093.09 -1938.95 -4154.62 10840 7805.16 
15828.2 -16539.1 -19654.5 -543.032 -17605.2 -8155.14 -7397.91 -1718.55 -9761.01 
-28070.7 -805.276 1639.79 -1019.19 -5875.48 -247930 840428 -140248 -3855.48 
-1434.17 -27904.9 9078.48 -75077.9 4872.06 -9522.51 311.987 15494.5 3717.72 
15825.3 297858 -535967 61223.1 -883036 4501.19 -1811.03 130643 -3037.64 
27441.1 22033.9 -7117760 2018650 8251.43 -20519.9 -2803.53 -534.318 841656 
13859.9 -17157.2 -3409.93 384890 -6121.59 -26506.6 5206.54 19696.2 33361.5 
-281713 22672 -15261.7 5579.3 16501.6 68695.2 24.8735 -3333530 1904.52 
328073 163438 13703.5 459117 -89.8084 -708.747 -8168.58 -6960.49 -40118.6 
12423.2 -78180.4 -12120 -282062 25501.6 11411.4 -120756 107312 -21772.4 
-3682.1 -32256.8 22496.5 2643300 -7666.6 1891.05 -16611.8 15906.9 -47734.8 
-9792.52 3340.03 10315.3 -5338.12 -2377.48 2516.92 -36139 -33097.1 -8981.22 
766127 241579 48834.2 -4890.73 -1210090 3012.13 3742.18 -3855.56 -1644.9 
37122.3 2008.67 -3877.36 -4198.17 -2548.84 1337.89 2177.93 -785.001 17744.6 
-6037.92 2630.28 -14521.6 23598.7 -40357.9 -536022 265377 -4485930 -335568 
19918.8 105199 9241.09 11372.4 5952.43 -19873.3 -522.822 -9908.07 -48807.6 
345694 663483 -732006 -8844210 -6168770 -625199 -1490690 1899800 326295 
-971623 -652500 887233 -21485.3 101455 87725.8 -68003.1 67352 -106340 
124783 96554.7 -35641.8 7971.22 122988 10803.4 5939.82 114566 13896.2 
-689.574 32318.8 -17606 -1832.85 67397 3457.62 -15308.4 29007.7 -13273.5 
-659.617 46289.9 -8303.17 100.675 1712.92 -6019.27 -637.755 4622.69 -6813.95 
-3586.95 25516.1 -15268.3 -13108.5 17352.3 11345.2 1371.1 -26494.2 -8267.64 
572.2 16821 374747 352674 -508939 -238601 277233 -287265 508348 
799545 94718.7 59100.5 -252038 -44228.7 373570 249284 1095890 -2543800 
-331434 -1106710 1564860 -3266550 9378620 -27921.7 -24138.2 17475.7 11627.7 
-41747.2 -21141.4 -16530.6 17010.9 -4979.67 -16364.1 17671.3 772.457 11095.5 
-41437.5 -9741.78 20525.8 -6209.24 16282.9 8766.89 17992.6 26901.1 29781.9 
-12447.3 33809.7 26672.3 -21649.5 -7938.49 -35558.4 5310.23 -406653 -187430 
-1088680 1078320 337278 165083 276754 -420652 186328 128186 -166558 
-2443650 543608 -599264 251698 51649.8 168391 -70452 190715 118162 
-185599 -360291 -199157 -369034 306269 66984.3 -13242.3 -33386.9 152405 
-36332.8 -24091.9 38474 18582.9 -26106.2 1029.58 -3709.44 54980.7 24771.3 
13269.7 -20133.1 3717.78 -8949.49 31066.4 11727.8 -31665.8 -2222.17 -5825.99 
33817.6 6922.74 30302.6 -5464.77 2313.15 13374.2 -17373.6 29117.2 23145.7 
-10821.7 -9021.29 -1055.89 36448.9 24660.1 -7998.04 -40607.3 62969.4 12010.8 
42693.1 19967.5 -26058.8 -42457.2 21061.1 34173.3 5834.91 6774.36 7307.42 
-27921.8 20530.9 -12853.2 -564.044 15632.4 -31132.1 38092.1 -25575.9 2777.25 
21661.5 -4328.26 -1536.53 -18603.4 5943.84 5723.68 50447.7 78674.9 18362.8 
-28017.5 65545.5 33027.1 -11696.8 -24254.9 -80598.6 -293836 -48663.4 -153702 
-64662.3 -169581 53648.5 -25679.2 18757.4 63932.4 13437.1 -9668.65 -36524.9 
-23679.8 -23464.8 30798.2 -58213.1 -7549.95 -42724.1 -25341.6 82160.5 -20124.3 
-52251.8 71210.1 26635.8 81583.7 -5926.36 -2419.83 -62936.2 1683.29 30925 
1712.7 3325.26 -10766.7 2632.13 2055.27 11357.6 -29588.2 -9685.45 15848.1 
-17078.2 -27.9315 -5358.1 13114.5 19972.5 -27993.7 3342.92 6255.75 -4829.55 
6570.17 -7332.58 9055.14 -13435.5 -6353.91 -4521.43 2347.65 28090.8 579911 
-99157.5 289268 440661 -1099110 916650 33024.1 101050 -383741 -1570760 
1167710 46842.4 27034.5 -7438.94 124213 -24775.8 -23955 -41458.4 -10548.2 
53681.1 538.432 21039.8 109560 -4830.54 -62334.9 -27376.3 26169.8 -8717.32 
-1538.39 -28394.2 34199.7 31399.1 -27908.2 -13393.6 -74368.3 -19618.4 -16455.4 
2590.89 -2104.83 -5512.16 1941.23 -18302.8 -5760.88 2262.57 -13708.3 14352.2 
10142.3 29429.3 34008.9 40856.7 -12672.3 -10447.8 493.045 39114.7 -35463.2 
-1693.8 -11307.6 24607.7 -19607 29394.8 22974.6 -7362.63 -38602.9 -10923.5 
25220.5 -33847.3 -29362.9 -18909.1 12321.2 -103902 54891.4 118530 -38475.3 
-74071 12766.9 69354.3 -19197.3 -20787.5 -45265.6 84879.1 43191.7 11854.3 
-12274.8 6436.14 8175.95 -3186.5 -18201.4 -22395.5 -17921.6 136.922 5150.72 
-15987.8 -31622.7 -3224.75 14050.5 5367.96 -37353.4 25704.1 -4442.79 915.643 
-27630.3 -30449.2 -2841.66 -2900.5 8654.57 75761.1 -27997.8 30936 8084.9 
-70346.7 27807.3 -2049.19 46753.8 14447.4 12182.9 -42627.2 44248.4 -9121.2 
-37848.1 -3782.49 -51255.8 41653 -61344.9 -29616 -570163 271096 282236 
79089 -204554 776111 800999 -97254.3 66474 369293 966879 124622 
103328 14197.7 963498 602827 3386940 830769 11161.8 -26658.2 -25919.6 
-215951 7603.1 3644.72 5355.58 3987.41 -14496.8 5884.45 2176.93 635.797 
6940.01 -2949.32 15214.9 -406.582 26966.2 12627.3 -41024.6 -18187.7 47073.9 
-31375.3 13960.8 8584.77 -34478.1 -6277.85 15873.3 4625.56 243.471 -3629.19 
14168 -15286.8 -4186.45 9251.65 -13023.5 16555.4 -11446.7 -15009.9 7726.16 
8538.83 -1511.5 22950.5 -30489.3 10569.8 2127.56 13586.6 12386.9 -6719.05 
-26754.4 -48664 -72190.1 -71112.9 -33839 -16078.1 -19845.7 -36922.8 -4126.88 
-1230.15 -98791.9 41267.1 198577 70750.8 -441350 375104 318664 76111.7 
5037.76 -15789.7 -4597.86 -22373.3 48114.3 -15151.9 26461 19952.4 -32926.3 
-3632.37 34804.7 13196.9 -30722.9 4698.65 -3961.24 -41847.2 8821.62 1503.02 
-10390.6 -23417.3 -3249.53 25583.1 15626.6 -12857 -35995.3 12531.4 5694.12 
8467.72 42443.6 1556.13 40626.1 807.76 -7711.41 -43537.1 -19825.8 -14640.4 
23027.8 1040 -2363810 -1627170 2174650 -841582 -1638380 -835872 965674 
-1183760 -870143 23221.8 -7606.67 7769.42 -10419.1 37549.2 -11989.4 -5021.99 
-42814.2 -5399.46 841.328 7795.48 -8221.96 -1233.15 6335.21 8264.66 3317.9 
4653.49 -15699.7 -1376.39 15.136 -10163.1 4892.66 5317.04 6500.08 -15556.3 
4943.76 -10492.4 17029.6 2143.69 -135820 -1606020 1238810 -1072980 1178000 
3435200 -2769410 -2147920 7709110 -8376.53 361.024 -2658.68 -31534.3 19764.6 
-29894.3 240.039 -56124.3 -9339.63 2588.17 6322.04 31384.3 -3767.83 36705.7 
-25538.3 -45761.7 -13397 -20941 -34510.7 -3866.79 5422.2 55660.6 63740.3 
32283.6 -10990.4 75757.3 -431087 -159857 136535 -223430 18048.1 -98357.6 
-6368.71 -50893.4 54879.8 -13160.3 116645 -958.897 -282983 104541 -91096.6 
8759.62 432038 7537.02 -13170.6 3221.03 -15975.6 -3853.91 33733.1 -14573.4 
-30780.5 29900.9 8056.13 -20170.2 -13128.3 -15707 -5615.2 -808.914 7763.68 
88995 -24944 -37656.4 37429.4 126811 -499409 1312420 627779 -71429.1 
27729.6 -46649.7 5119.24 15222.5 28993.7 44868.9 -20743.8 46510 -20235.7 
-326437 -90357.5 82779.2 101964 -56322.2 -63203.2 -19270.3 23861.9 17723.1 
-935.113 -19520.4 14914.9 8687.54 42269.5 -10892.6 23563.6 2440.13 28361.2 
-26762.7 22581.9 -28845.8 120668 -5221.62 5925.95 -8480.17 -3253.2 -6301.59 
2239.5 -60656.2 -58787.7 -1553.26 -30680.6 -12355.5 1378720 46826.9 2206400 
-3554570 3588080 1161290 -392884 225292 795126 -271342 59241.4 19903.2 
-11286.6 -16036.8 -3284.33 -16887.3 -38937.7 -24244.2 -36956.8 -48824.6 163608 
1576170 644763 1687270 110133 38847.9 -8420.27 1370.41 1709090 1485210 
1449270 2544460 -2193010 970798 2171180 2332600 -45129.9 1614250 1297810 
-5824720 -375813 138123 -388054 580865 3699160 1518810 1621500 -137045 
-275788 448719 -235127 -181590 725944 267802 -247494 195700 532496 
581376 270942 616496 1181870 1783180 -50940.5 -91257.6 706705 525559 
-92790.6 28710 98154.7 -139469 105068 165538 31084 64375.8 71166.5 
65729.3 111207 16934.2 -30146.3 11417.4 4080.89 -40556 -61266.2 -12920.6 
1739.04 -12686.1 -49174 3781.53 -36126.3 -45861.3 -42659.4 24858.4 5633.76 
-25937.6 -47446.3 -37556.5 -73596.2 -4785.87 -60727.5 -42013.1 -52989.7 -80971.9 
-40043.3 -95690.6 -46168.1 -48370.4 -133393 -48134 -55463.5 -24056.6 -57456.9 
-38450.1 -39487.7 -91964.7 -69435 -84604.5 -147141 -46321.8 -39295.5 -26196.5 
-4041.75 189342 -21094.8 -25545.9 3438.95 2277.29 -1189090 46615.5 78593.7 
5194.07 -5790.15 -6059.29 61953.8 -3419.47 3032.91 20403.8 28467 -2540790 
746855 7370.32 -22774.7 9770.51 -6337.82 53562.9 -942631 4799.92 12077.6 
-16571.3 -2467.4 2087760 -13685.3 -3738.86 -6851.77 -2810.23 -1045510 46802.9 
-18705.8 -40833.2 271108 -49387.1 -72994.3 17109.2 3628.85 87435.5 2348300 
-17224.6 3239.05 23408.1 133627 -9999.73 20485.3 -12930.2 104400 -12731.9 
197002 -849029 -775288 -2507.03 -2143.5 -1957.9 43415.9 -7335.18 12632.8 
7603.72 381450 -19658.7 -3138690 -2184.84 14561.1 -1006.99 27203 -19494.7 
-1502.99 11144 -15566.5 4710.26 390957 33236.8 -3181.43 -2396.45 -6028.98 
1447.5 -15696.1 3178.53 149130 -11753.1 5028.71 93.8727 3107.12 20494.4 
5273.38 4097.6 1210.56 36846.6 1203.03 1317.43 -559.389 9724.31 475045 
-412499 562324 -5165.44 2149.57 1947.39 10764 -149701 -2574.87 37957.2 
-4523.63 26377.4 -9027.66 7812.36 -966662 -4242410 -15145.6 -1721520 869.49 
419665 26677.2 -6196.88 13171 -11290.3 -16898200 3530450 281224 17334.3 
-13701.8 1268.62 6232920 -49347.5 23879.8 -19890 294083 -34950.6 -4234.25 
-7933.02 -27574.7 -10844.4 -2941250 -19027.9 -2336.99 28034 24079.5 -77037.7 
-9321.68 3730120 -2675.53 -2901100 241135 -2120.81 4977460 -1182.36 1991.63 
-8832.77 2682.39 20868.1 -7257.24 764654 2795.43 -310811 -57110.5 -4508.84 
61498.4 276639 244335 -1679.18 -13066.7 21225 1986580 9016.18 -54.0726 
17684.6 11832.2 235041 4829.87 24082.1 -12001.9 -6424.24 8982.85 11455.6 
31839.8 26084.2 10012.7 3348790 317263 138799 -14819.2 -1908400 107281 
-2999.99 181.532 -8500.25 26737.4 19311.3 9007.6 -10946.7 -5270.36 10613.2 
42709.2 -3013.1 16608.7 -1656.88 -502.087 -11345.1 19913.3 7819.43 511022 
-2575670 820786 2317550 2240500 3590910 16278.9 83537.3 2600.15 -1719.07 
19183 -7223.08 -25536.8 235191 142673 457144 281852 -232428 -168959 
135435 -199686 241490 -110849 -663487 705542 -179750 1704460 8200.25 
651352 2343440 1129760 134368 -7888840 -9596550 -1052710 -4321390 -425.581 
-10367.1 30695.6 4619.71 -25065.6 -28729.4 -15383.5 -11113.6 6655.23 2517.11 
25180.7 31279.8 -5233.41 -28376.2 42787 -9603.58 -19521.3 12421.9 -6946.56 
46980.4 15842.2 21839 -13054 -9405.64 5014.4 -24319.7 -45071.4 3879.44 
-17441.2 1144640 4372860 -4888570 -4330030 -1654250 1875850 -4966250 -1805630 
-2233140 -1220000 449064 1071640 -1557190 -5163960 -1827030 -757691 4433640 
493603 623628 -173965 1948530 2864980 264704 -128862 -364524 -112771 
-135047 525961 342754 572225 -459569 -243090 -669367 -951657 -466040 
-208217 34685.2 74102.8 98701.1 -25550.6 4071.61 33122.3 68362.8 20255.8 
284.904 17423.3 34302.6 -3770.14 25930.4 -14031.3 -6394.49 -1736.98 -10016.3 
19623.8 -59732.4 -7237.04 -1711.21 51363.8 30032 2331.53 -2290.98 35199.1 
3714.38 -19350.5 -6549.01 40464.8 -15269 -6819.02 -2493.44 -813.728 -17539.7 
-3216.88 -44553.7 376020 9987.12 196379 103236 -59327.9 151748 111952 
162297 -8876.93 -56039.3 56690.3 -16806.9 -12785.3 73189.2 -42046.2 -18990.4 
27018 -8391.54 4227.96 18603.5 -35275.5 -22945.5 37802.8 -7854.5 -5395.46 
21265.7 -10841.9 -11744.1 148.54 -3038.52 -12720.8 9839 -5136.04 -11144.9 
17226.5 -19727 -6178.07 12052.9 4820.44 -4815.38 -1709.18 -35722.2 3433.93 
14787.2 -698.569 -3958.1 -38924.6 -12826.3 -24260.9 -1364.05 39735.2 9075.27 
-27713.2 -12036.6 102038 40938.8 20475.3 -52892.3 -10536.9 -38537.4 25154.1 
7194.34 -19456.5 -15789.8 4528.22 13899.6 -22834 5403.03 12446.8 -15204.1 
115483 83683.1 86495.1 225362 186601 32313 13368.7 134851 323865 
353749 418793 450832 375552 465437 -22277.4 -23423.8 33045 -59063.5 
54391.6 -45532.1 9889.97 -1973.99 30923.7 11721.2 34371.9 -38393.3 7603.56 
-2601.57 -57646.1 -35649.5 -21912.8 -37992.7 62316.6 -2474.23 11398.3 -67450.5 
-5510.92 -2905.28 660.891 -20537 4077.73 -6839.97 13729 24188 -12525.7 
-20059.6 -32843.2 22974.3 -24702.9 -290.719 11473.9 12066.5 7697.17 -5846.65 
14011 -1624.77 -2313.9 958.419 -8424.93 11474.5 -7283.62 -20608.5 -8560.85 
-3907.8 -2086270 113813 -2073450 -1812910 -2195680 -1166340 -1519680 2588710 
769523 1087850 726702 4772020 84172.5 79481.7 84724.6 2161.26 33022.2 
-32842.4 -95961.9 -15224.8 -64412.9 119398 128201 297113 275053 60206.3 
61586.4 565.139 28878.2 6358.39 -8970.38 21102.7 236695 198863 9481.21 
95997.2 8981.1 -16284.7 -9907.58 -10944.8 8330.37 1114.57 -17059.1 15030.2 
-26468.2 12849.8 1843.25 8282.64 -5136.86 14176.6 14008.5 -20718.7 1636.21 
-6635.33 -1193.74 4570.28 33481.8 -12439.2 77244.8 -8941.69 -23314.8 -25918.2 
-11798.7 -42395.6 -35814 584.679 -19620.7 -21912.5 11974.5 -47610.2 144525 
193260 -43840.4 -157870 66720.4 59495.9 112361 -6925.9 79913.6 121268 
21529.7 119396 -2537.98 -36378.4 -4938.25 -679.701 10857.9 12484.3 -5321.36 
10811.9 703.291 -18916.1 8880.02 11458.7 -15751.2 -5797.49 7932.77 16432.5 
52881.9 16477.9 24787.1 21069.7 17109.8 21829.3 34637.2 12565.1 91675.3 
-18533.5 6083.51 -2212.24 49174.3 -32739 16407.4 -22448.4 8098.06 -14478.6 
55239.9 -37004.6 -1340.23 11939.1 2747.8 74644.4 29928 10290.1 73962.7 
-1219400 -3659400 -535839 1071610 -778196 1346540 -783781 -882879 -1896430 
-2553170 634444 822357 584213 666568 1109600 648286 1504370 1446100 
656524 354935 557311 186593 2683.29 -11136.7 15363.8 5697.53 3448.14 
10736.1 -31935.7 10193.1 604.518 -1834.47 31948.3 -10414.8 -27314.2 36896.7 
1815.02 -9586.46 -5775.21 1623.31 -27623.4 -36182.5 -3191.58 -7891.67 16344.6 
14265.7 8810.3 6526.82 313.434 23444.7 -6433.27 -5127.25 -1596.88 32859.3 
-6630.14 20259.6 -40413.6 -9158.57 15846.5 21116.6 -34527.8 -13546.9 11684.8 
21060.8 -16795.3 13981.6 72436.1 -23543.7 92919.6 -25891.5 -13565.6 -11211.8 
76582.6 -168.376 7022.67 -4663.8 -794224 -810494 -2935.9 -30722.1 265845 
-278625 154593 270476 -36888.2 -1441.35 4795.14 -164.753 29795.9 23469.3 
-2765.91 19364.7 16353.6 5996.71 28714.3 6127.42 -2839.95 41423.1 3908.02 
-28733.3 49913.7 6220.52 12981.5 -12500.2 -7039.38 15558.1 -1124.99 -15156.5 
-1396.86 -42039.9 7238.41 -11199.8 48399.3 13924.5 -22884 -21510.9 20660.6 
-2837.76 -15360.9 -13702.7 10609.6 -20055.3 772191 -480897 -1863000 -583572 
2527030 3122910 3354770 264953 -536946 58883.7 -24649 23584.1 9546.41 
-24408.5 1626.75 -40509.2 1721.23 9031.22 -5565.74 20469.5 -23740.2 2580.61 
8735.66 -7539.12 3829.91 8751.06 -5743.73 -546.594 -13903.7 -19965.7 5823.91 
-11685.3 12393.8 7173.96 -8977.13 -8451.84 -2876.82 19301.6 -4892600 -4634270 
-17238100 -238807 -5108900 -7697140 3391580 -2754870 9240370 95458.7 62900.3 
10478.7 -3837.47 36660.5 41596.1 47552.7 -7465.04 4432.72 25935.4 -41052.6 
15996.7 34653.7 443.383 5290.42 5982.63 -34944.3 -54806.1 -50441.4 13514.5 
-93787.9 -56512.6 -45131.7 -43683.1 372960 117288 69001.8 339353 218131 
-239876 79873.5 -40958 -52015.1 -112751 58140 -3681.89 35265.2 -13185.8 
30470.8 41112.6 -193140 -125975 231826 -16704.9 16512.2 -24810.3 28242.9 
-3429.93 11066.7 22732.3 -11354.4 35755 19846.1 1434.36 -7229.75 -24919 
32210 55713.9 48234.1 87325.1 81606.8 113789 92360.4 915640 -1922200 
3493470 1144640 3794900 1958.1 -7129.27 -17607.4 -14620.6 -21799.8 -3663.82 
-27797.3 -19505.3 63768.4 218910 -69223.3 242909 173997 246652 36673.2 
1692.47 -29975.5 6976.49 16600.4 5947.94 52831.1 -12586.8 14903.5 -31388 
-21258.6 -26188 44266.1 12378.8 4898.22 20941.3 100495 -3580 111.718 
-22862.3 -5288.02 -2169.75 -10187.6 12756.4 135837 13732.4 -14620.7 -6898.28 
-518647 -146692 -818483 -559770 -976752 3669300 4385960 -1952330 -3583490 
-2004820 3332440 3850140 -576406 -1263420 -1308820 -1815590 -935035 -989889 
-1258630 -1038040 -1253760 -1284560 -1131880 -861075 6523.83 -203480 1349170 
-136794 2228230 6884630 373375 5428890 6708930 2035750 1662360 -716477 
-51942.2 -1039000 48870.9 -220811 -1223640 -706759 -519576 -3417560 3441530 
2143750 6512680 42628.2 30613.5 18716.2 26985.4 -15206 -37010.2 -24577 
47118.9 -4640.47 -45580 39914 109586 -12540.5 52281 24428.9 41590.5 
-6376.26 81471.9 111486 27781.9 46890 13015.1 23281.7 26839.5 68989.2 
60667 10927.9 22837.4 38480.6 33490.8 60295.4 41995.5 -30359.8 -15783.5 
27905.6 19302.9 1127.84 -21348.3 -18624.6 3457.28 4989.11 -5458.18 -66245.3 
-36185.4 -9912.43 -30220.7 -35377.9 -53759.7 -55927.5 -39803.2 -68373.1 -23169.7 
-28761.8 -132756 -10235.8 -85125.7 -94406 -48225.7 -34277.9 212691 133000 
-1843.61 -39492.7 -21280.7 27578.4 -12973.8 -6223.45 -14497.4 -4477.9 -5495.88 
-5407.04 -4795 -991.129 -5451.5 5652.57 21552.2 36657.8 -177948 236644 
-415044 16158.8 -154471 19530.4 91137.7 -338927 259675 170533 -18416 
56495.2 -148404 29452.1 -83232.2 17091.9 -41081 80174.1 -11363.3 -53019.9 
20830.2 32945.8 104689 23866.1 68254.3 59924.1 30285.2 -17492.5 17230.4 
13465.7 20442.4 44769 17409.9 -19084.1 -25029.7 81996 17558.9 102438 
16179.8 -735.375 -5003.75 23416.8 46369.9 -8885.26 30771.5 -7736.41 13126.1 
-5844.2 21280 16181.7 -7157.3 7031.97 -7078.44 24588 24886.9 -369.686 
11335 -5213.24 36069.7 129.256 -13153.4 19134.5 7661.7 7204.36 22174.7 
-24610.3 11832 -12048.8 44123.9 16909.7 -49730.1 -2062540 -65461.3 6196.15 
8423.69 -2934.77 -10449.1 -8596.67 -2869.97 5410.16 -2428650 -1245100 8296.95 
-26575.2 -13584.4 6997.94 10384.6 10335.4 -68.3175 -461.844 -9045.32 -23048.7 
30453.5 8472.89 14903.6 -3087.42 115.086 -1395.83 5389.67 -8176.68 -1349970 
126775 -1039380 -1363180 -2630790 1152.53 -11681.8 -57390.1 -15564.1 -35791 
-23723.7 -13039.6 21383.5 17478.1 -23633.6 -4469.7 22424.8 -44279.1 -34291 
93440.6 -73886.2 13085 89809.7 -97283.6 19647 3282.83 -223679 -179463 
10061.4 173431 7136.01 8043.43 21843.7 7819.39 19849.7 -26079.9 -299920 
-141717 -170520 -608488 -319240 -69517.4 38134.5 16792.7 22009.4 36345.1 
7159.57 -37079.8 13438.5 28195.6 -24580 -375.174 -12253.8 3860.37 -1892.88 
5219.92 6294.58 14170.2 3071.21 -18645.4 4174.84 -5006.92 7863.38 3512.07 
16602.5 -10172 -620967 1245600 3036220 2971420 -4567200 8255.83 12734.9 
24370.2 -32824.2 -12498.1 17274.2 -8033.53 -8204.97 3562.62 2991.59 -111399 
173046 82067.7 -24339.4 -26813.4 13573.3 -11505 -19383.2 -14863.5 -37672.7 
-5128.88 -11788.9 8289.75 8407.69 -14176.9 -1061.7 731.623 -2668.65 3153.17 
8778.71 -7327.98 12361.5 6458.97 -5171.51 77850.3 327201 4797390 5870380 
-5105630 53136.7 361299 253387 -11822.2 283.631 -16356 -9338.75 13114 
32568.8 20571.7 7212.4 -5410.27 38738.8 -10625 15846.1 -2024.93 -14561.2 
66471.4 484234 -121118 1970.45 -27204.6 -31066.4 18652.1 18423.9 -4925.08 
106.93 27734.1 -8580.61 6816.84 12375 -7124.52 -676588 -399258 -9794.62 
-7236.1 12004 -12844.5 5144.85 2198.99 -2211.57 39297.5 -24458.6 20090.3 
-4642.32 33211.3 81937.5 -5095.09 47576.4 32468.4 -78059.1 -38847.7 6945.92 
-3052020 -3087750 -289010 -2687620 2828470 -1491820 -1629270 -637367 -2125880 
-2491.61 17123.7 10029.2 13420.5 -5202.76 17540.2 5356.91 -5361.82 -5154.73 
-3941.48 -742884 -1253220 -358294 776746 180419 -8130.94 -2454.16 1067.35 
-7593.83 -4477.17 8054.12 -7983.3 -9706.88 7089.73 2227.63 -306972 148043 
123155 -152393 -13116.2 -21579.5 -14342.7 7301.29 -10556.3 -342455 -153048 
-15039.3 -19415.2 2577.52 -6072.9 2056.49 10055 -6925.97 5591.04 13190.3 
-3449.9 34791 -28716.5 161.465 14691.7 586.466 11193.4 -1287.38 -27698 
-15260.1 -53248.3 -16001.1 -3238.63 -15283.2 -10390.6 -25369.1 10761.8 12065.8 
6921.29 -17288 9936.19 3521.26 -2085.58 13155 1038270 18855.6 21412.9 
4063.63 7975.95 -9201.37 -9601.79 636.454 22044.8 14151.7 -6832.36 -14212.7 
-542.033 -3985.74 -16733.9 -4944.65 -14237.1 -41885.6 4556.42 -25569.1 16642.9 
-3132.01 -1055.9 -922.985 4340.19 1406110 2796090 733134 -2354.5 354504 
34247 29031.9 199322 415.35 4799.42 -4886.05 -8476.8 -23697.4 10478 
-14513.1 25925.9 9967.13 -2297.16 -12440.3 531.565 4871.46 6747.45 309.322 
3052230 1932490 3574690 26222 -2248.64 -1655.8 10197.3 -15057.3 -1235.94 
-50946.1 25143.2 -38179 -11448.9 8156.51 -1337 -6472.09 12219.8 -19132.9 
-12706.1 -29910.1 -27622.1 20506.1 -24165.3 -45949.3 879.595 29008.7 -3640.69 
-1124.04 171.911 3368.98 2673360 -14811.2 6183.38 -9270.61 -31294.3 28346.9 
14634.2 -6371.78 14594.6 6744.82 -97679.7 -182941 318926 -51388.3 -23961.1 
-14007.4 197952 53009.8 97291.1 -2814.12 1045.36 -3298.67 5953260 31117.9 
-96794.3 -17435.3 292.643 -4139.87 20259.9 383140 3318420 1801530 -36021.1 
-18585 -12889.5 -3552.54 4158.91 -547.098 -25054.6 16007.7 -40795 4439390 
2173130 557217 -1663.52 -1130.68 -9222.35 -555.494 -7013.63 5769.82 4568.77 
-1028.51 -15685.4 -4087.32 -1790.68 7891.82 9963.19 635.841 13452.3 2050.54 
-505.109 24995.7 -1458.83 -6348.63 1746.87 24555.5 -17306.5 29407.8 -37353.3 
-29538.8 4161420 1802000 26361.3 -10574.6 -10039.3 7392.08 -22426 8111.43 
11113.4 17066.2 -16438.4 -178502 448504 -18454.3 31399.3 -19266.2 81092.6 
11945.7 -152588 -85016.7 19440.8 3546.26 3271.63 -110103 22771.3 -17059.9 
5476.25 3429170 3409800 3160370 1495300 -3838240 -3798.3 295.813 305859 
-788541 -2784.35 -20935.9 79320.6 -110771 5650.9 3724.35 -1041.96 -19785.2 
25348.3 6223.87 16637.6 -6392.81 196890 80285.6 33979.5 -27958.7 -11219.1 
-4715.82 -3364.51 -1147.74 -1315.64 21908.9 19852.5 5432440 7632430 -111724 
20307 14217.1 32361.1 -17062.7 7335.57 26550.2 -19362.6 12166.5 44378.4 
-4482.59 55944 209895 -5199.55 5796.81 -31.0124 -2604.54 -13560.8 4960.78 
54938.4 138299 363598 106118 17078 -19445.5 6876.79 11864.2 11634.6 
-9762.02 11725.7 2862.19 18882.1 19325.1 431.106 -14525.8 -2849.59 -5613.54 
-4017.38 -11119 -7924.18 4080.52 -21933.1 -25267.2 -3002.14 -1392.58 2024.88 
5961.45 -37180.7 -10320 -8513.36 2765.22 -7934.39 220428 96629.9 425959 
422484 -4381.9 10636.1 22768.1 2769.47 -218.193 -109951 -761649 -1004320 
-7716.96 21716.7 2449590 -2974.63 -8727.31 -4619.35 15453 -3654.53 -7163.38 
-6235.68 -5410.37 7728.71 10813.9 -36156 -39063.8 -15995.8 25145.8 -5195.02 
-142277 14360.9 22972.7 -9944.43 9774.19 22481.1 -2842.5 -14109.3 -38529.3 
13144.7 -1089.47 717.337 14643.3 -1912920 4655460 2516080 -17277.3 14262.6 
-12024.7 10476.9 -6734.72 -17825.5 10074.5 132319 -6710.72 214564 188758 
-10105.4 10810.6 3548.08 17328.5 -11307 8728.59 -5493.78 2418.35 -2716.26 
-9872.41 777830 30627.6 10242.9 -1783.78 -8290.75 -63790.2 -10585.1 4000.7 
12427.5 31304.4 17732.6 30514.1 69025.9 3129.7 -4713.76 -8340.75 42429.6 
44720.6 -40.3962 6898.46 8997.21 -1902.02 -12788.3 -16232.6 7942.2 7176.34 
2122.86 -9725.16 7594.68 871825 -786323 -873606 -29451.8 -8069.21 38503.3 
-19151.4 10392.4 69213.6 10475.8 -7444.53 -14485.6 8202.63 594097 105644 
1711840 5233.25 30687.7 33165.8 5819.36 10945.8 663.734 -24789.1 -9396.5 
10700.5 50319.5 -8677.23 -5768.54 1588180 376.674 5221.76 5399.17 -475.156 
16402.2 -12767.3 4979.71 4383.21 -2953.69 -500951 18825.2 -14047.4 -21833.7 
-25192.3 -21624.1 -21162.9 10710.7 12513.7 25909.3 31908.1 7622.87 2937.65 
-996131 -1673800 -1198020 -1882620 38051.9 -165035 3171.11 -9.58966 10055.3 
-13559.1 -4526.09 22177.9 -53494.2 44549.6 -373265 2285520 -47100 2863.49 
-21247.9 9361.73 -12190.7 300378 -29994.6 7213.77 781.321 143506 6616.04 
-38547.8 23214.5 -57005.9 124967 1734.77 13206.8 -8274.36 7812.88 48714.9 
-1159.6 381071 489225 31155.7 2683.96 23782.1 -11783.7 -5456.27 -3027.89 
-15010.9 -10678.7 42752.9 -18111.5 14945.2 41029.4 7671.88 3503.34 374361 
399806 181681 -39912.6 -32488.6 30376.5 -35305.6 133727 -4804.59 -743.662 
-6034.44 -854408 -15970700 -6578490 -9868910 -8308.58 -90.5079 12675 -38698.1 
-2535.59 -13599.6 1100260 -1726850 -743088 -10084.3 61309.3 -19424.4 4826.17 
-1375.4 16399.8 -5989.75 18847.7 -2659.64 26242.9 -61484.9 934.559 -298388 
-59394.7 -64224.6 -2341050 29777.5 -26722.1 20743.8 -4905 5424.53 -5162.78 
8300.3 -1231.2 2892.7 18471.3 1040650 1702390 22148.9 53720.4 -3721.72 
50868.1 11787.7 8507.89 9608.32 -4034.45 18264.5 -1503.76 -1139070 47054.8 
-65105.2 36993.7 -18519.6 -46754.2 -23346.1 -50581.8 -38235.7 148080 178707 
-15913.7 46101 -297131 108942 -391388 -29002.1 -13714.9 19231.1 15254.6 
-28235.8 -3024.29 -41876.7 -58183 474075 17805.5 41147.1 7310.1 -175.626 
9106.15 9586.32 -390470 604554 19008.7 -2002.32 -11173.2 -3299.4 1869.83 
-988.148 -6870.79 1036.67 1737.31 8778.43 199255 -181894 251575 86621.3 
14205 -4470.31 4526910 2433320 -32198.6 -14708 -21341.3 8783.37 -27888 
-1194240 -8627.82 37017.7 3640420 2690.36 9803.25 -6360.63 23813.7 -34845 
-6604.81 -41248.9 38582 -20887.8 -10456 -6086.95 6678.32 -9899.73 2213.12 
6299780 -24686.6 -14346.1 -7662.89 59237.7 77141.1 -63296.5 -48661.2 4997.1 
-13058.9 4072.34 -3685.21 -2429.22 -11360.8 -2024.78 -95.7189 -5709.96 17775.8 
1154910 891704 -103467 247730 137901 51529.5 -98723.4 29256.3 5892.9 
-1257.87 1442.26 4361.11 -1634.74 6459.91 5966.32 -12099.2 5170.4 117833 
-17201.5 17751.4 15662.1 -1634590 -3263.71 -30527.2 -692967 -8489530 7180.54 
33655 12501.2 -8564.5 11035.6 -9981.29 20770.3 -10500.4 48333.1 28950.8 
7316.32 -22704.6 -10070.7 -3808.21 -967635 -2590030 -109470 -834095 -2419580 
6000.77 2051.63 -6603.94 -15640.3 -5633.53 1745.49 -509772 -833773 -875535 
-1608160 -1835860 -2903900 313008 248489 178159 7653.06 -31537.2 -52936.1 
13747.9 -7680.41 1548.91 824.124 -7686.74 -1302690 -1921910 -1653890 19672.8 
-16276.4 -2245.67 -2935.53 127936 80235.6 93276.9 257683 41467.9 33815.9 
10806 -26825.1 11002.1 11675.5 -24402.7 83264.7 -25046.9 267149 -16158.8 
-25736.4 4772.74 40649.3 -12431.7 -27577.8 12629.6 -7596.03 -25361.4 13141.8 
-3298.94 -7279.44 1301430 35668.8 27429.7 341744 570394 -139370 20102.7 
-132591 -2313.84 19977.6 18889.8 -9128.38 -3289.4 -6464.54 11363.9 -599198 
-427900 170740 111805 -490922 282008 7424.95 149556 6562.3 9941.32 
961.289 5947.7 2695.81 -16143.2 -602685 -111677 -15825 -19293.6 -9161 
-2024.07 63497.8 116472 -2517.25 1068940 -295287 834716 -9264.94 -7925.54 
-1506.43 32208.6 -2831.8 -223.709 -151915 -958045 -1043.2 -12261.2 -74220.2 
-13914.8 2501.87 -682.417 -19664.1 13952.2 -30724.7 -4233300 -1640200 -2693370 
-9182090 83025.9 -1743.13 -294315 -173003 1569350 362994 -421219 -511236 
355121 -10092.9 -6753.88 1216450 290180 640064 -2500230 -524321 285753 
-671424 -7925.65 13266 -444154 -3152110 -965712 -87771.4 -2854850 -1181720 
4084.15 21141 -11757500 -1925.97 -27425.5 14932.9 15519 -1313.42 18622.3 
-44895.4 46820.8 18834.3 204943 -655.336 4707470 440868 -3433980 -5433.05 
312940 153596 1191330 408239 -15092 8159.53 -799507 -1505270 5402.64 
1581.42 -2834920 -269899 -2031740 25447.7 1942.88 -8562.13 1517410 -63515.4 
6580550 485916 13610.5 3102.29 430144 -187905 -3949.81 25288.5 -4726.68 
20992.3 389.31 14810.2 16910.6 -6553600 -179140 -334334 6299.07 4578.43 
-556.976 -15374.4 -1254430 -3889070 19593.3 -12914.2 -9630.14 -9045.68 5473420 
11487.2 27665.1 -335646 -272718 49080.4 9971.73 -22060.8 6407.71 81837.8 
15671.3 62235.6 -1575740 -21676.1 -13826.7 -34247.7 304693 92723 27782.6 
-2635.71 -32116.2 16577.5 37536.9 749939 -319586 31962.4 19859.4 17643.1 
11961.6 16582.5 32977.4 5746.23 -19672.4 86949.3 -3379.75 -9824.34 -16093.7 
6433.11 -9067.23 126004 -2847110 330317 2104.9 -233860 -81831.4 -54547.8 
22379.9 -1076.47 942.636 548.359 67288.2 497.14 1886.65 -12306.6 1377.78 
-8931.25 2848.4 13699.3 -7834.68 -13500.7 -62064.2 -457120 -28497.9 
Equivalent%20Plastic%20Strain 1 3545 double
0.00308796 0 0 0.0045801 0 0 0 0 0 
0 0.0016728 0.00098427 0.000298471 -1.43693e-05 0.00229013 0.00126604 0.000584442 0.000128136 
0 0 0.00282225 0.0011257 0.000389455 -6.91836e-06 0.00370092 0.00185558 0.000745307 
0.000180079 0 0.00396214 0 -9.45752e-06 0.000127244 0.000464724 0.000329196 0.000192034 
9.54456e-05 2.52771e-05 -4.29064e-07 0 0 0 0 0 0 
0 0 0 0 0 0 1.44478e-05 0.000351486 0.000415408 
0.000256097 0.000147433 5.87646e-05 7.86303e-06 0 0 0 0 0 
0 0 0 0 0 0 0 0 0 
0 0 0 0 0 0 0 0 0 
0 0 0 0 0 0 0 0 0 
0 0 0 0 0 0 0 0 0 
0 0 0 0 0 0 0 0 0 
0 0 0 0 0 0 0 0 0 
0 0 0 0 0 7.633e-05 0.00200818 0 0 
0 0 0 0 0.00105899 0.00260665 0 -7.56774e-06 0.000115822 
0.000566138 0.000325676 0.000185195 8.22098e-05 1.48482e-05 -3.50289e-07 0 0 0 
0 0 0 0 0 0 0 0 0 
6.16028e-06 0.000393454 0.000449086 0.000247933 0.000140072 4.7233e-05 4.58528e-06 0 0 
0 0 0 0 0 0 0 0 0 
0 0 0 0 0 0 0 0 0 
0 0 0 0 0 0 0 0 0 
0 0 0 0 0 0 0 0 0 
0 0 0 0 0 0 0 0 0 
0 0 0 0 0 0 0 0 0 
0 0 0 0 0 0 0 0 0 
-8.08703e-05 0.00164091 0 0 0 0 0 0 0.000572435 
0.00322252 0 0 0 0.00344828 0.00193747 0.000700331 0.000132604 0.00324039 
0.00408367 0.00243769 0 0 0 0 0.00316969 0.00146046 0.00173263 
0.00233322 0.00238831 0.000477428 0.000841765 0.00114979 0.00153701 0.000913388 4.76083e-05 0.000211552 
0.00034636 0.00051612 0.000269931 -6.04623e-06 6.07375e-05 0 0 0 0 
0 0 0 0.000203924 0 0 0 0 0 
0 0 0 0 0 -1.40502e-06 0 0 0 
0 0 0 -6.4476e-06 0 0 0 0 0.000340595 
0 0 0 0 0.000697643 0 0 0 0 
0 0 0 0 0 0.000313982 0 0 0 
0 0 0 0 0 0 -1.33853e-05 -8.46444e-06 -3.31967e-05 
0 0 0 0 0 0 0 0.000109061 0 
0.000589566 0 0 0 0 0 0 0 0 
0 -5.87588e-06 0 0 0 0 0 0 0 
0 0 0 0 0 0 0 0 0 
0 0 0 0 0 0.000198491 0.000189847 0 0 
0 0 0 6.33024e-05 0 0 0 0 0 
0 -2.06685e-05 8.67569e-05 0 1.23555e-05 0 0 0 0 
0 0 0.000258037 0.000589442 0 0 0 0 0.001787 
0 0 0 0 0 0 0 0 0 
0.000226243 0 0 0 0 0 0 0.00124857 0 
0.000239596 0 0 0.00047028 0 0 0 0 0 
0 0 0 -6.56015e-06 0 0 0 0 0 
0 0 0 -7.38395e-06 0 0 0 0 0 
0 0 0 0 0 0 0 0 0 
0.000304862 0 0 0 -4.57791e-06 0.000239167 0 0 0 
0 0 0 0 0 0 0 0 0 
0 0 0 0 0 0.00241436 0.00182371 0.00190226 -4.41501e-07 
0 0 0 0 0 0 0 0 0 
0 0 0.00146318 0.00106719 0.00157075 0.000711442 0.000426427 0.000914984 0.000263647 
0.000100183 0.000378457 0.00014416 0 0 0 0 0 0 
0 0 0 0 0 0 0 0 0 
0 0 0 0 0 0 0 0 0 
0 0 0 0 0 0 0 0 0 
0 0 0 0 0 0 0 0 0 
0 0 0 0 0 0 0 0 0 
0 0 0 0 0 0 0 0 -9.70629e-06 
0 0.000157548 0.00111179 7.45137e-05 0.0010139 0 0 0 0 
0 0 0 0 0 0 0 0 0 
0 0 0 0 0 0 0 0 0 
0 0 0 0 0 0 0 0 -6.70221e-06 
8.41036e-06 5.97386e-05 0.000119589 8.61321e-05 0.000225655 0.000377034 0.000247035 0.000353944 0.000291513 
0.000251238 0.000331571 0.000219985 0.00020983 0.000151879 0.000170538 0.000127579 8.01908e-05 8.77829e-05 
2.81569e-05 4.28351e-06 1.83846e-05 3.00796e-05 -7.20303e-06 -1.50172e-06 0 0 0 
0 0 0 0 0 0 0 0 0 
0 0 0 0 0 0 0 0 0 
0 0 0 0 0 0 0 0 0 
0 0 0 0 0 0 0 0 0 
0 0 0 0 0 0 0 0 0 
0 0 0 0 0 0 0 0 0 
0 0 0 0 0 0 0 0 0 
0 0 0 0 0 0 0 0 0 
0 0 0 0 0 0 0 0 0 
0 0 0 0 0 0 0 0 0 
0 0 0 0 0 0 0 0 0 
0 0 0 0 0 0 0 0 0 
0 0 0 0 0 0 0 0 0 
0 0 0 0 0 0 0 6.81966e-05 -9.48289e-06 
5.71912e-05 1.83264e-05 0.000142572 0.000230655 7.23593e-05 0.000285266 0.000358699 0.00043249 0.000418849 
0.000522093 0 0 0 0 0 0 0 0 
0 0 0 0 0 0 0 0 0 
0 0 0 0 0 0 0 0 0 
0 0 0 0 0 0 0 0 0 
0 0 0 0 0 0 0 0 0 
0 0 0 0 0 0 0 0 0 
0 0 0 0 0 0 0 0 0 
0 0 0 0 0 0 0 0 0 
0 0 0 0 0 0 0 0 0 
0 0 0 0 0 0 0 0 0 
0 0 0 0 0 0 0 0 0 
0 0 0 0 0 0 0 0 0 
0 0 0 0 0 0 3.32038e-05 -6.0133e-06 0 
0 -2.17608e-06 4.4806e-05 5.95555e-05 0.00010994 0.000134042 8.69977e-05 0 0 
0 0 -2.71519e-05 0 -1.12025e-05 0 0 0 0 
0 0 0 0 0 0 0 0 0 
0 0 0 0 0 0 0 0 0 
0 0 0 0 0 0 0 0 0 
0 0 0 0 0 0 0 0 0 
0 0 0 0 0 0 0 0 0 
0 0 0 0 0 0 0 0 0 
0 2.47587e-05 -6.40677e-06 0 0 -8.48507e-06 4.74205e-05 0 0 
0 0 0 0 0 0 0 0 0 
0 0 0 0 0 0 0 0 0 
0 0 0 0 0 0 0 0 0 
0 0 0 0 0 0 0 0 0 
0 0 0.000622428 0.000469786 0.000503585 0.000291861 0.00040635 0.000333679 0.000267568 
0.000151961 0.000176662 0 0 0 0 0 0 0 
0 0 0 0 0 0 0 0 0 
0 0 0 0 0 0 0 0 0 
0 0 0 0 0.000519846 9.71627e-05 0.000308999 5.8494e-05 0.000489476 
0.000668239 0.000713181 0.000979254 0.00115417 0 0 0 0 0 
0 0 0 0 0 0 0 0 0 
0 0 0 0 0 0 0 0 0 
0 0 0 0 0 0 0 0 0 
0 0 0 0 0 0 0 0 0 
0 0 0 0 0 0 0 0 0 
0 0 0 0 0 0 0 0 0 
0 0 0 0 0.00018984 0.000235868 0.000312217 0.000398919 0.000289442 
0 0 0 0 0 0 0 0 0 
0 0 0 0 0 0 0 0 0 
0 0 0 0 0 0 0 0 0 
0 0 0 0 0 0 0 0 0 
0 0 0 0 0 0 0 0 0 
-4.62351e-05 0.000460392 0.000466467 0.000242026 4.17258e-05 0.000141633 -8.66523e-07 0 0 
0 0 0 0 0 0 0 0 0 
0 0 0 0 0 0 0 0 0 
0 0 1.53064e-05 -1.65507e-05 0 0 -1.26129e-05 0.000473951 0.000292057 
1.19183e-05 0.00013275 0.000284153 0.000394991 0.000469634 0.000522681 0.000512284 0.000511887 0.000214211 
0.000287399 0.000393997 0.000328949 0.000280676 0.00012223 0.00016621 0.000210829 0.000187462 0.000162421 
3.54262e-05 6.91794e-05 5.9935e-05 9.53747e-05 0.000118048 -7.50862e-07 9.74211e-06 2.84058e-05 2.20969e-05 
5.14575e-06 0 0 -5.83814e-07 0 0 0 0 0 
0 0 0 0 0 0 0 0 0 
0 0 0 0 0 0 0 0 0 
0 0 0 0 0 0 0 0 0 
0 0 0 0 0 0 0 0 0 
0 0 0 0 0 0 0 0 0 
0 0 0 0 0 0 0.000151604 0 0 
0 0 0 0 0 0 0 0 1.27674e-05 
0 0 0 0 0 0 -7.09381e-06 0 0 
0 0 0.000294989 0 0 0 0 0.000542804 0 
0 0 0 0 0 0 0 0 0.00030577 
0 0 0 0 0 0 0 0 0 
-8.32755e-06 -7.36395e-06 -2.67485e-05 0 0 0 0 0 0 
0 0.000108044 0 0.000652677 0 0 0 0 0 
0 0 0 0 -9.80438e-06 0 0 0 0 
0 0 0 0 0 0 0 0 0 
0 0 0 0 0 0 0 0 0.000248727 
0.000154747 0 0 0 0 0 5.34242e-05 0 0 
0 0 0 0 -1.76308e-05 6.59146e-05 0 8.06861e-06 0 
0 0 0 0 0 -9.8471e-05 0.000514311 0 0 
0 0 0.00173097 0 0 0 0 0 0 
0 0 0 0.000104239 0 0 0 0 0 
0 0.00146006 0 0.00025901 0 0 0.000430759 0 0 
0 0 0 0 -2.04474e-07 0 -4.63591e-06 0 0 
0 0 0 0 0 0 0 0 0 
0 0 0 0 0 0 0 0 0 
0 0 0 0.000309984 0 0 0 -5.2103e-06 0.000240873 
0 0 0 0 0 0 0 0 0 
0 0 0 0 0 0 0 0 0 
2.18251e-06 0 0.00318014 0.00163676 0.00241769 0 0 0 0 
0 0 0 0 0 0 0 0 0 
0 0 0 0 0 0 0 0 0 
0 0 0 0 0.000599253 -9.25428e-05 0 0.000667904 0 
0 0 0 0 0 0 0 0 0 
0 0 0 0 0 0 0 0 0 
0 0 0 0 0 0 0 0 0 
0 0.00135551 0.00204614 0.00163561 0.000522903 0.000878952 0.00102532 0.000120909 0.000315982 
0.000454876 0.000146075 -3.99516e-06 0 2.26458e-06 8.11362e-05 3.55217e-05 5.50225e-05 0.000444881 
0.000223361 0.000228686 0.000288566 0.000400972 0.000423863 0.000296818 0.000246039 0.00014705 0.000206918 
0.000168662 6.99193e-05 0.000121109 8.55642e-05 9.92888e-07 2.22614e-05 2.44592e-05 1.39464e-05 -8.27702e-06 
-8.75722e-07 0 0 0 0 0 0 0 0 
0 0 0 0 0 0 0 0 0 
0 0 0 0 0 0 0 0 0 
0 0 0 0 0 0 0 0 0 
0 0 0 0 0 0 0 0 0 
0 0 0 0 0 0 0 0 0 
0 0 0 0 0 0 0 0 0 
0 0 0 0 0 0 0 0 0 
0 0 0 0 0 0 0 0 0 
0 0 0 0 0 0 0 0 0 
0 0 0 0 0 0 0 0 0 
0 0 0 0 0 0 0 0 0 
0 0 0 0 0 0 0 0 0 
0 0 -7.66777e-07 0 0 0 0 0 0 
0 0 0 0 0 0 0 0 0 
0 0 0 0 0 0 0 0 0 
0 0 0 0 0 0 0 0 0 
0 0 0 0 0 0 0 0 0 
0 0 0 0 0 0 0 0 0 
0 3.4324e-05 -4.24026e-06 3.78774e-05 0.00010771 8.26376e-06 2.08319e-05 0.000138028 0.000311573 
0.00025767 0.000345583 0.000318655 0.000481359 0 0 0 0 0 
0 0 0 0 0 0 0 0 0 
0 0 0 0 0 0 0 0 0 
0 0 0 0 0 0 0 0 0 
0 0 0 0 0 0 0 0 0 
0 0 0 0 0 0 0 0 0 
0 0 0 0 0 0 0 0 0 
0 0 0 0 0 0 0 0 0 
0 0 0 0 0 0 0 0 0 
0 0 0 0 0 0 0 0 0 
0 0 0 0 0 0 0 0 0 
0 0 0 0 0 0 0 0 0 
0 0 0 0 0 0 0 0 0 
-5.49763e-06 2.83119e-05 1.76877e-06 0 7.06109e-05 3.85429e-05 3.97024e-07 0.000123114 0.000104415 
0.000125789 0 0 0 0 0 -1.18741e-05 0 0 
0 0 0 0 0 0 0 0 0 
0 0 0 0 0 0 0 0 0 
0 0 0 0 0 0 0 0 0 
0 0 0 0 0 0 0 0 0 
0 0 0 0 0 0 0 0 0 
0 0 0 0 0 0 0 0 0 
0 0 0 0 -3.07783e-06 1.86491e-05 0 0 4.60065e-05 
-1.08284e-05 0 0 0 0 0 0 0 0 
0 0 0 0 0 0 0 0 0 
0 0 0 0 0 0 0 0 0 
0 0 0 0 0 0 0 0 0 
0 0 0 0 0 0.000462853 0.000404442 0.000572663 0.000278512 
0.000233729 0.000303845 0.000385027 0.000150346 0.000154908 0 0 0 0 
0 0 0 0 0 0 0 0 0 
0 0 0 0 0 0 0 0 0 
0 0 0 0 0 0 0 0.00010288 -3.00784e-05 
0.00014237 0.000225897 4.13359e-06 0.00069618 0.000538937 0.00100898 0.00107666 0 0 
0 0 0 0 0 0 0 0 0 
0 0 0 0 0 0 0 0 0 
0 0 0 0 0 0 0 0 0 
0 0 0 0 0 0 0 0 0 
0 0 0 0 0 0 0 0 0 
0 0 0 0 0 0 0 0 0 
0 0 0 0 0 0 0 0.000264019 0.0001868 
0.000305686 0.000256511 0.000364747 0 0 0 0 0 0 
0 0 0 0 0 0 0 0 0 
0 0 0 0 0 0 0 0 0 
0 0 0 0 0 0 0 0 0 
0 0 0 0 0 0 0 0 0 
0 0 0 0 0 -2.942e-05 0.000455769 0.00319062 0.00395856 
0.00323175 0.00259032 0.00242967 0 0 0 0 0 0 
0 0 0 0 0 0 0 0 0 
0 0 -3.61337e-05 0 0.000127124 0.0010215 0.000132782 0.00179502 0 
0 0 0 0 0 0 0 -1.82868e-05 0 
0.00123025 0.000318208 0 0 0 0 0 0 0 
0 0 0 0 0 0 0 0 0 
0 0 0 0 0 0 0 0 0 
0 0 0 0 0 0 0 0 0 
0 0 0 0 0 0 0 0 0 
0 0 0 0 0 0 0 0 0 
0 0 0 0 0 0 0 0 0 
0 0 0 0 0 0 0 0 0 
0 0 0 0 0 0 0 0 0 
0 0 0 0 0 0 0 0 0 
0 0 0 0 0 0 0 0 0 
0 0 0 0 0 0 0 0 0 
0 0 0 0 0 0 0 0 0 
0 0 0 0 0 0 0 0 0 
0 0 0 0 0 0 0 0 0 
0 0 0 0 0 0 0 0 0 
0 0 0 0 0 0 -2.15653e-06 0 0 
0 0 0 0 0 0 6.32747e-05 0.000159635 0 
0 0 0 0 0 0 0 0 0 
0 0 0 0 0 0 0 0 -7.91694e-06 
0 -7.44111e-06 -1.1017e-05 -1.43033e-05 0 0 0 0 0 
0 0 0 0 0 0 0 0 0 
0 0 0 0 0 0 0 -1.83078e-06 -1.22941e-05 
0 0 0 0 0 0 0 0 4.74774e-05 
5.5012e-05 5.86795e-05 1.44103e-05 1.11407e-05 0 0 0 0 0 
0 0 0 0 0 0 0 0 0 
0 0 0 0 0 0 0 0 0 
0 0 0.000629456 0.00114679 0.000945306 0.00133041 0.000973113 0 0 
0 0 0 0 0 0 0 0 0 
0 0 0 0 0 0 0 0 0 
0 0 0 0 0 0 0 0 0 
0 0 0 0 0 0 0 0.00132369 0.00169319 
0.00157589 7.62515e-05 9.82842e-05 0.000102927 0 0 0 0 0 
0 0 0 0 0 0 0 0 0.00014788 
0.000146001 8.57011e-05 0.000174387 0 0 0 0 0 0 
0 0 0 0 0 0 1.13843e-05 -4.53502e-06 0 
0 0 0 0 0 0 0 0 0 
0 0 0 0 0 0 0 0 0 
0.000123841 3.76455e-05 0.00023128 0.000121446 0.000310077 -9.64867e-06 -2.31339e-05 7.03941e-05 -5.35298e-06 
0 0 0 0 0 0 0 0 0 
0 0.000677632 0.000597658 0 0 0 0 0 0 
0 0 0 0 0 0 0 0 0 
0 0 0 0 0 0 0 0 0 
0 0 0 0 0 0 0 0 0 
0 0 0 0 0 0 0 0 0 
0 0 0 0 0 0 0 0 0 
0 0 0 0 0 0 0.000154353 0 0 
0 0 0 0 0 0 0 0 0 
0 0 0 0 0 0 0 0 0 
0 0 0 0 0.00030844 0.000373104 0.000270613 0 0 
0 0 0.000123362 0 0 0 0 0 0 
0 0 0 0 0 0 0 0 0 
0.000380634 0.000374473 0.000395049 0 0 0 0 0 0 
0 0 0 0 0 0 0 0 0 
0 0 0 0 0 0 0 0 0 
0 0 0 0.000307423 0 0 0 0 0 
0 0 0 0 0 0 0 0 0 
0 0 0 0 0 0 0.000644077 0.00094869 0 
0 0 0 0 0 0.000314272 0.000447489 0.000392091 0.000246959 
0 0 0 0 0 0 0 0 0.000377235 
0.000372868 0.000283247 0 0 0 0 0 0 0 
0 0 0 0 0 0 0 0 0 
0 0 0 0 0 0 0 0 0 
0 0.000496283 0.000444004 0 0 0 0 0 0 
0 0 0 0.000173246 0.00010966 0 0 0 0 
0 0 0 0 0 0 0.000226327 0 0 
0 0.000577969 0.000546797 0.000428596 0.000373127 0.000293383 0 0 0.000180908 
5.63243e-05 0 0 0 0 0 0 0 0 
0 0 0 0 0 0 0 0 0 
0 0 0 0 0 0 0.00149032 0.00198576 0 
0 0 0 0 0 0 0 0 0 
0 0 0 0 0 0 0 0 0 
0 0 0 0 0 0 0 0 0 
0 0 0 0 0 0 0 0 0 
0 0 0 0 0 0 0 0 0 
0 0 0 0 0 0 0 0 0 
0 0 0 0 0 0 4.66869e-05 -6.38242e-06 -8.43019e-06 
0 0 0.000570025 0 0 0 0 0 0 
0 0 0 0 0 0 0 0 0 
0 0 0 0 0 0 0 0 0 
0 0 0 0 0.00194432 0.00240051 0.00259621 0 0 
0 0 0 0 0 0 0 0 0 
0 0 0 0 0 0 0 0 0 
0 0.000316408 0 0 0 0 0 0 0 
0 0 0 0 0 0 0 0 0 
0 0 0 0 0 0 0 0 0 
0 0 0 0.000256902 0.000181182 0.000188233 0 0 0 
0 0 0 0 0 0 0 0.000342137 0.000227348 
0.000355582 0 0 0 0 0 0 0 0 
0 0 0 0 0.000433208 0 0 0 0 
0 0 0 0 0 2.03112e-05 0 0 0 
0 0 0 0 0 0 0 0 0 
0.000450044 0.000435229 0.000436257 0.000254371 0 0.000255558 0 0 0 
0 0 0 0 0 0.000614709 0.000450471 0 0 
0 0 0 0 0 0 0 0 0 
0 0 0 0 0 0 0 0 0 
0 0 0 0 0 0 0 0 0 
0 0 0 0 0 0 0 0 0 
0 0 0 0 0 0 0 0 0 
0 -1.35727e-05 8.23004e-05 5.22601e-05 5.7017e-05 0 0 0 0 
0 0 0.000337712 0.000109357 0.000273797 0 0 0 0 
0 0 0 0 0 0 0 0 0 
0 0 0.000132563 0 0 0 0 0 0 
0 0 0 0 0 0 0 0 0 
0 0 0 0 0 0 0 -7.23259e-06 0 
0 0 0 0 0 0 0 0 0 
0 0 0 0 0 0 0 0 0 
0 0 0 0 0 0 0 0 0 
0 0 -3.34929e-06 0 0 0 0 0 0 
0 0 0 0 0 0 0 0 0 
0 0 -1.1e-05 0 0 0 0 0 0 
-1.51904e-05 0 0 0.00174298 0 0 0 0 0 
0 0 0 0 0 0 0 0 0 
0.00273636 0 0 0 0 0 0 0 0 
0 0 0 0 0 0 0 0 0 
0.000270288 4.26473e-05 -6.81431e-06 0 0 0 0 0 0 
0 0 0 0 0 0 0 0 0 
0 0 0 4.24104e-06 0 0 0.000354364 0.000103317 0 
0 0 0 0 0 0 0 0 0 
0 0 0 0 8.51663e-05 5.99246e-05 0.000183072 0.000126552 2.60102e-05 
0 0 0 0 0 0 -2.99156e-06 2.56431e-05 8.36982e-06 
1.22874e-05 6.82029e-06 2.96278e-05 0 2.37507e-07 0 0 0 0 
0 0 0 0 0 5.07567e-05 3.88669e-05 6.9652e-05 0 
0 0 0 0 0 0 0 0 0 
0 0 0 0 0 0 0 0 0 
0 0 0 0 0 0 0 0 0 
0 0 0.00037462 0 0 0 0 0 0 
0 0 0 0 0 0 0 0 0.000245791 
0.00025059 0.000241056 0.000168586 0 0 0 0 0 0 
0 0 0 0 6.73206e-05 -3.2282e-06 0 0 0 
0 0 0 0 0 -4.61844e-06 0 0 0 
0 0 0 0 0 0.000122313 0 0 0 
0 0 0 0 0 0 -2.45333e-05 2.76413e-05 0.000220285 
2.03608e-05 0 0 -2.29972e-06 1.02735e-05 0 0 0 0 
0 0 0 0.000352312 0.000238199 0.000354937 0.000124996 0.000160198 0.000210733 
0.000210272 0 0 0.000314204 0.000202577 0.000185241 0 2.21856e-06 6.97533e-05 
0 0 0.000260187 0 0 0 0 0 0 
0 0 0 0 0 0.00174975 0.00110665 0.000988921 0 
0 0 0 0 0 0 0.000142249 7.75791e-05 0 
0 2.24205e-05 0 1.08259e-05 0 0 0 0 0 
0.00244936 0.00243591 0 0 0 0.000126866 0 0 0 
0 0 0 0 0.00072375 9.64062e-06 -2.06123e-06 0 0 
0 0 7.4173e-05 6.70866e-05 0 0 0 0 0.00109234 
0 0 2.18123e-06 -2.0828e-06 0 0 0 0 0 
0 0 0.000100073 0 0 0.000288859 0 0 0 
0 0 0 0 0.000167379 0 0 0 0 
0 0 0 0 0 0 0 0 0 
0 0 0 0.00341991 0 0 -6.14141e-07 0 0 
0 0 0 0 0 0 0 0 0 
0 0 0 0 0 0 0 0 
Major%20Principal%20Stress 1 3545 double
96458505.411 29607859.609 27846346.197 100641010.41 49954573.498 50058685.751 -26960.55156 49963533.771 50055002.206 
-1034357.9916 101026153.66 108033433.36 111943730.91 106225687.9 95670757.715 99477467.14 110502597.84 111245941.33 
69605137.69 24719122.238 120769454.14 115264366.57 107692374.81 100187442.32 112128698.38 117226635.68 110373864.16 
104710589.51 66606366.462 99559565.369 40829558.363 74086428.916 101786625.19 99085074.019 99846853.791 99908402.437 
100612838.47 100738528.39 98292463.101 92411976.105 85503237.634 78455301.58 71703684.11 65670868.977 60340597.629 
55957227.758 52615710.218 50355245.384 49628744.746 32342027.743 55636099.734 93789371.39 97909812.804 98914597.684 
100152833.2 100175110.64 100737498 99723435.943 95479738.563 89048408.49 81941137.54 74996931.44 68663002.22 
62903671.954 58038832.96 54100835.739 51394449.084 49835677.352 49804604.877 50065403.761 50027930.051 49994288.74 
50031055.9 50023668.575 49959800.908 49969245.768 49975960.164 50001660.37 50060802.856 50068911.926 50050360.305 
50043305.52 50021889.683 49975736.978 49946227.185 49912743.872 49950943.397 49972497.188 -136232.4032 164052.91575 
3179118.6068 10420524.487 17125553.426 23099124.895 28422429.897 33050439.468 37102400.629 40619001.095 43646300.505 
46157205.916 48174811.205 49555501.288 99077.428732 185851.70237 254501.6991 7003519.125 13840530.774 20304701.741 
25853143.014 30806719.191 35119001.497 38899702.289 42168902.43 44938814.118 47210509.928 48919403.62 49885405.726 
-30005.00135 -409253.46847 306101.9237 2910070.2552 48906169.027 108318307.27 101819488.25 -699160.13831 -131503.19115 
-95971.325601 -267970.75615 25557112.014 78235349.829 107980061.32 93075707.059 38890718.903 69215987.873 99508376.907 
101674951.06 100026062.12 99983152.222 101010269.32 101181332.64 98171159.794 92517194.526 85518339.955 78406214.421 
71634116.481 65560412.194 60219523.477 55819249.189 52479263.03 50163302.748 49563439.652 30497310.895 53275793.976 
87590234.415 100979532.37 100118293.72 99835072.284 100854173.75 100887707.31 99720725.512 95555793.991 89092593.945 
81903748.049 74957953.484 68562736.688 62800926.425 57885709.051 53951726.684 51198141.658 49730453.789 49783473.601 
50024512.801 50054205.502 50035725.282 50024219.944 50039220.818 50026123.942 49949769.921 49988914.026 49960503.635 
49973832.746 50052901.072 50051220.436 50084405.885 50036086.248 50024883.83 49975415.781 49950984.865 49904716.899 
49927404.338 49961485.092 114057.32111 40331.899403 3879019.1758 10907694.439 17394228.593 23320660.625 28592006.457 
33159306.821 37170320.523 40658412.108 43657302.443 46149701.371 48137400.188 49480023.481 -225793.41581 133406.65582 
532985.3045 7537710.3633 14183098.512 20624113.163 25993785.851 30976904.438 35189300.65 38978303.412 42197801.292 
44934909.11 47174504.757 48878109.217 49854300.121 -1194393.5672 -284435.38263 -1095115.0893 1676152.1805 46978900.672 
93163131.399 104866586.93 -1753620.3367 -1369713.0502 -830037.10381 -776607.7837 23326622.646 72464526.846 107140216.3 
96746001.41 -1194306.2016 50049603.312 69078852.121 109787597.03 114544510.21 109808436.32 106654982.19 108338877.56 
110074989.05 104569511.35 49126261.539 50067501.032 85754442.023 83730785.528 117668778.4 113745810.12 106818544.74 
118184165.88 120028466.41 109213512.21 108885982.55 118247817.55 119329324.78 111119010.36 107420028.18 110109339.16 
110053475.34 109004061.48 106122210.22 101864285.47 103676966.39 55636935.794 52155824.311 79034801.823 63652962.094 
42846891.23 48614171.947 53426794.751 94282825.591 24360309.633 81192920.872 42914140.558 60856121.11 29413246.053 
44983313.573 50816690.524 76765713.677 53577080.676 54503791.306 102094544.23 78542346.694 44367211.002 57618624.831 
51759932.977 49080906.217 64060172.917 98780847.708 69209022.81 35268376.063 52276033.262 47968143.828 98109452.473 
65553744.752 49921099.63 50998112.835 56047157.732 106006952 44547173.407 29065529.721 15504442.253 1214743.9 
45573465.337 16011415.795 58769523.914 44829766.36 88141960.478 93983965.079 75411632.567 46536377.901 54196326.26 
49020520.193 40014859.8 61387427.884 34285148.5 79395162.481 66219090.874 91869683.01 97526599.065 93453887.989 
50025718.078 56433214.452 48432580.933 19189584.316 38082424.519 67142247.988 50238876.016 101338266.69 75375067.373 
106502888.32 66313636.897 35956796.096 57241602.189 68880040.466 50316168.381 26677607.554 52126809.187 49849886.328 
50535355.111 94539223.988 84522887.198 34864710.505 50881187.159 49560333.034 50563691.683 54475429.562 50384081.82 
3392987.8027 46554623.96 69212990.628 64209613.745 28945185.002 35459517.43 45004989.294 41002233.131 47052732.132 
57603053.103 61456592.607 53810977.608 52048032.805 49098131.121 98845860.493 98641871.118 51219356.297 55592704.188 
41931997.231 51428684.231 58815099.027 100401719.27 58849359.065 45256616.737 47879190.875 52237375.762 49515147.422 
53895178.622 94979827.78 96586547.918 69017548.384 107711511.25 74723961.388 78123702.085 135949.1968 50170488.762 
56714247.418 49171742.837 109653920.79 97651551.296 88368546.44 64694879.575 46875998.048 53649579.561 105437809.86 
22359534.403 25576748.018 11661868.304 391869.18903 13130961.819 83104927.285 63242878.318 31687387.664 13775144.655 
100297357.32 59163738.649 50048735.892 50222656.831 55721805.656 35908520.572 44358734.881 104457066.04 51260320.469 
107460012.47 3305570.709 46743849.623 92608951.659 39280301.844 30327837.29 73485602.594 36691486.279 72853259.954 
40350270.956 86219785.067 51035228.455 96153123.237 20753959.023 60789607.506 -120498.63182 88330414.081 88687254.112 
51981381.201 49858726.027 50325585.208 73603041.58 51060965.07 47967572.738 72477186.214 71954027.504 65275245.415 
58421347.97 80962733.517 46335344.18 55431048.646 45217357.613 49559274.88 50364968.981 57649077.73 78877977.802 
98729367.388 25963954.641 31282291.79 28144460.491 100135635.39 100559016.24 42259174.279 39120146.79 5642802.5045 
91432505.439 73124517.614 62518110.039 56233371.243 50750204.824 62574961.873 52976174.243 48860080.376 51013663.714 
79552047.093 49525765.071 49897289.644 50089902.489 69563430.902 99912257.401 102178863.18 99740788.783 105721779.7 
70804694.159 77129506.109 50011856.115 50061365.253 49901368.059 49941718.598 49733263.291 49963963.473 -48465.5424 
376311.32634 668823.39365 102669223.04 99140299.454 99879837.675 107294911.11 108759076.69 108854354.1 110310338.15 
107713957.5 105706501.29 106436423.71 -21143.507812 106000.91283 89274.906498 3834064.4209 128114.93337 -91740.763489 
126191.7265 4630543.8908 10437992.595 6763264.1473 9012173.1095 17202509.903 14026526.586 15681205.359 22211694.951 
19245392.213 20851350.965 28272583.408 25663430.349 25875865.796 32169941.628 29851332.842 30356107.192 36312832.804 
34301514.073 33909003.946 39797944.01 38052441.509 37534773.478 42701343.366 41220429.107 40582786.791 45205048.14 
43945174.183 43202016.394 47993059.112 46987698.298 47207205.871 46260049.896 45474351.686 49203182.604 48488911.756 
48368555.714 49458870.05 375324.27419 362961.41403 -482892.0861 -53126.396404 324702.22595 -252819.95733 8428944.5613 
15490748.555 14722439.31 8345436.9921 25443236.917 28806124.414 47465937.917 38728057.102 59269794.591 91683269.238 
60582734.384 108165412.47 109565018.9 95592465.595 116287497.33 49941739.416 49921083.979 49745280.222 49862872.316 
49695703.784 49917122.942 49883814.366 49871129.262 50023331.398 49968674.382 49941541.961 50103297.639 50043600.312 
50090961.173 50123028.766 50129169.667 50317526.612 50093520.036 50049683.921 50312000.252 50254336.335 50215036.988 
50381478.897 50141324.865 50132189.508 50393219.184 50419797.624 50160620.359 50318513.199 71981784.538 86642558.293 
103522494.75 91574611.119 101266945.03 101153128.83 99657367.533 97307327.995 96303170.985 99638417.581 100233681.33 
96480124.359 99419940.427 99406016.682 100646656.57 100418291.21 100699953.76 100073698.55 100571364.05 100508465.27 
99612992.73 98730426.731 100065234.24 99980791.714 97306621.068 96842280.191 94730427.493 91869564.899 93903386.433 
87585146.589 84317665.106 83939511.51 88272030.229 87882876.561 82459128.732 79109550.806 81470434.854 75042323.111 
71858948.202 73312848.347 76500763.18 77050829.886 68905594.256 66075655.089 68970345.724 64052679.903 61474068.001 
64502972.7 59576816.96 57485265.643 60579104.436 55898415.677 54256120.312 57120651.769 52513968.64 51431221.487 
53191105.296 53508167.63 54855432.151 50765976.288 50309824.787 51579381.862 50366837.759 61473379.874 56167400.655 
60847544.586 59469413.401 64640207.638 60330150.834 56710480.382 53263575.226 54337691.868 50739985.417 50433685.294 
48246777.646 55508479.72 53180174.305 54307850.396 53054795.917 54999528.1 50931606.199 48905659.288 50357063.459 
49045854.723 50870456.295 52353853.864 51448322.808 50250277.577 52012377.315 74083664.468 74339318.913 79198483.158 
83596280.971 83436613.827 68108102.229 73149058.815 78309491.843 72492609.325 88791954.182 82740617.374 85829507.135 
91093085.597 82237355.878 62674396.12 59207221.53 60497487.537 58336556.625 61331341.277 66357968.496 69099802.364 
66081318.267 65165094.416 64110006.751 66547355.915 61661396.72 44542227.327 42290686.7 40635313.642 36604478.054 
39147889.597 48572432.883 46603252.251 44925161.675 48369770.719 37934259.606 41429994.612 43593450.12 49684496.801 
48832400.251 49332623.996 49079690.783 49708594.469 48130785.828 47909693.842 46891027.888 47710634.44 48263983.31 
48504037.181 48835076.692 49304490.37 47437464.728 53731074.446 52909761.722 52770173.758 52057346.544 52673800.01 
52820427.451 53514486.667 52750360.252 51987852.569 54757908.773 54422260.235 54620892.388 96713505.778 93560823.453 
94623959.4 95562073.803 96006978.819 96799369.425 99264503.779 92777273.491 92262990.507 96240201.642 93024173.636 
94279385.308 24098042.753 19000941.157 29159443.217 30165803.428 35347796.742 19205306.433 19747012.057 25029796.252 
30691131.518 13316358.163 84643911.835 83972334.703 80450286.477 75986074.731 77049429.953 78156268.49 81152666.199 
78160592.545 77099657.138 74263905.291 84938302.645 88553617.304 73070543.216 84690327.831 45616745.205 44587366.854 
43981707.666 42532138.174 43577471.69 40050371.286 41062328.742 41945889.533 44039979.053 43097190.278 40819738.178 
45789299.028 59711673.963 58688107.357 59926372.828 60606484.038 61666034.109 62812615.23 60896448.441 62690564.415 
63663986.825 59578515.665 24803506.112 29842555.757 24125551.484 25104272.684 19840619.444 34193560.683 33808331.08 
37455397.526 33069190.313 32414086.881 28795400.853 24356615.197 28740717.294 38187741.755 36672829.305 48580323.977 
40410781.667 43281501.978 48441041.451 39480434.49 33052758.593 54249129.438 51344420.627 55463118.776 50625381.909 
50437009.111 50496393.594 50238734.665 51024055.855 51661849.365 51406921.186 51593278.075 50960212.384 50773400.58 
50548198.465 71119667.102 75113735.769 72699827.404 74557049.284 70596642.243 82756224.709 78792691.526 80581372.647 
77799358.059 81584216.911 76188395.371 76625968.37 53778346.272 52101663.447 55217036.707 56352280.722 50173554.383 
51352432.249 54115348.818 55345092.047 54995027.546 48297582.007 57693583.272 52240607.756 55959245.442 57983501.76 
50456874.277 52466858.79 48345952.332 59609800.104 55883396.542 53923731.027 99848773.095 96293902.424 89067049.854 
94890222.558 99524938.063 100681856.18 101814383.17 100907334.96 98486874.903 101156144.43 87059683.922 85622187.231 
78176901.109 84792345.884 94829494.091 85200045.868 82754443.907 75919850.825 65017245.165 58697424.543 71397450.95 
71298339.889 46711692.989 45657690.344 45422376.984 44280268.135 40910334.659 43079550.355 42273619.33 43292427.633 
41133819.564 45688381.277 46072615.024 44591316.612 58266187.477 60202859.09 59373834.78 60128083.913 58266451.543 
57093266.303 56611445.163 55506338.103 56469882.961 56689801.13 55557628.196 51956429.81 52886590.696 53855817.395 
52690099.81 51887047.968 51249305.41 51165337.362 50996471.876 51172512.909 50768907.512 51368420.935 49489263.795 
49069418.384 49484831.01 49507242.823 49275298.383 48962166.655 49209586.218 48524894.648 47907494.534 48486488.505 
66292178.864 71600997.311 68465662.698 60187523.681 65166553.202 69387638.881 54207945.19 57698327.358 60954447.511 
63373686.488 100321784.54 98176285.062 93506379.857 93018790.57 97501234.864 100651340.65 93430222.251 88598378.195 
72277986.108 69254441.665 72172241.757 71864887.887 75096469.748 66826708.026 65523300.05 67892075.675 70471141.964 
66639192.208 64516238.733 33358272.062 35346991.713 37481582.876 37354081.941 35172932.152 31939980.23 32074993.757 
37753860.668 38157606.368 40627673.939 53119382.402 52257009.107 51600681.075 52958670.956 51660973.213 50829271.134 
51560414.722 53934747.729 50930835.669 48646671.359 49968461.123 49436030.007 48671090.004 47380097.187 46457504.311 
47253586.16 47948782.377 98781022.161 96119303.977 105016943.49 102631249.32 93331524.999 92911377.842 97347263.912 
98366903.447 101422982.03 63394525.599 67301468.279 68986881.519 61604907.002 64494826.071 67427456.516 66475363.289 
71047381.986 49998639.093 50083248.521 49981049.917 49538387.945 49838164.254 49735018.046 49842086.454 51521380.703 
50745706.852 50576442.768 50677547.203 51113756.737 51459761.535 51657144.698 54955089.222 56299616.871 57162308.71 
57461662.915 54863491.05 57451033.436 55855355.364 105736298.67 104535843.98 106022812.59 99138097.981 104464390.03 
103336090.39 101932216.93 103545142.87 111861706.8 45595003.714 41217040.429 40574267.803 47464953.38 40758494.346 
44823575.431 47788637.481 50653757.406 32351999.841 28884431.448 25766755.508 32985879.807 29581250.668 26209101.527 
14629687.7 8536177.851 9470499.4369 10486415.44 20442974.452 21941163.928 26928830.293 16352397.035 18232447.707 
13464810.404 7274234.7505 2545459.732 -422860.53503 -158747.89813 167808.33522 7015452.2434 4946019.6605 48251078.935 
40455976.7 40827309.139 51271723.61 45371844.176 40701328.653 9578444.9895 20477927.056 23856893.644 14166998.345 
25817519.516 6697766.4647 56621364.057 57531778.63 58563658.714 59752898.908 57510304.091 59062611.698 61383957.833 
62393625.226 42658963.999 42970451.547 44979871.912 45737971.53 47230865.141 47351218.674 84444263.355 86336958.096 
89857145.104 92294625.493 88398586.567 92151697.515 94687746.608 95307054.96 96900892.471 93650500.97 94212446.624 
74514397.418 71278680.005 77413592.209 81041487.332 77187442.781 79255276.881 47242178.152 54856576.142 54493392.721 
36907981.737 37505659.854 51204737.537 57475376.799 49114326.055 58653366.865 39492485.663 38020933.184 39557273.862 
61953290.925 63659195.919 64390131 62014655.883 34967897.739 39888043.263 35551747.87 29949590.773 31171790.666 
67924512.276 69602010.133 71270756.476 92978545.035 50540904.452 50101557.869 50350013.364 49932784.214 46829923.947 
47329692.733 62294146.589 66042722.118 60142677.131 73896360.086 72466351.121 30841768.457 49803885.32 52900132.242 
89912296.577 102211377.83 100736257 99770059.917 100721587.84 100354458.66 100021686 95365011.917 88920113.228 
81910301.331 75094593.167 68619744.757 62782885.64 57934401.91 54145675.919 51339302.235 49887640.025 28792855.352 
27928714.238 34624547.492 33615155.276 49911142.499 49905660.559 49675308.959 49659359.172 62195956.593 47065290.141 
39283403.516 46409375.853 98129023.495 80503831.553 60532480.439 71067807.187 76449401.185 100460590.82 101787153.6 
95925036.348 100105460.79 99972947.174 99701632.862 100053858.67 101951052.58 100797445.78 100893124.55 99852599.165 
99940850.927 100184024.98 99892407.56 99870135.131 100478818.91 100045986.16 99899213.857 100112375.98 100245711.53 
100538071.94 100364491.82 100590751.28 100743229.16 101068688.44 99147206.461 100644567.17 101108194.75 100693047.27 
100933968.22 93859466.368 97084132.143 99074668.578 98358935.164 97059161.43 87259025.876 90819049.755 93932647.302 
92514533.54 90893428.954 80268354.62 83654594.62 87244743.436 85501222.342 83642385.827 73261668.627 76674917.076 
80205146.384 78412178.347 76692296.432 67091007.618 70223170.739 73248627.99 71634304.82 70210289.553 61581633.503 
64191324.674 67009379.939 65589303.193 64125961.944 56934806.649 59070085.38 61533476.444 60252814.34 58992064.961 
53354336.03 54772477.181 56848579.602 55775050.3 54714209.638 50777020.759 51971040.066 53307904.653 52530511.961 
51899420.965 49740349.702 49895901.633 50683942.717 50194508.067 49799115.559 49581928.385 49706302.18 55569030.581 
52124905.416 79114585.165 63661479.42 42856818.627 48571330.261 53407248.87 92817481.579 24239991.02 80962613.107 
42878084.258 60824613.318 29363519.421 44522728.265 50800641.787 76698599.392 53434111.953 54301740.579 98826072.338 
76631459.74 44341450.804 57580127.256 51742961.706 49034820.329 63659959.083 97585516.275 69062727.259 35275891.137 
52281900.305 47932281.785 99788042.169 65518491.039 49856915.59 51004737.456 55990632.45 100460784.07 44394992.357 
29137579.186 15587824.942 1330214.1387 45362878.52 15583431.461 58674322.32 44773882.749 87911163.446 96494863.883 
75494902.719 46530965.239 54111116.728 47533405.291 40081563.632 61241449.841 34153665.439 79143422.2 66062022.105 
87817102.553 95898512.72 80791111.148 49971747.251 56395111.86 48388370.873 19242130.733 38089465.704 66926189.018 
50193200.533 100378266.11 75354263.711 104368658.95 66272692.528 36003930.903 57178071.053 68706371.934 50278210.166 
25771732.805 52044168.093 49818134.057 50522836.071 94778174.866 84457806.708 34512189.889 50843555.495 49503309.468 
50554469.963 54472877.183 50405986.656 3687109.7929 46494587.383 69095214.954 64092931.244 29034809.825 35461823.787 
44986576.218 41013258.624 46994805.864 57414520.366 61356085.398 53756707.191 52028963.396 49065415.567 100138561.52 
97549739.421 50604977.388 55474373.887 41960787.49 50931476.151 58717315.126 99697122.276 58852154.077 44976754.489 
47828286.68 52218317.148 49520549.503 53856850.099 87401296.703 91982985.954 68920667.58 103702885.34 74610236.389 
77542945.164 27981.223334 50142269.578 56526198.146 49226379.757 81558461.633 98948554.417 87788795.938 64569425.459 
46893938.422 53605673.054 111454381.17 22539155.453 25388886.723 12108894.236 295494.89991 12929705.275 83242492.609 
63149963.21 31839202.8 13759145.827 94283136.79 59168495.762 49984927.345 50228188.373 55600277.885 35793662.414 
44352622.797 112475560.61 51235786.639 103996817.17 1978165.5007 46772855.62 96374794.05 39317409.601 30341856.904 
73452158.902 36569499.576 72588072.202 40380547.165 85356619.155 50895584.787 94925523.748 20865414.143 60726110.389 
61535.333368 88138046.429 88069484.572 51961920.343 49800794.123 50347868.62 67319013.891 50976849.485 47924262.885 
72340535.605 71844154.7 64061877.992 58344121.693 80907795.688 46370530.993 55335493.214 45202331.676 49541196.442 
50181485.731 57253420.614 78812910.999 101241833.72 23465845.465 30474092.905 28053447.866 95952174.122 99853746.063 
42284525.027 39198147.993 6082107.9465 91175577.13 73037233.226 62428650.928 56144769.374 50747681.19 62499352.338 
52514358.887 48791769.012 50871246.976 79549213.295 49476037.685 49855307.095 50108215.637 69350005.337 68403227.111 
101350533.1 73645695.465 105026676.9 103680456.56 109750533.15 50063320.074 50023834.961 49864611.004 49925397.381 
49946308.837 49681568.395 -25156.88352 236558.94362 145830.4903 460539.44259 292267.83996 -194945.37139 -67373.733891 
368678.89189 -188804.37439 13196270.977 6453175.0308 6918290.4817 14078784.944 24563390.395 46569343.717 27744476.552 
37307081.537 76710893.689 54690016.173 57432762.135 95592835.57 81305139.508 76210344.684 101448218.09 49881840.6 
49917221.182 49846701.615 49667961.042 49678447.017 49845580.683 49898366.883 49812832.029 49958900.495 50005733.429 
49929014.159 50034704.813 50069474.819 50058944.36 50125811.803 50117101.484 50278043.758 50062643.647 50099791.029 
50319799.811 50226387.329 50263316.321 50353335.866 50130703.762 50139666.649 50395822.581 50166984.242 50440963.697 
50308057.783 110726446.7 112255789.13 102958029.14 104945322.41 108071053.89 109751136.01 102167718.12 106781321.21 
104571530.87 102335198.58 81699085.619 69076569.936 100479027.39 98688808.462 86922015.288 100260101.87 101858876.15 
100226005.2 97923263.687 99837716.244 101166413.34 102209754.53 99268288.467 99516198.771 99705634.688 100023185.11 
99738452.098 100205417.62 100059859.92 100360436.34 97932899.159 98854614.245 99145128.513 98358354.596 95752848.039 
96205336.801 91891209.324 94595076.294 93276296.771 84316229.543 87669566.986 88298560.837 83989326.404 87805693.399 
79118810.284 82484574.983 81455466.605 71740729.011 75004825.733 76429552.583 73282864.04 76993052.254 65960654.155 
68860461.812 68857213.674 61395041.404 63959210.045 64409464.889 57380498.492 59449139.666 60489511.149 54124413.135 
55775547.707 57010163.279 51329707.794 52418646.184 53371741.944 53097207.186 54751361.195 50219277.477 50588271.764 
51475526.152 50329403.69 377786.6605 10312.488416 197684.66769 745631.53736 4410409.1653 157689.46095 112558.05452 
5035305.7424 7267376.8824 10838768.527 9331844.5945 14260940.173 17384795.52 15922554.141 19529229.93 22446016.745 
21017961.935 25827827.585 28409574.046 26018666.632 29977645.011 32302365.442 30506721.596 34397421.038 36388231.351 
34014863.14 38129347.064 39846565.951 37593261.417 41244840.57 42726922.214 40621017.992 43944314.398 45194114.726 
43212879.248 46952303.056 47949952.919 46247085.77 47174236.336 45469248.256 48446043.204 49128247.96 48310922.764 
49396131.644 60673454.24 55985857.81 61281201.265 64515117.975 59411257.957 56562899.279 60180430.792 54166701.536 
53146547.449 50303426.002 50566592.246 48053643.089 54260834.782 53195873.902 55444899.834 54954198.179 52975470.098 
50339578.972 48843109.296 50933457.457 50740037.163 49017706.232 51362277.172 52357971.99 50248895.938 51974786.055 
79080035.918 74224344.592 74043551.49 83583196.588 83432137.217 72984435.148 67865219.944 72198756.372 78235771.975 
85937800.991 82612547.042 88518114.694 90556863.433 81687301.555 60378331.992 59115815.969 62613822.135 61259780.018 
58264157.295 66051142.848 68993993.899 66365682.183 65021669.731 66465539.011 63941378.289 61585100.843 40588514.552 
42285270.201 44463970.618 39146494.827 36577367.266 46504437.441 48509209.602 48375509.959 44915073.219 41425677.068 
37968040.788 43586049.69 49261977.275 48800238.912 49621019.616 49691907.982 49044962.306 47865736.893 48098691.66 
47727281.354 46859516.657 48785687.303 48468894.491 48200060.701 49289160.066 47390228.806 52746900.188 52847551.689 
53683814.655 52648729.593 52016697.357 52727378.242 53467667.737 52808979.867 51965958.233 54381686.083 54697146.493 
54580404.886 90329949.598 87790053.728 91948353.799 92753125.984 91097524.717 93000439.997 93602548.072 94553730.493 
93475867.186 94599227.101 95556871.764 98885237.857 28942233.536 18773231.054 23727145.25 35087531.469 29900335.158 
24767888.008 19573891.668 19092507.749 30534543.44 13276416.173 80241293.518 83605161.19 84379543.688 76864603.625 
75734132.37 78043201.497 80987959.902 78091615.066 74214000.534 76891847.717 87963199.523 84556419.677 72897003.377 
84489887.011 43970938.446 44590007.797 45618252.575 43612302.224 42537274.493 41967615.894 41074488.248 40072433.292 
43113329.393 44055236.37 40860732.271 45815402.567 59831721.341 58623726.923 59624441.832 61576931.712 60561797.024 
62629509.039 60811859.695 62651871.277 63588292.114 59521607.418 24207192.065 29811189.818 24810450.019 19872339.626 
25064305.623 33786860.404 34229212.756 32997174.911 37376174.078 28753324.331 32287866.127 24436832.647 35881425.049 
37751999.02 27310461.099 39300101.272 48257357.166 38932593.042 47868180.066 42872632.814 32579401.652 50845643.632 
53905787.78 54999897.575 50420735.515 50620097.124 50176927.149 50480833.835 51377716.604 51648310.523 51014370.796 
50916864.19 51498929.408 50778509.544 50519727.901 72629445.811 75046676.367 71107675.705 70459111.104 74500479.094 
80537584.481 78771928.055 82717748.566 81561621.439 77745388.05 76141482.35 76521888.94 55143147.55 52079672.433 
53786497.858 56284500.436 50103772.406 54074202.893 51321739.762 54864742.658 55271152.586 48229755.627 57593105.128 
55897653.816 52146126.542 57847625.897 50407220.049 48289379.106 52309790.625 55799734.23 59563754.603 53851200.838 
93177109.627 95578552.676 93004487.323 86850790.762 99642035.535 100554150.73 98666660.022 99255846.587 98386375.977 
95410029.808 82776167.757 82503048.655 83343232.118 76989405.864 79264317.11 83714359.033 72049049.224 73693698.335 
63752650.135 70101804.436 57588613.579 70776473.966 45412310.385 45656635.597 46727785.793 44266207.486 42299386.831 
43094692.323 40911279.703 41199649.986 43309739.661 44576906.14 46076543.587 45662738.819 59296524.615 60076251.781 
58201001.629 58233667.143 60016527.239 56511891.285 57032874.233 56386229.964 55436967.651 56574004.59 55454338.608 
52829624.142 51972522.053 52683263.946 53789143.695 51142996.853 51253526.108 51884788.721 50994430.71 51125682.017 
51292054.973 50752090.806 49426020.562 49001425.999 49442514.846 49463657.887 49190186.49 49139753.385 48917270.477 
48499796.348 48427736.579 47882808.938 71368307.651 66143987.036 68234896.812 64906724.113 59884387.495 69274868.32 
57366261.086 53934229.894 60677404.962 63023315.011 96266798.695 98772442.206 91683317.373 92475767.692 99643773.865 
96558329.032 93042110.039 88195779.74 72104922.679 69188195.272 72226143.312 75076563.122 71745383.075 67817857.868 
65424658.957 66747662.137 70388523.19 66602122.122 64440795.997 35367539.77 33437349.107 37363453.264 37549688.702 
32169259.461 32040535.596 35282687.209 37813642.319 38193501.218 40657003.836 52212022.405 53098114.393 51561327.482 
51617210.817 52915067.328 51537633.101 50775728.717 53881401.149 50905306.125 49335448.512 49952216.188 48655646.231 
48662133.636 46436398.737 47391166.948 47196889.619 47931783.431 103031465.2 96438517.759 99404113.994 101838433.75 
98905284.674 97282678.566 98710381.373 98987741.192 98931996.456 67173056.402 63314649.899 68976740.655 61417585.207 
64434615.699 66265647.181 67345810.579 70914196.642 50047494.608 49943863.259 49937392.545 49788818.361 49479691.972 
49691829.563 49794358.101 50773407.468 51525828.839 50584856.527 50690356.801 51118465.944 51456580.466 51635041.274 
56274043.585 54885510.596 57392426.311 57108153.995 54825363.195 55766637.291 57416249.497 87925120.364 83840722.383 
85444224.184 96461739.085 86882682.08 98277301.724 101112690.12 104072396.26 113259423.3 41171401.337 45577484.18 
40444583.729 47317594.905 44721441.076 40658823.978 47720553.555 50562072.036 28954889.746 32323847.239 25937616.216 
29682894.208 32998825.103 26318633.009 9518185.5245 8610597.4591 14693534.783 10811979.472 20415277.238 26798652.89 
21792791.589 13555519.644 18378155.476 16449577.189 2703620.5668 7240734.9503 69404.242595 407003.51008 220883.53375 
4896496.2189 7367095.3266 40173643.763 47947457.764 40591054.254 50977064.99 45152065.046 40494573.803 19230290.401 
8858613.8238 23256015.409 25189570.685 13996717.002 6504762.5494 57455413.493 56589530.082 59691829.187 58490488.257 
57403322.622 61344209.142 58962799.006 62376709.468 42936426.35 42627131.364 44978688.815 47200804.386 45664834.363 
47330956.57 86208122.055 84339996.971 89654710.101 91454957.815 88047927.199 91384656.456 98072766.633 93307087.989 
99646996.945 96173659.634 95961660.417 71202819.209 74529653.931 77457624.832 79252209.571 77141080.297 80993291.352 
47192962.952 54443763.494 54804827.804 36767996.018 35348188.893 50246648.221 48183018.812 56122128.212 58041672.917 
38089289.854 39570209.584 39609406.363 63614064.929 61858136.422 61956780.208 64318748.609 39593010.214 34836677.719 
35442150.075 29818515.066 31045475.849 67736368.295 69567134.162 71107499.669 91737712.968 50081202.727 50460737.059 
49945691.573 50314625.638 46770822.744 47368990.403 61915265.7 65473015.588 59766683.326 73789249.17 72377311.189 
519800.99335 24914801.329 -308521.89525 -524434.04542 -868255.16039 70367996.344 102827013.81 100013000.2 98619851.688 
97714826.084 104705100.15 103904362.98 -560493.19893 -1057508.5968 -1278859.6593 -1815514.6768 -700227.31493 -946167.61545 
-828669.8011 -152140.46321 -995543.70061 -1143965.7341 -760002.81881 -457707.9867 1085217.1588 12186421.398 36959716.738 
2531245.4949 60305790.639 82449851.002 48525707.125 101633794.15 103567338.44 89178574.555 99515363.129 -689466.3446 
119774.63736 -979747.08344 983721.30126 326341.40498 -748539.5617 37831810.929 12620629.606 87229084.177 60158592.307 
100417043.97 104624705.13 50011611.369 50079410.407 50040069.164 50010644.609 49985636.058 49988879.35 49950210.758 
49988266.277 49981412.887 49918006.674 49971652.377 49972337.409 50012980.241 50018603.758 50016704.877 50042032.952 
50004868.705 50055249.246 50108738.644 50044303.86 50018451.412 50059569.679 50056839.298 50008708.948 50075216.794 
50029535.425 50008807.14 50034747.414 50006510.183 50033727.039 50006026.55 50004722.69 49992256.688 49975016.323 
50043318.057 50035491.913 49988201.225 50002432.843 49985325.007 49979641.269 50036458.885 50018630.516 49991924.99 
49955405.158 50004768.047 49962654.363 49953823.275 49974026.3 49959406.599 49990755.176 49994100.97 49940017.621 
49929269.694 49883902.382 49979620.455 49969501.33 49909944.634 50016113.39 49947841.995 222473.4138 136183.9094 
-1795.8822525 7043348.0162 13771804.003 20561108.11 25813364.01 30772252.832 35130206.53 38936349.654 42173314.605 
47196903.418 48908922.263 49895407.681 44919135.41 49982505.903 49986409.397 49737706.862 -154130.18737 237883.28205 
-415021.74848 49697423.26 -148677.99772 21813.334906 92037.031094 -337419.89775 263479.54545 170700.56181 1924943.1652 
56631.535982 -136969.55969 29903.654363 5053727.4546 9084617.6013 3627162.6573 2331631.6958 5418801.3928 12056910.298 
15515382.732 10808526.731 9342970.0399 12323685.315 18952644.61 21897617.379 17367558.807 15574502.18 19137905.615 
24429179.508 27328318.046 23270820.871 22051538.08 24496637.638 29562478.717 32109084.811 28524190.697 27411851.711 
29672240.223 34074578.158 36137706.669 33133349.057 32172470.748 34113806.597 38079218.485 39763310.268 37156106.297 
36148208.795 38127907.244 41440600.669 42899600.624 40641613.253 39795936.466 41460206.681 44358301.775 45538606.957 
43659505.526 42912811.397 44361108.853 46676702.724 47689716.513 46149203.233 46672402.331 45529201.72 48566013.254 
49204902.865 48164709.138 47659606.066 48561406.003 49508422.433 49157821.872 92491789.247 51099233.969 39813338.509 
54476413.24 53244504.884 43449340.181 34775863.027 43922878.373 56064009.458 93408678.026 96395417.775 36629365.747 
55602269.588 55968528.578 45894283.553 54960446.342 51490153.182 53073393.077 52273563.785 52723360.46 52709728.943 
53619258.886 53841306.152 53593980.294 42514703.607 42894578.892 43166002.184 43154886.526 42825872.952 88933192.639 
89315422.225 89999354.704 93555988.111 90174287.949 42272986.235 42856690.126 53948192.343 51057071.106 54239820.8 
51244692.9 50955543.436 37972615.834 40389225.25 40045205.126 40068025.249 37730270.654 57407604.2 54098511.367 
94285.899258 1038949.5678 13761.163933 90039.177022 -97196.347886 35468860.458 37658081.029 88687857.172 92710365.949 
10638.054792 176733.8919 7730.0651602 83953232.266 89119278.06 89695082.454 89082696.009 83151761.892 99729826.216 
100197710.9 99848970.957 98585477.011 99487483.295 753501.45892 3595382.365 54248037.395 54997477.92 55190624.309 
55866182.12 54949286.56 54191580.343 54939704.316 54905435.133 55798126.054 50101414.573 50081626.855 50068121.684 
50227532.23 50088217.68 50101850.942 50064490.475 50066030.162 50322242.496 50107883.144 50077796.337 50302301.63 
50214374.887 50065697.954 108476947.88 110886032.4 109923218.72 111041415.84 105416935.71 50054670.123 50106511.527 
50038595.138 50013449.684 49996270.5 49987631.226 50059812.637 50022323.943 50117232.198 50401345.054 28186506.38 
23040076.01 30754749.712 57624080.894 56287000.822 54934299.849 56186529.801 32240655.197 33347324.521 31122434.33 
49920467.918 49987021.247 49908808.257 49971415.381 49990448.009 49944068.008 49967760.594 78099474.274 76498405.42 
74684186.784 78056859.261 74924299.319 74953571.275 55281630.549 78936.714241 328084.95721 113731577.16 115231212.99 
103220522.59 99972478.738 100000675.63 100212600.36 31762130.664 33269667.345 31027264.343 50191701.284 50392977.445 
18401630.174 21903346.208 24360312.222 20820002.157 37815470.509 52638619.576 52074814.307 51973017.496 100004444.62 
99891841.205 100404814.64 100212451.52 87620060.535 85944426.791 85927601.628 54190203.164 50055371.536 50361960.73 
50043715.02 50337633.995 50327904.338 50568378.006 56553215.229 57462661.369 98827133.332 95970842.794 71209090.434 
73446532.074 71101366.696 75066536.008 50932835.102 51509809.566 50748927.747 50120473.209 49996914.826 89669252.593 
84487180.778 20374649.917 19710734.528 25410765.597 13762148.686 14740986.665 19871541.243 24156623.199 25143701.263 
97637871.275 94484454.083 96313195.46 96915746.881 100819117.32 87899785.608 92698661.941 98197191.231 97681922.575 
73259058.023 73452522.819 69594792.686 73074903.893 71132449.541 47202966.798 47513978.528 46749084.621 47487215.516 
47839869.096 109038426.35 104750407.74 82051890.18 76869255.202 74525950.728 59475292.956 60609956.618 58361290.762 
80987824.04 77187369.905 78853109.537 49969869.168 50305887.936 50750519.715 50407819.636 -306080.80368 173406.14027 
2721557.3365 -111325.11706 50207363.414 49983907.217 50212928.534 8419876.3372 26866962.192 -338139.67166 -153009.40246 
13536491.936 16365089.481 58431154.912 58740864.591 60658357.182 49935747.271 49816833.093 49842634.061 49990373.066 
49873271.949 49996104.419 49655251.861 49449715.864 49228740.248 49429196.967 52736881.752 52009088.666 23751936.384 
22327941.957 20969254.924 28961078.046 32008464.373 29116630.019 32321896.983 50004127.272 76146621.036 74510371.945 
46357210.74 44634310.338 43982407.334 45592843.028 74240127.909 76960673.133 99798286.499 77819317.437 49838911.536 
49526030.817 49207618.041 50233965.173 48256175.358 50436421.441 52410089.996 15565055.613 45635322.541 44585802.212 
45462349.376 44348262.866 44576218.374 62622094.639 60495875.637 27067047.179 23634374.811 22425765.999 26020349.065 
50432532.145 51565152.343 51019033.792 51572979.816 95211818.685 95084186.034 95867755.443 50510287.74 14257216.706 
73462182.212 71932257.171 99973306.851 59534516.455 58510843.116 58390034.108 57421780.668 48648971.027 49558147.385 
47951047.122 47214737.827 72927496.96 46879442.135 46864485.286 45485213.292 45478115.857 45475013.217 28097976.302 
102141693.95 101162333.25 102182849.17 50979928.795 59377696.45 63154878.392 60184084.168 12235260.537 12451529.656 
11891229.618 15820604.335 15840087.624 25870427.147 38116774.881 37168596.149 39010302.477 9627469.1057 62608550.477 
62437005.256 81553301.59 65346555.753 65296527.587 63930242.126 -17785.214459 49911225.032 49962747.07 50754566.186 
51242171.903 51032000.816 51472988.311 98807322.363 49880059.725 49711418.068 27096062.261 28996003.834 60126302.449 
58182366.382 67350364.982 64461859.036 1287681.122 -92749.503772 -174009.8024 359371.62975 20782452.412 28300164.06 
29487720.572 9240684.9344 32684616.143 25695940.026 32933046.779 52242582.953 103734287.32 111369632.01 15491679.025 
19454054.47 50198669.199 52747790.034 53414799.357 50244222.812 95193825.432 95658618.344 97060024.627 96713138.441 
70476113.636 68976232.433 72412192.77 70409920.6 67390429.745 68911368.008 70342644.586 39386865.531 101997127.98 
100817438.89 99582652.089 47011400.01 45488145.462 37130592.991 39162260.64 38961882.384 51615954.463 51663505.714 
29526938.839 49678263.872 49072036.799 49495006.081 53070068.165 52861499.995 51844786.597 52191065.278 51828692.127 
76717870.303 72605215.76 52079876.152 46749600.871 46523784.486 49952551.294 46496994.797 48533610.321 44530160.755 
46520005.689 97555070.429 99214886.452 55936521.783 53753738.091 52176477.03 54393213.723 64552324.967 74582549.72 
79202474.143 49178518.276 48820477.872 99936093.012 100620363.71 49866134.197 64470321.714 44666781.865 36401926.891 
41530335.704 49678971.782 49812345.226 49029557.66 47328309.147 45014504.688 99600839.735 45597326.751 42312576.903 
30488053.891 101208287.11 99018445.175 98981761.212 96571507.112 93799922.535 48875243.527 48811262.946 96570034.308 
96547525.5 80735587.775 76977363.994 2663522.297 7473152.6541 66025575.279 65051271.16 68754699.219 84043990.9 
81466499.162 44002727.896 41964366.09 70440311.552 72356376.719 73089689.898 66963457.273 60562429.452 61608478.512 
60827423.439 59845083.055 61303137.339 59298658.156 53508454.508 52966548.26 111470043.86 114870006.11 26027145.592 
29395750.421 32934822.485 33062549.996 36565836.463 33077318.601 53706824.485 50585476.533 50544745.651 69072044.027 
69159770.209 57080.55682 218797.65495 49995326.246 49657572.392 49282415.232 69423200.635 67855144.532 57187874.746 
55606.199706 64648041.603 58052690.986 70467969.799 84069642.944 79514747.19 49937220.066 71841053.578 49947355.728 
49402671.508 48647853.835 49196024.779 47365670.059 60828332.684 59639130.71 49802387.621 49879972.429 49502705.601 
46217269.689 45631022.373 35423635.333 33989976.636 60401285.179 59104353.711 51916586.635 52040952.115 51247850.971 
56250408.124 57107523.411 57083944.628 52858976.226 41010293.201 43134452.619 77746362.908 78262194.361 82885811.14 
83440181.371 47735186.936 47397983.995 62669082.065 63673593.072 61380873.544 99911323.022 97854863.769 96743237.815 
35356255.32 33352508.347 102956329.13 53843860.371 50604073.159 51365600.42 49455967.785 49448569.172 37567420.272 
50241192.244 51090621.306 51176971.42 49712700.879 49880992.085 55776775.863 47704371.879 48163302.069 50947981.326 
-132977.42258 18466.950104 53131780.19 54241417.866 47980090.91 46072239.268 44354528.742 44361587.742 75782442.492 
72716255.866 68362566.616 62632706.711 62682676.566 104673141.28 111164425.8 105783688.96 51072956.293 51938915.789 
29657596.832 26221492.022 50296783.764 80739640.181 50780540.628 48268447.24 36595019.596 52085679.121 52665198.604 
42815231.004 51497702.219 51004636.105 50148539.862 50418537.509 48108268.353 48802911.618 49031947.052 49044425.172 
49070201.395 99213179.459 50945685.942 50341677.66 48396926.162 48870488.569 55143945.73 36606869.303 36619830.751 
51134593.914 84410649.005 82732092.675 86229121.011 87988906.72 48483476.966 48014566.64 46481397.485 80327799.283 
76964010.967 45205173.272 45810039.502 35426767.115 75112539.859 71725077.404 55342257.769 54949793.88 54916031.183 
55718384.159 55210165.815 55764350.174 93445444.932 93847545.18 94515842.747 66346791.015 57890818.694 59588162.422 
47364366.138 47884351.118 41241662.758 65551827.303 67259931.105 78758937.605 76537544.974 99898876.776 99322829.742 
100478537.85 50071312.464 50023631.758 50027343.587 50631162.904 50410934.259 57568953.248 50636598.566 51070206.554 
75351520.093 78032939.318 56666870.239 55597280.069 103059910.4 49288379.654 49698714.067 50045746.691 44796948.248 
42925179.737 40657805.715 42691020.822 50685778.212 59180618.058 99262933.003 50940690.957 49821150.312 49916156.092 
49959708.602 54821450.752 54839436.499 54443836.091 54476258.225 55532248.099 49958052.278 49908713.304 49922411.615 
107873391.01 104987851.99 107989092.51 104968458.46 52096577.428 96496397.518 44997807.33 58699400.674 61332227.432 
61642924.356 58990756.759 39877271.374 41529866.916 39870486.114 102103284.33 102696032.4 63297778.792 50802836.872 
62391015.067 64521014.162 64621019.903 6445413.8869 54959136.402 53042213.598 53771422.488 71075516.858 66304116.99 
48097006.071 43210635.939 42693317.25 65501023.31 39610738.769 35494774.256 34184826.754 78141365.906 81015087.686 
64130158.078 77425350.243 83739376.122 37311460.679 37351036.219 41147111.001 44450036.801 41078120.029 53502664.693 
51297454.191 49700773.094 47826036.467 49643908.627 47201474.402 54228208.878 54163537.789 60740398.903 57995174.991 
64531556.025 50561871.616 47722834.384 38982871.136 15864027.986 19272657.507 79102042.213 40411362.596 41230775.401 
41982954.688 74331723.501 92138561.826 86592830.706 95163451.773 50785697.082 62520953.996 43016297.465 53149817.547 
54466617.229 51973649.18 94099070.549 92778671.407 92196188.34 61887250.75 6923794.7485 69266693.38 48053616.696 
50447936.142 50346319.094 50989693.242 51132854.281 40052093.942 29833962.289 34893746.127 49807465.441 -298346.50407 
-59360.769551 -50547.184807 95821865.829 50153206.366 61514541.514 72403475.921 60739948.134 51767786.012 57511182.348 
51130809.061 38175547.548 58663531.386 54101358.661 71864715.554 70355860.903 13285008.647 74273900.527 71400987.4 
66146286.521 68960103.172 67342816.829 50089262.67 54898335.359 56268504.357 54860117.597 87112227.064 44460297.798 
47889169.978 44481232.376 80530033.693 48326360.8 10666718.427 9051477.6447 8796850.867 83605554.16 88213539.684 
83481005.141 30502182.515 36191389.277 24363713.187 24092835.884 56035367.324 50310950.391 70978711.433 24870143.077 
45395344.482 51103875 50565501.394 45188983.447 491851.54593 59709799.209 19060699.498 52670413.411 52786134.065 
49482454.668 47806910.257 96702594.584 77118350.666 43207050.139 41951759.897 44027409.396 42847459.481 42856447.601 
31090890.444 20999142.385 17956477.293 56391676.241 54270273.139 208477.24802 74457855.419 69992967.773 78786283.592 
47303637.409 57489925.86 69501516.362 68518432.599 51016492.839 82410776.093 45238320.714 43135943.217 45210769.116 
77713704.694 72259151.386 69220873.988 108011161.84 60060886.928 75462636.727 40537276.561 61976698.206 66456564.397 
65465751.315 66767003.704 64052874.97 61233668.443 50510128.436 50152177.614 50203497.28 46808534.784 44258413.598 
109316321.99 77454087.358 29806967.204 24317339.527 18980531.157 24033801.016 28906603.157 29113826.985 37387208.923 
37531027.844 39310917.177 17818190.39 48581643.531 57051892.57 58849350.255 57388343.729 57409308.16 55774755.692 
103335761.17 100335389.15 94455267.893 92209496.576 92616366.047 13957967.556 25576915.468 23831949.302 53630860.003 
47945246.738 48201238.658 55827178.563 55256470.31 55213929.793 73969435.407 48312913.993 73828665.162 5131034.7498 
51338525.549 58270049.831 56532594.466 100437625.28 52143351.394 67914799.63 105189048.97 93516312.402 63624513.552 
58319464.802 66597041.876 49787646.809 49934678.47 49950906.544 55516333.776 19447900.155 79096865.668 37780397.74 
40613558.826 44712496.457 42004267.683 40422902.509 94031487.45 92112822.634 93914895.647 93961495.131 92495492.948 
66266725.762 50493739.598 57507104.011 44210320.951 44235316.976 43636194.486 93546332.45 98330218.634 93360246.057 
91321487.441 99962219.819 96367401.274 87794812.947 93786531.945 85649806.205 66134273.507 30117461.19 35141462.394 
72105294.932 56417339.658 55124314.865 56249672.376 55177236.098 95476541.643 92534428.114 93945196.014 80929936.742 
40919871.284 42040714.113 10627570.177 88130764.487 88309987.376 88223157.52 92292493.426 87923482.448 56908143.482 
30323995.31 24802968.006 64346453.364 48914192.87 49221341.639 83752745.596 84405715.552 57010480.553 4832013.3341 
63628543.002 63794121.485 79233010.066 57373257.084 57321403.051 50122808.273 50128842.069 2428438.8595 43107887.542 
43935139.033 43229566.778 95353093.44 81041209.068 64984091.771 90602900.994 9990836.2998 9845264.8872 11148493.827 
48368681.545 69107445.819 67857523.112 60759900.031 54119292.342 54142415.976 45089871.771 56570987.92 99455902.503 
99957665.799 100294621.17 100133199.01 19331746.607 37707520.87 36866560.225 20771767.052 46328167.204 46706941.532 
45417322.92 51526644.02 35827108.089 35326009.767 99839849.256 99282866.07 93106705.95 28755558.225 35272163.193 
36004162.129 84738391.408 84495823.374 40643704.022 78130920.037 84606280.974 79993027.386 53503450.801 41282258.346 
41287123.559 38275916.035 61299221.51 59478957.219 59821628.478 99342187.19 48484291.568 48497124.007 61231913.155 
12939771.516 48793086.227 51921604.346 63266497.791 49470764.512 5857195.7753 86056558.037 96194864.781 100772073.23 
89548043.846 9202355.4086 5916306.2952 95363662.071 99115858.152 50826163.898 71686517.42 88155441.703 86874124.933 
81993272.836 43055072.068 43074405.823 100638353.14 100342046.55 100739300.36 94669705.39 94354970.157 96143333.618 
98355031.459 43235538.425 40570001.049 108520087.54 104866255.31 106969845.65 2163010.4046 102469460.93 105120101.92 
52806293.773 46351675.559 91643803.915 53498638.305 54549779.842 52647233.115 52654659.899 51771621.952 54011332.025 
47986920.525 40370793.452 40526755.106 88273317.531 53523589.022 105847105.56 101948935.1 99968369.852 40679777.213 
85702610.289 49603494.336 47358426.973 36842125.105 48463378.044 47869899.166 102757130.65 103431753.28 44145898.011 
44150126.3 88811433.315 10575747.912 104751209.43 54734113.235 56869361.011 61974078.644 59383080.767 53097591.333 
109322278.82 104426858.56 33049523.698 49939202.935 82559851.667 97314833.113 56181477.928 61412642.459 35950979.7 
93308651.141 93310727.991 87847300.002 91262976.221 97696396.451 98647442.038 94925093.526 35936793.395 40048172.889 
42038088.338 32144462.661 94916775.978 92432124.174 39578348.345 50139119.217 6145408.2812 33535578.105 109340103.9 
52001838.121 48114.586384 98477771.544 97698954.317 88638115.164 33560514.835 35241498.832 42875011.527 89678488.48 
40852955.24 80936243.688 99008651.29 32366664.054 51695041.179 99947839.176 304798.80446 131644.9732 91473651.31 
56991085.597 4127627.5267 56437273.303 59905827.296 101734471.73 13438945.221 50573382.864 56662588.086 54303324.888 
41162211.923 56033765.438 56096120.861 52391891.038 39524981.687 93269400.383 55974459.147 56007070.742 47230686.291 
34803888.51 34676216.283 91866149.26 99297759.137 347140.24403 54310791.148 97174585.062 95580661.787 95539257.388 
54282853.639 54306204.547 38086838.685 49948430.328 49931548.474 54017075.305 54038269.632 94614298.956 51170988.025 
53025118.44 45218291.742 50811577.635 49755302.727 56774378.325 58634.222377 -388029.96365 40307570.358 
Intermediate%20Principal%20Stress 1 3545 double
836724.19177 61432.995885 2284395.3293 1479601.8886 28493.761509 21199516.965 -1808374.6311 164960.73933 21365400.942 
-1478908.486 2273190.3629 22911143.75 31008153.991 17844685.398 -3269913.5167 5769742.4802 29342284.863 26573010.697 
5981938.0084 259803.38946 32622047.168 30866123.585 22212958.971 6971405.7945 17304888.952 28363484.759 27083424.74 
15840296.745 1661626.8479 2608570.7075 949516.02418 2136191.3077 1418421.4159 349358.62486 304996.63015 -47309.663125 
1006444.0212 393447.8969 74488.835314 67228.302648 5350.0296141 10927.316561 26919.291641 -11405.015703 -15097.086552 
-4067.629013 -42772.415155 -19367.103165 28374.851208 -114304.08017 434266.12791 3238959.0345 -800454.6165 -908770.56504 
335369.75436 316139.00767 1224161.9777 157808.44596 122026.41339 88010.783658 19239.653069 5679.6436677 -10396.585881 
30382.839385 290.92141748 -26723.058672 -8020.0636322 -37991.707466 -12227.136873 20623102.96 18956798.847 16364526.548 
13012166.111 9326154.2846 5700492.4978 2536399.718 415999.09869 -19793.621514 21071208.989 19927655.881 17697244.832 
14772794.887 11179448.252 7501433.4007 3998008.5276 1403840.426 -20705.939636 -9610.829872 -8585878.79 -3870302.3071 
-34478.36514 475967.00339 5112002.1426 7993873.8785 9585962.4962 10409560.83 10848999.736 11212899.294 11714699.891 
12677804.054 14256488.924 16865307.014 -6035706.6215 -6293327.8429 -346457.142 95645.56496 3124142.128 6609214.5318 
8898549.1509 10044998.142 10699502.842 11037401.384 11463099.897 12144200.295 13392498.751 15520001.103 18984801.674 
-1012924.4315 -1661867.7697 -97496.89227 -427200.98848 377202.34112 915737.80716 2561005.0513 -2408619.8504 -2589299.3269 
-765609.06975 -1315843.414 -260378.80619 561861.30431 10201218.685 -4687814.4342 2779587.4592 1803520.3715 -49096.024565 
2979334.2529 151252.75382 59924.519911 1376569.7971 299348.3877 80700.161323 90176.306506 -514.21376292 5277.7502203 
4193.449988 -35000.787967 -11711.792606 -43050.221683 -25467.202408 -34561.424614 -1702.5655314 2269083.7378 2606904.7137 
867701.27808 1739789.1211 587810.74198 -66562.965367 1472505.2799 952121.82432 -41764.6537 157012.85395 64975.965737 
-11158.899797 -12693.955867 -34158.688967 -32228.05003 -69307.038467 -84557.098319 -84892.466541 -64125.338986 55200.772739 
138669.61955 20773898.11 19106916.681 16456880.661 13051181.205 9326096.3917 5628769.0687 2417516.5239 262894.20217 
-25218.128914 21226100.383 20049708.315 17839309.412 14835214.338 11205119.609 7460231.9944 3923499.4597 1255829.8543 
-95421.921369 52369.026075 -7444033.9355 -3154219.7484 13214.259833 60235.626508 4896143.6787 7822277.9709 9374890.1772 
10307795.242 10792180.551 11176988.143 11721397.877 12666939.015 14277100.271 17027084.848 -5469754.5591 -5467513.6941 
256454.9335 88944.93277 2744130.6604 6381479.1109 8678735.1899 9889489.5373 10606899.359 10983799.843 11447499.992 
12162096.921 13420898.302 15587699.614 19141299.988 -1698449.6541 -886602.02348 -1608164.7197 -796785.95804 2255131.1362 
4548520.964 6354884.2056 -2459886.4113 -2529480.0556 -1567808.3504 -1557212.4337 -11247.842597 4643431.6261 11580172.29 
-1206586.6511 -1276067.049 21389896.805 2726706.6408 13012640.203 29046730.808 28577971.477 17380145.785 11240342.61 
12132249.768 6695602.2573 1702085.6038 1206974.454 8044285.5522 3851916.6364 25502392.82 27809187.056 14035302.618 
26351338.476 32855512.933 28382013.378 26604977.318 34267705.485 33860466.406 28065016.605 18304882.44 23072264.125 
24919681.409 24791321.207 17755488.148 9943789.8893 12545233.394 30832.053537 2882819.3127 32169.150826 25524.381867 
49519.621911 9240530.0373 2694037.6055 -150257.99142 22828.418781 -14806.407606 6935761.5183 65640.631184 6215.8959795 
25290.407993 6917210.0198 18039.491066 -894.93880322 -15201.38335 2083968.1778 507599.3695 9956189.8251 437374.38877 
1296772.6268 14019496.035 -56483.511402 -94040.701005 -18103.045485 6777950.6079 4289501.7915 6498856.3486 -457895.74687 
24657.320433 10983400.406 4378050.5817 1573385.3217 12562778.523 -11256.781814 3848919.2062 26180.026924 -220412.27505 
-56023.678503 136342.19681 -6466.3640441 3311716.5654 47475.786716 497730.24582 42940.486245 11823525.343 556507.4815 
86956.54973 9921440.221 40465.290947 1269.4671652 -14043.587033 10141.144468 709804.65669 93345.581711 2708828.0774 
7415222.5571 1077546.0037 4241809.8289 -13960.61748 26289.825985 -22272.971719 9716629.6251 1681608.1524 30856.824466 
12716403.28 10052.889486 9948505.3887 13000.441174 -36651.781991 21503.169388 -141430.13443 4545001.7174 14228815.311 
2734535.7149 70875.823482 -21368.777888 -2631.4001682 4752494.941 16247272.261 578172.72759 956103.99647 6691756.3589 
15815.195598 -16524.648728 -19631.934534 -530.97193901 7644853.8832 2983568.5116 7867782.5525 5445826.9223 8540481.9674 
-28055.628714 -805.2307898 2757004.6522 2823909.0092 11292069.157 758165.66834 1237066.7663 -140128.66944 1501510.4101 
11061503.219 -27911.686215 9739.1808492 1008108.6852 482962.61391 -9528.7075197 13390209.725 408217.82007 2360962.6052 
2905892.0295 440130.41758 -522860.90585 61226.299996 7580184.3454 4877.8543563 -868.49417841 -1926281.456 8513051.6155 
27459.016669 6956157.3682 17035386.591 2241285.7237 10445.656366 -20519.748701 10262302.605 1648548.405 9668457.7608 
4643038.8083 -17116.529401 -3369.8635628 -7072496.563 -6189.5225177 -24928.028805 5209.4661683 9392999.4157 33275.770032 
1802092.2104 22681.926713 12828164.222 4608890.3555 99693.897465 68698.7132 11565466.478 14826691.276 5286941.1714 
16246392.89 136055.64242 839116.8918 453322.68182 8051950.7538 -202.68555473 -8165.9948676 -6956.493074 -40118.432188 
3241079.9036 -67004.119074 -12117.440076 -158107.12771 25472.499162 11437.085042 -5019161.539 118928.3152 -17031.519209 
3945209.2637 16213874.852 1386290.525 2582755.2238 6157470.7041 11729128.139 -16609.259544 17474.47864 -47806.920916 
650945.63016 3346.2163981 5961388.3631 772424.29359 4928664.8342 4761013.6817 -36135.389842 -33085.578486 -8909.9142943 
765795.67816 241439.49157 48805.12678 -4891.0106691 -539485.93245 1347441.9181 8641526.3785 10824454.102 -1671.9605591 
37228.320722 2016.0027204 -3452.6160879 -4059.5676266 5787177.6653 1595.5786283 2172.9665191 14983220.629 178767.75415 
-5882.4163897 9529536.3542 18428112.746 101597.05877 -40357.406067 644031.71694 4776063.1826 4137439.7892 13724822.738 
4258973.1255 3696770.5987 32396.825198 44790.876456 76243.644137 19741590.135 17646938.884 19540537.852 -7989467.3094 
-4661546.8219 -4439648.2757 7514919.4545 11260299.864 7832961.7353 17755801.565 23925105.325 17739220.501 25185321.269 
19821162.867 12658249.327 12514717.162 -4677011.7953 -7037281.5753 -6191976.893 -68193.693835 -14289.479291 -1464759.8082 
-1215338.679 96734.810907 -35542.61619 7998.1164674 122605.98373 3071460.1466 540655.18892 114588.14653 6787937.1096 
5249842.8555 2245467.7413 8890972.9197 8067517.6021 6285596.607 10048663.643 9589755.9264 8574516.0881 10520685.169 
10273519.012 9719335.3431 11038456.92 10870958.665 10419858.821 11408358.012 11185774.234 10943513.23 12105352.722 
11686828.183 11358088.302 13865451.818 13006304.357 12627997.671 12360389.018 11679149.44 15876223.402 14607090.233 
14190283.791 16668633.677 -2008449.3631 -2638665.8213 -5441375.6012 -1250437.8218 -31688.507497 -411075.06817 508242.7719 
799488.71606 94832.67173 44836.441204 -248052.17606 -43562.453161 372312.87905 255865.12312 1117854.1327 1594897.0779 
-348462.69508 9421168.6781 17377317.138 8774920.2714 24124773.933 17547964.734 18327523.582 16323751.284 18325434.22 
17251297.047 15250395.625 16458986.816 15312709.455 12957101.425 14524374.166 13587294.038 9649022.5824 11333113.999 
11189578.222 6343229.6453 8023438.4104 8182544.2079 3680934.0577 5159375.1999 5692762.7666 1764409.021 2778766.6282 
3619501.9482 545286.8065 990922.75 1983759.4565 947788.41117 167219.92854 314464.34204 1613054.9468 932676.80667 
3088964.3352 1812069.8553 347360.75604 490594.45864 254597.55259 -347115.1328 250994.7444 190878.87536 768884.74034 
-1996990.6637 606108.45941 802967.5605 1044491.9016 854866.10676 1220597.8652 301704.35301 1077440.4051 1045220.4385 
-8644.1453838 -141278.67827 438790.03173 223428.9974 461437.06935 222634.15245 -11359.84738 -33312.882063 157096.91511 
-33747.986491 -21103.015009 38544.923566 21979.509046 -25919.260753 1591.7868459 11787.669405 54994.211535 28066.364543 
20759.341052 -20137.446694 4162.7085286 -7924.0271829 43854.999551 23992.757284 -30662.079385 -841.7366748 53062.869724 
34049.045024 15779.949238 69747.272292 -3740.6416178 43655.463044 83652.273201 -1555.9867218 192302.91046 164206.7512 
480789.54907 248619.08943 305975.01118 103335.53407 77729.880185 260393.61093 102548.5627 62980.853444 12165.735355 
42689.130813 19949.315447 -25996.230348 -42448.893371 21163.036469 34187.20226 5841.4267319 6743.4711093 7347.4692312 
-27866.702637 1086764.3221 1876486.8447 1949655.7244 2889275.1945 1867692.3009 2686515.6094 3297257.2192 3549280.4723 
4532126.1949 3801385.2589 3731332.0241 3818335.4936 4791820.0652 1641928.4019 50502.664455 78962.622914 19225.382543 
-25743.244047 69243.965976 33078.159992 -11684.588478 -23404.485046 -80370.113977 -275813.63157 -45601.877077 -127673.21357 
23027.32805 -166405.1611 53743.546007 -25462.288792 18753.64692 64060.312294 13672.213157 -9472.0664406 -36278.367955 
-23302.534213 -23467.939591 30907.781756 -57973.546322 -7229.5859056 -41924.573845 -25372.546677 82489.647002 247506.64952 
1395492.7407 71220.39322 26650.327858 524783.27222 -3293.8153041 3122925.6203 1600404.8742 1987424.477 7200162.8897 
8097561.875 8346231.2196 9380509.2606 8460646.7003 7753770.1869 8900127.8925 9394572.2494 9751766.2648 10510718.272 
11480163.797 10290828.6 10413211.626 11031435.398 2843853.9752 3711049.7462 3595014.0955 4270350.5918 3313853.7309 
2248731.9553 2188515.4161 2803098.4161 3382069.781 2198805.4885 2070681.6061 1604558.8265 55541.603843 845965.21789 
-98837.165714 426174.73048 565926.4278 -930608.0525 1048993.9723 28641.433624 195880.20294 -123293.96464 -1203479.476 
1231016.1367 46251.37985 27038.836945 -7435.0537378 124226.0402 -24551.828834 -24019.865174 -41635.994325 -10186.087792 
53633.775416 678.98257865 21698.879129 110214.43528 -4619.6117757 -62327.232155 -27387.578561 26183.832574 -8240.783085 
-1323.3784623 -28408.582942 34211.468973 32645.465172 -22902.177978 -13349.852936 -72411.850042 6925515.8679 6430172.2526 
7430967.6601 7832613.81 8246858.0454 6806799.114 7475213.7914 6237134.8337 5954202.9806 5169211.8218 8371150.2029 
5450485.1322 354380.15592 621215.83044 309733.7119 138437.30288 -991.00390554 489.82223841 44886.941735 -35075.36402 
-1405.1428823 226833.46508 24517.888445 -19575.025984 29670.676021 22962.691974 -7229.6369711 -38430.402722 -10911.600145 
25220.994798 -33746.969768 -29346.947259 -18830.469291 12339.581491 -103900.98332 54897.577493 118544.13734 -38494.813703 
-73908.966697 12664.862056 69347.404164 -19228.295918 -20611.30599 -45223.380716 84897.670957 43255.00951 6865221.5206 
8298772.4604 7723905.0103 9139162.6575 6110484.9201 4918207.8076 5698786.8484 5351227.5035 6541856.793 6002458.9786 
7314034.7242 -31554.235768 -3111.3599641 14042.933298 5430.6777168 -37133.319179 25742.069914 -4276.7000504 1149.5809857 
-27423.685257 -30376.150065 -2788.1196218 -2862.74003 8653.8402947 75889.869062 -27251.008342 30933.904834 268980.54727 
1008703.0389 413202.70413 400221.27981 48227.167142 1714872.9105 12362.519298 -42543.556688 44299.807503 -9031.8678302 
-37783.200854 -3725.5821014 -51236.802041 41740.335276 -61277.025616 -29528.474662 -470904.37545 403541.28731 318125.64229 
82422.353685 1465746.5876 2195333.5957 2732857.9036 2405438.4983 190171.50258 2487820.8274 1007366.1578 134396.46463 
106034.0633 21258.745343 1729789.3596 574074.30051 3340724.7005 833353.64676 9749.2458496 -26614.365157 -26848.630599 
-215727.31491 11055809.524 10083510.441 10877624.053 10832933.343 10509169.914 10561560.46 9946184.7379 9317173.4925 
9310381.9468 9305529.418 8245492.5553 8956992.3743 245000.4165 93360.677633 211059.89802 222391.16494 551419.64973 
959904.84469 938955.36515 1179312.8117 558758.303 352605.33525 443255.50375 848266.92872 957713.94388 1106454.7041 
1536843.1251 2041102.1765 2847351.5981 2036597.3405 1304159.9731 1000842.3313 391468.40488 697861.66354 12769943.141 
12640984.649 14129869.124 15172259.637 15106802.51 14624433.793 15631559.89 12875916.722 12617505.696 13697721.558 
-26653.438628 -48653.504968 -72145.086935 -71114.227764 -33681.448491 -16082.5369 -19766.32538 -36937.597807 -3903.2775046 
-1089.8227091 686256.63387 167959.50011 211870.69932 91302.0892 -253993.44155 773485.18037 364298.00757 79193.59313 
5116.5987826 -15550.072348 -2918.169652 -22329.50504 48119.109911 -13524.959262 27035.899149 21159.758583 -32578.231679 
-3436.727114 34878.859944 8192519.9343 8566625.662 9062335.2217 7473411.7037 4883745.9273 5358680.8522 7209766.2151 
4997155.6451 6080499.5249 4345259.7976 3599872.7746 4450729.9175 5216836.5361 3501570.3423 4553076.0154 5262680.4097 
5027175.5338 2885475.0311 5962989.5516 6766131.4052 5841529.8912 5614050.4683 5587091.2034 7516090.2895 7181382.8468 
6283696.5534 5344845.4913 -374921.55587 -1601824.119 8044205.7519 6744963.404 -1570928.0669 -814810.126 1230855.1911 
-584869.9652 3843596.9425 23340.847828 -7560.0942422 7808.1770968 -10426.014784 37615.620233 -11938.472905 -5022.7487741 
-42734.587476 9703064.9417 10399758.094 11944167.976 11148918.726 12557146.257 10262395.495 9051494.2147 3606399.726 
3614474.4826 4443508.2333 5484426.7872 4861445.9034 4172897.0236 4609326.2921 2177411.5963 1392329.1005 1082874.525 
880358.84139 2204336.131 1009163.2725 1612650.96 14748350.757 13266085.094 11880757.702 1578302.2016 9239528.7045 
5518212.3133 6763444.1906 9851997.5913 17504943.832 -8312.6171926 459.28720279 -2683.1897271 -31410.281493 19829.294907 
-29825.649129 237.7862113 -55933.196099 3393739.3258 5877999.9259 4177464.8395 1481373.3148 1852775.7237 2199975.4895 
-25180.797344 -45765.920748 -13883.229355 -21021.717389 -34559.027195 -3997.3317852 5629.718581 55512.371838 63755.761331 
32696.209362 -11659.909261 73508.621475 -2395070.5193 -4042929.8642 -380458.70822 -223649.50376 12987.678351 -98357.426665 
-6363.8739459 -50915.998628 54849.3683 -13172.665681 116763.46834 -1216.0376865 -283756.35132 104765.97162 -91107.673138 
9091.2451245 429990.77935 317519.79328 396829.97315 444762.05448 -15210.586891 -3831.240192 33887.438217 -14495.059068 
-29914.859877 3322240.8731 4372377.7402 4104721.6251 2065047.0772 2821914.2999 3627866.0739 -395.32021246 8102.6799416 
90071.729577 -18198.244964 -33285.320895 42516.103211 152647.73288 -315324.33521 1331553.7928 613142.90969 -71031.259443 
27745.825353 -46595.62876 5284.343955 15226.474411 29418.316235 45282.971785 11718029.42 738899.27443 1212438.1776 
-324004.9065 -90663.097681 82891.174355 102150.10089 -57391.16175 -63177.783733 9033921.7631 9942471.0384 10434626.228 
6070.1800731 -16525.329876 14958.053918 33076.495708 42420.07827 -10991.751995 23629.990946 2412.5435956 28335.067472 
-26728.014645 22601.830495 -28812.634261 150420.48187 6798509.476 7961352.1968 6612326.8216 6356420.2913 4589784.8606 
5099723.8538 -60677.942127 -58829.552189 -1535.8689139 -30590.052428 -12333.258207 1474653.6423 46802.332958 2245368.3188 
-589511.1824 3573717.217 1151429.375 -72765.03312 332070.96614 818179.59695 -32278.679921 101818.55867 44596.67151 
1883.2538379 -16052.072581 -3238.0962612 -2484.3378052 -30032.011253 -23862.564145 -31164.902705 -48081.181229 345125.82337 
1584760.2759 836710.69529 1696714.8317 110261.93184 39082.196356 23301.828548 21482.766279 1784137.2182 1520988.0656 
1517738.8053 2648641.9094 -899199.95138 1607702.2277 2172761.6712 2338183.7169 1799928.9497 1656832.156 3012186.8275 
-1162096.3548 620541.88921 371168.4622 -162631.37518 699039.67364 3739577.8768 1681854.7852 1629429.6803 -48639.846207 
263736.24597 626453.1687 238585.5673 -75596.784606 749115.45839 283028.63228 49112.047376 200447.20146 535174.60756 
683021.61417 829547.49623 615136.38995 1311565.5577 1896064.2347 27763.091613 13351.46539 717630.83528 560551.64199 
-92023.061323 98447.159505 142615.27383 36240.730036 112921.13376 165992.79541 44980.240587 64665.808731 90230.247009 
67977.217563 119780.70604 64006.8788 -29568.263912 48240.121333 5877.9076723 -22877.917883 -29052.857501 -7616.5366976 
39586.867258 1511.3288862 -45255.598018 21934.866294 -24644.277527 -9356.9214457 18818.562531 27273.853147 20123.394789 
-25717.608857 180.14648357 -26163.279635 -34101.803957 10765.28732 -60743.323326 20389.171925 -32385.321533 -56510.43839 
-36147.882333 -91452.982516 -40801.859888 -38465.846366 -132616.72526 -5367.299003 -54695.422778 -20951.722694 -57317.082214 
-37744.787681 -25063.472874 -53065.681379 -21259.166982 -6176.6116857 -105082.7772 14287.359391 -37597.266025 -26198.29892 
2904956.4868 189470.31169 -21084.56241 111005.65215 9267170.0472 2722574.2527 -1191271.0827 46660.946308 78595.870553 
6913717.4287 142827.65044 -6063.4633623 62005.700879 6953849.4309 3046.67143 20451.267314 28465.872487 -1242232.9386 
746829.6388 9978950.1233 519650.44174 1302644.25 14087180.093 53553.150044 -938774.42334 4802.488188 6671577.6477 
4326787.0162 6529708.5757 2116445.5942 -13679.958263 11065084.636 4387209.4668 1634558.7149 825021.06837 46837.939897 
3774601.1731 -40837.304414 268040.93089 -49368.651408 -73945.400129 17293.510842 3308290.3658 87619.872901 2351026.6468 
-17169.347277 11826734.765 621683.26534 133773.51669 9873238.9349 74440.718494 -12934.307704 104394.60332 -12717.313657 
194642.60809 -849153.59377 -783894.09131 7457342.805 1113726.3007 4295422.1061 44240.333413 -7335.0841999 12670.815753 
9707621.2476 415349.55554 -19658.739372 13370161.846 -1960.6639421 9875469.5497 -1005.6636708 27212.411426 -19464.427132 
-1845.6564571 4577306.027 14330175.752 2716238.8194 391074.34909 33367.652647 -3184.3049037 4799486.6503 16309103.59 
554720.30275 1054732.8345 6712081.6337 148448.9555 -11665.349588 5147.4653228 95.583997013 7548969.551 2904451.325 
7872725.5773 5440462.8972 8554164.1505 36860.861907 1207.9471815 2819355.3484 2830727.011 11289485.598 1090462.0247 
-411257.0078 560463.61877 1536107.7027 11034514.564 1959.6169331 48333.59511 -122859.50632 564857.90354 37990.877096 
13464020.911 410641.21883 2400321.457 2942771.6412 -961543.08828 -4240486.0335 -15137.519299 778267.32924 1054.2011475 
420017.80324 -2037916.4407 8546141.4021 13190.752765 7001243.729 -9361368.3031 3548242.4323 281840.9462 17427.408716 
10272862.175 1706941.3942 16081528.921 4504453.4414 23887.442256 -19965.801089 -6412965.2787 -35056.192557 -4201.9816991 
-7916.8379091 9297629.9019 -11154.188125 -2939744.6095 -19027.89454 12833972.922 4505981.9374 155265.66172 -77022.015806 
11549078.889 23644951.876 5338586.4591 12268721.3 236523.49845 863229.96328 4977888.3728 8017330.4014 3281.0918481 
-8832.7999833 2754.8323274 20871.109571 3254179.1714 769592.41834 2804.0651758 -309491.58631 -57084.293675 -4488.9878231 
-4310209.8035 276874.87849 244334.36132 3957878.2811 16421107.712 1265582.2671 2066160.1266 6180902.8745 11759238.356 
17684.272945 11850.359 235127.94381 712245.44438 24090.806588 5985428.293 851878.03051 4932124.5134 4780064.649 
31866.323354 26139.804886 10022.507602 3391283.8414 316933.35695 138887.94096 -14819.523686 -1903457.7272 151833.37508 
8627966.7246 10763753.043 -8617.9252245 26877.294409 19315.892189 9429.3041885 -9180.3807798 5805663.1166 13044.054945 
42704.087101 15085131.333 201926.74723 -1653.903625 9588270.0829 18511697.518 124902.92344 7817.8554608 1330320.3515 
4837724.2737 841978.403 7740938.9341 4890221.9886 17985341.342 18073.141869 85120.595361 66526.907394 19889503.907 
19676504.291 17754743.402 -4295060.093 -3963579.5848 -6941295.6963 -2008993.9295 -1953915.1861 -5206263.2358 -1277164.9783 
-822099.10262 -1153082.0631 228669.00678 -117319.07158 -659582.39319 703964.9484 -182398.98236 1703169.4936 7087.4456708 
649787.9722 2833897.4391 1221512.992 141980.11567 121629.85335 -7170778.1249 -275996.25889 8084189.9893 18479662.309 
17679205.325 18438601.257 16388975.155 17393354.601 16544858.029 15335439.093 15391763.209 14620403.957 13013968.448 
13685277.289 11377704.328 9646597.2497 11223591.61 8059942.3675 6317419.6706 8202921.2146 5097799.3829 3553913.8048 
5670218.6656 2725467.327 1696475.7277 3530729.0519 856149.9076 439659.01755 1891230.2387 116626.38043 912260.51388 
303306.27175 24664020.4 22355031.773 13381513.4 17977977.384 21909154.035 20106723.849 11193281.27 18476912.893 
12780493.351 6080778.6494 488821.83982 1155241.0359 -204860.71842 -5040361.5496 -1123150.7923 -764650.24401 4492797.0081 
494424.28547 654973.5777 -61436.992218 1948816.125 2953127.6741 291544.25369 -90338.20326 -202617.07993 172048.49336 
-133036.79481 650554.99253 343217.52093 578843.18374 -445247.39236 -242932.59798 -662618.38286 -946963.2685 -466357.302 
-133288.77847 34681.823392 74160.25987 99994.807578 -14022.069798 6213.7558929 36983.217612 69693.759069 20304.261604 
12297.183002 18326.358013 35576.370327 -1481.7978046 30855.04719 -13859.808507 -3006.4702683 -1184.7697288 25865.820999 
22906.67688 -58728.258694 64759.729164 12757.998631 61621.611255 93557.161349 42532.228086 -1504.6777867 139972.10068 
81709.542867 29141.118461 172963.15446 231968.3506 278085.74644 521886.96132 349559.46298 81656.372911 92961.65598 
265285.67922 125430.66353 -5958853.7159 -3792302.2483 -5171892.8119 101458.83779 -59329.800023 -547704.73628 -573706.11606 
161769.08249 -8831.7631231 -55616.696396 55616.785207 232026.38526 2818183.3505 73456.363899 4985515.299 6532279.3239 
2118676.379 7898073.8293 8740256.4635 6168228.8204 9428703.2967 9921149.8235 8510231.9644 10175580.54 10451080.798 
9638243.1722 10811356.958 10991437.969 10350642.519 11144361.102 11391082.151 10902584.537 11674187.007 12105385.486 
11319624.326 13028101.823 13904157.063 12383766.003 12668468.023 11689163.055 14673961.307 15970357.467 14263127.798 
16722269.585 -701.55985709 -3959.8336114 -38898.934542 -12683.069051 -24184.530617 -1321.0197372 39763.92803 9068.1058585 
-27679.090179 -12108.351157 102058.40941 40956.827276 1994509.6299 1937443.8768 1153826.6348 1953597.947 2908218.5498 
3606148.6069 3330934.5114 2730648.6055 3808276.3248 4559387.7236 3867348.1388 3784550.1079 4825501.0971 1680412.2946 
115767.31918 83687.017425 86511.354135 225391.54864 186599.64151 32320.163755 13374.162911 134848.51004 324377.91833 
354374.90397 419083.99714 452556.84359 377943.55789 466482.57882 -22139.850563 -23354.621401 33172.731542 -58976.959391 
54544.356784 -45478.18709 9958.9080842 -1985.5451362 30925.942395 12659.217669 34473.797094 -38204.635984 7811.4561366 
-2564.4666728 -56782.887189 1411489.8191 222089.95479 -37873.410815 62478.880895 -2463.3449444 570546.49466 1610915.3719 
3138474.4411 2009141.1554 8378996.8884 8128301.8299 7226952.1967 8522877.2941 9422540.7206 8923967.1256 7779332.1706 
9795820.6512 9391390.5717 10318216.86 11531009.667 10541539.61 10446143.901 11047475.735 3637154.5028 3741308.1876 
2885650.5972 3336442.6984 4296886.0631 2812228.951 2227173.5991 2291442.9784 3394775.9894 2099949.0547 2239536.4508 
1652095.1732 -2071631.1401 116691.79581 -2072488.6007 -1811303.2606 -2194050.7625 -1166001.4014 -1520279.2552 2588360.0247 
769417.26049 1117232.9476 733061.44071 4779073.1222 84285.553687 79499.690346 83892.171491 2606.3950162 32976.030419 
-32834.549507 -96489.319338 -15394.055636 -64483.996217 119581.46312 128450.71605 297268.22875 275156.26214 60378.207273 
61638.23129 647.6926907 29181.259407 6378.3250447 -8962.3532363 21105.765454 237384.13656 198866.99634 9569.3957132 
96260.928738 7412756.3582 6422758.5022 6944248.1055 8242698.8778 7803349.0846 6223950.2531 7449321.8257 6789157.5342 
5183753.8303 5961654.229 8361231.2438 5470618.552 372613.38283 678939.83219 413402.57063 81987.841084 264298.71922 
-5562.9649784 61809.538951 4651.0261161 33910.047947 301425.45033 77244.219742 -8127.8662036 -23106.541157 -25573.346561 
-11861.628623 -42402.513932 -35582.085948 592.51441455 -19629.465448 -21845.061852 11941.399351 -47798.935898 144979.92662 
193343.82004 -43110.727107 -157977.99136 66751.255152 59471.715276 112366.8618 -7146.2987837 80177.372974 121157.54217 
21466.137316 119439.20061 8311731.3604 6857031.1765 9143802.3311 7768189.2917 5729140.4689 4965208.993 6133203.2236 
6591525.4218 5367190.1771 6014743.9435 7348898.9391 11460.96986 -15614.105812 -5769.7566933 8022.6938902 16486.933005 
52891.432457 16579.034361 24792.590543 21349.810071 17114.690966 21833.770935 34633.872871 13047.757452 91679.068043 
-18539.088482 6095.5847347 301268.93466 484232.51566 1062475.2246 16414.392693 508764.07971 1706368.4392 -14265.183727 
55246.029663 -36915.759386 -1299.6851447 11956.048384 2757.9793842 74684.365845 30197.618148 10379.873235 73940.115647 
-1219094.5398 -3652577.9192 -502907.50218 1079659.6535 73642.404235 1384095.1371 -641942.34693 -569034.55783 -1265289.6 
-2551502.0127 634371.50037 822908.7661 584725.44344 666494.58106 1109936.1966 691191.49333 1503277.4657 1506257.0616 
655988.90175 355165.1187 558577.40964 186597.96722 10888697.479 10101965.022 11073916.445 10833693.402 9932316.3356 
10559009.587 10456126.871 9286753.3677 9307860.8425 8953396.805 8257920.6953 9284169.0466 289372.56835 140663.60352 
305115.65496 619851.28707 291825.35201 1009571.1117 1017960.8681 639090.85612 1248445.2113 410386.49656 507123.25467 
1005491.8339 874048.11603 1547848.4987 1165369.6043 2024107.9832 2812250.2947 2066382.2371 1283784.6689 986679.49862 
701999.56273 428751.02969 14202698.098 12707777.381 12798096.012 15323243.759 15130822.126 15708550.28 14674032.336 
12939404.536 13731965.652 12668792.947 72403.083149 -23518.747395 92924.233782 -25627.712681 -13405.226898 -11199.605238 
76647.614546 33.80898501 7028.821954 -4654.8142767 -775742.17816 -805948.71307 -2374.93445 -30730.926321 277266.08267 
-278457.38246 156401.7431 270490.59129 -36327.513814 -969.17046935 4948.875947 80.190195839 30498.11028 24320.603047 
-2667.665366 20247.688171 16367.131438 6051.1635684 29174.42838 8476422.9938 8127619.4071 7413202.6886 8999215.6111 
7137988.9383 5283548.3024 4820842.7238 4968265.8585 6019850.4633 4371759.9915 4482145.0285 3635508.4599 5254032.6069 
4593651.3094 3535886.8173 5074288.1261 5278911.0609 2942588.3679 6001652.8419 5628911.7585 5892042.646 6800989.8736 
5640901.8693 7178665.7688 7543038.109 6288439.9094 5359780.4158 5717306.2618 -480758.89673 1103420.1357 4594440.3041 
2532391.5976 3121298.7671 3380220.351 273021.79734 -534206.18211 58950.44803 -24560.050175 23582.196003 9608.1062921 
-24376.311257 1620.73808 -40476.551314 1738.3748106 10446109.705 9757638.123 11999220.727 12664282.182 11199513.334 
10340174.473 9096663.4053 3591243.0366 3616530.4347 4418980.2208 5503577.9201 4888937.5003 4162998.7998 4641383.6683 
1430750.7382 2234974.2514 924875.46492 1154827.942 2255642.5151 1672359.2438 1092362.6178 -4717200.131 -1059162.8841 
-13044736.037 -154839.9702 -5054183.5399 5285681.7184 3448460.9575 12168768.166 17718608.908 95495.945459 63057.28917 
10452.361056 -3842.5409685 36881.685551 41572.780577 47571.750439 -7438.2383215 5791161.2544 3290058.6571 4139120.1204 
1783243.1132 1411285.2728 2154683.7436 5267.7571675 6111.2862359 -34701.409745 -54860.423689 -50616.370156 13537.295004 
-94226.894117 -56430.251388 -44869.43528 -43395.00215 373230.40833 116882.65798 -1873754.2464 -107190.0395 -3486704.0244 
-239938.67387 79101.583146 -40962.571614 -52012.818717 -112770.58137 58070.090587 -3375.4693098 35334.826228 -13598.141564 
29017.032718 40717.212188 -193176.44955 -125813.2917 230783.71291 406458.60643 411937.0861 -24060.9842 484974.01442 
-3421.3998166 11066.70537 22985.741017 -9954.6151571 4364324.5713 3298989.6382 4133343.3361 2850908.9563 2075006.9151 
3650649.4269 55968.482518 48288.686914 87420.781789 82792.900868 114221.75336 92809.44317 917418.10158 -1922234.0269 
3498372.2916 1147257.9354 3794435.8262 2227.0694737 -7057.0021685 -17612.202654 -14196.344484 -21760.23184 -3548.1179772 
11730037.669 1282197.5547 826885.60583 218659.67784 -69038.095416 242923.50542 174628.58533 246978.7556 36654.411831 
9894413.6633 8981801.1908 10382095.131 33794.468707 45500.970343 108584.34125 -12249.381422 14839.869086 -31236.322468 
-21126.732891 -26220.316026 44251.959348 12444.535411 4940.5048844 20951.755016 100910.066 8014385.8668 6818175.1618 
6401863.6821 6648808.7952 4595004.5385 5150150.2907 12810.67959 135997.64336 13731.849711 -14599.205602 -6898.3977201 
-514270.56568 -30095.528868 -812333.95939 -1103310.7186 -1446719.1061 3641855.5925 6233073.1354 1797418.2035 731551.80232 
468028.97616 5769124.3932 3988701.4718 -1348930.2265 -1626192.2114 -1746975.2613 -2455342.2049 -1111633.5177 -1059532.3001 
-1312832.4016 -1065289.2387 -1291728.7733 -1285793.9411 -1128935.6802 -935953.06798 -119972.87197 2915.8231094 1437976.4782 
333725.29666 2461167.6491 7155258.1118 404239.4289 6484173.5912 6606459.8718 2898247.6384 1491401.9285 -2040429.9357 
-938934.11561 -1534548.9275 42931.323052 -496287.0041 -1236579.8273 -660300.62589 209098.72565 -2333133.0931 3448941.9893 
4544694.4508 7721295.8579 21200391.742 19999706.242 17713189.676 14819879.329 7485651.9713 3928667.6185 1395468.2401 
52363.618239 11315676.406 -25222.647633 43750.769445 111588.6506 -7223.6593035 21323205.135 21237796.063 20996080.074 
-3893.6348092 21064753.065 19715670.048 20347912.442 20747054.937 20283648.384 17058561.26 18423322.263 19642291.182 
19102527.821 18345841.162 13954577.1 15674549.164 17023347.699 16456516.458 15636469.047 10251096.493 12144017.349 
13957497.668 13038738.373 12153161.459 6497277.1578 8462722.702 8442902.0978 9342523.8482 10285218.114 3124358.0208 
4751203.0116 6552293.8491 5650775.9234 4770706.9278 820549.27143 1898216.6123 3173055.8926 2421061.849 1972991.6931 
-28761.562311 -110369.14217 915583.71694 256569.26409 -46617.827741 -45596.914621 -14532.32139 -6046759.4618 -6128770.1345 
-216819.32189 -39454.660184 2917150.6193 6410114.2159 8794647.1193 9940840.0864 10590993.695 10977350.604 11409885.895 
13341698.14 15451778.674 18921293.563 12152364.966 20011694.386 20103393.631 17945900.463 -3969932.3785 -3952816.165 
-7334218.8803 18040282.25 -6806892.8847 -7293236.0163 -4559062.3578 -7930947.9887 -6801475.4707 -2039375.9411 -25284.95176 
-3310061.0394 -4345884.1632 -1715445.3684 -84578.953541 16938.238098 -41368.607452 80177.704638 -11275.47778 1742519.9598 
4091682.6027 41642.848982 104901.69895 1490414.0993 5734866.3884 7185951.9697 4877948.6735 3914547.4734 5671199.4909 
8447376.1209 9217537.9969 7831260.803 7143251.9475 8332019.9937 9770039.7808 10210718.481 9442007.7332 9108422.5779 
9677831.8127 10513930.374 10718503.755 10316655.168 10167974.765 10457399.904 10930882.128 11084291.866 10791094.182 
10677606.465 10912693.924 11334899.356 11548100.515 11196486.845 11064564.174 11326293.919 11961200.248 12424495.338 
11729594.536 11552889.582 11961691.639 13023500.596 13744498.051 12733098.141 13016716.244 12413709.521 14916887.019 
16066999.049 14288191.201 13755816.686 14931298.966 17019480.417 16106080.862 -2049173.7734 -65436.320597 2061132.8889 
961373.59537 3409736.3669 8223803.3098 -8596.8414608 9818021.9795 114547.41966 -2308640.529 53597.428256 8370.7347506 
-26548.389945 1637681.6928 1528107.1527 1631587.0173 4366409.0163 3610449.4245 4313778.7948 3835817.357 3843862.1243 
3186431.5355 2926554.4782 3203484.4325 7797857.1878 6921631.4568 7614569.0188 7579533.7994 8436579.8968 -1321985.8874 
156960.92856 -1041207.9153 -1316037.9846 -2631980.7152 8631613.9065 8423410.5957 -57387.409767 -15560.402654 -35706.19215 
-23727.780646 -13079.448902 3125966.4274 3262133.1435 2648042.5858 2654517.8054 2503653.3985 -44222.312072 -34295.24172 
-2299258.5534 -73938.064583 -867394.98718 -2791346.6319 -4650395.8488 2965597.5012 2484564.9677 -191292.72437 1327.4679629 
-4189688.8877 -5146961.1265 -5707042.297 8042.5683332 21883.488655 7830.2912667 26217.954109 -25408.624626 -178734.39134 
690169.14528 169964.71115 -606060.79708 -316824.89509 -69692.344887 37812.406028 237181.38196 54377.168753 68901.906032 
104077.07958 303743.92926 251786.66498 81982.110876 326623.09278 121647.40083 3616168.388 3074549.6344 3011758.7794 
4559532.108 4354230.4539 4318096.2537 5826710.2452 5879946.7162 5673670.3718 7174917.0339 8861168.1225 8193798.9385 
9731332.5192 8883907.2459 22435775.459 25611967.858 19203959.1 21869242.984 21041644.709 10553510.171 9696635.9096 
10556405.192 5063692.4321 12199694.259 12230573.79 11230489.391 12843679.602 7172054.593 6699315.3995 -111391.50822 
173020.44758 82041.856995 -24335.411973 -26724.195452 13829.359401 -11477.025336 9930851.2221 10100579.668 9698945.7719 
13657434.75 15184402.436 16013491.833 15229985.331 13792872.507 14560139.096 13810646.531 -1508.8811584 4203.1030254 
9029.9446594 -6816.7039965 14870.425327 6468.8029916 444658.13332 -6403452.9006 -5207524.5383 27005935.317 28487215.637 
15501974.228 137909.6606 397958.6128 502194.9277 9329524.2065 10170155.849 9762893.5928 2104911.6122 3560104.2298 
32579.513944 20584.730869 7174.6922576 -5427.6473795 38747.970977 3311821.4792 4311963.6862 3952941.1267 46413.661657 
69321.358463 493146.4365 558783.94412 1975.7668574 -27076.544311 -28417.036086 602922.05598 13036546.175 223778.8418 
946.20357456 328231.29992 230059.30729 560845.66019 358907.66441 -6867.1389774 -673452.65829 -396315.03476 -9750.6932568 
-7234.8004337 12012.872646 -12811.102269 6009509.575 5045813.163 5807022.9071 126643.74812 12920.809166 20224.520685 
-4644.4870266 33158.883108 82019.818698 -5089.0679237 47644.182677 32471.875043 -78052.549123 -38832.77971 6921.9302824 
-1605311.1982 -3069557.9283 -226675.0633 -1952381.8887 2873584.1719 -859259.86872 -112698.90207 -613971.22333 -1673141.203 
-2052.7780408 17524.143588 10028.768262 13421.675817 -5195.5282147 12652233.73 13427129.602 12698618.127 13436097.813 
13425932.353 23131509.69 11657584.682 -245415.96805 1001549.5423 258296.17798 18835.152073 46098.386364 61896.830692 
-7579.2974744 -4478.4542308 8074.409637 6399741.1687 6614546.3804 377434.27257 96402.225797 -1048056.0931 -607506.86091 
108428.94393 -582893.76076 354554.33786 67065.010781 308435.8408 7160.3668275 -10554.507877 -1119106.1051 -2130107.021 
-14951.758009 -19407.691348 62262.718241 37476.559057 19019.079461 15986466.685 14287168.978 18065069.465 19318843.388 
18511131.172 19379998.266 17327749.92 16893490.9 15950159.78 16941614.031 2814132.8617 3403823.04 7104827.4492 
6550209.2756 5766811.4567 5846173.2219 5301959.0755 3808075.5373 3323207.1786 22026.594155 10771.4541 12154.454861 
5980249.4435 6440272.7452 7427243.0116 6934695.0485 -2085.2215941 13157.51357 1066453.0093 18855.405619 18115693.067 
16304470.254 16010683.809 -9176.5142509 -9541.4196266 636.44863881 22049.709188 14054.566344 12083678.337 11864801.009 
11669450.858 11552737.283 11857084.817 12769.028751 7812.9907249 8431661.8853 7247710.5444 4563747.6579 6227479.9486 
82372.929043 5229840.3918 6176078.1831 5380230.3954 1406741.6447 2788064.2203 758486.6501 6816342.404 354308.74506 
36855.334147 29227.02982 234946.54481 291194.19643 448188.11466 699037.78569 909370.19256 5632552.6856 4781214.1995 
5367514.1052 6286757.6735 9968.5197905 10280659.925 9398618.0217 10030087.257 9198384.1993 10020587.266 313.91881815 
3127017.5915 2011458.9265 3601858.3381 196619.81493 -2228.4488549 -1650.0922868 10208.097758 -11692.560155 -1131.4243103 
-50684.764285 25171.236207 1781874.8743 4124539.218 10826325.947 10701704.748 10907098.39 12244.264097 24646.100043 
-11283.212045 -29889.952408 -17280.753802 27935.487092 -23235.693072 -334104.71752 74584.276928 29372.839864 6011450.4547 
5308482.6583 6140700.204 4191312.4507 2672833.6371 18667145.018 17799983.265 8369898.36 7581820.3596 145907.11264 
273557.35474 -2225.3937678 14726.377981 873.79568876 -3600168.8697 -4402085.1544 -246652.24782 5881608.9576 8737277.38 
9119425.4693 198051.08668 53030.866303 97308.31158 -2792.1219941 4479931.892 8297588.7957 17694608.174 31148.190477 
-96605.13337 2122161.0436 3616431.7498 2710285.4343 4814607.2943 434120.04968 3317159.3109 1799519.4343 2107.6088436 
-18574.361624 -12868.194652 -3551.8300203 10435.894752 2359.0639595 -24850.202416 16401.073836 -40789.881006 4472837.5794 
2143705.4527 842328.94616 8543321.1623 9210655.1199 10742518.964 10783639.44 10925319.008 4612083.6482 4957427.9377 
9067099.2645 8487298.4167 9415463.3817 9565495.5271 541658.85238 292814.91072 158685.68786 432381.28846 165524.5633 
-436.08023429 25004.950435 4567866.9103 12677202.555 11821115.827 25448.206339 -17328.190061 29394.77142 -37351.523059 
-29538.52018 4233756.6969 1838506.4701 26354.452522 -10540.324654 -9947.0443749 7397.0988979 -22420.024773 8144.8998048 
11171.420858 15723081.759 15268329.12 56045.821943 795838.43845 18719371.335 31398.319674 -19262.977983 81086.873653 
12029.34778 -152598.8114 -85076.7552 4561253.9249 5118662.5911 7879870.2191 194445.83076 22766.076224 -17044.584098 
8545405.7102 4407071.2813 3618843.9695 4773140.2484 1828932.3271 -3681630.4238 15228264.935 15057237.355 518423.43439 
-451567.11656 -2779.0791332 -20801.99133 79008.544493 -111822.79524 5651.7517535 3724.7597593 -991.94633213 -18363.288859 
25348.558912 5935541.2776 6233346.58 -6219.8764323 196951.4544 80391.268878 34037.76804 215757.0954 61257.308683 
97349.393248 339820.41861 63285.998364 260666.99759 301925.94804 291324.1951 19949315.265 25321471.878 -111909.68547 
20314.387068 14270.367329 32395.311251 -17023.631393 7333.5445439 2870766.3304 4467030.9321 2698466.3683 44379.528446 
-4453.2076929 -6788549.5542 -6546087.4128 7442315.5129 7229951.6168 8366815.8944 -2574.5569498 -13550.129891 4960.2405266 
-1974548.5864 138303.99165 364042.34784 106061.57703 17302.167347 -19421.118985 11980579.949 26826.625177 5876005.7772 
5632452.0869 6783040.7517 6980525.8493 18882.423578 49654.432501 377922.95919 12613813.386 11030427.628 11209794.983 
12369932.349 12067578.4 10382364.951 9656127.8854 -21922.748407 -25202.065143 2066772.7267 2820670.6003 2830529.3468 
1451486.3453 1117400.7067 1152069.5243 3729529.0623 5443330.1715 5191121.5481 221529.65282 97355.355003 438310.92172 
431500.98528 9783614.2876 11033616.041 22768.404856 2846.3031917 -223.90498389 -104425.6079 -733641.63137 -971772.23958 
8506761.543 8121666.5628 3586650.5666 -2944.4850772 -8727.6952715 5718769.4905 12765034.387 14214635.921 10360680.95 
5632628.5427 5088412.7289 4559330.9417 16422304.154 18070712.219 -39055.317124 -15965.921684 25133.263369 -5189.8570987 
-7138908.6541 -7149515.7416 22972.749791 -9944.1798525 6539973.5427 8245020.8436 8870472.5574 8868814.1985 -38476.04811 
13151.215647 -1083.1606163 1395.7890692 14717.094937 14449348.797 19629064.183 9426950.635 5082128.0984 4364645.0201 
1837277.9237 2106913.7538 -6629.3810038 -17341.501784 3598009.9669 132422.09822 -6838.5951431 214804.03542 188802.92987 
74529.029784 3601456.5159 4384541.1729 705258.21596 896962.59188 7787223.544 8110290.1433 12703353.707 14053177.088 
11287099.091 802488.71548 2734839.7651 3582710.1915 4269276.496 3325130.4677 -63791.701998 -10570.616765 3993.1683085 
4892763.4983 31470.321214 17730.090853 30516.480429 69214.391077 14700823.788 14177836.045 7189853.7437 42504.626048 
44741.284916 4928926.7218 5481770.692 10337033.313 -1666.9957924 -12742.834356 800433.55619 868141.97074 914861.47015 
496025.68033 493454.66956 459943.17648 879281.04118 -548675.68544 -849027.05957 -29437.421425 -8056.5286816 38537.179907 
7541324.3701 8906648.8998 69294.40647 10485.481045 -7440.2399205 -14485.636308 8205.8263843 1087166.0955 1276507.2023 
1981630.8346 7446.5912371 44906.300039 34649.424644 6877429.1481 8302059.4791 473517.5824 82827.466136 64149.165078 
10703.31543 50319.60852 -8679.2370367 -5773.2076942 4720962.2741 10443021.744 10304889.255 10448359.043 3307372.7517 
4358391.9288 4370796.1709 3310089.884 5476562.7892 -2883.3079568 -497593.86248 6574132.2481 16339956.466 18025245.704 
9750393.2609 2269000.6771 2245895.0329 2296983.9971 2272838.0668 1725897.5328 19653951.535 19846088.469 19783890.634 
20510306.493 13326351.822 22433910.958 13529405.039 38122.430074 187252.48428 4137729.3822 225.1120102 10126.167641 
-13550.135401 -4492.6640668 22270.922493 -53363.501939 44552.887664 5912591.3471 8934370.2404 -47099.761764 6932796.763 
-21245.244676 9748.7653447 -12087.26445 298756.88104 1899536.4088 2924468.8105 2801548.7247 143913.80181 6616.0550641 
-38543.017167 23207.598102 -57009.410564 125013.8854 1716.7861003 13206.774452 -8274.1949273 7812.0808737 48719.164793 
-1130.5016154 384046.33044 496052.40073 31138.538462 2683.4268174 23930.095211 -11781.821282 7472002.0234 -2092.0979395 
1039020.7652 553912.97628 2024274.8311 582243.84702 2842317.1664 41038.384669 7686.05766 3509.5601588 375795.16966 
401352.50165 181822.57098 -39902.715977 -32482.582567 1667721.8791 -34477.702321 133819.28616 11052037.423 11162824.599 
11273745.473 -111859.37582 1077805.8996 5996915.9833 3503436.9643 3806093.0213 783.01065685 12675.167379 1914213.4346 
1010577.307 1667249.9606 1155031.4659 -1734232.1399 -637545.00422 14188.47325 61197.729789 -19356.170278 14158590.159 
1937396.3772 1338233.6895 1315144.0187 2036516.5737 6792182.0721 26279.804542 -61485.322325 9092957.6098 -2895139.8648 
-4639089.1196 -2998665.8812 -2111688.6479 659791.29613 -26722.833522 20743.266285 -4906.1984328 1305102.6913 -5141.1228972 
960597.48301 6029081.5699 676090.18979 501812.04092 1052328.1295 1811733.8129 22150.05054 53728.53843 -3699.8849132 
50868.240213 11784.248435 8507.9048238 8007347.8118 2206804.65 1432971.2123 2243469.9331 -1107429.7838 882624.21051 
-64564.495588 927169.95417 -18500.037073 -46609.877656 -23379.192695 -50590.361865 -38025.231834 149358.43506 182830.60184 
-13657.63816 46106.544492 -296238.18009 107812.982 -390968.44413 -29000.137796 -13716.751267 19231.400588 15259.819402 
-28250.297486 -3023.4188564 -41874.824934 -58187.143494 -4322396.8318 19423.848697 41011.58824 1542987.0966 2268621.2996 
2371645.412 2025995.646 -382745.21058 611768.25511 11320449.867 11043740.251 10766492.112 10514340.782 10498055.429 
-961.40962456 2178585.7284 4021118.3832 1108865.7954 1955033.2819 -6732328.9244 694785.99714 1023189.3493 99996.376802 
3620383.2762 433981.30674 4456375.1107 3364653.7603 29989.950935 -14434.657179 2412445.1084 2371454.1718 2424101.578 
-1188708.7235 -8626.6792382 37176.309215 12198360.447 275197.27508 9817.5565073 -6342.5416625 80533.322982 -34844.505179 
-6607.7773342 -41227.459742 38600.554765 -20886.625036 7336324.9026 8540082.6478 9133443.9416 4606987.6016 10834486.778 
13177000.176 -24451.649202 -14356.15212 -7633.5101218 59130.124818 77115.185686 -63322.772417 -48781.642777 7457381.693 
9020773.1579 8037123.658 4190407.5249 9255064.4021 1024435.7896 540028.96895 1082838.685 1040800.3781 1678340.6334 
5821426.2857 897385.00479 -59651.332801 258617.16494 163491.82813 51595.144392 -98627.866978 29282.805044 1687690.2558 
11747755.148 10529461.651 1644878.247 1563972.197 1573336.9971 6015.5357968 14207886.554 5191.8599257 116055.75483 
696253.3423 608341.66277 977478.815 455716.67257 2897479.7556 -30527.839661 9517979.0256 -911635.25122 7180.3909589 
33662.480087 12512.302999 15348954.95 17139328.25 17085910.588 1145433.5688 5025179.8409 48658.083978 4937738.86 
10896942.53 -22705.29264 11256934.224 11038798.208 -866486.72718 -2594862.9465 81610.216174 -545655.65022 -2428154.2394 
6499.4986452 7764941.7579 -6596.7671556 8045979.1689 8045623.0761 9063706.8647 -479444.53188 -749154.5993 -874521.69495 
-1606760.2959 -216051.68629 -2863303.5716 349228.17296 275885.92352 196256.19449 7723.5730836 -31518.603981 -52941.516822 
13756.259673 624027.82771 1283889.8136 1003126.3143 1250273.928 -1066940.9913 -1879789.4539 -1568333.571 19671.00234 
10490129.065 9850588.2609 -2940.4102368 128112.47703 81073.060731 96233.440393 269074.62778 43736.213771 391723.76474 
11266.830842 -26683.615707 11017.678801 14666407.471 15133359.82 83749.691898 -23975.259832 267240.46748 -16163.386072 
-23968.369883 4779.5821376 40648.219646 33082.330064 46953.114714 1393707.5545 1322044.7106 -25702.244165 2369117.1895 
11681161.208 11520033.482 1545401.2385 35758.829465 27429.15395 348968.21025 569133.26244 -135434.18292 26002.583757 
-131966.89492 -2144.0165968 20322.302925 18900.426928 2157839.8235 2147521.0754 -6446.9371911 11360.044418 -321780.18927 
391539.96401 720258.43855 310661.83756 -490935.98705 282575.22691 21069.953451 177757.66799 1196736.9446 11067559.1 
10890277.671 307728.98245 2694.7837774 -16118.209496 291717.79173 -61949.924175 -10156.866457 -19285.959676 6712735.4442 
9907743.9093 63965.571738 116470.29112 -2519.7131414 1184104.9517 57358.915403 858770.63413 2223289.5729 1059238.2164 
1047176.7793 398000.99291 -2807.667811 -252.72520541 -151867.66541 -152283.04342 12887710.069 11536078.669 -74196.6837 
-13591.014851 10292814.085 4380567.0387 -19662.19524 15239736.364 -30757.010507 -2695534.6845 -1543890.672 5486835.7603 
-8473294.6523 83043.700486 -1512.7859251 -284939.69368 -170608.32872 2074055.8417 3284098.1736 5704014.0274 2958947.4178 
359219.36414 9235130.1712 9233195.4266 1226015.7481 1171530.502 1151995.6462 -2417114.5804 -395709.40595 1338914.2167 
2349561.7784 11516261.756 13298.754558 21682874.526 15345763.886 17758645.581 -87756.320347 7882619.0649 13689286.695 
983819.44322 1181248.8341 -1834428.5971 3124556.7038 2496041.7574 3554614.8813 3581802.8385 3640678.4924 18623.828122 
-44936.265204 46856.308387 18905.5312 210085.88994 3098082.8259 7940686.6904 5799352.8925 4562696.6138 -5393.4956179 
313579.47811 642256.9811 1353609.6283 405796.24585 13717221.996 12658400.927 6556571.8179 9816171.0114 9902104.6553 
9887274.1618 -2657319.6821 -270996.45737 3351996.3465 1355957.9668 416611.81025 -8479.7736278 1872606.4521 -63552.413572 
12196133.817 8307008.9435 1460431.3277 17642698.977 432628.64611 215874.09272 1031484.6262 25304.508604 768290.71579 
22964.097742 3761.8687528 14868.115895 16953.78906 2928645.0592 -141353.89616 -329932.69339 748502.75832 9897928.3201 
9875812.2579 7162688.3623 -1104226.2864 -3876760.3765 10392851.841 918564.20043 -9637.0160173 -8946.180679 15356661.26 
868368.40702 -4430040.3398 -321214.81576 -73326.275733 74252.102111 10065.29956 4874285.7091 1820343.339 81884.063941 
8355444.841 1972297.933 380691.50242 -21684.933692 3636444.6237 136355.32725 -3824951.6045 -4307366.4212 28617.398096 
67826.083905 -32124.173862 16596.247497 37575.392848 2919535.3128 -315845.84131 4587437.5225 19852.748095 1699529.5343 
9280689.0715 90510.725744 75716.477487 3894150.6158 9003921.0441 87126.453107 1635721.3855 1605740.0744 11749615.733 
6432.2811259 -9067.6631233 126047.37497 1972141.4175 -3326595.9363 1665505.846 -214482.12536 -81785.58697 -53979.809313 
849980.2257 792880.10158 9910662.4742 20021370.943 69482.337581 1328153.4222 1300290.9315 -12238.454183 4581353.1649 
1160629.9031 10816809.895 5317512.9758 5407252.1727 1067412.5963 -1098815.4243 -627665.4334 -28502.102699 
Minor%20Principal%20Stress 1 3545 double
-8311471.6025 -1001957.2048 -1495361.5263 -1273012.2959 -47924.159559 12910.984307 -94320453.317 -35537.410643 57077.352177 
-97840583.522 -929955.11883 -2218717.1138 -229027.906 -893764.29811 -5609684.1987 -5864099.6203 -1256022.6985 558286.96862 
194160.30136 -719334.62749 11322298.691 4640749.8471 -2451973.78 -4930748.1171 7602052.6677 8837369.559 -592255.89686 
-3646056.2529 -174941.30948 -3133983.0763 -112492.38743 114348.77672 -477118.60698 -2206792.6436 -613146.42155 -139778.17384 
169120.5086 -77475.889522 54321.863841 15602.892593 -39779.163758 2324.5238125 -36375.401491 -85556.661641 -55458.442844 
-60109.458816 -91419.602885 -35938.881219 -29491.496934 -481771.66326 17432.138026 1265979.5754 -3249978.1875 -1223822.1189 
-30964.959228 35627.048604 238067.0214 -301733.38854 26716.423296 -25873.773198 -25419.902898 -51945.953293 -94052.533733 
-78253.843011 -102398.48102 -103555.58073 -89639.620528 -79122.244106 -23172.039857 12949.579677 20283.601672 28910.511942 
13366.089641 3996.4606423 -22080.705338 -20329.386216 -24630.762893 -363497.4489 16637.755153 41729.393144 13632.763123 
23327.493677 -12053.935298 -8923.3082326 -28465.912783 -27763.797644 -101537.05785 -222300.5578 -45437919.807 -21123410.609 
-7518674.5416 4242.6694518 64358.631081 59170.126435 -539.16427461 35238.602277 13431.835508 1211.0604616 4695.3243796 
2099.7104386 -20.132406466 -98.896363038 -67512954.007 -32539283.86 -13561290.557 -3237113.99 67238.598463 40142.126718 
54248.735024 39169.567254 10353.260699 4750.406733 6358.1222349 2437.2170748 -14782.278338 -9137.0124676 22523.400039 
-88330614.267 -68858590.762 -38039587.031 -1897363.2667 -197297.36796 -1463975.0794 -749986.29874 -94413353.011 -80460775.482 
-54961327.605 -20698051.83 -631509.20793 -4869951.1336 5808219.9903 -8226042.6252 119304.63727 907481.7552 -3685422.8826 
410538.6908 -99460.073424 -94458.242358 409714.87893 -265191.02803 58973.944808 35073.267148 -7231.5272711 -25821.021224 
-14976.090697 -71331.605963 -60700.283946 -68970.367104 -55372.527293 -111463.72366 -30519.836014 -868689.63253 10288.710459 
-2993827.6935 273677.5047 -343284.45851 -263096.01882 250988.96769 538752.86604 -299421.45783 108964.15524 34110.689606 
-49260.648958 -45163.728292 -69325.098758 -80274.374568 -90433.812889 -137111.98586 -130233.59158 -104768.94952 -28952.973562 
23989.179847 66812.588062 61935.737311 29910.294739 15192.877442 -11735.233602 -37404.989762 -69346.349678 -96935.937373 
-415344.81723 82099.145329 85384.14953 89691.002417 38235.014383 9392.2005757 -28471.875089 -57869.32487 -123475.75306 
-216636.0169 -237772.41787 -48198762.386 -21842443.651 -8409399.4357 -134273.66506 -7905.3818603 1823.7538853 58820.365542 
9158.0163493 2455.386064 8917.378483 11572.780603 12822.814339 6325.4201112 -15262.22976 -70507061.025 -33954790.962 
-14294597.238 -3824174.1961 148384.82729 18033.826465 62303.158649 61107.824705 34115.490998 17207.944691 15599.315333 
19129.868592 -5166.8491866 2652.2589524 41190.290795 -91500196.779 -72471345.594 -39294280.191 -1638954.2224 321858.19138 
580877.63658 1889828.8681 -97498613.252 -83114566.894 -58539214.546 -21398919.783 -591932.6039 809531.52825 3720611.4055 
-4117089.9389 -99572416.749 64892.582698 143367.23832 6229842.764 4023998.9791 -2399577.8002 -2190907.9707 5494819.8311 
7702941.1868 2175046.3936 29628.356793 -499497.48637 -443856.57501 -2008302.1644 10791828.779 3589592.8242 1067062.6451 
11608295.643 10415220.661 -2933595.5837 -2592239.8634 7574396.9629 9215868.8155 14568.034234 -1324670.6231 714770.71106 
-209867.7459 -1677442.6863 -2568838.3681 -3219465.3632 -3831619.7867 -10856157.848 -6727.1735576 -8617715.5734 -2237519.5757 
1143.5276254 -378.40252285 -2710.276272 -10750395.6 -20981808.251 -6100204.1647 -8411.2965324 10053.858917 -5080287.4595 
-22858303.281 6993.8665347 -2679733.5677 -232604.19844 -4573000.623 -217268.41194 -11492768.063 6129.9932967 15679.580343 
2430.7161229 -592.31173745 -13767875.606 -913945.00727 -701674.76462 -27027.07096 3228.696251 -8898.6669086 -3709825.7266 
-5853726.872 29.512548251 8652.2634181 -6568.634052 -177070.52333 -7212125.6247 -16484.227143 -11756950.88 -29255035.625 
-17578375.458 -30567169.991 -269840.49955 -11055.325186 -2021878.4652 -11654358.325 -920223.65277 7068.9166694 1296.6183777 
-19223464.743 3320.2788773 -4808.2847219 -12919034.887 -8371854.3941 -10106150.318 -7139428.6666 -994405.37699 -1061944.0662 
-2127.4855801 3733.1941252 -1035.9322662 -332401.69861 -2656397.2446 -15418651.916 4623.3584605 792105.15936 -5507830.1971 
674980.39819 -215233.78622 -538.92417909 -2445059.4304 -3275420.1839 -1839119.2508 -26626287.42 -9895.9842789 2921.9017771 
8128.6644029 -578676.31131 -1219178.1204 -23717112.305 5090.9895982 -1944.2444152 -5212.0305546 10836.441406 7796.9811896 
-18980162.798 -3670138.4115 -1681727.1931 -1102575.8052 -17624.085274 -8181.0820872 -7399.7564454 -1718.6035495 -9765.1088878 
-7071788.1742 -4222665.6517 1637.5299372 -1021.0037555 -5875.7586454 -3084676.1612 -7475639.8842 -12291275.628 -3890.0776703 
-1434.6197205 -18727677.445 1339.2718749 -214788.8588 4870.3806059 -12488040.54 311.3876868 15404.918269 3717.6926905 
15824.648153 -6146790.1979 -6498634.012 -13274451.584 -936331.59321 -354165.05233 -11496444.621 -42421944.741 -3038.0172497 
-13860175.334 22033.694392 -7186467.378 -7325647.0201 -4846940.666 -370439.72673 -2804.182674 -542.28364952 757388.38125 
13726.688779 -15600488.688 -4332458.3701 -49928312.626 -28016153.886 -402912.85581 -8443761.2445 19689.120477 -20649738.925 
-1646300.5279 -1315928.576 -15261.814585 5572.1132969 16215.046229 -17629924.085 23.514642687 -3939887.3149 1902.8798626 
91167.636293 -35585678.351 13696.98556 -13904457.341 -92.406373622 -262383.351 -1968900.1796 -8479098.2757 -9368540.1218 
12402.340397 -4987861.3483 -8757691.0147 -624219.10879 -6325013.9225 -160283.19122 -31299025.829 -4639370.3958 -3191964.9926 
-3682.5650238 -32257.678573 22490.767241 -1184536.8042 -7672.3742314 1890.1734267 -4526658.754 -186745.38216 -16502473.294 
-9796.1204017 -3665899.7033 10312.756783 -5341.0595398 -2379.9273764 2508.3585617 -6066021.5908 -18409589.252 -1327274.1079 
-3362636.0659 -18212315.133 -26417162.717 -9896530.2102 -1239289.4543 -258636.02741 3741.5224768 -3856.4520436 -10487465.444 
-695473.46011 -7617334.9467 -38768.78252 -154439.84584 -2551.3288581 -94069.561174 -20794569.28 -786.00519684 16366.131632 
-227005.69631 2628.8548748 -14523.989916 20860.552424 -6892491.396 -749611.11772 -237929.36324 -4598328.5725 -376570.43531 
8141.5158109 -244157.70757 -7046.6505997 -88507.029838 5827.4272068 -19882.032875 -524.99782642 -9909.395442 -48920324.748 
-70070560.504 -66907592.118 -1633888.4897 -9695809.3184 -6657619.4105 -722611.67408 -1520372.0191 1651525.3985 222935.57752 
-971943.36709 -792350.61552 819692.13187 -25971759.997 -37411014.337 -40904462.214 -8676273.8271 -14742202.454 -24562419.428 
-19733600.047 -14635204.002 -1493521.7791 -5312981.0438 -7236721.0932 10403.350165 2718.0450963 -2109778.5054 13724.139282 
-984.64265895 31570.094104 -17652.328182 -1900.8006365 67184.596869 3452.348465 -15317.168633 29004.420279 -13291.473014 
-692.70143626 46250.611357 -8304.1001354 100.50136841 1680.6210159 -6020.6482749 -641.09572029 4622.6692886 -6814.8121123 
-3589.3162386 25511.404689 -15279.230161 -13111.155187 17348.75804 11306.286161 1369.9739923 -26500.206408 -8269.6291593 
532.69495614 16817.272138 -61757717.911 -52275901.593 -47984251.313 -49593156.782 -35282080.718 -40883613.975 -20506449.333 
-9474522.2712 -29894953.281 -26841112.933 -23260222.741 -7699010.6613 -3421003.7959 -15036738.225 528141.27662 -2833346.3161 
-7632075.6887 -1176791.1438 1370623.9593 -3497535.8663 8969348.7336 -27925.850594 -24145.761437 17444.19403 11621.163609 
-41748.031314 -21159.967029 -16531.782232 16972.183035 -5012.4934115 -16412.648443 17635.300978 772.2358261 11081.18843 
-41476.89481 -9770.1912666 20497.722573 -6230.0594188 16168.806714 8717.7693871 17979.581267 26835.743832 29738.283451 
-12698.144868 33432.028515 26397.042385 -22028.140959 -8442.5252503 -38318.687302 4686.6890296 -409032.48495 -1083435.1 
-1158579.0823 -1780459.9742 -3471927.7882 -3284339.2902 -986471.08597 -4924824.8624 -7246597.7292 -877171.45668 -301193.07267 
-5119433.6949 -1728930.8866 -1944184.2421 251209.53244 -12748.520839 156199.37578 -154845.90102 69340.540045 -29741.707993 
-229496.28434 -425563.05306 -242231.26852 -450648.7113 -560466.13762 -77136.243314 -266599.94583 -251556.91743 -571420.34839 
-153765.60222 -104046.69148 -731132.43314 -371221.83838 -962925.49988 -82253.438365 -15434.515419 -251250.06566 -59508.775797 
-18229.342943 -278078.70022 -74128.808138 -272610.54842 -14761.855131 -13005.045987 -240971.44477 -21399.336641 -18624.061186 
-59852.14505 3446.9306261 23154.685019 -50368.563906 2124.2095393 13181.61489 -33124.382113 29095.649335 20096.462049 
-11136.544983 -9181.0095838 -2525.0517262 36135.078263 24652.933192 -8425.5134183 -41430.621594 -11825481.327 -12377985.591 
-10488320.617 -9598495.2167 -9386830.2074 -7722489.1406 -8927662.3181 -9740829.1279 -7859198.3847 -13319524.528 -11637345.343 
-10501222.743 20336.858226 -12984.349395 -590.16438424 15631.28843 -31132.501279 37910.292057 -25582.407614 2743.3188884 
21650.581947 -4339.8141672 -1542.4176401 -18661.701417 5936.1975289 5707.963441 -11065019.432 -10600406.636 -8365745.7402 
-6598865.2274 -6414332.2926 -14405753.289 -12058971.027 -10027722.258 -13465137.811 -2521326.5507 -6677418.8972 -4483045.9216 
-2512985.2255 -8744351.7165 -3107588.1657 -3307278.4411 -2370473.7839 -1798924.5377 -1785096.3905 -1961437.0801 -2430601.8958 
-2792432.5324 -3760522.5763 -1547376.3326 -1378925.4691 -1175207.0836 -1767146.8532 -3251775.7535 -1113182.7894 -21799.00333 
-52454.137566 -2603813.1767 -953236.77912 81118.75268 -508913.26399 -2435.056326 -62945.686046 1678.6927486 30915.30972 
1710.5744315 3320.044149 -10766.743595 2630.9607765 2049.2549048 11335.865443 -29588.337793 -9686.1543989 15846.517545 
-17079.177701 -33.22403913 -5360.0951506 13114.37387 19934.078367 -28015.168387 3335.0668513 6248.6142883 -4853.2910618 
6560.7639654 -7334.66344 9046.4717409 -13447.850435 -6358.1712645 -4523.2713779 2346.4358773 -6895036.5819 -6159027.6707 
-7966029.7341 -6251180.5339 -8003364.2471 -5222521.373 -3031637.7508 -13130790.824 -14138420.71 -7072748.6773 -12161954.16 
-11607891.445 -25793651.733 -24480445.494 -22493747.104 -19120716.469 -20679620.713 -20911741.568 -17925534.462 -18269858.364 
-16666574.193 -24294938.714 -5552980.9145 -6408939.1387 -7266017.4054 -9013662.3993 -7622368.6742 -4530042.5222 -4845412.7363 
-5774417.5562 -6908282.7546 -6553857.0602 -4499329.0098 -4157613.3261 -8519676.963 -3470514.2806 -19619.472955 -16464.506887 
2585.5635644 -2106.8143458 -5521.8952844 1930.8303431 -18315.333263 -5805.2464461 2260.5367162 -13710.399452 14343.819452 
10138.139553 28705.18094 33955.712602 40660.159823 -12963.641302 -14000.904693 -278952.00697 -2140.682717 -176902.25049 
-229235.48219 -11316.730033 -255026.3001 -2592927.7306 -2833597.3596 -5643436.776 -3307609.4367 -1523203.1803 -3660622.98 
-5539448.0203 -6821700.6436 -9129482.8337 -7555220.4832 -8131153.5783 -26874618.311 -24549447.933 -24486143.442 -21956704.463 
-23185043.7 -21104199.94 -20859634.555 -23443203.494 -25164134.787 -18644271.658 -20583139.198 -19678282.086 11850.870381 
-12276.371328 6427.5361703 8128.6274987 -3187.2747089 -18268.572794 -22403.534366 -17947.178302 87.744865649 5131.1610679 
-16000.989067 -2632538.5663 -2353247.1593 -3000972.8374 -3559272.0017 -3881032.3233 -2304742.6791 -3181027.6159 -1894854.5852 
-1943346.6737 -1275256.9605 -1643251.9109 -4067786.1299 -2198195.5418 -885802.21636 -1325133.4988 -832848.6267 5879.9699672 
-70431.988228 27385.778189 -2112.5166086 -157860.91355 14382.482471 -747442.89121 -3189791.3992 -3420976.8494 -4437453.0926 
-4211759.1766 -5246415.6976 -4909331.3296 -5552337.4396 -5870727.7168 -6643483.5525 -923773.71977 -2208767.711 -5960819.4958 
-558650.91123 -211748.65014 706951.22825 687807.92454 -497707.76234 -3098322.4055 -210082.25256 -8344051.0803 -10172161.695 
-11722407.172 -9593296.929 -2871195.4502 -6136023.1688 -882736.6072 -6189555.4713 -11535632.611 -14412168.378 -14432821.919 
-14172963.574 7600.587725 3643.935189 5354.5428285 3985.9327058 -14501.373434 5873.6350919 2172.8621688 634.67148828 
6938.4986797 -2960.0145536 15207.320931 -415.56854209 26557.306244 12542.532377 -41378.278408 -18352.778297 47032.70747 
-31376.448067 13950.271661 8573.8550005 -34479.36433 -6286.3150734 15787.600505 4422.8208238 208.8310858 -3631.2886977 
14155.064617 -15296.944881 -4213.4579084 9226.9478487 -13025.348927 16530.159264 -12666.616542 -15104.498604 7719.2242601 
8535.7962013 -1511.6337267 22948.039795 -30490.19337 10569.352482 2081.451646 13575.229643 12386.669958 -6729.1132409 
-13547379.825 -11082607.806 -11536557.711 -13843702.353 -11913780.754 -9853444.4443 -16286524.564 -16150312.56 -16044571.114 
-15744026.815 -112050.07277 -980651.46247 -2763503.5565 -2671431.8597 -509166.42245 269118.17237 -2591046.2581 -4762740.0881 
-1295178.9464 -1096354.2923 -794079.44765 -507484.68168 -563718.55769 -549633.9665 -215928.94944 -352523.03404 -357250.03242 
-878593.85092 -636502.89321 13184.90342 -30800.274695 4680.5522334 -3964.8849138 -41875.278914 8760.5381971 1463.0481241 
-10416.913136 -23473.193307 -3263.2668271 25577.923452 15617.575092 -12864.610895 -35996.598244 12522.171449 5692.5761027 
8467.4638085 42440.839724 1540.9098554 40623.335476 806.74624546 -7711.8854251 -43538.306994 -19843.276229 -14657.557355 
23015.086751 1032.1312701 -2369402.6053 -6283179.8578 2122960.7586 -1190944.726 -11317506.932 -12501239.716 -6222825.1036 
-2974153.4821 -980651.97564 -5060676.6468 -4437333.8547 -5200800.2762 -6499650.0876 -7119822.4916 -6380787.443 -7668022.5304 
-5701761.5982 -5403.4949116 834.71298265 7777.5863624 -8228.6303838 -1243.6601907 6321.6690457 8263.9916494 3317.4709845 
4652.1554478 -15730.701741 -1410.3803864 12.495176265 -10171.658447 4891.6695279 5276.2214152 6484.1081078 -15789.535264 
4912.0032359 -10549.581326 17002.891578 2127.3655438 -1428569.4291 -1902549.0704 1204539.7085 -1969947.1824 -58028.731184 
874597.29754 -2779731.1226 -2404260.4621 6512759.3719 -5396337.6266 -4927308.6917 -7853891.2936 -6602744.3986 -10565879.041 
-9776674.0817 -8038593.2282 -7509489.5103 -9358.7963985 2576.7955976 6321.692028 31381.177725 -4234.2221964 36618.683248 
-16322825.203 -19949243.63 -14916123.207 -11150364.723 -13833546.124 -10810133.386 -12718857.812 -5374268.8071 -9006713.1682 
-7953103.013 -24789475.241 -23981775.053 -30698775.946 -38685489.238 -35111350.627 -29171822.74 -34065069.239 -18134279.108 
-20463381.536 -17765686.54 -15587693.179 -15122171.811 -14666687.122 -33248637.849 -28613553.705 -28209418.615 -29289587.272 
-26799551.142 -35229129.244 7523.1692587 -14549.203474 3180.2610619 -178093.92157 -209296.76078 -747096.03643 -707276.17439 
-699980.86569 29896.028183 8046.8425928 -20173.737224 -13216.907564 -15846.440488 -5629.9475604 -2815256.9487 -1619817.0963 
-1276830.8336 -1884331.2485 -2651887.6457 -1328444.2184 -10097743.34 -8530039.6252 -7230146.2636 -12128664.88 -10766064.465 
-1342882.3436 -1820204.0759 -554704.71258 -788015.30657 -1130452.3975 -617781.55279 -20751.371942 46464.58331 -20256.59867 
-19217513.83 -22615454.256 -19940849.511 -17762862.9 -15947557.093 -18767292.281 -19277.726287 23857.677389 17723.010035 
-10877.218488 -114896.98947 -166834.15396 798.16142124 -15238278.318 -12739584.111 -10712144.261 -14199183.186 -11392814.534 
-8422456.9616 -8786920.0632 -7214369.6419 -1994107.5168 -5225.5480917 5905.8838379 -8490.3558853 -3257.7055702 -6310.3972126 
2232.9128124 -16919924.847 -15877280.266 -18052894.522 -5018330.6339 -6243503.3632 -1253502.0992 -9631.2528998 -969052.56079 
-3601392.3942 743593.94867 292788.62195 -394150.08367 -234990.80278 -105783.8543 -271903.62267 59173.92437 19615.800184 
-15678.594852 -57212.194477 -22337.790696 -18625.992188 -58559.598258 -123220.55491 -92436.83249 -78132.543944 -1126324.1752 
-1137124.5139 -1387515.1871 -794119.10805 -26215.230896 -27666.855111 -8656.4577619 -8762.3280519 -1280603.811 -461470.20693 
-363950.32111 249985.23723 -2454893.5439 288034.21922 -330197.11031 -120275.00371 -106280.03435 -800889.97311 642049.56915 
-5916629.9933 -527917.68064 -691792.63571 -429637.48731 -619211.34662 265486.54008 -85055.360667 164833.76721 -248706.31893 
-383099.17276 -256267.04554 -447936.02743 -186222.54687 209123.63106 -190791.79271 -250908.70458 24053.720432 -41189.236125 
155552.44196 -189314.31801 197869.32522 194143.27959 262604.32115 -51081.852962 -415038.23852 155259.4159 -27421.200461 
-324115.75439 28390.87281 90014.282707 -139855.90765 73998.201833 116962.77417 21362.6838 24438.435813 66040.950973 
-26433.357449 50831.239654 2697.0015919 -56572.655763 9560.242753 -23333.859386 -55860.809369 -61354.769955 -81076.539402 
-7290.3112482 -13278.31548 -68516.334397 -35860.554131 -45895.961238 -70857.068141 -44801.08283 -42773.706187 -14388.185805 
-65611.465044 -54258.465196 -53007.813134 -87757.839869 -59937.506328 -98567.956788 -42458.815971 -59434.518243 -98033.922808 
-121072.44768 -155323.79845 -47042.74185 -62820.653358 -152610.91317 -95303.460271 -124090.14363 -69306.430282 -95793.379283 
-92584.377621 -39938.029157 -95457.851835 -72528.749819 -84622.915787 -147417.78221 -46718.144635 -49664.413892 -10652738.782 
-4043.6528756 -8586183.4762 -2141889.6574 -25550.179096 3438.6419744 2274.1672994 -12769300.496 -20845336.466 -5920675.2772 
5192.3835059 -5831.1188916 -5059305.2473 -22381080.166 -3420.6875597 -2606463.1534 -214139.42067 -4493039.4517 -2545539.3993 
-11420834.379 7369.3930562 -22982.397287 9764.553864 -6338.2423502 -13685649.333 -2878272.8513 -640261.82729 12068.815797 
-16578.621488 -2467.7609298 -2951707.7629 -5680246.3811 -3739.0856452 -6858.693109 -2811.3950939 -1127845.1363 -7086088.3971 
-18716.159264 -11704470.838 -30483304.07 -17418596.968 -29922180.361 -223006.63054 3625.7353705 -2034927.8185 -8636110.5297 
-818794.77161 3239.0461853 23392.106292 -17866151.808 -10002.297292 18764.740542 -12768881.331 -8237746.8035 -9846416.6916 
-10852643.161 -1910278.1266 -4210465.0563 -2507.085953 -2151.6608979 -1960.8792243 -441745.16604 -2527165.7996 -15028727.034 
7601.9394174 330302.33794 -5304703.6719 -3140410.7972 -115408.7039 14560.64731 -2374472.3791 -3248514.345 -1723050.4387 
-25831590.139 11139.879995 -15576.309223 4695.3693431 -2413392.2151 -1219091.5603 -23262987.014 -2398.5956988 -6042.0384802 
690.23426951 -15716.117824 3160.2401706 -19399788.748 -3606775.1333 -1649441.7097 -980602.95534 3097.7438229 20479.288292 
5271.5845996 4096.0786923 1210.5451115 -7035524.6284 -4106727.3153 1314.8908962 -559.79640786 9723.1453565 -1002121.5465 
-7046201.4132 -11770817.006 -5167.0301989 2147.5154892 -18370788.377 10206.278799 -880554.76927 -2576.8509329 -12411458.166 
-4531.2206195 26334.033638 -9028.6202839 7810.6201897 -11179115.614 -11872809.921 -12948875.661 -1743342.6694 -334832.10029 
-11534397.967 -43001027.583 -6197.8600618 -13610747.898 -11293.786273 -17220353.329 -5658516.8491 -5322152.8847 -362488.56804 
-13702.396603 1264.1718526 6040209.9112 -49396.394737 -15477294.365 -4489918.4349 -51703076.621 -27785659.682 -354172.57753 
-8344739.3917 -27577.40205 -20419936.038 -10674142.181 -1241505.7673 -2337.2571626 28033.689281 23548.953262 -17074698.098 
-9323.3663366 3694007.5186 -2678.6280662 -2909938.4712 -36648693.999 -2136.3934138 -10593222.423 -1182.3627771 -289336.36549 
-1926669.8715 -8433166.0181 -9175595.212 -7283.5764036 -6876887.5729 -8581743.422 -1031521.1619 -6263940.3492 -102430.24124 
-32278667.13 -4998952.3078 -3384983.9338 -1687.8037564 -13068.534534 21224.113372 -1198363.0177 9013.8200671 -55.314392146 
-4492245.2779 -119144.85862 -15911064.936 4742.7328999 -3564084.3941 -12011.186086 -6425.4848546 8976.6605933 11454.509231 
-6014354.2542 -18032676.218 -1305873.8069 -985085.55783 -16753515.822 -25784881.846 -9823697.542 -2460408.3944 -450889.43791 
-3001.7419239 180.49677019 -10720210.271 -683747.02424 -7518627.8187 -36590.631838 -82695.693457 -5284.6660686 2756.8071774 
-19985653.774 -3013.4446648 16577.976897 -244367.77186 -509.8544808 -11349.712502 18537.739216 -6777193.7627 416514.53716 
-2583947.3775 562522.13239 2303764.1658 1985431.4507 3521435.5035 -88560.916128 25243.9439 2492.4387663 -1720.3573978 
19169.872183 -7234.8770046 -69836229.824 -72576228.359 -50359601.794 -54025851.513 -63340330.654 -49581689.393 -36732310.288 
-51995324.789 -40951429.563 -8830459.9842 -21395134.959 -26663935.088 -29938007.893 -22429341.413 -2189573.2101 -6896193.7472 
-13901717.51 2342808.8719 741180.83503 -7331614.2505 -8693055.4234 -10866251.383 -1294098.4253 -4692498.0838 -428.49092286 
-10393.606644 30692.728085 4583.5129638 -25067.217434 -28768.112239 -15389.476618 -11208.837945 6650.7781929 2515.2321755 
25089.251548 31270.658725 -5235.4790021 -28412.170375 42782.829972 -9614.7343436 -19526.272225 12418.869932 -7001.3938086 
46971.92307 15737.543818 21536.951787 -13468.918356 -10055.309899 5010.7331957 -25502.519565 -49554.02256 3831.2296098 
-17836.2546 1124372.9029 4369539.0995 -4940712.5432 -4332929.7994 -1657357.9294 1849290.1413 -4966849.3944 -1806064.1049 
-2237164.2177 -1221807.2339 -1028097.4584 173660.0285 -1586176.6736 -5655796.9119 -3436184.4957 -4165612.6217 -663166.155 
-92180.287383 -4565359.2645 -262453.25212 387006.53389 1474467.7984 -1745118.7211 -864932.56753 -385492.60818 -116406.60233 
-385666.30298 -233830.6168 -220299.44507 136921.47379 -730332.76694 -752856.64702 -1030377.1304 -1547548.3278 -1309880.7371 
-252036.02252 -232060.94731 -262140.75373 -732441.47858 -92411.073483 -131948.33159 -375743.75424 -692062.36298 -953071.8605 
-23820.762503 -79377.440666 -266680.67561 -10093.053231 -38137.180047 -61730.874207 -210386.05948 -278994.16391 -11394.275533 
13889.311225 -184846.81522 -11467.272987 -12495.053823 -31322.700414 29481.346299 -2211.4638544 -4295.4511079 35015.864064 
2903.1298728 -21282.897221 -7139.9587084 40221.264961 -19553.690247 -6826.1675775 -3249.0975055 -994.47754277 -17567.82022 
-4514.7117047 -45268.053302 -38810672.945 -27049283.12 -41409802.856 -15310350.375 -9201007.2653 -20480316.725 -25059989.938 
-15028317.825 -5780552.0493 -1883531.1303 -7511091.0797 -17643.458275 -13134.170307 -2289850.3054 -42121.428806 -19006.468931 
26859.6858 -8392.9541103 4227.4501975 18558.048004 -35293.808155 -22960.765655 37749.240025 -7856.0776948 -5407.6089089 
21259.38771 -10845.921886 -11748.020743 144.60379042 -3040.1917255 -12725.164974 9836.4707882 -5137.4447165 -11145.112224 
17222.92624 -19731.878925 -6188.0513978 12001.12713 4816.0809638 -4826.6910736 -1713.690916 -35727.626395 3383.3684476 
14785.971179 -10297671.249 -12225026.077 -11592276.931 -9130891.2057 -9438464.3262 -8817592.3095 -7664349.52 -7756634.3723 
-9487411.5593 -11498124.251 -13101532.656 -10344841.116 20460.888549 -52960.079011 -10563.369 -38703.525729 25115.451844 
7166.7614004 -19520.307917 -15845.86244 4514.7318195 13885.643995 -22839.310506 5400.9321038 12429.764876 -15272.449991 
-8499400.2369 -10404208.51 -10807517.744 -6594136.1364 -6711935.8588 -11823242.312 -14085825.407 -13155353.882 -9919224.8934 
-5476396.8949 -7373428.0395 -4682089.5379 -3636984.9905 -9320307.1337 -2307449.5411 -3232085.1481 -3024117.8661 -1687296.5584 
-1725800.0517 -2684013.7604 -2365607.8374 -1904580.6279 -3729899.3647 -1327640.0285 -1513330.1863 -1128899.5073 -1074032.448 
-3148807.3041 -1799623.8303 -35804.146389 -23310.020505 -928416.73038 -2535961.8826 -485450.84374 11358.585909 -67452.940309 
-5646.1488588 -2916.1255149 656.72768629 -20537.741457 4065.9168169 -6845.2461589 13725.97299 24183.981521 -12529.530955 
-20061.605056 -32850.429055 22970.137238 -24707.0574 -291.02945398 11469.933058 12061.959309 7692.4787273 -5856.5261349 
14005.747545 -1637.061038 -2347.3202481 931.22629511 -8426.2663939 11471.654254 -7317.8421353 -20613.637297 -8563.7935155 
-3907.8589262 -13218088.458 -10174312.524 -12165715.198 -12017232.724 -11560253.955 -11422478.596 -10612348.817 -11929380.518 
-12501761.446 -10933210.049 -9082291.2051 -6242330.9795 -22141446.59 -24209049.044 -25428412.821 -20242376.604 -18801488.988 
-18218595.858 -17877664.249 -20853238.493 -16385562.344 -23888019.636 -7026683.2345 -6421016.419 -5530326.9501 -7435745.5321 
-8740024.2016 -5591484.0507 -4734502.9612 -4438665.0008 -6379358.5613 -6753590.782 -4423728.6593 -4466423.6736 -8409601.5629 
-3451600.7398 8976.2959119 -16300.999537 -9918.260548 -10945.901756 8326.7925397 1098.4226241 -17059.173743 15019.373603 
-26471.423303 12839.201476 1829.735582 8251.5214945 -5371.5839221 14029.844833 14004.09707 -20758.252909 1020.4664012 
-107001.40437 -1582.9736293 -244752.02293 -158680.36181 -13332.068562 -2840381.4848 -2658783.6419 -343428.27825 -3355205.4795 
-5687248.2848 -3640393.4899 -1507254.6704 -6804387.1462 -5461545.3127 -7491887.7689 -9085523.0267 -8061023.9115 -23588579.976 
-24013282.84 -26309990.771 -22062693.28 -21375288.021 -22932268.857 -20388785.928 -20690012.415 -24580265.425 -19947533.174 
-18223524.218 -19020940.776 -2554.8558598 -36416.700968 -4987.7299742 -682.82804679 10850.827467 12454.783834 -5325.3793871 
10802.288121 693.70588383 -18919.587565 8873.1800117 -2875530.0813 -2293561.4612 -2529408.4383 -3887511.0278 -3453353.5267 
-1881200.0136 -3041129.189 -2267544.0567 -1232879.5493 -1926929.9406 -1616571.8213 -4022595.6132 -1301850.2075 -793756.20093 
-2100912.2696 -774352.51068 -2393.5811483 48808.891152 -33313.986806 -130349.65024 -22585.065315 8093.9936795 -704908.54386 
-3299749.9456 -3131265.383 -4330743.4418 -4151266.9975 -4707859.2859 -5194207.5911 -5732998.2482 -5416367.3767 -6548433.2538 
-6167475.0872 -6279824.7563 -3636308.8205 -8264610.4156 -791396.53932 -253265.86912 -1208868.6752 -918111.02904 -2013946.3766 
-6432097.7952 -11172995.257 -10726400.421 -10613844.561 -11652432.445 -8329063.3066 -6835314.5265 -6160686.6899 -3740625.3966 
-10783315.036 -13750534.555 -13631979.989 -13642578.933 2675.4255148 -11137.319115 15361.562125 5696.6421635 3444.9734411 
10734.190375 -31942.274755 10189.746048 604.01427733 -1837.4151813 31934.017377 -10422.665739 -27596.383657 36059.31553 
1775.7362734 -9764.889903 -5827.8005357 1510.9131268 -27908.501133 -36443.320418 -3214.4422321 -7921.7567352 16140.737706 
14249.724093 8804.1309517 6524.375465 310.1342727 23409.863445 -6449.6723382 -5128.20837 -1652.2587162 32837.784693 
-6651.6753191 17705.764544 -40432.259388 -9161.9498651 15835.642316 21114.953258 -34536.415401 -13550.564616 11681.986464 
21059.916323 -16797.531166 13979.715163 -10949974.634 -13229911.988 -11284651.445 -11795927.901 -13573877.868 -9538850.5151 
-15815626.101 -15979032.079 -15781211.114 -15451423.996 -2052940.5165 -1738317.4927 -3532928.3388 -3915698.8658 -970652.94772 
-3043046.6499 -3680318.7825 -5168004.3311 -720742.36556 -1000625.4512 -1222868.0475 -540081.36501 -507607.28557 -283157.17094 
-138698.20148 -524478.12498 -296172.7214 -780036.57597 -552976.12496 6104.655747 -2858.463723 41417.147389 3903.7068467 
-28751.699648 49759.801289 6070.5874925 12963.322763 -12511.881739 -7123.207355 15540.666573 -1137.8424641 -15156.588544 
-1398.9867088 -42054.045786 7227.1824732 -11249.577456 48389.783397 13915.53283 -22904.270014 -21519.733865 20654.494997 
-2853.2655325 -15375.405327 -13707.757425 10600.071703 -20059.14665 771619.53764 -6600955.8624 -2112322.1298 -646366.05702 
-4607306.2712 -7731277.3335 -5428941.7235 -2256618.9897 -1832244.2735 -4373569.1496 -4864919.8484 -5074678.751 -6374346.9028 
-6976437.8877 -7586431.1693 -6203963.2277 -5564383.7864 9026.9071302 -5567.1216845 20456.228501 -23740.742997 2575.3036388 
8731.6247169 -7540.6264279 3829.4053047 8721.7858175 -5770.4781829 -551.31478983 -13917.144386 -20024.965779 5808.9676429 
-11709.622949 12368.953047 7172.1843949 -9019.0674368 -8487.5499258 -2913.3551283 19279.48505 -9063050.2329 -5228227.4989 
-17748688.148 -7670436.1151 -10556398.54 -7712293.442 -928520.07989 -2763334.4213 8981437.7899 -4825148.5826 -5289301.1691 
-7718661.3897 -6511118.8342 -9724912.2618 -10424210.659 -7901571.6053 -7420049.8376 4341.7195888 25909.503891 -41128.936784 
15919.378572 34383.323971 206.63028963 -15278442.862 -20165136.115 -16068207.673 -11381225.149 -13748942.268 -12684705.685 
-10761212.595 -8206871.9928 -8946657.7403 -5461995.2865 -24549963.975 -24963779.608 -31775038.196 -36042283.471 -40229558.509 
-34428603.545 -29107703.41 -20100139.192 -17775760.045 -17420834.673 -15441335.081 -14945961.466 -14538613.429 -28430078.06 
-33139830.056 -27808520.021 -26576734.235 -28882478.711 -35336590.262 -16986.998994 16365.032333 -123218.50304 28200.628261 
-154421.15173 -607329.14774 -711472.44682 -560539.25247 35744.078498 19835.097958 1402.2086772 -7233.0919572 -25000.278016 
32204.003515 -1652756.6375 -2767201.5583 -1309765.7827 -1600303.9159 -2715959.9523 -2291435.4993 -4463834.7348 -10928353.962 
-3840299.2371 -8132607.5693 -10400696.243 -1775369.1784 -1306829.5987 -463893.1294 -553610.02654 -1104193.8653 -787084.05353 
-27797.92013 -19546.348374 63724.990271 -21349345.696 -18081574.097 -18979262.726 -14847950.398 -16804554.968 -17950954.129 
1688.9530866 -29986.275209 6974.9957094 -25232.997329 5881.547189 51833.550303 -64612.028034 -12637286.583 -14956529.397 
-10557671.943 -14004602.75 -11316081.709 -8296794.0308 -8603006.4464 -7145910.1237 -2558628.034 -3598.5934886 109.49760379 
-22867.554954 -5292.4527962 -2177.032496 -10188.294181 -16502019.98 -15410676.232 -17404482.775 -4927990.6646 -6042571.0709 
-21622337.428 -731147.80009 -57940527.145 -81364135.236 -95914867.734 781648.06346 -4221736.9422 -2295458.4002 -3724133.4908 
-4854985.0598 2987845.4531 3730465.5471 -96211852.575 -98109829.192 -94121885.079 -95244143.118 -86337564.167 -76630279.084 
-90319377.797 -49619310.298 -66463787.526 -71708000.325 -11984901.501 -30579223.945 -38881570.457 -352437.22102 -471523.21647 
-2083634.7915 321671.71227 5566920.8863 -1376171.5536 -4067267.7369 -153848.31052 -1181572.1932 -2466645.0571 -76692380.72 
-84613532.722 -64173503.989 -48181981.724 -29190525.401 -11869860.611 -948069.30348 -1328634.3312 -3468211.0839 242295.70388 
-4186848.4226 -2489520.9886 42625.089079 30596.851073 18657.359251 26861.461545 -15414.029496 -37467.168143 -24745.998022 
-201630.99548 -4829.7624276 -96386.726477 -98130.246491 -90483.05915 -348562.08209 52272.106793 24427.960613 41577.473466 
-361225.33052 81469.589054 111477.30848 27765.597864 46883.65069 12997.036505 23281.141985 26708.288084 68881.223599 
60603.753511 10879.598296 22812.886065 38421.252482 33316.062185 60252.391635 41903.763042 -30412.981351 -15817.172005 
27689.874698 19172.614207 665.15561346 -21578.301245 -18722.30928 3093.9134152 4746.3765617 -5806.8106111 -66368.310609 
-36273.569467 -10414.325645 -30650.986271 -36038.102525 -55430.271604 -55950.711737 -40054.268257 -68495.919127 -24279.014371 
-238705.93171 -146680.23964 -10583.971881 -85185.294546 -94423.205944 -435996.17512 -213022.57399 -67566852.952 -32307763.775 
-13780539.406 -3506756.056 -21285.322512 27576.073936 -12974.929364 -6226.3681619 -14497.624228 -4478.1581887 -5496.3796268 
-5408.5976983 -4795.9369335 -992.37283434 -5451.8752595 5652.2809454 21549.172043 36650.475075 -81884375.434 -79918373.117 
-57141823.371 16153.289759 -58781510.118 -38287806.919 -27305616.973 -47903419.114 -39473329.075 -16927771.621 -10754394.213 
-22013365.297 -27639450.277 -17486826.186 -5420420.7011 -1536713.9394 -8259445.0499 -11224175.3 -5860289.215 -53550.157959 
20684.865221 -10555.089526 -1842262.7388 22546.685354 68223.301416 59914.751255 30227.719543 -17972.15319 17225.294298 
13420.071289 20406.357291 44757.326053 17409.872254 -19121.73134 -25038.197833 81992.708303 17540.46969 102433.71159 
16177.763966 -743.90760266 -5014.1743051 23412.575206 46324.386794 -8891.7603637 30770.88713 -7738.5443503 13125.621175 
-5859.4598581 21278.832163 16181.674875 -7158.4388671 7031.8721064 -7079.0799117 24587.400111 24884.877511 -371.980789 
11334.93878 -5214.2193513 36069.20848 125.93593351 -13167.964076 19133.125597 7643.125371 7193.1189392 22174.427215 
-24612.214257 11831.661221 -12071.552054 44118.93112 16906.84988 -49732.833689 -13461455.473 -19915358.948 6194.7518869 
8416.8550869 -2936.0212598 -10452.591098 -23333562.856 -2870.3224199 4667.2820566 -11198987.497 -10228875.204 -1456659.5315 
-19174696.398 -13584.671216 6987.2345581 10381.24107 10333.201307 -70.819004235 -464.42371599 -9053.1369504 -23049.76722 
30453.078964 8462.2601018 14898.873487 -3088.2144477 114.73749538 -1407.032864 5389.3449535 -8179.5285322 -9218216.7514 
-9275188.1536 -12194726.788 -9250710.126 -12135197.234 1152.388905 -11682.521369 -18384995.033 -18499274.804 -19087405.608 
-19353788.82 -19254003.587 21381.238436 17469.706487 -23671.31143 -4482.7548359 22330.74786 -18190160.988 -18871007.125 
-22546956.746 -16732300.703 -24772221.177 -21943922.845 -32053721.403 19609.040901 3256.8335609 -9214983.4476 -9760846.4171 
-27213857.767 -32297091.765 -31934331.758 -736625.40465 -67763.888838 -411338.3555 -97048.363078 -398802.1677 -622688.82456 
-293511.04783 -480568.66828 -1291354.2135 -440946.39973 -16417016.414 -19195510.271 16600.922684 20149.611282 32951.88542 
4907.3706604 -38136.289738 13124.491785 27675.172877 -24776.225867 -647.62900727 -12336.761017 3753.8802389 -1893.3431018 
5215.5821082 5936.4465282 14143.003822 3060.4898587 -18702.278013 4171.9718314 -5007.0980526 7848.9200637 3511.5020173 
16595.093548 -10177.199914 -1019090.3386 966499.74381 2962242.1774 2837961.1762 -5202680.4201 8175.5361535 12697.463564 
24369.869398 -32896.316251 -12562.858334 17269.184318 -8035.558409 -8208.5142046 3465.8290938 2991.1361104 -26319313.872 
-27959450.458 -25961523.869 -709074.88164 -791780.02684 -121025.90833 -118967.77579 -19389.619401 -14867.689171 -37672.801588 
-5131.5482372 -11812.582995 8289.6600637 8406.9781586 -14297.415755 -1068.8040042 724.49779032 -85972.642722 -44171.652904 
-331063.01902 -73192.33677 -74859.444639 -39770.70756 -5220.1918752 -42383393.514 -40645819.419 4707577.5237 5797951.3756 
-6027326.8202 -189014.69823 -391258.2407 -72354.287516 -11827.070388 260.43706094 -16363.935671 -9351.6460866 13092.324875 
-8891200.8877 -10760979.239 -8107014.5143 -6283364.7797 -24157379.68 -10626.054798 15828.106874 -2033.5525874 -35352.678766 
-283070.1633 306061.92265 -122637.46514 -166930.85193 -102515.74671 -111812.19209 18621.880149 18406.189346 -5173.6513692 
-13006.194023 27721.804966 -8656.2550998 6815.1734757 12282.106942 -179558.74952 -1113068.6735 -1585195.7596 -1789308.3605 
-1945698.3731 -2548681.5689 -2312852.4057 5140.1728565 2196.2614422 -2212.2237792 38852.543129 -30301.915066 -409908.81404 
-1225827.6111 -13841817.5 -17824716.847 -15546431.619 -20492556.469 -16083940.14 -3348969.7938 -2860178.1195 -5621706.2734 
-3209900.0769 -3841086.1547 -6834310.3969 -4265774.992 -1192321.4883 -1524740.7391 -1904886.0385 -4243667.0076 -2127901.3722 
-238686.85541 -19300.96283 -8639532.254 -7543415.0689 -7174176.7724 17539.671669 5348.7799693 -5364.5678615 -5168.0589934 
-3942.9294765 -839720.03777 -1255212.4243 -1951510.2118 -78488.743962 -1029875.9064 -9066.6480212 -3323.8643509 1062.757671 
-800540.57222 -1063837.6208 -1293332.8271 -7983.636487 -9711.196035 6920.742114 1851.8680047 -45525285.103 -49861526.279 
-36164511.28 -43668454.122 -13502.951548 -32701.927295 -15211.075164 -20208795.414 -12675303.984 -37636619.223 -31646921.577 
-8111079.4778 -5527236.9901 -2741.1100615 -11649.050292 -4092.6710654 10041.044438 -6928.0409667 5587.5139088 13173.846282 
-3453.0206818 34788.31535 -28718.281647 154.70063395 14691.67194 575.46740685 11188.786726 -1289.0864409 -27721.832792 
-15311.332983 -53254.680677 -16062.367673 -3252.0789318 -15288.755757 -10394.761179 -25534.566074 -1634786.6903 -1312304.8999 
6921.1067952 -17291.08294 9935.8446554 3513.1830136 -6410508.2677 -6770045.647 -1317566.5085 -1877010.2428 21408.297417 
4062.5590348 7974.100793 -6046940.0284 -4841165.7282 -4131921.4352 -5169744.9056 -11692908.479 -6833.2385773 -14215.921664 
-542.26669301 -3985.8885794 -16737.091484 -5762.1172965 -19817.727417 -41894.664295 4481.0644569 -25572.756927 16603.886627 
-6382.5836079 -1068.6350405 -924.96006933 4339.9782233 -10070800.33 -11153660.254 -8374578.0927 -2354.644222 -29931621.451 
-48807.045793 -140128.30038 -282429.39563 414.69822543 4788.1894957 -4887.9438269 -8477.6603201 -23701.112955 10476.415048 
-14514.32768 25920.399604 -8447268.3502 -2299.2206036 -12443.607776 531.01609135 4871.4034997 6746.9667402 -9837060.8985 
1187698.456 352947.82184 814058.48885 25970.390545 -9486336.6412 -8382524.0999 -7709704.9659 -148999.27703 -268963.17187 
-4478010.9539 -2246310.3716 -38471.498787 -11485.264508 8155.6819848 -1337.8974082 -6472.9569352 -15054553.57 -19171.476819 
-37978.144352 -1280872.7381 -31326.499263 14603.72619 -48691.933341 -40318276.368 811.78579746 22902.289754 -3647.3302553 
-1128.600818 170.89104912 3368.2187424 -4728256.0003 -14815.942811 6182.0476924 -9281.2312931 -31308.493109 28307.338628 
14616.463458 -14317.368059 -8656.8143574 -29878198.098 -39356721.327 -48970816.043 -36002422.382 -51439.67 -23962.539682 
-14013.441205 -33056754.021 -24516037.209 -26574857.238 -24896568.777 1040.5147055 -23374.78889 5901719.8135 -30358209.316 
-28649643.637 -17435.542528 290.85963758 -4144.6615841 20259.793629 -9315865.4814 -10580317.655 -7018634.0616 -6192237.1498 
-3907144.2745 -5123983.7382 -4501943.48 -24455.984836 -9009.9065537 -170040.40584 -9583.9595903 -23190370.65 -314208.56094 
-331843.34325 -1546444.0354 -1664.6924226 -1131.2614119 -9234.304604 -555.57446202 -7015.0222167 5761.7087545 4565.118191 
-1036.6138509 -15687.688811 -4087.5009535 -1792.2878424 7822.802251 9670.2839918 -1633.4442014 13345.733249 1998.8495804 
-2649679.3317 -2970562.0103 -1471.8922098 -6352.0555893 1746.5568162 20811.100003 -3618813.1067 -2513857.2928 -1799052.532 
-926435.96902 -7891707.1259 -2903912.9216 -3314934.9353 -2138302.3668 -3174139.2855 -4507148.7415 -9172170.9424 -3438993.1901 
-629563.16401 17066.165048 -16445.392003 -179649.13444 442633.85447 -18459.832834 -6981550.734 -22476885.087 -24102321.164 
-22347819.352 -20933160.971 -21221885.171 19439.215505 3544.5216648 3266.7226528 -780085.566 -5244881.5273 -3186222.2189 
5466.6489907 -1214126.3876 -5282229.1441 -5788731.4605 -8071449.439 -9803982.1113 -3806.7624934 295.51189915 -7102768.7422 
-3533769.3837 -45925.245679 -287380.90312 -24383269.242 -24736270.859 -2728266.1305 -3739147.4701 -3281016.2325 -61501.70077 
-262023.32123 6214.6964693 16634.929695 -289689.48548 -13204338.174 -11861995.567 -15198215.541 -27965.247478 -11264.920912 
-4728.6520355 -3557.983195 -1219.0774142 -1912.7938209 21741.443623 19841.045331 5400180.8729 7600152.0169 -26037459.906 
-5075557.8077 -6887735.2523 -3039474.2073 -4898315.5314 -3084666.576 26549.384661 -19370.064989 12164.48078 -2321438.1555 
-1653710.591 -42024507.003 -51068485.242 -5201.3089262 5792.8008883 -32.138398232 -6834540.6183 -8284355.2021 -2412224.207 
-43256759.213 -16071346.595 -13973535.334 -14156213.376 -55263.950778 -235356.33108 6876.7755092 11025.79666 11633.094872 
-9765.6149111 11721.113284 2861.5621746 -6529099.3828 19257.9832 427.43634235 -14526.807562 -2849.647736 -5614.1239835 
-4019.4178859 -11119.772649 -7924.4636172 4075.9989498 -2310835.5311 -3315328.846 -3011.501872 -1415.2953997 2024.5627348 
5946.9807968 -37184.818079 -10344.15259 -8518.6479074 2761.8474992 -7938.557303 -11503764.561 -10011219.816 -10610863.062 
-11056598.356 -4383.1233538 10636.064066 -3009040.3699 -2178629.9056 -4167848.832 -679273.41373 -2056711.1378 -1862335.5758 
-7723.8232826 21711.790455 2330320.3078 -6601276.5164 -7423469.7739 -4629.2609575 15450.827997 -3659.623396 -7164.6020653 
-6236.4669425 -5424.4045493 7726.3478522 10808.866814 -36160.304574 -5798802.5455 -8010671.7571 -10361699.532 -8677846.4892 
-59361580.923 -50655940.308 -9652260.2397 -7769508.1165 9759.7369702 22480.988111 -2843.7989872 -14111.240809 -8866425.7436 
-9253032.3819 -11289702.925 -145885.1634 -253380.36112 -2784510.0769 4503770.0145 2492170.4084 -17281.691364 14261.791385 
-12039.456062 10461.124358 -1781349.1029 -62094.939667 10073.905271 -18324250.338 -22061991.721 -18348219.156 -19022143.533 
-11125.433454 10801.865046 3540.8023658 16433.421768 -11324.101312 8726.6931076 -5495.5408391 2417.5910901 -2718.5204428 
-9872.8962328 -2502748.1744 30621.893341 10235.048432 -1786.437648 -8299.7871078 -1345354.2279 -8438557.786 -4889373.2195 
12420.088173 -2783154.9259 -2265280.1659 -1621843.3912 -2037915.2108 3128.9455167 -4716.4448156 -8341.979041 -7153464.3089 
-7450191.6518 -60.389964934 6898.2662504 8996.7822803 -507761.88304 -511591.86978 -16243.925542 7936.3494972 7123.6872801 
2122.0204737 -9765.6444237 7464.3299448 -12601500.973 -11010992.495 -9610661.6877 -1935427.3932 -4384196.375 -5412109.3023 
-19151.908274 10392.381953 -21513843.564 -5742376.9844 -4350558.3949 -3129197.5689 -4042188.1706 -1245640.8719 -2650452.9439 
-959868.68602 -89966.204843 -52479.558077 -27777.511649 5817.3083598 10942.061668 662.9037298 -25430.731861 -28257.418879 
-5406612.908 -5681719.426 -8747258.2322 -10720185.402 1448647.3268 375.27670174 5218.438046 5393.4357869 -506.15610065 
16400.53418 -12779.185422 4979.0036634 4382.2091675 -1263408.4403 -1021100.1406 18821.994551 -14054.177633 -21835.496105 
-25194.163316 -21625.529032 -21164.431988 10710.612033 12507.407737 25883.668319 31904.286672 7621.09703 2935.4010953 
-1033528.4992 -1762203.8091 -1601923.4717 -1979883.4979 -853417.95851 -6470515.0024 3164.3980817 -241595.37567 -687268.29983 
-1136933.3201 -718690.18514 -564994.39691 -2692337.6144 -580499.40209 -1560700.6815 -3220212.6428 -4982797.0301 2859.854756 
-586207.72274 -564051.19731 -362763.33836 -35204032.768 -29997.41058 7211.3616553 770.10835875 -13731124.66 -7618387.0049 
-21304210.854 -20911629.038 -21744913.74 -15614270.195 -12715370.785 -10584774.231 -12800886.919 -4428805.1065 -4750481.9507 
-1037537.176 -11844925.573 -10096203.522 -2053963.5176 -2013495.6855 -4908038.9966 -7164194.6794 -5458.322682 -211630.48524 
-15145.856255 -10694.770765 42701.601482 -18183.974515 14943.632067 -19982417.862 -19511751.967 -115115.12348 -7194909.1602 
-10895502.527 -11667313.187 -21028344.268 -23016577.154 29636.634975 -386735.40515 -8586624.4994 -4804.6095754 -743.66202379 
-6034.601318 -2049762.1247 -16095247.725 -6698736.6889 -10197668.737 -8308.6836646 -32247.514845 -20694997.632 -38699.081786 
-2570.1263425 -13608.740409 -11638642.015 -12136489.267 -13645931.336 -10574.523429 -29284343.178 -9647741.6095 4819.3144551 
-1407.919734 16397.016083 -5997.0102863 18846.845092 -2665.6541752 -14069829.194 -15006745.705 931.5081488 -59825531.631 
-66361934.811 -59739761.534 -6090387.1814 29758.837376 -6407900.7809 -6109115.3874 -10406436.936 5415.8269886 -7021634.0055 
8293.7564091 -1240.3179915 2821.1242384 18430.598555 -6776903.6837 -1412069.7162 -24139089.798 -10380348.666 -10988029.235 
-13428286.661 -13103999.721 -6289266.8438 9607.8377492 -4034.4589713 18128.930772 -1511.2905687 -5912487.2801 46652.791633 
-175150.68256 36981.370233 -1907114.2556 -480775.12275 -1870725.3346 -3664399.0829 -3462921.3351 -6499872.595 -4893683.2855 
-6685271.2024 -16606808.06 -18310682.097 -17535084.169 -23167855.44 -12277249.287 -11561588.54 -5561251.7335 -18208948.296 
-17494929.984 -15444925.871 -13258613.269 -14991959.303 -64618919.714 -130907.55786 -20886963.986 7309.5922154 -180.9902611 
9106.0696052 9580.4166245 -1690609.3737 -11550164.921 19008.693917 -2002.4679022 -11174.707782 -3299.6631005 1866.8005279 
-11344587.183 -6938.9033032 1010.9934969 1715.273173 8752.0094994 -59764173.324 -432705.41598 79927.878194 -166529.66884 
14204.315016 -4537.4772049 618218.52745 1221363.6409 -33190.390196 -111613.73556 -21377.122626 8755.9812589 -27888.694276 
-2577991.971 -1267568.5266 -1016488.5971 3564697.7117 2496.1573432 -853055.63376 -7714590.6498 20525.170777 -1357929.8918 
-151589.34753 -535928.14438 -1495803.5248 -1732039.6183 -10459.33842 -6087.2119428 6677.0987916 -9912.1156509 2212.7442555 
6181257.8297 -495462.40851 -2631797.1515 -20855568.907 -24189923.582 -25604175.102 -22233276.885 -22435106.543 4996.4837511 
-13059.901715 4071.5053515 -3833.1248598 -2437.1532955 -11419.160061 -2214.0038857 -128.13329158 -5728.4979595 17769.474821 
1112852.5396 243574.846 -1459823.56 -3186743.7408 -3534776.8752 -29255633.201 -26374411.002 -25399075.807 5892.6406981 
-1259.7565081 1441.9509223 4354.300462 -1697.2466627 6393.1197585 -10917024.623 -12099.746758 -4973336.6219 -33980547.505 
-17206.39163 17699.906516 15658.819272 -1639671.9503 -3264.8596481 -14230198.991 -2014695.0001 -10644757.151 -171683.40257 
-1718072.282 -827988.97929 -8566.2590034 11028.880014 -9998.4226889 20742.955586 -10560.395485 -8469120.6518 28944.20024 
7314.9636125 -9772675.7648 -10072.607019 -3808.9267143 -10896635.723 -13663589.688 -11330075.863 -10883334.481 -13375518.709 
-152933.49078 2050.2739371 -15907811.184 -15640.420204 -5633.581754 1744.1390944 -5372429.9186 -4058787.0345 -9016149.3619 
-10613887.145 -1876506.1329 -5551907.7021 -7450073.1201 -2797988.8689 -6182033.3994 -9945924.0203 -18859179.786 -20356756.977 
-749100.29119 -7687.8957993 1544.2316038 805.4340914 -7696.766291 -8227060.6517 -10967348.66 -10777252.443 -3612264.9444 
-16276.748586 -2248.0440456 -11320665.296 -2673080.9637 -3307584.8368 -4274054.0602 -2426975.0535 -5162420.7618 33589.65333 
-262166.14127 -320179.48996 -121127.9424 11675.159314 -24404.158912 -6274970.5875 -5567247.1927 -16791072.02 -14944978.748 
-40273.031742 -13748828.327 -8292498.9857 -12435.113812 -28997.965247 12623.772076 -7622.809566 -11928438.015 13117.068595 
-3299.1811374 -7279.7004989 -9907574.6782 -6010369.0972 -11822851.225 -3455375.2045 -14686005.562 -15407490.704 -21135893.711 
-14929405.65 -674458.64267 -321718.81471 -15890810.658 -9130.5455392 -3306.4513153 -12429819.374 -13714624.064 -770521.31392 
-455639.76257 -117645.61041 -39933.844637 -7351402.6195 -13726688.097 -4861635.2289 -7235988.7195 6398.1513003 9940.6881649 
960.69843878 5744.697434 -17287357.063 -20479334.757 -611791.04734 -493701.14623 -3589784.0837 -7514558.8652 -9169.6375401 
-2030.1083173 -4466599.1795 -3441351.6649 -10534641.559 -1725066.9889 -2427656.889 -8019012.0204 -9265.3138754 -8022.1020912 
-1546.7684233 32201.571674 -17219245.643 -17536928.202 -17912275.813 -1118725.1461 -1044.8367413 -12263.876081 -16926136.671 
-27856035.301 2501.5583165 -683.80222581 -15500799.696 13951.323956 -10721713.465 -4379123.3529 -3894704.1086 -4328578.9919 
-11516239.193 -7377673.2091 -6573366.6393 -1038368.3768 -391341.82337 315498.26038 156238.40611 -634604.73012 -641528.3512 
-9132431.2 -10095.139506 -6755.1292687 52502.014102 -474420.05014 343993.9926 -10321720.81 -10076921.751 -8301744.8351 
-5726267.2374 -7925.8303268 -17586333.803 -691816.06934 -3166629.1979 -1127303.2327 -11748445.484 -2870659.9977 -1279908.6105 
4080.9334268 20596.606736 -13102065.318 -1950.9789938 -27427.099286 14924.904031 15506.262865 -1323.8646864 -16049833.553 
-17948379.66 -20005328.96 -20239126.337 -5124620.4207 -677.18374964 4449077.7489 124590.0105 -3558236.4658 -14510516.768 
-5486629.7673 -207785.31697 1146153.3984 -4459912.3504 -15092.040294 8159.4371072 -805349.47234 -1531194.289 5399.9737777 
1580.9585273 -8330153.6325 -21617650.455 -2105045.7734 25436.498512 1929.0583244 -16687361 1275962.7814 -19604854.32 
6423437.3609 355218.49809 13495.473889 3100.3785061 -7353506.3128 -5421552.2061 -3952.3641523 -11626038.467 -4887.0954232 
-255811.93884 -273224.54956 -974503.91742 -718732.41018 -6697371.5101 -643743.14232 -782613.83266 6252.9164246 4577.2207722 
-557.57214577 -15375.422916 -9021329.6919 -11325933.798 19593.114129 -13082.617023 -6791971.4052 -966377.60473 4813454.8362 
11375.672159 -68920639.147 -420118.72813 -298956.04092 -3757766.8665 -976058.40416 -22075.340776 6402.8437048 -1302884.7442 
15671.21887 -475166.02113 -2332514.7923 -9075425.2207 -13832.503161 -237271.20358 -71409944.2 -70948985.552 -1586776.1077 
-4917.3913068 -9210779.5529 -18557992.051 -13727075.788 735961.9587 -10454485.38 31952.01367 -18898181.434 17628.678179 
11960.605072 12334.336676 32830.061716 5744.5766528 -19675.131431 -839751.53582 -3380.2822563 -9825.1561122 -16095.723947 
-23515087.681 -23276115.85 -2046572.6345 -3157190.5542 -80400137.308 2097.9060431 -239311.93681 -289059.59982 -227991.37896 
22336.035334 -1111.1189592 941.47646725 547.08828153 -67876.61125 488.41284105 1886.0861548 -281885.10185 1376.5899151 
-8959.5934767 2846.7630827 13698.688943 -7839.5793032 -13671.621132 -56826352.998 -30266084.603 -4434956.1552 
von%20Mises%20Stress 1 3545 double
100508613.1 30092216.682 27646299.085 100565972.99 49964332.526 43510363.524 93415525.789 49899124.214 43456474.572 
96584717.586 100392868.31 100082093.26 100272271.76 99088112.656 100131061.28 100033318.53 100033099.75 100244770.09 
66705673.262 24963293.828 100504538.4 100120972.39 100117098.85 99701365.826 100028794.68 100065383.07 100041792.26 
100047012.87 65882225.424 99946078.417 40421511.343 72982166.243 101329271.92 100038286.81 100004089.81 100001978.42 
100027684.68 100581369.22 98228059.304 92370571.327 85520461.132 78448676.013 71708433.115 65719381.191 60375885.512 
55989337.337 52682823.072 50382900.421 49629328.37 32641616.959 55411426.481 91552847.74 99957541.92 99981266.312 
100001134.06 99999522.694 100010029.64 99796191.954 95405402.85 89017394.621 81944236.792 75020081.194 68715264.971 
62927677.786 58089954.813 54166015.928 51443327.488 49894247.042 49822305.367 43571066.48 43730832.986 44126818.817 
44950730.234 46071454.797 47380495.536 48761508.243 49781738.562 50194188.478 43520742.084 43627195.534 43949450.052 
44517153.494 45482856.614 46684784.385 48088050.722 49240316.36 50012113.887 50088791.558 41723568.476 19584456.483 
9507449.0836 10188613.112 15180390.102 20272735.973 25045745.033 29242430.092 33032122.217 36333356.874 39123784.502 
41302770.237 42863241.893 43639707.995 64762930.432 30014700.335 13525329.744 9047004.1994 12527753.632 17907700.279 
22707519.117 27182786.614 31170394.723 34719191.243 37760981.077 40262805.885 42152350.4 43305174.676 43593132.269 
87813275.436 67831704.974 38145490.937 4266741.9389 48818751.876 108611980.19 100954708.31 92871263.377 79129007.157 
54533621.014 19926819.275 26005042.314 80526909.956 100047702.79 99579791.33 37512087.939 67864923.443 101424537.48 
100004761.63 100000401.49 100000508.46 100120628.36 101165435.34 98101324.545 92454582.055 85522213.023 78416490.681 
71639509.725 65613585.935 60255744.45 55875263.992 52519689.28 50236359.468 49579557.133 29920765.525 52015828.384 
88716349.868 99980861.492 99999281.67 100000046.62 99998022.279 100142909.83 99891567.789 95422814.559 89043054.629 
81933964.468 74986887.599 68614485.34 62857191.409 57965582.365 54062580.385 51305719.713 49814913.368 49770403.06 
49943282.15 43502064.56 43684563.304 44136394.389 44946943.374 46084024.851 47408724.411 48862315.638 49878497.961 
50195251.283 43446140.631 43561736.448 43899127.078 44485037.418 45463544.787 46711938.082 48141802.041 49352997.653 
50083543.32 50054817.466 45012227.131 20473284.283 10883246.324 10946009.687 15541655.166 20556355.734 25201482.331 
29386951.832 33118534.36 36374864.848 39127814.416 41290638.132 42818076.111 43551223.447 67811529.026 31661494.688 
14691269.387 9997225.3275 12933697.657 18275072.725 22874611.199 27359300.38 31240720.667 34798888.832 37786290.813 
40242614.804 42103958.169 43243238.578 43528430.242 90054833.165 71887718.431 37945241.689 2984510.0841 45721071.285 
90663567.898 100818413.48 95393820.763 81171184.574 57343851.42 20243300.698 23633563.834 69817039.828 99722388.125 
99439790.159 98337255.616 43443100.078 67680802.035 100338444.97 100376269.09 100370900.69 100499876.53 100095046.66 
100230821.44 100210687.95 48282134.202 49735723.797 82283241.479 82964350.832 100333757.25 100264859.59 99900653.728 
100022601.49 100293953.4 100228170.57 100125010.32 100034488.97 100093094.48 100072450.38 100379873.66 100106147.54 
100093111.49 100106884.01 100088710.31 99159577.166 100327688.56 61773363.29 50779475.567 83663613.001 64788609.232 
42821580.15 44716062.951 52133468.636 100154749.63 39302769.671 84415095.553 39906207.237 60818292.917 32252517.679 
59780296.437 47731230.605 78131499.922 53694205.211 56934881.411 101180823.33 84675121.782 40317661.002 57393259.753 
51122621.773 43788462.288 71958852.97 99287379.6 69571430.415 32432834.799 50266914.749 45076874.814 100232885.31 
68657278.216 45436175.558 48951235.61 55280685.482 100422019.37 48560947.526 27354911.121 23681240.794 29778150.468 
56467858.448 41013950.53 58908118.92 43275215.546 89147176.941 100116943.45 75854860.441 41890257.636 53919568.134 
60928759.634 36089515.791 61369611.905 42252535.754 83900906.613 71803575.19 95327168.426 97981657.474 92687990.403 
46762467.546 55900310.636 46457729.355 19364729.287 39465920.718 76040855.97 46151141.147 100104374.04 78260686.926 
100350502.58 66416513.913 32158549.486 58496378.057 70591821.739 51250313.621 46162829.567 50015055.34 44474467.991 
49220687.94 94794793.317 85149479.537 51038897.421 48676335.377 43761949.135 50279749.73 53998164.985 47389158.524 
20890312.858 48501275.919 70078454.615 64768199.339 25992902.73 34070481.81 41637157.618 38569792.796 43423373.8 
61456464.087 63673388.553 52485928.029 50695653.637 44542930.821 100064473.25 102040514.77 58391127.049 54859387.386 
37641657.117 62926058.142 58809560.251 100010666.96 58606905.12 52626906.735 42785314.649 52026676.588 48375900.111 
52494021.666 97999323.376 100230987.92 76500940.906 104649814.68 74899250.416 84461137.496 41565164.961 46504024.781 
64757267.985 46075653.205 106809567.44 100535707.95 90884198.88 64891066.91 42682298.497 52844878.254 100521556.39 
20428409.988 36010083.4 14328944.039 47034340.776 36402115.185 83319490.763 67857800.435 28175714.936 30014152.219 
100263946.75 59821595.666 45037364.567 48080982.875 55663898.132 47244571.837 39855069.926 100338646.71 48830874.493 
100272091.19 37407334.567 46322958.512 100109720.05 35937408.667 30459976.578 74493491.289 41586864.496 77977203.308 
38824348.441 88849478.301 55935274.196 96545130.24 24528245.016 60864212.242 29040736.247 90684310.807 90333607.797 
50127409.747 44073932.703 49635248.685 72976898.55 48282183.701 43309696.842 74850795.147 72038880.056 74918130.279 
58103590.964 82854967.619 43654782.931 55051627.763 42966956.091 47357157.259 53670697.528 68738085.056 79554263.153 
100091664.24 38430012.078 50026019.197 34185870.543 101026840.9 100024284.49 38667034.894 34989899.713 14177402.813 
91763821.922 77214640.793 62539228.217 56312771.544 48119834.944 62621253.668 65881985.016 43356351.003 50916291.019 
79668721.3 45513741.325 43712864.723 50028722.543 73270550.501 99972332.784 100004112.32 100257083.04 99797668.51 
68769740.523 75480399.485 49999192.697 50083356.371 49860369.815 43581676.649 43671586.261 43618761.924 45424955.817 
68067910.341 65172511.169 100042943.91 100018376.84 100082051.52 100066200.89 100014578.5 100132981.55 99971559.468 
99925276.239 100451235.16 100281988.81 23964326.682 34504467.536 38241974.611 11086821.57 14799629.029 23813873.851 
19224164.966 17446410.631 11273457.285 10482894.073 14092740.357 15884350.218 13762727.014 16789676.669 19704468.725 
17231796.385 19805851.519 25053421.592 22731485.672 23329544.788 28503861.512 26408386.084 27085020.243 32371182.002 
30492174.099 30210881.307 35592670.701 33948411.03 33559574.59 38297897.551 36921491.099 36364359.388 40536446.506 
39425629.742 38772887.683 42791172.129 42031633.348 42318038.235 41476699.105 40904023.604 43515195.607 43090388.58 
43063725.794 43571775.118 60976111.716 51204076.204 45226441.165 48952357.664 35429931.958 40551898.061 25899921.051 
21733075.77 39395849.141 31857868.251 42199699.715 33343179.261 49100303.499 47982426.416 58449028.111 92382126.934 
64880359.543 104447259.24 101145473.65 93559413.597 100600297.01 43904646.764 43757643.904 43907584.331 43675811.337 
43735014.86 44321746.88 44038087.807 44236189.575 44970862.756 44532245.758 44711091.669 46042915.616 45441958.295 
45567068.927 47277526.105 46625200.634 46770146.737 48349248.948 47674769.965 47710418.324 49381646.527 48868809.626 
48679813.297 49853936.208 49630559.371 49442876.827 49956988.889 50096485.975 50159655.114 71401251.148 86735512.936 
102623249.98 91611651.506 102882410.88 102602097.2 100029078.73 100021894.52 100011971.92 99985842.312 100004129.41 
100074877.04 100001799.9 100004928.29 100001165.71 100000055.29 100015803.1 100001050.96 100001784.58 100005059.07 
99732246.345 99014153.681 99968694.628 100096103.88 97360157.94 96769879.469 94869664.905 92012193.92 94112662.943 
87678964.989 84380270.534 84288440.913 88447306.902 88381024.285 82499491.512 79111377.742 81568993.946 75058082.634 
71857691.136 73462296.053 76535776.262 77191437.524 68891066.386 66070169.002 69106402.497 64063802.914 61456879.955 
64515925.502 59567204.478 57438828.837 60606172.491 55875537.417 54207737.723 57137998.494 52403459.973 51339221.576 
52957992.382 53388915.409 54704359.584 50696274.386 50258654.4 51453924.48 50336433.224 68136978.559 63266880.097 
66696845.043 64796331.903 69818856.578 64556160.138 61652761.306 58730203.735 58661154.015 58545162.36 57145547.776 
54274579.793 54962689.038 52274040.288 53360053.994 51662318.392 54106243.25 49622435.244 47357333.204 48678044.489 
46931806.962 49082715.24 50592348.737 49659786.213 48030562.585 51208168.284 80170949.377 80135530.262 83687384.907 
87094814.037 86790977.749 76325700.481 79868766.847 83784224.1 80108437.893 90211487.156 86293465.296 88215541.047 
92364179.658 87010436.492 64259666.991 60939904.235 61708047.373 59225968.265 62236552.009 67364636.541 70363801.694 
67531779.635 67135143.245 64882639.661 67275532.437 62260832.067 45471315.846 44018032.863 41163686.186 36492369.519 
38496798.357 49892542.421 47074195.024 44623864.838 48627845.785 36474577.826 40686773.332 42633596.449 46485454.142 
45328281.018 45732203.031 45133657.611 46063076.502 44759177.012 44130542.463 42990366.452 43665722.392 43950734.113 
43916127.613 44589398.172 45014106.411 42987622.499 52356328.799 51170802.655 51065819.055 50055450.969 51100188.975 
51729238.499 52458376.076 51401273.673 50389418.065 53695656.336 53419420.734 53835324.234 100314013.54 96408411.384 
98891371.662 98644222.143 100001446.71 99945072.965 100318090.33 99979991.73 100007712.93 100019457.88 100157526.57 
100087341.69 43216723.845 37757494.239 44857513.797 43023396.122 49075994.237 34752276.53 32639279.843 37651536.735 
41599122.062 33031757.477 87542776.521 87304436.429 84320429.845 80896357.009 81141336.633 80504954.369 83684409.048 
81202523.476 80788010.111 77733393.093 87259954.646 90714574.145 77687119.447 86511858.205 42590632.266 41755433.164 
40775609.355 39208429.165 40098823.954 37116835.169 37893710.475 39204809.385 41384010.257 40767290.747 37335152.894 
43315983.503 59520799.537 58362737.561 59751630.279 60543889.185 61673531.092 62952311.484 60875088.935 62796673.341 
63779612.33 59471114.923 24919936.286 31228429.26 25647665.411 28342563.671 21687209.598 34998006.977 35783963.496 
40500249.381 36967309.567 37823650.381 33229691.336 29278109.195 48175454.665 54751450.178 53301155.534 62528672.767 
55756451.324 56849067.081 61564708.907 55083074.493 50572973.238 65602016.997 64141563.374 67477886.929 47558647.219 
46849946.245 47107758.972 46344710.51 48261710.409 49397223.683 48820799.897 49147094.776 48024573.704 48051130.75 
47326845.47 72486720.364 76319058.252 74239223.937 76396369.656 72632051.528 83919997.885 80432408.201 81544758.384 
78802213.407 82244099.907 77024518.439 78740025.955 54906389.618 52513224.456 55904529.493 56758167.897 50036642.911 
50891878.378 53896090.293 55147138.407 55050133.74 47455810.028 58064851.979 53925699.952 57725644.591 60328767.913 
52705749.179 55278703.295 51000069.786 62552984.022 59064067.253 57546008.092 100546877.05 97222840.786 92049151.69 
95129956.903 98908608.572 99239085.121 100119716.09 99985085.278 99981519.302 100044561.75 91088756.303 91079483.961 
84607499.468 89964510.96 95483372.424 88172722.48 81607457.955 78832917.976 71482912.167 67083788.977 79610923.803 
79417913.495 42276927.474 41541653.422 41074640.15 39977365.298 36809106.75 38885625.99 38280684.333 39467044.02 
37354421.345 41821397.357 42543587.023 40856228.41 58130716.441 60149948.206 59289397.027 60026426.797 57968871.138 
56635508.812 56140707.97 54921754.084 56210091.413 56517496.25 55329345.12 51535266.645 52414189.126 53313074.23 
51931346.041 50905306.682 49888895.319 50173154.971 50363824.55 50670997.475 50580717.507 51030777.888 44494977.929 
44122441.845 44150692.862 43915191.805 43747482.944 43525301.897 43549643.935 43529516.236 43001242.396 43299321.178 
74011325.794 77756026.02 74930698.393 68196077.8 71880404.982 74809088.761 63932473.695 67255569.621 70363600.053 
72539006.389 100037070.25 98587649.449 94817215.587 94339200.45 97883064.252 100130991.68 94578233.016 91036774.908 
72931711.387 69816668.442 72573974.939 72131018.678 75356132.376 67109893.528 65618083.937 68058526.722 70666615.477 
67084488.988 64819658.538 30100759.453 31958503.598 33868960.37 34237328.146 33028617.96 29620853.422 29145759.103 
35526174.633 35524597.836 38640628.146 51399948.888 50171075.037 49207565 51317414.053 49534498.598 48409638.755 
49234810.075 52528524.766 48225714.712 45616663.568 47318424.48 46886318.447 46157610.167 44117364.475 43324695.864 
44432278.98 45511748.665 100168077.65 100143903.12 100064840.7 100090475.18 100132140.9 100082443.23 100051698.42 
100167789.13 100078754.07 66060082.52 69629677.321 71725359.153 65102956.877 68317709.228 70838870.368 70624375.941 
74081915.141 45925983.554 45777533.751 45202929.943 45017221.694 44897405.501 45476467.676 45984031.409 49814347.546 
49035897.634 48516494.5 48170889.986 48864734.946 49511108.056 49510873.947 53896583.271 55613162.17 56636758.913 
57024067.74 53800802.275 56944433.241 55065632.863 100062001.7 99723086.252 99908904.655 99381438.465 100197691.62 
100220402.11 100281502.7 100384006.2 100305601.94 48522212.262 43888440.471 45018979.409 51099916.518 46935526.815 
50438159.61 52273481.031 54817841.597 30801131.974 26438400.259 23948860.695 32253956.242 28702070.7 25160654.84 
26818244.152 25310249.118 21292459.169 18740581.197 29871569.134 28905104.696 35062162.542 19584674.902 24024431.927 
18747289.085 29112762.597 25381700.104 29339567.201 36738968.329 35008245.509 33165646.372 36793435.725 59455774.445 
53697573.428 52047965.995 60572431.674 54532593.827 49655183.584 38931478.182 42682539.752 45148408.001 38368734.874 
45570464.125 39170923.123 56459480.856 57341744.995 58340940.943 59849717.398 57617142.855 59423065.228 61747758.275 
62761255.862 41081959.282 40955017.42 43085941.914 44748266.754 45893679.064 45648685.453 85886691.95 87154218.781 
90458270.642 93259894.306 89769822.039 92802256.791 100054870.8 99983156.535 100125107.82 100018837.2 100060595.96 
75181336.713 72228413.678 77689816.06 81430853.023 77744449.142 79543598.904 42623635.607 54467195.377 53907873.338 
49463404.46 52608925.469 63545605.368 68086850.949 58751186.311 69969403.946 35852921.652 34136173.442 35496595.325 
61955696.183 63724964.025 64466261.293 61997724.856 44575491.29 47558475.698 41939550.092 39036092.576 38158243.543 
72514546.932 74376495.323 75150435.15 93918753.295 47511047.066 46629713.746 47396198.904 47079471.533 44715692.375 
44995795.018 72274571.814 75267939.08 70914474.309 76542798.239 75786635.904 30821880.689 49785323.769 52336061.569 
92044713.756 100082737.91 100016912.32 100003904.79 100674245.53 100001462.2 100173992.11 95284522.833 88888009.625 
81917200.413 75131233.757 68632534.694 62793442.361 57978702.978 54219285.757 51401130.492 49950753.668 29211263.102 
27804995.5 34953066.779 33233937.908 49869259.21 49899986.371 49667993.985 49653005.861 62001025.308 46567190.926 
38740797.948 45008025.569 99815163.148 79564171.862 59650595.537 69991243.051 75620597.937 100055261.27 99981107.421 
99549590.481 100064091.74 100137490.61 99998034.645 100020460.09 99993793.348 100010752.88 100004036.73 100001422.35 
100002101.35 100001853.88 99998850.246 100001090.69 100000792.83 100000709.63 100000449.73 100000242.2 99999964.583 
100119827.01 100048266.23 100184900.14 99995057.457 99999360.448 99158889.352 100846092.98 100672927.68 100427772.95 
101142237.34 93796066.973 96967828.065 99126593.479 98265481.278 96917692.947 87225856.811 90774504.318 93854514.041 
92493797.747 90808142.614 80235020.248 83697668.347 87215849.687 85509954.06 83681760.066 73306877.779 76719289.991 
80189008.382 78418062.886 76749185.042 67097989.13 70258443.269 73288754.337 71647317.265 70218065.684 61578773.152 
64236998.502 67036435.676 65628892.857 64186908.586 56959425.669 59149750.091 61544535.333 60298728.81 59069348.088 
53432996.811 54895893.439 56892502.159 55825697.534 54856826.19 50827415.815 52060467.537 53353050.164 52607077.745 
51964607.251 49772852.12 49970176.886 50730856.105 50239953.764 49925379.301 49598171.917 49749934.117 61599819.701 
50737032.754 83658862.872 64769013.238 42814254.22 44662477.685 52098117.032 100300211.59 39079915.113 84044396.895 
39870090.653 60756251.455 32195019.098 58976976.596 47707429.04 78033038.817 53531341.549 56669473.779 100726282.56 
82643014.323 40284765.419 57333719.164 51099025.678 43732139.504 71473364.626 99508216.84 69382705.948 32450677.749 
50267726.295 45025451.747 100301752.66 68541358.394 45350908.987 48962662.778 55192977.3 100626409.4 48311174.246 
27456870.437 23718819.952 31295953.189 56149247.323 40042672.787 58777547.288 43212799.452 88903822.606 100090711.49 
75916059.091 41886799.642 53791074.535 58514205.424 36177029.984 61194866.107 42022589.866 83523134.23 71500573.121 
93636148.813 97282569.069 83341138.777 46693415.18 55847686.191 46391162.082 19445438.386 39417169.684 75565437.975 
46107303.168 100005467.28 78150588.305 100278426.3 66331449.974 32211556.843 58401993.064 70374224.677 51170740.561 
44689797.413 49906857.709 44433064.692 49218420.071 95820119.204 85057584.79 50350275.788 48623170.532 43699057.011 
50279054.089 53961332.482 47405758.474 21536719.83 48404043.651 69932043.934 64588769.17 26090437.137 34090971.651 
41609208.766 38579329.263 43354549.656 61221004.347 63508566.223 52403231.608 50673237.177 44501207.203 100110795.35 
101441338.09 57215616.603 54725184.089 37674095.532 62185920.4 58688054.478 100200978 58573075.001 52287131.344 
42721675.568 52000894.601 48369928.509 52443190.378 93889530.665 100257755.97 76230075.815 104208307.04 74777691.116 
83742543.072 42034152.819 46466381.247 64414761.155 46132885.727 95093200.089 100321042.91 90439263.347 64742792.061 
42703883.918 52772248.077 100769431.22 20690948.499 35733139.959 14876328.586 48990045.232 36027225.66 83422230.461 
67712306.571 28377576.363 29785476.127 101311746.56 59808133.617 44964935.761 48117708.342 55510987.779 46747676.61 
39860076.662 100305392.48 48787613.284 100183555.75 37786153.956 46348368.174 100094980.91 35985713.686 30485937.81 
74438441.776 41433871.967 77575353.613 38859884.274 88657919.871 55683579.967 95598075.139 24619889.095 60779629.188 
30391079.745 90614348.622 89694896.094 50101311.307 43964227.087 49716146.311 66944839.137 48179297.004 43260433.78 
74680019.107 71897891.45 73246928.833 57988864.696 82736168.757 43693626.648 54917797.542 42943953.633 47325964.85 
53429923.927 68077451.778 79469008.099 100110503.31 34963333.575 48771604.137 34049374.931 98135292.52 100004636.32 
38700726.438 35077414.143 14733517.057 91506081.499 77063881.28 62442244.31 56190743.479 48111410.527 62491452.542 
64848521.618 43270777.272 50762248.402 79672501.41 45447263.181 43658954.414 50036580.096 72971658.163 67534446.577 
100429526.81 72943846.684 100115119.94 100274190.07 99786462.479 50098649.075 49968679.597 49830132.189 43534657.373 
43562547.383 43610705.091 67777071.743 70806209.933 47361246.564 53294553.508 62539767.082 47081536.925 36075258.116 
51778884.987 40289141.883 19175549.481 25213540.122 30507510.474 39085127.358 40716074.112 46933777.895 31756842.447 
45704729.422 74123760.638 53710280.141 61369832.84 100169847.9 90380334.759 77000440.208 100364179.7 43679808.419 
43846198.782 43628858.603 43831439.965 43681620.495 43994737.642 44281073.774 44184253.84 44483695.728 44933341.859 
44668842.165 45406214.721 46014364.7 45516675.496 46594645.666 47281767.998 46732056.078 47711231.984 48424629.325 
47710393.125 48912111.938 49425599.739 48691543.785 49713316.573 49918750.994 49490804.033 50133654.631 49989108.885 
50166093.713 99933655.002 100112604.26 100004486.38 100007079.97 100048932.62 100030652.45 100038276.53 100000719.83 
100147945.44 100105680.59 81979249.835 68417400.617 101381603.95 104038252.92 89224171.79 102767448.47 100043756.63 
100026173.27 99980723.068 99999812.895 100007648.91 100004155.92 100010630.24 99996084.256 99999814.945 99995676.201 
99998042.983 99999988.497 99999591.716 100003286.35 98520998.591 99353490.302 99992133.485 99606968.375 96643728.006 
96398054.056 91990188.938 94689514.447 93595296.53 84369473.427 87732515.866 88468663.158 84303091.934 88276102.138 
79124578.256 82515143.907 81571438.756 71746516.824 75008490.596 76467359.162 73389780.054 77133516.938 65953426.276 
68842064.261 68979087.682 61368430.682 63959082.312 64394365.741 57319006.099 59428991.916 60492411.262 54036995.599 
55733283.158 57006250.894 51247033.556 52282815.089 53243099.868 52841660.613 54579061.249 50178997.58 50550665.474 
51345672.305 50289539.662 36435768.169 25372906.343 39199499.389 15743782.532 12017060.592 20294505.426 24836527.801 
18125108.144 11324849.154 11913979.376 14611433.065 14155400.164 16169268.791 17153291.149 17604467.619 20010542.874 
20027294.691 22929223.476 25199840.995 23535759.795 26576331.043 28676914.604 27239555.76 30611460.532 32454359.379 
30350214.779 34044580.917 35653707.419 33634324.159 36957347.626 38331835.018 36408139.969 39429190.067 40528939.25 
38799411.799 41996841.902 42734092.791 41457617.175 42284573.633 40900703.201 43029722.87 43432343.693 42989597.67 
43504244.454 66423946.812 62995788.83 67838702.287 69536729.487 64658660.465 61448540.82 64339596.636 58428823.897 
58480756.354 56934230.354 58200662.028 53960475.342 53280783.465 52282055.607 54882532.888 54024309.935 51569283.582 
48632899.887 47276527.86 49633081.316 48944621.84 46896578.266 49554677.065 50569017.087 48011212.17 51163295.252 
83605425.854 79902518.916 79962577.516 86968330.316 86900412.05 79545294.011 75890164.84 79546088.632 83505748.89 
88642755.755 86353819.611 90741900.856 92251933.101 86530305.463 61574941.516 60807064.653 64163945.768 62148917.253 
59119893.636 67454603.016 70201969.919 67339126.71 66950425.086 67133064.726 64694694.53 62175828.235 41132296.754 
43945507.185 45417260.807 38479071.036 36478596.377 46993911.423 49796822.91 48621266.275 44626748.31 40679921.381 
36503322.354 42618573.643 45652449.941 45299438.657 46428811.815 46030486.239 45069525.312 44070862.016 44727248.199 
43674683.829 42962605.146 44517080.839 43872379.212 43889453.807 44977511.438 42937552.048 51021388.386 51083006.735 
52293155.403 51063223.185 50008223.358 51378515.639 52394077.796 51695244.83 50358491.9 53373621.891 53617019.425 
53775438.226 98449204.717 93245751.157 99452328.761 100058533.72 98309875.749 99691172.974 99979404.732 100017616.16 
100004669.42 100052965.22 100093083.12 100073091.59 44363874.416 37328712.771 42580218.479 48488194.602 42536242.717 
37374025.398 32447751.16 34604842.978 41256359.542 32639412.518 83919495.024 86862112.089 87152270.36 80813457.36 
80435311.771 80983556.258 83442666.442 80399968.081 77604509.205 80472252.557 90146794.609 86784296.591 77441024.267 
86222319.366 40767454.868 41760766.22 42579155.847 40138007.362 39216828.909 39227044.925 37913809.698 37136651.726 
40785055.866 41389866.808 37386809.686 43334940.508 59648998.657 58280086.856 59411745.373 61546381.24 60429567.575 
62685852.78 60781771.205 62772293.369 63650895.794 59378186.417 25713208.257 31229127.907 24995256.859 21754680.444 
28343272.972 35764255.218 35023828.245 36873069.713 40392640.254 33147604.075 37658043.67 29324218.994 51851021.559 
53905303.069 46439852.162 53861624.215 61768927.553 54161798.502 60662708.344 56154546.904 49656643.855 63195726.589 
64957822.629 66548115.553 46823091.515 47585753.949 46290616.073 47080297.91 48759851.513 49346242.718 48244223.146 
47955545.624 49035726.411 48065468.96 47270196.192 74103670.032 76226796.084 72408255.879 72477414.632 76278125.636 
81468959.004 80327862.272 83862624.981 82174565.355 78718301.693 76951933.898 78594450.475 55799169.49 52436318.069 
54875863.955 56672659.42 49955026.939 53809003.503 50816020.955 54921857.357 55029987.053 47395349.678 57955778.402 
57593242.301 53797002.526 60130657.272 52600587.3 50805978.842 55058956.398 58863115.814 62443855.903 57375802.384 
96965138.95 100570494.57 95112813.464 90804575.479 100003718.63 99998790.292 99593275.733 99999876.336 100028095.22 
99958340.56 88637277.24 88024888.44 88888443.161 83169460.287 83276053.762 87030850.918 74673305.308 74948752.308 
69525737.814 77764963.877 65292303.883 78424336.846 41063489.083 41544884.895 42282032.905 39962303.061 38308983.519 
38897713.386 36836553.546 37423650.531 39486922.033 40844185.72 42532465.04 41808058.158 59166273.308 59987958.723 
58048150.368 57931190.083 59874083.364 56013153.901 56545102.742 56087957.378 54825069.113 56373936.213 55194344.465 
52326795.36 51536543.666 51923237.98 53215869.715 50149178.512 49910356.585 50885794.968 50365668.645 50622663.498 
50948077.475 50530116.317 44104870.267 44051034.08 44436450.291 43842263.141 43664068.441 43479173.665 43470337.368 
43483404.763 43241750.048 42962751.491 77397992.277 73663978.613 74485354.97 71547351.825 67704315.747 74508179.474 
66671781.092 63451131.801 69914530.083 72004903.724 97687402.19 100047833.72 93500974.403 94508888.703 99996307.566 
98248257.478 94862277.717 90766816.279 72485881.013 69694369.727 72842864.2 75348015.858 71985446.095 67947797.929 
65495447.838 67001438.121 70528945.354 66992573.887 64704660.987 31978973.933 30207073.428 34236640.544 33953874.012 
29280015.353 29721529.63 33132655.194 35582756.432 35575501.651 38661122.378 50112695.272 51377549.425 49154163.722 
49481362.724 51261885.612 49192988.662 48359401.261 52445839.423 48177405.04 46789162.039 47295049.395 45624267.818 
46102924.554 43305260.345 44114623.006 44381631.628 45501084.168 99878880.105 100119768.58 99947371.688 99967480.976 
100133826.18 100030182.41 100026095.47 100003538.38 100121532.6 69436554.046 65892861.263 71638477.937 64836103.338 
68201288.058 70365578.264 70669899.845 73853001.691 45722262.813 45854108.118 45135884.898 44835857.06 44937337.325 
45407607.79 45931568.673 49074312.189 49811291.27 48529774.854 48175245.665 48865774.751 49517781.965 49474589.622 
55578563.657 53796285.306 56931950.032 56544233.548 53737570.678 54951070.213 56868022.241 94889913.045 87059317.282 
100923187.64 100585181.43 94807795.202 100125378.98 99924642.108 100207579.29 100195517.96 43744287.346 48413018.125 
44801542.156 50888080.675 50281248.298 46737405.499 52104332.265 54654133.59 26534692.659 30795879.035 24161375.312 
28823977.518 32298010.413 25310055.144 21667489.403 25582799.366 26648443.325 19221252.282 29779949.866 34911483.76 
28745341.8 19043589.083 24138093.33 19767351.48 26166335.308 29299485.057 30918693.059 36194929.592 38729974.327 
37025067.458 33431986.041 53162552.803 58896611.749 51583668.422 60184630.39 54194406.884 49386241.42 41529112.072 
38353640.538 44283839.397 44833727.81 37848494.639 39083882.273 57261851.952 56376419.874 59765530.623 58235244.48 
57482392.645 61644666.724 59310453.083 62663770.535 40908508.798 41066027.816 43060257.171 45845834.069 44676862.449 
45597337.497 87019099.373 85734132.953 90273992.155 92225232.642 89382407.924 92507016.38 99954675.355 100036896.51 
100020084.47 99989825.236 100023122.27 72105825.527 75195022.839 77699338.741 79537484.608 77709711.587 81391436.079 
42577376.767 53824245.23 54363540.15 50885451.018 47082751.586 61895442.786 57023620.067 66072264.411 68785956.409 
34230705.426 35951624.118 35568465.035 63609804.734 61832454.684 61876590.781 64357195.291 47193811.962 44260023.034 
41741145.244 38772213.379 37977852.905 72237853.887 74241384.752 74927489.44 92995098.568 46596096.826 47420639.821 
47086086.162 47344877.128 44652252.058 45021362.312 71602808.125 74339749.075 70104202.043 76379163.709 75583004.292 
21643637.454 25302707.96 57381758.044 80551822.881 94758704.844 68201240.875 102223107.63 100324655.21 100190477.81 
100014599.39 100355524.8 100045029.43 95259588.021 96769232.039 92609854.943 93110363.458 85432376.689 75627492.851 
89249611.636 49016975.086 65320654.916 70493227.494 11045054.454 29885263.512 39378027.139 12365012.32 36513955.858 
3998114.8605 58943499.96 76101194.067 49035920.569 100840214.42 100511686.68 88390881.495 100061713.7 75336517.878 
84208944.573 62918190.566 48702123.558 29114270.218 10885509.299 38636799.645 13247503.276 90135116.719 58379061.393 
100522936.56 102391378.9 43443279.434 43637355.963 43933274.692 44472474.163 46704494.689 48165904.309 49280200.549 
50063383.205 45397232.8 49978849.36 49998993.096 49962091.093 50191743.621 43431053.365 43459523.295 43490252.39 
50188382.247 43463350.696 43633640.306 43568555.925 43488327.902 43601400.369 44059301.311 43785114.182 43645818.448 
43680480.789 43809285.48 44704956.879 44271785.343 44036277.187 44096414.021 44275560.979 45756621.005 45156004.542 
44708998.204 44943859.765 45154884.358 47104117.329 46349035.371 46336736.769 46077992 45755292.508 48541643.443 
47778173.708 47078153.746 47408605.56 47768216.636 49597268.922 49067467.429 48504138.672 48865404.717 48996201.919 
50063333.599 50012436.959 49533614.981 49884687.35 49980482.297 50258047.165 50061914.566 64882270.124 29809386.932 
13672499.967 9313779.272 12583863.06 18201831.765 22739950.679 27204840.285 31223385.809 34775668.66 37787243.843 
42144859.961 43306108.022 43629688.222 40247312.323 43567058.437 43547458.97 43598481.598 79890718.394 78145227.765 
53603184.497 43561866.28 55603514.567 35226413.218 25393600.743 44260503.827 36717690.332 16107552.81 11825454.994 
20594088.584 25658250.428 16712547.987 9071416.0826 9936028.5783 10542446.226 12582077.437 9770224.7021 11319800.537 
13913295.965 10793077.517 10349946.578 11636846.901 16784544.575 19288581.617 15493124.426 14045364.185 17013524.238 
21478814.714 24065635.512 20475102.921 19474822.548 21587715.131 26106563.819 28353696.075 25155311.537 24103191.333 
26197385.053 30222426.054 32151407.306 29349789.241 28449384.263 30278105.803 33937655.757 35547542.522 33097428.024 
32171452.241 33995631.246 37084020.215 38454067.027 36355113.642 35583374.521 37099136.202 39733485.033 40772051.205 
39127992.661 38464213.124 39728150.257 41718395.952 42527146.731 41269022.002 41710555.865 40760340.65 43073312.199 
43477613.649 42837673.364 42494767.488 43049618.892 43554729.8 43444282.363 100733122.48 63462253.826 38820487.465 
53997825.071 51625770.934 39983715.472 50649373.463 39931582.448 56004482.951 100457968.89 101872998 37375051.243 
67278568.668 55175015.214 45145959.828 54157664.276 49445902.388 51363465.718 50255983.206 50918966.719 50909586.023 
52082580.496 52434732.199 52058078.705 39203805.911 39886685.723 39908224.151 39905215.779 39298177.378 94451169.601 
94229255.308 97098958.072 99077942.953 97904405.892 38685492.984 39335091.893 65132917.337 62402510.541 65900236.015 
63191169.637 62838659.175 36498107.015 38851174.08 38802066.183 38811381.842 36530536.933 68355722.369 65611481.826 
21544421.617 17241764.714 24357361.022 20743903.227 29940719.52 34071912.016 36477519.84 93717384.945 97955641.029 
25386298.192 30166377.601 29502751.136 84319989.908 89142252.069 89897569.417 89118175.151 83364494.459 100131275.97 
100003010.41 100005859.83 99535953.843 99866426.793 16774077.267 21236781.681 54121483.373 54960222.523 55139706.202 
55811755.974 54817282.326 54059519.884 54884895.825 54755357.387 55737726.792 48401612.759 48615267.443 48633269.444 
48107115.501 48055905.682 48080425.817 47418576.889 47411414.521 47736497.704 46936620.341 46282779.393 46744920.021 
46114368.362 46274387.605 99856388.045 99903375.42 99835935.26 100054619.33 100111572.27 45695718.292 46022423.44 
45668314.071 47702686.727 45158630.478 45120933.491 45501704.417 45002648.817 46941807.188 47406234.992 47214990.527 
44245281.383 49172238.162 57993817.918 56700124.158 54988022.146 56251829.228 28613328.518 29629118.199 27610866.336 
44689141.715 44396118.138 44131172.25 44356316.45 44729056.431 44489144.136 44692032.513 78143249.272 76518401.163 
74845782.832 78096884.936 74954334.111 74970232.922 55063289.944 39620871.962 38505691.504 99761681.547 100037399.35 
100232597.32 99998432.062 99999661.214 99998917.961 28284864.029 29528525.53 27491036.702 49178019.304 48703347.584 
24103469.731 28827552.172 29266385.833 24573395.375 54097909.014 51069143 50049399.22 50114745.788 99998939.197 
99999181.286 100005341.71 99996119.621 87702660.064 86009247.75 85997746.569 53881807.329 44964226.341 50253049.301 
50049746.474 50160332.577 50217628.35 50286836.634 56368419.661 57556068.617 99721120.76 96967064.521 72125087.118 
74441930.122 72403670.461 76255387.691 48206782.402 49180154.846 48110291.164 50037782.824 50005619.389 89864866.797 
85108987.868 29808202.475 32518054.747 35811946.334 29861114.361 26704449.593 21770132.348 25722437.997 28372957.473 
100055127.2 97942055.263 100007538.24 100044887.53 100040473.56 89093649.973 93720307.101 100675096.11 99583222.637 
73379714.001 73453418.152 74288168.217 77118089.051 74979619.106 42307524.05 42421264.541 41873643.045 42400900.595 
42741729.852 100069538.91 100175360.1 83163479.467 76413449.546 74920046.844 59470413.613 60588584.475 58329834.76 
81394780.961 77726942.479 79503727.739 47102020.986 47352263.047 50559360.429 50358759.16 44852819.673 49649082.148 
37647582.691 43323269.589 50037852.958 49966800.375 50067100.71 25485873.581 34974187.607 36914192.73 30553377.559 
18944738.826 19723867.389 58401421.24 58727966.247 60650897.28 44160932.796 44435826.848 43701771.752 43653018.515 
43669562.601 43633222.496 43673855.219 43534765.941 43493825.074 43506496.388 51381592.282 50394176.396 21136125.946 
19890498.7 18800709.658 26536195.071 29716432.162 27420883.792 30801087.656 50005898.221 76971822.25 75169198.897 
43671094.582 41798625.262 40772998.008 42549269.577 77645023.061 80553601.014 99945170.526 78765509.09 43678080.087 
43713846.304 43466815.643 53518072.485 50853965.627 52623903.725 55167467.242 23684205.959 40957903.286 40005853.2 
40896352.199 39851137.488 40000381.402 62618593.239 60501882.737 24020548.219 20968536.162 20544782.465 23521558.331 
50394595.591 49159936.375 48229048.439 49101908.882 100038883.23 99998564.407 99989124.365 47472005.062 39135545.45 
73468195.523 71987857.213 99998052.093 59389245.899 58285619.892 58046160.465 56976879.32 46105501.121 47342926.521 
45513836.355 44390776.818 77493042.393 42679666.005 42951750.566 41391510.496 41644660.929 41380288.501 34097797.745 
99998440.739 99990446.367 100004038.19 50868848.371 64645877.064 67736940.05 64381903.599 12316180.505 12588713.986 
14665649.887 17045068.825 15051173.484 24081774.544 34015204.455 33141027.891 34865490.709 21548354.799 62605824.666 
62461640.213 82215821.278 65370860.511 65275259.001 63966209.739 40143266.109 49873567.922 49936609.82 48033967.388 
48805592.025 48255479.67 49508673.692 100040571.86 43662113.598 43620921.132 24037257.653 26068293.439 60039281.602 
58038712.701 67358637.177 64458827.436 30542812.885 37633047.428 46826150.245 36062601.311 18591493.498 25116946.548 
26159505.553 38579299.06 49700976.89 45271020.573 50243079.303 50152318.295 99857534.287 100093862.97 40402681.373 
41901492.039 49181224.494 51035602.822 52114774.503 48006677.636 99991848.36 100016989.67 99961719.861 99952262.899 
72517208.541 71681453.473 74766503.023 70416937.129 67393755.885 69008927.864 70339239.628 54801248.111 100003781.46 
99934506.825 99956119.707 43376480.529 41654457.208 33100584.744 35038344.547 34814794.113 49468141.614 49369194.316 
26198639.832 46035232.321 45110074.985 45474343.634 52797351.491 52710827.76 51766446.665 51969468.807 51745124.212 
78076644.905 74123405.912 49953661.995 41880305.745 41882411.076 49929421.802 48415633.52 49824547.198 45473963.677 
47004411.054 99937273.743 99832106.823 57653474.088 54859115.886 53838302.8 56777860.44 69602144.111 76356354.593 
79513606.22 43490191.607 43269019.469 99998102.993 100001595.38 43644586.579 68216297.096 59200757.623 52748481.858 
56143349.071 62853363.01 63175862.79 46904423.181 44985842.451 41635522.712 99897224.748 48423748.485 43999893.543 
27235991.751 99730697.467 100147250.78 99909142.556 100060785.01 100682434.95 43320299.709 43292934.084 100080079.47 
98576339.77 80759948.581 77131800.944 25851611.926 29166266.971 67428463.27 66997440.55 70452991.163 84083931.694 
81585216.129 41351909.173 39210747.306 70588693.117 79709513.708 79654777.488 75703729.154 60468901.904 61583514.345 
60781177.356 59677692.751 61272129.344 59169718.029 53347172.649 52811488.988 99595524.27 99598711.729 45089397.372 
32226970.433 36859439.348 34668311.557 39251806.098 34719400.545 52316184.463 48517467.564 49244412.976 70240461.479 
70003424.608 39110710.556 48261749.686 46724067.594 46462838.333 45677401.6 73081656.804 72359482.279 58429017.993 
42333812.965 73959038.156 66035307.198 78471214.447 84088647.32 79642355.466 45150389.133 71822128.671 47277114.698 
46846855.13 45628865.591 46102079.432 50937415.219 60793882.176 59450854.389 44856381.892 45383456.661 44962240.419 
41443723.855 40960986.685 31546939.361 30334301.893 61599566.809 60841376.016 50916267.657 50690276.616 49891743.79 
55535802.963 56576252.027 56522047.334 51101113.459 38576069.464 40792110.237 84003474.776 83678315.588 88490967.406 
89308618.913 43676042.112 42950169.314 64215917.989 64789034.966 63567457.188 100304407.97 99256653.959 98163321.554 
31968756.607 30109356.05 100003762.51 57430962.695 54698399.196 48761106.246 44458639.158 44097125.265 33612113.251 
47678741.836 48749134.648 49052080.228 43862659.298 43769137.76 58907272.703 52179076.499 54084865.738 55797311.626 
56054964.294 47497813.136 58549087.498 58518270.897 45061511.807 42538740.303 40653600.61 40668452.137 80598310.397 
77751423.782 74650872.701 62705081.123 62802437.381 99961206.117 99959973.098 100004624.9 48741012.892 49891917.011 
28789559.188 25228219.709 51213840.546 80779367.7 49074967.02 59549613.956 51316521.604 63230165.027 64272496.41 
42783593.512 49788774.143 48957829.495 49791267.687 49981908.272 44720563.366 45299095.074 44073661.249 43746873.878 
44519872.463 100104242.11 49618253.851 48643692.976 46410811.374 47300250.28 55859545.668 41478659.426 39291720.571 
48865127.077 85821114.402 83879172.932 87036548.824 88991968.63 43055975.39 42731257.181 43341292.705 84114451.751 
80927454.155 42953370.651 43325923.189 31548229.238 75368528.707 71988541.07 54954714.359 54516844.809 54460712.631 
55470959.445 54970048.843 55532028.999 99990451.837 100038541.35 100033878.16 67349453.783 60206344.573 62453593.723 
44092137.846 44103971.337 55223406.876 68598930.31 69540722.348 80376054.649 78632813.874 99998524.005 100067609.05 
100000108.58 50112643.28 50027489.478 50023936.845 47563294.059 46808435.013 57333325.468 50607987.041 51052323.403 
78190351.174 81000893.01 61512148.698 61662405.033 100015262.7 44985097.932 45427965.837 45722235.253 43238517.891 
40910960.291 38665613.086 41133196.117 48178946.751 59823724.796 100023307.49 47981248.227 43999952.341 43798004.002 
45884864.902 53734393.052 53762931.919 53326758.661 53369496.55 54676182.661 43565947.214 43516923.163 43540617.487 
99892848.788 100062654.21 99768735.615 100098917 52509901.888 99804715.217 43076434.915 58820458.618 61673755.818 
62225771.856 59355570.872 40151854.268 42963546.234 40142109.293 100136709.8 100392315.79 65951390.361 47713950.317 
62696650.669 64800070.765 64809156.761 38941660.672 54050203.929 51638213.543 52426402.936 78790784.519 70420295.01 
61586478.327 56635175.543 56790145.435 74503149.303 47268492.042 41800619.739 42074198.639 80443672.673 83469509.696 
64655722.169 83827478.808 89013377.749 38365392.554 38396163.913 43797928.994 48435726.567 37902137.083 53609833.11 
50793721.666 49431582.408 46824006.089 49364617.421 45838289.441 66499644.237 66113209.944 60796288.482 61753767.361 
70461135.03 57232083.665 61026708.497 54288111.117 15082214.357 19485652.224 83669972.636 36177964.992 36937413.864 
37638837.593 75431206.556 100751011.34 87636172.936 99222588.979 48998285.071 62536692.791 56290533.691 52239445.332 
53969746.354 51167538.901 99956831.534 100120144.9 99974682.943 61885447.491 33311298.843 74567923.795 42766160.588 
49508422.247 49682193.71 50348121.506 50135631.659 37126644.472 38824870.448 44358133.971 45940324.928 58272200.111 
64135461.784 58271114.84 99982294.553 49811419.717 64967318.003 75634192.491 66558009.578 51124918.391 61326352.511 
50653077.809 35547343 58326990.134 53842864.723 75033976.837 70211559.352 32865118.846 79949502.199 77483014.008 
73764505.8 76355783.852 70693899.564 46598407.865 53831010.717 55556467.713 53774296.259 90717677.193 44001615.574 
48009123.091 44005910.038 81509252.578 48591508.048 11723445.973 11349025.871 10956435.63 86971652.878 90675607.811 
87022487.122 41377222.728 48095441.214 36435763.574 40937856.564 63086632.873 56983052.479 73907900.66 37454606.503 
56229771.849 60328725.806 58349405.803 54277388.79 62842104.489 59765682.865 34608846.468 51912303.603 51689271.696 
48335401.946 46821698.031 97745834.43 83256457.488 38792298.033 37665848.505 39760807.402 38679703.234 38689472.827 
38053586.289 20003066.288 16321064.019 55844617.516 53315030.748 56821079.395 74333228.605 69446213.81 78819888.206 
45593429.903 57276462.976 67046664.969 66251430.474 51018122.4 82473843.229 44093193.127 41995715.19 44063858.977 
79606147.704 72905401.796 69716502.125 100408408.29 59922505.601 75887935.047 44896797.37 61926190.765 67162726.45 
65544970.136 67056950.107 64795103.894 62127807.594 47277279.634 46478247.585 46312891.89 44689223.073 39956904.027 
99821217.862 77715114.896 31212463.512 39159496.805 37481489.998 42996396.011 44418750.57 44771072.314 34269245.762 
33941149.705 35969488.491 16138969.029 44680499.421 56552499.743 58582324.945 56854724.598 56898990.881 54945523.615 
99951836.465 99766515.992 95222726.297 93721068.61 94356381.416 38208088.916 44992169.468 42643066.185 52804159.17 
43284900.564 43893179.335 55020908.275 54492204.746 54440980.034 79986284.393 43015508.017 76434437.4 36860848.027 
51002744.839 57959286.22 56042216.175 101045898.76 50758446.487 76046035.348 101927913.05 99651641.659 63706953.375 
59181116.862 67008733.784 44167520.819 43939073.862 43979939.116 54941879.831 17492930.4 83633048.602 35552136.023 
36404177.736 50323623.637 37666621.482 36191737.7 100289930.76 100699334.22 100028536.08 100077238.79 100843975.26 
66340086.443 47092586.146 66897025.982 40796966.714 40815305.858 39883212.796 96565287.738 100774958.07 98558114.565 
97743562.841 101018734.14 100601955.54 91594616.979 95084854.963 88814634.359 71623990.961 42791080.668 48636114.885 
72475978.094 56111836.738 54492915.237 55754464.086 54566823.961 100315373.9 99270453.829 100435127.65 82786007.051 
36824733.471 38084729.568 19010834.968 89436155.424 89971117.204 90391338.94 93400631.69 90595086.084 56696335.115 
30450365.727 24977692.843 64401610.177 43469116.751 43685763.085 87022766.792 87333368.707 66923278.769 17853623.742 
63660665.268 71662929.525 83670742.353 57362947.02 57312463.22 49434113.93 49485031.043 13300711.278 41966399.587 
39417204.7 38780138.889 100027151.38 84191495.687 71620889.606 92214979.08 21568892.797 22028977.839 28406137.937 
57349476.612 69448187.898 68008866.464 70063968.589 53078123.896 53102986.79 52423911.591 64526976.518 100002808.37 
99992407.364 99995947.711 99998295.96 23999950.003 46056290.924 39513752.411 25134749.266 45738218.111 42267282.814 
41069088.346 51370572.895 46922707.136 48898086.459 100002947.07 99561393.722 94957293.181 33163927.448 32446859.383 
32215466.351 87028198.744 86213340.26 46809529.75 78441871.144 85818418.375 83926052.859 52432099.056 40767129.236 
40774424.799 38062133.106 71482495.067 69916943.617 70550734.275 99981194.543 43497496.846 43889883.805 71242921.534 
36106018.601 44545946.164 49876194.692 72281016.932 43872338.603 14557210.748 89605750.1 98935111.163 100552886.44 
99577687.306 14382654.341 10821316.365 96027532.897 99397017.049 49654747.547 70018766.346 85796527.782 85772110.89 
86770110.213 39267488.382 39284797.545 100004258.42 100003650.79 99993753.975 101270758.33 99943577.076 99973983.261 
100287551.47 38787347.246 51656328.028 99921389.688 100069304.03 100000777.19 12933797.346 100396326.48 99761297.655 
52319224.067 45761793.24 99591256.425 52007865.757 53360242.977 50954756.587 50949701.995 50051422.647 63568761.13 
59055297.657 53260614.897 53589952.789 90848133.366 52044121.001 99698089.834 99108885.434 99714467.997 49556282.48 
88431913.109 49391744.836 46108895.487 39096927.493 43278365.673 42957096.898 100084795.79 99774396.275 40118360.597 
40129565.301 94433049.655 28370287.263 104234924.56 54055698.393 56661228.68 71790127.155 57811105.335 65167535.202 
100137364.76 100332354.52 32336848.494 43862477.958 86284171.787 100036876.42 55674933.624 67966197.353 35575579.862 
93425387.007 93445767.217 88331273.622 91616080.921 99929089.078 99040946.209 95482171.603 35565225.093 36127587.78 
38073628.89 29239261.553 100214378.24 100241273.99 35526699.947 49692928.826 11208488.648 34033341.978 99674136.711 
51567307.217 66842277.779 98848475.426 97885290.508 90540712.462 34054221.435 33088227.875 41991033.392 90296952.832 
37371939.824 80215685.623 100012168.97 37738721.009 49983801.594 99998820.61 69741631.852 68968348.749 92263337.449 
56959666.089 11820836.523 67648347.93 67806628.085 99924618.156 20771161.676 48424662.361 68101840.557 53464590.567 
37387725.327 55982383.845 56041859.898 50554222.715 35893873.528 93649153.099 55176551.101 55226838.835 42600450.378 
50819424.658 50511866.198 92845478.902 99989005.963 78974521.047 53496388.439 97401484.467 95766252.612 95680361.659 
53851465.749 53914705.091 34224516.376 43538794.835 49930887.313 53365142.383 53399021.524 94761648.467 49040286.481 
52459062.819 40895233.32 48364578.312 47288704.459 56255299.263 56315184.031 29758960.542 42710123.259 
