# vtk DataFile Version 4.1
vtk output
ASCII
DATASET UNSTRUCTURED_GRID
POINTS 1420 float
0 0 0 0 -1000 -3.33067e-13 16000 0 0 
16000 -1000 -3.33067e-13 16000 -5.55112e-13 2500 16000 -1000 2500 
11000 -5.55112e-13 2500 11000 -1000 2500 10000 -3.33067e-13 1500 
10000 -1000 1500 9000 -3.33067e-13 1500 9000 -1000 1500 
8000 -5.55112e-13 2500 8000 -1000 2500 7000 -5.55112e-13 2500 
7000 -1000 2500 5000 -1.11022e-12 5000 5000 -1000 5000 
0 -1.11022e-12 5000 0 -1000 5000 0 -500 -1.66533e-13 
16000 -500 -1.66533e-13 1000 0 0 2000 0 0 
3000 0 0 4000 0 0 5000 0 0 
6000 0 0 7000 0 0 8000 0 0 
9000 0 0 10000 0 0 11000 0 0 
12000 0 0 13000 0 0 14000 0 0 
15000 0 0 500 0 0 1500 0 0 
2500 0 0 3500 0 0 4500 0 0 
5500 0 0 6500 0 0 7500 0 0 
8500 0 0 9500 0 0 10500 0 0 
11500 0 0 12500 0 0 13500 0 0 
14500 0 0 15500 0 0 1000 -1000 -3.33067e-13 
2000 -1000 -3.33067e-13 3000 -1000 -3.33067e-13 4000 -1000 -3.33067e-13 
5000 -1000 -3.33067e-13 6000 -1000 -3.33067e-13 7000 -1000 -3.33067e-13 
8000 -1000 -3.33067e-13 9000 -1000 -3.33067e-13 10000 -1000 -3.33067e-13 
11000 -1000 -3.33067e-13 12000 -1000 -3.33067e-13 13000 -1000 -3.33067e-13 
14000 -1000 -3.33067e-13 15000 -1000 -3.33067e-13 500 -1000 -3.33067e-13 
1500 -1000 -3.33067e-13 2500 -1000 -3.33067e-13 3500 -1000 -3.33067e-13 
4500 -1000 -3.33067e-13 5500 -1000 -3.33067e-13 6500 -1000 -3.33067e-13 
7500 -1000 -3.33067e-13 8500 -1000 -3.33067e-13 9500 -1000 -3.33067e-13 
10500 -1000 -3.33067e-13 11500 -1000 -3.33067e-13 12500 -1000 -3.33067e-13 
13500 -1000 -3.33067e-13 14500 -1000 -3.33067e-13 15500 -1000 -3.33067e-13 
16000 -500 2500 16000 -3.70074e-13 1666.67 16000 -1.85037e-13 833.333 
16000 -4.62593e-13 2083.33 16000 -2.77556e-13 1250 16000 -9.25186e-14 416.667 
16000 -1000 1666.67 16000 -1000 833.333 16000 -1000 2083.33 
16000 -1000 1250 16000 -1000 416.667 11000 -500 2500 
12000 -5.55112e-13 2500 13000 -5.55112e-13 2500 14000 -5.55112e-13 2500 
15000 -5.55112e-13 2500 11500 -5.55112e-13 2500 12500 -5.55112e-13 2500 
13500 -5.55112e-13 2500 14500 -5.55112e-13 2500 15500 -5.55112e-13 2500 
12000 -1000 2500 13000 -1000 2500 14000 -1000 2500 
15000 -1000 2500 11500 -1000 2500 12500 -1000 2500 
13500 -1000 2500 14500 -1000 2500 15500 -1000 2500 
10000 -500 1500 10500 -4.44089e-13 2000 10250 -3.88578e-13 1750 
10750 -4.996e-13 2250 10500 -1000 2000 10250 -1000 1750 
10750 -1000 2250 9000 -500 1500 9500 -3.33067e-13 1500 
9500 -1000 1500 8000 -500 2500 8500 -4.44089e-13 2000 
8250 -4.996e-13 2250 8750 -3.88578e-13 1750 8500 -1000 2000 
8250 -1000 2250 8750 -1000 1750 7000 -500 2500 
7500 -5.55112e-13 2500 7500 -1000 2500 5000 -500 5000 
5500 -9.71445e-13 4375 6000 -8.32667e-13 3750 6500 -6.93889e-13 3125 
5250 -1.04083e-12 4687.5 5750 -9.02056e-13 4062.5 6250 -7.63278e-13 3437.5 
6750 -6.245e-13 2812.5 5500 -1000 4375 6000 -1000 3750 
6500 -1000 3125 5250 -1000 4687.5 5750 -1000 4062.5 
6250 -1000 3437.5 6750 -1000 2812.5 0 -500 5000 
1000 -1.11022e-12 5000 2000 -1.11022e-12 5000 3000 -1.11022e-12 5000 
4000 -1.11022e-12 5000 500 -1.11022e-12 5000 1500 -1.11022e-12 5000 
2500 -1.11022e-12 5000 3500 -1.11022e-12 5000 4500 -1.11022e-12 5000 
1000 -1000 5000 2000 -1000 5000 3000 -1000 5000 
4000 -1000 5000 500 -1000 5000 1500 -1000 5000 
2500 -1000 5000 3500 -1000 5000 4500 -1000 5000 
0 -2.22045e-13 1000 0 -4.44089e-13 2000 0 -6.66134e-13 3000 
0 -8.88178e-13 4000 0 -1.11022e-13 500 0 -3.33067e-13 1500 
0 -5.55112e-13 2500 0 -7.77156e-13 3500 0 -9.99201e-13 4500 
0 -1000 1000 0 -1000 2000 0 -1000 3000 
0 -1000 4000 0 -1000 500 0 -1000 1500 
0 -1000 2500 0 -1000 3500 0 -1000 4500 
15500 -500 -1.66533e-13 1500 -500 -1.66533e-13 2500 -500 -1.66533e-13 
3500 -500 -1.66533e-13 4500 -500 -1.66533e-13 5500 -500 -1.66533e-13 
6500 -500 -1.66533e-13 7500 -500 -1.66533e-13 8500 -500 -1.66533e-13 
9500 -500 -1.66533e-13 11500 -500 -1.66533e-13 12500 -500 -1.66533e-13 
13500 -500 -1.66533e-13 14500 -500 -1.66533e-13 10500 -500 -1.66533e-13 
500 -500 -1.66533e-13 250 -250 -8.32667e-14 250 -750 -2.498e-13 
750 -250 -8.32667e-14 750 -750 -2.498e-13 15750 -750 -2.498e-13 
15750 -250 -8.32667e-14 15250 -250 -8.32667e-14 15250 -750 -2.498e-13 
1750 -250 -8.32667e-14 1250 -250 -8.32667e-14 1000 -500 -1.66533e-13 
1250 -750 -2.498e-13 2750 -250 -8.32667e-14 2250 -250 -8.32667e-14 
2000 -500 -1.66533e-13 1750 -750 -2.498e-13 2250 -750 -2.498e-13 
3750 -250 -8.32667e-14 3250 -250 -8.32667e-14 3000 -500 -1.66533e-13 
2750 -750 -2.498e-13 3250 -750 -2.498e-13 4750 -250 -8.32667e-14 
4250 -250 -8.32667e-14 4000 -500 -1.66533e-13 3750 -750 -2.498e-13 
4250 -750 -2.498e-13 5750 -250 -8.32667e-14 5250 -250 -8.32667e-14 
5000 -500 -1.66533e-13 4750 -750 -2.498e-13 5250 -750 -2.498e-13 
6750 -250 -8.32667e-14 6250 -250 -8.32667e-14 6000 -500 -1.66533e-13 
5750 -750 -2.498e-13 6250 -750 -2.498e-13 7750 -250 -8.32667e-14 
7250 -250 -8.32667e-14 7000 -500 -1.66533e-13 6750 -750 -2.498e-13 
7250 -750 -2.498e-13 8750 -250 -8.32667e-14 8250 -250 -8.32667e-14 
8000 -500 -1.66533e-13 7750 -750 -2.498e-13 8250 -750 -2.498e-13 
9750 -250 -8.32667e-14 9250 -250 -8.32667e-14 9000 -500 -1.66533e-13 
8750 -750 -2.498e-13 9250 -750 -2.498e-13 10750 -250 -8.32667e-14 
10250 -250 -8.32667e-14 10000 -500 -1.66533e-13 9750 -750 -2.498e-13 
10250 -750 -2.498e-13 11750 -250 -8.32667e-14 11250 -250 -8.32667e-14 
11000 -500 -1.66533e-13 11250 -750 -2.498e-13 10750 -750 -2.498e-13 
12750 -250 -8.32667e-14 12250 -250 -8.32667e-14 12000 -500 -1.66533e-13 
11750 -750 -2.498e-13 12250 -750 -2.498e-13 13750 -250 -8.32667e-14 
13250 -250 -8.32667e-14 13000 -500 -1.66533e-13 12750 -750 -2.498e-13 
13250 -750 -2.498e-13 14750 -250 -8.32667e-14 14250 -250 -8.32667e-14 
14000 -500 -1.66533e-13 13750 -750 -2.498e-13 14250 -750 -2.498e-13 
15000 -500 -1.66533e-13 14750 -750 -2.498e-13 16000 -500 501.701 
16000 -500 1998.3 16000 -500 1250 16000 -250 250.85 
16000 -750 250.85 16000 -250 667.517 16000 -750 667.517 
16000 -750 2249.15 16000 -250 2249.15 16000 -250 1832.48 
16000 -750 1832.48 16000 -250 1458.33 16000 -250 1041.67 
16000 -500 1624.15 16000 -500 875.85 16000 -750 1041.67 
16000 -750 1458.33 15500 -500 2500 11500 -500 2500 
12500 -500 2500 13500 -500 2500 14500 -500 2500 
15750 -250 2500 15750 -750 2500 15250 -250 2500 
15250 -750 2500 11250 -750 2500 11250 -250 2500 
11750 -250 2500 11750 -750 2500 12750 -750 2500 
12250 -750 2500 12000 -500 2500 12250 -250 2500 
13750 -750 2500 13250 -750 2500 12750 -250 2500 
13000 -500 2500 13250 -250 2500 14750 -750 2500 
14250 -750 2500 13750 -250 2500 14000 -500 2500 
14250 -250 2500 15000 -500 2500 14750 -250 2500 
10650 -500 2150 10330 -500 1830 10825 -250 2325 
10825 -750 2325 10575 -250 2075 10575 -750 2075 
10165 -750 1665 10165 -250 1665 10415 -250 1915 
10415 -750 1915 10490 -500 1990 9500 -500 1500 
9750 -250 1500 9750 -750 1500 9250 -250 1500 
9250 -750 1500 8350 -500 2150 8670 -500 1830 
8835 -250 1665 8835 -750 1665 8585 -250 1915 
8585 -750 1915 8175 -750 2325 8175 -250 2325 
8425 -250 2075 8425 -750 2075 8510 -500 1990 
7500 -500 2500 7750 -250 2500 7750 -750 2500 
7250 -250 2500 7250 -750 2500 6678.57 -500 2901.79 
5750 -500 4062.5 6250 -500 3437.5 5321.43 -500 4598.21 
6839.29 -250 2700.89 6839.29 -750 2700.89 6589.29 -250 3013.39 
6589.29 -750 3013.39 5160.71 -750 4799.11 5160.71 -250 4799.11 
5410.71 -250 4486.61 5410.71 -750 4486.61 5625 -250 4218.75 
5875 -250 3906.25 5535.71 -500 4330.36 6125 -250 3593.75 
6375 -250 3281.25 6000 -500 3750 6464.29 -500 3169.64 
5875 -750 3906.25 5625 -750 4218.75 6375 -750 3281.25 
6125 -750 3593.75 4500 -500 5000 500 -500 5000 
1500 -500 5000 2500 -500 5000 3500 -500 5000 
4750 -250 5000 4750 -750 5000 4250 -250 5000 
4250 -750 5000 250 -750 5000 250 -250 5000 
750 -250 5000 750 -750 5000 1250 -250 5000 
1750 -250 5000 1000 -500 5000 1250 -750 5000 
2250 -250 5000 2750 -250 5000 1750 -750 5000 
2000 -500 5000 2250 -750 5000 3250 -250 5000 
3750 -250 5000 2750 -750 5000 3000 -500 5000 
3250 -750 5000 4000 -500 5000 3750 -750 5000 
0 -500 4500 0 -500 3500 0 -500 2500 
0 -500 500 0 -500 1500 0 -750 250 
0 -250 250 0 -250 750 0 -750 750 
0 -250 4750 0 -750 4750 0 -250 4250 
0 -750 4250 0 -750 1750 0 -750 1250 
0 -500 1000 0 -250 1250 0 -750 2750 
0 -750 2250 0 -250 2250 0 -500 2000 
0 -250 1750 0 -750 3750 0 -750 3250 
0 -250 3250 0 -500 3000 0 -250 2750 
0 -500 4000 0 -250 3750 3804.82 -5.73407e-13 2582.4 
5510.46 -3.9908e-13 1797.29 1857.01 -4.13924e-13 1864.15 2547.62 -7.69518e-13 3465.6 
7598.14 -2.70659e-13 1218.94 11556.5 -2.87882e-13 1296.51 4890.48 -7.21221e-13 3248.09 
14805.6 -2.77556e-13 1250 3044.64 -3.08678e-13 1390.16 13374.6 -2.83646e-13 1277.43 
1214.61 -7.59917e-13 3422.36 3807.9 -8.7561e-13 3943.4 4433.91 -2.05084e-13 923.616 
6163.12 -2.66347e-13 1199.52 1320.02 -2.55702e-13 1151.58 5603.24 -6.38432e-13 2875.24 
9500 -1.66533e-13 750 8265.63 -1.53582e-13 691.67 879.525 -5.8385e-13 2629.43 
10786.3 -1.53737e-13 692.369 4665.83 -9.04816e-13 4074.93 12486.2 -1.71627e-13 772.939 
2142.72 -2.1167e-13 953.276 2902.84 -5.4109e-13 2436.85 6250.65 -4.78152e-13 2153.41 
4650.21 -5.45105e-13 2454.94 5309.02 -2.0813e-13 937.332 7821.97 -4.04559e-13 1821.97 
1771.53 -8.92451e-13 4019.24 1867.37 -6.45499e-13 2907.07 11133.7 -4.04204e-13 1820.37 
12516.6 -3.89818e-13 1755.59 6961.5 -3.55638e-13 1601.65 2970.88 -9.26969e-13 4174.7 
772.866 -9.28005e-13 4179.36 14295.5 -1.729e-13 778.671 14266.5 -3.81984e-13 1720.3 
3616.05 -1.701e-13 766.06 3329.1 -7.04926e-13 3174.71 3876.79 -3.90165e-13 1757.15 
5331.91 -8.13716e-13 3664.65 15268.1 -4.02899e-13 1814.49 15273 -1.52175e-13 685.334 
6896.67 -1.71021e-13 770.21 8900.44 -1.98056e-13 891.963 7552.09 -1.19052e-13 536.164 
10117.8 -1.97137e-13 887.825 4137.89 -7.16644e-13 3227.48 8373.49 -3.0599e-13 1378.05 
11500 -1.1719e-13 527.778 743.795 -3.65542e-13 1646.26 10623.4 -3.1116e-13 1401.34 
666.882 -1.45707e-13 656.208 11641.4 -4.38425e-13 1974.49 1500 -1.15448e-13 519.934 
15488.6 -2.7755e-13 1249.98 533.388 -7.72805e-13 3480.4 13472.5 -4.36165e-13 1964.31 
13472.5 -1.18947e-13 535.689 2760.68 -1.3809e-13 621.9 4753.37 -3.57728e-13 1611.06 
333.441 -7.28537e-14 328.104 833.441 -7.28537e-14 328.104 333.441 -1.83876e-13 828.104 
15636.5 -7.60874e-14 342.667 15636.5 -1.68606e-13 759.334 15136.5 -7.60874e-14 342.667 
15634.1 -3.86487e-13 1740.58 15634.1 -4.79005e-13 2157.25 15134.1 -4.79005e-13 2157.25 
11066.9 -4.79658e-13 2160.19 10816.9 -4.24146e-13 1910.19 11820.7 -4.96768e-13 2237.25 
11320.7 -4.96768e-13 2237.25 11387.5 -4.21315e-13 1897.43 9750 -2.498e-13 1125 
9250 -2.498e-13 1125 10561.7 -3.77624e-13 1700.67 10311.7 -3.22113e-13 1450.67 
10058.9 -2.65102e-13 1193.91 9808.9 -1.81835e-13 818.912 10370.6 -2.54148e-13 1144.58 
8686.74 -3.19528e-13 1439.03 8436.74 -3.75039e-13 1689.03 9200.22 -1.82295e-13 820.981 
8950.22 -2.65561e-13 1195.98 8636.97 -2.52023e-13 1135.01 7910.98 -4.79835e-13 2160.98 
7410.98 -4.79835e-13 2160.98 8160.98 -4.24324e-13 1910.98 6625.33 -5.16632e-13 2326.7 
6375.33 -5.86021e-13 2639.2 6980.75 -4.55375e-13 2050.83 6606.08 -4.16895e-13 1877.53 
7391.74 -3.80098e-13 1711.81 4832.91 -1.00752e-12 4537.46 4332.91 -1.00752e-12 4537.46 
5082.91 -9.3813e-13 4224.96 886.433 -1.01911e-12 4589.68 386.433 -1.01911e-12 4589.68 
386.433 -9.08092e-13 4089.68 15744.3 -2.31294e-13 1041.65 15744.3 -3.23812e-13 1458.32 
15378.4 -3.40225e-13 1532.24 15380.8 -2.14863e-13 967.655 10878.6 -3.57682e-13 1610.86 
1250 -5.77242e-14 259.967 1750 -5.77242e-14 259.967 1083.44 -1.30578e-13 588.071 
2380.34 -6.90448e-14 310.95 2880.34 -6.90448e-14 310.95 1821.36 -1.63559e-13 736.605 
2071.36 -1.05835e-13 476.638 2451.7 -1.7488e-13 787.588 3308.02 -8.50498e-14 383.03 
3808.02 -8.50498e-14 383.03 3188.36 -1.54095e-13 693.98 4216.96 -1.02542e-13 461.808 
4716.96 -1.02542e-13 461.808 4024.98 -1.87592e-13 844.838 5154.51 -1.04065e-13 468.666 
5654.51 -1.04065e-13 468.666 4871.46 -2.06607e-13 930.474 6448.33 -8.55105e-14 385.105 
6948.33 -8.55105e-14 385.105 5736.07 -2.37238e-13 1068.43 6081.56 -1.33173e-13 599.759 
6529.9 -2.18684e-13 984.864 7276.04 -5.95262e-14 268.082 7776.04 -5.95262e-14 268.082 
7224.38 -1.45037e-13 653.187 8132.81 -7.67908e-14 345.835 8632.82 -7.67908e-14 345.835 
7908.86 -1.36317e-13 613.917 9250 -8.32667e-14 375 9750 -8.32667e-14 375 
8950.22 -9.90278e-14 445.981 8583.04 -1.75819e-13 791.816 10393.2 -7.68684e-14 346.184 
10893.2 -7.68684e-14 346.184 10058.9 -9.85684e-14 443.913 10452.1 -1.75437e-13 790.097 
11250 -5.85951e-14 263.889 11750 -5.85951e-14 263.889 11143.2 -1.35463e-13 610.073 
12243.1 -8.58135e-14 386.47 12743.1 -8.58135e-14 386.47 11993.1 -1.44409e-13 650.359 
13236.3 -5.94735e-14 267.845 13736.3 -5.94735e-14 267.845 12979.4 -1.45287e-13 654.314 
14147.7 -8.64499e-14 389.336 14647.7 -8.64499e-14 389.336 13884 -1.45923e-13 657.18 
14784.2 -1.62537e-13 732.003 12758.3 -4.72465e-13 2127.79 12258.3 -4.72465e-13 2127.79 
12079 -4.14122e-13 1865.04 13736.3 -4.95638e-13 2232.16 13236.3 -4.95638e-13 2232.16 
12994.5 -4.12991e-13 1859.95 14633.3 -4.68548e-13 2110.15 14133.3 -4.68548e-13 2110.15 
13869.5 -4.09074e-13 1842.31 14767.3 -3.92441e-13 1767.4 8097.73 -3.55274e-13 1600.01 
1885.77 -1.00134e-12 4509.62 1385.77 -1.00134e-12 4509.62 1272.2 -9.10228e-13 4099.3 
2985.44 -1.0186e-12 4587.35 2485.44 -1.0186e-12 4587.35 2371.21 -9.0971e-13 4096.97 
3485.44 -1.0186e-12 4587.35 4236.87 -8.90213e-13 4009.16 3903.95 -9.92917e-13 4471.7 
3389.39 -9.0129e-13 4059.05 5665.96 -8.23192e-13 3707.33 5415.96 -8.92581e-13 4019.83 
4998.87 -8.59266e-13 3869.79 6051.62 -6.6616e-13 3000.12 5801.62 -7.35549e-13 3312.62 
5467.58 -7.26074e-13 3269.95 5926.95 -5.58292e-13 2514.32 371.898 -4.04816e-13 1823.13 
371.898 -2.93794e-13 1323.13 705.339 -2.55625e-13 1151.23 439.763 -6.24992e-13 2814.71 
439.763 -5.13969e-13 2314.71 811.66 -4.74696e-13 2137.84 266.694 -8.30492e-13 3740.2 
266.694 -7.19469e-13 3240.2 706.457 -6.78327e-13 3054.91 653.127 -8.50405e-13 3829.88 
3115.97 -6.23008e-13 2805.78 3566.96 -6.39167e-13 2878.55 3353.83 -5.57249e-13 2509.62 
3840.81 -4.81786e-13 2169.77 3389.81 -4.65628e-13 2097 4263.5 -4.67635e-13 2106.04 
4227.51 -5.59256e-13 2518.67 3971.35 -6.45025e-13 2904.94 4394.05 -6.30875e-13 2841.21 
3733.49 -7.10785e-13 3201.09 5880.56 -4.38616e-13 1975.35 6206.89 -3.72249e-13 1676.46 
5836.79 -3.32713e-13 1498.41 5409.74 -3.03605e-13 1367.31 5556.85 -5.18756e-13 2336.27 
5080.34 -4.72092e-13 2126.12 5126.72 -5.91768e-13 2665.09 5131.92 -3.78404e-13 1704.18 
4701.79 -4.51417e-13 2033 5031.19 -2.82929e-13 1274.2 2593.68 -2.60174e-13 1171.72 
1999.87 -3.12797e-13 1408.71 2450.83 -3.61301e-13 1627.16 2379.93 -4.77507e-13 2150.5 
2973.74 -4.24884e-13 1913.51 1731.37 -2.33686e-13 1052.43 1588.52 -3.34813e-13 1507.86 
1031.91 -3.10622e-13 1398.92 1300.41 -3.89733e-13 1755.2 1373.45 -6.14674e-13 2768.25 
1862.19 -5.29712e-13 2385.61 1368.27 -4.98887e-13 2246.79 2385.1 -5.93295e-13 2671.96 
2207.49 -7.07508e-13 3186.33 2725.23 -6.55304e-13 2951.23 2938.36 -7.37222e-13 3320.15 
1819.45 -7.68975e-13 3463.16 2159.57 -8.30984e-13 3742.42 2759.25 -8.48244e-13 3820.15 
3149.99 -8.15948e-13 3674.7 7575.12 -1.94856e-13 877.552 7931.89 -2.1212e-13 955.305 
7985.82 -2.88324e-13 1298.5 8319.56 -2.29786e-13 1034.86 7279.82 -3.13149e-13 1410.3 
7710.06 -3.37609e-13 1520.46 7247.4 -2.2084e-13 994.576 6929.08 -2.63329e-13 1185.93 
11528.2 -2.02536e-13 912.143 11171.4 -2.2081e-13 994.438 10704.9 -2.32448e-13 1046.85 
11090 -2.99521e-13 1348.92 12036.5 -3.3885e-13 1526.05 12501.4 -2.80723e-13 1264.26 
12021.3 -2.29755e-13 1034.72 11345.1 -3.46043e-13 1558.44 11598.9 -3.63154e-13 1635.5 
4770.35 -6.33163e-13 2851.51 5246.86 -6.79826e-13 3061.67 5111.2 -7.67469e-13 3456.37 
4778.16 -8.13018e-13 3661.51 4514.18 -7.18933e-13 3237.78 4401.86 -8.1073e-13 3651.2 
14281 -2.77442e-13 1249.49 14536 -3.2977e-13 1485.15 14550.5 -2.25228e-13 1014.34 
15039.3 -2.14865e-13 967.667 15036.8 -3.40227e-13 1532.25 15147.1 -2.77553e-13 1249.99 
2902.66 -2.23384e-13 1006.03 3460.71 -3.49422e-13 1573.66 3746.42 -2.80132e-13 1261.6 
3330.34 -2.39389e-13 1078.11 12945.6 -3.36732e-13 1516.51 12930.4 -2.27636e-13 1025.18 
13423.5 -2.01296e-13 906.558 13423.5 -3.59905e-13 1620.87 13820.5 -3.32815e-13 1498.86 
13835 -2.28273e-13 1028.05 1540.99 -7.02708e-13 3164.72 1047.07 -6.71883e-13 3025.89 
873.999 -7.66361e-13 3451.38 1493.07 -8.26184e-13 3720.8 993.738 -8.43961e-13 3800.86 
3972.89 -7.96127e-13 3585.44 3568.5 -7.90268e-13 3559.05 4593.64 -2.81406e-13 1267.34 
4155.35 -2.97625e-13 1340.38 4315.08 -3.73947e-13 1684.11 6562.31 -3.10992e-13 1400.58 
1410.01 -1.85575e-13 835.757 993.451 -2.00705e-13 903.894 3804.82 -1000 2582.4 
5510.46 -1000 1797.29 1857.01 -1000 1864.15 2547.62 -1000 3465.6 
7598.14 -1000 1218.94 11556.5 -1000 1296.51 4890.48 -1000 3248.09 
14805.6 -1000 1250 3044.64 -1000 1390.16 13374.6 -1000 1277.43 
1214.61 -1000 3422.36 3807.9 -1000 3943.4 4433.91 -1000 923.616 
6163.12 -1000 1199.52 1320.02 -1000 1151.58 5603.24 -1000 2875.24 
9500 -1000 750 8265.63 -1000 691.67 879.525 -1000 2629.43 
10786.3 -1000 692.369 4665.83 -1000 4074.93 12486.2 -1000 772.939 
2142.72 -1000 953.276 2902.84 -1000 2436.85 6250.65 -1000 2153.41 
4650.21 -1000 2454.94 5309.02 -1000 937.332 7821.97 -1000 1821.97 
1771.53 -1000 4019.24 1867.37 -1000 2907.07 11133.7 -1000 1820.37 
12516.6 -1000 1755.59 6961.5 -1000 1601.65 2970.88 -1000 4174.7 
772.866 -1000 4179.36 14295.5 -1000 1729.16 14318 -1000 782.231 
3616.05 -1000 766.06 3329.1 -1000 3174.71 3876.79 -1000 1757.15 
5331.91 -1000 3664.65 15276.7 -1000 685.927 15273 -1000 1815.97 
6896.67 -1000 770.21 8900.44 -1000 891.963 7552.09 -1000 536.164 
10117.8 -1000 887.825 4137.89 -1000 3227.48 8373.49 -1000 1378.05 
11500 -1000 527.778 743.795 -1000 1646.26 10623.4 -1000 1401.34 
666.882 -1000 656.208 11641.4 -1000 1974.49 1500 -1000 519.934 
15489.8 -1000 1250.27 533.388 -1000 3480.4 13472.5 -1000 1964.31 
13472.5 -1000 535.689 2760.68 -1000 621.9 4753.37 -1000 1611.06 
833.441 -1000 328.104 333.441 -1000 328.104 333.441 -1000 828.104 
15638.4 -1000 759.63 15638.4 -1000 342.964 15138.4 -1000 342.964 
15636.5 -1000 2157.99 15636.5 -1000 1741.32 15136.5 -1000 2157.99 
10816.9 -1000 1910.19 11066.9 -1000 2160.19 11320.7 -1000 2237.25 
11820.7 -1000 2237.25 11387.5 -1000 1897.43 9250 -1000 1125 
9750 -1000 1125 10311.7 -1000 1450.67 10561.7 -1000 1700.67 
9808.9 -1000 818.912 10058.9 -1000 1193.91 10370.6 -1000 1144.58 
8436.74 -1000 1689.03 8686.74 -1000 1439.03 8950.22 -1000 1195.98 
9200.22 -1000 820.981 8636.97 -1000 1135.01 7410.98 -1000 2160.98 
7910.98 -1000 2160.98 8160.98 -1000 1910.98 6375.33 -1000 2639.2 
6625.33 -1000 2326.7 6606.08 -1000 1877.53 6980.75 -1000 2050.83 
7391.74 -1000 1711.81 4332.91 -1000 4537.46 4832.91 -1000 4537.46 
5082.91 -1000 4224.96 386.433 -1000 4589.68 886.433 -1000 4589.68 
386.433 -1000 4089.68 15744.9 -1000 1458.47 15744.9 -1000 1041.8 
15381.4 -1000 1533.12 15383.3 -1000 968.099 10878.6 -1000 1610.86 
12258.3 -1000 2127.79 12758.3 -1000 2127.79 12079 -1000 1865.04 
13236.3 -1000 2232.16 13736.3 -1000 2232.16 12994.5 -1000 1859.95 
14147.7 -1000 2114.58 14647.7 -1000 2114.58 13884 -1000 1846.74 
14784.2 -1000 1772.57 1750 -1000 259.967 1250 -1000 259.967 
1083.44 -1000 588.071 2880.34 -1000 310.95 2380.34 -1000 310.95 
2071.36 -1000 476.638 1821.36 -1000 736.605 2451.7 -1000 787.588 
3808.02 -1000 383.03 3308.02 -1000 383.03 3188.36 -1000 693.98 
4716.96 -1000 461.808 4216.96 -1000 461.808 4024.98 -1000 844.838 
5654.51 -1000 468.666 5154.51 -1000 468.666 4871.46 -1000 930.474 
6948.33 -1000 385.105 6448.33 -1000 385.105 6081.56 -1000 599.759 
5736.07 -1000 1068.43 6529.9 -1000 984.864 7776.04 -1000 268.082 
7276.04 -1000 268.082 7224.38 -1000 653.187 8632.82 -1000 345.835 
8132.81 -1000 345.835 7908.86 -1000 613.917 9750 -1000 375 
9250 -1000 375 8950.22 -1000 445.981 8583.04 -1000 791.816 
10893.2 -1000 346.184 10393.2 -1000 346.184 10058.9 -1000 443.913 
10452.1 -1000 790.097 11750 -1000 263.889 11250 -1000 263.889 
11143.2 -1000 610.073 12743.1 -1000 386.47 12243.1 -1000 386.47 
11993.1 -1000 650.359 13736.3 -1000 267.845 13236.3 -1000 267.845 
12979.4 -1000 654.314 14659 -1000 391.115 14159 -1000 391.115 
13895.3 -1000 658.96 14797.4 -1000 734.079 8097.73 -1000 1600.01 
1385.77 -1000 4509.62 1885.77 -1000 4509.62 1272.2 -1000 4099.3 
2485.44 -1000 4587.35 2985.44 -1000 4587.35 2371.21 -1000 4096.97 
3485.44 -1000 4587.35 3903.95 -1000 4471.7 4236.87 -1000 4009.16 
3389.39 -1000 4059.05 5415.96 -1000 4019.83 5665.96 -1000 3707.33 
4998.87 -1000 3869.79 5801.62 -1000 3312.62 6051.62 -1000 3000.12 
5467.58 -1000 3269.95 5926.95 -1000 2514.32 371.898 -1000 1323.13 
371.898 -1000 1823.13 705.339 -1000 1151.23 439.763 -1000 2314.71 
439.763 -1000 2814.71 811.66 -1000 2137.84 266.694 -1000 3240.2 
266.694 -1000 3740.2 706.457 -1000 3054.91 653.127 -1000 3829.88 
3353.83 -1000 2509.62 3566.96 -1000 2878.55 3115.97 -1000 2805.78 
3389.81 -1000 2097 3840.81 -1000 2169.77 4227.51 -1000 2518.67 
4263.5 -1000 2106.04 4394.05 -1000 2841.21 3971.35 -1000 2904.94 
3733.49 -1000 3201.09 5836.79 -1000 1498.41 6206.89 -1000 1676.46 
5880.56 -1000 1975.35 5409.74 -1000 1367.31 5556.85 -1000 2336.27 
5126.72 -1000 2665.09 5080.34 -1000 2126.12 4701.79 -1000 2033 
5131.92 -1000 1704.18 5031.19 -1000 1274.2 2450.83 -1000 1627.16 
1999.87 -1000 1408.71 2593.68 -1000 1171.72 2973.74 -1000 1913.51 
2379.93 -1000 2150.5 1588.52 -1000 1507.86 1731.37 -1000 1052.43 
1300.41 -1000 1755.2 1031.91 -1000 1398.92 1368.27 -1000 2246.79 
1862.19 -1000 2385.61 1373.45 -1000 2768.25 2385.1 -1000 2671.96 
2725.23 -1000 2951.23 2207.49 -1000 3186.33 2938.36 -1000 3320.15 
2159.57 -1000 3742.42 1819.45 -1000 3463.16 2759.25 -1000 3820.15 
3149.99 -1000 3674.7 7931.89 -1000 955.305 7575.12 -1000 877.552 
8319.56 -1000 1034.86 7985.82 -1000 1298.5 7710.06 -1000 1520.46 
7279.82 -1000 1410.3 6929.08 -1000 1185.93 7247.4 -1000 994.576 
11171.4 -1000 994.438 11528.2 -1000 912.143 11090 -1000 1348.92 
10704.9 -1000 1046.85 12021.3 -1000 1034.72 12501.4 -1000 1264.26 
12036.5 -1000 1526.05 11345.1 -1000 1558.44 11598.9 -1000 1635.5 
5246.86 -1000 3061.67 4770.35 -1000 2851.51 5111.2 -1000 3456.37 
4778.16 -1000 3661.51 4401.86 -1000 3651.2 4514.18 -1000 3237.78 
14550.5 -1000 1489.58 14306.7 -1000 1255.7 14561.8 -1000 1016.12 
15039.3 -1000 1532.99 15041.1 -1000 967.964 15147.7 -1000 1250.14 
2902.66 -1000 1006.03 3460.71 -1000 1573.66 3330.34 -1000 1078.11 
3746.42 -1000 1261.6 12930.4 -1000 1025.18 12945.6 -1000 1516.51 
13423.5 -1000 906.558 13423.5 -1000 1620.87 13835 -1000 1503.3 
13846.3 -1000 1029.83 1047.07 -1000 3025.89 1540.99 -1000 3164.72 
873.999 -1000 3451.38 1493.07 -1000 3720.8 993.738 -1000 3800.86 
3972.89 -1000 3585.44 3568.5 -1000 3559.05 4593.64 -1000 1267.34 
4155.35 -1000 1340.38 4315.08 -1000 1684.11 6562.31 -1000 1400.58 
1410.01 -1000 835.757 993.451 -1000 903.894 15147.1 -500 1249.99 
15489.2 -500 1250.12 15382.7 -500 967.951 15380.8 -500 1532.97 
1500 -750 259.967 1500 -250 259.967 1500 -500 519.934 
1821.36 -500 736.605 1821.36 -250 476.638 8361.74 -250 1764.03 
8521.74 -250 1604.03 8361.74 -750 1764.03 8521.74 -750 1604.03 
8373.49 -500 1378.05 10878.6 -500 1610.86 11133.7 -500 1820.37 
11345.1 -500 1558.44 11090 -500 1348.92 15039.3 -500 967.667 
14805.6 -500 1250 15036.8 -500 1532.25 5540.96 -750 3863.58 
5540.96 -250 3863.58 5331.91 -500 3664.65 5326.67 -750 4131.43 
5326.67 -250 4131.43 14550.5 -500 1489.58 14781.8 -500 1771.83 
10891.9 -250 1985.19 10636.7 -250 1775.67 10891.9 -750 1985.19 
11075 -500 2325 11316.9 -250 2160.19 11316.9 -750 2160.19 
8785.22 -250 1360.98 8636.97 -500 1135.01 7575.12 -500 877.552 
7931.89 -500 955.305 7908.86 -500 613.917 7552.09 -500 536.164 
14795.5 -500 733.782 14561.8 -500 1016.12 8319.56 -500 1034.86 
7985.82 -500 1298.5 7526.04 -750 268.082 7526.04 -250 268.082 
7882.81 -250 345.835 266.694 -250 2990.2 533.388 -500 3480.4 
266.694 -750 2990.2 266.694 -500 3240.2 266.694 -250 3490.2 
266.694 -750 3490.2 1821.36 -750 476.638 2142.72 -500 953.276 
1083.44 -750 328.104 1083.44 -500 588.071 9500 -250 375 
9808.9 -250 443.913 10117.8 -500 887.825 9808.9 -750 443.913 
9808.9 -500 818.912 7598.14 -500 1218.94 9500 -750 375 
9500 -500 750 15744.3 -250 1249.99 15636.5 -750 1532.99 
15744.9 -750 1250.14 9200.22 -250 445.981 9200.22 -500 820.981 
9200.22 -750 445.981 8900.44 -500 891.963 8700.22 -250 445.981 
8700.22 -750 445.981 8950.22 -500 445.981 15638.4 -750 967.964 
8785.22 -750 1360.98 6961.5 -500 1601.65 7391.74 -500 1711.81 
7230.75 -250 2050.83 7660.98 -750 2160.98 7230.75 -750 2050.83 
12508.3 -250 2127.79 12986.3 -250 2232.16 12986.3 -750 2232.16 
13472.5 -500 1964.31 12994.5 -500 1859.95 11500 -750 263.889 
11750 -500 263.889 12000 -750 263.889 10308.9 -250 443.913 
10308.9 -750 443.913 10058.9 -500 443.913 11641.4 -500 1974.49 
12070.7 -250 2237.25 12070.7 -750 2237.25 12508.3 -750 2127.79 
12079 -500 1865.04 11570.7 -250 2237.25 11387.5 -500 1897.43 
12493.1 -250 386.47 12000 -250 263.889 11500 -500 527.778 
11993.1 -500 650.359 5790.96 -250 3551.08 5790.96 -750 3551.08 
11500 -250 263.889 12986.3 -250 267.845 12979.4 -500 654.314 
12493.1 -750 386.47 12986.3 -750 267.845 13472.5 -500 535.689 
1410.01 -500 835.757 993.451 -500 903.894 10623.4 -500 1401.34 
13486.3 -250 2232.16 13486.3 -750 2232.16 13236.3 -500 2232.16 
6980.75 -500 2050.83 2071.36 -500 476.638 2321.36 -750 476.638 
2321.36 -250 476.638 5246.86 -500 3061.67 4770.35 -500 2851.51 
4890.48 -500 3248.09 5131.92 -500 1704.18 4701.79 -500 2033 
4753.37 -500 1611.06 14884.1 -250 2157.25 14397.7 -750 2114.58 
14886.5 -750 2157.99 15270.6 -500 1815.23 5467.58 -500 3269.95 
5926.62 -750 3156.37 12486.2 -500 772.939 706.457 -500 3054.91 
439.763 -750 2564.71 5926.95 -500 2514.32 6250.65 -500 2153.41 
6140.91 -250 2888.51 6464.61 -250 2527.6 6464.61 -750 2527.6 
666.882 -500 656.208 1083.44 -250 328.104 1320.02 -500 1151.58 
11598.9 -500 1635.5 15274.8 -500 685.631 8097.73 -500 1600.01 
4514.18 -500 3237.78 4401.86 -500 3651.2 4778.16 -500 3661.51 
12516.6 -500 1755.59 14886.5 -250 342.667 14888.4 -750 342.964 
14409 -750 391.115 13236.3 -500 267.845 13486.3 -750 267.845 
333.441 -250 1078.1 333.441 -750 1078.1 705.339 -500 1151.23 
371.898 -250 1573.13 7224.38 -500 653.187 5111.2 -500 3456.37 
13486.3 -250 267.845 3389.81 -500 2097 3840.81 -500 2169.77 
3804.82 -500 2582.4 3353.83 -500 2509.62 4998.87 -500 3869.79 
4993.63 -750 4336.57 4236.87 -500 4009.16 3807.9 -500 3943.4 
4153.95 -750 4471.7 4153.95 -250 4471.7 4582.91 -250 4537.46 
8265.63 -500 691.67 4058.02 -750 383.03 4466.96 -750 461.808 
4058.02 -250 383.03 4024.98 -500 844.838 3616.05 -500 766.06 
1731.37 -500 1052.43 4394.05 -500 2841.21 6606.08 -500 1877.53 
7710.06 -500 1520.46 7279.82 -500 1410.3 14383.3 -250 2110.15 
14281 -500 1724.73 3808.02 -500 383.03 3558.02 -250 383.03 
5126.72 -500 2665.09 5080.34 -500 2126.12 5603.24 -500 2875.24 
5556.85 -500 2336.27 4650.21 -500 2454.94 5510.46 -500 1797.29 
3558.02 -750 383.03 12021.3 -500 1034.72 12036.5 -500 1526.05 
12501.4 -500 1264.26 11556.5 -500 1296.51 10636.7 -750 1775.67 
14397.7 -250 389.336 14306.7 -500 780.451 5736.07 -500 1068.43 
5831.56 -250 599.759 5404.51 -750 468.666 5309.02 -500 937.332 
5404.51 -250 468.666 6140.91 -750 2888.51 8085.98 -250 1985.98 
7882.81 -750 345.835 10476.7 -250 1615.67 10476.7 -750 1615.67 
10223.9 -250 1358.91 10223.9 -750 1358.91 10370.6 -500 1144.58 
4315.08 -500 1684.11 1031.91 -500 1398.92 7821.97 -500 1821.97 
7660.98 -250 2160.98 6081.56 -500 599.759 6331.56 -750 599.759 
6331.56 -250 599.759 6163.12 -500 1199.52 5831.56 -750 599.759 
4466.96 -250 461.808 4433.91 -500 923.616 4665.83 -500 4074.93 
4582.91 -750 4537.46 6206.89 -500 1676.46 6562.31 -500 1400.58 
7198.33 -750 385.105 1493.07 -500 3720.8 1540.99 -500 3164.72 
1214.61 -500 3422.36 7247.4 -500 994.576 4904.51 -750 468.666 
4871.46 -500 930.474 2760.68 -500 621.9 3130.34 -750 310.95 
3130.34 -250 310.95 3188.36 -500 693.98 5880.56 -500 1975.35 
10704.9 -500 1046.85 11528.2 -500 912.143 1588.52 -500 1507.86 
13835 -500 1028.05 13374.6 -500 1277.43 13820.5 -500 1498.86 
11820.7 -500 2237.25 11570.7 -750 2237.25 14292.2 -500 1251.27 
12945.6 -500 1516.51 12930.4 -500 1025.18 4137.89 -500 3227.48 
439.763 -250 2564.71 8382.82 -250 345.835 8583.04 -500 791.816 
6625.33 -500 2326.7 2593.68 -500 1171.72 1999.87 -500 1408.71 
9500 -250 1125 9808.9 -250 1193.91 9808.9 -750 1193.91 
4227.51 -500 2518.67 3971.35 -500 2904.94 371.898 -750 1573.13 
743.795 -500 1646.26 9500 -750 1125 5154.51 -500 468.666 
4904.51 -250 468.666 5926.62 -250 3156.37 10643.2 -250 346.184 
10452.1 -500 790.097 6929.08 -500 1185.93 14147.7 -500 389.336 
13897.7 -250 389.336 4593.64 -500 1267.34 13423.5 -500 906.558 
13883.3 -250 2110.15 13869.5 -500 1842.31 13423.5 -500 1620.87 
13884 -500 657.18 873.999 -500 3451.38 1047.07 -500 3025.89 
9200.22 -250 1195.98 9200.22 -750 1195.98 993.738 -500 3800.86 
3903.95 -500 4471.7 3653.95 -250 4471.7 3653.95 -750 4471.7 
333.441 -500 828.104 333.441 -750 578.104 333.441 -250 578.104 
1373.45 -500 2768.25 8950.22 -500 1195.98 10058.9 -500 1193.91 
13909 -750 391.115 1272.2 -500 4099.3 10786.3 -500 692.369 
11171.4 -500 994.438 2135.77 -250 4509.62 2735.44 -250 4587.35 
2135.77 -750 4509.62 2371.21 -500 4096.97 1771.53 -500 4019.24 
13897.7 -750 2114.58 833.441 -500 328.104 583.441 -750 328.104 
583.441 -250 328.104 14133.3 -500 2110.15 653.127 -500 3829.88 
1136.43 -750 4589.68 1635.77 -250 4509.62 1136.43 -250 4589.68 
772.866 -500 4179.36 2725.23 -500 2951.23 2207.49 -500 3186.33 
2547.62 -500 3465.6 15636.5 -250 967.667 15634.1 -250 1532.25 
4263.5 -500 2106.04 5031.19 -500 1274.2 386.433 -250 3839.68 
2451.7 -500 787.588 2630.34 -750 310.95 2630.34 -250 310.95 
8382.82 -750 345.835 3876.79 -500 1757.15 2902.84 -500 2436.85 
1862.19 -500 2385.61 2385.1 -500 2671.96 1867.37 -500 2907.07 
3746.42 -500 1261.6 2735.44 -750 4587.35 2970.88 -500 4174.7 
879.525 -500 2629.43 1300.41 -500 1755.2 811.66 -500 2137.84 
371.898 -250 2073.13 371.898 -750 2073.13 3566.96 -500 2878.55 
8132.81 -500 345.835 2379.93 -500 2150.5 2450.83 -500 1627.16 
2973.74 -500 1913.51 3972.89 -500 3585.44 10643.2 -750 346.184 
15136.5 -500 342.667 4155.35 -500 1340.38 1819.45 -500 3463.16 
15386.5 -250 342.667 15388.4 -750 342.964 15636.5 -250 593.517 
15638.4 -750 593.814 15634.1 -250 1906.4 15636.5 -750 1907.14 
1635.77 -750 4509.62 4993.63 -250 4336.57 15134.1 -500 2157.25 
6529.9 -500 984.864 6698.33 -750 385.105 6698.33 -250 385.105 
6896.67 -500 770.21 11143.2 -500 610.073 15384.1 -250 2157.25 
15386.5 -750 2157.99 3235.44 -750 4587.35 3389.39 -500 4059.05 
3115.97 -500 2805.78 3329.1 -500 3174.71 2938.36 -500 3320.15 
371.898 -500 1823.13 8085.98 -750 1985.98 1857.01 -500 1864.15 
3044.64 -500 1390.16 3733.49 -500 3201.09 1368.27 -500 2246.79 
386.433 -750 4339.68 386.433 -500 4089.68 386.433 -750 3839.68 
2159.57 -500 3742.42 2902.66 -500 1006.03 2880.34 -500 310.95 
11143.2 -250 346.184 10893.2 -500 346.184 4910.71 -500 4799.11 
3568.5 -500 3559.05 5409.74 -500 1367.31 2759.25 -500 3820.15 
3149.99 -500 3674.7 11143.2 -750 346.184 5836.79 -500 1498.41 
3460.71 -500 1573.66 6948.33 -500 385.105 3330.34 -500 1078.11 
386.433 -250 4339.68 7198.33 -250 385.105 2985.44 -500 4587.35 
3235.44 -250 4587.35 1885.77 -500 4509.62 636.433 -250 4589.68 
250 -500 4750 636.433 -750 4589.68 15750 -500 250.85 
15750 -500 2249.15 886.433 -500 4589.68 250 -500 250 
7925 -500 2325 
CELLS 661 7271
10 780 495 732 766 1011 1010 986 829 1012 985 
10 495 732 767 780 1010 984 1013 1011 986 828 
10 779 494 187 462 1016 1015 1014 1017 551 1018 
10 343 344 488 773 353 1020 1019 1021 1022 1023 
10 755 470 491 730 1025 545 1024 973 1026 1027 
10 495 482 447 732 544 699 701 1010 1028 1029 
10 495 447 481 732 701 700 543 1010 1029 1030 
10 765 480 360 362 1033 1032 1031 1034 1035 373 
10 732 447 481 760 1029 700 1030 981 1036 1037 
10 491 327 470 755 1039 1038 545 1024 1040 1025 
10 299 470 327 755 1042 1038 1041 1043 1025 1040 
10 344 484 488 773 1044 526 1020 1022 1045 1023 
10 729 457 485 770 1047 573 1046 959 1048 1049 
10 732 482 447 761 1028 699 1029 983 1050 1051 
10 457 444 488 773 674 675 676 1052 1053 1023 
10 485 193 770 457 1055 1054 1049 573 1056 1048 
10 496 413 170 781 1057 437 630 1058 1059 1060 
10 412 496 170 781 1061 630 435 1062 1058 1060 
10 187 747 779 462 1063 847 1014 1018 1064 1017 
10 187 779 777 494 1014 843 1065 1015 1016 1066 
10 747 779 54 187 847 841 846 1063 1014 217 
10 187 494 23 462 1015 547 210 1018 551 552 
10 486 195 456 771 1068 1067 520 1069 1070 1071 
10 457 729 444 773 1047 1072 674 1052 961 1053 
10 771 195 456 741 1070 1067 1071 804 1073 1074 
10 767 283 495 780 1076 1075 1013 828 1077 1011 
10 456 195 484 769 1067 1078 524 1079 1080 1081 
10 485 457 729 444 573 1047 1046 673 674 1072 
10 194 484 30 769 1082 576 244 1083 1081 1084 
10 195 30 484 769 250 576 1078 1080 1084 1081 
10 769 456 195 741 1079 1067 1080 810 1074 1073 
10 495 780 283 766 1011 1077 1075 1012 829 1085 
10 781 413 170 179 1059 437 1060 914 428 436 
10 412 781 170 179 1062 1060 435 434 914 436 
10 769 484 344 773 1081 1044 1086 811 1045 1022 
10 472 752 757 354 1088 819 1087 1089 1090 1091 
10 300 497 471 782 1093 600 1092 1094 1095 1096 
10 64 196 33 774 267 259 266 877 1097 1098 
10 64 774 33 197 877 1098 266 268 1099 265 
10 200 31 486 771 255 580 1100 1101 1102 1069 
10 195 486 31 771 1068 580 249 1070 1069 1102 
10 778 300 493 756 1105 1104 1103 833 1106 1107 
10 470 299 493 755 1042 1108 514 1025 1043 1109 
10 197 489 461 774 1111 587 1110 1099 1112 1113 
10 480 360 361 765 1032 376 1114 1033 1031 1115 
10 33 196 489 774 259 1116 583 1098 1097 1112 
10 489 197 33 774 1111 265 583 1112 1099 1098 
10 197 746 498 783 1119 1118 1117 1120 885 1121 
10 494 779 777 454 1016 843 1066 723 1122 1123 
10 755 491 776 730 1024 1124 830 973 1027 968 
10 301 497 97 782 1125 599 319 1126 1095 1127 
10 300 97 497 782 317 599 1093 1094 1127 1095 
10 472 757 15 354 1087 818 1128 1089 1091 358 
10 23 747 54 187 1129 846 216 210 1063 217 
10 54 747 23 188 846 1129 216 218 1130 215 
10 23 747 187 462 1129 1063 210 552 1064 1018 
10 747 23 188 462 1129 215 1130 1064 552 1131 
10 740 750 446 731 933 1133 1132 975 976 1134 
10 500 750 726 785 1136 934 1135 1137 935 936 
10 106 782 97 300 834 1127 318 311 1094 317 
10 97 782 106 301 1127 834 318 319 1126 316 
10 760 302 481 767 1139 1138 1037 840 1140 1141 
10 361 740 480 765 1143 1142 1114 1115 906 1033 
10 774 461 197 746 1113 1110 1099 882 1144 1119 
10 781 496 413 743 1058 1057 1059 916 1145 1146 
10 779 454 494 462 1122 723 1016 1017 658 551 
10 197 64 774 746 268 877 1099 1119 881 882 
10 489 461 33 197 587 585 583 1111 1110 265 
10 455 464 749 359 622 1148 1147 1149 1150 1151 
10 494 777 187 492 1066 1065 1015 548 1152 1153 
10 197 461 498 746 1110 590 1117 1119 1144 1118 
10 777 779 739 454 843 1008 1009 1123 1122 1154 
10 730 778 493 756 974 1103 1155 972 833 1107 
10 732 495 482 766 1010 544 1028 985 1012 1156 
10 488 444 467 773 675 678 605 1023 1053 1157 
10 731 745 487 446 978 1159 1158 1134 1160 694 
10 61 30 195 769 251 250 253 871 1084 1080 
10 30 61 194 769 251 252 244 1084 871 1083 
10 471 756 300 782 1161 1106 1092 1096 836 1094 
10 482 766 199 761 1156 1163 1162 1050 889 1164 
10 767 732 495 481 984 1010 1013 1141 1030 543 
10 65 783 34 198 884 1165 271 273 1166 270 
10 34 783 65 197 1165 884 271 264 1120 272 
10 492 777 415 490 1152 1168 1167 625 1169 1170 
10 470 755 493 730 1025 1109 514 1026 973 1155 
10 770 729 768 485 959 965 865 1049 1046 1171 
10 760 481 732 767 1037 1030 981 840 1141 984 
10 480 765 740 731 1033 906 1142 1172 977 975 
10 197 498 34 783 1117 588 264 1120 1121 1165 
10 198 34 498 783 270 588 1173 1166 1165 1121 
10 440 764 463 725 1175 1174 635 1176 922 1177 
10 745 480 765 362 1178 1033 903 1179 1035 1034 
10 736 451 460 382 1181 613 1180 1182 1183 1184 
10 742 729 457 773 958 1047 1185 960 961 1052 
10 190 737 762 477 1187 854 1186 1188 1189 1190 
10 739 779 747 454 1008 847 944 1154 1122 1191 
10 750 487 446 731 1192 694 1133 976 1158 1134 
10 757 15 749 472 818 816 817 1087 1128 1193 
10 729 752 757 444 962 819 963 1072 1194 1195 
10 446 480 740 731 692 1142 1132 1134 1172 975 
10 476 302 481 760 1196 1138 604 1197 1139 1037 
10 756 106 300 782 832 311 1106 836 834 1094 
10 471 97 497 300 595 599 600 1092 317 1093 
10 457 770 729 742 1048 959 1047 1185 868 958 
10 56 477 25 190 1198 555 226 228 1188 225 
10 25 477 56 189 555 1198 226 219 1199 227 
10 457 488 484 773 676 526 577 1052 1023 1045 
10 455 441 750 740 647 1201 1200 1202 1203 933 
10 441 750 465 455 1201 1204 648 647 1200 649 
10 750 441 726 740 1201 1205 934 933 1203 932 
10 56 762 477 190 849 1190 1198 228 1186 1188 
10 56 189 477 762 227 1199 1198 849 1206 1190 
10 730 471 461 756 1208 686 1207 972 1161 1209 
10 461 445 471 730 687 685 686 1207 1210 1208 
10 756 461 730 746 1209 1207 972 971 1144 970 
10 776 327 491 755 1211 1039 1124 830 1040 1024 
10 752 444 729 773 1194 1072 962 890 1053 961 
10 199 475 482 761 1212 594 1162 1164 1213 1050 
10 751 191 453 466 1216 1215 1214 1217 1218 565 
10 359 749 455 740 1151 1147 1149 1219 907 1202 
10 766 482 732 761 1156 1028 985 889 1050 983 
10 467 343 488 773 1220 1019 605 1157 1021 1023 
10 457 193 770 742 1056 1054 1048 1185 1221 868 
10 327 491 328 776 1039 1222 337 1211 1124 1223 
10 486 328 491 771 1224 1222 521 1069 1225 1226 
10 750 764 785 500 924 1006 935 1136 1227 1137 
10 731 480 765 745 1172 1033 977 978 1178 903 
10 62 771 31 200 875 1102 256 258 1101 255 
10 62 195 31 771 257 249 256 875 1070 1102 
10 739 775 777 454 946 910 1009 1154 1228 1123 
10 491 470 445 730 545 688 684 1027 1026 1210 
10 65 746 197 783 880 1119 272 884 885 1120 
10 34 461 498 197 586 590 588 264 1110 1117 
10 472 467 752 354 534 1229 1088 1089 1230 1090 
10 27 192 738 453 235 1232 1231 566 1233 1234 
10 27 738 191 453 1231 1235 229 566 1234 1215 
10 58 191 27 738 237 229 236 860 1235 1231 
10 58 738 27 192 860 1231 236 238 1232 235 
10 452 737 190 477 1237 1187 1236 559 1189 1188 
10 460 745 736 382 1238 899 1180 1184 1239 1182 
10 493 300 471 756 1104 1092 597 1107 1106 1161 
10 472 453 749 757 722 1240 1193 1087 1241 817 
10 481 447 476 760 700 697 604 1037 1036 1197 
10 768 193 770 485 1242 1054 865 1171 1055 1049 
10 468 469 450 735 669 712 715 1243 1244 1245 
10 444 752 757 472 1194 819 1195 677 1088 1087 
10 492 494 777 454 548 1066 1152 724 723 1123 
10 731 446 480 745 1134 692 1172 978 1160 1178 
10 485 729 768 444 1046 965 1171 673 1072 1246 
10 453 191 751 738 1215 1216 1214 1234 1235 861 
10 737 190 751 452 1187 1247 857 1237 1236 1248 
10 499 189 784 477 1251 1250 1249 556 1199 1252 
10 455 441 749 464 647 1253 1147 622 643 1148 
10 757 768 729 444 964 965 963 1195 1246 1072 
10 776 491 744 730 1124 1254 969 968 1027 966 
10 461 774 489 730 1113 1112 587 1207 967 1255 
10 775 727 454 739 945 1256 1228 946 943 1154 
10 447 482 475 761 699 594 698 1051 1050 1213 
10 475 449 476 734 711 710 696 1257 1258 1259 
10 771 328 491 776 1225 1222 1226 806 1223 1124 
10 472 15 14 354 1128 131 532 1089 358 357 
10 105 300 493 778 312 1104 1260 798 1105 1103 
10 105 778 493 299 798 1103 1260 310 1261 1108 
10 734 476 475 761 1259 696 1257 996 1262 1213 
10 461 449 756 471 707 1263 1209 686 706 1161 
10 734 449 756 746 1258 1263 992 991 1264 971 
10 760 476 734 761 1197 1259 995 982 1262 996 
10 487 745 731 772 1159 978 1158 1265 979 980 
10 756 449 461 746 1263 707 1209 971 1264 1144 
10 458 413 170 496 1266 437 626 631 1057 630 
10 179 781 413 743 914 1059 428 912 916 1146 
10 484 194 457 769 1082 1267 577 1081 1083 1268 
10 472 15 749 464 1128 816 1193 533 1269 1148 
10 448 747 462 442 1270 1064 653 655 1271 654 
10 338 486 456 771 1273 520 1272 1274 1069 1071 
10 750 440 487 725 1275 640 1192 923 1176 1276 
10 454 779 747 462 1122 847 1191 658 1017 1064 
10 471 730 493 756 1208 1155 597 1161 972 1107 
10 784 189 762 477 1250 1206 851 1252 1199 1190 
10 764 440 750 725 1175 1275 924 922 1176 923 
10 500 750 465 441 1136 1204 651 650 1201 648 
10 726 750 500 441 934 1136 1135 1205 1201 650 
10 415 777 775 490 1168 910 1277 1170 1169 1278 
10 471 445 493 730 685 689 597 1208 1210 1155 
10 338 771 456 741 1274 1071 1272 1279 804 1074 
10 57 466 26 191 1280 560 231 233 1218 230 
10 26 466 57 190 560 1280 231 224 1281 232 
10 361 359 455 740 377 1149 1282 1143 1219 1202 
10 200 486 459 771 1100 581 1283 1101 1069 1284 
10 730 461 774 746 1207 1113 967 970 1144 882 
10 489 445 461 730 681 687 587 1255 1210 1207 
10 11 769 344 773 809 1086 346 808 811 1022 
10 10 488 344 484 522 1020 345 525 526 1044 
10 483 444 757 472 679 1195 1285 680 677 1087 
10 35 475 66 198 591 1286 276 269 1287 277 
10 66 475 35 199 1286 591 276 278 1212 275 
10 764 737 785 500 1005 1004 1006 1227 1288 1137 
10 484 769 457 773 1081 1268 577 1045 811 1052 
10 498 746 734 783 1118 991 1289 1121 885 993 
10 497 301 476 782 1125 1290 603 1095 1126 1291 
10 497 449 471 782 709 706 600 1095 1292 1096 
10 475 198 498 783 1287 1173 593 1293 1166 1121 
10 735 450 781 743 1245 1294 999 997 1295 916 
10 454 777 492 490 1123 1152 724 660 1169 625 
10 455 750 446 740 1200 1133 691 1202 933 1132 
10 487 731 750 772 1158 976 1192 1265 980 925 
10 446 465 750 455 690 1204 1133 691 649 1200 
10 747 727 739 454 939 943 944 1191 1256 1154 
10 338 456 484 769 1272 524 1296 1297 1079 1081 
10 466 751 190 452 1217 1247 1281 562 1248 1236 
10 781 759 450 735 917 1298 1294 999 1001 1245 
10 778 493 299 755 1103 1108 1261 799 1109 1043 
10 736 153 451 382 1299 614 1181 1182 389 1183 
10 386 153 451 736 405 614 1300 1301 1299 1181 
10 456 769 338 741 1079 1297 1272 1074 810 1279 
10 749 441 455 740 1253 647 1147 907 1203 1202 
10 441 749 726 740 1253 930 1205 1203 907 932 
10 168 414 777 492 418 1303 1302 503 1304 1152 
10 168 492 777 415 503 1152 1302 427 1167 1168 
10 749 453 472 464 1240 722 1193 1148 644 533 
10 777 53 779 187 786 842 843 1065 213 1014 
10 22 494 187 492 546 1015 211 502 548 1153 
10 168 777 177 415 1302 788 426 427 1168 425 
10 177 777 168 414 788 1302 426 419 1303 418 
10 734 746 498 449 991 1118 1289 1258 1264 708 
10 450 469 743 735 712 1305 1295 1245 1244 997 
10 449 498 461 746 708 590 707 1264 1118 1144 
10 193 485 29 457 1055 569 239 1056 573 571 
10 60 770 193 742 863 1054 247 867 868 1221 
10 484 344 11 769 1044 346 1306 1081 1086 809 
10 328 486 9 771 1224 1307 333 1225 1069 805 
10 472 14 15 464 532 131 1128 533 530 1269 
10 761 198 475 783 1308 1287 1213 888 1166 1293 
10 759 468 450 735 1309 715 1298 1001 1243 1245 
10 761 475 198 66 1213 1287 1308 887 1286 277 
10 498 734 475 783 1289 1257 593 1121 993 1293 
10 781 450 496 743 1294 714 1058 916 1295 1145 
10 744 491 459 730 1254 683 1310 966 1027 1311 
10 385 473 468 753 1313 611 1312 1314 1315 1316 
10 476 782 301 760 1291 1126 1290 1197 839 1317 
10 53 187 777 492 213 1065 786 1318 1153 1152 
10 201 53 777 492 205 786 1319 1320 1318 1152 
10 107 476 98 301 1321 602 323 315 1290 322 
10 98 476 107 302 602 1321 323 324 1196 321 
10 474 450 496 781 716 714 632 1322 1294 1058 
10 475 476 447 761 696 697 698 1213 1262 1051 
10 201 22 53 492 204 212 205 1320 502 1318 
10 187 53 22 492 213 212 211 1153 1318 502 
10 750 725 487 772 923 1276 1192 925 926 1265 
10 25 452 190 477 557 1236 225 555 559 1188 
10 737 762 56 190 854 849 853 1187 1186 228 
10 361 455 480 740 1282 621 1114 1143 1202 1142 
10 468 384 759 474 1324 1323 1309 608 1325 1326 
10 190 57 751 466 232 856 1247 1281 1280 1217 
10 191 751 57 466 1216 856 233 1218 1217 1280 
10 761 199 475 66 1164 1212 1213 887 278 1286 
10 96 493 105 300 512 1260 313 314 1104 312 
10 105 493 96 299 1260 512 313 310 1108 309 
10 459 491 445 730 683 684 682 1311 1027 1210 
10 456 30 484 195 574 576 524 1067 250 1078 
10 769 195 61 741 1080 253 871 810 1073 870 
10 498 449 475 734 708 711 593 1289 1258 1257 
10 728 469 463 443 1328 665 1327 1329 666 667 
10 756 471 449 782 1161 706 1263 836 1096 1292 
10 734 756 449 782 992 1263 1258 994 836 1292 
10 283 482 495 766 1330 544 1075 1085 1156 1012 
10 493 755 778 730 1109 799 1103 1155 973 974 
10 449 476 782 497 710 1291 1292 709 603 1095 
10 481 283 495 767 1331 1075 543 1141 1076 1013 
10 465 764 750 500 1332 924 1204 651 1227 1136 
10 751 726 785 500 931 936 937 1333 1135 1137 
10 301 107 476 760 315 1321 1290 1317 837 1197 
10 474 496 412 781 632 1061 1334 1322 1058 1062 
10 446 750 465 487 1133 1204 690 694 1192 641 
10 462 188 784 499 1131 1336 1335 553 1337 1249 
10 486 31 456 195 580 575 520 1068 249 1067 
10 62 195 771 741 257 1070 875 869 1073 804 
10 742 457 194 769 1185 1267 1338 872 1268 1083 
10 467 752 444 472 1229 1194 678 534 1088 677 
10 761 475 734 783 1213 1257 996 888 1293 993 
10 463 479 764 440 637 1339 1174 635 636 1175 
10 460 446 487 745 693 694 695 1238 1160 1159 
10 783 761 198 66 888 1308 1166 883 887 277 
10 463 764 748 725 1174 921 1340 1177 922 918 
10 476 107 302 760 1321 321 1196 1197 837 1139 
10 469 748 727 754 1342 942 1341 1343 950 948 
10 762 737 764 477 854 1005 990 1190 1189 1344 
10 751 785 737 500 937 1004 857 1333 1137 1288 
10 740 480 446 455 1142 692 1132 1202 621 691 
10 753 385 473 758 1314 1313 1315 896 1345 1346 
10 462 747 454 442 1064 1191 658 654 1271 659 
10 747 188 784 462 1130 1336 848 1064 1131 1335 
10 457 769 742 773 1268 872 1185 1052 811 960 
10 464 15 749 359 1269 816 1148 1150 364 1151 
10 453 191 27 466 1215 229 566 565 1218 561 
10 738 751 58 191 861 855 860 1235 1216 237 
10 752 467 444 773 1229 678 1194 890 1157 1053 
10 728 748 469 754 951 1342 1328 952 950 1343 
10 413 496 458 743 1057 631 1266 1146 1145 1347 
10 775 490 727 743 1278 1348 945 913 1349 947 
10 360 480 135 362 1032 617 371 373 1035 369 
10 142 765 360 362 901 1031 379 370 1034 373 
10 782 107 301 760 835 315 1126 839 837 1317 
10 490 775 413 743 1278 1351 1350 1349 913 1146 
10 478 487 440 725 642 640 634 1352 1276 1176 
10 60 193 29 742 247 239 246 867 1221 1353 
10 60 742 29 194 867 1353 246 248 1338 245 
10 764 465 750 440 1332 1204 924 1175 639 1275 
10 491 459 486 771 683 581 521 1226 1284 1069 
10 454 775 777 490 1228 910 1123 660 1278 1169 
10 487 750 465 440 1192 1204 641 640 1275 639 
10 442 733 748 463 1355 941 1354 656 1356 1340 
10 478 440 463 725 634 635 633 1352 1176 1177 
10 344 11 10 484 346 121 345 1044 1306 525 
10 194 29 457 742 245 571 1267 1338 1353 1185 
10 193 457 29 742 1056 571 239 1221 1185 1353 
10 328 8 9 486 334 114 333 1224 519 1307 
10 772 736 487 745 1002 1357 1265 979 899 1159 
10 200 771 459 744 1101 1284 1283 1358 876 1310 
10 463 748 442 469 1340 1354 656 665 1342 663 
10 498 475 35 198 593 591 589 1173 1287 269 
10 766 482 199 67 1156 1162 1163 791 1359 280 
10 737 477 452 479 1189 559 1237 1360 704 720 
10 469 735 753 754 1244 1000 1361 1343 998 955 
10 766 186 482 67 1363 1362 1156 791 209 1359 
10 782 476 449 734 1291 710 1292 994 1259 1258 
10 782 476 734 760 1291 1259 994 839 1197 995 
10 283 281 482 766 295 1364 1330 1085 1365 1156 
10 481 282 283 767 1366 294 1331 1141 1367 1076 
10 454 727 775 490 1256 945 1228 660 1348 1278 
10 463 469 728 748 665 1328 1327 1340 1342 951 
10 727 743 469 754 947 1305 1341 948 949 1343 
10 759 384 468 753 1323 1324 1309 893 1368 1316 
10 745 460 480 362 1238 618 1178 1179 1369 1035 
10 737 479 452 500 1360 720 1237 1288 721 719 
10 452 190 466 26 1236 1281 562 558 224 560 
10 57 751 737 190 856 857 852 232 1247 1187 
10 771 9 328 776 805 333 1225 806 802 1223 
10 491 8 328 486 518 334 1222 521 519 1224 
10 464 14 15 359 530 131 1269 1150 363 364 
10 764 465 479 500 1332 638 1339 1227 651 721 
10 481 302 108 767 1138 320 1370 1141 1140 794 
10 453 192 768 483 1233 1372 1371 567 1373 1374 
10 491 744 771 776 1254 876 1226 1124 969 806 
10 489 774 459 730 1112 1375 584 1255 967 1311 
10 481 108 298 767 1370 306 1376 1141 794 1377 
10 486 338 9 771 1273 340 1307 1069 1274 805 
10 451 758 386 736 1379 1378 1300 1181 900 1301 
10 478 763 463 728 1381 1380 633 1382 953 1327 
10 490 178 415 169 1383 424 1170 623 431 432 
10 490 413 178 169 1350 429 1383 623 430 431 
10 343 467 752 773 1220 1229 1384 1021 1157 890 
10 747 733 727 442 940 938 939 1271 1355 1385 
10 448 733 747 442 1386 940 1270 655 1355 1271 
10 727 733 748 442 938 941 942 1385 1355 1354 
10 733 442 448 463 1355 655 1386 1356 656 657 
10 738 192 768 453 1232 1372 862 1234 1233 1371 
10 476 497 98 301 603 598 602 1290 1125 322 
10 749 738 757 453 929 1007 817 1240 1234 1241 
10 763 736 487 772 1003 1357 1387 927 1002 1265 
10 458 442 490 743 664 661 628 1347 1388 1349 
10 495 85 283 481 542 292 1075 543 507 1331 
10 459 774 744 730 1375 879 1310 1311 967 966 
10 455 361 137 359 1282 375 619 1149 377 365 
10 740 361 359 144 1143 377 1219 905 380 366 
10 460 480 446 745 618 692 693 1238 1178 1160 
10 338 484 11 769 1296 1306 342 1297 1081 809 
10 482 186 36 67 1362 208 506 1359 209 279 
10 36 199 482 67 274 1162 506 279 280 1359 
10 767 90 283 780 793 297 1076 828 826 1077 
10 460 487 451 736 695 717 613 1180 1357 1181 
10 487 725 763 772 1276 919 1387 1265 926 927 
10 759 171 411 180 1390 422 1389 825 438 423 
10 759 412 171 180 1391 439 1390 825 433 438 
10 483 757 453 472 1285 1241 567 680 1087 722 
10 86 495 283 482 541 1075 293 505 544 1330 
10 442 748 727 469 1354 942 1385 663 1342 1341 
10 463 443 478 728 667 668 633 1327 1329 1382 
10 413 458 490 743 1266 628 1350 1146 1347 1349 
10 459 445 489 730 682 681 584 1311 1210 1255 
10 465 764 479 440 1332 1339 638 639 1175 636 
10 361 480 136 360 1114 616 374 376 1032 372 
10 360 143 361 765 378 381 376 1031 902 1115 
10 780 91 283 766 827 296 1077 829 789 1085 
10 728 753 469 443 954 1361 1328 1329 1392 666 
10 784 448 462 499 1393 653 1335 1249 702 553 
10 162 153 736 382 409 1299 898 390 389 1182 
10 153 736 386 162 1299 1301 405 409 898 410 
10 24 784 188 499 1394 1336 214 550 1249 1337 
10 24 189 784 499 220 1250 1394 550 1251 1249 
10 727 490 442 743 1348 661 1385 947 1349 1388 
10 778 105 300 756 798 312 1105 833 831 1106 
10 96 471 493 300 596 597 512 314 1092 1104 
10 196 32 459 63 260 579 1395 262 261 1396 
10 200 459 32 63 1283 579 254 263 1396 261 
10 749 441 453 464 1253 645 1240 1148 643 644 
10 458 469 442 743 662 663 664 1347 1305 1388 
10 477 737 764 479 1189 1005 1344 704 1360 1339 
10 775 413 178 490 1351 429 909 1278 1350 1383 
10 178 415 775 490 424 1277 909 1383 1170 1278 
10 462 448 784 747 653 1393 1335 1064 1270 848 
10 493 445 470 730 689 688 514 1155 1210 1026 
10 55 784 24 189 844 1394 221 223 1250 220 
10 24 784 55 188 1394 844 221 214 1336 222 
10 302 108 99 481 320 325 326 1138 1370 509 
10 99 108 298 481 325 306 305 509 1370 1376 
10 753 735 469 468 1000 1244 1361 1316 1243 669 
10 759 450 474 781 1298 716 1326 917 1294 1322 
10 489 196 459 774 1116 1395 584 1112 1097 1375 
10 469 743 735 754 1305 997 1244 1343 949 998 
10 362 745 460 382 1179 1238 1369 1397 1239 1184 
10 450 468 759 474 715 1309 1298 716 608 1326 
10 444 757 768 483 1195 964 1246 679 1285 1374 
10 487 736 763 478 1357 1003 1387 642 1398 1381 
10 444 768 485 483 1246 1171 673 679 1374 570 
10 479 737 764 500 1360 1005 1339 721 1288 1227 
10 500 751 726 441 1333 931 1135 650 1399 1205 
10 469 753 728 754 1361 954 1328 1343 955 952 
10 758 443 753 728 1400 1392 896 956 1329 954 
10 487 736 460 745 1357 1180 695 1159 899 1238 
10 344 488 125 343 1020 523 347 353 1019 351 
10 344 773 343 128 1022 1021 353 348 807 352 
10 469 743 727 442 1305 947 1341 663 1388 1385 
10 763 487 478 725 1387 642 1381 919 1276 1352 
10 736 478 487 451 1398 642 1357 1181 718 717 
10 463 763 478 725 1380 1381 633 1177 919 1352 
10 283 85 282 481 292 290 294 1331 507 1366 
10 90 283 282 767 297 294 291 793 1076 1367 
10 86 482 283 281 505 1330 293 286 1364 295 
10 478 758 736 763 1401 900 1398 1381 957 1003 
10 442 727 454 490 1385 1256 659 661 1348 660 
10 737 452 751 500 1237 1248 857 1288 719 1333 
10 459 744 196 63 1310 1402 1395 1396 873 262 
10 744 459 200 63 1310 1283 1358 873 1396 263 
10 771 491 459 744 1226 683 1284 876 1254 1310 
10 744 459 196 774 1310 1395 1402 879 1375 1097 
10 281 283 91 766 295 296 287 1365 1085 789 
10 736 758 478 451 900 1401 1398 1181 1379 718 
10 412 759 474 781 1391 1326 1334 1062 917 1322 
10 486 8 9 338 519 114 1307 1273 339 340 
10 492 415 168 490 1167 427 503 625 1170 624 
10 777 775 177 415 910 908 788 1168 1277 425 
10 763 748 463 728 920 1340 1380 953 951 1327 
10 726 453 749 441 1403 1240 930 1205 645 1253 
10 479 764 448 463 1339 1404 703 637 1174 657 
10 748 733 764 463 941 988 921 1340 1356 1174 
10 784 477 448 499 1252 705 1393 1249 556 702 
10 455 137 464 359 619 531 622 1149 365 1150 
10 749 740 359 144 907 1219 1151 815 905 366 
10 484 11 10 338 1306 121 525 1296 342 341 
10 59 193 768 28 243 1242 858 241 240 1405 
10 768 192 59 28 1372 242 858 1405 234 241 
10 470 327 6 299 1038 329 510 1042 1041 308 
10 7 299 327 755 307 1041 330 796 1043 1040 
10 733 762 764 477 989 990 988 1406 1190 1344 
10 751 500 466 441 1333 652 1217 1399 650 646 
10 411 474 171 759 1407 540 422 1389 1326 1390 
10 412 171 474 759 439 540 1334 1391 1390 1326 
10 458 496 450 743 631 714 713 1347 1145 1295 
10 763 478 758 728 1381 1401 957 953 1382 956 
10 743 469 450 458 1305 712 1295 1347 662 713 
10 727 454 747 442 1256 1191 939 1385 659 1271 
10 762 733 784 477 989 987 851 1190 1406 1252 
10 751 452 466 500 1248 562 1217 1333 719 652 
10 485 768 193 483 1171 1242 1055 570 1374 1408 
10 468 443 469 753 670 666 669 1316 1392 1361 
10 460 451 153 382 613 614 536 1184 1183 389 
10 162 736 745 382 898 899 820 390 1182 1239 
10 753 468 759 735 1316 1309 893 1000 1243 1001 
10 758 478 443 728 1401 668 1400 956 1382 1329 
10 161 473 152 385 1409 609 407 406 1313 400 
10 152 473 161 386 609 1409 407 404 1410 408 
10 448 764 733 463 1404 988 1386 657 1174 1356 
10 362 17 745 382 367 821 1179 1397 388 1239 
10 16 362 460 382 368 1369 535 387 1397 1184 
10 160 468 384 753 1411 1324 401 892 1316 1368 
10 468 160 385 753 1411 403 1312 1316 892 1314 
10 748 763 463 725 920 1380 1340 918 919 1177 
10 443 468 473 753 670 611 671 1392 1316 1315 
10 411 383 474 759 1413 1412 1407 1389 1414 1326 
10 386 451 473 758 1300 615 1410 1378 1379 1346 
10 385 468 151 160 1312 606 399 403 1411 402 
10 384 151 468 160 396 606 1324 401 402 1411 
10 135 480 460 362 617 618 537 369 1035 1369 
10 765 142 745 362 901 822 903 1034 370 1179 
10 760 108 302 767 838 320 1139 840 794 1140 
10 412 180 759 781 433 825 1391 1062 915 917 
10 474 412 496 171 1334 1061 632 540 439 629 
10 726 738 749 453 928 929 930 1403 1234 1240 
10 36 475 482 199 592 594 506 274 1212 1162 
10 761 766 199 67 889 1163 1164 886 791 280 
10 186 482 281 766 1362 1364 1415 1363 1156 1365 
10 481 298 282 767 1376 1416 1366 1141 1377 1367 
10 159 474 383 759 1417 1412 394 824 1326 1414 
10 474 159 384 759 1417 398 1325 1326 824 1323 
10 443 753 473 758 1392 1315 671 1400 896 1346 
10 481 99 302 476 509 326 1138 604 601 1196 
10 453 726 751 441 1403 931 1214 645 1205 1399 
10 768 757 453 483 964 1241 1371 1374 1285 567 
10 15 757 752 354 818 819 812 358 1091 1090 
10 472 14 467 354 532 528 534 1089 357 1230 
10 764 448 477 479 1404 705 1344 1339 703 704 
10 480 361 136 455 1114 374 616 621 1282 620 
10 143 740 361 765 904 1143 381 902 906 1115 
10 413 775 178 743 1351 909 429 1146 913 911 
10 169 490 413 458 623 1350 430 627 628 1266 
10 777 414 201 492 1303 1418 1319 1152 1304 1320 
10 448 784 747 733 1393 848 1270 1386 987 940 
10 453 757 768 738 1241 964 1371 1234 1007 862 
10 453 27 192 483 566 235 1233 567 563 1373 
10 738 58 768 192 860 859 862 1232 238 1372 
10 473 451 478 758 615 718 672 1346 1379 1401 
10 383 411 19 759 1413 421 391 1414 1389 823 
10 383 474 18 411 1412 539 392 1413 1407 420 
10 28 193 768 483 240 1242 1405 564 1408 1374 
10 28 768 192 483 1405 1372 234 564 1374 1373 
10 115 470 491 327 511 545 517 331 1038 1039 
10 327 776 118 755 1211 803 332 1040 830 795 
10 752 354 467 343 1090 1230 1229 1384 1419 1220 
10 751 466 453 441 1217 565 1214 1399 646 645 
10 188 462 23 499 1131 552 215 1337 553 549 
10 747 54 784 188 846 845 848 1130 218 1336 
10 32 459 489 196 579 584 582 260 1395 1116 
10 774 196 744 63 1097 1402 879 878 262 873 
10 477 764 733 448 1344 988 1406 705 1404 1386 
10 485 193 28 483 1055 240 568 570 1408 564 
10 768 59 770 193 858 864 865 1242 243 1054 
10 151 473 468 385 610 611 606 399 1313 1312 
10 753 160 385 758 892 403 1314 896 894 1345 
10 159 474 150 383 1417 538 397 394 1412 393 
10 159 384 150 474 398 395 397 1417 1325 538 
10 327 328 118 776 337 336 332 1211 1223 803 
10 491 328 115 327 1222 335 517 1039 337 331 
10 57 737 56 190 852 853 72 232 1187 228 
10 25 190 452 26 225 1236 557 41 224 558 
10 473 478 443 758 672 668 671 1346 1401 1400 
10 751 738 726 453 861 928 931 1214 1234 1403 
10 189 499 24 477 1251 550 220 1199 556 554 
10 784 55 762 189 844 850 851 1250 223 1206 
10 784 733 448 477 987 1386 1393 1252 1406 705 
10 742 194 61 769 1338 252 866 872 1083 871 
10 484 30 457 194 576 572 577 1082 244 1267 
10 153 473 152 386 612 609 157 405 1410 404 
10 386 758 161 162 1378 895 408 410 897 166 
10 281 2 482 186 284 504 1364 1415 207 1362 
10 282 4 298 481 289 303 1416 1366 508 1376 
10 5 282 298 767 288 1416 304 792 1367 1377 
10 186 281 3 766 1415 285 206 1363 1365 790 
10 759 159 384 753 824 398 1323 893 891 1368 
10 150 468 474 384 607 608 538 395 1324 1325 
10 8 456 10 338 515 516 122 339 1272 341 
10 338 11 9 741 342 123 340 1279 800 801 
10 153 451 473 386 614 615 612 405 1300 1410 
10 736 758 386 162 900 1378 1301 898 897 410 
10 744 200 771 62 1358 1101 876 874 258 875 
10 31 486 459 200 580 581 578 255 1100 1283 
10 161 473 385 758 1409 1313 406 895 1346 1345 
10 473 161 386 758 1409 408 1410 1346 895 1378 
10 773 752 343 128 890 1384 1021 807 814 352 
10 488 467 125 343 605 529 523 1019 1220 351 
10 152 473 151 385 609 610 156 400 1313 399 
10 161 385 160 758 406 403 165 895 1345 894 
10 61 195 62 741 253 257 77 870 1073 869 
10 30 456 31 195 574 575 46 250 1067 249 
10 35 475 36 199 591 592 51 275 1212 274 
10 108 302 107 760 320 321 112 838 1139 837 
10 58 751 57 191 855 856 73 237 1216 233 
10 466 191 27 26 1218 229 561 560 230 42 
10 199 66 761 67 278 887 1164 280 82 886 
10 98 302 99 476 324 326 103 602 1196 601 
10 327 7 6 299 330 95 329 1041 307 308 
10 12 354 13 343 355 356 124 350 1419 349 
10 24 25 189 477 40 219 220 554 555 1199 
10 55 56 762 189 71 849 850 223 227 1206 
10 201 1 0 414 203 20 202 1418 416 417 
10 362 16 17 382 368 134 367 1397 387 388 
10 171 18 474 411 176 539 540 422 420 1407 
10 19 759 411 180 823 1389 421 185 825 423 
10 414 0 201 492 417 202 1418 1304 501 1320 
10 201 777 1 414 1319 787 203 1418 1303 416 
10 354 752 13 343 1090 813 356 1419 1384 349 
10 354 12 467 343 355 527 1230 1419 350 1220 
10 456 8 486 338 515 519 520 1272 339 1273 
10 9 771 338 741 805 1274 340 801 804 1279 
10 413 170 169 458 437 174 430 1266 626 627 
10 178 179 413 743 183 428 429 911 912 1146 
10 768 58 59 192 859 74 858 1372 238 242 
10 28 192 27 483 234 235 43 564 1373 563 
10 16 460 153 382 535 536 158 387 1184 389 
10 17 162 745 382 167 820 821 388 390 1239 
10 746 197 64 65 1119 268 881 880 272 80 
10 33 461 34 197 585 586 49 265 1110 264 
10 61 60 194 742 76 248 252 866 867 1338 
10 30 29 457 194 45 571 572 244 245 1267 
10 2 281 3 186 284 285 21 207 1415 206 
10 4 298 5 282 303 304 84 289 1416 288 
10 4 282 85 481 289 290 87 508 1366 507 
10 482 86 2 281 505 89 504 1364 286 284 
10 282 5 90 767 288 92 291 1367 792 793 
10 193 28 29 485 240 44 239 1055 568 569 
10 770 193 59 60 1054 243 864 863 247 75 
10 32 31 459 200 47 578 579 254 255 1283 
10 63 200 744 62 263 1358 873 78 258 874 
10 3 281 91 766 285 287 94 790 1365 789 
10 769 11 338 741 809 342 1297 810 800 1279 
10 484 10 456 338 525 516 524 1296 341 1272 
10 186 766 3 67 1363 790 206 209 791 83 
10 467 14 12 354 528 132 527 1230 357 355 
10 752 13 15 354 813 133 812 1090 356 358 
10 5 298 108 767 304 306 113 792 1377 794 
10 471 96 97 300 596 101 595 1092 314 317 
10 300 105 106 756 312 110 311 1106 831 832 
10 36 482 2 186 506 504 52 208 1362 207 
10 151 468 150 384 606 607 155 396 1324 395 
10 384 159 160 753 398 164 401 1368 891 892 
10 23 24 188 499 39 214 215 549 550 1337 
10 55 784 54 188 844 845 70 222 1336 218 
10 177 1 777 414 181 787 788 419 416 1303 
10 168 0 414 492 172 417 418 503 501 1304 
10 99 298 4 481 305 303 104 509 1376 508 
10 777 1 53 201 787 68 786 1319 203 205 
10 22 201 0 492 204 202 37 502 1320 501 
10 16 135 460 362 138 537 535 368 369 1369 
10 142 17 745 362 145 821 822 370 367 1179 
10 53 54 779 187 69 841 842 213 217 1014 
10 23 187 22 494 210 211 38 547 1015 546 
10 6 493 470 299 513 514 510 308 1108 1042 
10 778 299 7 755 1261 307 797 799 1043 796 
10 85 283 86 495 292 293 88 542 1075 541 
10 283 90 91 780 297 93 296 1077 826 827 
10 299 7 105 778 307 109 310 1261 797 798 
10 493 6 96 299 513 100 512 1108 308 309 
10 178 177 775 415 182 908 909 424 425 1277 
10 490 415 168 169 1170 427 624 623 432 173 
10 137 14 464 359 141 530 531 365 363 1150 
10 359 15 749 144 364 816 1151 366 148 815 
10 18 150 474 383 154 538 539 392 393 1412 
10 19 159 383 759 163 394 391 823 824 1414 
10 496 412 170 171 1061 435 630 629 439 175 
10 781 412 180 179 1062 433 915 914 434 184 
10 136 361 137 455 374 375 140 620 1282 619 
10 144 740 361 143 905 1143 380 147 904 381 
10 383 18 19 411 392 149 391 1413 420 421 
10 6 470 115 327 510 511 117 329 1038 331 
10 7 327 118 755 330 332 120 796 1040 795 
10 98 497 97 301 598 599 102 322 1125 319 
10 301 106 107 782 316 111 315 1126 834 835 
10 35 34 498 198 50 588 589 269 270 1173 
10 783 198 65 66 1166 273 884 883 277 81 
10 489 33 32 196 583 48 582 1116 259 260 
10 64 196 774 63 267 1097 877 79 262 878 
10 773 344 11 128 1022 346 808 807 348 130 
10 10 125 344 488 127 347 345 522 523 1020 
10 765 360 143 142 1031 378 902 901 379 146 
10 135 136 480 360 139 616 617 371 372 1032 
10 13 343 752 128 349 1384 813 129 352 814 
10 125 467 12 343 529 527 126 351 1220 350 
10 8 328 115 491 334 335 116 518 1222 517 
10 328 9 118 776 333 119 336 1223 802 803 
10 447 761 760 732 1051 982 1036 1029 983 981 
10 761 447 760 476 1051 1036 982 1262 697 1197 

CELL_TYPES 661
24
24
24
24
24
24
24
24
24
24
24
24
24
24
24
24
24
24
24
24
24
24
24
24
24
24
24
24
24
24
24
24
24
24
24
24
24
24
24
24
24
24
24
24
24
24
24
24
24
24
24
24
24
24
24
24
24
24
24
24
24
24
24
24
24
24
24
24
24
24
24
24
24
24
24
24
24
24
24
24
24
24
24
24
24
24
24
24
24
24
24
24
24
24
24
24
24
24
24
24
24
24
24
24
24
24
24
24
24
24
24
24
24
24
24
24
24
24
24
24
24
24
24
24
24
24
24
24
24
24
24
24
24
24
24
24
24
24
24
24
24
24
24
24
24
24
24
24
24
24
24
24
24
24
24
24
24
24
24
24
24
24
24
24
24
24
24
24
24
24
24
24
24
24
24
24
24
24
24
24
24
24
24
24
24
24
24
24
24
24
24
24
24
24
24
24
24
24
24
24
24
24
24
24
24
24
24
24
24
24
24
24
24
24
24
24
24
24
24
24
24
24
24
24
24
24
24
24
24
24
24
24
24
24
24
24
24
24
24
24
24
24
24
24
24
24
24
24
24
24
24
24
24
24
24
24
24
24
24
24
24
24
24
24
24
24
24
24
24
24
24
24
24
24
24
24
24
24
24
24
24
24
24
24
24
24
24
24
24
24
24
24
24
24
24
24
24
24
24
24
24
24
24
24
24
24
24
24
24
24
24
24
24
24
24
24
24
24
24
24
24
24
24
24
24
24
24
24
24
24
24
24
24
24
24
24
24
24
24
24
24
24
24
24
24
24
24
24
24
24
24
24
24
24
24
24
24
24
24
24
24
24
24
24
24
24
24
24
24
24
24
24
24
24
24
24
24
24
24
24
24
24
24
24
24
24
24
24
24
24
24
24
24
24
24
24
24
24
24
24
24
24
24
24
24
24
24
24
24
24
24
24
24
24
24
24
24
24
24
24
24
24
24
24
24
24
24
24
24
24
24
24
24
24
24
24
24
24
24
24
24
24
24
24
24
24
24
24
24
24
24
24
24
24
24
24
24
24
24
24
24
24
24
24
24
24
24
24
24
24
24
24
24
24
24
24
24
24
24
24
24
24
24
24
24
24
24
24
24
24
24
24
24
24
24
24
24
24
24
24
24
24
24
24
24
24
24
24
24
24
24
24
24
24
24
24
24
24
24
24
24
24
24
24
24
24
24
24
24
24
24
24
24
24
24
24
24
24
24
24
24
24
24
24
24
24
24
24
24
24
24
24
24
24
24
24
24
24
24
24
24
24
24
24
24
24
24
24
24
24
24
24
24
24
24
24
24
24
24
24
24
24
24
24
24
24
24
24
24
24
24
24
24
24
24
24
24
24
24
24
24
24
24
24
24
24
24
24
24
24
24
24
24
24
24
24
24
24
24
24
24
24
24
24
24
24
24
24
24
24
24
24
24
24
24
24
24
24
24
24
24
24
24
24
24
24
24
24
24
24
24
24
24
24
24
24
24
24
24
24
24

POINT_DATA 1420
FIELD FieldData 11
Displacement 3 1420 double
0 0 0 0 0 0 0 0 0 
0 0 0 0 0 0 0 0 0 
1.0644601353e-05 0 5.4594788611e-06 1.1449038086e-05 0 3.2716086604e-06 0.0005594589574 0 0.0015087726356 
0.00052886124099 0 0.0015787569541 0.0062687542237 0 0.0050665942063 0.00643755248 0 0.005000135183 
0.0064015428517 0 0.0018371311192 0.0064004623331 0 0.0018385251524 0.0064167676099 0 -5.4908037141e-05 
0.0064107782524 0 -5.2782464182e-05 0.0028592906502 0 -0.0036681489475 0.0028598351573 0 -0.00366748724 
0 0 0 0 0 0 0 0 0 
0 0 0 0 0 0 0 0 0 
0 0 0 0 0 0 0 0 0 
0 0 0 0 0 0 0 0 0 
0 0 0 0 0 0 0 0 0 
0 0 0 0 0 0 0 0 0 
0 0 0 0 0 0 0 0 0 
0 0 0 0 0 0 0 0 0 
0 0 0 0 0 0 0 0 0 
0 0 0 0 0 0 0 0 0 
0 0 0 0 0 0 0 0 0 
0 0 0 0 0 0 0 0 0 
0 0 0 0 0 0 0 0 0 
0 0 0 0 0 0 0 0 0 
0 0 0 0 0 0 0 0 0 
0 0 0 0 0 0 0 0 0 
0 0 0 0 0 0 0 0 0 
0 0 0 0 0 0 0 0 0 
0 0 0 0 0 0 0 0 0 
0 0 0 0 0 0 0 0 0 
0 0 0 0 0 0 0 0 0 
0 0 0 0 0 0 0 0 0 
0 0 0 0 0 0 0 0 0 
0 0 0 0 0 0 0 0 0 
0 0 0 0 0 0 0 0 0 
0 0 0 0 0 0 9.8355354417e-06 -5.8827212697e-07 6.265136145e-06 
8.5824825179e-06 0 4.487445829e-06 6.1907127429e-06 0 2.3179725757e-06 3.6830118757e-06 0 1.3081706409e-06 
1.6221730741e-06 0 9.186931611e-07 9.1750128833e-06 0 5.6154933428e-06 7.4648048351e-06 0 3.2758096278e-06 
4.8817009036e-06 0 1.7130689915e-06 2.60352561e-06 0 1.0557820872e-06 7.6396394205e-07 0 7.9662735023e-07 
8.589609209e-06 0 4.319454304e-06 6.2369916537e-06 0 2.344567571e-06 3.6859656996e-06 0 1.3064179065e-06 
1.6401683016e-06 0 9.216005507e-07 9.4776200768e-06 0 4.981620126e-06 7.4624768568e-06 0 3.3080425878e-06 
4.8902591384e-06 0 1.7029522138e-06 2.6077707094e-06 0 1.0527412091e-06 7.6661897076e-07 0 7.927548826e-07 
0.00050523826507 -0.00014384407197 0.0016636585111 2.0536177955e-05 0 1.8239262768e-06 2.78119312e-05 0 0.00096775189318 
1.1147118914e-05 0 1.0918053812e-05 2.5852861177e-05 0 -1.4819560538e-05 3.6175436646e-05 0 0.00094425041204 
1.1679203045e-05 0 9.6632221142e-06 0.0064448650521 1.7416539595e-05 0.0049409317773 0.0030939840361 0 0.0036510266045 
0.0031437284391 0 0.00376801515 0.0064002014717 -7.1532408951e-08 0.0018375194466 0.0073563592523 0 0.0027890198306 
0.0068756089932 0 0.0023202035744 0.0076199122316 0 0.0046344276237 0.0073655037841 0 0.0027990496774 
0.0068752599026 0 0.0023207557312 0.0076180690924 0 0.0044762855511 0.0064152801604 2.8452780133e-06 -5.5977386515e-05 
0.0064084960159 0 0.00089001164756 0.0064072679165 0 0.00088941576725 0.0028589684683 2.7773152613e-07 -0.0036676591939 
0.0036988608675 0 -0.0029884223431 0.0045625253907 0 -0.0021900614095 0.0055447763969 0 -0.0011926566787 
0.0032777471331 0 -0.0033287083629 0.0041251084445 0 -0.002619027553 0.0050460810323 0 -0.0017092981521 
0.0060087658633 0 -0.00054733229126 0.0036987448422 0 -0.0029866741077 0.0045618647914 0 -0.0021921912985 
0.0055431846074 0 -0.0011865074703 0.0032778919355 0 -0.0033283678452 0.0041255349685 0 -0.0026178780211 
0.0050415807331 0 -0.0017080493128 0.0060022954919 0 -0.00054000172767 0 0 0 
0.0030090517039 0 -0.0033586646584 0.0033712383103 0 -0.0056999288768 0.0031034187 0 -0.0060122601003 
0.002886429563 0 -0.0049911627612 0.0015269041452 0 -0.0024353929818 0.0033467245175 0 -0.004825781319 
0.0032928396117 0 -0.0060544553975 0.0029467076362 0 -0.0056484918517 0.0028679127768 0 -0.0043396354914 
0.002936823665 0 -0.0033576929136 0.0033956124489 0 -0.005701336511 0.0030927800828 0 -0.0060238040459 
0.0028760315117 0 -0.0049904937961 0.0015573416508 0 -0.0025316093015 0.0033308101413 0 -0.004822598899 
0.0032775963821 0 -0.0060620008981 0.002948715326 0 -0.0056485384444 0.0028650369833 0 -0.004340286285 
0 0 0 0 0 0 0 0 0 
0 0 0 0 0 0 0 0 0 
0 0 0 0 0 0 0 0 0 
0 0 0 0 0 0 0 0 0 
0 0 0 0 0 0 0 0 0 
0 0 0 0 0 0 0 0 0 
0 0 0 0 0 0 0 0 0 
0 0 0 0 0 0 0 0 0 
0 0 0 0 0 0 0 0 0 
0 0 0 0 0 0 0 0 0 
0 0 0 0 0 0 0 0 0 
0 0 0 0 0 0 0 0 0 
0 0 0 0 0 0 0 0 0 
0 0 0 0 0 0 0 0 0 
0 0 0 0 0 0 0 0 0 
0 0 0 0 0 0 0 0 0 
0 0 0 0 0 0 0 0 0 
0 0 0 0 0 0 0 0 0 
0 0 0 0 0 0 0 0 0 
0 0 0 0 0 0 0 0 0 
0 0 0 0 0 0 0 0 0 
0 0 0 0 0 0 0 0 0 
0 0 0 0 0 0 0 0 0 
0 0 0 0 0 0 0 0 0 
0 0 0 0 0 0 0 0 0 
0 0 0 0 0 0 0 0 0 
0 0 0 0 0 0 0 0 0 
0 0 0 0 0 0 0 0 0 
0 0 0 0 0 0 0 0 0 
0 0 0 0 0 0 0 0 0 
0 0 0 0 0 0 0 0 0 
0 0 0 0 0 0 0 0 0 
0 0 0 0 0 0 0 0 0 
0 0 0 0 0 0 0 0 0 
0 0 0 0 0 0 0 0 0 
0 0 0 0 0 0 0 0 0 
0 0 0 0 0 0 0 0 0 
0 0 0 0 0 0 0 0 0 
0 0 0 0 0 0 0 0 0 
0 0 0 0 0 0 0 0 0 
0 0 0 0 0 0 0 0 0 
0 0 0 0 0 0 0 0 0 
0 0 0 0 0 0 0 0 0 
0 0 0 8.0394685671e-07 -1.266060446e-09 7.7088984106e-07 9.2112510019e-06 -3.2602627703e-07 6.1598847392e-06 
7.5356589162e-06 8.19876376e-09 3.2657622744e-06 4.8823038531e-06 -2.3210097634e-09 1.7018373206e-06 2.6023607688e-06 -1.8306666771e-09 1.0587651003e-06 
3.4056801549e-07 6.0316346187e-09 5.278844879e-07 3.4030169669e-07 -5.0534103084e-09 5.2397871003e-07 1.1881650241e-06 4.3647975612e-09 8.7078487105e-07 
1.201922838e-06 -2.6812025784e-09 8.7810693076e-07 1.0151371414e-05 -3.2191690884e-07 4.5266101625e-06 9.527907662e-06 -3.5717788986e-07 5.4496265123e-06 
8.922062954e-06 5.4962334781e-08 5.2440753591e-06 8.905924068e-06 -1.8894312579e-07 5.1155554994e-06 6.8844765835e-06 -1.088545448e-08 2.7715255489e-06 
8.0417042365e-06 5.7582968387e-08 3.8342249642e-06 8.5087147913e-06 -2.8881202827e-08 4.5327005271e-06 8.0834619815e-06 9.230121655e-09 3.8578296311e-06 
4.271502582e-06 -1.0684922672e-09 1.4817850016e-06 5.5370849806e-06 7.0759752106e-09 1.9916264737e-06 6.8478205891e-06 2.4688924955e-09 2.7495294291e-06 
6.1921770233e-06 4.931809987e-09 2.3324664173e-06 5.5272479691e-06 -7.2716117137e-10 1.9895398494e-06 2.1106365738e-06 1.6887521422e-09 9.8782222473e-07 
3.1311513208e-06 -1.5234995319e-10 1.1647256213e-06 4.2667646509e-06 -1.6629453654e-09 1.4889639023e-06 3.6843424052e-06 2.898961491e-12 1.3059001695e-06 
3.1292242031e-06 7.5394714631e-10 1.1625065283e-06 1.642475607e-06 -4.0704882272e-09 9.2311278193e-07 2.1015782273e-06 -4.709028457e-09 9.9029599643e-07 
8.3422937662e-06 -2.2041673695e-06 1.1595058326e-05 1.6517952998e-05 -7.1408044179e-05 0.00032180452473 9.5011764016e-06 -7.4748700378e-07 8.2013569749e-06 
9.5090151605e-06 -1.1875592437e-06 6.9920974049e-06 1.3237488925e-05 1.0030820878e-06 9.1778641549e-06 1.8825280265e-05 -6.1706373384e-06 1.6831571613e-06 
0.0001999739383 -0.00014236496987 0.00063106558007 0.00025623176793 0.00010058664584 0.00058442169209 5.3156652027e-06 -1.04072984e-05 0.0001027489234 
-6.4832929869e-07 -1.8066216633e-05 0.00014581643939 1.2580709952e-05 -1.21398285e-05 4.7217845683e-05 0.0027000124221 7.8927295586e-06 0.0038546750056 
0.0015261984016 -3.6768322471e-05 0.0026642334637 0.0014931273454 4.8537642131e-05 0.0029486345054 0.0046040231145 -9.3914363023e-05 0.0050065977251 
0.0048444954211 1.651866745e-05 0.0049683808454 0.0070619647906 -1.8440193304e-06 0.0024978915927 0.0079698583337 -2.7696926547e-05 0.0037556105238 
0.0074311228199 0.00020589985728 0.0038220490897 0.0075609506401 -9.3794354414e-05 0.0041266890106 0.0076405621821 5.3285268346e-06 0.0031647901325 
0.0076529308047 -4.8709045732e-06 0.0032992995424 0.0067299413685 2.3420955774e-06 0.0021699794283 0.0067306116947 -3.6602237536e-06 0.0021684946298 
0.0072037566261 7.4838446217e-06 0.0026632993687 0.007201277997 -9.245094254e-06 0.0026651141073 0.0075159955805 -9.7726257944e-06 0.0028120457424 
0.0063981834244 6.6091434074e-07 0.0008925461433 0.0064021051496 -1.7057083452e-07 0.0013624125569 0.0064016549104 2.6085767339e-07 0.0013621543885 
0.0064075167063 7.6245403139e-07 0.00041840294488 0.0064031230018 1.6916824162e-06 0.00041935394218 0.0058777010557 5.6730609484e-06 -0.00076781386912 
0.0041235913118 3.5946037678e-07 -0.0026190257256 0.0050425548561 -9.6839009898e-08 -0.0017082867949 0.0033995504743 1.8997399416e-07 -0.0032308167685 
0.0061864244306 -5.8269365527e-06 -0.00034238026375 0.0061725616871 5.6820728113e-06 -0.00035306241706 0.0057275336635 1.5357476623e-06 -0.00098616078389 
0.0057197671148 3.6680514788e-06 -0.00097914412869 0.0031283103887 3.8841436123e-07 -0.0034502349294 0.0031280059568 1.6566143312e-07 -0.0034506095754 
0.0035489966402 1.7716465696e-07 -0.0031096689359 0.0035489296826 1.5794620096e-07 -0.0031091006478 0.0039107848284 7.3222279043e-07 -0.0028112035532 
0.0043432510144 -1.3224235828e-06 -0.0024121362775 0.0037599671057 4.3316397768e-07 -0.0029361956026 0.0048009339157 -6.034880387e-07 -0.0019559323628 
0.0052911194338 2.9281220491e-06 -0.0014528743926 0.0045661917457 -7.7235881981e-07 -0.0021935466369 0.0054699345136 5.7642353718e-07 -0.0012471876238 
0.0043432679147 4.8721314713e-07 -0.0024118328125 0.0039113238014 -1.9899355377e-07 -0.0028098250273 0.0052878882011 -2.7613487396e-06 -0.0014483230189 
0.0047979133347 2.9044528546e-07 -0.0019574242995 0.0028629438674 -9.3773618919e-07 -0.004337749041 0.001395830789 -5.3268241263e-05 -0.0018945889194 
0.0034253674263 1.9131535725e-05 -0.0048635608657 0.0032501219717 1.749640781e-06 -0.0060441990358 0.0029152878559 -1.1925862818e-07 -0.0056390450838 
0.0028611854647 -6.5345592706e-07 -0.0040048452538 0.0028610679672 -9.9419793613e-08 -0.0040039877417 0.0028734757921 3.952734869e-07 -0.0046709243026 
0.0028685513238 -1.9344328724e-06 -0.0046729479402 0.00035636400813 0.00015849381044 -0.00094298126863 0.00035537365493 -0.00018149010142 -0.0009122843255 
0.002238729339 6.6068526314e-05 -0.0030967310187 0.0022604553096 -4.2218283644e-05 -0.0030589053881 0.003294143139 2.3246516461e-06 -0.0041200855514 
0.0034227704896 -6.0197962473e-06 -0.0053214983885 0.0029185917984 3.981305558e-05 -0.0034135817038 0.003222479263 2.2536652392e-05 -0.0040803860915 
0.0033238170752 4.9118928922e-06 -0.0059405229856 0.0032087087179 -7.5774652072e-08 -0.0060892656678 0.0034416841696 1.281980776e-05 -0.005334963004 
0.0034024635909 -1.1964431391e-07 -0.0056933188491 0.0033292795191 2.1060357467e-06 -0.0059484214473 0.0029882075719 6.9561129809e-06 -0.0058764070344 
0.002901539282 -3.8877537309e-06 -0.0053278495971 0.0031894478601 -1.9393759593e-06 -0.0060841796372 0.0031036810954 -7.8082960645e-06 -0.006012286746 
0.0029960033107 -6.7290034636e-06 -0.0058729423305 0.0028857981745 -4.312715554e-06 -0.0050033902573 0.0028984453227 4.0999321703e-06 -0.0053284855064 
0 0 0 0 0 0 0 0 0 
0 0 0 0 0 0 0 0 0 
0 0 0 0 0 0 0 0 0 
0 0 0 0 0 0 0 0 0 
0 0 0 0 0 0 0 0 0 
0 0 0 0 0 0 0 0 0 
0 0 0 0 0 0 0 0 0 
0 0 0 0 0 0 0 0 0 
0 0 0 0 0 0 0 0 0 
0 0 0 0 0 0 0.0053976363486 0 -0.0045138138672 
0.0074049448678 0 -0.0026807757285 0.00017836317347 0 -0.00019149829094 0.0037135533792 0 -0.0049138818879 
0.007787018238 0 0.00091231538342 8.7392233558e-06 0 2.6947292707e-06 0.0052267065995 0 -0.0038135504421 
1.2152225988e-06 0 -3.9815549634e-07 0.00099864065407 0 -0.00084487840776 3.182914145e-06 0 -2.2798886478e-08 
0.00053019071517 0 -0.0010011983614 0.0042597079369 0 -0.0052484473984 0.0024777395147 0 -0.0010799629494 
0.0079426471918 0 -0.0013789803645 1.0565188396e-06 0 -1.0541478593e-05 0.0057744215706 0 -0.0027606048166 
0.00074055016695 0 0.00058690230243 0.0040768194759 0 0.00099861751666 2.790327126e-05 0 -7.9526998412e-05 
1.0478850891e-05 0 5.6179167507e-06 0.0041029882272 0 -0.0041192109292 3.1654542702e-06 0 1.2505643116e-08 
9.8192503233e-06 0 -2.518815368e-05 0.0034462741151 0 -0.0032450174099 0.0069964574413 0 -0.0015968859345 
0.0062754351834 0 -0.0040679585182 0.0045002512611 0 -0.0012011239889 0.0076779480397 0 0.0015074060641 
0.0024472191345 0 -0.0044246561182 0.0013979848378 0 -0.0019191928885 9.0819733083e-06 0 7.4875018927e-06 
6.1411605191e-06 0 1.661366516e-06 0.0080127119819 0 -0.00013227182169 0.0037724945093 0 -0.0059221859484 
0.00029130181947 0 -0.00082781735416 1.1791082819e-06 0 -4.3457792108e-07 2.4355817292e-06 0 3.9056592596e-08 
0.0006193286441 0 -0.00041312062348 0.004786709685 0 -0.005176707061 0.0041744447761 0 -0.0030117036945 
0.0046615422705 0 -0.0032148044196 8.8527941632e-07 0 -9.9910205231e-09 4.8998926465e-07 0 -4.5595010761e-07 
0.0061937638634 0 -0.0001994997399 0.0034694449629 0 0.0014834858749 0.0042214475228 0 0.00027585048624 
3.4951320855e-05 0 4.9303545529e-05 0.0052533464402 0 -0.0048010207149 0.0076231038278 0 0.0023299012719 
3.9666242481e-06 0 3.5572925944e-09 -9.2382386573e-07 0 -9.3327506067e-06 1.6256796421e-05 0 7.3333272316e-06 
-1.0330155769e-06 0 -2.0860792473e-06 8.6683100338e-06 0 4.9626513593e-06 -1.7649849988e-06 0 -1.1222386985e-06 
4.6977788111e-07 0 -3.65817226e-07 -8.5073864699e-06 0 -0.00012173092541 4.2309173886e-06 0 7.7853969413e-07 
1.2560930837e-06 0 -3.1156918083e-07 3.5143463654e-05 0 -3.393514072e-05 0.0059519176001 0 -0.003011960037 
-7.2945250273e-07 0 -7.5610909589e-07 -1.0458516631e-06 0 -1.078312705e-06 -8.2374117143e-07 0 -1.0886257505e-06 
2.3463795498e-07 0 -2.5666884923e-07 2.6508850382e-07 0 -3.489882628e-07 3.224790019e-07 0 -2.8926456106e-07 
3.4156757693e-07 0 -9.3621213842e-08 3.7179429384e-07 0 2.3096581953e-07 1.2595816105e-06 0 4.1858370116e-07 
9.0588924287e-06 0 5.7554929265e-06 8.6189769533e-06 0 3.9091040317e-06 8.4144157942e-06 0 4.7129929261e-06 
8.9542938012e-06 0 5.4141520824e-06 9.1463136256e-06 0 5.5986077292e-06 0.00095427703063 0 0.0011303184436 
0.0031204724159 0 0.0025155127496 4.0199220712e-06 0 -8.8131327387e-06 9.7029721421e-05 0 0.00035865501248 
0.00025406350458 0 0.00055791352688 0.00031727381961 0 0.00038786715805 9.6984312896e-06 0 3.5493913664e-05 
0.0072204078511 0 0.003357108803 0.0078021518213 0 0.0026181980406 0.0019608811854 0 0.0012493112301 
0.0051535931076 0 0.0030800668755 0.0060003858599 0 0.0022523357298 0.0070457697072 0 0.0016683490718 
0.0070463520146 0 0.00072018901053 0.0075257479522 0 0.002145617251 0.0067347773969 0 -0.00081265010046 
0.0062304960954 0 -0.0013970785218 0.0072473166541 0 -0.00010321078405 0.0075310527695 0 -0.00080835673504 
0.0078535391645 0 0.00069310815597 0.0034792327233 0 -0.0038947727068 0.0034787186438 0 -0.0045700913107 
0.0039008255102 0 -0.0035543432464 0.0015441637983 0 -0.0022427430514 0.00010168927651 0 -0.00053516474953 
6.2355427267e-05 0 -0.00019762010921 2.0527493031e-07 0 -2.6216047006e-07 2.1029011696e-07 0 -1.6859641332e-07 
6.5030692491e-07 0 -2.463078643e-07 4.9469666828e-07 0 -4.4536860087e-07 1.2490014101e-05 0 7.4514341597e-06 
-1.0089485579e-06 0 -1.0426714902e-06 -8.434479082e-07 0 -6.443397015e-07 -9.9996833557e-07 0 -1.7780877331e-06 
3.3334276597e-06 0 -7.7819932348e-06 2.0521740002e-05 0 -2.9030743355e-06 3.7379422258e-07 0 -5.1446987991e-06 
1.6935340151e-06 0 -5.0770998599e-06 2.7512727267e-05 0 -3.0950734923e-05 0.00013837936845 0 -9.4336167556e-05 
0.00039776355719 0 -0.00010496591514 0.00025523367607 0 -0.00021786033897 0.00091532653289 0 -0.00025141105392 
0.0014742495572 0 -0.00027770006578 0.0014601162853 0 -0.00076922554799 0.0020098742695 0 -0.00030422907416 
0.0027261277309 0 -0.00028794170021 0.0034411267561 0 -0.0011309552925 0.0029111658159 0 -7.9181384457e-05 
0.0030549568906 0 -4.0598172808e-05 0.0061871620279 0 -0.0012292594193 0.0040467612351 0 -0.00037304515609 
0.0072847848313 0 -0.0008016624405 0.0021046125811 0 5.5034137181e-05 0.001847003482 0 6.6349784537e-05 
0.0052716456864 0 6.2009644915e-05 0.0020394432962 0 0.00026137841404 0.0013212543169 0 0.00024392965869 
0.0042867136802 0 0.00058604948903 0.00059387432147 0 0.00017297297618 0.00015144675275 0 0.00011355111629 
0.0013135528575 0 0.00031968872125 0.0038880190367 0 0.0011807692239 7.8851660936e-06 0 5.7197563467e-07 
4.4975778327e-06 0 1.8931248431e-06 1.3356132976e-05 0 3.9010429685e-06 1.7706251376e-05 0 1.1231647749e-05 
2.0008055718e-06 0 3.0624576632e-08 1.5480879873e-06 0 -1.248900381e-07 6.6361479124e-06 0 1.6420079437e-06 
1.6828291587e-06 0 -1.5471123556e-07 1.2861870996e-06 0 -2.09918546e-07 3.5415495299e-06 0 3.0820737985e-08 
7.0262310849e-07 0 -2.0704650071e-07 5.4752591397e-07 0 -2.1861763778e-07 2.0053305278e-06 0 -2.6620172825e-07 
6.5033112421e-07 0 -3.0397044812e-07 4.9135002895e-07 0 -3.1630673303e-07 1.257785601e-06 0 -3.9435315315e-07 
7.9956695951e-07 0 -4.6336592847e-07 6.1270060172e-06 0 1.9715290183e-06 7.3471701473e-06 0 3.1165056247e-06 
7.469081633e-06 0 3.1159365444e-06 4.0314024295e-06 0 1.0081314701e-06 5.1802099652e-06 0 1.4716216033e-06 
5.1355422424e-06 0 1.1058088802e-06 2.1338415657e-06 0 4.3409819868e-07 3.0829593264e-06 0 5.8452751938e-07 
3.2738997687e-06 0 3.4731815321e-07 1.6574277717e-06 0 -1.074214413e-09 0.0078989687496 0 0.0019926590987 
0.0028229402652 0 -0.0053580222954 0.0022644552123 0 -0.0040547049569 0.0013837937595 0 -0.0027984520531 
0.0033067945757 0 -0.0060940146244 0.0031824010963 0 -0.0060353976364 0.0033446731315 0 -0.0055864407458 
0.0034105388702 0 -0.0056461593165 0.0041861474849 0 -0.004697775167 0.0035686473639 0 -0.0051390502102 
0.0040425951542 0 -0.0056596693774 0.004610740739 0 -0.0027402992336 0.0041787821712 0 -0.0031020951114 
0.0043821111528 0 -0.0036671097781 0.0056670244705 0 -0.0020252097498 0.0051860826386 0 -0.0024977503421 
0.0052178577381 0 -0.0030041100942 0.0063817273258 0 -0.0021776191066 1.1708385814e-07 0 -2.942619056e-07 
-1.3520159243e-06 0 -1.5912035224e-06 -1.4620742985e-06 0 -4.9311322992e-06 1.0328136591e-05 0 -1.410773233e-05 
1.1704239941e-06 0 -6.7799110781e-06 1.2440472918e-05 0 -2.3023477736e-05 1.3102038479e-05 0 -2.2246611665e-05 
-7.3440269838e-06 0 -1.814383256e-05 4.8857916213e-05 0 -9.914153242e-05 0.0001705515565 0 -0.00035714671442 
0.0043604456095 0 -0.0044759425128 0.0051151640471 0 -0.0048293030221 0.0046408146308 0 -0.0040949326159 
0.0051142530364 0 -0.0038940427358 0.0039007990838 0 -0.0031658490322 0.0057741105306 0 -0.0037706605141 
0.0058627790304 0 -0.0043005193585 0.0054342061921 0 -0.0047470291404 0.0057518610836 0 -0.0044574881124 
0.0050956372706 0 -0.0050444096904 0.007252442656 0 -0.0022000992589 0.0076754152114 0 -0.0015627340796 
0.0076558812765 0 -0.0021517481996 0.0064742760174 0 -0.002064329504 0.0066306608742 0 -0.0027798418479 
0.006793259829 0 -0.0034339817484 0.0060697006674 0 -0.0034752021772 0.0067591772359 0 -0.0028380942814 
0.0063824538398 0 -0.0036832099453 0.0054372069206 0 -0.0020782911737 0.00029350272069 0 -0.00026921565802 
9.9414080915e-05 0 -7.1396029321e-05 0.00053936668502 0 -0.00055228120889 0.0013045641589 0 -0.0013436284096 
0.0021376861084 0 -0.0018478497952 9.361660222e-06 0 -2.8342096546e-06 2.6677281477e-05 0 -4.7968997113e-05 
2.7091163894e-07 0 -7.7365790371e-06 3.0731045777e-05 0 -3.544732618e-05 0.00031898755705 0 -0.0005557121946 
0.00067817082143 0 -0.00082254201303 9.6518137772e-05 0 -0.00015024158037 0.0024039165177 0 -0.0026798097037 
0.0027197451889 0 -0.0035786399129 0.0036507235393 0 -0.0041495275848 0.0042954272133 0 -0.0051619142433 
0.002011436293 0 -0.0032962307606 0.0030363765446 0 -0.0047500203218 0.0038779725682 0 -0.0056139815214 
0.0043058222089 0 -0.0055904322391 0.0063709948756 0 0.00058271530726 0.0063371337308 0 0.0011415180406 
0.0077413191547 0 0.0016733589519 0.006137449627 0 0.0017749560053 0.0081422885475 0 0.00045420589737 
0.0079937558417 0 0.0012620941968 0.0071865241856 0 0.00031640714276 0.007850847295 0 -0.00011715245974 
7.0281747797e-06 0 1.0715374736e-06 9.9306099475e-06 0 3.2645855418e-06 1.2789725924e-05 0 6.7575020021e-06 
1.2610123769e-05 0 5.1167885792e-06 7.1285627467e-06 0 2.2990773252e-06 4.8865919481e-06 0 7.171845665e-07 
5.472690877e-06 0 7.991344512e-07 1.0148229535e-05 0 5.3144083187e-06 9.2383090486e-06 0 4.0396475883e-06 
0.0057801918735 0 -0.0039700685759 0.0054877748399 0 -0.0033114490928 0.004943680542 0 -0.0035135301802 
0.0046651612702 0 -0.0039663359239 0.0052444611299 0 -0.004323357979 0.0046798084977 0 -0.0044718103479 
1.834186602e-06 0 -3.3941682097e-07 1.7663751806e-06 0 -2.259931618e-07 1.2643553801e-06 0 -4.5134398369e-07 
7.9015017346e-07 0 -4.8717148647e-07 1.1067147846e-06 0 -2.4225088094e-07 8.2931198566e-07 0 -4.0454161221e-07 
0.00040397808292 0 -0.00030682621019 0.0023456543979 0 -0.0018126935213 0.0022416222071 0 -0.0014048630239 
0.00092854681315 0 -0.00058314289589 4.5389245764e-06 0 6.0352585496e-07 3.2409254847e-06 0 5.2680317402e-09 
2.2312630026e-06 0 -2.8419483389e-07 3.7664611854e-06 0 3.2964120694e-07 2.8597088043e-06 0 -1.5527022846e-08 
2.0169898859e-06 0 -3.558835244e-07 0.00087368910705 0 -0.0015669133377 0.00017172820657 0 -0.00026728281899 
0.00015328747625 0 -0.00039054066345 0.0015659649746 0 -0.0027541929838 0.00048916700502 0 -0.00095624388417 
0.0047556822172 0 -0.0050260142321 0.0046415636456 0 -0.0053576128216 0.0042707290137 0 -0.0019580913485 
0.0035518553959 0 -0.0019570331498 0.0051191083408 0 -0.002937723779 0.0080865240784 0 -0.00073123263403 
2.4015407246e-06 0 -3.4771760837e-06 -1.0158528907e-06 0 -4.3097706497e-06 0.0054089012672 0 -0.0045378814348 
0.0073665877528 0 -0.0027378841275 0.00014918973095 0 -0.0001780128268 0.0037619700522 0 -0.0049725297403 
0.0078017771279 0 0.00099116007758 8.8176639834e-06 0 2.6520832374e-06 0.0052324198934 0 -0.0038170545574 
1.2122740722e-06 0 -3.9910438004e-07 0.0010258236196 0 -0.00085847407616 3.1397005051e-06 0 -8.0724833924e-09 
0.00054050224825 0 -0.0010724381384 0.0042574827631 0 -0.0052476543689 0.0023613217057 0 -0.0011684839735 
0.0078358455558 0 -0.0012716491574 2.9286491053e-06 0 -1.1201097139e-05 0.0057783218115 0 -0.0027674896384 
0.00085784310089 0 0.00055054087566 0.0040667830985 0 0.0010003177695 3.6175763555e-05 0 -6.6246227463e-05 
7.085962354e-06 0 3.211865376e-06 0.0041000798143 0 -0.0041202746144 3.1882789234e-06 0 -3.4017185192e-09 
9.541115373e-06 0 -3.5297891564e-05 0.0034303916487 0 -0.0032513633873 0.0069944010566 0 -0.0015907262866 
0.0062712476605 0 -0.0040405680986 0.004782910907 0 -0.001427757052 0.0076876386979 0 0.0014959830724 
0.002424699487 0 -0.0044064909645 0.0013996787338 0 -0.0019386924409 1.0543072041e-05 0 6.1276647266e-06 
6.1760088893e-06 0 1.6939228848e-06 0.0080204909673 0 -0.00013892405959 0.0037770601042 0 -0.0059002051603 
0.00035613090548 0 -0.00087438301139 2.4011439419e-06 0 4.4871465886e-08 1.1574177477e-06 0 -4.4434588831e-07 
0.0006158729488 0 -0.00046208912576 0.0048151983704 0 -0.0051730641292 0.0042919457663 0 -0.0029851160687 
0.0046629943598 0 -0.0032091427844 4.8489396508e-07 0 -4.5718525866e-07 8.8362786874e-07 0 -1.3173549633e-08 
0.006231458339 0 -0.00023522600964 0.0031409152539 0 0.0016594128786 0.0041834943545 0 0.00030987169054 
3.030593237e-05 0 5.2885455466e-05 0.0052434423817 0 -0.0047999606498 0.0076950447173 0 0.002332394337 
3.6088022859e-06 0 7.9318061834e-08 -2.7703287219e-07 0 -8.1772908274e-06 1.7309899145e-05 0 1.7699889527e-05 
-1.5782776005e-07 0 -2.0969963422e-06 9.4582539954e-06 0 4.6331904913e-06 -4.3787809678e-06 0 -1.9997077323e-06 
4.6646615912e-07 0 -3.6451989143e-07 -2.3914102271e-05 0 -9.5319049851e-05 4.2274009109e-06 0 7.4833702105e-07 
1.2640792709e-06 0 -3.170500302e-07 3.4645842329e-05 0 -9.4924880577e-06 0.0060452796059 0 -0.002939968209 
-9.6184900262e-07 0 -1.0248869654e-06 -5.6833519332e-07 0 -7.3925102874e-07 -5.0423949619e-07 0 -1.4438008576e-06 
2.6312292387e-07 0 -3.4862054477e-07 2.3321713149e-07 0 -2.5621873323e-07 3.2056775135e-07 0 -2.8959666387e-07 
3.679591614e-07 0 2.2862329236e-07 3.413348061e-07 0 -9.4449435268e-08 1.2512896058e-06 0 4.173897786e-07 
5.2583854895e-06 0 -5.9500286748e-06 9.2043871271e-06 0 2.6164804044e-06 9.1002052604e-06 0 3.9014751764e-06 
8.8140513194e-06 0 4.462845727e-06 1.0211107334e-05 0 4.839332436e-06 0.003289950946 0 0.0023568392878 
0.0010443625785 0 0.0012028697654 6.7367406734e-05 0 0.00031753978689 -1.4268071129e-05 0 -3.3853884926e-05 
0.00040687202397 0 0.00051230288858 0.00026546907136 0 0.0005610580996 2.2049170985e-05 0 2.1076501313e-05 
0.0078217702723 0 0.0026258033993 0.0073206267082 0 0.0034325886159 0.0050215385022 0 0.0032468638294 
0.0018774749932 0 0.0013242463721 0.0059192345943 0 0.0023775996625 0.0070516531779 0 0.00072131366873 
0.007046681416 0 0.0016655160069 0.0075295282683 0 0.0021456525379 0.0062236083055 0 -0.0013878472648 
0.0067276657063 0 -0.00080742951498 0.0075490856178 0 -0.00080206770897 0.0072595790574 0 -9.912551128e-05 
0.0078583932684 0 0.00069115032025 0.0034808075651 0 -0.0045692727978 0.0034798521053 0 -0.0038945474756 
0.0038997456057 0 -0.0035544427629 0.00012558168357 0 -0.00057566256993 0.0015689361991 0 -0.0022619750799 
7.9005649568e-05 0 -0.00022824023357 2.0996285579e-07 0 -1.6989358625e-07 2.05318808e-07 0 -2.6092288759e-07 
6.480651168e-07 0 -2.4632725103e-07 4.9506692236e-07 0 -4.4530060077e-07 1.4506098191e-05 0 1.002942562e-05 
7.5110390716e-06 0 3.1421099489e-06 6.1404368492e-06 0 2.0142053539e-06 7.8654966701e-06 0 3.0519518513e-06 
5.1970873281e-06 0 1.4658954422e-06 4.0272233333e-06 0 9.9344695364e-07 5.0995618589e-06 0 1.1532623769e-06 
3.0526288593e-06 0 5.8470802513e-07 2.1066698102e-06 0 4.3983682215e-07 3.2531893257e-06 0 3.3432920678e-07 
1.6396938852e-06 0 4.9080313227e-09 -1.84630328e-06 0 -9.5504472355e-07 -1.7353321869e-06 0 -1.2315230563e-06 
-8.9263853443e-07 0 -1.1406494302e-06 2.7690670344e-06 0 2.2091582156e-06 5.1512391648e-06 0 -4.0565823125e-06 
1.6877226604e-06 0 -8.5715926615e-06 -1.0811357164e-06 0 -1.0981625003e-05 2.7253690823e-05 0 -2.9952325985e-05 
0.00038935908446 0 -0.00012088152406 0.00010660906423 0 -9.6872524029e-05 0.00023427616293 0 -0.00020913650557 
0.0015531298468 0 -0.00029813953259 0.00088131325963 0 -0.00027852054324 0.0013404959491 0 -0.00075123289198 
0.0028627475871 0 -0.00031417290177 0.002192235978 0 -0.00036795044288 0.0035624578384 0 -0.0013033452014 
0.0031103198964 0 -6.1322451512e-05 0.0029230086306 0 -8.0295747721e-05 0.0040707746152 0 -0.00031908772477 
0.0062224587847 0 -0.0011931151547 0.0072243750205 0 -0.00075127596022 0.0018415821246 0 8.6880332615e-05 
0.0021248369693 0 6.6767674779e-05 0.0052625991349 0 0.00011160358449 0.0012630905367 0 0.00024581314017 
0.0020265048117 0 0.00025110958174 0.0042690008738 0 0.00061731525042 0.00018338971703 0 9.6215704508e-05 
0.00048444601446 0 0.00020186171328 0.0011148267771 0 0.0004069847286 0.0037219185974 0 0.0012764919847 
2.4629369878e-06 0 7.5078925145e-07 5.8845657658e-06 0 2.0174971789e-06 1.0563378288e-05 0 6.0587763735e-06 
1.4769941654e-05 0 1.4384735809e-05 1.4568973917e-06 0 -8.2934989942e-08 1.5116162096e-06 0 -5.5497952871e-08 
4.9773030586e-06 0 5.6215058567e-07 1.324409574e-06 0 -1.9880186551e-07 1.7315686912e-06 0 -1.8422500553e-07 
3.4964749395e-06 0 -1.2177202726e-08 5.4989260117e-07 0 -2.2023407961e-07 7.0717249143e-07 0 -2.080313095e-07 
2.0542265548e-06 0 -2.3622325986e-07 4.8991756364e-07 0 -3.1779825611e-07 6.4948422945e-07 0 -3.0883193058e-07 
1.2485814961e-06 0 -3.9635223212e-07 7.8707707164e-07 0 -4.6571796511e-07 0.007949521766 0 0.0019933465922 
0.002240120501 0 -0.0039878933294 0.0028015084081 0 -0.0053468260535 0.0013865032613 0 -0.002752129692 
0.0031640330213 0 -0.0060488355575 0.0033111488101 0 -0.006086666467 0.0033371286241 0 -0.0056065847697 
0.0034171007858 0 -0.0056472084798 0.003574465339 0 -0.0051423634339 0.0041844643105 0 -0.0046969909861 
0.0040430199023 0 -0.0056507256847 0.0041794511064 0 -0.0030986936338 0.0046101410557 0 -0.0027391089923 
0.0043805461575 0 -0.0036668547465 0.0051798375604 0 -0.0025006660481 0.005666167612 0 -0.0020246369404 
0.0052145551 0 -0.0030076546108 0.0063770657015 0 -0.0021852036592 -8.9646503793e-07 0 -2.1907048402e-06 
1.2497419077e-07 0 -1.2792055403e-06 -4.3733699881e-07 0 -4.7748879474e-06 4.3344753975e-06 0 -6.4598947825e-06 
8.7646336586e-06 0 -2.0490092313e-05 1.3092331692e-05 0 -1.8905567493e-05 -9.5224693549e-06 0 -1.7723037006e-05 
1.7785971151e-05 0 -1.6254047076e-05 3.1495461952e-05 0 -9.0130181416e-05 0.00022074636393 0 -0.00036105369371 
0.0046403170266 0 -0.0041334512057 0.0051194727478 0 -0.0048482488084 0.0043724048209 0 -0.0044816759705 
0.0039239481443 0 -0.0032096498734 0.0051665595575 0 -0.0039123456182 0.0058711106165 0 -0.0043097878627 
0.0058433252744 0 -0.0037609280721 0.0057396540473 0 -0.0044442850793 0.0054309342863 0 -0.0047623505332 
0.0051041655299 0 -0.0050473760597 0.0075847966364 0 -0.0021602652622 0.0076471074025 0 -0.001503161226 
0.0072234867886 0 -0.0021932672201 0.0065429449393 0 -0.0022017252454 0.0066168789392 0 -0.0028068232079 
0.0060758695296 0 -0.0034723305067 0.0067929660503 0 -0.0034198546532 0.0064201096453 0 -0.0036402472768 
0.0068093150593 0 -0.0028573373849 0.0055353948859 0 -0.0021920547273 0.00052508570744 0 -0.00056204849947 
9.3160246476e-05 0 -6.7283579342e-05 0.00028065232356 0 -0.00026611837798 0.0021149358932 0 -0.0018670235401 
0.0012838649432 0 -0.0013372940002 2.9692639137e-05 0 -5.2833372181e-05 1.3343449275e-05 0 -7.0105519731e-06 
3.0100726276e-05 0 -4.1057481074e-05 2.2925738845e-07 0 -8.637612957e-06 8.9980255301e-05 0 -0.00013154453587 
0.00068248571657 0 -0.00081940153519 0.00031933172491 0 -0.00054026810687 0.0024036378564 0 -0.0026956000782 
0.0036730656449 0 -0.0042075977971 0.0026999904806 0 -0.0035700582514 0.0043243936518 0 -0.005205664461 
0.0030501531223 0 -0.0047688151296 0.0020402443555 0 -0.0032743776407 0.0038773889768 0 -0.0056265397444 
0.0042946245699 0 -0.0055834776744 0.0063546530844 0 0.0012083406255 0.0063612018532 0 0.00066241334281 
0.0060731142886 0 0.0018053738929 0.0077605120868 0 0.001749950203 0.008022814191 0 0.0012760604181 
0.0081229238514 0 0.00046731105979 0.0078285456099 0 -0.00013698728338 0.0071826071775 0 0.00040667176278 
8.7137315795e-06 0 1.6847548787e-06 6.7392032341e-06 0 1.0243651197e-06 1.2251116869e-05 0 5.1081366758e-06 
1.3535808943e-05 0 9.6767791102e-06 5.4996883028e-06 0 7.4466982133e-07 4.864401716e-06 0 6.8844121954e-07 
7.3013006581e-06 0 2.1887294795e-06 1.0574444013e-05 0 4.3736169514e-06 9.4906072646e-06 0 3.8039430608e-06 
0.0054932407314 0 -0.0033148396787 0.0057769100749 0 -0.0039609442206 0.0049486727033 0 -0.0035130000268 
0.004666764102 0 -0.0039690513088 0.0046796106627 0 -0.0044748568789 0.0052416258877 0 -0.0043217827446 
1.751437238e-06 0 -2.2257635804e-07 1.8058047329e-06 0 -3.3652582806e-07 1.2478125812e-06 0 -4.5537639387e-07 
1.1001613916e-06 0 -2.4158203177e-07 7.8876865181e-07 0 -4.8789902665e-07 8.2580003736e-07 0 -4.0789007071e-07 
0.00040475082982 0 -0.00027729178602 0.0023999124438 0 -0.0017969086037 0.00096692363176 0 -0.00060102307782 
0.0021896880455 0 -0.0013492664646 3.2373440446e-06 0 5.1395284937e-09 4.492441952e-06 0 6.2586331184e-07 
2.2114616709e-06 0 -2.7017165992e-07 3.7380248467e-06 0 3.2120335948e-07 2.8343200795e-06 0 -2.1237051194e-08 
1.9990869127e-06 0 -3.4276984486e-07 0.00017314029948 0 -0.00027658600384 0.00092296071199 0 -0.0015657326749 
0.00012141138655 0 -0.00039381569133 0.0015797095737 0 -0.0027765888966 0.00053126173197 0 -0.0010244135623 
0.0047543467684 0 -0.0050214257208 0.0046436367621 0 -0.0053498086734 0.0043406044535 0 -0.002010169562 
0.0035025973498 0 -0.0019649620271 0.0052075568476 0 -0.0028937304344 0.0080507129384 0 -0.00069736957783 
5.5290893293e-06 0 -2.2903538669e-06 2.2490420537e-07 0 -3.33642603e-06 8.2664727839e-07 -5.5850952237e-10 -4.0733734571e-07 
4.6484828393e-07 -2.1829913603e-10 -3.604294556e-07 4.8979930443e-07 -3.0843457765e-10 -4.4224809415e-07 6.4664447789e-07 -4.7997054952e-10 -2.4310018425e-07 
-3.6352806899e-06 -3.2194479598e-09 -7.1373716354e-07 -1.8347142592e-06 5.9715534941e-07 -5.5583089605e-07 -2.2815677615e-06 2.6611214726e-07 -1.4021381516e-07 
1.3929844017e-06 1.0443081868e-06 -7.297883848e-06 -2.8084794104e-06 1.810056445e-07 -3.5333975397e-06 0.0077001735751 1.0538431405e-05 0.0025354341075 
0.0077584155674 -1.5831544434e-05 0.0032061222742 0.0077198245174 -3.0008984796e-06 0.0025332053493 0.007800346991 1.0352424833e-05 0.0032650906635 
0.0076514368578 -2.0216158428e-05 0.0023289770041 1.2137485363e-05 1.979968871e-06 8.4230299752e-06 9.7950272499e-06 4.0057929039e-07 7.0890333876e-06 
1.0207929393e-05 4.8965937653e-07 5.2316386463e-06 1.2765037288e-05 -8.8099285004e-08 5.0081123179e-06 7.8530875835e-07 -1.140492626e-09 -4.8603159138e-07 
1.2108760687e-06 -4.2688595073e-10 -3.9819623652e-07 1.1035678044e-06 6.5842070217e-11 -2.4308570122e-07 0.0043923634727 -3.9799773233e-07 -0.0029247873045 
0.0043915584913 1.5201741355e-06 -0.0029276399247 0.0046639613962 2.3319078083e-07 -0.0032114852977 0.0040277551716 1.5965675297e-07 -0.0032211845734 
0.0040274298013 1.1370375659e-07 -0.0032227293976 1.7485842417e-06 3.8516227892e-10 -2.2341577268e-07 1.639014946e-06 5.4977459236e-10 2.4850493208e-09 
7.3067665915e-06 -3.0542620814e-07 7.6755383981e-06 8.5447218824e-06 3.8455560744e-07 1.0137180369e-05 8.6052716159e-06 -1.039610454e-06 6.657690169e-06 
8.919548151e-06 -3.3772595834e-07 5.7088879145e-06 8.8326903409e-06 -2.4227061889e-07 5.825428145e-06 9.5541250272e-06 6.7609669214e-07 5.2600610713e-06 
0.0065634198346 -1.4576531702e-05 0.0031971691636 0.0060107213441 5.4554503101e-05 0.0022948207348 0.0063271483399 -3.78502868e-05 0.00063472735479 
0.0062970475474 -5.1701589637e-05 0.0012122933563 0.004248321494 -2.4769095478e-05 0.00062922908798 0.0041386720759 -5.1671943145e-05 0.00030611315208 
7.8736348523e-07 -1.1457184279e-09 -4.6619191921e-07 1.2475415791e-06 -2.6823143681e-09 -4.5407811448e-07 0.0060870654003 3.1654945421e-05 0.0017848708755 
0.0077124915831 5.3975286326e-05 0.0016780288527 0.002131790183 -1.1687017466e-05 8.7236742478e-05 0.0021317942881 6.9142375853e-06 9.1265840921e-05 
0.0023718755146 -4.7268418541e-06 0.0002264042388 -1.9007032322e-06 1.5179165191e-06 -7.8409254714e-06 -2.2860570322e-05 -1.8167619364e-06 -0.00011789956277 
-1.3373219024e-06 -1.2344050417e-06 -1.0005625133e-05 -6.0917120319e-06 -6.3678973136e-06 -1.3526278502e-06 -5.7097733074e-06 2.0563913841e-06 -1.2690382699e-06 
-1.5168633676e-05 2.5173690888e-06 1.227788746e-05 -3.9172229916e-06 1.1332684919e-06 -6.5202955881e-06 1.1050167973e-05 3.3054323144e-07 -3.0267491314e-05 
-1.505706335e-06 1.4773200321e-07 -4.3020703121e-07 -2.4126313227e-07 5.7067331935e-08 -1.4150142241e-06 0.0001710543609 -3.9125133048e-05 0.00012473184935 
3.6910926481e-05 -1.791416391e-05 4.8051815628e-05 4.440591877e-05 1.347194262e-05 3.0361939694e-05 2.8350802129e-05 2.8840080259e-05 2.2017572184e-05 
0.00046452402448 -6.3847974288e-05 0.00047966460977 0.0077692399144 4.3905759104e-05 0.00091362449203 0.00021462650833 -1.497970722e-05 8.7862441293e-05 
0.00088351629858 3.0188171968e-05 0.00069327109916 2.2127573913e-07 -4.4274959211e-09 -2.3483593894e-07 3.4026492962e-07 9.3582358419e-09 -1.8856305607e-07 
2.1729516459e-07 4.7491572599e-09 -2.3127525593e-07 0.00084628202028 -6.598785712e-05 0.00033104237221 0.0018108132959 -0.00026194783778 0.0014284537197 
0.00072771897863 -7.0675347406e-05 0.00039946769124 0.0033425967051 -8.6015068149e-06 0.0016018697863 0.001733088392 2.0824344298e-05 0.00039780526895 
0.001617550343 1.1175407363e-05 0.00041030951605 0.0012263253587 -5.0171458827e-05 0.00042566300928 2.8130618192e-07 -6.6515412579e-09 -3.4528717991e-07 
0.0065193431399 3.1635922187e-05 0.0033970320345 0.0080046987936 -2.976597461e-06 -0.00014015998206 0.0078422267291 -1.7378205227e-06 0.0006923028581 
0.0072500641294 7.3323652198e-08 0.00037535931758 0.0070511126064 -4.9748422745e-07 0.001191286042 0.0072512285348 -4.1521080923e-07 0.00037588905245 
6.7797705822e-06 2.9546012589e-08 2.4801204815e-06 5.7832197323e-06 7.3736886942e-09 1.807397652e-06 5.8073097395e-06 -1.6095985045e-09 1.804803304e-06 
4.231030688e-06 2.7784372885e-09 7.6544070534e-07 5.102875239e-06 4.7101667552e-09 1.1390561108e-06 1.5165050461e-06 -4.1683910496e-08 -1.5849735454e-07 
1.309759083e-06 -6.1445892072e-08 -1.2129016389e-07 1.3065889401e-06 1.9524170416e-08 -1.7178116044e-07 7.905028982e-06 2.4420413313e-06 3.024403999e-06 
5.1962001963e-06 -6.1750726871e-06 1.0174652989e-05 1.994629079e-05 -7.5076407926e-06 1.19471043e-05 8.9241418763e-06 1.7268103353e-07 4.7614261424e-06 
7.9754159225e-06 2.0568384517e-08 3.9602789406e-06 8.0817623357e-06 8.6877995736e-08 3.8791619225e-06 6.8088993124e-06 2.4531339372e-08 2.5475879957e-06 
7.6482588822e-06 7.1083867322e-08 3.1050945308e-06 8.8206474071e-06 -1.1189112613e-07 5.6014018585e-06 9.5112099417e-06 1.4847150264e-07 5.2245264954e-06 
1.4677329504e-06 -1.3489226966e-08 -2.0970690538e-07 1.2400917984e-06 -3.7927538949e-08 -1.7293541927e-07 3.448617262e-06 -1.8377213246e-07 2.7106145276e-08 
3.4364650764e-06 -7.808471836e-09 9.5338014275e-09 0.0048421720964 -5.8796486441e-07 -0.0025336832643 0.0048377800758 -1.3563806695e-07 -0.0025334426458 
1.5299883948e-06 -1.4574538562e-07 -1.6941818597e-07 8.0196316772e-07 3.4940062632e-09 -1.9420949758e-07 2.0211794963e-06 9.1365032539e-09 -2.5120617539e-07 
1.5202151868e-06 6.7737443448e-09 -1.797989832e-07 8.0321728205e-07 1.0868816485e-09 -1.9630292616e-07 1.2647273653e-06 3.8096486105e-09 -3.1396259108e-07 
3.9352093661e-06 4.9353710861e-07 -1.6558487792e-06 -1.5520812022e-07 -2.7251056023e-07 -4.4826000682e-06 1.8901039332e-05 -8.7088809342e-07 1.0329226865e-05 
4.596115252e-06 5.1415527028e-10 1.2061465774e-06 4.5937826403e-06 -2.0399276435e-09 1.1901410246e-06 5.1847444727e-06 3.4555690767e-09 1.4706321399e-06 
0.0072502981364 -3.0422644888e-06 -0.00010004797942 2.5469404854e-06 1.1518262843e-06 -8.3113978358e-06 9.0900167963e-06 7.0977749749e-07 -7.8607023845e-06 
8.0587009606e-06 1.5564900546e-06 -5.131008585e-06 0.0054898226961 2.3712204413e-07 -0.0033117602565 0.0057781825348 -5.1983735069e-07 -0.003961832681 
0.0052299530821 -1.2484858606e-06 -0.0038147753312 0.0067707847014 5.2155706336e-06 -0.0028318791851 0.0063887646685 1.2554215789e-05 -0.0036693587147 
0.0059922957817 7.8112984618e-06 -0.0029741726337 1.7098351881e-06 -5.9530251571e-10 4.5343474061e-07 2.5706024203e-06 8.8492130028e-11 4.9508284606e-07 
1.7024092791e-06 9.6960292161e-10 4.5410155596e-07 8.8195967784e-07 1.4719987325e-09 -1.1991449749e-08 0.0052146417925 1.2902136318e-06 -0.0030055747279 
0.0054195284663 7.1334988869e-07 -0.0022727994289 3.1780340638e-06 2.1478318328e-08 6.0966002807e-09 3.442413197e-05 1.3817634869e-06 -9.950874199e-05 
-6.6424946606e-07 6.1108279277e-07 -1.2407491259e-05 0.0063795610741 -7.0716265159e-07 -0.0021813214939 0.0069953642762 -2.3233615162e-06 -0.0015967248664 
0.0058426806445 2.0363722348e-06 -0.0018460615413 0.0063925705349 1.9811642523e-06 -0.0011986096308 0.0063929821012 9.406030753e-07 -0.001187023288 
-5.871483315e-07 -1.6365251904e-08 -1.9981953963e-06 -1.0413489016e-06 -3.7729803024e-08 -9.3707262678e-07 3.6047588404e-06 7.8445782498e-07 -1.001419952e-05 
9.2633603594e-06 1.4439590903e-07 4.0119213088e-06 4.859397489e-07 -4.3385612619e-10 -4.5330771246e-07 0.0078913644659 1.1269038898e-05 0.0019834550098 
0.0052429047845 -2.2153421292e-06 -0.004321764146 0.004679438949 -1.1601782095e-07 -0.0044728277496 0.0046657086692 -1.5016062534e-06 -0.0039671230224 
6.1501275869e-06 2.5104069205e-08 1.6747869665e-06 3.7675943105e-07 8.1544896156e-10 -2.9430792803e-07 3.7629093465e-07 -8.8700871045e-11 -2.9299036731e-07 
5.6531866744e-07 1.409322837e-09 -3.1582116507e-07 7.0924331523e-07 2.0580439108e-09 -2.0642678825e-07 6.2362030867e-07 6.7608495174e-10 -2.1116845558e-07 
-1.0497658382e-06 -4.2369577359e-08 -1.2345979825e-06 -9.0092820723e-07 -1.2860983805e-07 -1.7854823745e-06 -1.0920549292e-06 -3.6927962745e-08 -4.9011998384e-06 
-1.3421657757e-06 5.8985257773e-09 -1.4414316304e-06 0.005261856177 1.7924814283e-06 1.5291150148e-05 0.0049466738943 -9.007559164e-07 -0.0035126869027 
6.2295558767e-07 2.4588306138e-09 -2.0862085505e-07 0.0039113022275 -1.9519711171e-05 -0.0031857299613 0.0051310764756 -3.2261969033e-06 -0.0038882360796 
0.0054010941447 -5.3123870748e-06 -0.0045230691797 0.0046474760828 -1.4511008197e-05 -0.004116151598 0.0043818624063 -2.9842184754e-07 -0.0036674520359 
0.0037496819918 3.4171542374e-08 -0.0036759477629 0.0041850799438 -2.7364025734e-10 -0.0046982595788 0.0042578686769 7.7525193129e-07 -0.0052498018756 
0.0035719202601 1.3707776349e-06 -0.004811264687 0.0035697267467 3.8665533391e-07 -0.0048111885092 0.0034788242227 1.2708261521e-07 -0.0042321321533 
0.0040836179638 2.6277945888e-05 0.0010157181698 0.00056234554244 1.0982722798e-05 -0.00015515504838 0.0010876332477 -8.054187158e-06 -0.00032017086904 
0.00053928850309 2.7078263223e-05 -0.00012256358214 0.0013662498227 3.3622919826e-05 -0.00071121153532 0.00061181118679 -6.0816897725e-07 -0.00042028234109 
1.3641277328e-05 -4.4105484033e-07 -6.0255377209e-06 0.0057458960606 7.8105755074e-07 -0.0044438212746 0.007536540406 -1.7134972455e-06 -0.00081060138988 
0.0080050182992 -1.5370396839e-05 0.0012653712823 0.0081322623627 1.2681281609e-05 0.00044726128151 2.5988168281e-06 -4.1986179812e-10 4.9410664842e-07 
2.4160744287e-06 -3.9150520282e-10 4.3422005028e-08 0.00037937029799 8.1780214431e-06 -9.4001105005e-05 0.00025449650432 -6.1952023297e-06 -0.000118362776 
0.0060699083434 3.4688516533e-06 -0.0034695361939 0.0067841383983 8.8344505253e-06 -0.0034132570467 0.0057735235855 2.9033398478e-06 -0.0027609798195 
0.0066195618176 -1.5104912619e-06 -0.0027767481469 0.0062647686758 2.3138220074e-06 -0.0040456994325 0.0073678242669 1.2777471305e-06 -0.0026811709671 
0.00024114667336 7.3901196585e-06 -0.0001285020031 5.4579594596e-06 1.0525275454e-08 7.7939492047e-07 7.1900987464e-06 4.3871584204e-08 2.2441774462e-06 
4.8556361421e-06 2.0366421045e-08 7.0693825965e-07 8.6366929252e-06 -8.0109653627e-08 2.5438252914e-06 1.0276041276e-05 2.4085882816e-06 1.3154609471e-05 
5.6569524393e-07 4.6444818753e-11 -3.106354418e-07 1.166313159e-06 7.0920836227e-11 -4.4048179209e-07 0.0063604632417 0.00018097586365 -0.0011561624147 
0.0037068172514 1.3295364471e-05 -0.00051427838531 0.0025452830267 4.8631417508e-05 -0.00040962908366 0.0046559598949 -3.9950968286e-05 -0.0013328987236 
0.0024063568276 4.0269019269e-05 -0.00030456723925 0.0058377427732 -3.6895040816e-07 -0.0018452737837 0.0073805889878 -1.1602274712e-06 0.0019944158368 
0.0024038341322 -1.8874397462e-05 0.00024413421948 1.0626285914e-05 -1.0300870033e-07 6.8259344918e-05 1.2103875739e-05 -2.8489229776e-05 7.7385405076e-05 
0.00013414339954 3.032755896e-06 0.0002608521586 0.0001340009809 -3.2743049248e-05 0.00023867491045 1.849621544e-05 5.099018634e-06 2.1756497314e-05 
0.0051575095041 2.0740006137e-05 -0.00288642561 6.604793152e-07 1.6792399662e-07 -8.2592622056e-06 0.0076706799712 -2.5761079477e-06 0.0015006087686 
0.0070481432606 -8.7144113395e-07 0.0011935789027 0.0040394094879 -2.2598904599e-05 -0.00032169938534 0.004327023606 2.452150433e-06 -0.00029162279798 
0.0042949434745 9.6747434142e-06 -0.00023807218308 0.0078462597 -4.6674885792e-06 -0.0013169999782 0.003775727661 -1.7804609603e-05 -0.00031886530218 
0.0011565314888 -2.7605994024e-05 -0.00030640476042 0.0024977406498 -4.9502836245e-05 -0.0011419474272 0.0041016801674 1.8420563614e-07 -0.0041208158787 
0.003481017858 3.7659796561e-07 -0.004231963964 0.0076764988842 4.0094567224e-06 -0.0015569438681 0.008062012072 -4.910677199e-06 -0.0007390978421 
0.0031612496336 2.848729957e-05 -3.6850983289e-05 0.0015389811888 -2.9381995191e-05 -0.0027617022828 0.00091571087166 2.1010332254e-05 -0.0015763943578 
0.00049744829122 -3.4638438137e-05 -0.0010582376727 0.0071562212232 2.8715571346e-05 0.00027428055203 0.0017398386789 1.5413641941e-05 -0.00041942728328 
0.0035646444872 -6.0151285834e-05 -0.0012341027305 4.2296827811e-05 4.0752694435e-07 -2.0224505316e-05 3.774647974e-05 -1.122397609e-06 -2.8631001657e-05 
5.9882126963e-05 -8.0610387136e-07 -3.142922065e-05 0.00023980336759 -8.2535849327e-07 -0.00018274035975 0.0072389187619 1.6365114287e-07 -0.0021907657992 
1.2728469344e-05 -2.0235105669e-07 5.2303167721e-06 6.5895376814e-06 -2.2947446069e-07 1.0102479174e-06 2.7526840139e-05 -1.213502334e-07 -4.7390257636e-05 
2.0008205737e-06 -6.4842681669e-09 -3.4281473238e-07 3.1477906292e-06 -9.8718117831e-10 -1.3078550809e-08 2.8511073997e-06 2.1225624501e-09 -1.7255772067e-08 
8.4778332286e-06 8.0871772748e-08 4.6391099182e-06 9.044873976e-06 1.0575156116e-07 5.0691557368e-06 1.8165528217e-06 -6.765424015e-10 -3.3822162821e-07 
4.4949328165e-06 -4.8337056777e-09 6.1825746932e-07 3.2261434797e-06 6.1825871434e-09 8.9276447426e-09 0.0052446127772 2.5373765126e-07 -0.0048000068084 
-4.5526124446e-06 -9.864468943e-07 -1.0756288337e-05 0.0016925806736 -3.1345567804e-06 0.00024764310847 0.0037903150052 7.5996198042e-05 0.00122965694 
0.0067341415224 3.1006231675e-08 -0.00081613600713 0.0002753999117 3.7122523526e-06 -0.00025703231326 9.1875038439e-05 7.3142223914e-06 -6.695268422e-05 
0.0017487335747 7.583469768e-06 0.0018198243565 0.00081916582542 -2.1477760609e-05 0.0013329224383 0.00083496638446 0.0001027072519 0.0015616396105 
0.0058597589931 1.4073095471e-06 -0.0042987007279 0.0054300233518 -4.1067362849e-07 -0.0047515701744 -1.1226113212e-06 -2.0599192535e-07 -1.9107827125e-06 
-1.0618161931e-06 -6.5194283178e-07 -9.5696843809e-06 0.0019377750089 2.6962276224e-05 0.0018411096079 0.0021327953809 1.8852132629e-05 -0.00030316358949 
0.0017396974624 5.3432614469e-06 -0.0003044553095 0.0054240168164 -2.7175783699e-07 -0.0022717383221 4.8288427501e-06 1.0826983242e-07 -1.4218703686e-07 
1.6800496875e-05 -2.7986101245e-07 6.0050828352e-06 0.0078175505427 -1.6089731626e-05 -0.00011950042689 6.5089303081e-07 7.4781706358e-10 -3.0619027514e-07 
7.3946088886e-07 -1.6600193747e-10 -3.0022491876e-07 0.0043477908198 -0.00013698901126 -0.0020669641608 2.2101270748e-06 1.4683586155e-09 -2.7637472853e-07 
3.5838923498e-06 4.6164827538e-10 7.1121811561e-07 3.2734729445e-06 -5.9364916011e-10 3.4056790282e-07 3.7437313332e-06 -7.6925652158e-09 3.2645731113e-07 
1.254038856e-06 -1.1114042233e-09 -3.9492293504e-07 0.00012977839622 2.9605478869e-05 -0.0003763993421 0.00016752767555 -8.9572449904e-06 -0.00028576419845 
0.0036414236806 7.2654496005e-05 0.0028534144458 0.0035398512431 -0.00024265595449 0.0029940576926 0.00051509612823 1.2858094061e-05 -0.0010189607941 
0.0035677195139 3.4280835171e-06 -0.0051395811736 0.003563580804 2.8360462018e-07 -0.0054544564779 0.0035667493734 1.1898353025e-06 -0.0054603295376 
-5.5777873491e-07 -2.5171842732e-08 -1.3657644667e-06 -4.8336723504e-07 -1.0822518955e-07 -9.2153348473e-07 -6.7738287759e-07 3.8252951459e-08 -8.2567011363e-07 
0.00033609614542 2.8150305146e-06 -0.0005516191027 0.0051586574826 -5.2648316295e-05 0.0031681303122 0.00026679161558 0.00011458289911 0.00049910572832 
7.3820447765e-07 1.6322767018e-10 -3.033810006e-07 0.0013466382655 -3.617514468e-05 -0.0028065956659 8.5002176717e-06 -3.0118929327e-07 3.1479859798e-06 
9.2434832015e-06 -3.3091191358e-07 2.575619767e-06 0.0030406252859 -5.2325125181e-06 -0.0057105908816 0.0032650657964 -2.9707944076e-06 -0.0060916306514 
0.0030128146417 -2.5305584383e-06 -0.0057278994829 0.0033339172537 -8.0526339089e-07 -0.0055955546613 0.0024171368196 -1.2530096798e-05 -0.0043986828039 
3.5569947631e-06 -2.7137274859e-10 7.0634264495e-07 -9.3360531198e-07 5.3503930806e-08 -9.7756136429e-07 -9.3033422307e-07 1.0623375299e-07 -9.0806241071e-07 
-9.7663450793e-07 -8.6661593092e-08 -9.5392522106e-07 3.0773301074e-06 1.1773109118e-09 5.8292297429e-07 0.00021004977627 2.9670192861e-05 -0.00034271034505 
0.0020093981411 2.5051785159e-05 -0.0031634116971 0.002571234897 9.0048905475e-06 -0.0048665616222 0.0019944032855 1.3909311111e-05 -0.0032233504615 
0.00033869637623 7.1303665526e-06 -0.00085638129242 0.0036648624818 2.4982824558e-05 -0.0042031569112 0.0027285315895 -2.5560059248e-05 -0.0035552862469 
0.0037233411983 -2.1738750527e-05 -0.0049108570283 2.7762333272e-07 6.4068029873e-09 -3.4549611932e-07 3.430999591e-07 -8.1490097401e-09 -1.8985182883e-07 
0.0058084128507 1.7005565763e-05 -0.0037376565588 0.0055583675898 -6.448322884e-05 -0.0021619757287 2.1166625618e-05 -1.058907307e-05 -0.0001321008329 
3.1617584107e-05 -2.500906879e-07 -3.1177975379e-05 1.1413669839e-05 2.3947051423e-06 -1.3425212292e-06 1.2094812477e-05 -1.5296016553e-06 -7.5545083225e-06 
0.0016472838939 2.2980879393e-05 0.00024903980574 0.0042305321171 2.2188137383e-05 -0.0029505840908 0.0034401586696 -6.2554111678e-06 -0.0032538649075 
0.00068022442199 9.8859498453e-09 -0.00081753354011 0.0023839634181 2.3198329207e-05 -0.0026826087557 0.0014083366942 -2.6879887547e-06 -0.0019240936768 
0.0021889013636 4.3005535207e-05 -0.0013564142386 0.0032540008843 -2.8728150137e-06 -0.006086142372 0.0037717092955 -5.8639295787e-06 -0.0058988255951 
3.3745522741e-05 1.7840007057e-06 -7.5888902067e-05 2.5052492301e-05 1.1677406475e-06 -3.7959827181e-05 7.8020146266e-06 -4.5091717536e-06 -1.6976267188e-05 
3.8019359419e-06 1.7795262572e-06 -3.7805143511e-06 2.0006904598e-06 -1.1034371661e-06 -3.2243323512e-06 0.0051087017672 -3.5281944524e-06 -0.0048369211151 
0.0020340174535 2.8421163041e-05 0.00025533740441 0.0012843343983 5.5936035076e-06 -0.0013441719365 0.00054323424992 -1.5465400548e-05 -0.00057041278167 
0.0021171537901 -6.4667607793e-06 -0.0018718060865 0.0047547014786 4.7859427626e-07 -0.005026404434 3.3398222908e-06 1.6784727192e-07 9.6490425204e-07 
3.2204860414e-07 1.1202328885e-09 -2.8463456364e-07 0.003563481297 -1.9387146671e-05 -0.0019557922554 0.0020469212752 3.5461873575e-05 -0.003294855132 
2.682384161e-07 2.7370772051e-09 -2.7721411156e-07 2.6532165873e-07 -2.5931133996e-09 -2.7789311889e-07 2.5296325941e-07 -9.9152300759e-09 -3.14956381e-07 
2.5021174055e-07 9.6384691054e-09 -3.1524941794e-07 3.5702117672e-07 1.0214143086e-08 3.6591361438e-08 3.5561331937e-07 -9.3911740275e-09 3.6119190446e-08 
0.0025512427883 -3.5171634562e-06 -0.0047869506794 0.0037502461059 -3.7915501701e-07 -0.0036758492299 1.2595542698e-06 -3.4916616491e-10 4.1944290406e-07 
0.0072646352844 -5.3292022939e-05 -0.00079032299789 0.0030368205712 -9.9360021473e-06 -4.4697512199e-05 0.0029858073863 -2.2848493517e-05 -5.9940330978e-05 
0.0061864597839 6.4361470143e-06 -0.00022275132675 5.5146763838e-06 -2.2761470699e-07 7.2023445555e-07 8.3219892882e-07 -2.9675114055e-09 3.8391393218e-07 
8.1952306375e-07 3.3514601697e-10 3.7710429507e-07 0.0033799813941 1.3385828347e-06 -0.0058909518651 0.0040447599671 7.1706297307e-06 -0.005663708449 
0.0043608102084 1.5808473121e-06 -0.0044849951619 0.0047902933759 -2.332902254e-06 -0.0051718412182 0.0043019510329 4.9960335786e-06 -0.0051845889015 
1.9435249017e-07 -4.7276684333e-08 -2.1116696239e-06 0.0073792847831 1.4610663261e-06 0.001992247046 0.00016240136797 -1.110018912e-07 -0.00018615581132 
0.0010166341603 1.5269965517e-05 -0.00083728780101 0.0050933889406 -3.639115148e-07 -0.0050431972183 9.1596164646e-05 -1.9776160551e-06 -0.00014060694449 
8.3970989945e-05 3.5534403342e-05 -0.00032318928974 9.7581761989e-05 -1.7249662337e-05 -0.00020397010681 6.6826565056e-05 -3.1007104356e-06 -0.00011397272388 
0.0030418952658 9.8675245245e-06 -0.0047493835576 0.00039728898459 -1.0165791149e-07 -0.00027993055073 2.2574810016e-05 3.5475890922e-06 -1.7868507214e-06 
2.6642784365e-06 -3.73067979e-08 6.0799299639e-07 2.8110072549e-06 1.1994714308e-07 1.0630462741e-06 0.003128221153 3.0075703587e-07 -0.0037889455642 
0.0046377198794 -1.9272719107e-06 -0.0053528548837 0.0065426202325 1.886258854e-05 -0.0021017225399 0.0038773279694 -8.4346033496e-06 -0.0056026787503 
0.0042975175733 -6.6803896132e-06 -0.0055838753905 2.1007409344e-06 -1.1605453851e-07 -1.8965730626e-08 0.0076012375792 -1.7905437494e-05 -0.0020989834847 
0.0024018908784 -1.4963127427e-05 -0.0017603120594 0.0030833233939 1.4967320699e-05 -6.7409291286e-05 0.00093719161925 -6.4990034971e-06 -0.00057082053057 
8.7650246957e-05 -4.691417215e-05 -0.00028160937134 0.0031178052547 2.8222170483e-06 -3.5211952543e-06 0.0033195263833 -2.3051531879e-06 -0.0060870580636 
0.0033730644246 9.193570995e-07 -0.0058942715105 0.0028052332178 1.7248248102e-05 -0.0053681267431 0.00080848058903 -1.8312414755e-05 -0.0012533935205 
0.00030827376253 -1.9184448693e-05 -0.00044838318316 0.00086871338492 -2.4311132014e-05 -0.0013433460771 1.4415936912e-07 -3.4684085596e-10 -1.6898455332e-07 
2.6413014257e-07 -1.0214490793e-09 2.371094407e-07 0.0015246107145 5.2229949623e-05 -0.0023107391588 -5.589984128e-07 2.7404105141e-08 -3.9692169403e-07 
0.0067309259388 -3.4711028873e-07 0.0016931310878 
Displacement%20Magnitude 1 1420 double
0 0 0 0 0 0 1.1963003277e-05 1.1907304326e-05 0.0016091579136 
0.0016649828024 0.0080602516318 0.0081512841799 0.0066599400621 0.006659286209 0.0064170025286 0.0064109955381 0.0046508988081 0.0046507117501 
0 0 0 0 0 0 0 0 0 
0 0 0 0 0 0 0 0 0 
0 0 0 0 0 0 0 0 0 
0 0 0 0 0 0 0 0 0 
0 0 0 0 0 0 0 0 0 
0 0 0 0 0 0 0 0 0 
0 0 0 0 0 0 0 0 0 
0 0 0 0 0 0 0 0 0 
0 0 0 0 0 1.1676290183e-05 9.6848426027e-06 6.6104403126e-06 3.9084379107e-06 
1.8642539008e-06 1.0757073342e-05 8.1519470032e-06 5.1735489833e-06 2.8094521562e-06 1.1037463657e-06 9.6145240053e-06 6.6631120344e-06 3.9106356113e-06 
1.8813557964e-06 1.0707092108e-05 8.1628246705e-06 5.1782893588e-06 2.812246811e-06 1.1027986898e-06 0.0017446250208 2.0617015111e-05 0.00096815145007 
1.5603273987e-05 2.97991578e-05 0.00094494312149 1.5158550241e-05 0.0081209233283 0.0047856799394 0.0049072361538 0.0066587578872 0.0078673154929 
0.0072565379937 0.0089185751001 0.0078794241599 0.0072563838027 0.0088358422933 0.0064155250057 0.0064700032395 0.0064687048596 0.0046503144778 
0.0047552328879 0.005060929452 0.005671593713 0.0046716084632 0.0048862894923 0.0053277231495 0.0060336423358 0.0047540441346 0.0050612560757 
0.0056687472663 0.0046714674412 0.0048860335764 0.005323060092 0.0060265374003 0 0.0045094368212 0.0066222682629 0.0067659795404 
0.0057656900134 0.0028744695588 0.0058727106463 0.0068919679968 0.0063709140703 0.0052016689527 0.0044608334357 0.0066359190709 0.0067713738505 
0.0057599119425 0.0029722649062 0.0058610371384 0.0068913346263 0.0063718842293 0.0052006270729 0 0 0 
0 0 0 0 0 0 0 0 0 
0 0 0 0 0 0 0 0 0 
0 0 0 0 0 0 0 0 0 
0 0 0 0 0 0 0 0 0 
0 0 0 0 0 0 0 0 0 
0 0 0 0 0 0 0 0 0 
0 0 0 0 0 0 0 0 0 
0 0 0 0 0 0 0 0 0 
0 0 0 0 0 0 0 0 0 
0 0 0 0 0 0 0 0 0 
0 0 0 0 0 0 0 0 0 
0 0 0 0 0 0 0 0 0 
0 0 0 0 0 0 0 0 0 
0 0 0 0 0 0 0 0 0 
0 1.1138237286e-06 1.1085919815e-05 8.2128816961e-06 5.1704106768e-06 2.8094961221e-06 6.2823959312e-07 6.2480754661e-07 1.4730992728e-06 
1.4885219109e-06 1.1119540082e-05 1.0982123182e-05 1.0349229661e-05 1.0272297264e-05 7.4214210358e-06 8.9091864894e-06 9.6407694502e-06 8.9568572761e-06 
4.52121911e-06 5.8843806949e-06 7.379198127e-06 6.6169086587e-06 5.8744139668e-06 2.3303609905e-06 3.3407625462e-06 4.5191035453e-06 3.9089326179e-06 
3.3381830552e-06 1.8841124957e-06 2.3232174631e-06 1.4453290167e-05 0.00033004560848 1.2573517649e-05 1.1862592145e-05 1.6139097781e-05 1.988217695e-05 
0.00067712711288 0.00064600395231 0.00010341136019 0.00014693278229 5.035051787e-05 0.0047062350954 0.0030706307854 0.0033054849294 0.006802342944 
0.0069393239567 0.0074907150869 0.0088104494429 0.0083589497163 0.0086143098478 0.0082700734842 0.0083338317176 0.0070711333624 0.0070713164363 
0.0076803208959 0.0076786277072 0.0080248293644 0.0064601385579 0.00654546548 0.0065449713703 0.0064211628189 0.0064168407154 0.0059276420288 
0.0048850077981 0.0053240589083 0.0046898955697 0.00619589424 0.0061826534059 0.005811811879 0.0058029710086 0.0046573004098 0.0046573734803 
0.0047186245956 0.0047181997367 0.00481633719 0.0049681216313 0.0047705971785 0.0051840754465 0.0054869661414 0.0050657432331 0.0056103173604 
0.0049679889223 0.0048159703698 0.0054826461512 0.0051818415973 0.0051973565599 0.0023538581671 0.0059487588886 0.0068626261647 0.0063480495236 
0.0049219069676 0.0049211409001 0.0054840128669 0.0054831590248 0.0010204554215 0.00099573680362 0.0038217819281 0.0038037274828 0.0052750819307 
0.006327222073 0.0044913587269 0.0051994645067 0.0068071724981 0.0068829476255 0.0063487939425 0.0066325438573 0.0068167312009 0.0065925406722 
0.0060667064087 0.006869484935 0.0067661280824 0.0065929911826 0.0057759643151 0.0060657860076 0 0 0 
0 0 0 0 0 0 0 0 0 
0 0 0 0 0 0 0 0 0 
0 0 0 0 0 0 0 0 0.0070362627708 
0.0078752629798 0.00026169642161 0.0061592786841 0.007840278847 9.1452496251e-06 0.0064700563252 1.2787860509e-06 0.0013080912353 3.182995797e-06 
0.001132916746 0.0067595348806 0.0027028712649 0.0080614658257 1.0594291057e-05 0.0064003815065 0.00094491738388 0.0041973436818 8.4280104553e-05 
1.1889798342e-05 0.0058139840963 3.1654789729e-06 2.7034436608e-05 0.0047335972861 0.0071763821955 0.0074785943363 0.0046577849081 0.0078245229339 
0.0050563290297 0.0023743763287 1.1770510769e-05 6.36191726e-06 0.0080138036624 0.007021680798 0.0008775752514 1.2566440665e-06 2.4358948617e-06 
0.00074447069718 0.0070505946986 0.0051474603769 0.0056625916148 8.8533579248e-07 6.6931306583e-07 0.0061969759514 0.0037732981186 0.0042304506472 
6.0435374006e-05 0.0071167020962 0.0079712076818 3.9666258432e-06 9.3783625661e-06 1.7834268086e-05 2.3278418778e-06 9.9883686033e-06 2.0915524718e-06 
5.9541036304e-07 0.00012202784037 4.3019514182e-06 1.2941581006e-06 4.8853421715e-05 0.0066706241374 1.0506197783e-06 1.5021864035e-06 1.3651576987e-06 
3.4775547168e-07 4.3825189382e-07 4.3320513957e-07 3.5416569751e-07 4.3769419315e-07 1.3273123778e-06 1.0732624603e-05 9.4640296942e-06 9.644412656e-06 
1.0463862587e-05 1.0723780184e-05 0.0014792783494 0.0040081357876 9.6866445237e-06 0.00037154836134 0.0006130381455 0.00050110239363 3.6795074081e-05 
0.0079626923243 0.008229734748 0.0023250448539 0.0060038599148 0.0064091845587 0.0072405979997 0.0070830607031 0.0078256345192 0.0067836293215 
0.0063852102542 0.0072480515417 0.0075743116142 0.0078840647083 0.0052224816688 0.0057434500077 0.0052772905524 0.0027229282456 0.00054474032171 
0.00020722429123 3.3296532714e-07 2.6953048784e-07 6.953895747e-07 6.6564103258e-07 1.45438758e-05 1.4509104139e-06 1.0614037991e-06 2.0399834947e-06 
8.4658820372e-06 2.0726062175e-05 5.1582601577e-06 5.3521024325e-06 4.1411328812e-05 0.00016747585534 0.00041138022651 0.00033557019638 0.00094922609522 
0.0015001763507 0.0016503476938 0.002032769025 0.0027412921821 0.0036222110961 0.002912242452 0.0030552266389 0.0063080942193 0.00406391919 
0.0073287620174 0.0021053320101 0.0018481948373 0.0052720103792 0.0020561244208 0.0013435827657 0.0043265885152 0.00061855182498 0.00018928807392 
0.0013518957016 0.0040633616612 7.9058839133e-06 4.8797672109e-06 1.3914180692e-05 2.0968100747e-05 2.0010399299e-06 1.5531174901e-06 6.8362745119e-06 
1.6899258989e-06 1.3032049152e-06 3.5416836379e-06 7.3249401775e-07 5.895577139e-07 2.0229221156e-06 7.1786391778e-07 5.843584519e-07 1.3181574366e-06 
9.2412948573e-07 6.4363910233e-06 7.9808217924e-06 8.0929747924e-06 4.1555426372e-06 5.3851875944e-06 5.2532473198e-06 2.1775493274e-06 3.1378831446e-06 
3.292271191e-06 1.6574281198e-06 0.0081464346551 0.0060561864782 0.0046441780431 0.0031218935059 0.0069333905564 0.0068230272876 0.0065111564689 
0.0065962785275 0.0062922907025 0.0062566029977 0.0069551731138 0.0053635967458 0.0052043457336 0.0057140696776 0.0060180263276 0.0057562322665 
0.0060208568189 0.0067430311162 3.1669969833e-07 2.0880315394e-06 5.1433186763e-06 1.7484236241e-05 6.8801952409e-06 2.6169560438e-05 2.5818116563e-05 
1.9573793508e-05 0.00011052664578 0.00039577974815 0.0062488036688 0.0070347047492 0.0061891545114 0.0064279975847 0.005023826588 0.0068962477575 
0.007270945242 0.0072155999472 0.007276888497 0.0071701874675 0.0075788100139 0.0078328881309 0.0079525177418 0.0067954180336 0.0071897972383 
0.0076118729465 0.0069941615913 0.007330842793 0.0073689722837 0.0058208687753 0.00039827241629 0.00012239506725 0.00077196564341 0.0018727586464 
0.0028256416552 9.7812793886e-06 5.4888086422e-05 7.7413208378e-06 4.6913858378e-05 0.00064075666581 0.0010660633313 0.00017857290778 0.0036000270377 
0.0044948501108 0.0055268762912 0.0067153595288 0.0038614781092 0.0056375771018 0.0068231561438 0.0070564181788 0.0063975880482 0.0064391247354 
0.0079201106329 0.0063889558415 0.0081549473198 0.0080927754336 0.007193486175 0.0078517213367 7.1093905007e-06 1.0453445972e-05 1.4465162375e-05 
1.3608701144e-05 7.4901377411e-06 4.9389406324e-06 5.5307288223e-06 1.1455544442e-05 1.0082911619e-05 0.0070122794149 0.0064094748449 0.006065053308 
0.0061233610328 0.0067967489845 0.006472842912 1.8653268532e-06 1.7807734802e-06 1.3424998767e-06 9.2826362303e-07 1.1329179598e-06 9.2272004724e-07 
0.00050728750698 0.0029644480695 0.0026454697571 0.0010964738124 4.5788731985e-06 3.2409297662e-06 2.2492890634e-06 3.7808587895e-06 2.8597509566e-06 
2.0481458158e-06 0.00179403179 0.00031769589588 0.00041954625512 0.0031682527193 0.0010740980983 0.0069193447965 0.0070885914131 0.0046982175384 
0.00405532434 0.0059021598764 0.0081195180175 4.2258906007e-06 4.4278753537e-06 0.0070603527415 0.0078589200667 0.0002322630886 0.0062352602746 
0.0078644850214 9.2078631409e-06 0.0064767370979 1.2762808203e-06 0.0013376441373 3.1397108826e-06 0.0012009438959 0.0067575169888 0.0026346147715 
0.0079383604828 1.1577631999e-05 0.0064068714562 0.0010193086096 0.0041880019592 7.5480120044e-05 7.7799062768e-06 0.0058126859008 3.1882807381e-06 
3.6564655495e-05 0.0047264099208 0.0071730088707 0.0074602103039 0.0049914654105 0.0078318423185 0.0050295457272 0.0023911564019 1.2194451323e-05 
6.4040971683e-06 0.0080216940387 0.007005612319 0.00094412651295 2.4015631739e-06 1.2397818804e-06 0.00076995184863 0.0070672998968 0.0052279744074 
0.0056605753957 6.6643868293e-07 8.8372606209e-07 0.0062358964317 0.003552323146 0.0041949547648 6.0953432526e-05 0.0071086785164 0.0080407572122 
3.6096738486e-06 8.1819821858e-06 2.4757194867e-05 2.1029273076e-06 1.053209489e-05 4.8137878826e-06 5.920012068e-07 9.8273117137e-05 4.2931255233e-06 
1.3032333347e-06 3.592271872e-05 0.0067222629065 1.40554146e-06 9.3246821686e-07 1.5293195827e-06 4.3677220299e-07 3.4646539463e-07 4.320068413e-07 
4.3320036273e-07 3.5416118601e-07 1.3190678166e-06 7.9406208313e-06 9.5690496964e-06 9.9012748843e-06 9.8794986029e-06 1.1299816433e-05 0.0040470320799 
0.001592981126 0.00032460727618 3.6737765015e-05 0.00065421639657 0.00062069317619 3.0502210554e-05 0.0082507535223 0.0080854338168 0.005979797125 
0.0022975075199 0.006378896326 0.0070884487689 0.007240833001 0.0078292797087 0.0063764739763 0.0067759448254 0.00759157469 0.0072602557777 
0.0078887282579 0.0057440643456 0.005222726368 0.005276559404 0.00058920128451 0.0027528334601 0.0002415274247 2.7008930275e-07 3.3201892444e-07 
6.9330044729e-07 6.6587077024e-07 1.7635653177e-05 8.1417788515e-06 6.4623515771e-06 8.4368505955e-06 5.3998672338e-06 4.1479470375e-06 5.228340584e-06 
3.1081226531e-06 2.1520952858e-06 3.2703236549e-06 1.6397012307e-06 2.0786885832e-06 2.1279160785e-06 1.4484076346e-06 3.5423314727e-06 6.5567617763e-06 
8.7361666956e-06 1.1034715317e-05 4.0495746633e-05 0.00040769208909 0.00014404783403 0.00031404362512 0.0015814864849 0.00092427634104 0.0015366457782 
0.0028799354784 0.0022229003828 0.0037933909058 0.0031109243484 0.0029241112944 0.0040832613122 0.0063358122684 0.0072633332572 0.0018436303626 
0.0021258857139 0.0052637823867 0.0012867873965 0.0020420033726 0.004313403132 0.00020709719966 0.00052482005699 0.0011867920257 0.0039347312275 
2.5748287527e-06 6.2208045395e-06 1.2177591388e-05 2.0617269478e-05 1.459256051e-06 1.5126346512e-06 5.0089478953e-06 1.3392471398e-06 1.7413411455e-06 
3.4964961443e-06 5.9235540231e-07 7.3713632278e-07 2.0677640501e-06 5.8396485403e-07 7.1917099889e-07 1.3099812382e-06 9.1454007005e-07 0.0081956285266 
0.0045739953067 0.0060363066694 0.0030816568815 0.0068263838569 0.0069290125648 0.0065245858285 0.0066005712931 0.0062626435429 0.0062905854966 
0.0069481444065 0.0052028563105 0.0053624731817 0.0057127058711 0.0057518734197 0.0060170266867 0.006019765041 0.0067410742462 2.3670313182e-06 
1.285295827e-06 4.7948741965e-06 7.7793262929e-06 2.2285930228e-05 2.2996296036e-05 2.0119231181e-05 2.4094290115e-05 9.5474675834e-05 0.0004231887604 
0.0062143351195 0.0070508522693 0.0062612573356 0.0050694399443 0.00648072418 0.0072831457004 0.006949030884 0.0072591527362 0.0072232284902 
0.007178336217 0.0078864368392 0.0077934424548 0.0075491179937 0.0069034572886 0.007187582585 0.0069980904315 0.0076052477678 0.0073803257444 
0.0073845208719 0.0059536291848 0.00076916416707 0.00011491697687 0.00038676183604 0.0028211222468 0.0018538242731 6.0605429088e-05 1.5073004927e-05 
5.0909434042e-05 8.6406548678e-06 0.00015937506474 0.0010663984383 0.00062758455831 0.0036116110984 0.0055852744296 0.0044760769111 0.0067675197034 
0.0056608331375 0.0038579976625 0.0068331614039 0.0070440771672 0.006468516282 0.0063955985219 0.0063357787252 0.0079553675944 0.0081236615965 
0.0081363549285 0.0078297440496 0.0071941106322 8.8751065933e-06 6.8166108976e-06 1.327339161e-05 1.6639055793e-05 5.5498742842e-06 4.912876486e-06 
7.6223046406e-06 1.1443224695e-05 1.0224559113e-05 0.0064159064697 0.0070044106913 0.0060688162529 0.0061263411165 0.0064748050195 0.0067935593055 
1.7655233314e-06 1.8368942175e-06 1.3283086606e-06 1.1263733686e-06 9.2747045575e-07 9.210428934e-07 0.00049062609881 0.0029980760944 0.0011384946419 
0.0025720135554 3.2373481243e-06 4.5358284334e-06 2.2279038237e-06 3.7517997485e-06 2.8343996411e-06 2.0282602523e-06 0.00032630872012 0.0018175189917 
0.00041210620418 0.003194515337 0.0011539766785 0.0069150943206 0.0070840535868 0.0047834745416 0.0040161254914 0.0059575434659 0.0080808602973 
5.9846929451e-06 3.3439976907e-06 9.2155832589e-07 5.8821200871e-07 6.5991425998e-07 6.908306672e-07 3.7046857894e-06 2.0079140692e-06 2.301309853e-06 
7.5026724433e-06 4.5172135012e-06 0.0081068619242 0.0083947890261 0.0081248279321 0.0084561419923 0.0079980640512 1.4905913647e-05 1.2097826952e-05 
1.1480924689e-05 1.3712590107e-05 9.2354634669e-07 1.274669086e-06 1.130023257e-06 0.0052770482101 0.0052779601952 0.0056627002196 0.0051574064997 
0.005158117446 1.7627993664e-06 1.6390169221e-06 1.0601698585e-05 1.3263580998e-05 1.0929607855e-05 1.0595461258e-05 1.0583512025e-05 1.0927335185e-05 
0.0073007248312 0.0064341238312 0.0063590186015 0.0064128882768 0.0042947384402 0.0041502990017 9.1502867501e-07 1.3276121875e-06 0.0063434321361 
0.007893112224 0.0021336063882 0.0021337582214 0.0023826612598 8.2095587935e-06 0.000120109172 1.016979449e-05 8.9156420844e-06 6.2000576511e-06 
1.967666423e-05 7.6904608442e-06 3.2223229222e-05 1.5729127127e-06 1.436568771e-06 0.0002152867963 6.3184735083e-05 5.5454722448e-05 4.6046625235e-05 
0.00067077363619 0.0078228975627 0.00023239780183 0.0011234487939 3.2269253736e-07 3.8913214339e-07 3.1737672734e-07 0.00091111838272 0.0023212370606 
0.00083315325897 0.0037066175324 0.0017782795224 0.0016688163173 0.0012990689197 4.4542187598e-07 0.0073513714673 0.0080059263334 0.0078727254708 
0.0072597744114 0.0071510385029 0.0072609646753 7.2192215451e-06 6.0590734536e-06 6.0812962407e-06 4.2997125341e-06 5.2284612186e-06 1.525334886e-06 
1.3167975383e-06 1.3179774728e-06 8.809090113e-06 1.2986746422e-05 2.4432611152e-05 1.0116387986e-05 8.9045769963e-06 8.9649499418e-06 7.26993234e-06 
8.2548488109e-06 1.0449499657e-05 1.0852687936e-05 1.4826998884e-06 1.2526662868e-06 3.4536166492e-06 3.4364871726e-06 0.0054649960513 0.0054609932906 
1.5462240224e-06 8.2515117367e-07 2.0367509849e-06 1.5308258464e-06 8.2685792148e-07 1.3031202287e-06 4.2978234971e-06 4.4935570473e-06 2.1556916791e-05 
4.7517433895e-06 4.7454482155e-06 5.3892806643e-06 0.0072509890304 8.7688621616e-06 1.2038389902e-05 9.6794923194e-06 0.0064113890294 0.007005962594 
0.0064734010865 0.0073391479338 0.0073675413114 0.0066897961559 1.7689374746e-06 2.6178433558e-06 1.7619326085e-06 8.8204242244e-07 0.0060188013869 
0.0058768109167 3.1781124897e-06 0.0001053039404 1.2440276881e-05 0.0067421779462 0.0071752809739 0.006127386431 0.0065039700964 0.0065022492506 
2.0827375799e-06 1.4014050737e-06 1.0672106278e-05 1.0095851025e-05 6.6454910275e-07 0.0081368208718 0.0067945346287 0.0064732786877 0.0061242880987 
6.3741360931e-06 4.7808523334e-07 4.769048445e-07 6.4755709421e-07 7.3867606882e-07 6.5840326785e-07 1.6211217334e-06 2.0040357868e-06 5.0215244198e-06 
1.9695605873e-06 0.0052618787006 0.00606700525 6.5696451291e-07 0.0050445556316 0.0064378828831 0.0070448563496 0.0062082162082 0.0057140985879 
0.0052509720049 0.0062919422443 0.0067594279347 0.0059922353185 0.0059908667208 0.0054784268318 0.0042081242383 0.00058346055423 0.0011338078924 
0.00055370312765 0.0015406462691 0.00074226042895 1.4919319064e-05 0.0072638054537 0.0075800078391 0.0081044258712 0.0081445622722 2.6453715168e-06 
2.4164646219e-06 0.00039092826807 0.00028074293933 0.0069915292126 0.0075944015908 0.0063997337902 0.0071783654971 0.0074575475736 0.0078405046914 
0.0002733479408 5.5133373456e-06 7.5323155211e-06 4.9068705748e-06 9.003884126e-06 1.6865410524e-05 6.4537236451e-07 1.2467199361e-06 0.0064672216941 
0.0037423459433 0.002578493104 0.004843157816 0.0024258886988 0.0061224403761 0.0076453116145 0.0024162732245 6.9081594739e-05 8.3346511264e-05 
0.00029333853803 0.00027567024328 2.9007846387e-05 0.0059103119406 8.2873303044e-06 0.0078160837082 0.0071484931824 0.0040522623577 0.0043368402272 
0.0043015475604 0.0079560230019 0.0037892098721 0.0011967502048 0.0027468532562 0.0058141984603 0.0054796901794 0.0078327980571 0.0080958216621 
0.0031615927579 0.0031616966805 0.0018231804644 0.0011698382776 0.0071615331181 0.0017897473159 0.0037727069919 4.6885161154e-05 4.73897749e-05 
6.7633681282e-05 0.00030149689121 0.0075631606921 1.376267021e-05 6.6704772121e-06 5.4804910115e-05 2.0299869346e-06 3.1478179535e-06 2.8511604079e-06 
9.6644470783e-06 1.0369053405e-05 1.84777122e-06 4.5372554136e-06 3.2261617565e-06 0.0071095730257 1.1721650751e-05 0.0017106040662 0.0039855136997 
0.0067834165453 0.00037672868518 0.00011391743704 0.0025238635686 0.0015646648747 0.0017738195838 0.0072674345808 0.007215439896 2.2257087469e-06 
9.650458136e-06 0.0026730850226 0.0021543165278 0.0017661451941 0.005880540239 4.8321487783e-06 1.7843655379e-05 0.0078184803971 7.1931549502e-07 
7.9808360186e-07 0.0048160556313 2.2273407538e-06 3.6537810274e-06 3.2911414384e-06 3.7579459611e-06 1.3147542782e-06 0.0003992435112 0.00033137128939 
0.0046267936087 0.004642608125 0.0011418276805 0.0062565109223 0.0065153820837 0.0065220319815 1.4754874847e-06 1.0462220314e-06 1.0686636457e-06 
0.00064595060015 0.0060540538933 0.00057741972165 7.9811396992e-07 0.0031131531429 9.0694118434e-06 9.6013176999e-06 0.0064696427819 0.0069114851857 
0.0064719310067 0.0065134658109 0.0050190753947 3.6264489174e-06 1.3528147582e-06 1.3043713883e-06 1.3679541371e-06 3.1320538261e-06 0.00040305286187 
0.0037477302526 0.0055040668607 0.0037904915423 0.00092095330794 0.0055765911785 0.0044816959122 0.0061628125888 4.4326440243e-07 3.9220875208e-07 
0.0069070996507 0.0059643731776 0.00013420426432 4.4404958269e-05 1.1739200789e-05 1.4342062825e-05 0.0016661612085 0.0051578911179 0.0047352262499 
0.0010635160335 0.0035889008732 0.0023844403844 0.0025754607825 0.0069014244167 0.0070015690239 8.3072669516e-05 4.5496587436e-05 1.9219721897e-05 
5.6492228992e-06 3.9517913667e-06 0.0070352435685 0.0020501785175 0.0018591246139 0.00078785364783 0.0028259582473 0.00691895425 3.4804634542e-06 
4.2980622746e-07 0.0040649597983 0.0038790739349 3.857551077e-07 3.8422245165e-07 4.040869267e-07 4.0259285973e-07 3.5903673499e-07 3.5756624978e-07 
0.005424366225 0.0052513058908 1.3275576937e-06 0.0073076929531 0.0030371657468 0.0029864963829 0.0061904720527 5.5661658027e-06 9.1648991842e-07 
9.0212294822e-07 0.0067917295215 0.0069597218339 0.0062555455218 0.0070494579689 0.0067369703671 2.1211215372e-06 0.0076434870535 0.00024703886886 
0.0013171290937 0.0071677366871 0.00016782157543 0.00033580520838 0.00022676762467 0.00013215591546 0.0056400237901 0.00048600376628 2.2921611442e-05 
2.7330252227e-06 3.0076928841e-06 0.0049134383237 0.0070824787186 0.0068719337118 0.0068134978171 0.0070461596843 2.1040296643e-06 0.0078857380764 
0.0029779191113 0.0030840964941 0.0010973634067 0.00029864250094 0.0031178085205 0.006933364017 0.0067911708193 0.0060569312063 0.001491633844 
0.00054447060038 0.0015999477051 2.2212119049e-07 3.5494599933e-07 0.0027688772559 6.8613194189e-07 0.0069406092668 
Tresca%20Stress 1 1420 double
1945.3763224 1941.4525613 1090.9975575 1088.3252457 3050.6871062 3034.2366649 548.93023923 732.24895647 5593.9023517 
5740.1558576 5652.2184379 5687.8530407 776.36965149 1052.9109645 5869.4282073 5257.4214846 2564.6485946 2495.6151689 
5559.0874359 5606.5265674 2.5019760686e-12 2.224052782e-11 5207.2625615 4748.2166841 5305.7369284 6281.8010495 6058.4622086 
5929.937053 5782.1448196 5926.7529209 6226.1548095 4714.4466113 2159.4844496 2206.2014651 2339.1415834 2490.3270025 
2693.5190804 4414.5538263 4505.6071194 4016.6961788 5557.8471647 6081.5849022 5967.9031061 5777.1059827 5794.021543 
5898.4585926 6075.3493519 3212.6043577 2138.5110255 2245.3179379 2374.706123 2536.1489186 2376.1775916 5055.6745692 
4801.1656384 4811.7693401 6346.196066 6148.1148781 5912.316912 5783.8177443 5897.2597704 6112.2131641 4218.0740009 
2236.3885137 2199.2763183 2325.4414007 2486.7398179 2629.9319254 4327.02936 4521.2924339 3951.0529223 5401.565901 
6163.6855871 5975.2209731 5779.1376803 5794.4032592 5896.733479 5933.8095687 2900.9211331 2136.447582 2250.4215458 
2362.4101115 2522.5674123 2340.6044732 3632.8017793 3097.2806968 3013.390985 2983.6928384 3075.8205611 2450.4948685 
3094.7402858 3010.4673237 2976.7645301 3074.4095737 2451.7877455 500.26264752 906.40863944 832.41146022 938.30536882 
964.69693968 772.1079413 873.04654287 859.13855938 1035.1581594 1066.5045334 937.50507531 826.33705301 949.58087484 
971.60451854 867.6908764 887.48584946 887.97493115 1040.0043189 1050.3016305 5568.65605 3568.9098416 5537.5765616 
1978.6868324 3600.1865799 5618.938215 2573.0315641 5605.2549619 5690.5233733 5729.5981356 750.14806021 3441.5630562 
3062.6474317 5982.6459225 4006.2452162 3098.4061464 5573.5268217 5954.5385351 2939.7357413 2509.2491392 2370.2616963 
5486.1259088 5982.7106046 5901.6287027 3832.9698381 5995.1096992 5880.5534728 5755.3664141 5582.9402779 6007.1710138 
5870.6870646 3853.7963533 6046.8175164 5882.4530755 5707.0903635 6274.0584208 5858.4132149 4266.4921284 9349.8622476 
6631.0980803 5542.5284874 5923.22693 8001.2621575 8422.7046544 4287.8861411 5976.0128097 3673.2549535 9175.1600651 
6704.6737141 5555.350148 5901.8614449 8834.589872 8850.8465668 3769.9272702 6123.0170131 5909.7779579 5509.7220755 
5786.9734758 4741.351435 5894.1619502 5740.2574381 5209.6335993 5914.5541053 6213.8697773 6122.3613873 6306.4714457 
5864.3276636 4801.7550903 5956.0297404 5933.4268029 5358.7174247 5937.5145052 2647.6931246 5436.9126717 4729.5503401 
5999.3587681 6113.4286118 5933.7716294 5910.6499319 5854.4541457 6030.5817067 5800.1467611 2333.0803383 2355.1767669 
2465.3141224 2736.1210488 3319.5005247 4898.3328352 3533.2867718 3520.4883392 4888.9456336 4766.476853 1926.9974364 
1934.8857301 2548.2402956 2499.1059943 4925.0842041 5352.951149 5127.210258 5287.5207871 4573.4312688 4675.9283759 
4652.0798429 4902.2433203 4615.0143815 6161.8731893 5701.2556905 4724.5806846 3695.6448435 5485.7633569 6041.3698036 
6121.6184223 6227.770899 6150.7117719 6264.9866567 5924.3588906 5961.7772922 5973.715089 6048.882142 6031.6536193 
5778.5835403 5892.8639397 5873.1743721 5944.7034393 5855.0329413 5904.4306878 5783.2948473 5777.2702675 5779.6192156 
5785.2256095 5991.761875 5956.2352176 5914.3106333 5865.5843725 5931.9306587 5921.9558295 5861.8776088 6031.7212028 
5952.9127058 5694.8462096 2608.8507094 3979.0088103 4529.5397046 5563.7361956 3673.0317406 2179.469373 2203.5115892 
2272.8512538 2259.9011252 2555.3652427 2323.0224076 2301.2816481 2203.9118775 2171.7943596 2307.2388556 2478.3324562 
2353.3255752 2306.6466304 2308.8993017 2349.8467023 2740.6523395 2517.4869226 2482.900361 2479.1618225 2522.2772417 
2656.457279 2718.2056032 2647.9984264 3102.7259625 3195.2983746 1949.9026833 1950.2848735 2779.4600768 2779.7253619 
3013.5274359 3023.1213592 3076.178654 3067.2672552 3116.2922659 3145.9603281 3082.7133564 2924.070143 3131.4444411 
3110.7736938 809.56902517 731.15933807 872.10199191 854.22937652 922.96439528 1960.0237734 1956.6602941 489.11994681 
465.57090457 611.10144226 543.6611539 895.03538518 925.44519717 846.49770538 901.87998825 964.3292493 886.3839584 
904.99960849 840.65458245 855.49490454 838.17089033 840.25866479 976.3350007 991.80765916 883.33584983 963.25450772 
1024.4015625 966.76993783 964.90237461 1739.8500178 6254.3091583 1375.3089622 1576.9987019 2934.775804 3141.4201432 
5790.339096 5439.5462403 6320.9360164 6370.6828339 4047.15889 6083.7669399 5836.6242814 5786.1446407 5785.6808528 
5739.4473211 2549.0753138 5538.0512155 5387.1162848 5650.847443 6477.7423768 6580.8553966 2280.0527056 2140.4039071 
1971.0266209 1562.2885497 5592.683745 2991.6525536 1368.1338247 1435.1900516 4253.7263999 3623.269588 6169.4514793 
6318.0976924 6046.3674047 4492.7942208 5578.446136 5760.6338683 5923.2081365 5919.049131 3174.6072116 3209.3941937 
4948.4044015 5017.9981099 6048.9581777 5941.1902346 5834.6764431 5973.7250066 5852.9461747 5987.3526109 5948.5177242 
5964.2963589 6079.1046132 5851.4169578 5971.2801846 4318.4007985 6076.4288136 5777.9788433 3694.9573119 4645.1678419 
3068.4057015 2961.7213237 5529.7969239 5219.510058 5430.6329022 5426.323997 5675.2727724 5688.0581357 5698.0065088 
5513.2135544 6087.516028 5737.1259944 3392.3162971 8911.9657051 5376.1522966 5743.4840687 2642.5752744 9332.3361643 
6291.1816176 7252.3453742 9045.0657151 8532.9622244 6562.719077 6781.8113122 5586.994944 4133.7900711 6295.1111126 
4991.3994778 6676.7779125 3608.0467545 3596.8707582 5398.9311181 5486.4456268 5876.0574842 5891.0417699 5710.5324308 
5898.30312 6107.9554072 6361.2850338 6241.8436395 6424.1538909 6014.4281573 6127.7851293 5967.1367724 5797.1772029 
5882.7965284 4367.8993418 4498.0984479 4485.694532 5479.699042 5730.3751441 6024.914575 4685.1195199 5805.0378134 
5617.8211323 5890.3969301 5765.7322096 5874.4591821 705.35446505 5320.2123985 1054.242032 5834.1509184 1342.9899892 
5812.9588122 6377.4823586 5951.2417405 5510.174427 5243.6177066 6007.9464893 5970.6066338 5883.7473817 6125.4835838 
1712.8576659 3336.3352701 1729.9545288 5809.4247462 5760.8492591 6155.087545 5819.2188074 6061.7118132 5665.2667448 
6055.5580016 5845.48856 1920.9342625 542.39588391 6295.1958024 9035.8669117 5847.4614344 2043.3391944 653.60739006 
6013.8164922 5813.2463617 5808.7184376 5211.9484225 1242.1247591 1239.3574815 5751.9006136 5999.2545314 5782.5232716 
6195.3599021 6172.0249308 6684.39439 1426.0592328 4512.0485417 3717.7003213 2669.3400824 429.22221577 5154.1114342 
1505.2370179 5521.8820814 328.35807432 2230.3646837 5817.1982113 5757.6433857 2517.7179499 3869.2231382 3552.8474127 
1290.4716569 1545.9991065 1968.0509713 2197.0545243 2066.4839051 703.94137171 1254.2793925 1556.0680808 413.50073852 
351.23661919 1189.2338692 5679.7742912 5846.3543567 3749.2355043 5603.5542115 5645.271822 5636.123484 5548.0195854 
5771.2501843 5735.9478172 5716.9793135 5769.8270244 5810.9132581 2088.7303846 4437.9120506 3410.4155399 5292.2924941 
5841.6543494 5831.5452661 5820.0645175 6451.1827702 2217.3241112 2035.1383141 3670.5017137 5608.0531936 5319.9138405 
5767.0896779 2266.572438 2399.0212788 1406.0274407 1094.9368104 2664.7849683 5201.54953 5141.2626793 4014.5233731 
5175.5711116 5417.166222 5419.8852591 5433.3147312 5788.2510684 5976.5226643 5472.521383 5687.5501295 5783.8974426 
5546.840791 5858.8840275 5714.1415847 5657.7654438 5879.6509195 5790.8001871 5772.5037563 5789.319902 5722.6104739 
5601.7511299 5762.5444707 5782.1797585 5757.3472094 5702.1527685 5798.3865873 5783.1181965 5074.7793047 5929.1445874 
5788.9789898 5867.2709997 2861.9140022 1346.9938258 3532.8645391 4194.719464 1741.3256748 1833.8455626 979.97940774 
1959.2725489 2079.4573878 1549.3506422 2308.0429368 2371.2060939 1965.6930623 2298.6689277 2302.3166263 2131.6313463 
1629.1795829 303.19179078 316.45473147 410.51326564 380.94112612 354.06667148 433.05778039 262.3393337 261.82223093 
503.12876978 638.90855177 6534.9203569 6245.8289741 5689.3677979 5790.4268865 3403.9027675 5648.2155609 5815.3777691 
2634.8032292 4306.2076103 605.38593851 7141.5447103 5547.981513 4853.9411431 3732.756035 5749.5504102 5675.6598511 
5958.7430705 5977.2762525 5485.2872654 4848.4222291 2978.4827865 5695.9919105 5445.3373326 5678.4598532 5555.1867431 
5755.6397821 5950.8811659 5989.7922391 5775.1401325 5780.1572181 5790.3788728 5726.8261802 5763.0084258 5722.3498987 
5816.150834 5746.6467334 5753.0989167 5735.268708 5405.2671967 5770.1951512 5678.3029814 5764.5121627 5768.6583014 
5777.6702242 5772.2813996 5758.2167616 5701.1732443 5740.5787557 5847.0901212 5709.2940825 5691.2483524 5791.2534101 
5773.6621021 5617.5839917 5723.0334494 4184.7228136 5386.0644492 5743.3112761 5854.4120916 5663.8008979 5770.1295474 
5781.568325 5770.2294828 5758.5062247 5750.6947835 5773.0576567 5770.1219705 5771.8153583 5781.6277697 5772.8349618 
5774.4447761 5786.9525351 5620.0674806 5807.8044696 5830.2473815 5747.3832656 902.43649031 990.9381305 2170.547474 
1819.180497 615.17727491 1073.9292948 1121.4020186 1133.4319853 597.8429228 5784.5678208 5263.799571 5376.9659905 
4098.7640201 5797.50573 4608.2876277 1239.1692747 856.34860377 1510.9206439 1154.6808961 914.66519168 981.56808975 
5822.9714122 5784.7570234 5769.6251762 5685.5825505 886.99081354 1522.965297 1777.6507666 766.91787284 956.48580955 
1670.4538167 5724.813671 5725.5542897 5773.556427 5796.8723606 5818.8876473 6108.0822207 5744.8248403 5746.5834549 
5726.7001801 5782.4517282 5514.534634 5093.892965 3681.6227152 5797.8067192 5486.3420212 6201.0405119 5755.9047456 
5775.4566408 663.93507063 5569.7128521 997.909835 5881.595403 1371.8183006 5786.8711254 6216.2532058 5900.8806898 
5801.4084051 5602.8559158 5884.8009788 6100.4740608 6003.2534065 6174.8781523 1686.8551855 3181.8976992 1723.7553796 
5750.7785993 5780.2135551 5907.9592965 5860.6872127 5874.2416711 5581.2613143 5839.8067198 5799.637311 1807.0236322 
538.84613918 5987.3768909 7627.3324504 5782.6751511 643.08474226 1988.2364191 5962.9352379 5778.0257779 5845.4262889 
5149.738635 1192.992366 1311.6963319 5734.2823082 6050.374446 5798.5519749 6227.4279116 5960.4254827 6358.2789704 
1389.1753672 4126.024179 4168.3043068 2634.2175101 464.49139244 4888.6650121 1535.8297478 4733.2221936 327.17987974 
2225.9532255 5783.4006183 5742.075644 3864.6302757 2482.271183 3587.3980169 1572.0469108 1305.6678067 1972.9301195 
2065.4594786 2201.1917818 722.64352435 2017.1411938 1261.2999547 437.9894592 423.1187897 1075.5207069 5916.791031 
5608.1286209 5168.127369 3661.6791021 5243.4354721 5788.0024474 5240.8517194 5970.2886911 5798.4868779 5751.3851267 
5711.5161769 5703.6124133 4030.0332674 1759.2752584 3526.0813657 5855.2407374 5306.9581814 5718.346901 5447.6537657 
6233.99251 1936.6448602 2277.1394849 3829.92022 5386.3781369 5687.0328543 5875.142366 2388.9711994 2262.3354013 
1445.1214452 1065.2183127 3163.5382513 355.26501953 317.94532432 425.68260124 348.90533792 393.89298212 435.27430756 
261.36642163 271.38817138 488.91770568 667.73405375 5211.8875233 5123.7452914 3808.9951556 5183.7239229 5185.9352024 
5509.6870588 5116.0236826 5709.0698726 5505.5915155 5987.5235797 5686.4579375 5435.3873527 5731.5493405 5929.7235882 
5644.0105874 5676.8558053 5826.4055872 5770.5578001 5784.7976063 5720.863634 5803.7875414 5656.3756015 5785.7454624 
5763.3368631 5753.7149027 5819.2148851 5695.7590873 5790.1859913 6090.3815377 5518.5406602 5837.0346246 5875.4926155 
1411.076686 2530.6356357 3697.3803575 4067.638149 1784.629689 1706.3756767 1024.8108679 2073.2380293 1968.3464529 
1549.757626 2376.0525846 2302.5457771 1983.3757179 2280.7605656 2296.0344804 2125.1415351 1639.1022331 6216.2521935 
5684.5826414 5875.9741124 5773.2297316 5175.6593748 2806.5739098 5824.6297508 2556.1942401 738.27119905 4300.4151658 
6924.9307893 4879.8897256 5520.897257 3798.284493 5649.2455011 5736.3060835 5869.2535474 5945.4549597 4737.9709514 
5245.6305778 2815.0282704 5521.6356812 5639.6389236 5578.6680084 6178.725415 4699.374456 5804.6121455 5777.8864419 
5780.0392404 5793.2960875 5777.4189379 5765.6093778 5733.2786682 5804.1522043 5666.0101058 5757.4747138 5749.5442808 
5717.8654329 5561.2991574 5803.2543773 5555.4737212 5773.3974549 5764.553222 5607.436414 5769.4053182 5721.3792222 
5721.329092 5751.19044 5675.842334 5677.0747452 5857.2988415 5794.0892077 5785.5744834 5845.8714469 5613.0440297 
5079.705412 4225.0309412 5840.4481395 5796.4422892 5793.1902407 5756.4063293 5764.9744883 5780.2084573 5718.4500742 
5771.1781164 5754.3526109 5783.9778254 5767.8311698 5757.9911205 5797.8315893 5774.9021176 5773.4825229 5780.5175568 
5746.6249978 5766.0413423 5759.5354199 925.2101292 898.74081744 2085.4532068 3005.7591105 1108.3361413 1068.0270085 
618.65919501 892.68324644 602.27849417 5455.743428 5819.6669054 5172.7376945 4200.3228309 4563.5158944 5860.4646369 
834.0456439 1191.3343993 1493.8283363 914.28374876 1104.6168584 962.07464787 5827.6113991 5801.7698856 5676.366395 
5752.7295939 1534.9985857 881.66379547 1762.3328002 769.01756719 961.35839808 1673.0744166 5803.7493952 5751.7372998 
5675.4221087 5782.1892513 5761.724579 6031.6354658 5765.9589584 5754.0224555 5747.4437943 5795.0243396 5453.9785398 
5025.6162786 3933.01028 980.89766435 1495.0130477 1112.7478055 1398.5485176 5352.3074819 5389.7143674 4868.0293998 
5333.5290487 5512.2653505 3586.1063694 5913.1412573 3725.6876012 5714.2731292 5926.3800859 2750.5209553 1805.3750192 
1040.0504007 1718.701641 1138.7809762 1021.3138559 896.62794911 5365.4461063 5406.1844418 5091.4219239 4198.4837983 
4125.2394543 840.4326213 608.89017855 1962.9955618 2520.3598256 1939.8323039 756.90304343 722.25161456 727.6462767 
5651.1809202 5715.2828929 5783.4254813 5757.7465472 5770.6114015 5791.4305574 1613.7913842 1502.7239273 5779.4023241 
5775.8400083 5795.0429351 5777.7002967 5712.0475705 5848.313125 5045.8479018 5827.0513764 5579.4305674 5055.5997769 
4295.1313301 5494.2872116 5718.1217737 4329.3422215 3996.3487814 5713.1013527 5264.4398924 6079.6131913 5099.4148414 
5657.7444683 5768.1003585 5601.6771062 5797.7955268 2367.391123 2206.3652115 2368.5262429 5866.7438081 5623.9443738 
5838.2877785 5937.4720475 5664.4379772 5628.3123249 5684.5472795 1756.2673912 5669.2834037 6027.4179344 6239.0065301 
4137.8706243 3096.6084913 4430.5324012 322.51541923 381.4573577 371.05514577 324.54682168 435.99098606 1752.388282 
1797.4744594 1905.5757995 2953.0574189 3043.7475952 4388.4486509 427.17425335 410.73143876 423.15627016 339.94000059 
396.31085429 344.74064073 1012.1455477 2051.6902249 1910.8824507 1413.3788228 1530.5359962 5672.9798748 5684.8598603 
1792.7866627 2269.5475787 1974.2032746 2043.2674776 2261.2256699 2216.9871772 4975.5219705 3764.4755618 4074.1223144 
359.08183015 361.98716785 361.00289077 5788.4767864 5477.5331577 5463.0662675 5479.2988262 5138.9734704 5723.9403788 
5390.4894467 5737.9279389 5679.0611526 5735.8178093 501.47805952 276.98019747 547.87027457 1267.4371936 5834.3982313 
5711.4602387 1706.802956 5850.583269 5573.0683956 5918.3892504 5936.4150618 5503.8539334 6123.8613422 6006.384578 
2656.9078828 4312.8774727 5466.5370035 583.1483951 1225.9287858 6038.9171277 5870.3613684 4712.0953604 4106.6194276 
542.18098713 2108.3045618 2107.3915313 2338.8476741 2289.0064017 2352.8710421 4175.592255 4076.5486567 2960.6341661 
5238.1809553 5768.1252051 5316.9426717 2358.0078256 5774.0358055 5771.3203149 5784.21908 5772.9209383 3827.7494314 
3392.6074502 4112.5961298 6217.3999144 1164.3036984 884.79512254 2028.0211859 5873.6609694 5522.5794646 5683.5045215 
5539.2532348 5801.5769329 5865.1535476 5561.0899285 5752.6115442 5702.0846737 5716.0898674 5674.4710819 281.47850977 
645.38449678 5576.3498792 5890.9465815 5719.7502591 5769.1319057 5828.7751245 5694.649054 5789.3925849 5515.9319234 
5841.0600682 1113.3360699 620.81349643 1067.0979211 685.201312 2903.5007152 2333.633515 2011.4835056 5628.161092 
5766.529954 5691.1200036 5861.320838 5701.220214 5589.1868494 4020.3415352 5690.0354413 5595.9306499 5829.2309331 
5423.7264933 5704.638913 5111.5018646 5812.2140451 3980.7217859 5890.5037927 2760.8069163 5725.7526478 5696.4020299 
5660.7781473 5608.5920431 5731.68907 5748.0154966 5799.9391484 3195.5075109 2030.1113088 5766.9831942 5492.5155044 
5771.6886362 5788.1093088 5767.6048745 5772.8301252 5776.8472573 5789.9038337 5797.6632742 5717.3413302 5595.4779015 
5582.6564965 5674.0792182 5546.8371142 2233.9264869 903.29993309 5707.7993863 1692.2848919 1349.272863 981.6972782 
419.48435016 382.40481783 1217.2363769 884.33806447 1529.9990612 5978.5012306 5488.9652637 5774.4123473 5821.8430292 
5315.7577641 5822.1049563 5682.4956716 5878.2647602 5755.9662288 5713.214024 5810.9917831 5750.0871157 5073.5291544 
4095.9812556 5843.7492682 5679.7700949 5759.9316402 5723.4747869 2062.2615021 4258.8950298 5756.0271647 2298.6048127 
2299.9081776 5747.5113431 1778.9798647 262.52091362 490.74836655 765.12430563 2103.313059 5678.2660813 5790.9589128 
5611.151157 5518.5228813 5758.4434085 654.46486588 3034.0815767 2003.5425488 3520.0262055 2749.6398498 2783.2765024 
5798.3699357 5814.3691961 5622.3329495 2306.2932856 5756.858373 1623.1915854 888.27050737 4862.9976056 5383.4243401 
5626.1621328 5782.1253759 5788.3691724 259.83840705 3810.4898979 3533.4687222 3488.1276059 280.5584703 5762.185332 
5795.8282518 5762.8034736 5800.3647112 5729.1663805 5767.3142025 5773.3800505 5752.4088872 1747.290153 2198.8987096 
5696.0474258 5745.0980647 5371.5049558 5690.022938 5345.3919422 5363.7979452 5753.6968826 5787.761741 5759.6335719 
5793.638471 5757.1922046 5799.0018698 5782.1874184 5370.6815454 6755.3695646 5964.5245893 5122.0444184 5500.2906548 
5609.0563515 5384.7896758 5780.8773957 5711.2219146 5778.6762965 5714.6541664 5779.1498655 6210.6960213 1716.7348118 
1947.2543532 5750.1373902 5744.2584585 1815.3099408 1859.9772965 1310.8219706 1325.8645636 2250.933307 2255.8609152 
5765.3811469 3315.2261344 684.43432528 5583.7173376 5813.6549026 5799.4874663 5742.3582321 990.24228933 1126.0304995 
1140.3476903 3714.563008 6176.7870529 5776.4523419 5766.6721561 5723.1150389 5375.5795285 3606.1040522 5875.8044509 
5815.3239122 5732.8721191 5704.9395504 5433.1092083 5921.2210465 5357.4088901 5770.5521317 5788.2629818 5487.8599052 
1290.4913268 1378.3422501 2826.4906857 5744.3549228 5742.3821932 5771.4198728 5761.2582661 1380.6697733 5548.4590347 
5780.4429754 5771.8801257 5706.6769491 5510.1107592 5772.6398311 2855.7176212 3845.5423888 5597.1121495 5990.9642491 
5786.9985866 5903.4286991 1806.2400058 1888.1410964 5599.0469587 3366.377754 1964.2767666 
Stress%20xx%20component 1 1420 double
-18991.955704 -18940.097036 -10588.180561 -10558.281951 4557.4156486 4551.2526256 -143.66870018 -355.50785727 -13959.80406 
-13290.874535 -15083.156229 -14758.243274 -1075.5587134 -1703.8700001 -12154.497473 -11189.276053 -3492.5204609 -3423.1141867 
28061.578379 31002.254166 5.2041704279e-12 2.1423834928e-10 -33748.174821 -35133.212349 -34170.602624 -33553.479166 -39494.400381 
-32754.648991 -40919.862583 -26447.058206 -18392.207411 -18376.536884 -17889.449461 -19732.472063 -20333.127318 -19987.532542 
-18552.958938 -27931.290838 -34982.020418 -31558.378392 -27641.655512 -36074.152201 -36258.89313 -49367.966188 -53478.93136 
-26694.877003 -19510.146941 -17530.569729 -18776.298227 -20119.98582 -20339.874637 -19512.979512 -16012.016931 -33534.871712 
-36043.163561 -32254.157554 -32020.362589 -34036.426625 -32288.879394 -41374.123658 -26083.118076 -17979.842705 -21646.975689 
-18447.518339 -19603.647484 -20293.824915 -20023.942514 -18503.91024 -27943.106142 -35427.269095 -34230.349019 -25038.724354 
-41580.530314 -18117.852573 -48770.542874 -42081.343885 -31052.642128 -6275.7873261 -16722.941426 -18785.378072 -20158.308309 
-20291.920505 -19443.01921 -15986.103713 10485.190437 -6879.8403311 -13119.099428 -3163.7404353 -10059.991873 -14165.266889 
-6890.4674295 -13148.932379 -3187.0740876 -10077.890149 -14142.909136 -905.0452413 -1854.1080418 -1669.6029751 -1869.6880973 
-2095.221686 -1663.8405287 -1829.1088784 -1725.0131769 -2248.6854245 551.60482008 -1946.0467931 -1654.7699729 -1927.5939011 
-2167.6354464 -1861.6635657 -1864.0757994 -1779.8476937 -2137.0683621 601.76534766 -18846.70733 -3369.1600308 -32008.740187 
-5218.4714605 -4345.2581737 -36286.279742 -7088.9015555 -14892.625282 6147.5600464 9467.477531 -2567.2883111 -378.17571735 
-9246.8315765 -25231.318862 -2177.2367514 -9725.3736472 -22051.066402 -12000.438506 -3533.2330191 -2310.6792055 -3461.1223877 
-4523.5300058 -4676.8711711 -2658.0221772 -3505.0678057 -5884.8272943 -3887.9136834 -10183.596856 -4470.463597 -4680.8219527 
-2640.1580883 -3681.0019019 -5659.8914276 -3695.9812876 -9403.7730682 68609.458485 11998.216604 1107.4970214 -18281.359348 
-12688.944974 17520.419609 7601.2148588 -18979.473752 -8544.0078995 -8865.8299232 11164.226481 1868.3878601 -17393.585854 
-12264.882061 17204.657573 11425.895751 -19489.067494 -9042.5518638 -8076.7126741 -28526.78866 -18540.133335 -9372.3126905 
5558.2744228 -28778.305015 -23524.677614 -13355.764155 5367.5860753 23480.246349 -28616.929964 -18843.274044 -11432.730265 
-490.97247943 -28584.208604 -23623.198038 -14383.056396 15625.700568 28522.149068 -17262.47103 -35460.195451 -35039.226074 
-40182.526764 -49074.728542 -49382.094612 -28209.88774 -20075.960512 -25059.326645 -27307.361349 -19236.21645 -20156.363909 
-20273.0634 -19554.648493 -18190.096356 -30671.613641 -24862.550549 -24759.165987 -31528.984885 -31417.925753 -14086.617371 
-14138.454067 -17601.000803 -17568.936637 -34882.684242 -35650.516636 -33755.776819 -35980.058518 -31870.816748 -35093.767472 
-34982.336886 -35165.857753 -35703.319678 -43207.616222 -42641.874339 -32821.54439 -31180.244185 -40269.709921 -43540.321591 
-50922.459067 -36858.156082 -43262.064536 -46644.250435 -44595.554448 -51802.6393 -43096.252216 -43770.112268 -56646.704432 
-25807.720232 -32461.815781 -39735.837572 -44745.945547 -34236.929217 -24652.520152 -15597.020526 -40635.29674 -26222.96598 
-14292.518982 -25611.912992 -20867.584713 -23112.93947 -25354.499455 -22237.303773 -16853.304529 -30840.562194 -28797.148118 
-30058.509145 -30731.807413 -17806.538941 -20532.165238 -20787.285803 -18460.736909 -20447.536523 -19586.816838 -19237.445872 
-18114.963947 -19300.994514 -17876.429478 -20264.403759 -20182.21464 -19826.571908 -19449.278971 -20058.134104 -20182.890159 
-20498.806649 -20341.965237 -20226.475557 -20518.586928 -19198.803023 -19943.849198 -20092.739711 -20253.86109 -20075.349982 
-18608.936578 -19370.717982 -15689.592359 -4600.3154707 -10413.462442 -13809.266585 -13812.971849 -13753.439236 -13784.064691 
-573.88966133 -548.70993144 -5668.8137406 -5677.0534692 -8580.4462198 -12079.302864 -7234.082709 -12955.835101 -12072.364605 
-8528.3759873 195.7916683 -1382.5823965 -1729.5350322 -1707.0997111 -2032.0572973 2839.3234847 2823.6013923 -1324.1883587 
-1508.9272018 -1226.365015 -936.08840108 -2143.9357748 -2201.7453256 -1721.3712245 -1735.7530443 -1924.2957413 -1692.2753616 
-1763.2020747 -1704.2013615 -1722.675022 -1680.273431 -1676.1416315 -2022.5377266 -2268.8112557 -1705.0938282 -1885.3950113 
-2229.7387563 -2054.7079104 -1824.4205407 -896.01426467 -7027.8468759 -1211.2734662 -1844.7492096 979.86749453 1525.4605033 
-3772.214368 -1755.2182551 -9915.9451463 -14141.639484 -1178.6712294 -10591.002328 -20878.136182 -17456.618113 -23700.34435 
-18790.688678 2603.5360423 -1046.4353779 145.83773757 -1339.4027675 1004.979695 -1208.735749 -4615.3181095 -3831.1098836 
5905.4353452 2549.6254719 13500.85057 -5490.3322193 -2351.9939868 -2436.7471101 -9277.1069851 -9415.9606402 -4427.6549165 
-5069.4504947 -3820.4154436 -3872.2440796 -7663.1008377 -10890.26013 -2910.8928292 -3184.3368345 -2992.956378 -3160.928918 
-4274.97134 -4345.2845693 -5123.7940178 -5359.7659309 -4156.9437076 -3781.5810694 -2405.5170493 -5250.2352802 -4698.9972642 
-5273.940101 -4973.1530089 -2522.0045888 -3845.9459569 -7479.0602907 13251.851715 9316.7695405 -3231.7872534 -11640.353842 
-5894.8912261 -5754.7856569 -8692.7742096 -7131.35464 17072.975899 16958.785606 13821.396641 13143.201994 10740.800615 
5951.6181586 8834.2592652 8892.6932826 -3314.3419667 -20664.549678 4489.1122683 408.22020394 -783.26764802 -15782.371 
-15115.175284 -16349.591949 -19667.149445 -17928.669202 -12402.586087 -15334.785999 -92.068753802 -10422.298669 -11483.718188 
-32275.228798 -25131.357295 -27016.334379 -26975.77448 -29109.747857 -29212.121801 5449.4915407 3734.2937347 4137.9394251 
-923.39471166 -21371.376874 -27227.000302 -28501.454505 -27297.374832 -7833.5652382 -16164.811248 -16577.463925 -18229.59762 
-21215.535346 -2607.1512996 -20564.208773 -17917.389453 -12452.78183 -7552.6484367 -1412.3518548 -9029.9610142 -9255.2233602 
-11396.607458 -17964.025048 -4241.0051367 -18203.332451 -10353.455731 -1066.4371792 -9463.9153709 -21526.982749 -9727.8048827 
-6427.2169714 4387.2223701 -24056.5089 -18147.458759 -24030.231045 -4550.204614 -23200.43047 -25369.95981 -12391.316204 
-16219.37753 -2283.8368453 -13666.294835 -26669.184492 -12276.340766 -8261.3376364 -6805.9259607 -22110.958846 -6953.0481094 
-907.61864486 -9830.7167878 -5403.1807837 -6631.594796 -11115.789365 10707.310707 1652.1029574 -12799.224727 -6437.7128272 
-25466.364171 -4509.7399385 -17452.82536 -1714.8304662 -5575.5016868 -13007.780324 -24184.904283 -24747.666686 -26405.137795 
-22491.087184 -1042.9729055 -19131.040289 -15739.309515 -21348.017106 -10767.720352 -27788.110555 -4884.1498493 -29788.177944 
-9807.5006304 -5495.0535847 -5154.8999801 -15337.107712 -28498.053714 -17275.289812 -27062.483739 -30593.91334 -28327.506123 
-13811.864985 -13226.72918 -15471.08084 -6106.1111586 -1625.039078 -3818.7049126 -1900.1375289 -1923.3597901 -3272.5545842 
-2295.4683265 -5548.6067318 -19521.060728 -25867.501733 3110.5775233 3148.3435943 -19422.931701 -24321.751449 -29073.773271 
-3108.2694787 -6144.7621154 -17342.214355 -19637.649074 -26011.019865 -960.79956164 -9060.5967086 -3248.0949803 -10160.854918 
-6457.10895 -10487.478844 -11216.408317 -6759.0045358 -2070.3101924 -3506.1002927 -3962.727143 6400.4347216 10403.960178 
-3181.0135808 -11267.396388 -8353.005668 -8029.5848389 -11581.763317 -10128.698499 -30834.789599 -31214.404243 -28708.670245 
-35093.31455 -33617.000734 -29708.838723 -31045.232998 -27137.850428 -32008.593693 -29654.532433 -24964.136545 -9903.7412885 
-16665.755372 -31220.974218 -28488.170738 -17504.297503 -39279.930338 -27636.908211 -26303.479427 -24460.441168 -18029.010594 
-26261.573284 -46525.971958 -25822.018688 -27514.406817 -24548.56414 -31313.904366 -26552.606074 11954.504921 -29091.001776 
-29328.410662 -29219.446656 -20252.501891 -16822.450268 -16711.270023 -18531.957101 -17397.003686 -17589.283325 -15873.603181 
-16261.683573 -16871.164447 -14872.481541 -17667.679196 -17452.847419 -14695.91023 -16154.854012 -15416.195939 -14299.729886 
-13210.46652 -4115.2997336 -4054.1123466 -6024.0754859 -3412.675929 -3387.1468799 -5915.0474269 -3785.2456939 -4077.677861 
-5944.5166387 -6245.0554634 -14163.128465 2704.9673224 5830.7304606 -2708.0179392 1960.5201506 11671.601817 -781.71944011 
-3618.9777757 -675.82456158 -4264.2988617 7618.2572155 -3243.8494459 -3208.0435341 -3077.7667229 -3231.7031808 -4079.3861391 
-2910.4834704 -7882.2338313 -19230.663239 -25438.609059 -25685.63912 -5241.1787778 -16467.275681 -16936.989107 9118.3992528 
-10238.167969 -10440.228615 -1011.249322 -7449.4689422 -7874.4135179 -12325.194014 -10893.25114 -15165.996396 -11055.593437 
-8623.2869522 -4979.3684015 -3903.4618899 -2982.9193819 -10220.542015 -12244.104277 -11521.511049 -14500.244912 -6060.9022606 
-10568.936929 -3878.0886983 -19113.01757 -10166.014134 -13291.812143 -24761.961241 -23204.487731 -19041.376974 -15886.270457 
-15393.214515 -22982.346243 -23677.500647 -23085.977935 -18300.3057 -14830.299281 -12393.164788 -15170.036398 -14053.276293 
-6975.9820305 -4277.267059 -5580.0642187 1639.9070857 -5155.7589035 602.47734674 -1591.0048781 -23626.690346 -18302.804946 
-17150.763291 -14256.345636 -16826.458622 -14798.350981 -24840.232788 -18942.682319 -12932.361355 -13631.09123 -11744.609556 
-11095.943945 -8473.9640992 -9948.9466271 -12170.916511 -7914.1307866 -7807.7500655 -2439.6294173 -4079.5317617 -485.64202525 
-2248.2409597 403.23721658 -1254.2109254 -9587.2600757 -8014.1995812 -11171.163225 -11328.67462 -7460.7789989 -9499.6131887 
-20904.238758 -23434.364039 -17565.006471 -24453.354955 -8266.1722686 -11716.593529 -12493.376182 -7418.3328177 -8096.2447573 
-11361.674993 -8524.8239055 -4184.2043705 -11854.642504 -4465.2172364 5327.2463248 41.112164839 -162.14502946 -15895.029595 
-16788.274553 -23508.791351 -14414.854435 -27013.039462 -26427.203033 -8963.8163524 -12438.111592 -18494.317267 -4296.7718359 
-17941.343646 -10225.615064 -166.96254734 -9514.0942797 -21513.603252 -9700.896 -6261.2978379 4071.5481599 -23883.482078 
-18125.344843 -23457.185923 -5367.1513748 -19500.547344 -26592.30116 -11554.882781 -16334.663481 -1987.7035362 -13685.359008 
-26986.434359 -12536.040378 -7812.6228144 -7246.4908964 -22359.162708 -5125.273304 -1065.5764991 -9867.9739107 -5242.5217623 
-6697.9193737 -11276.03361 7582.602561 1967.1679414 -6445.881773 -12813.339519 -25258.194898 -4859.0489923 -17810.363927 
-2344.2005237 -13131.564088 -5663.3204126 -22765.778277 -24393.092612 -25655.927251 -24196.570242 -1298.8471054 -16926.921819 
-15498.978878 -21396.286957 -10234.944141 -27956.041896 -4926.3157875 -30680.328944 -9828.5103192 -5606.1181366 -5133.3673834 
-15314.401638 -28206.29377 -17050.331868 -30210.699848 -26894.148892 -28318.377926 -13277.491947 -13770.383246 -15477.909734 
-1616.7228326 -6129.5222817 -3810.9772586 43.753883675 -1141.178808 -2516.6248013 -3313.051733 -5574.4451722 -22047.21573 
-13489.378854 11279.655669 5131.7169457 -31941.723355 -19026.899846 -34551.525458 -6463.8741275 2272.7922615 -21083.401233 
-19316.528402 -23423.284118 -10363.942386 -1308.6211737 -602.81596283 -6434.0013472 -8140.4117926 -11873.885988 -11238.089619 
-7365.3530544 -3776.8387194 -2414.5465558 -3368.4354864 13599.543192 6527.5230223 -13184.055676 -8313.7041018 -11235.928736 
-8022.8336897 -11525.099103 -11739.588013 -4103.4103736 -4097.6543055 -6120.6762471 -3369.7315593 -3395.2242464 -5913.0620789 
-4064.9710586 -3791.8753971 -5953.5380269 -6160.7476854 -31650.154283 -31346.46037 -28494.852387 -33715.613663 -35395.21798 
-31277.142043 -30545.702837 -26831.801101 -28801.38455 -29886.20504 -27318.137234 -16887.972067 -11133.387564 -32410.922786 
-4908.597738 -18930.629071 -37715.580418 -30459.80697 -29721.305824 -28374.562121 -23199.120531 -21585.04969 -28482.557143 
-51159.865312 -20645.772954 -30322.452099 -26734.651603 -22677.988761 -34040.238512 27656.405809 -34666.429027 -28186.511747 
-17047.979716 -18913.74093 -20364.666524 -17780.497972 -17466.626946 -17195.966864 -15653.526066 -16798.078404 -16387.442112 
-14905.740264 -17461.274898 -17659.485133 -14637.875928 -15440.720051 -16111.24241 -14316.870568 -13111.324348 -11914.888766 
3523.8523368 2805.2179975 -880.62940755 12085.682876 1834.7321631 -3005.8372712 -3937.5374221 -5015.8176073 287.50109675 
5975.9122495 -3402.2137582 -3504.3300628 -2687.7161312 -3867.2579538 -3973.4649058 -3600.389359 -8276.544717 -25129.992777 
-19836.300462 -25723.078444 -15064.359394 -7716.3864924 -15807.34326 -12201.596041 12828.061167 -7335.0767125 -1529.6870938 
-10962.238766 -6987.5174713 -8727.8564897 -14891.063852 -11818.123062 -8412.5227583 -14149.042413 -4897.4218694 -4479.9233599 
-4142.594693 -5307.0413364 -14469.583763 -9662.9947615 -16322.707076 -2882.0125698 -4148.1993965 -9348.4013961 -9430.0889843 
-21187.516322 -10058.806443 -19556.60293 -22264.101523 -26934.628385 -15327.323151 -16560.403017 -23855.893272 -22840.390963 
-19187.901165 -22746.913339 -14365.546756 -12853.178487 -15594.239843 -11115.715247 -4557.5696333 -9981.3581578 -6360.8913233 
-4336.8336344 -1045.5652857 1702.3549627 -371.99146437 -16456.998061 -23554.76016 -14747.154278 -22016.493918 -11615.568377 
-14999.173078 -18162.60269 -30177.842221 -13819.80071 -12776.378229 -10513.292706 -11636.945192 -12084.176931 -10048.099863 
-8493.9996897 -7516.6576903 -7961.5340891 -5271.9301125 -3205.560138 -406.34340847 -1623.7381614 -635.88628103 445.51412377 
-8126.8238108 -9519.3778711 -11230.256294 -7431.4907559 -11423.509324 -9546.8155011 -20940.539044 -21817.260633 -22916.738435 
-15618.560522 -11743.409533 -8287.6486838 -12498.357272 -7370.6123103 -8043.8087695 -11331.511484 -6074.6500167 -6568.6565559 
-16518.676186 -3548.0642765 6137.3446431 85.088818265 -524.40778775 -22818.498921 -14572.081958 -23151.743262 -18790.737054 
-26580.301382 -26043.085045 -9592.2610636 -9773.6007175 -11677.474312 -7792.2561749 -32441.345631 -31860.545034 -30970.677212 
-29038.903652 -31546.916954 -10861.520311 -13876.226216 -8477.338498 -11280.120351 -14988.609378 -9022.0445264 -5853.9366969 
-8071.1858648 -10954.11379 -11426.351129 -9489.8746138 -7543.6283651 -3718.6833252 -3459.2743109 -1879.6509295 -3922.8076891 
-3956.7933964 -8042.3570103 -6004.2031206 -2607.8247598 -7685.8751946 -3053.7412045 -1320.7858097 -3512.5806225 -3698.6208268 
-17668.745227 -21320.636474 -23364.164355 -17821.540981 -28111.511475 -17551.70759 -13108.578416 -11151.048213 -18234.839201 
-16426.18801 -25945.778227 -29947.484631 -31482.1967 -8386.3304584 -6625.5975843 -7891.9220628 -5707.2936257 -2533.7714429 
1819.6040996 -31487.499115 -26452.982589 -30757.266972 -28562.304749 -26657.951846 -18582.453656 -19564.442701 -23569.120822 
-24022.412117 -14585.159119 -22695.478845 -38111.822108 -9955.8122258 -7975.5552505 -10019.937992 -35750.504863 -22653.664013 
-30402.127838 -18959.49013 -22013.340081 -27964.589583 -22526.545796 -11777.601467 -21244.407732 -11383.404158 -8046.511697 
-7620.8163086 -6259.3147249 -8097.1638136 -4146.4226618 -3453.3192509 -3460.859879 -5146.6348194 -5897.196459 -17038.313196 
-17312.87069 -17888.410358 -15788.479974 -15387.981344 -18200.612708 -4904.8459003 -3411.6288062 -3467.9745906 -4198.9719489 
-5990.2125089 -2780.5594642 -5309.146455 -16585.94054 -17871.527167 -15496.084716 -14791.699341 -3197.0240549 -3468.3514676 
-17297.582417 -17827.699036 -14574.190797 -16708.48674 -17806.007502 -15316.986783 -26849.791658 -26331.012922 -10850.595213 
-3420.4762179 -3410.4229961 -3405.5003292 -10093.18821 -30912.619122 -30323.888575 -30778.517167 -5018.0998538 -3376.904581 
-1062.1325403 -19186.691193 -10181.481378 -16524.663269 -3712.8667349 -3952.7054993 -3701.9910332 -5437.030646 -3241.177341 
-3704.9439569 -13761.00767 -8637.3142012 -12736.641959 -7947.0816561 -7700.173379 -5166.3526404 -5825.6903984 -7033.4343414 
-27791.867671 -31313.234356 -23378.016056 -7869.7917466 -13059.277888 -15687.274079 610.56663821 -355.64537737 -2180.3696008 
-6685.6104183 -15960.354051 -15867.199539 -15821.4738 -17712.055137 -17643.208685 -26809.743271 -27021.321718 -25607.296052 
-23318.132003 -16146.861889 -413.65238509 -17613.139753 -15616.937828 -12627.669288 -9252.9386992 -11239.995286 -2769.521169 
-3402.3867478 1222.4161783 4449.6891196 -3545.6806729 -4114.2635897 -4579.9834484 -24804.678338 -35688.959259 -27484.683489 
-33885.852231 -30559.425455 -25467.146615 -23311.631973 -5644.0244211 -11214.53287 -14846.168397 -15068.044663 -4067.1522662 
-6454.1562387 -24642.052528 -29507.044764 -4808.7870848 -10759.268629 -5428.0139513 -7194.8356267 -7251.3964036 -12820.03701 
-28940.054214 -12110.753728 -8414.1055092 -10031.34785 -10311.061002 -8978.7486753 -15910.122943 -12795.547005 -29884.903293 
-27578.967424 -23718.105938 -21979.425307 -26935.088648 -5568.4070199 -1914.903466 -30609.918145 -9193.433832 -5746.5077102 
-15404.042114 -17811.786536 -16625.295438 -21564.846204 -23061.82303 -5854.7402764 -5849.0738738 -23260.390541 -23131.855908 
-24917.936655 -16899.392901 -35452.593917 -30460.176718 -24985.812297 -2445.1629317 -4599.7173123 -10545.532484 -15415.781957 
-20727.102056 -1836.9094025 -8552.9397692 -11497.501266 -21807.004244 -36850.342434 -30190.932353 -28379.688271 -31759.285011 
-30221.056464 -31471.759321 -7925.6450117 -12834.04146 -12937.05292 -23483.587088 -11332.085636 -9751.1854429 -8089.7838333 
-3302.1137937 -3008.9161706 -9599.574392 -8227.917385 -11724.915032 -1151.888579 -13139.121601 -26240.023387 -24512.523325 
-9303.7436538 -25717.787195 -22074.152279 -17318.565677 -13969.157333 -8698.7219391 -8257.936483 -4853.9318054 -23368.297137 
-22065.490058 -13063.765002 -23848.728251 -36429.228277 -3586.0764486 -17726.498181 -18003.443975 -18500.073951 -16138.955927 
-16455.837631 -21567.144776 -12473.763813 -4155.376946 -5884.5895937 -7379.4016732 -14317.408494 -11375.228192 -6741.9868864 
-8592.7492824 -11143.5036 2567.6556485 -3180.5497595 1447.7771343 -1832.0022936 -28074.673279 -29325.475675 -29411.193434 
-14731.328344 -25312.41929 -22397.855829 -16412.021363 -4612.5626155 -16228.145798 -13291.971918 2700.9695171 5251.4238027 
2881.4907237 1094.0608146 -816.21897412 -4158.748754 -29622.595069 -28579.03696 -28642.37427 -4107.931363 -6683.8084925 
6105.641272 5896.9380941 3892.1439311 -10.639871707 -6346.557106 -8435.2406911 -3127.8835508 -11846.818029 -7939.2556379 
-13671.626393 -16968.739281 -2888.4973305 -26474.126607 -33395.355101 -34477.925104 -27770.333354 -18646.246626 -13014.770696 
-12922.584088 -12425.992837 -10058.33426 -19261.110536 5073.2334571 6038.3108562 -12666.78524 -19459.107517 -16294.505989 
-16308.725662 -17021.438973 -6837.7616216 -30659.217638 -16145.665846 -20555.646073 -16435.889602 749.3723708 -18032.818014 
-15228.085704 -19542.839423 -1433.8737595 -14606.062823 -14624.347479 -14011.56329 -14063.190144 -4919.7746016 -4922.2341915 
6029.3075606 -3625.527321 -3383.2817136 -18346.631471 -27464.462282 -25135.523132 -22099.61811 -15891.864664 -2667.897677 
-2563.7592338 1600.3841839 2625.7044967 -7784.4497207 -4121.8850055 -6441.3870071 -20484.159163 -1806.8393633 -18152.051321 
-21690.476268 -3218.5905471 -14349.0259 8237.8722391 10073.203725 -5971.3940658 -4017.9835436 -24095.076389 -29685.969575 
-17193.509184 -17174.507766 -3958.4199687 282.44693058 -16664.619875 -216.93857979 -801.36410304 -16967.405159 -16451.352641 
-21160.071129 -37319.377754 -24721.50275 12846.601911 -22628.898692 1364.9502192 340.46956794 2233.3811474 10097.386771 
660.98300828 12488.32309 -17714.060126 -2311.1450884 8643.0355243 -33463.427714 -3471.9641969 
Stress%20xy%20component 1 1420 double
-331.50699429 326.5158936 175.55007707 -174.04051982 84.445698862 -80.419700877 -7.6518732216 -20.832619814 522.90498616 
-542.57906234 -675.20931555 484.00528041 -16.276184751 38.737293875 -200.38958917 304.45822981 -22.155565231 28.918255046 
-362.63017842 322.79581417 -1.8952362195e-13 -1.7693724175e-12 10.356668879 -112.96167876 -479.23562595 89.36620405 -37.25726814 
2.3941203693 -17.629363989 -7.1526413638 -38.652321362 157.84674585 -46.353381396 8.6847533931 -19.689873005 -13.709129187 
-24.476275442 7.6741185021e-13 2.4222077877 -20.380649865 131.18459241 48.078207535 -8.1816084736 -0.26409717885 -26.528502851 
-9.926695095 1116.8567209 1.3671111769e-12 -2.9646153154e-14 1.2334917294e-14 -3.1256839243e-13 -2.6231551585e-13 -8.8372006178e-13 -6.5290743571 
73.280608053 632.4560341 -134.6564712 9.741260083 -19.719328705 3.8804749538 9.2455710477 122.37784849 -498.16768775 
13.271487942 -7.9499773607 15.853864634 11.732243453 12.399437183 1.4454617245e-12 -2.9299966354 21.516724072 -104.11872748 
-147.06720732 3.423694276 0.93302444464 22.101457773 0.37370910255 -967.76820539 -3.5549972796e-12 -1.3539821662e-12 -3.8762345249e-13 
1.4640435098e-13 1.3688846521e-13 -4.1388147385e-13 3.0945935758 7.1939909153 -11.659351244 5.2372047129e-12 1.4396171972e-11 -5.476068004e-12 
-6.8756854085 12.025751458 -1.5458351287e-12 -4.1165801237e-12 -2.09693594e-11 -93.766716799 0.83698933864 -1.2531981856 -0.042720306878 
-67.262955186 -52.708048547 -6.5778100569 2.0470673545 16.83222821 -58.878833491 -26.623161685 -4.1865968942 -0.41514392247 
65.287635824 42.03767241 -2.1107395804 -7.8460922637 -39.980164601 52.57683208 278.33296638 1198.0547058 -189.11311626 
-10.292735091 -938.7923858 -245.8870549 144.72978157 -283.21758508 60.249214215 138.78987297 -9.4368443216 -1028.7770757 
-43.537844277 -46.460308403 294.96871708 -512.59816381 188.87832514 168.01502712 -164.14753962 386.8650328 28.390347554 
41.056424841 -83.472068649 -498.01236795 29.774758171 -94.574085078 144.22339155 -1009.1858792 -0.47072276668 66.798688816 
256.7217154 -16.680895508 105.89181567 -164.80656549 650.94475232 -6.649598033 -320.47454534 165.02948836 213.88457382 
247.52843236 1166.8289758 -1065.0615543 -22.546915232 317.45745061 -43.983957366 114.0716698 -85.966172593 21.81457493 
68.844569793 -1091.9770976 735.07094436 128.32538647 -141.39578915 35.709374242 -18.560468306 -76.378303765 -143.27273903 
-193.44795675 -1.0164395367e-14 0.17905623451 45.194406643 103.77259244 -46.937303039 5.6808215976 29.104649614 -153.0545892 
-446.63524598 -1.2705494209e-15 -0.093079554798 -25.00040905 -226.51398793 -69.357340068 11.069185079 5.1807579368 -32.639968558 
121.67109337 -15.297058318 -226.56689094 -89.181402812 -56.710218848 84.217204002 736.66918609 -17.914056761 0.0053934582081 
1.5953510056 7.5474935283 238.76910069 -33.222580644 -159.35525576 148.0069666 9.1987778072e-13 -22.468162445 -71.748608865 
75.183365243 -2.940527816e-13 7.4975197654 -38.015260048 102.86803635 9.6942920813e-13 -77.174766551 0.14953397521 -196.81534843 
1.1775587014 70.306062284 137.25532109 52.575806606 -129.25327106 50.090674979 26.030508094 230.5234213 -75.154051889 
120.1466367 41.221737445 -19.604694036 -254.56162961 -132.64746004 -11.189006844 -18.717123794 52.169045854 -52.883027525 
-15.612013501 -32.901888878 0.17838726563 -7.7513487579 13.077402258 -4.2213875521 -42.809142805 0.11768478744 0.18008529737 
4.2269115147 -65.101337451 -5.4142164818 6.1179786407 -0.83135663345 2.9085083428 1045.3891837 459.20694957 31.267168588 
40.551749539 -138.03004271 -1.136506457e-12 133.24354949 -8.9967049397 -684.30927921 -4.8741028352 5.7418165117 -18.257647963 
-9.0187833059e-13 -12.187828672 13.731163083 -19.96470872 23.712879929 -2.9725562493e-14 -3.5935372787e-13 -30.823180026 -25.491267595 
-2.0212411066 -1.9603518773e-13 16.936993489 -3.1512272616e-13 -58.577463338 1.7305941904e-13 -2.8277665548e-13 21.007789829 4.526404704 
-5.4506570156e-13 41.649202966 0.036907787285 -0.015769558709 10.814163096 63.031768672 -59.174101382 26.321565269 -28.08645312 
-21.838493881 24.479402978 -6.3127340889 5.4381432245 19.569401987 -22.784967109 -0.35574500822 -1.8350331163 31.877575468 
-14.60832926 -6.2242755045 -62.358780667 -2.5036400762 4.1132108642 -6.2911921955 87.589296482 -97.558519743 20.010397218 
5.9828539135 -138.63637515 64.730016408 -41.665855742 -30.725745118 -1.0814922169 -26.945513582 -14.449735444 10.089297951 
12.065036603 -4.7890092582 -7.1560943886 -3.7999641978 3.3998098846 29.76979183 -11.874130679 4.6435212846 7.5594775752 
24.067873572 5.371738695 -37.579531172 -99.369627479 924.59008902 22.446326701 -67.083560265 904.05317644 -791.72482017 
432.45117215 -17.969058462 843.72399403 263.1867499 783.69512098 -102.36537271 212.32415051 -363.48119541 -220.15910833 
-20.348968012 79.274219623 61.67464309 309.9018447 103.5534082 94.049169111 171.67521784 -273.01593286 573.0673532 
-1429.0488437 1090.7019134 -278.26530109 -253.92482608 -19.7715946 -288.54325196 53.193843681 12.162789764 183.35878427 
-56.782267579 104.24590067 17.292988497 -208.52294461 198.99397752 -64.740729721 129.6014764 -35.7984119 29.530605416 
167.78369838 -113.00776595 64.825401914 -120.40957308 -8.5167938192 59.267135995 -43.003928634 16.930650817 217.8116351 
30.60192216 -96.265575735 37.929453981 13.486639819 -39.035353535 -88.600947946 48.095152068 312.09987457 -64.982690571 
-58.663590212 153.22313041 59.504534308 227.89651557 289.5622364 -425.92751793 31.550974683 126.44963512 -158.13215938 
-529.67905717 -24.053437749 163.90671469 365.38347836 471.75638391 166.29194648 52.277958719 -187.19748958 616.2726004 
131.28898159 49.289083079 110.55774651 -341.74050272 203.52077761 43.654276936 13.753383574 -55.349535108 5.1488812742 
-2.9214192623 -30.656378926 101.27092587 -114.08281478 -8.9130517207 2.8654409645 -1060.8354728 851.94644063 -377.53813158 
640.80694891 -22.490590516 -42.502237543 -9.4308187848 0.63616716389 115.95064191 124.46766453 -188.45917209 4.2311230861 
-20.553369813 -674.42568861 94.23238145 -33.273403316 -399.8132268 -61.323113075 -403.83930869 19.015497595 29.261932006 
358.0171596 144.75113415 -39.431930079 207.62257327 11.353034857 -114.24097534 10.738043326 -39.091415079 9.1721369922 
-55.344749478 -32.013916479 -45.655789395 114.91431002 -206.24489191 -96.464847584 514.82494892 90.682999099 35.810984907 
165.30110657 -30.68385237 9.9487054898 1.4003805201 1.3863864822 337.01224059 133.2039259 -244.28114692 228.51755756 
226.32379267 -81.148872991 -108.82832325 -4.0519582368 60.918048145 -308.72842192 -96.181007308 13.223701002 1.6368432248 
336.04042023 52.333175098 -140.62141258 -61.005565676 -23.639278909 29.533267734 70.688858314 5.9350260527 -116.00441611 
-84.877290969 138.37213445 760.15121391 34.4408763 43.979123937 -1071.5811608 -45.214994157 19.129376451 54.79461387 
-10.755485226 310.74186243 -0.24866605532 -5.8919379551 -169.9151583 -99.932233399 -207.57482404 -40.965917501 -25.681671364 
129.54595955 20.379015416 25.81534012 -13.751863259 -6.4154631534 -68.820578304 -108.49739919 171.83371441 8.9596446438 
9.5157121428 -5.1078206378 360.56340076 12.142982751 -807.25815484 -854.02487068 465.79827621 553.29131677 -975.30790485 
404.44473163 388.7366617 185.3461503 -341.01582586 226.30247383 -73.297055851 -220.97085181 -540.06290167 5.5642344066 
288.09477976 -121.45694749 -242.2643007 123.23447956 -4.5162096553 -254.75256913 25.522946518 -47.253143705 -63.05985439 
151.77251168 -32.224683462 -50.867682027 -21.066899672 38.072245298 -301.24274902 37.622238461 254.5860339 -165.07016955 
-239.37092869 -535.07096302 127.49148375 21.746005474 -76.303876142 -484.64426867 368.96417309 90.646498498 228.04413881 
242.87924185 218.08547029 -183.51427169 -53.134319773 -114.50392016 108.33398845 0.52435847638 -130.22716695 132.469237 
169.05620857 -317.25314189 -388.60627025 -53.79932998 -36.576756934 -232.05338574 18.71850537 788.68149217 2239.3908164 
-110.49534532 21.265056336 253.80580088 81.029665369 168.22151817 -23.729134892 -2.2760757768 20.074653052 83.910713544 
-2.1045925229 5.435137775 -16.123369461 -23.786381771 -5.0707197738 18.345074213 5.2544107849 20.965826159 12.656372856 
68.539232629 -7.8160934404 0.51791156135 -15.449119897 -0.26857940606 -0.85350820399 1.4499787808 9.1069079709 -3.3798874046 
-2.3239103259 50.971300867 901.61385852 196.85912279 -49.468821423 96.369362984 -297.24932439 -316.07645242 -207.49048629 
-271.01661638 -246.68451249 361.9568566 92.892452873 -150.53186403 -7.751633561 -16.748634182 -342.20441939 -40.67192107 
-38.17363564 333.34819345 -43.539710387 37.900762425 -10.856858637 242.3645957 433.89531693 129.61553694 50.233124816 
502.18876725 225.9282148 -360.61987149 -9.559709113 36.630349047 15.599410019 -25.336813141 -16.479206552 -103.34304026 
39.426964691 90.46176326 265.86548365 107.33292743 263.15753745 -28.188040404 144.30694613 -142.75818911 109.47800053 
202.91856954 140.27172868 -8.9446427874 -51.328451821 -243.61976525 61.628532844 75.678691711 5.4462183051 51.022686244 
-31.543921324 -213.11301098 -72.95866845 -49.187307415 220.08178354 -94.581240777 53.808097211 28.743034363 15.275548734 
-76.55022799 0.68162560798 40.019621571 9.2491697936 28.638716602 -11.467636805 86.199333082 98.113739421 190.59672269 
106.84187228 83.60136869 133.78666505 327.05615135 111.91976117 154.61993687 23.137189274 25.799860133 -160.77090426 
43.862122055 -4.8908493249 3.5355082678 10.328792485 19.439242187 19.899991116 306.77378111 -74.293385323 -105.62212605 
-60.550860047 12.720998993 35.745517785 -6.3613982804 1.6610631153 1.2173372311 8.2980474492 1.9522279603 4.9778898324 
-36.698194232 -122.77673741 79.651307221 72.601480277 8.2606260734 7.1824096873 1.4631349139 -0.80069450202 0.18042151651 
0.79415096608 -17.62201661 -4.1008333573 235.44025244 96.418534427 -229.05782878 55.073007523 13.208195413 -213.84512809 
-181.49293159 -114.84976639 110.39039494 -82.574610361 -42.677069162 -11.045536189 -191.12332469 -23.075583287 -13.132615188 
-222.19969685 9.7322236398 12.983966117 -8.5413620874 -22.177764217 0.79777234759 -84.073985701 -210.71365483 -174.44358408 
-89.427803655 105.2804293 -52.894655184 -488.93024668 101.62664395 -203.30938854 -88.004464557 33.855159658 -5.4174255178 
63.434824818 -36.096415697 -48.719180171 -103.29288575 102.45320611 -444.37771682 -133.82278166 37.173838458 113.22725756 
-4.4820604206 -165.15876023 314.68070402 60.971021785 3.1044156999 -11.632347846 39.2637188 -191.72660504 -52.938254267 
50.066593424 -40.619057307 19.450468761 -12.174254603 -115.38746847 156.52504424 -319.14367553 -34.386593644 -590.89345639 
-10.336121533 -53.504413085 2137.7303814 -3.0313517807 -18.766226305 84.44028969 18.455457153 167.51241661 -1.5263056562 
11.666585294 336.93981882 -137.48747599 1.7893980822 173.11476184 1.6956592829 -13.267323592 -129.31308433 -15.385335119 
6.8618134179 14.03910446 66.040194091 156.39112047 240.5059433 -3.6265955414 -26.65773962 4.2864968562 62.049194962 
-152.39736435 1215.3493264 1202.9637956 -642.77203885 -855.32107741 949.251382 -611.77315324 -467.0471216 110.94902908 
-236.99150677 -101.08634163 137.93321068 -60.032693474 -26.268676299 -163.80483367 -7.452697677 -275.8883322 -297.95687871 
-455.07656182 313.16760731 -3.6414744371 26.369775038 -36.50969921 131.43578281 -321.84945856 36.640626509 21.99309805 
32.375140937 -46.222105812 810.96154222 -8.0137557123 4.4457541078 -2.9229530204 -3.3628289055 -0.95692786362 -3.7684753247 
-3.5357207332 -14.967056757 -4.3755548759 -54.257274801 -215.6198683 -37.284369823 126.45275801 944.33808875 353.13854621 
-29.92375143 22.209198441 18.118381303 -57.628529764 760.60229952 135.86356322 -643.02967512 -754.12206643 -51.901035491 
-143.23392832 -96.241886653 -151.18220837 46.887493361 -42.28027561 -56.455202901 -17.735159486 -79.440428732 390.26207947 
308.05697249 29.084343791 58.137958863 86.333963421 170.51426977 -1981.4909177 -316.94049249 125.7180389 88.878269442 
-32.912102476 -173.13908388 -468.97882274 -15.266519599 0.47342745397 -17.76919384 -41.452005455 -7.3298141452 -3.1755358744 
38.171658624 -1.7615674674 22.986837332 -13.125166757 -21.03598113 5.2231478809 -21.020187846 -62.924025952 -874.31278735 
-226.29100513 -207.97113486 -189.86823906 333.96160308 338.30776063 175.0312547 341.34734298 -455.86289648 19.43022638 
-147.10215351 35.297547867 101.6019287 108.17659656 -0.55196726651 116.17523358 102.00291403 -92.707389518 -53.04793926 
-9.517886716 -6.2589525312 -433.13773525 -154.16558304 -371.26492475 -554.21730193 -377.51153396 -20.658327887 470.30636585 
20.605953311 -86.76846832 -40.872681262 -20.13381218 -54.827236213 -58.994207103 -102.4957336 45.039847254 -36.007766786 
-117.01888232 -132.54682985 -55.281699948 -36.28372046 180.64801715 -426.27272898 -158.33784643 -264.9281675 -157.92757153 
-134.65263989 29.676306474 96.291126031 27.951554082 26.093148152 6.6062258157 -20.782901366 -59.798334699 83.529780256 
-201.19604431 110.13989011 -45.689002691 7.9012988345 124.68497685 -21.208222907 19.902427323 86.361008407 -141.11223202 
-33.62478813 32.351837084 11.946985344 -46.68865385 -77.992750378 -139.53140263 48.349850725 -168.0044596 -254.05967436 
-23.043513608 46.885607921 -179.58982556 -3.088463643 13.28475679 255.00442752 80.532298873 -0.89138522134 -6.1919710481 
-25.027815523 -83.298697086 -52.802344032 25.05777141 89.513245062 -16.617085848 -27.284941112 -154.78475027 -12.850136534 
8.1321684838 -2.7751191239 -10.981677977 2.3153763122 -22.206642491 -9.4169980114 -92.583997334 -12.715855281 -126.00544273 
-16.826495366 -3.4588512811 1.471040283 3.1862497696 0.15203937642 2.9517346971 -3.0786669745 -31.407597213 -3.9833917008 
-103.18979225 -22.714352797 -198.5098745 -134.22130503 -138.8322749 -1.0794803604 -42.240780711 -115.48715184 -191.12982798 
19.133384568 69.396466735 1.3718668519 2.9419554847 -19.896232049 3.5096706097 5.2583879317 81.001068905 114.51903041 
91.311772459 -18.467759457 -178.46355438 591.85094651 -45.94187105 -375.26779371 -123.46312059 71.794233055 -65.048248762 
22.864534292 58.215835979 -6.0891498268 0.40987651315 1.5273518476 -53.258435553 -38.276802326 -15.371313923 -50.575146795 
63.991924017 13.603899529 7.2367054856 -36.248633194 -1008.2114991 18.481036645 -42.862092575 -8.3984728543 -65.82176704 
18.422947988 29.116381615 -93.83774025 4.1824154027 52.075226721 -1.4983551094 1.6436195247 3.6228471027 94.611048378 
-100.39061118 101.70674204 -165.07008734 -4.3814089908 274.60154352 373.11261404 102.49240826 -229.89537342 424.28199143 
30.482897915 38.029479621 73.449268783 -27.986129186 -14.623598293 953.76961001 1605.6734126 -422.94127134 -123.34526719 
-336.71255767 -15.343569752 -365.27869788 195.08636953 -5.5519280619 3.3698350393 24.054843682 42.821319966 180.66901982 
122.12496677 -80.329377274 132.42325142 96.507965811 72.796949136 -8.097932183 -410.61789737 20.497212319 -161.81095135 
-14.203038705 -394.15808486 -388.31435389 -3.4810411836 -6.4119492599 -0.25134494496 -1.0082951286 3.4061162867 -46.420194647 
1.3115407747 2.9511582394 -111.77816058 519.04813425 -554.36946177 -2.7240436849 -0.8014725856 -12.304077653 1.5709637626 
-13.598258682 11.775972215 -9.9861589562 16.504826771 9.0434532577 18.093205856 -1.2629815154 9.4039162751 71.517430551 
48.656399964 -7.1831594214 -7.9811318141 -13.431519682 14.301715889 0.24508579016 -41.48777015 -15.457376487 54.608409097 
4.0997717613 -1.1385221975 0.2676255783 -30.507204568 8.7306584837 56.099787179 -114.45158631 -74.958480765 -37.609321526 
-41.008453751 -120.86655416 -127.34926647 -88.085997437 -2.3422801876 -4.1444067981 -28.159746889 -1.2210906811 28.477386125 
89.894403703 7.2223555155 107.07800943 -44.652114882 71.065408207 58.671510558 153.24542251 405.2406382 -114.49348385 
-18.244846387 -31.427156994 -33.728011542 -2.4077382615 -7.5156665613 -224.76727398 90.939859763 -48.488145906 -124.29230802 
-3.8768620498 15.454153035 5.1504706563 16.376272307 12.971412583 12.085832427 -9.5845319849 -19.30542688 0.42311952332 
34.238870366 -47.112459512 -41.331367091 -7.805457343 -2.4912109006 -17.911927747 -2.0786015674 -6.4065523092 -7.8089221197 
-66.373995923 60.983163532 -3.0292976073 -171.74939713 -195.03548487 -179.65108334 105.19431089 -124.77174209 -290.91401595 
211.39049242 213.74401381 143.12974663 -104.1704132 73.150238657 -159.96050102 -99.398341612 162.9472461 3.2027141758 
8.6009765735 235.81029318 310.69629178 -82.675715205 12.55100225 -52.553742391 159.86438337 32.906133828 156.22611901 
-196.97589171 0.85526834444 -16.344748622 -1.5817011391 7.0140718798 1311.1413584 -2.4864849964 2.8204460656 55.745410101 
-318.76805109 -54.853523358 -47.133464625 -209.50220896 -17.629357493 159.71253374 63.432230168 -1032.3369246 2439.2696991 
-415.50933247 747.6511179 -498.08850907 -76.928883301 21.477093448 -81.247122482 -81.843402612 -22.194348112 -48.921204306 
-48.574322288 48.927014774 -174.85457023 105.5941909 -42.879303347 52.837824794 122.90554945 252.64448656 108.13180497 
-40.739400761 51.202779335 -53.494797819 -108.21617332 57.598155147 -0.071910973333 -182.36934644 -8.5288398851 154.8155818 
391.69111615 83.232468477 431.33304359 -338.06438972 28.949949772 -201.52402621 -3.6169727286 9.9943968032 -4.8080154932 
4.6367718216 -69.812720046 -6.0410808108 -0.37050705148 3.0058533133 70.626489169 -150.27357832 27.198283033 76.483090249 
134.31232546 73.641553488 103.91598686 181.49697162 351.398491 -283.72513485 -32.344538713 66.13780839 -105.9299865 
-27.778763211 -155.85714843 -131.36191224 -78.974021511 -48.392014695 228.84512964 1.211702286 103.50780187 -1.5211953618 
3.4168000034 8.6104191694 -5.1362097973 -2.4399197207 -2.76200986 2.2875742457 5.0046146906 134.19002823 -140.75052277 
102.31822522 -396.03771647 -158.72715771 -133.88327634 -294.28808984 -239.28837556 -8.7567841082 -76.398034845 68.126687932 
-13.498046255 248.68212606 -501.24685942 1.433767138 9.4871845019 49.794250434 46.942549592 -27.329009474 28.874776067 
347.57071422 -21.798812847 47.778727791 -1.8302784684 11.132040752 -106.31534018 26.510768461 -5.1941668167 69.46957731 
-36.019656599 178.73820584 19.38090857 40.935905604 -8.3388292105 -8.3630872327 -44.336195869 23.77797007 6.428820212 
-80.213206804 11.384630637 122.68946101 35.85272687 360.42896926 -254.23556699 50.740058767 -97.674603749 -15.292822617 
0.26330267177 -33.79399652 -29.013702095 161.01028526 348.38349506 15.141864063 -164.89309533 1.6257532172 -97.169787786 
-112.84394898 120.91608138 35.224324401 79.992290789 10.428000237 32.555604915 36.018991156 36.228238542 109.34364411 
7.0236083626 -111.87557877 -73.869852748 -13.691508883 33.885531298 -25.674132283 22.708900233 -30.286891526 29.533100287 
-103.8873 144.54048868 7.4594931016 118.06457405 -35.245001268 -9.9611548014 29.441681651 25.811735211 -37.53663331 
24.310336997 218.89820766 -11.917378282 -103.44009736 -98.99927175 -49.572260472 39.071275162 5.6493153015 170.12085121 
-55.126146688 -15.14271581 46.624719535 321.81931642 -174.96582984 -538.73894631 -57.870000097 57.504707174 242.55104355 
60.59966782 65.738087226 -24.569574803 64.22077642 300.78569134 -1.3788485542 104.72424306 -61.887104633 8.1714139841 
-45.327735635 -3.2686603077 -13.765929996 -486.65925175 -45.646038689 17.57591843 -216.81483007 40.064790539 -161.16949231 
-137.37133957 142.07131274 6.2565147096 -8.8312313764 -19.212169013 -15.951049884 -33.943812262 
Stress%20xz%20component 1 1420 double
-1891.4482911 -1888.7016651 1061.431867 1058.6906381 2932.905958 2919.0594116 -507.78723515 -653.47535922 -3068.0013644 
-3866.1491841 2588.4667043 3205.7491907 -2.2829946946 -100.66227345 4640.3172722 4757.5639425 2107.9847879 2026.6393533 
-5061.3014645 -5109.5787528 1.1926223897e-12 -2.1792463667e-11 -3573.5355031 -515.71578681 2569.8024306 6198.1998545 6045.1423145 
5928.9328973 5782.085819 5920.6119795 6022.07786 4656.5458011 1042.2840638 102.09722478 441.4469097 1063.7598639 
1666.0840395 -3139.5409676 -2138.6044238 598.14048892 4767.9673958 6046.9758864 5966.4744274 5776.8829592 5793.9586829 
5870.394434 5689.4317786 2554.7488883 469.8595377 209.16750472 729.17222287 1315.8097956 1575.1117126 -3377.8152142 
-554.69150393 982.49794759 6217.1020195 6127.9192065 5912.224785 5783.7880223 5894.203975 5735.6650857 4058.8176558 
988.48512338 91.378589025 392.77092648 1064.4858816 1605.9337242 -3013.878697 -2058.7802681 -180.35126518 4317.6050425 
6119.6359264 5974.6857619 5778.8681901 5794.2100468 5861.2152 5494.1233392 2227.7321888 455.78098239 218.26402491 
705.3365061 1302.4196775 1524.2778552 3505.5171671 3022.6810713 2763.5763853 2969.7982844 2936.7124624 2084.8551709 
3019.0735697 2758.826502 2962.6308025 2934.7271426 2087.6277854 -448.7519744 19.713233382 21.01566739 -103.08249633 
-89.521751513 -53.259032322 19.034486159 -33.609392823 -16.439979973 1010.7824878 106.31081637 20.520497712 -162.2330445 
-121.78580074 5.6018034588 41.461426833 -49.280510048 -66.690269031 997.94178462 -4297.2830575 -2528.8239375 -4460.134092 
-1225.7700931 -2095.3877402 -4694.8023404 -1306.4110352 4013.1705336 -501.21995162 -615.09901079 201.57317416 2887.3189436 
1500.4066066 4169.1601202 3205.8905744 1588.7670318 4614.6384439 5132.7565313 673.12096026 318.09265496 1835.2061807 
5372.5464386 5798.2181698 5445.2907076 3826.7976961 5876.3232209 5469.1379617 5661.0565522 5449.5761708 5834.8747585 
5428.8461143 3849.2725916 5919.2466399 5462.5493467 5660.4321141 -6208.0363362 912.3748026 -3764.1167712 2287.0655515 
2551.739749 -176.68485697 -2025.7770322 917.63630778 3170.0277638 1428.4080259 1203.5344715 -2941.875294 824.21163533 
1789.7389321 -126.58140143 -1647.1207099 1164.5775959 3024.1462131 939.08130205 -5536.5791675 -5725.1102446 -5454.8267029 
-4961.4007333 -3954.2206612 -5581.2777599 -5684.5423597 -5167.0751731 -5688.0188118 -5636.6188747 -5949.3069775 -6236.2863507 
-5162.2333698 -4037.8601895 -5644.7899187 -5871.7665133 -5169.5511387 -5719.0429455 1523.7159213 -2460.7450075 1285.6378853 
4568.1474997 5823.7615273 5894.7245653 5907.2188332 5852.2657149 5947.5274485 4290.2890549 369.63557147 196.1371508 
754.82335355 1359.2731936 2246.5935242 -3098.5174843 -2564.3398385 -2536.982904 -3409.6775431 -3278.2405879 1310.3026874 
1324.8575555 1633.6544911 1578.3395781 -1365.1014941 -3282.8489029 -3495.8165064 -3210.1172857 1709.8961835 386.17053917 
-425.64281339 -1429.7227632 451.44944064 5964.4985778 3646.8892719 1703.6800374 646.11943244 2815.57427 5987.9957535 
5970.8016815 6195.5932546 5856.4256016 6088.6969885 5913.60939 5956.1119565 5965.4221311 5941.863415 6013.7222073 
5778.4064239 5892.4654062 5873.0919618 5943.9826835 5854.8815991 5902.2283302 5782.3459206 5777.1573799 5779.5545015 
5784.941996 5863.2842168 5940.9208917 5910.6087444 5863.5907604 5922.9397662 5648.5216385 5089.5292491 5766.0425766 
5813.0121378 4915.7094455 1700.4428646 3183.2098692 3904.8586638 5366.7528947 2731.2008441 214.58312501 632.4896667 
1055.6872619 631.08568558 1562.2259554 331.75486767 95.812934701 63.642545025 215.85717556 115.58800391 919.42314411 
602.1896431 460.45943971 298.3788214 569.25774822 1536.0135462 1194.6269306 1086.5621251 926.17550723 1188.1599238 
1667.7805207 1531.4501167 2128.795044 3056.6910012 3016.0589904 1601.3397629 1603.1705902 2482.2215355 2481.0950553 
3013.2902879 3022.8734342 3032.6973201 3023.5317093 3001.9977372 2933.1902297 3011.3902558 2677.5662907 2916.3026993 
2997.6226947 701.4117848 305.046874 68.659661568 -56.71401348 -195.37087752 1763.6443669 1756.6121137 171.99033295 
175.00193959 99.277709268 131.07812265 86.417476475 140.83781126 38.601866002 92.639782952 71.169008845 37.136935609 
-104.08237299 -15.694876686 36.494640696 10.42412647 -13.04904214 -102.39492298 -206.05583269 -72.87619738 -107.91702812 
-148.06731174 -91.430493618 -57.362939472 -1636.0477672 -5853.1723009 -1372.9956432 -1568.3203507 -1391.6348869 -1298.1875078 
-4669.50061 -4117.148682 -6207.6012954 -6319.3651634 -3912.0518859 -580.86722305 -1521.5981623 -1703.7530199 297.33847462 
618.1479703 778.15902056 5492.7132912 4401.5825864 4895.8040531 6078.4052367 6245.9671834 1881.7269385 1783.095848 
-29.125077843 720.62682621 1829.7990701 521.96173981 -234.95997655 -271.83004881 1897.0580847 1840.6669424 5975.7117008 
6170.1900444 5678.3574865 4455.2935123 5550.7220866 5722.4737093 5631.1181772 5630.1919365 3167.5149039 3205.7679084 
4885.0043925 4945.8551821 5904.7388622 5805.7153191 5767.2563445 5713.6145208 5303.7826531 5772.7107713 5591.6894773 
5828.046671 5925.9896358 5308.8521626 5715.5248721 1728.6874021 -1877.403262 -1468.8816502 -3171.8599097 662.9842473 
1524.7357596 1403.2901605 1668.4404822 1003.8908658 -3049.404981 -2980.2114433 103.70898726 130.62630321 -995.16676268 
-2273.9277768 2137.1231573 -906.21139577 -2627.1667432 1513.1548515 -1996.1028646 -5447.4393677 -2465.4285544 2172.231994 
2624.2631978 -746.50346695 2052.9287076 1169.0276861 1287.4621252 2334.1510714 -4691.3392982 -4118.5465071 -6219.1913617 
-3800.209437 -6274.0543213 -2854.0604078 -2830.8599413 -4712.7539786 -4800.8972181 -5197.6077093 -5315.0586283 -5149.0176933 
-5563.6531471 -5863.7601937 -5880.821919 -5669.5365995 -5930.6711804 -5978.0922547 -6006.2084682 -5804.933692 -5656.1300375 
-5663.3637309 -3889.9478053 -4101.9321899 -4300.8971371 -5399.453084 -5688.7253361 -5316.1237703 -4330.6996491 464.44965729 
1647.9077047 -491.97352828 -2078.276729 5445.6115396 -319.26859204 11.940612125 510.06651124 1049.2034347 171.33485359 
-3079.3411304 -3096.2110675 3531.1721281 4489.9243046 -1556.0349149 2615.4150476 734.15967105 4707.1879599 -3750.2636324 
797.98807302 1848.3254506 336.86668574 -243.80442469 35.470561136 4520.5289205 -32.652853615 4135.2546394 5543.0834107 
-2756.4142659 -1248.895403 -1879.9824256 96.995590341 5952.1888474 -4984.6759782 -3191.9729794 394.92737799 7.3494933851 
2598.2349002 -1058.0056633 2160.1002342 2791.4157435 1239.8754651 518.16217988 5747.8730304 3580.8822175 5656.1286012 
-2239.2150092 -2672.3770652 5811.9765776 462.54000198 -3930.2378994 -3379.27699 -1299.3972371 -375.53237044 -1216.8214789 
1485.6465971 -4666.0030431 -0.95663078302 437.86327007 1372.0180425 2976.1681169 -1946.7129391 -2279.410465 -3485.5251787 
929.64191688 1516.3229476 1090.868544 2135.8659051 2053.8761219 572.91544602 -1129.0706183 -352.94784302 -158.84425542 
-267.73660411 -1188.902998 -533.88065562 1171.3126427 -3242.4540609 -4039.1530136 -3072.8021164 -1165.8303471 -3300.9239222 
4036.1350922 5430.9000439 2116.2922302 3338.2824723 4232.4614381 1918.6130673 4204.6143141 2571.3015457 5241.2329897 
5248.8252791 5821.7444336 4615.4248192 6285.694865 2096.1884495 1650.9731614 3269.5473364 -710.26132337 -3311.5834987 
-4460.3782365 2134.2496975 2324.8287362 1391.9494502 1002.3063417 -2572.8804073 -2439.8484415 -986.78992397 -1382.0443598 
901.8738714 1711.1967535 -944.08813352 -315.57815071 986.98093146 2298.6101788 3864.5396082 1630.8848103 4297.7262253 
4551.0553329 2655.4850932 4995.8468126 5178.6479678 3794.811306 5745.3814637 5762.7329601 4317.0594963 5413.5831627 
5521.6657324 5733.0848322 5697.6978121 5741.6432425 5273.9767529 5121.1264034 5274.2774989 2950.1766756 2220.4701039 
4601.5503049 4069.7583023 2763.9135908 1002.6290072 1645.9617807 253.69367765 649.92777838 293.12901848 309.98047037 
260.37771858 354.61645306 379.82045101 443.64397906 708.04924835 405.39290977 726.89933729 956.95230415 427.61564562 
500.52504724 52.316864951 17.68504348 -150.03405456 -47.036190454 12.48183163 53.083240489 83.076486753 -47.59058984 
-15.401574074 522.57374373 6281.0074863 -3558.9769993 -2375.4479904 -3158.3355788 -2638.4015176 -3827.7596808 -3188.4893375 
-1276.9336414 -248.71856579 143.1946521 -4633.0274398 4626.5751458 4208.2524854 2164.6019532 4228.4406544 4357.6423073 
2716.7761291 3897.535159 -5479.3586969 -4828.3765013 -2487.315733 -5226.0400777 -5252.9653687 -4310.6387211 -4956.7682909 
-5715.7215135 -3738.7497201 -3440.9409977 -594.82215962 -352.51460798 37.709670424 1692.9059237 1306.2539204 1755.444921 
163.38629287 -620.2210916 -1036.378284 -1575.9519648 2866.5710505 4376.1826723 3582.8749795 3878.4351346 1134.1475468 
1045.5178718 596.31259467 3106.4857172 1569.5190474 3788.803984 538.25006833 50.807957733 -104.48562406 75.699506529 
1129.3586962 -332.87115264 -670.60195873 -2717.1018947 -1605.9727105 -2592.2723366 -778.68012392 -2089.4280655 -653.39883872 
-1351.0757358 -1135.3395253 -1931.8756614 -2083.186188 -2226.3348332 -2796.0133347 -2453.9740134 5586.1308907 5205.8260803 
5407.5603494 5038.7787388 5550.0171806 5541.6656952 5695.3781574 5727.040435 96.618953139 -282.53705885 -806.78714384 
-1488.828677 -84.585638572 209.37627185 47.629189487 -1123.1204787 -414.82772836 -591.3667663 1083.0636879 1730.0628306 
1312.6553351 -1568.3232372 -936.18053257 192.93128453 256.16930094 456.142245 581.11438836 832.33339955 924.41735907 
1463.8934565 1397.8074023 2257.2948618 2318.3555289 155.59510966 234.63886456 315.03149592 64.012824738 63.952450286 
295.00195938 -2407.5920227 -3059.4736824 -3353.4286353 -2802.4975393 -3771.6307704 -3429.0241467 -2257.2728024 3407.1512344 
3049.402456 2529.4265357 4818.8551146 -894.77188379 -1651.4075485 -9.7053546879 2772.0238207 -258.4933779 -2090.5377584 
5575.4041564 -217.66952663 226.79877124 459.42682912 1162.0094223 161.80658348 -2732.9271682 -2449.9560976 3155.3661585 
4686.1187535 -1760.8005065 2839.0921038 1458.7260525 4556.235599 -3453.0814668 879.72229392 1628.4553597 348.97718424 
111.85077568 204.55341604 4065.2854068 -180.12760785 4357.3253043 5387.40547 -2997.1022457 -1412.6196298 -1767.5945994 
105.08562494 5784.717711 -4313.623752 -3269.8851709 15.167768061 394.94846819 2251.4673094 -845.27207365 2441.3441378 
2975.8900137 526.07461413 1305.4027476 5727.3251461 3591.5418018 5639.6081373 -1402.7109398 -2418.8644919 5587.3825793 
439.33171961 -3679.7506772 -3559.379651 -1440.0342486 -397.75299036 -1327.6928077 1506.8426864 -3928.1011696 -17.071622431 
444.17676536 2138.1207332 2909.9330324 -2253.3531589 -1927.1530437 -3524.8987995 1538.7452351 959.14242735 1083.4784569 
2054.7126926 2140.0603949 593.30319177 205.77920475 -1182.6209145 -261.95803665 -140.89338267 -1073.1368044 1365.825561 
-311.56010896 -4120.612295 -2728.7631443 -601.70368689 -3651.3575627 -2795.5953726 5464.1347688 4344.561964 3477.9142202 
2359.1458178 4406.3872464 3734.2977627 1713.4078307 2389.4376771 5313.5292614 5066.1805872 4238.8257953 5436.735479 
6181.8498958 1351.789109 2209.5143735 3404.4350009 -3265.9845716 -517.50291869 -4556.398416 2315.3209154 2127.6544221 
1429.0973337 992.90900786 -2731.7280816 41.015137469 48.886194253 -136.32441387 5.3586949356 -63.246640638 39.667557989 
-46.697787067 71.987343925 13.565036222 564.13305013 -1191.1297996 -2490.1987868 -1387.7494759 1502.5162312 1680.1184461 
-408.45880032 -1035.5145163 1419.3474045 3866.942507 1639.2253649 1702.7954456 4170.2929223 3800.9311428 2490.9342308 
5270.9070283 4884.1816323 3527.9336082 5758.9568855 5740.5616428 5423.3105064 4519.1074641 5422.7344745 5692.9472046 
5725.903514 5711.2827636 4924.9978558 5232.2122216 5253.1941975 3183.2930948 2954.6066133 4354.8888574 3856.8218365 
951.80159107 2394.9537206 1921.1308266 96.431356978 256.289021 636.79196912 442.03062991 360.16108854 266.83206085 
337.3932761 711.12654912 436.09419922 416.06387286 954.91856787 716.0674896 433.16493044 523.96342238 6058.6787703 
-2495.7295173 -3090.3618584 -3204.7464702 -3534.9956037 -2559.3959663 -3083.0518437 -1526.0933391 265.23980909 -420.79329323 
-4235.1590117 4192.2733352 4665.4274661 2138.2801823 4330.3351351 4298.8119044 2840.8388689 3929.2518558 -4710.8608109 
-5241.7516412 -2395.5595756 -5212.9088335 -5083.026325 -4160.835721 -6056.8849232 -3890.3681792 -3973.2946231 -2999.9948724 
-153.61632117 -299.11241974 -485.50608338 1234.2109798 1399.7533824 -135.29461031 1524.432859 -815.26542264 -705.19206861 
-1693.9542055 3937.3932433 4061.0921079 3588.3126941 3967.0674216 1790.0857575 449.39142284 979.82335119 1734.9029522 
2960.9898728 3730.5705227 -12.330117761 231.02603165 788.10181 1081.0551066 46.625468369 -746.64296487 -289.14052412 
-1601.2869861 -2801.2360564 -1957.1729752 -975.23397292 -2252.5946885 -598.85394194 -1133.7545312 -1419.4335913 -1511.8923176 
-2344.6344364 -2067.5913329 -2961.4216954 -2430.1317396 5143.5475921 5595.56932 5034.4608849 5505.7619286 5674.2086698 
5720.6018747 5759.1715076 5659.6482508 -22.039239471 127.81399298 -1750.0724363 -636.19894103 68.615499956 221.99183523 
-75.484914724 -884.4641879 -349.68132445 1693.9204941 -592.32972138 1940.0815762 982.28039575 -1083.4726029 -1365.349543 
209.90405248 192.74118095 463.87550562 843.32277699 573.62178938 908.6589464 1659.0898239 1452.1375872 2322.638919 
2634.262289 232.9344372 162.96593936 309.35686702 55.821230232 77.365628562 277.33079139 -3054.7879256 -2214.282254 
-2823.0543004 -2824.2216988 -3466.7117474 -3342.3412598 -2226.0894403 3420.9459464 3064.4684109 2648.4983771 4915.7423643 
-884.82455054 -1738.2497458 921.12632509 1477.9679981 1035.2556828 1390.725868 -1956.5622869 -1865.3421639 -1213.1575947 
-1148.924754 -1269.6382011 3506.28431 5671.1079399 3654.4174964 5538.1832508 5155.1345136 -2655.7573092 -1799.8419413 
-1035.4548564 -1382.4056597 579.25147457 492.30192788 827.10345601 4634.3914726 4657.7626756 2782.1435691 3688.2403779 
3646.8106509 252.9414557 507.68651691 -1929.2909928 -2198.15437 -1917.4010398 -711.10215709 -719.24700092 -704.9550855 
4313.5213739 4274.0689284 5604.9562048 5229.9450482 5302.4432511 5647.8831401 545.28570085 454.30507536 5111.0976926 
5442.4568108 5741.9981526 5731.1574838 5435.6297876 -5731.9241836 -4284.8825916 -5817.2031805 -5505.044493 -4952.6950911 
-4203.0461203 -1301.0236117 -46.189295651 -2030.7966356 -1450.0659306 1881.6888614 361.423436 -1483.3569482 1635.8306459 
-591.58987358 5535.2408835 2302.7672748 1358.3131624 2263.9944599 2120.7815403 2260.8997255 3314.9499995 2310.6853364 
3121.2488733 3548.8804654 4613.7792847 4552.5295515 4270.8600122 1723.7618809 4387.3248294 5787.5262576 6081.2786811 
4037.0041613 2915.071362 4256.1241897 65.496238556 26.512462701 21.641409087 -8.5537940662 49.80043126 441.29589026 
299.8024523 250.0893541 2115.6000907 2001.5416326 3279.8280227 -362.90447103 -103.62625737 -99.836506522 68.10609895 
-129.32942436 -100.62591774 -1006.6527319 300.94457832 262.29521464 482.73394488 332.28421293 4468.3872633 4600.8764395 
424.89272551 354.17741089 400.80999752 308.22296764 360.73513831 440.05350222 -645.15231226 -1649.4616823 -3536.0688003 
-21.590058583 -29.65794066 4.2803054671 5774.4490151 -197.00475626 678.41354637 444.1898945 1443.9875024 -806.90152228 
156.46999375 3042.1657328 1971.763465 2897.7860628 416.41048618 -63.160388177 459.44453833 1267.0722132 2783.223429 
4293.9413776 339.56618395 -3834.323703 -5172.2824192 3928.6022809 4276.4915835 4385.1070202 5402.7920065 5591.4093932 
-1400.5594085 -2081.3685598 -1680.5939855 -363.64027052 557.7117031 5574.0678487 -1577.2447405 -1271.7311767 1120.853174 
111.41953588 1006.82646 1006.6325936 824.90699596 453.08882832 570.06709121 -4123.3849983 -4029.1124938 -2480.4860756 
-5232.7851695 5715.5893192 1851.5148288 564.46467236 1297.7194986 1824.5607913 144.57221948 -183.84515719 2104.7553525 
3074.3271343 -251.72518623 -2728.6255341 832.88776009 546.07958949 1976.8821097 4631.9903146 3825.818063 4044.0755519 
3748.5742884 2992.350615 2623.9387402 -245.57173405 -957.44721056 4436.8498823 5526.337101 5619.4002847 -57.345331685 
20.779063021 4047.8475104 3360.2564511 474.86549655 782.07724689 2705.3472035 1405.5282409 -153.36449131 2231.5038932 
3046.6941251 57.662196264 -92.865452504 214.46519487 -286.79467787 -2167.7507313 808.94931051 396.3066503 4195.6703666 
5360.9271173 5160.8537984 4182.3186514 5048.1799342 4546.301003 3515.9630452 5363.745396 -5394.0350142 -5253.5639093 
-3609.6371238 -3643.6091888 -2597.4961808 2586.9160989 -2739.4237911 5776.3058039 2680.5927343 5413.3187897 5459.3193639 
5417.1013554 4545.7934817 5306.3392343 4357.1010926 3559.4441975 1785.2744693 1967.794443 3931.752151 5182.4166049 
5770.3177363 -2725.820104 -2105.2633367 -2945.9521305 5653.6722862 4556.5999877 3934.8824892 1593.4317209 2005.3967552 
1893.1862202 2562.0323137 2263.3191012 -682.93059086 143.85772421 -978.38493404 289.31014157 172.43391222 74.4363001 
-119.36558663 -152.60827947 195.85775808 158.43578178 239.53814235 -2481.2500463 -5213.2339603 5174.9892921 4039.6063486 
5112.5049723 706.37137727 -132.25955494 278.98464317 -1537.0612498 -1904.6243302 -19.933512064 -815.27184463 -5063.2316772 
-3605.0568478 737.12511495 4935.9544157 4688.9735537 4269.8550708 1933.4938081 536.34942715 5743.8156372 722.19703335 
606.88501922 3277.9971147 304.12038877 -39.561983902 -20.605809877 59.649553381 457.35424301 -2687.8219241 -3113.9751647 
1398.9305689 1685.3860346 -3667.3470365 514.33249607 -1941.0276862 -1054.0580625 -3459.3138 -2521.9530739 -2526.7610636 
-2328.1694649 3867.4110512 -4014.9976011 602.11200352 -3231.3686958 862.70614218 -189.47279703 -3197.5399929 -4564.2548842 
-3847.6630311 -3165.4305981 -2856.2616802 -13.532536262 -2151.3743843 -2072.3633559 -2072.1593704 -63.513724676 -2826.7343411 
-2381.9047187 -2265.1672486 -2289.9303858 -3374.7255743 -1204.591424 -1392.963801 -2128.8113429 1720.2850106 2109.8083421 
1594.0808736 3785.9146086 -4501.2040583 1373.2569849 2341.5341808 1859.4088386 5136.4292737 2277.9209704 83.727121365 
-921.52252964 -508.03113703 -1358.5415758 2450.4051384 -4428.8187441 -3621.3371263 -3417.7328492 -1604.3503309 -3841.214738 
-5597.5441969 -5369.6110904 -387.99956826 5220.849789 18.903167396 186.01648463 1044.4356062 -3361.3845992 1636.933004 
1043.6532368 2852.0586543 -1999.9823517 955.69694938 975.91172841 1206.8117155 1235.8617101 2204.3145143 2208.0696916 
-2908.5298325 2973.2929057 601.13788441 5462.9434062 5789.0049741 5778.5923225 5739.5820023 416.32106704 1123.9046775 
1137.7732659 -2859.4092122 -4009.4644926 -511.88669179 -1009.4838862 -1890.6815184 -5369.2627468 2677.6502016 -464.62988144 
1181.2780073 -1639.1738467 -1915.8428307 -3701.993052 -4527.4566512 -4206.1305458 -2371.2427031 1715.8478794 2057.316272 
475.26901206 1005.9230481 2569.9772739 -2159.762617 3868.7876073 -2750.6301257 -2433.2479985 526.27717204 3649.3186104 
1542.9551691 5759.5081312 2225.4180792 -3506.5606079 5769.7714628 -2710.0873713 -2702.1954565 -3018.7195143 -2246.8271866 
-2561.0807429 -1741.5875482 1782.4282217 1887.6779201 -618.78538992 -3351.6480439 734.31716125 
Stress%20yy%20component 1 1420 double
-17013.526391 -16991.454546 -9556.13998 -9533.1344131 3258.3067338 3256.040779 57.252142548 -62.928421934 -10015.742507 
-9827.5421059 -11013.870725 -10458.376108 8.3825956441 -449.75060799 -8050.4164829 -8085.5648417 -1827.2089393 -1761.3332586 
27174.058587 30021.148541 4.3368086899e-12 1.916869441e-10 -33772.24401 -35531.520555 -35158.22169 -34555.73237 -39900.889477 
-32800.064507 -40947.239405 -26275.23149 -16763.044287 -16353.595784 -17796.742698 -19726.123997 -20362.088345 -20014.950801 
-18601.911489 -27931.290838 -35003.64409 -31666.55312 -29596.693231 -36696.589523 -36430.940496 -49374.390961 -53436.319182 
-26125.208291 -16404.32252 -17530.569729 -18776.298227 -20119.98582 -20339.874637 -19512.979512 -16012.016931 -33541.627893 
-36364.483189 -33137.391345 -33196.402064 -34445.403668 -32283.334531 -41366.967916 -25903.679178 -16427.847078 -19822.880015 
-18395.437805 -19619.547438 -20325.532645 -20042.19117 -18519.099442 -27943.106142 -35448.385975 -34239.088528 -27432.803118 
-42383.772348 -18229.55411 -48780.29365 -42041.714676 -30326.043569 -3564.5264134 -16722.941426 -18785.378072 -20158.308309 
-20291.920505 -19443.01921 -15986.103713 8578.7921757 -5584.1096899 -10726.045126 -2588.5149016 -8230.9024413 -11589.763818 
-5589.695586 -10749.673747 -2607.6060717 -8245.5464856 -11571.471112 -650.55481612 -878.04645643 -756.90217273 -863.88637746 
-995.60022019 -762.62122344 -873.48456006 -793.86407821 -1124.2963196 223.21683281 -890.70704476 -748.51907026 -888.38827072 
-1057.8619722 -839.64737468 -865.33627514 -812.40680307 -1051.9144738 257.71353084 -15425.847556 -2385.6125804 -32368.219308 
-4026.525957 -3653.4975408 -35697.551858 -5889.5665596 -11210.556743 12555.350218 15418.680835 -1662.6420378 -1636.4343205 
-6593.619386 -25711.903404 -3143.2714795 -7373.8658856 -20896.293343 -8358.9156141 -924.19663427 128.16250112 -1765.3322066 
-5056.0349039 -5679.1378795 -5070.4130217 -3326.561039 -6394.0178182 -6106.9163155 -9259.5937974 -5063.0716777 -5704.1971783 
-4779.7434403 -3348.3212554 -6216.8630419 -5925.6555409 -8515.2488829 67167.278594 5666.3649793 -664.25124684 -8835.4884618 
-5688.2443143 12764.345655 3316.160868 -11315.353532 -755.37389848 -4466.1386466 5954.6102237 170.60880934 -8622.6796264 
-5172.3210118 12995.965493 7107.9331558 -10990.493207 -868.62934571 -4415.8615608 -23313.220159 -15975.229751 -7976.0428377 
2706.6164566 -23545.885921 -19846.808187 -11732.320643 4285.055188 22467.151316 -23420.821975 -16233.170659 -9964.6279191 
-3343.4315563 -23387.079767 -19930.053415 -12657.794492 12847.771349 27259.889615 -17505.151392 -36263.586079 -35420.898545 
-43158.112219 -50930.944311 -49984.684399 -28077.295648 -19886.773166 -24180.727627 -23752.252657 -19417.632493 -20266.369703 
-20370.744445 -19753.630196 -18411.942646 -31131.622385 -24576.482568 -24487.526364 -31528.984885 -31434.942493 -13950.157088 
-13990.806084 -17601.000803 -17560.737537 -35436.025721 -35895.108185 -33755.776819 -36165.324679 -32444.525045 -35383.334029 
-35303.802853 -35595.374896 -35896.981263 -44149.595386 -44144.57886 -33090.819527 -31192.131657 -42238.865098 -44399.670892 
-52431.936091 -37456.759109 -44688.095595 -47790.648907 -44792.484244 -52047.042199 -43400.204476 -44777.880047 -56995.186345 
-25899.942422 -32421.368162 -39725.704338 -44950.784504 -34183.658682 -24494.27887 -15563.227122 -40636.826322 -26225.226534 
-14191.852168 -24336.587383 -20573.854677 -22923.350392 -25219.90396 -21901.019282 -14703.329376 -27249.998019 -27207.420523 
-28777.020073 -28407.471781 -17806.538941 -20199.207769 -20747.764918 -14519.514651 -20901.228651 -19590.066429 -19242.606916 
-18114.963947 -19315.156668 -17921.260022 -20304.975797 -20226.385384 -19826.571908 -19449.278971 -20123.220828 -20236.750287 
-20500.637551 -20341.965237 -20267.382091 -20518.586928 -19328.580057 -19943.849198 -20092.739711 -20300.905094 -20080.271592 
-18608.936578 -19451.730549 -12772.173966 -3646.0881163 -8426.0859435 -11442.589247 -11452.948857 -11252.813921 -11277.871111 
-533.44512089 -509.8492944 -4638.1203332 -4644.8619294 -6975.5423191 -9869.6263644 -5911.5500782 -10612.322417 -9859.3076715 
-6929.5145271 -227.74316145 -746.45004131 -776.65067398 -766.0248665 -974.3076493 1771.6105311 1770.7935322 -796.87665703 
-997.39757879 -507.98112346 -423.13051743 -1180.6516521 -1142.0360556 -783.37430099 -743.43918708 -866.43301285 -735.32058404 
-769.76396671 -773.62114262 -784.65383292 -757.95770495 -751.54348144 -930.1831817 -1150.2829871 -750.01706077 -835.40914782 
-1091.4823588 -983.09916949 -771.55383925 563.47013136 -2483.70786 -729.2472027 -1381.4957623 3564.3000539 4002.5933303 
103.36243256 3811.9689212 -8031.6258301 -13943.258966 -28.767788678 -5007.5752987 -15110.844068 -12025.564081 -18115.831271 
-13350.436449 1130.5997838 455.93035257 4328.166439 1696.2026595 -540.09886979 -3344.1830761 -2879.8796976 -2542.9014301 
4440.8941423 1696.3156709 8656.7000507 -2234.8580643 -777.86082354 -734.50560677 -5308.3474257 -5378.6135837 -6109.6508444 
-6008.3727608 -5564.9721391 -4043.3237982 -7230.3726378 -10065.731207 -5010.7253669 -4895.5690523 -2560.4196917 -2780.6095736 
-4558.3439679 -4654.1186295 -5934.8896675 -6261.8627526 -4527.3223273 -5197.931579 -4678.3268531 -6580.3270668 -6358.7398834 
-6191.0384162 -5739.1882219 -4767.0060449 -5291.5847097 -3013.0333631 6297.304394 3149.7147595 -739.76948333 -6625.8495683 
-2855.8060685 -2840.8564081 -3009.6241662 -1983.743081 12308.610335 12479.250532 7831.932592 7473.2564032 4343.32925 
253.83378327 3159.1830177 3572.4452891 -893.51680711 -10664.143779 -575.42493179 -1604.7302734 274.7979832 -5942.4873809 
-8420.2955275 -8608.9235979 -10419.833469 -8929.7012447 -5376.0216858 -8163.4901242 -4617.8010028 -9720.9503325 -10052.179815 
-26150.690093 -20770.773348 -22340.927292 -22287.479038 -23829.397032 -23900.826928 2937.9306464 1311.3325923 1269.5457734 
-2093.3703656 -18181.485551 -22481.740476 -23273.579042 -22462.912479 -7058.5012039 -14043.495513 -14407.908247 -15884.309797 
-18192.408403 -4760.56441 -17161.094019 -15325.439159 -11012.385118 -6596.965713 -4432.7648493 -9673.2913395 -14937.55407 
-16823.482091 -23935.592724 -9393.0642762 -16531.653659 -9409.0740507 -5572.5531268 -9336.8117886 -27490.115273 -9952.7227326 
-11285.141841 -1411.1611943 -28080.543732 -21448.841113 -26118.359326 -9531.2002195 -16601.837753 -21934.90417 -16401.320193 
-13328.555167 -4523.7834809 -13819.191663 -30999.150845 -17985.123109 -11754.360679 -12807.910103 -26475.295895 -7131.1041334 
-6110.4102318 -15624.625326 -5147.9238345 -6325.5699247 -12174.878129 3141.5205896 -3271.7876433 -13313.30321 -6337.5815762 
-31139.163518 -10150.69222 -22984.727605 -5510.6658784 -4945.1721294 -12530.488216 -24311.387285 -20012.617186 -25026.520228 
-17364.00483 -6334.0367564 -15957.006435 -14991.516277 -20664.831625 -8837.7501873 -26676.453613 -4401.5117474 -31441.297685 
-8586.8242734 -8427.1973448 -4741.7098634 -15765.360518 -32846.752098 -22020.844427 -24906.076778 -30334.384785 -24839.672129 
-12799.621602 -11625.696642 -15403.62518 -5043.8866689 -1655.5375172 -3044.2312841 -2093.896262 -1357.7057341 -2614.5606954 
-1771.7585632 -4881.0348875 -13597.761942 -19700.484253 2010.8919631 3086.6385579 -15563.299718 -17911.584596 -25708.158282 
-1019.1857514 -6061.2915647 -11271.016022 -15450.787872 -22259.861534 -1047.9697278 -6544.2600107 -4015.2984227 -10542.289152 
-8878.0980137 -9256.0292058 -13879.414258 -7117.6881495 -2445.2330867 -2449.0476255 -4848.5109864 313.26685884 7968.0458453 
-5880.9104233 -9429.889693 -6963.2245016 -7031.8024167 -10569.097396 -9231.0495773 -31927.52587 -32623.38755 -29244.752366 
-36346.330647 -36099.804073 -32217.590845 -33632.566704 -31630.187818 -35992.2439 -33804.060785 -30408.498982 -13331.026139 
-19390.279586 -36366.088034 -31452.397977 -20239.018245 -43230.532316 -28144.999033 -26643.909627 -28955.243311 -19882.458525 
-26969.452062 -46069.832459 -24998.822908 -27153.188083 -22500.155943 -28578.624836 -23931.077213 16001.762909 -21939.491184 
-25452.825575 -25239.035302 -18364.214302 -15232.808112 -12343.950073 -13904.983301 -16808.936231 -17279.891751 -14217.567764 
-16361.387079 -17006.099481 -14604.186766 -17933.424075 -17729.432855 -14949.748572 -16495.73405 -15736.086492 -14740.595628 
-13279.416254 -3516.9150018 -3428.6107649 -5580.7866826 -2738.9727782 -2726.8088114 -5547.8018646 -3288.2900469 -3564.8359935 
-5675.821287 -5931.7849681 -12397.852402 -2306.6959226 690.42720603 -7436.2700173 -148.94310332 7067.2359983 -5453.1367119 
-4744.1893318 -4674.9494303 -4227.0571206 1842.6204093 -5745.6531021 -5119.8775314 -5393.7189711 -7054.9887139 -7290.6634342 
-7853.2536546 -11406.372791 -17602.164817 -22365.610693 -24493.068149 -7084.0215978 -16455.146641 -18496.830143 6247.6359348 
-9543.4603208 -14459.001923 -6103.4073304 -13211.359222 -13482.563188 -17928.762505 -16475.918609 -20804.143162 -16855.612039 
-14517.229607 -10629.732342 -9543.3329171 -8415.8122979 -14123.149481 -15880.083124 -16110.140267 -18714.21213 -11527.479806 
-16501.670413 -9577.0296849 -23950.231895 -15892.25463 -17034.873491 -30470.813253 -28763.578921 -24861.769581 -21616.32675 
-21050.569916 -26030.999613 -28060.032706 -23253.762009 -21683.9446 -19936.224971 -18278.442105 -20290.189105 -19853.462261 
-12475.101584 -9941.0883933 -10829.353379 -3804.815457 -10464.698725 -4315.6775601 -6470.4052009 -22233.486347 -15975.452602 
-15370.732319 -11452.465475 -15818.79216 -13081.120385 -23720.547411 -19204.779496 -11988.298359 -11720.87638 -9004.754485 
-8990.8688707 -7918.9400028 -9888.3853688 -11759.044977 -7001.3177312 -7056.0249613 -7966.0002924 -8585.7006227 -4936.4683415 
-5357.7397888 -4554.1130139 -5251.3574727 -9723.8053604 -7906.3084231 -11336.690793 -11004.908281 -7058.3286779 -8812.382519 
-26571.216246 -29032.180821 -23225.676733 -29753.844677 -8204.5139651 -11902.61133 -12816.597783 -7302.4002721 -8148.0064503 
-11701.671719 -13630.077753 -8811.4537676 -16807.593833 -9206.2262207 468.93821148 -4856.9044783 -5458.8681567 -19628.079138 
-21233.067964 -28571.853261 -16883.185236 -28915.071253 -26619.203263 -14904.685292 -17173.630365 -24563.279462 -9802.6279819 
-16230.060566 -9422.2002847 -5186.9444189 -9340.8409397 -27244.071984 -9955.6733993 -11750.594624 -1246.0251458 -29315.843356 
-21633.326358 -25724.393289 -9569.0458613 -13749.851371 -22453.652143 -16121.611243 -13314.910546 -4255.8162967 -13822.246821 
-31070.51807 -18289.58442 -11664.693458 -12772.836472 -26258.280571 -6417.8480216 -6152.7966338 -15545.665083 -5011.8963149 
-6320.634257 -12728.210145 1044.5641016 -2689.8875297 -6320.8126141 -13279.387796 -30765.285989 -10593.156586 -22960.387065 
-5803.7585732 -12550.315763 -4974.1336055 -22997.589427 -19989.312191 -24616.593073 -17161.598368 -6335.5718043 -13848.242652 
-14936.892387 -20946.62041 -9857.2522603 -26815.634884 -4391.4345446 -31592.758841 -8577.086893 -7868.635917 -4741.8940717 
-15743.028943 -32421.270247 -21922.812266 -29973.952588 -24885.917474 -24893.181266 -11654.205327 -12773.800766 -15403.560181 
-1629.2425637 -5061.7853588 -3017.3948351 259.08558056 -1288.9182219 -1907.7654954 -2595.5697881 -4948.3661984 -16271.232109 
-7350.5854855 10820.655479 3360.1846894 -26283.262142 -14447.834849 -29821.793685 -5706.0019573 5470.8691957 -17033.247543 
-15154.087999 -19548.481398 -7537.8281537 -1457.8483392 -2816.5670853 -8526.5684735 -9490.4222177 -15368.825541 -10450.723135 
-7854.9884608 -2593.1675472 -2594.9269833 -4624.7809272 10675.221436 1174.2213924 -16218.12442 -6941.4158062 -9407.9676139 
-7031.7150428 -10511.599992 -11528.183147 -3399.1572788 -3469.2255755 -5584.1855218 -2720.9500464 -2705.1319696 -5538.592906 
-3551.8968344 -3266.6415139 -5673.0385033 -5825.6130726 -32884.758523 -32066.590378 -28694.781405 -35245.446222 -36223.609765 
-33721.387672 -32247.112884 -31422.137069 -32553.218502 -33990.718415 -32722.812245 -20453.386513 -15654.352612 -37561.867836 
-6479.4954984 -21696.337434 -42871.802316 -30737.951085 -30503.169612 -30290.346598 -26166.522811 -23401.004585 -27645.613991 
-50637.854404 -20084.498365 -26932.698875 -24402.818425 -20330.943044 -28791.350935 30691.893718 -31018.665842 -23381.98328 
-15612.415385 -17348.282164 -16709.640808 -12525.144351 -17201.565881 -16711.407561 -14116.332925 -16927.844845 -16476.131385 
-14668.803276 -17735.603108 -17926.436125 -14915.351168 -15714.200349 -16451.523321 -14753.26819 -13170.981914 -10626.424316 
-1258.7644135 -1968.3969958 -5887.7268817 8019.0616664 356.08487535 -7919.3807317 -4455.4574584 -4424.8694485 -3443.3780869 
732.016762 -5288.9865151 -5839.3470301 -5288.6016042 -7005.1218758 -7577.1826837 -7860.7887484 -11858.020859 -22214.14764 
-18237.177581 -24633.807301 -15591.684368 -9658.3933106 -18029.719024 -10997.788466 10010.880496 -11034.683601 -5701.1238334 
-16918.357869 -12852.985184 -14506.105248 -20663.372383 -17537.489212 -14224.595718 -19410.107798 -10241.59828 -10123.869347 
-9508.1614586 -9516.3797918 -18385.008742 -13656.505575 -20301.439085 -8079.3895219 -8881.0018867 -14737.99921 -14630.181509 
-25990.03342 -14787.824207 -25485.90031 -26911.968888 -32378.848229 -21113.540452 -22252.706697 -27998.089361 -25783.915074 
-22463.424197 -23032.434297 -19738.289663 -18579.100482 -20839.665913 -16719.283248 -10133.268913 -15772.934349 -11753.707116 
-9651.366703 -6203.1645719 -3532.6048797 -5780.9932046 -14041.044399 -22439.663712 -11653.909122 -19771.125131 -10409.965406 
-13803.265132 -18539.968829 -28879.879902 -11971.89676 -11997.011167 -8896.5965245 -8151.5037592 -11707.603193 -9938.8490214 
-7935.4809657 -6761.3262331 -7182.516411 -9418.3897337 -8644.3720773 -4643.5869436 -5279.9401661 -4480.5223803 -4799.3631442 
-7980.7454373 -9637.0229218 -11392.903208 -7020.181621 -11034.681323 -8870.4657249 -26451.883973 -27396.181002 -28150.801714 
-20476.678652 -11936.219895 -8205.8098677 -12813.590303 -7290.7282892 -8100.1902412 -11689.018839 -11329.065911 -11770.518125 
-21000.433913 -8648.1725114 1174.1578088 -4635.4138094 -5839.2634783 -28146.695146 -19488.9402 -28137.439877 -21299.489336 
-28194.389645 -26618.874841 -8907.2242466 -8593.6679142 -10626.521689 -6880.0244178 -33603.116837 -33301.384297 -32075.467974 
-31001.760745 -33953.421382 -10790.620248 -11727.609467 -8410.3833643 -9873.338782 -12096.553237 -7354.9824341 -5358.9564516 
-7160.4461681 -8901.9524443 -11063.574572 -9330.2949008 -7097.6726387 -5815.3313366 -5704.0329748 -5457.9546471 -5324.1688315 
-5341.8022258 -7922.0059496 -5660.126151 -2188.9578684 -7121.4323593 -2731.1945931 -1043.2488178 -3276.6408111 -3261.2914305 
-13230.368325 -17535.584346 -21710.821991 -15398.001065 -25990.500996 -16281.207042 -13163.28843 -11326.747363 -15521.681322 
-14658.614899 -25242.576653 -29165.506581 -29670.520677 -9265.9985879 -9373.1873708 -8098.4387889 -4815.7133338 -2624.2568885 
946.12278707 -33863.833332 -30647.951904 -31169.933605 -29119.810119 -21025.132103 -15166.769707 -12965.002761 -18707.446906 
-18474.427915 -12957.544328 -17891.241214 -32463.419586 -8328.5532765 -6642.137178 -8399.2840241 -30313.63939 -17571.107747 
-26423.208751 -14268.137437 -18840.862464 -24675.481312 -18750.855694 -10296.848185 -17464.806623 -12541.355786 -8793.3514048 
-6152.9320135 -4865.7669314 -6651.8446991 -3510.2428644 -2763.2246674 -2782.2521175 -4741.6502692 -5541.1790497 -16796.398882 
-17111.791244 -17785.698723 -12794.773371 -11614.293115 -13169.648709 -4419.5078784 -2733.1977864 -2735.5193899 -3527.9630981 
-5527.799063 -2248.9800484 -4744.8796378 -16755.114186 -17701.699413 -14905.490013 -14605.315171 -6250.7307655 -6274.6614325 
-17016.333021 -18068.545572 -14854.936687 -16852.081847 -18038.169714 -15740.874582 -28536.087736 -26800.499207 -7759.5409574 
-2750.8208563 -2745.1271159 -2743.2244179 -9324.5991724 -33545.288338 -32866.217672 -33546.238192 -8823.9709568 -8516.3231008 
-5709.1988872 -24064.975342 -15454.439439 -21497.692483 -3077.1260025 -3413.5415396 -3056.8088656 -4865.9576456 -7647.2982264 
-7015.1820004 -13890.166919 -12604.739291 -13925.971427 -11629.698457 -11246.652404 -8363.6345075 -8601.495955 -8998.3172871 
-26706.500127 -31606.230622 -25704.122205 -7157.1422259 -12560.546253 -13313.322321 -4599.3537594 -4461.7689836 -5489.9470538 
-6343.4693907 -16044.95635 -15949.7618 -16204.756871 -17960.156608 -17936.507331 -23525.680246 -23827.863652 -24435.414418 
-20720.549918 -15232.025292 -4837.8097377 -17914.887474 -21179.775336 -17987.783203 -15031.328001 -17029.922689 -5400.5401209 
-4388.8174652 -2523.3639604 -1027.7707128 -3601.2286557 -4404.8295635 -3720.5236205 -21183.048262 -39192.140598 -31522.669465 
-38264.672622 -35724.271865 -30701.247991 -26139.504194 -11001.144728 -14170.515171 -13631.931651 -14559.865714 -3515.0274834 
-6335.2306872 -28544.421981 -34331.139219 -10052.48516 -16261.431848 -9780.6962347 -12132.025548 -12929.44112 -17783.360922 
-34068.978261 -11744.293345 -7902.9410525 -9933.9407861 -9415.8432253 -8941.0817569 -16298.280532 -13290.763798 -33630.695368 
-29789.90979 -25901.630377 -26071.519557 -29682.735985 -8500.5520367 -3001.5618551 -28630.062156 -6452.708867 -4841.1516055 
-9709.595577 -12471.762393 -10819.619849 -26728.694955 -23296.508175 -6314.6923536 -4492.1044262 -25130.323936 -24768.430564 
-26555.77396 -20178.628462 -37698.685324 -34058.509325 -29527.53499 -4582.6547499 -3572.2829279 -14643.228752 -17210.798095 
-20749.622185 -7022.4281569 -14099.513609 -16481.22881 -20767.415381 -40572.308895 -34374.545197 -32886.45607 -36141.560944 
-34815.695959 -36377.878711 -12619.604435 -9460.3330554 -12025.192402 -27425.274892 -11697.584368 -9980.2724588 -8159.2233902 
-2619.7366339 -2355.1760782 -9720.5051015 -8162.8801425 -11911.686994 -6283.149608 -14117.523507 -23877.68126 -20402.748932 
-10213.995233 -31417.379861 -27133.316783 -11474.083341 -9074.2359228 -3288.5000311 -13975.751743 -10574.511994 -20907.178518 
-21395.413181 -7476.4528803 -26542.879051 -39830.898429 -7073.4643788 -16114.405218 -11836.053279 -18933.647339 -16487.500379 
-16810.835396 -26457.56284 -12802.944059 -3637.1363795 -5621.6005147 -7291.1416021 -14731.925208 -15989.840698 -11521.357087 
-3131.1545523 -6561.7498748 -1770.1691858 -2959.9864794 -1192.2737623 -3379.8132028 -24673.047051 -25707.429774 -25658.98464 
-20008.262122 -20996.157401 -19129.889054 -16783.773896 -9260.8662734 -13418.277673 -11556.123385 -776.83724331 2779.8442497 
-1479.3632051 -3732.7215621 -5903.0135529 -3639.8747244 -29480.190972 -28352.647518 -28310.781517 -3560.5179022 -11466.848439 
873.49514668 271.60105887 -1826.0051701 -4692.622557 -12036.297268 -14090.426002 -8464.2470213 -10372.065085 -6593.1845883 
-19104.90469 -21296.592991 -5752.6908436 -31218.791085 -34735.712299 -36159.834664 -25089.537407 -23942.394402 -18764.76265 
-18630.434182 -18160.811418 -15708.723754 -24476.207524 2048.3331479 304.45380734 -16866.493257 -22605.470381 -18223.724894 
-15021.489579 -15849.475472 -12624.958066 -28285.758154 -21945.495849 -26234.950853 -22049.359895 -4244.422636 -16799.218166 
-15181.309939 -24726.189055 -6798.4503905 -14526.914565 -14583.283494 -12277.795523 -12324.747125 -4002.242785 -4002.0158881 
952.56030284 -4541.990761 -2747.9871148 -19461.930336 -28044.016308 -25613.805387 -22272.757177 -14434.54444 -2488.864934 
-2363.2294222 -832.55138081 -2141.9042768 -13524.51746 -9795.4637347 -11921.381746 -18724.535488 -3637.0451081 -24049.950095 
-27416.856915 -8698.692987 -19511.865263 3655.4636147 6097.7455874 -9370.0668238 -9223.2169215 -29711.282148 -31873.65342 
-16147.481975 -15687.875853 -2557.0598907 -4957.588783 -21040.129303 -5247.3778723 -6040.2725061 -15912.53327 -20591.149464 
-26707.652118 -37663.503935 -29882.407485 7962.7868232 -22866.538444 372.07794091 -2040.1195091 -2353.4743618 4424.8617083 
-6592.7961102 6364.5224529 -16266.812696 -2081.8909408 3263.6702728 -30475.168519 -1711.3373837 
Stress%20yz%20component 1 1420 double
-298.77233891 302.89696831 -178.70368372 179.37047836 98.061312023 -97.276412964 170.14113603 -212.1741904 1110.6025107 
-940.0775538 1035.2997241 -257.83116546 253.40907217 -245.22400547 -405.41329758 275.64669128 -182.26613359 231.78449233 
-387.60237847 381.90659594 -2.2239908821e-13 2.1955093993e-12 18.168165779 2.0716762978 320.95513314 79.479405323 7.620568484 
-23.753944717 18.560146887 35.82594732 -82.95739508 -87.799915784 -6.6523984255 -1.497334695 -8.4400281991 -2.0457165715 
-2.2510341654 7.0134328033e-13 4.2558370276 6.2678881198 92.789084294 53.806744494 4.041090758 -0.31364857878 -4.7287515487 
2.9239958539 346.26379374 5.6211223962e-13 1.0130514049e-12 6.499919079e-13 7.6910591611e-13 7.867612591e-13 1.4876280834e-12 16.782851742 
64.533271321 -159.84461248 112.90451571 33.029273686 -17.475676723 6.3014269497 -5.4827404872 -137.18086155 -370.89139725 
-16.358044384 -1.4025163721 4.7111498075 3.1286080117 11.042418117 1.7885100681e-12 -3.2865511348 4.1633725846 -123.30634223 
-40.690035139 -12.010706389 1.1714070837 0.78793992505 6.5093899893 -649.73943267 3.2610768469e-14 2.2372257719e-13 1.4291563403e-12 
5.3479542707e-13 7.7969382795e-13 2.2531076397e-13 1.885325934e-11 -22.840573655 3.9536325701 -4.9436230934e-11 -4.5389107512e-11 1.0498126348e-11 
24.423862037 -4.3509351395 1.2702106077e-11 1.3613513528e-11 3.4656353037e-11 74.080700137 -10.861311608 -7.2345803809 -16.672774816 
-48.285853627 8.0791584888 10.170818952 6.8832792614 -14.353651647 -126.36195011 1.6145523555 4.0333838771 5.6745563661 
22.520789847 -39.151043334 -19.267292176 -13.275234686 -24.898938043 86.98951154 -593.47325994 -636.50912119 3063.3512999 
-102.83999305 842.52412261 -2677.1913725 -9.9270879006 146.60390062 -898.76672458 1107.7620001 -53.025617846 -1854.2062032 
-1087.0243453 3948.0707204 2237.2778734 1230.3708222 -2443.4519079 245.18916256 94.171967834 -164.84318587 -22.709137663 
30.403131124 23.053587414 86.673818044 176.89462928 -22.532364228 -45.577098386 -49.936366716 -51.561664864 17.865117225 
-46.961265239 -162.9015981 58.047557994 81.975536312 -301.86981021 14.259861994 -157.21481299 797.91482228 37.229584325 
-460.55956215 -566.27942246 -1184.4498936 2309.1129426 -1222.0592956 405.33468 235.83193761 -991.9292358 391.04856369 
439.78259352 911.17207161 1353.6882001 -1807.9724177 1412.7829053 -427.85511709 10.385075176 115.40135713 -300.71437775 
-83.427419071 -1.5077186461e-13 2.9761543566 10.579910068 -236.20339695 -415.71831323 -15.681246409 -31.858970722 231.20782353 
80.080429459 1.6771252356e-13 -0.38130916853 1.5657112338 238.99430022 336.46150827 -6.5876348761 42.929395506 55.705332741 
-10.748507036 3.3522433058 128.51585559 -10.558354945 18.105624244 89.012814935 -437.96307875 -4.5912839439 -1.308966888 
5.206384447 11.30317112 -250.02271299 -38.766425769 -112.07548919 89.715926786 -57.743304296 1.0803325987 54.813650507 
-60.089016351 -8.315503355 6.508434276 -33.400436175 34.314879691 15.412831143 29.744001764 160.71122646 8.4847621654 
66.636564337 140.95280728 103.75856889 -75.729666586 184.44518055 214.66644285 118.39332669 -207.04046417 -68.083802742 
75.355642026 130.91423679 121.13454401 88.251550298 40.932849447 99.973905811 57.362903944 7.8832363059 165.71900071 
-26.939446669 -34.195078179 -31.018803184 29.257214139 12.265453681 10.333305843 25.336921895 27.838624702 -17.979930789 
28.018452617 -41.806317791 69.319421554 75.383473623 -50.936827787 87.697601358 -363.40106168 -570.55702803 -237.58392036 
57.307033097 -551.32929498 -10.80358305 -105.01630692 -353.12825117 269.93172341 -446.00841072 -16.507733763 28.545949787 
10.907333796 -32.938580052 -14.509478981 -9.4389475412 12.329119003 -13.332774114 6.4382573192 -15.811006996 2.0517787658 
-0.11981029822 -2.9577992223 8.2507669575 6.4087453147 27.056193385 -5.0163137168 1.3329557329 0.37425623088 9.1824016206 
7.5568828645 -8.0995680749 2.4667896302 -3.1190296171 -4.979679595 -83.657160251 86.044094704 1.4765372457e-11 1.8616090115e-11 
-30.278104861 29.601014163 -3.0493186101e-14 1.3848988688e-12 -24.022601763 11.70639271 -2.6405904329 -1.1435922036 -13.796479599 
24.977009276 -3.3310274113 1.1050412366 -11.698708504 6.627216955 6.3515544982 18.057332545 -23.507640813 -71.225875843 
42.734600984 28.568765429 -46.73108749 1.9025646462 45.918503588 -4.7465559896 -12.366944308 -3.7073122226 6.7089708836 
-1.2939580433 2.1952493767 -10.913752902 0.2353957701 -0.02866786523 -23.958883908 -5.2753151013 13.261624701 -0.73317625894 
0.48826025793 -8.986058668 44.544914947 -153.30136795 -381.39723629 76.53263401 -142.95880459 -432.08900375 271.86727013 
-1166.5652458 1035.0448295 -370.70091873 287.1503863 -224.95036803 -277.87598656 -400.20229505 -225.91630015 -330.20931951 
287.02641082 -35.943588088 -675.66403853 720.60695314 -783.34407104 -731.33397792 384.68825878 -251.12090038 453.20321324 
-552.16452018 225.6575347 -421.16892868 84.733953116 -33.729205315 50.476460344 -71.376914138 297.27314864 -138.70218475 
-30.152383481 -17.86204832 27.056451563 -160.76403358 16.933182731 -40.308310083 -126.502088 176.64460362 -116.54861969 
-52.074710753 50.080266181 -124.25009702 29.887247886 -39.432196641 60.265306067 -165.00221398 -5.4453894018 -158.69490326 
-21.47650906 68.354431052 116.65425742 -58.155888715 -68.305472496 128.7922632 -331.06493443 129.91292778 52.787528792 
-252.23226278 182.21921619 367.18141598 -745.54783816 587.65620958 -475.06996986 150.26240006 42.845861382 -75.392150422 
102.35601007 11.476843389 -77.253764123 754.24204651 -995.94822358 -497.74232791 -603.20042937 -404.97988369 517.90439645 
-720.83320105 754.43566065 -13.200040856 -188.78499168 -191.08805596 1043.7583115 -54.742320962 -346.35240854 103.98569775 
19.569613688 24.530393421 142.31223298 -132.179369 7.003590011 1.2229038176e-13 -164.29784739 199.54866516 -252.1112981 
482.94246099 25.200711355 -38.168769882 0.1874169871 35.689860358 288.62091313 -55.561118583 132.98240892 5.6065493726 
3.6438130399 492.15833758 216.12908569 -181.2234505 138.99698657 -319.76889209 304.04227651 -576.4940299 37.108584614 
-266.46366889 -95.205285231 -10.318808087 -95.04992008 -0.045922635143 38.796348326 -1.9178650922 -108.08797308 -2.8054963395 
244.32730224 -11.930392976 251.28582778 -173.18377695 -4.030649023 91.17373189 -139.01835805 -56.75500154 49.29204779 
173.75514153 52.519688774 14.85350476 183.40627464 96.135105024 43.940255863 -422.76513907 42.908534203 49.336286042 
37.995404392 4.2281903546 14.259815179 -3.1370526463 103.31421713 -96.327933892 20.164847949 0.18525332082 -6.8736336318 
-149.43413526 -34.955980233 -145.63202272 -68.198918042 10.234298393 -23.084101342 72.355660891 -78.580649548 -64.529698096 
751.76336099 -82.762914322 -383.82537453 1.5744938147 39.328879474 -255.26799278 -55.170804532 13.942803509 26.384410094 
7.6333461374 -45.215175627 0.96905174696 0.25483682818 -342.00268944 192.0109473 -233.93616989 5.6972745722 -36.047941631 
-127.77831016 -57.04504074 -5.3602678987 33.955617198 123.94693126 -56.832614735 95.771195423 -684.1913309 -22.960624335 
46.429850624 19.952988411 -8.5164163066 -461.03034282 -1597.7371234 2836.5756767 485.14870417 652.01552112 749.30983425 
1450.6530775 -1191.1196139 -142.61713723 408.30088464 -260.21582488 383.02018626 -302.35879332 -2217.4459891 -41.918711164 
96.992285408 -160.48674964 12.022517088 173.78584835 -87.511901912 305.20954579 -39.5231942 -15.05531908 -824.13363805 
-68.286471967 21.328554306 49.278252555 23.125905439 -28.453899026 -668.38294165 156.06499924 145.55008181 -58.209561091 
-66.404646907 -75.683356704 257.12134857 68.661337842 -192.98729247 46.463235614 -21.363839837 -517.01395976 300.78574164 
224.89805915 -213.87064913 14.977256613 -81.588112761 213.68832353 118.40252212 48.1136432 -13.475288329 -14.569965799 
-10.181815727 5.7933083263 -168.87775794 134.06960254 -55.49669314 158.32119633 -194.49104808 -156.61578904 859.76238651 
18.052797854 -85.087311717 307.30331762 2.7049125859 557.85577701 293.60589982 -12.913930221 12.272110436 -20.425232357 
26.493153579 32.170716343 2.4571054285 -4.9220896033 7.4558016456 9.1683469084 8.4519015911 6.6896598277 2.201875834 
-13.474210361 -15.670817533 24.554770392 -3.3617927503 11.852481424 -2.2962938547 -9.3863395158 32.783127241 -24.695493105 
-3.3121142319 -5.4073458305 -10.000669339 0.91317855808 -258.41409389 174.29868496 -236.86217444 1239.1279362 -308.11028855 
-937.86984328 -278.49367563 -362.98456887 571.56624147 -123.02764423 57.360016158 82.385876158 113.14873372 166.28374268 
-96.58677925 47.318251875 193.00549493 -56.887952838 -106.20229946 286.13529292 -211.46226222 -94.241122614 -518.03127955 
-395.98225279 579.73706113 269.92727995 70.265996906 34.382111027 56.835437545 -118.23227439 -50.270900077 -247.67865555 
-111.96788808 -22.028779238 -394.8690564 -15.702694621 -95.643949532 5.7436572888 -408.88594554 103.20724304 -127.23136362 
-373.2604372 -423.06380125 1.3852717213 -161.43026645 182.0738456 -48.674442219 -92.295354358 -75.612604962 66.827309093 
-14.379070884 17.311748355 -53.383571724 158.45149597 80.896734016 7.3692676159 -6.6919973554 -60.610768817 -2.510739417 
-21.319265677 41.469990931 -27.839601228 -34.673015976 -53.244584045 -66.044473878 -187.35347588 28.985709932 24.191095358 
-1.5964160717 -8.451309382 -30.556239935 -99.934195918 29.677736834 35.284579917 3.4746385163 32.894658148 196.79048417 
53.679512258 10.686808994 2.2557116207 -3.3569289347 37.150588248 2.7220205033 -454.08187189 -77.639765988 27.333240456 
202.26710399 -69.408473636 139.93663208 -6.8110271485 -7.326765315 -0.47609996827 -10.345928297 10.444750624 5.0080046329 
-196.53270051 -203.54713709 -204.74687896 -145.26706513 -7.9711073398 0.41931142224 -3.2096968201 0.48761831876 3.6025692495 
-9.4714153737 113.66358966 150.40767447 128.28123197 102.58186366 59.684964817 25.452914301 44.172543706 177.90173945 
42.789789427 88.015731343 118.56809787 -132.72885385 6.5406965196 143.61219157 798.45942486 21.149991474 121.68966497 
-29.147748373 14.525956649 11.589224767 10.323455858 45.086226533 1.1496432269 -59.535862147 -11.965432065 -95.041509796 
-60.239431902 71.581759248 128.86923177 600.41343674 40.270784683 -191.00829441 -43.597013551 59.385277183 -6.7747456447 
163.97207087 -3.6499480016 -240.47174845 -98.703602859 92.323227554 196.82552238 -1.7910643186 51.321610346 134.19805897 
-0.7529103602 -155.78559559 20.801905765 179.84825208 1.6424443871 -8.0735786323 238.93123063 20.61741492 65.8458152 
-7.3088205572 34.85162212 -2.8844377768 -121.14272601 -8.7318741949 4.4513908074 -53.560417507 32.80722906 175.35384296 
-34.505901402 -144.95168217 718.05593341 18.620683206 -3.712530393 26.457606399 -20.335902531 314.68133106 5.785740242 
-6.4975565145 -157.05256453 -72.673556772 4.2644937244 249.00823451 59.466082199 55.076130545 134.50885786 9.5319098735 
-113.07118411 -32.235689264 56.765849479 1003.1323431 0.0034293689052 -70.598217806 16.617870833 56.253605277 1114.553664 
680.52171611 -1822.7325291 2010.6068647 -202.83064543 -435.5458349 -192.24384659 1632.2796782 -434.339682 -15.371978569 
462.8143579 170.37802183 312.40616378 -326.58601487 2339.7987998 0.66767695464 -173.0987424 -304.08098316 56.634638027 
-213.38380792 -565.41946858 121.87745756 46.51436116 662.21071886 240.5538788 212.31695732 -35.429003303 -18.8358509 
-34.489046739 45.035284518 998.72305738 -19.826510334 19.24515047 6.0316640703 1.7103506705 -4.2925075081 3.2014025958 
17.061761631 -20.242259309 5.6284099035 27.6271731 -168.14120291 -52.05532311 41.70439439 17.352071982 -23.564278189 
43.74353473 -68.961512332 -23.455599299 68.648450479 -30.328042572 641.93253391 -228.13780399 2.1825103746 241.9034502 
-6.2234681535 -119.08068209 -167.69550702 -52.787166364 -9.9289577771 -2.0067204304 204.69405884 -93.002265944 86.736070504 
-47.28511723 -256.61653284 -31.04142805 29.965311292 167.19264217 -565.03509843 98.538935864 -138.29234374 -6.6812510753 
-1.4476042467 -315.27367287 -137.23290165 663.26050867 -5.4624540133 -15.981124896 8.9961956989 -22.670013086 -4.9248197542 
18.691445124 -18.158659675 -5.0523163168 -19.4811133 -35.092305628 -13.889683332 -6.8158510017 3.1880302084 -23.612694804 
691.06850666 -154.5588184 -1.244919656 -1050.918918 490.47150902 269.54954509 1092.0801845 171.59098576 171.26228267 
-553.7304628 -70.686584961 156.6746993 50.321167332 -113.43458833 -18.450417942 75.353123915 257.60142073 -20.401463561 
-158.97779543 0.21321563359 157.29111548 -56.601737279 -27.571253803 708.99429087 481.46148528 -326.28370397 -160.53415688 
41.842760043 89.459147006 -22.561896283 30.763678713 86.679355959 93.234947771 38.473769732 9.9262650734 86.173696903 
47.995460499 445.33672711 -427.50065912 529.97678518 269.80573367 1139.3307232 36.765867888 252.73110051 -100.80357657 
128.2320222 52.686213379 -49.791464621 78.226953342 50.485850574 -28.340244579 -3.0956707517 198.53778644 111.48876876 
146.0943883 69.071844543 -44.162775553 23.27655637 -56.905800413 37.741087223 20.245165911 43.91822271 37.407087985 
64.735802546 -37.112604225 176.79633497 36.043461913 30.28220574 -13.720946855 -13.159572386 -82.791843376 -268.78083309 
-293.7189767 -87.257793547 -176.9864283 -41.118822637 -36.765164723 -311.35796598 -533.23487564 1.5502155391 3.7254170108 
6.6989629969 -20.639075476 4.8207193508 42.453100145 -72.832039719 29.529188541 34.191897783 57.327625438 -26.771881387 
10.473312209 -0.1689005978 9.3626259765 11.000000527 15.888388955 11.845629179 109.46959145 21.425051962 168.440565 
36.547340874 -1.8039621109 -8.6376116813 -0.33618947107 4.7239091517 3.3900425144 9.2771045847 -247.45182102 -11.734196434 
23.120102579 -41.922165319 -78.516888281 -79.854007555 -14.644831139 -101.7850028 -32.210609729 19.78856236 -207.6133816 
52.745887406 -37.339552781 0.26014098901 -3.5860106573 6.9406152653 -6.0666566438 33.96028327 30.971266606 9.8344629788 
181.01100818 218.11641552 501.19487029 -1045.5693528 -534.95209844 450.64504686 -34.895935771 21.100609086 49.319463988 
47.299303044 172.51234922 1.058377416 4.5421755266 3.5521931838 -6.4699919539 -61.617427103 -91.484499643 -42.024139463 
-9.6440558191 -1.264695101 7.6202181738 43.878651875 -848.07281853 -16.305889089 -80.294897661 16.41117768 79.658240091 
-488.02206851 -112.46170036 19.331715128 6.4875946712 -93.542973646 -62.490616426 -11.733454602 3.8582644488 -84.319164118 
-232.53138293 -12.522872677 -18.854818135 -91.320231078 192.62416287 49.212182343 107.59300151 45.195508767 -812.41311169 
469.83469746 19.196877767 209.74372902 18.609382221 -60.75656271 -637.83334904 333.64065159 280.81334693 -199.31219478 
-235.31369068 -77.70470325 492.12044991 193.21590658 7.4733467558 -8.1209165138 -14.735458289 -340.42340844 -289.99120802 
-358.7169124 -43.993081187 -129.76864466 99.671239709 -139.27638432 16.182631026 -241.10504257 64.425824483 323.82931025 
124.91254503 8.90355517 -103.34953844 -7.9887668135 -2.1522925163 -8.6534098512 4.9671025659 -4.3050757935 -47.040099204 
-24.061087039 -8.3166744902 85.122603217 39.208074172 5.4945474145 6.4518266312 -3.9744031591 5.9516591658 -6.1888181261 
6.8086813359 24.171389798 38.094810756 20.726042457 10.80974147 -20.741200672 3.4004304237 -67.0235334 21.08612014 
22.695643706 -7.1325702978 -5.8930577967 -17.585238584 4.7044215148 2.400740993 -25.10126886 -37.995056817 -231.77001749 
1.8505754158 7.9119325569 2.604612013 69.040889481 100.32669792 185.98168599 35.12372671 36.716927631 -79.942998204 
56.758369215 230.96422277 -95.203902104 110.53947789 -6.2963721173 -9.8278236838 29.992353455 0.87337555042 -25.760310072 
-21.066461538 2.4553956652 -84.838245677 108.6982607 30.057898259 -90.237918312 -71.618562639 -16.300412082 -54.70879283 
-23.807832872 -29.253646527 -1.96205588 10.649826397 7.0505554003 -198.41369407 -107.22437138 -15.295038057 53.719769866 
-5.70488996 6.0742209517 -7.8750834045 -20.171332768 -4.0738764738 -6.2735944722 -3.7998876655 42.105071792 -50.655054752 
-17.358987464 -94.760651963 -11.181125282 13.766848194 85.215489918 54.047468762 83.27946098 102.49817316 11.891325407 
62.502179831 45.893299838 5.6543320288 44.753087261 -99.759670886 -8.9503363314 -17.748526266 173.53095001 -77.409741681 
-93.559047816 -80.121327443 130.75105491 172.14364715 -126.16838555 -82.632183649 -43.463227181 -208.43702659 9.1964981853 
-12.037546031 139.50550106 -36.635607639 -141.96024039 -228.42267902 40.378036102 121.34899561 -275.93186531 237.98503706 
105.77408412 -0.86102521307 10.658788966 1.0994004734 3.2998797039 814.60302366 26.960004634 1.2723102018 -137.58582248 
121.04486117 125.71602869 109.98032406 138.68628457 -28.285203449 242.57122212 16.438222552 -291.58599302 223.70205873 
126.63123175 -703.59002323 87.157887115 186.15082062 -24.143215519 180.1784127 232.45315438 -45.37402059 56.333963568 
-118.56716396 -142.20248387 -92.22489835 85.119868633 13.270163522 88.235128876 -19.24689867 -334.80661089 23.206946932 
-62.311747349 -58.492215549 -17.70606011 109.98080216 -32.946827744 -39.930692492 99.987774041 -364.96273566 -28.027941079 
-238.43695499 -83.192857269 -338.04734156 -43.919237185 -5.1455015222 97.289650867 -6.1132512674 -3.2215171295 2.7700758615 
1.1696697607 18.990941683 -3.2635931265 -4.7036596315 4.4013136751 -37.894870612 9.9597602677 64.823089532 -40.077244558 
119.68326821 65.174597592 40.375126987 -33.494119074 -342.41078861 75.266024794 45.809386401 66.967547856 -39.84368715 
-143.23487615 40.131523412 21.180857311 96.541353059 50.616810263 102.18805734 48.488560409 36.897517814 0.51363881259 
4.4902102487 124.97989076 -3.800670447 -0.45119597318 1.7491869868 0.38161403832 -3.8286342983 192.27865807 -71.549116368 
132.23784434 -42.185052066 94.166499724 94.892486599 2.7908511702 134.98661924 19.447921144 16.638441186 25.415752191 
-94.256813487 -105.5729579 27.475158872 -4.2104408166 -21.057976478 120.81771753 43.551763594 292.0884333 -412.05916991 
118.12128792 -34.31234844 -25.758771678 2.491977374 8.3029401888 -81.699736528 38.055102211 -2.0122786348 70.751687021 
-167.77622116 176.49431081 -83.121648206 145.95171173 106.77549391 9.9294050903 79.81207718 -33.883757509 8.1582836371 
-73.616791568 219.38296385 -490.04305405 -76.432185132 -167.24252662 -145.28273526 32.238582831 -26.860993842 28.446409104 
-15.077711434 -33.824359761 44.414615659 -18.51679024 523.76686527 -92.033311537 -139.0013557 115.08113296 -84.164019035 
111.62602324 -182.01306145 94.587895286 29.343566515 42.434384054 -23.895617857 16.351918719 -62.697709053 -226.32245525 
2.2505510531 -123.42783078 -23.3873663 33.828623749 -42.112383237 5.8574224386 3.6036667152 7.5221920267 -8.2534914619 
-513.00504521 29.185696061 -0.27037788149 -24.327840703 -23.232581415 15.188977561 5.8161587242 19.349366051 -23.297524501 
28.643433736 -340.56569376 68.781428282 52.15959766 -14.288282691 46.881730077 46.946850289 -11.24925969 -129.84922589 
26.552749114 12.319110833 -98.973520829 463.63211554 312.08669154 -64.680143514 -14.458950977 -94.482618117 -73.463321651 
46.321124642 93.836452983 -18.542207999 -45.613746587 35.590340663 70.75542313 15.07340955 5.8648318751 92.697603944 
-70.562307161 24.278349828 75.968474024 -614.98245993 92.473330057 92.80541066 193.97380512 -77.136347228 -198.98147334 
148.5498439 356.7952687 -1.5144004699 -7.7128988192 -37.041722176 -2.7107027802 147.30201188 
Stress%20zz%20component 1 1420 double
-18815.880721 -18818.690843 -10647.686061 -10626.461189 2896.0734049 2912.1624026 82.483261215 147.62847519 -4933.0384994 
-5097.3243565 -5351.6530124 -5429.3560863 339.80297513 319.34753954 -5028.9036239 -6804.2191541 -595.75063401 -550.96219437 
23564.135462 26476.444247 8.6736173799e-13 2.0686577451e-10 -41323.172585 -44545.250572 -43333.214853 -35582.287586 -40293.830232 
-32967.622092 -40929.759068 -25912.599133 -15235.535234 -19811.882552 -21658.867646 -24129.272123 -24921.792734 -24490.135904 
-22784.622148 -34138.244357 -42913.436699 -39499.628531 -33342.702215 -37361.837637 -36519.405411 -49469.487458 -53480.176365 
-25545.658462 -16036.565621 -21426.251892 -22948.808944 -24591.093779 -24859.846778 -23849.197182 -19570.242916 -41058.046197 
-45567.43198 -41368.669329 -34543.34755 -35029.862454 -32249.040267 -41408.114317 -25704.084653 -13772.943324 -22979.35604 
-22459.042498 -23995.346824 -24874.025406 -24518.084018 -22668.716145 -34152.685285 -43477.974232 -42108.269686 -31521.203301 
-43019.952309 -18275.830809 -48882.122613 -41997.678344 -29760.23437 -2519.6254402 -20439.150631 -22959.906532 -24637.932378 
-24801.236173 -23763.690145 -19538.571205 8578.7921757 -5529.2923131 -10716.556408 -2588.5149016 -8230.9024413 -11589.763818 
-5531.0783171 -10739.231503 -2607.6060717 -8245.5464856 -11571.471112 -540.63212785 -41.861285346 -5.3821243439 -4.7595330281 
-181.02257552 -126.49452628 -83.606739209 -8.1160347933 -179.10076399 -69.852868818 -83.805222847 -2.6465843158 -56.393279159 
-244.15157899 -130.19820366 -91.526470318 -6.916026293 -63.433584196 -21.648836235 -11883.221263 856.25065709 -29601.231532 
-2118.1873893 920.69451658 -33289.758997 -2670.1272474 -7093.1774099 17319.844775 20631.506398 -1127.471773 490.47240051 
-4363.1230754 -22185.30247 -660.06873335 -5120.1512659 -18134.133487 -5996.204869 2176.7167496 2596.3542509 -461.8380713 
-6742.0043227 -7620.417515 -7095.3997623 -3743.0921586 -8251.1988098 -8199.0627668 -9837.7030993 -6894.2698953 -7534.1111864 
-7078.3778216 -3850.5281376 -8117.718107 -8045.5872538 -8921.6500605 66794.125267 445.03460389 -2573.8071165 -154.73162427 
-494.75063721 6767.8402653 -3089.7455678 -3731.5402821 6857.1301783 -824.29231181 -531.61186286 -2087.1330929 866.40399642 
624.02816332 6496.3897163 461.96880469 -2339.6653316 7353.5422212 -825.209107 -23297.276791 -15624.60342 -7959.5239908 
-384.59202637 -23545.885921 -19734.968777 -11762.638633 4137.185376 20343.529411 -23386.158365 -15954.149846 -9648.2666503 
-5982.4213092 -23387.079767 -19822.862853 -12677.451395 12865.807482 25406.060441 -21592.943163 -45156.297675 -44140.599202 
-47956.301767 -52793.634749 -50637.978686 -27849.353389 -19778.705467 -23079.334523 -19696.603839 -23841.857487 -24850.354491 
-24966.862763 -24303.619832 -23031.195592 -38258.564557 -29699.264414 -29618.289544 -38535.425971 -38337.688738 -16902.39443 
-16947.845915 -21512.334315 -21443.975543 -44345.241343 -44099.328155 -41257.060557 -44376.427738 -40349.952137 -44317.376632 
-44246.962835 -44537.688349 -44816.904766 -46296.753599 -51397.701214 -41615.903253 -38439.679436 -49664.420709 -45130.142966 
-53608.832433 -38092.483229 -47013.890661 -49547.052316 -45253.41676 -52281.79221 -43713.899073 -46033.227568 -57509.25166 
-25873.628557 -32362.849813 -39731.009314 -44920.796658 -34160.773758 -24330.788273 -15412.866569 -40681.310854 -26181.74925 
-14192.993063 -23148.510687 -20025.322455 -22722.783143 -25066.135733 -21608.390173 -13987.596484 -25194.919491 -25288.872284 
-27496.376293 -25086.626071 -21763.547594 -25294.218332 -25321.362305 -15828.481018 -25284.395271 -23922.927254 -23456.757616 
-22140.511491 -23638.030948 -21920.610664 -24856.729345 -24770.552628 -24232.476776 -23771.340964 -24654.591594 -24783.029913 
-25048.703012 -24862.401956 -24800.821097 -25078.272912 -23733.261486 -24375.815686 -24557.79298 -24851.159991 -24524.961436 
-22744.255818 -23859.032645 -12539.915191 -3535.349057 -8303.2898779 -11594.134655 -11602.442156 -11252.813921 -11277.871111 
-565.01173759 -543.81281867 -4638.1203332 -4644.8619294 -6908.9329524 -9805.1312413 -5915.5347542 -10605.670883 -9791.8465699 
-6866.5268748 -612.60140472 -59.644415901 9.0739125715 -2.4855063187 -228.05268045 1137.7522074 1110.7254908 -421.79334353 
-651.28349035 -47.639623361 106.96117932 -364.03158715 -375.96717827 -30.168258717 57.534800395 -1.1109539189 78.773761134 
34.63775673 -23.216361153 -13.452514936 -4.0770244188 4.1605340343 -82.14370417 -328.63427912 55.31542805 28.930238328 
-202.96015265 -129.95691069 98.333959736 238.91761437 -3330.1013774 -1168.5497989 -1694.9971802 5745.4623035 6989.2012754 
2563.2656966 4897.4559246 -8593.7180016 -12745.462443 36.592178002 1507.1552681 -9645.6666431 -6430.8132462 -12171.210218 
-7392.4542212 -2247.0916505 -705.12106866 6104.0403716 4074.9758203 -3234.9479377 -5268.0973668 -2173.5681601 -2020.1328673 
3206.8615572 611.029371 2979.4421901 378.98988139 342.38983847 330.0194655 -1664.6237766 -3211.4349428 -7460.0918564 
-7784.3769236 -7969.4339923 -5028.8603706 -6683.347301 -9628.2192198 -6582.0414206 -6819.6347536 -2761.9878896 -2968.3179193 
-5815.8767513 -6023.8328974 -7735.8292877 -7870.7124574 -5923.8895431 -7264.3753291 -7344.2166418 -8427.5860564 -8723.157288 
-7808.0041982 -7675.1812921 -7437.2854474 -7301.6690938 433.80264677 1698.0296835 -1837.5563965 506.68050604 -2446.6195706 
-598.10913989 -561.87284093 1823.052064 2993.0293458 8186.3706549 7979.1614946 2477.124213 1773.2268858 -474.85484313 
-4041.9872059 -2565.7135042 -2431.4382993 642.76093201 -3250.6386843 -5438.8276883 -3022.84527 906.03441468 2297.1946463 
-3786.9626656 -2007.2615012 -2050.4669776 -1041.2933991 455.87122996 -2794.0488308 -6159.1414441 -10274.056122 -9545.5335675 
-25803.258029 -20564.760326 -22617.993466 -22551.643148 -23841.663845 -23900.826928 405.34364455 -1035.9050929 -711.89278551 
-4527.0416607 -17952.643768 -22377.491075 -23279.624903 -22359.671751 -6665.8618871 -13752.747189 -13857.796134 -15687.619065 
-18032.370608 -6247.8591013 -16902.311635 -15397.569861 -10801.328717 -6334.5502678 -6995.6143339 -12417.37471 -20827.694607 
-22100.827276 -29698.583617 -14996.976197 -13822.596155 -10600.934112 -11703.69571 -11300.365888 -33002.684478 -12391.488336 
-16275.2194 -6763.491264 -33625.207884 -24521.957334 -34026.440348 -15364.602576 -11393.184654 -18313.263136 -22077.123346 
-13349.561228 -7837.7807811 -17059.209797 -38273.174618 -23796.230583 -16585.419257 -18409.484935 -30961.322664 -9240.048655 
-11681.321624 -21250.609534 -6152.1350073 -7398.2009629 -15207.070535 -4351.9683465 -8144.7331865 -16808.52635 -7644.6537068 
-36288.810695 -15941.357193 -28229.562557 -10515.622802 -5433.5449659 -14872.681756 -24564.235308 -15122.245503 -24015.372126 
-11027.905979 -12165.083429 -12748.674893 -17740.073197 -25779.257589 -8455.4663797 -31612.79031 -4881.8956045 -39803.373791 
-9323.8301955 -11367.38648 -5398.4192457 -19710.957661 -39779.459142 -27123.609379 -28566.365052 -36842.746612 -26953.18586 
-14790.888861 -12650.233272 -18744.709014 -5078.7341886 -2008.1126681 -3038.7279453 -2940.9083041 887.7989172 -2513.6944868 
-1895.9160374 -5549.6267283 -8233.7039636 -14451.940906 1728.1569897 9156.6072928 -10056.474557 -13429.610682 -20488.063988 
4718.491807 -3570.740937 -6730.1600084 -10288.429884 -18078.486515 -2442.875151 -6356.6520581 -3110.3959625 -11625.214468 
-11548.55626 -9974.3925279 -18289.200739 -9625.7643062 -3505.4780289 -1263.9521307 -7297.8840037 -4724.9379121 2209.960016 
-10483.399948 -9742.5167156 -7175.4292322 -7635.9144428 -11900.994615 -10576.222251 -40019.091758 -41264.49231 -36215.333995 
-45241.805922 -43789.130272 -40369.807123 -41892.786074 -38537.912615 -42986.933545 -37369.845556 -35811.009289 -17606.809639 
-22970.689245 -41648.268436 -34023.288364 -22057.491757 -48250.028995 -29047.34164 -26967.988653 -32171.06116 -21729.620678 
-28118.498567 -45550.456104 -24042.331649 -26715.344486 -20214.795342 -25903.921221 -21824.894216 20057.350038 -19198.894275 
-22306.705453 -20768.569676 -20653.272921 -17002.510614 -10627.75899 -10180.975328 -20145.508838 -20920.369849 -15846.673634 
-20145.283196 -20968.496549 -17650.763137 -22195.772154 -21978.841455 -18541.500796 -20516.161467 -19603.229917 -18475.983838 
-16284.918836 -3659.2714531 -3510.6223927 -6341.4824228 -2658.2827868 -2679.5670255 -6408.058222 -3408.8155095 -3810.9004212 
-6681.715826 -6881.8656383 -11034.238883 -7552.6583688 -4495.4135709 -12406.482852 -2273.4552667 3785.583573 -10480.746347 
-7938.9098597 -9241.8463431 -4756.1302485 -3186.5284725 -9353.9184094 -8044.6620783 -9157.9030243 -10989.944057 -11344.820389 
-13515.226108 -16916.224374 -19481.555949 -24580.99498 -28940.57399 -9713.9327508 -19118.267596 -24318.886287 4214.1342925 
-10084.92623 -19623.688878 -10776.577779 -18937.443069 -19412.771267 -23905.122221 -21832.312757 -26391.531588 -21934.815746 
-20248.546923 -16403.994304 -15181.316493 -14009.750542 -19367.572777 -19765.631763 -20287.801488 -23022.313748 -17368.110258 
-21900.688903 -15326.472243 -28809.764392 -21122.37553 -21896.385224 -36405.425224 -34620.139835 -30420.921986 -27466.56996 
-26717.263345 -34182.895609 -35043.136205 -29436.708355 -28568.411705 -25078.562173 -23997.456956 -25697.802132 -25519.265654 
-18217.817325 -15591.829421 -16429.179412 -9080.0790812 -15808.077857 -9491.5250022 -12031.28351 -20652.16857 -13327.722125 
-13105.576281 -8566.9044312 -15078.451764 -11390.144073 -22357.392806 -19854.423086 -13781.733014 -12555.508787 -7757.5581731 
-9009.3732824 -9138.4638828 -12014.883515 -14000.343017 -7619.8420265 -7862.5157796 -13896.303323 -14379.551855 -10665.153018 
-10004.279416 -10758.632389 -10274.414643 -12035.044068 -9578.0433547 -14052.00132 -13143.876423 -8218.2410022 -10101.795103 
-32169.028101 -34650.971543 -28174.810177 -34831.072062 -9963.1053276 -14725.900738 -15992.395654 -8833.340366 -10004.926957 
-14650.041796 -18910.18095 -13858.832524 -21238.944657 -14610.258276 -3523.0827954 -10067.65003 -10727.295517 -25134.213266 
-26475.389077 -33904.53917 -19767.098836 -37037.461863 -33004.609539 -20555.745709 -21764.243513 -30885.459559 -15019.605718 
-14961.093651 -10659.190518 -11297.093392 -11220.086206 -33044.498324 -12425.377259 -16460.947973 -7346.4005828 -33848.848301 
-24962.062948 -34090.68804 -15673.191744 -7755.3067299 -18777.499784 -21778.47251 -13509.727845 -7453.1695001 -17061.249269 
-38481.181166 -24088.997616 -16372.688152 -18958.828854 -30233.504865 -7876.5574487 -11086.157288 -21117.198429 -5928.509402 
-7382.5016007 -14331.25006 -4982.7180264 -7564.2142739 -7606.7017684 -16710.246214 -36290.687081 -16284.298373 -28431.441546 
-10749.208459 -14778.968537 -5409.7486716 -23275.315977 -14657.865446 -22977.705944 -12076.70804 -12193.511289 -10981.725971 
-17626.775411 -25120.107216 -9869.1951982 -31581.464508 -4916.180519 -40083.962222 -9236.2230561 -10842.780386 -5395.0371017 
-19676.501144 -38925.167249 -26945.635597 -36490.111964 -28540.924152 -26999.376955 -12659.793674 -14775.44115 -18774.752955 
-1972.1198085 -5101.4161575 -3022.803031 3653.2163652 -1862.9024681 -1846.7600237 -2520.3931147 -5516.3526941 -10750.655841 
-2386.0263823 16489.786916 3147.5618144 -21604.569424 -10242.565352 -25890.565405 -3256.7836354 9853.5351337 -11925.058308 
-8965.4249657 -16191.053678 -7448.9476772 -1747.0331255 -1428.7488334 -11342.212651 -11282.268405 -19504.537206 -10892.580641 
-8615.9356613 -1322.794107 -3489.4801044 -6875.5734993 5123.2914028 -4786.4840579 -20557.124688 -7139.8287903 -9698.8303958 
-7600.617496 -11752.119683 -14141.293028 -3525.8205569 -3645.4695689 -6376.4117667 -2672.0787251 -2617.8556338 -6405.908207 
-3816.212801 -3374.0372894 -6650.4783447 -6798.8988845 -41765.956963 -40301.376033 -35558.86902 -43212.368484 -45103.138574 
-42265.575659 -40564.951606 -37891.294934 -36637.314959 -41270.343728 -38089.783843 -23729.96023 -19585.219068 -43162.288243 
-8934.0217314 -24709.085722 -46978.778576 -31177.685101 -31146.733995 -32014.788667 -30471.6869 -24793.827834 -26578.668498 
-50006.420409 -19350.14927 -24124.542317 -22236.989022 -17830.762283 -24479.059927 36945.081411 -26902.41201 -19323.376683 
-17779.4342 -19806.815842 -14119.199208 -9800.3718527 -20750.929333 -19984.290429 -15781.708281 -20880.844939 -20287.67354 
-17720.467191 -21995.425249 -22179.567956 -18515.550205 -19581.152551 -20474.204705 -18476.930282 -16193.744398 -9750.1273884 
-6589.2248734 -7176.7960311 -10477.457235 4860.7504693 -72.366051113 -12868.540995 -7624.0232694 -5398.0334564 -8265.8924978 
-4923.7643681 -8395.2549939 -9395.5582946 -8960.9104294 -11119.821648 -11565.93149 -13868.703117 -17185.896396 -24123.110888 
-20069.455639 -28679.644987 -18557.484384 -12591.546497 -23193.555014 -10602.185925 7694.2169081 -15774.65751 -11348.649799 
-22517.849671 -18555.971328 -20241.444554 -26154.740488 -22935.759641 -20015.573498 -25060.971684 -16295.950155 -15890.672257 
-15061.985493 -13103.920174 -22716.476269 -18080.861068 -24686.352055 -13581.259791 -15321.528482 -20696.073676 -20327.447342 
-30971.549265 -18812.183119 -30906.240159 -33607.757609 -38542.159665 -26711.861675 -28131.098715 -35445.544901 -34047.807503 
-28812.691466 -29064.613634 -25370.326769 -24280.699051 -26265.28957 -22565.73354 -15862.210748 -21186.131388 -17386.880216 
-14882.706231 -11785.247274 -8227.7171999 -10833.142945 -11283.534714 -20531.772063 -9089.8469284 -18562.504427 -9539.6682419 
-14088.098951 -18688.701352 -28104.985498 -12803.66484 -13776.704354 -8440.5688207 -5882.7652645 -13921.71275 -12050.178492 
-9163.1754991 -7498.4428117 -8090.6718551 -15643.687556 -14782.098704 -9996.3877382 -9790.9876043 -9494.9901043 -10952.737239 
-9619.0057313 -11870.598392 -14069.779604 -8136.6059508 -13061.276577 -10132.515205 -32109.788318 -33051.353791 -33266.99462 
-25846.562238 -14777.790676 -9953.2496627 -15968.264572 -8826.5960924 -9960.1235258 -14631.324526 -15930.836608 -17185.489456 
-26363.200195 -13638.691954 -3057.027545 -9951.8506188 -11158.563938 -32069.308798 -24296.143132 -33457.810011 -23482.780117 
-36474.040979 -33092.558029 -10204.347506 -9323.4447864 -11937.623399 -7497.0920975 -42404.952696 -41970.259795 -40389.208971 
-39448.738439 -42268.676842 -11981.649932 -11422.910009 -9436.051025 -8713.9308702 -9147.3387499 -7597.1395669 -6054.8554176 
-7911.5102203 -8963.2282824 -13165.719513 -11244.114055 -8235.7245482 -9125.0805624 -8946.1686527 -10405.895817 -7932.3620688 
-7811.1452343 -9559.6539065 -6580.1816623 -3317.6174492 -8736.6130573 -3639.0048235 -834.21174606 -3635.778776 -3459.6603806 
-10439.404516 -13735.571687 -20519.164214 -13005.210281 -23562.925905 -14991.880778 -16146.282123 -14015.781438 -12845.159096 
-12590.880498 -24394.741207 -28521.984012 -27976.188709 -10612.684422 -11901.799701 -8501.7446798 -3952.7481278 -3337.1537013 
324.32600755 -42162.973646 -37881.501635 -38402.99285 -36009.691186 -16104.169565 -8732.1894228 -7816.3237154 -13920.720785 
-12799.110275 -11344.287556 -12556.965572 -26852.341039 -8571.9035057 -6758.5749277 -8609.0235522 -26095.902385 -12421.798927 
-20562.592106 -9440.9525598 -15451.637205 -21351.5173 -15030.102872 -11105.888005 -14127.668677 -14747.669428 -10746.752527 
-5822.5084023 -4319.4830505 -5773.0285376 -3633.1739883 -2692.3863432 -2721.2069718 -5390.3657788 -6408.2796157 -20226.340108 
-20679.927672 -21579.88028 -11675.598066 -10911.274936 -12463.272926 -4916.2827184 -2616.8603465 -2646.2878134 -3667.2933376 
-6269.1201462 -2125.1619738 -5123.8026587 -20643.145516 -21503.935397 -17627.226423 -17627.96521 -10186.129143 -10144.718956 
-20535.917667 -22310.947319 -18440.128683 -20746.885128 -22269.708616 -19662.73451 -36715.810284 -33098.4171 -6840.4047208 
-2703.7000901 -2689.9879063 -2683.6591651 -10886.160133 -41859.365328 -41159.657438 -41696.266379 -14880.360132 -14709.171404 
-11837.684601 -28902.855113 -20828.259662 -26420.603428 -3154.5519321 -3689.4677041 -3109.7680374 -5376.2552493 -13496.409029 
-11234.642855 -17106.029928 -17470.739309 -16879.854829 -16798.4341 -15932.307259 -11810.07524 -11534.022668 -11413.434988 
-31555.910388 -38867.122512 -33781.149791 -8031.5327739 -14852.992073 -11079.624231 -10694.901048 -9429.5166041 -10076.668706 
-7410.9882276 -19664.173872 -19570.00327 -20198.120897 -22198.937546 -22208.371475 -25493.417303 -25790.041325 -28833.11218 
-22853.388338 -14608.217042 -10381.546085 -22191.885755 -26868.288671 -23577.725796 -20816.563499 -22778.146767 -9163.7339603 
-6266.523258 -6985.8968152 -6723.6046338 -5101.408145 -5399.3674825 -3751.4645 -17584.374008 -43643.709945 -35449.122602 
-42029.044122 -40489.686035 -35950.919202 -34415.363704 -16985.083258 -18367.657537 -11932.915591 -13585.777372 -3762.8628931 
-7624.8110349 -32293.626535 -39163.979504 -16204.188379 -22182.191407 -15753.007765 -18224.028878 -18813.012577 -22892.73855 
-38897.09457 -13969.175502 -9132.0166115 -12045.524145 -10613.035054 -11369.731809 -20287.799255 -16739.643361 -37381.711056 
-31772.421002 -28508.207526 -30188.934606 -32209.899463 -12070.410471 -5762.9955194 -26813.902527 -6989.7172359 -4359.0357255 
-7355.5417634 -9310.7482813 -7872.5879292 -31966.654312 -28837.314413 -8132.1872292 -4618.3416878 -26990.094526 -26381.009923 
-28193.91325 -23462.767534 -39768.404075 -37953.249125 -34143.897768 -7741.5895513 -3630.5811802 -18942.33207 -19047.873917 
-20929.205958 -12047.903332 -19291.65586 -21421.849922 -19437.663694 -43994.224308 -38696.561049 -39340.356227 -42201.431701 
-40683.519736 -41594.501676 -17994.741848 -8614.9025418 -13807.667166 -34718.356866 -14666.773059 -12427.197799 -10047.216353 
-2497.8633684 -2332.2754923 -12002.030935 -9916.784365 -14747.117062 -12029.232667 -16560.527981 -21118.09472 -16129.712769 
-12190.734519 -37274.299067 -33433.676392 -5581.1059761 -2918.1075296 2058.1246802 -19879.313229 -16236.368739 -22756.996511 
-25944.837764 -1474.2394438 -29462.412336 -43114.926556 -11207.571709 -18298.77921 -9554.4925463 -19216.905616 -20503.35978 
-20892.582273 -31005.910199 -15979.259861 -3931.2319274 -6602.4704838 -8818.8608355 -18423.330249 -21368.406349 -16501.78186 
2270.0285335 -667.47936387 -6303.7930581 -3863.1700188 -3181.6960997 -5192.8760145 -26775.785097 -27779.540079 -27696.765203 
-25350.500898 -16645.946526 -14595.695646 -20864.632044 -14141.286012 -13590.249031 -12325.007557 -4603.904433 -399.08926891 
-5295.345666 -8582.9993508 -10884.796683 -3921.0323679 -35912.544633 -34285.098659 -34253.220036 -3824.744043 -16724.268647 
-4456.361154 -4688.7573827 -6764.8374756 -9265.1281778 -17624.73245 -19640.846542 -13814.330369 -11239.072006 -6700.3799956 
-24606.338692 -25600.007669 -8663.3132752 -37516.601528 -42941.618986 -44499.571759 -22586.329842 -29285.600178 -24532.639683 
-24362.307164 -23895.060857 -21333.079826 -29730.662183 -871.24544758 -5365.5850519 -22434.043417 -29185.621938 -24164.271362 
-16921.470039 -17650.285125 -18371.674239 -26031.690726 -27702.625098 -31978.611839 -27803.589026 -9694.49255 -18849.723289 
-18515.74456 -29523.308998 -12202.450385 -17692.260674 -17788.075598 -13254.450368 -13291.326549 -4010.237227 -4000.2971024 
-3870.5407841 -6541.1377532 -2728.9707549 -20644.138334 -28530.738526 -26118.572319 -22451.616314 -16082.220973 -2765.3668607 
-2690.8584087 -3072.8854047 -6770.4632459 -19289.567829 -15475.376437 -17244.115828 -20994.628136 -6637.5906012 -29859.060301 
-33077.985207 -14205.592021 -25094.079854 374.2782407 2474.2277766 -12519.32379 -14538.991272 -35149.032613 -39838.664002 
-18574.50205 -17618.16319 -1606.1825945 -10362.133748 -25130.497433 -10363.53311 -11243.630907 -18507.088537 -24808.206061 
-32300.229285 -38073.213933 -35230.130092 4507.8176853 -22927.835408 -425.49731857 -5098.4565371 -7191.5740642 -998.0336503 
-9710.0366979 1235.2233703 -18297.342834 -2390.8614424 -2486.1561146 -34077.355912 159.4339352 
Equivalent%20Plastic%20Strain 1 1420 double
0 0 0 0 0 0 0 0 0.063790453985 
0.069509267661 0.11679554657 0.10650976208 0 0 0.0011143593435 0.00058798769601 0 0 
0.037263866642 0.038420261617 0 0 -5.5110644237e-06 -0.00029314952192 -0.00088791351091 0.0064322418061 0.028909627744 
0.056403879946 0.065037470656 0.0421951194 0.009316401573 -0.0013245519929 0 0 0 0 
0 0 -2.7555322119e-05 -0.00016484170415 0.0019111106974 0.016889808652 0.042519639075 0.062388848586 0.054333320222 
0.025837246337 0.0037615711627 0 0 0 0 0 0 -4.507031077e-06 
-0.00023990662359 -0.001209435117 0.0061877111721 0.031355295422 0.058116167788 0.066586835437 0.043206104825 0.007188034417 -0.0017458943314 
0 0 0 0 0 0 -3.1549217539e-05 -5.5019697633e-05 0.001682892979 
0.01812752667 0.045183949073 0.063878224071 0.055789132446 0.02472069441 0.0022631151389 0 0 0 
0 0 0 0 0 0 0 0 0 
0 0 0 0 0 0 0 0 0 
0 0 0 0 0 0 0 0 0 
0 0 0 0 0 0 0.075829113232 0.0046646835333 0.039587065647 
0 0.0044742917627 0.038651357427 0 0.12010144858 0.088083721004 0.091768243615 0 0.0052815029931 
0 0.069051648818 0.0058272294295 0 0.056724940336 0.0011885210077 0 0 0 
-4.2995350873e-05 0.0013022200182 0.0037971821596 0 0.00081695096915 0.0017645461623 0.00495100249 -5.6420623606e-05 0.0013581690085 
0.004072794333 0 0.00075200083649 0.0019025524879 0.0049027360298 0.029707487133 0.022978758962 -0.0042245348845 0.0014660952815 
-0.00017531293387 0.055389500944 0.0021886581126 -0.00025861421303 0.00023869847575 0 0.022389037584 -0.0047625906301 -0.00038161937198 
-0.00025588865276 0.056311378617 0.0027049933395 -0.00051431121997 6.2882089638e-06 0 -4.7505909168e-06 0.00082882316779 0.0015650806875 
0.0025567821681 0 0.00043925158666 0.0012392243324 0.002373590723 0.0091671565556 5.7249350869e-06 0.00075718934874 0.0018795902447 
0.0026824829887 0 0.00043694693155 0.0014065435828 0.0023229983184 0.009205274448 0 -9.3875670512e-05 -0.00039268119711 
0.0016507902851 0.015965607885 0.046699630636 0.06297162647 0.06256568604 0.023442705273 -0.0042039578532 0 0 
0 0 -3.3568400199e-06 0 0 0 0 0 0 
0 0 0 -0.0002286770467 -9.1851073729e-06 0 -7.8873043848e-06 -0.0002019067545 -0.0003497622881 
-0.0002395867926 -0.00019083547219 -0.00027927698184 0.0039719501242 6.7476664103e-05 -0.00026145815322 -6.6604621381e-05 -0.00014502852209 0.023612088352 
0.010616106216 0.0064204534406 0.0037756766742 0.010174861671 0.051886037483 0.036850637729 0.031693938089 0.024070169793 0.038011604435 
0.064409535339 0.060083719267 0.058311824498 0.053490774946 0.061938886543 0.05084888283 0.065397721455 0.066411339013 0.065667687956 
0.066429348673 0.016775719379 0.033281071029 0.042590443027 0.052385250849 0.033454499953 -0.0019408972582 0.0022094760646 0.0086281661601 
0.014897515797 0.0011824578614 0 -8.3921000498e-06 -1.4804682459e-05 -0.0026463085237 0 0 0 
0 0 0 0 0 0 0 0 0 
0 0 0 0 0 0 0 0 0 
0 0 0 0 0 0 0 0 0 
0 0 0 0 0 0 0 0 0 
0 0 0 0 0 0 0 0 0 
0 0 0 0 0 0 0 0 0 
0 0 0 0 0 0 0 0 0 
0 0 0 -0.00044907870181 0.0070302137031 0 0 -0.00046692867644 -0.0003625547164 
0.037876341084 0.034223217229 0.0080093000394 0.0082990757393 0.0040867070266 0.10526535014 0.079059032373 0.082320160427 0.11478286376 
0.11119942058 -0.004790156605 0.008100706947 0.056898005437 0.054395825467 0.010972896203 0.014577363343 0 0 
-0.0042754006129 -0.0034541818886 0.0077409427089 -0.00017510381594 0 0 -9.5929235863e-05 -0.00021246508881 0.0053563857435 
0.0005592744606 0.0019105093702 -7.7219931383e-06 0.0056136941457 0.0049565940711 0.0048743002814 0.0048765118424 0 0 
-1.5014995346e-05 -1.4409193517e-05 0.00022665201419 0.0012480049671 8.7604575487e-05 0.0015412282923 0.0021125087713 0.0014214095436 0.0028943102934 
0.0012195837031 0.00020327388834 0.0022989003069 0.0016484096183 0 0.067555131247 -0.00011618777078 -0.0053047162389 -0.00096124681053 
0 0 0 0 0.058798553101 0.058256087865 0.051360270566 0.048617311799 0.0072598431951 
-0.0041523368401 0.027362099136 0.0083010784412 -0.0040428022172 -0.00018365873813 -0.0036492538345 -0.0049739301367 -0.0049493657536 0.00057713154864 
-0.00035062586775 -0.0015198814582 0.0015801722213 -0.00063621458688 0 -0.00049051636694 0.0030269503425 0.00011432156903 0.00095941918222 
0 0.00019897671804 0 0 0 0 0.012379364577 0.012529344103 0.0044829852929 
0.0044354862729 0.00057533246063 0.00014637706509 -2.4744156712e-05 9.9707221663e-05 0.0014883582533 0.0010435610529 0.0010881964381 0.0008741447758 
0.00064384223274 0.0013497957348 0.0018882460281 0.0015313949393 0.0015776745339 0.001174421234 0.002320566673 0.0011752195987 0.016245399825 
0.009708735078 0.0090774557258 0.026052970928 0.027669409495 0 -0.00037119188919 0 0.027003835992 0 
0.03031248761 1.3108988227e-05 0.043909710141 0.035304210455 -0.00020862923171 0.00072303968001 0.031262039087 0.068789760052 -0.00047009083471 
-1.0556591297e-05 -1.7731596132e-05 0 0.001008103106 0.044699569444 0.0015034636109 0.0057461652722 0.054083758588 -0.00096836425457 
0.032549893695 0.043513888816 0 0 0.00062495428606 0.0057760866355 0.033196544078 0 0 
0.020152018501 0.013327796878 0.048081092594 -0.0002602382063 0 0 0.05968790718 0.082022165516 0.068300884528 
0.0032361309881 0.0018849844671 0.030188510016 0 -0.00055144770542 -0.001376165148 -2.5481844891e-07 0 1.6953496871e-05 
0 0.0037727810394 0 0 0.002434418286 0.037488098697 0 0 -1.0192737956e-06 
0 0 0 0 0 0 0 0 0 
0 0 0.051084949469 0.076105982346 0.0015394689209 0.024586766007 0.032921687577 0.018391953367 -9.7315523292e-06 
0.0669163517 0.015398262807 0.058085725957 0.10488965413 0.064440545438 0 -8.2179476981e-05 -0.0014659818035 0.0024170746867 
0.0034332609774 0.00024608532336 0.0016896100976 -0.00013150786643 0 0 0 0.036164805233 0.036157296207 
0.010626918682 0 0 0 0 0 3.6070384939e-05 1.3354061018e-06 0 
0.00031948317379 0.00061866001164 0.00030177061531 0.00046993653512 0.0018405705692 0.006889257387 0.012650583583 0.0095823817743 0.024450879996 
0.034601129366 0.033119473313 0.040682390186 0.052978189262 0.048507040383 0.060896322766 0.064140839045 0.052527304336 0.055017022514 
0.047725782875 0.067379487204 0.057669534216 0.065449016224 0.054380991371 0.036872117161 0.067941344692 0.020529625178 0.0091588923621 
0.037435559862 0.070881657431 0 0 0.00038974793053 3.3412737175e-05 0 0 0 
0 0 0 0 0 0 0 0 0 
0 0 0 0 0 0 0 0 0 
0 0 0.0089591684616 0.012819305284 0.022772402855 0.041360475415 0.0029562901043 0.0025075515671 0.018017104983 
0.0012725447957 3.1177892751e-06 -0.00012862244545 0.0023255023399 0.0003388065967 -0.00013184106741 0 0.0021240025336 0.0012794523168 
0.0005561036396 0.00041960990957 0.00013986213633 -6.8356214418e-05 -1.3590317275e-06 0.0012570658865 0.00077044451645 0.00013560455735 0.003177244685 
0.0031905794584 0.0019030550338 0.011581114142 0.02793116635 0.015013926956 0.028766554152 0.028882406214 0.045999874096 0.025132236588 
0.012463233399 0.009462271855 0.0041489870619 0.008280449354 0.0018623439167 0.0083430121874 0.019376749306 0.035635307409 0.0023880180888 
0.0077730122848 0.0011674355535 0.02561851193 0.018485336498 0.047825118503 0.012379380148 0.0040300722538 0.018603902274 0.032095646307 
0.040496035233 4.5581562506e-05 0.0020300090058 -0.0003971100798 0.0011128095016 0.019071852649 0.025458959111 0.0036602177695 0.043742169552 
0.03768617989 0.033390497839 0.018985861597 0.039633025759 0.027923225972 0.014694603309 0.0088258041189 0.049626868543 0.053961958434 
0.028070690505 0.054694339904 0.012064627643 0.011245238073 0.039561353554 0.026051139027 0 0 -4.7504660835e-05 
0 0 0 0 0 0 0.0011953747206 -0.00030267751563 -0.00012618875295 
0 -3.7634508052e-05 7.1240969809e-05 0 0 0 0 0 0 
0.014105977195 0.041558685825 0.039801771688 0.024532031815 0 0 0 0 0 
0 0.037855773965 0.010938502725 0.014100812653 0.038473289732 0.031487420333 0.0011541026975 0.0063649060639 0.047285176717 
0.047064175331 0.041651864764 0.0091413413933 -2.5045822828e-06 0 0.015931402729 0.010620377611 0.0069689107956 0.02628358036 
0.030876482528 0 -0.00020748617867 0 0.028471683807 0 0.036463402782 3.1016745041e-05 0.045812039533 
0.040452768817 -6.4581539043e-05 0.0006971946802 0.031543134704 0.069133680051 -0.0011948111058 0 -3.3310979406e-05 0 
0.00057218930849 0.047314429823 0.0010955722819 0.0053654203474 0.054944906535 -0.0014839006469 0.031035551951 0.042915758734 -8.4510814093e-06 
0 0.00056827889028 0.005844921276 0.033106110398 0 0 0.018851973439 0.013379491755 0.048358629713 
-0.00031869192454 0 0 0.05888867022 0.080128465229 0.065582460594 0.0051012285913 0.0017603116449 0.031809818405 
0 -0.00027222060897 -0.0020945241501 -3.2994540684e-06 0 2.5013032858e-05 0 0.0028681655785 0 
0 0.0019876513062 0.035755250443 0 0 -1.3259415137e-05 0 0 0 
0 0 0 -5.4932029161e-05 0 0 0 0 0.072856595265 
0.052722068599 0.024989949462 0.001362428725 0.021897503142 0.03497738193 -0.00035551296381 0.016669044823 0.06242902744 0.1007398307 
0.054229423779 0.070152093047 -0.00010714372807 0 -0.0015370515559 0.0036101225091 0.0017950546556 0.0017518962639 0.00023027649255 
-0.0006749410379 0 0 0 0.037087840119 0.034808106753 0.011486011783 0 0 
0 0 9.5875946276e-05 0 0 0 0 0 0 
0 0 0 0 3.7259057453e-05 4.1298461918e-05 0 0.0002529348467 0.00023319051935 
0.00059580684052 0.0003252054698 0.0019444579585 0.01300097267 0.007104395919 0.0090520924574 0.036424504068 0.024137743864 0.031322157979 
0.054996200566 0.044028262772 0.050983800328 0.064373650856 0.060271107812 0.051962994669 0.052344299959 0.048532616859 0.057464402176 
0.06711335671 0.064888203102 0.037220152968 0.055079708217 0.067105646894 0.008755328428 0.01774214431 0.036898739848 0.072320917191 
0 0 0.00096315655882 0 0 0 0 0 0 
0 0 0 0 0 0 0 0 0.0080157286838 
0.022853618189 0.01283646474 0.040099335434 0.0025966360567 0.0029886572506 0.017996185194 0.001484625194 -0.00013877554695 -6.2521701668e-06 
0.0023976831608 -0.00013425701088 0.00034999841791 0 0.0012699792922 0.002196768756 0.00042524809889 0.00035036674299 -6.3557081257e-05 
0.00017901158933 -8.8733678099e-07 0.00060135122228 0.0014180513282 7.6906731768e-05 0.0030925373426 0.0032372716881 0.0012195032291 0.01180898632 
0.028939620743 0.014520608364 0.027785334258 0.047089586699 0.02912063156 0.01238954373 0.024972571403 0.0041726421764 0.0090341417895 
0.0079594045171 0.021152862988 0.0097233826526 0.0023780962017 0.033861880919 0.0020511768088 0.0014812945334 0.0080751278288 0.018212000768 
0.023464300579 0.044082234222 0.019291078636 0.0031171257119 0.012571393303 0.040606281921 0.031950872965 0.0016692592552 2.5535450839e-05 
0.00096777103894 -0.00019068748887 0.0031323641073 0.025945920699 0.018628760648 0.044476468429 0.034393909054 0.037192954528 0.018690426002 
0.029055864241 0.03816097372 0.013885861407 0.0087059423835 0.054194034767 0.048998105058 0.055431832522 0.030601140863 0.011044246825 
0.01251013728 0.025833715427 0.041812179749 0 0 0 0 0 0 
0 0 0 0.00015673789127 0.0016930652443 -9.8509433197e-05 -5.1465612375e-05 0.0001012273024 0.00012337516795 
0 0 0 0 0 0 0.014715368532 0.042884377831 0.023910783666 
0.03840434668 0 0 0 0 0 0 0.012128724681 0.039910371079 
0.014442839028 0.038289174232 0.038142522108 0.001088597209 0.0066273830855 0.046572876618 0.04888110731 0.040749099936 0.0096025574723 
-6.0787354957e-07 0 0 0 0 0 -7.2110460997e-06 -1.5283708674e-05 -2.5196324106e-05 
0.00014734768867 0.00037476722741 0.0094050748158 0.022493344907 0.0091032219078 0.027334296663 0.03335809139 0 0 
0 0 0 0 0 5.8219742239e-05 6.1915009135e-05 -0.0002114363126 -1.383523119e-05 
-1.143166605e-05 0 0 0 -0.0006503907065 -1.8310676387e-05 0 0 0 
0.046444000573 0.067596247388 0.050305031347 0.054076159041 0.065762435066 0.065274981033 0 0 0.054250039623 
0.026790293556 0.064155811834 0.065494413739 0.062072406952 0.0026360770417 0.003471033895 0.0027303693213 0.0035190649579 0.0021335755151 
0.0016797980417 0.00054193565343 0.00085006926041 0 0 0.012193390545 0.0018666560391 0.0043488908945 0.0034402496112 
0.022411024593 0.029271249219 0.011667334586 0.02992235976 0 0 0 0.034225883812 0.055336504563 
0.03307229988 0.082308420936 0.042940422505 0.044083674158 0.03682090848 0 0.052475470471 0.0006983890932 -0.00060101882775 
0.00046747720044 -0.00016886689406 0.00050466015695 0 0 0 0 0 0 
0 0 2.9294404223e-05 -6.7136800398e-06 -8.0400430792e-06 0 0 0 0 
0 0 0 0 0 0 0 0.00061963408156 0.00064239632257 
0 0 0 0 0 0 -7.5203471359e-06 0 -0.0006109757864 
0 0 0 3.7108121411e-05 0.00058131490422 0.00057333479799 0.00054512276193 -2.0600988336e-05 0.0015515299805 
-0.00025441690681 0.024444961222 0.018543579883 0.036083112741 0 0 0 0 0.00053516997022 
0.0017045461651 0 0.0016712435852 0.0008443894766 0.00037265479175 0.0011951303388 0.0028911483673 0.0038904818346 0.0033474025999 
0 0 -8.9439288425e-05 0 0 0.0086788238725 0.00010940803406 8.8012434652e-05 -6.0485421314e-06 
0 0 0 0 0 0 3.5579912544e-06 3.4097498948e-05 0 
1.1930698045e-05 0.064279395734 -0.00010124467814 0 0.04694674504 0.029422517504 0.016101690594 0.029028729867 0 
0 -1.0786429204e-05 5.1159111609e-05 0 0 0 0.068986858582 0.017042227917 0.028803039623 
0.01765421373 0.03430024115 0.019742148546 -0.00013116924382 0.0042265606374 0.0016578424211 0.011049969982 0.013006547116 0 
0 0.012374301196 0.0091212630746 0.001494712424 0.0072138985423 0.00068041769813 0.0024337440687 0.0055032586924 0.010253609411 
0.0095535977934 0 0 0 0 -0.00070043914825 0 0 0.051893776685 
0.050004548324 0.051219889394 0.055894036976 0.047334780009 0.002816324262 -0.0015771552869 0.06272739055 0.0022328155773 0.0021452732971 
0.0036695950908 0.005866960797 0.00068175824309 0.039639909964 -0.00018266805637 -0.0013406980308 -8.0375145628e-05 0.051894433281 0.05496388401 
0.056442689511 0.038125708829 0.050541042821 0.029446920826 0.045466194464 -6.2445137239e-06 0 0.00885010792 0.0097986154714 
0.065633539644 0.038816998939 0.041588354782 0.033157242029 0.040578580129 0.037102319369 0.049394462956 0.0023938856408 0.0019564433372 
0.0025616393126 0.0094008674699 0.0023314398329 0 0 0.0014958868594 0 0 0 
0 0 0 0 0 0.0019109643628 0.00090987263718 0.044351812358 0.073179541568 
0.0019711180578 0.012187775323 0.003966842983 0.067763978216 0.047875133055 0.053315012079 0.012527991876 0.0091961502623 2.907745908e-05 
-0.0002816757518 0.069517398686 0.043063161274 0.037272998733 0.001743063936 0 5.1804602975e-05 0.026214734128 0 
0 0.04637001774 0 0 0 0 0 0.01344008483 0.011381353352 
0.10318738345 0.097276505661 0.034895748966 0 -0.00063279923649 -0.00028170497646 -1.7259660595e-05 0 0 
0.018891911454 0.10106105598 0.038520196216 0 0.040981062304 0 0 0.011500250256 0.0012926730397 
0.01104806217 0.017664859221 0.031738875549 0 0 0 0 0 0.011393154638 
0.023169241377 0.016319723222 0.024483759188 0.032994297697 0.033052643023 0.037139350862 0.026057171048 0 0 
0.025230431373 0.045718898696 0.0097475202632 0.0021789878836 0.00021257804626 0.00030792000137 0.045848385283 0.047994119605 0.045815291853 
0.025490455312 0.044716242859 0.043043629312 0.039502650126 0.0016512961356 0.0064588162827 -0.0010280979425 0.00093973541143 2.3739963119e-05 
0.00034294908871 0.00042231684505 0.014853054357 0.055141870395 0.032181088155 0.019858272897 0.040574477718 0.001119955194 0 
0 0.047837550935 0.038897768875 0 0 0 0 0 0 
0.016555474571 0 0 0.046882983764 0.061865696279 0.062830649204 0.058532168924 0 0 
0 0.0018287621772 0.0028849562845 0.027729450483 0.013359090343 0.018553369069 0.00015762972852 -0.0011824876785 0.0082592257496 
0.028056910174 0.0082513164381 0.0034414256556 0.013953094981 0.010897430881 0.0092629314794 0.027839133581 0.014118023876 0.00037998817353 
0 0 0 0.0064600492389 0.034546605385 0.014442717361 0.0087809755673 0 0.019174495565 
0.042293318118 0.062793643033 0.024572489213 0.013140775364 0.065882223809 0.0025524923843 0.0013949537748 0.012900254588 0.051597254352 
0.033498060089 0.051375219196 0 0 0.036039668354 0 0 
von%20Mises%20Stress 1 1420 double
3863.5538491 3856.427012 2167.5405624 2162.2531942 5305.2361749 5277.4743054 952.17569417 1268.458648 9705.3850423 
9956.2889713 9815.5342924 9855.7960499 1355.5321175 1828.7080586 10177.658629 9146.6424862 4446.6221743 4327.0506896 
9732.3502227 9801.9773799 4.5079740729e-12 4.2956327271e-11 9772.9538215 9264.5778689 9833.0755254 10880.402086 10493.566472 
10271.134001 10014.993339 10265.879367 10784.127728 8614.1892989 4222.8196074 4403.5561505 4637.8658328 4852.4289555 
5102.1112998 8252.0557714 8743.9855925 7955.5510855 9667.2820142 10533.633309 10336.795808 10006.339304 10035.632537 
10216.431155 10589.347637 5895.4698841 4251.1351001 4485.7618666 4693.1039357 4898.6579725 4483.7376016 9527.7096821 
9418.3996834 8942.9716253 10992.320228 10649.207642 10240.443617 10017.895276 10214.358493 10600.591969 7623.1324513 
4385.9549071 4386.6494879 4614.9368121 4849.2743488 5002.0471092 8112.2911393 8795.4579241 7879.8402204 9393.5007658 
10676.170387 10349.437943 10009.86596 10036.201088 10213.758371 10291.167895 5357.1058395 4248.5170093 4495.5477253 
4671.8761276 4874.1243707 4426.0924324 6363.9873417 5400.4142718 5353.6925549 5175.9047485 5405.4054805 4435.4345129 
5396.1132423 5349.3426067 5164.0417308 5403.2724811 4436.9880354 867.06291069 1571.4935326 1444.02382 1626.8248969 
1677.212297 1344.3150219 1514.4234342 1489.8425078 1795.1857717 1847.5158946 1628.6277254 1433.5022627 1647.9786676 
1689.8403197 1510.9261436 1541.2270724 1540.1367042 1802.0280795 1819.6670098 9646.7753527 6274.6997935 9732.8729307 
3446.2601069 6520.0839881 9765.6823156 4565.9221741 9710.4398517 9873.0929176 9924.0714447 1311.3082864 6475.3354373 
5313.8348762 10482.69989 7128.1918108 5367.5595495 9698.2347013 10331.871343 5097.0427035 4346.6666151 4110.1294605 
9519.6868103 10373.007477 10223.76736 6645.3506887 10405.572299 10185.606072 9992.9650482 9689.7508697 10412.502332 
10168.633858 6687.8215928 10494.683407 10188.831855 9912.5969546 10880.127233 10163.408373 7393.6581906 16199.096544 
11519.312673 9604.0761552 10332.963305 13888.841588 14588.827867 7433.9134005 10370.789717 6383.637773 15896.462679 
11628.28395 9665.831652 10332.864637 15313.61189 15333.255812 6529.7845683 10919.118838 10295.101129 9569.2830903 
10024.082541 8618.9206218 10363.521279 9976.7628717 9036.0108545 10260.278302 11067.79595 10668.04163 10937.289898 
10158.348676 8713.3858448 10470.799273 10313.961901 9389.6310077 10288.168055 4972.5838857 10248.974802 9191.1926754 
10430.859392 10588.769461 10277.667833 10237.658869 10140.295316 10445.90741 10046.321589 4562.9180702 4652.3861814 
4826.1954641 5214.4787964 6157.238926 9115.570197 6685.8541962 6663.5960348 9163.9468788 8944.705671 3675.1326755 
3690.9098927 4827.547853 4745.6852788 9497.8069504 10086.738918 9640.1332729 9995.6419228 8729.7793255 9113.274596 
9138.6658364 9497.2146049 9057.0536612 10689.78105 10286.728726 9159.6126561 7342.3252312 9884.7820073 10464.173707 
10604.33228 10786.827975 10662.920778 10855.744263 10262.170924 10326.102012 10346.779478 10477.698501 10447.496725 
10008.977042 10206.744267 10172.639345 10297.196425 10141.225792 10226.774272 10017.126747 10006.548678 10010.620248 
10020.433656 10378.122641 10317.287043 10243.888133 10159.494707 10274.427969 10298.813592 10188.892636 10448.542602 
10310.747291 9879.8258729 4932.8273276 7406.6452268 8176.5950986 10005.860049 6661.9674487 4350.4974073 4357.1110095 
4421.4043835 4466.225669 4847.572116 4608.2998277 4569.6618607 4407.3441117 4338.2170519 4569.0449012 4842.9744319 
4667.0268106 4590.2552289 4583.3769666 4665.0854913 5203.8629859 4891.1964747 4845.4677567 4847.2489709 4900.2707565 
5044.3544809 5179.7047036 4778.9322568 5390.6021963 5612.4011765 3604.3376969 3603.1142713 4973.8794415 4975.0247063 
5219.7022561 5236.3213812 5352.962503 5337.6717853 5452.1469489 5553.5688133 5380.4529259 5197.6707902 5528.9737854 
5442.4967768 1402.3492709 1266.5290847 1512.8212802 1482.2259801 1606.1851794 3402.0411937 3395.0387638 849.5255094 
809.91869046 1071.6195584 941.64932096 1552.1097593 1609.4468494 1469.0826836 1565.0709572 1673.0542348 1536.9259548 
1570.3648852 1458.8423404 1484.0973474 1454.196637 1457.8197227 1695.4657624 1724.2774962 1531.8000909 1670.9902241 
1778.7567883 1678.0462238 1673.6695922 3145.1285333 11104.022766 2426.5232441 2760.6801193 5088.7925171 5441.7213333 
10033.002389 9606.3846625 10998.102352 11044.002303 7022.001104 10548.279286 10109.926332 10022.014378 10023.017261 
9944.9252435 4515.8374909 9682.5355247 9382.9962436 9791.5384123 11237.675354 11399.065295 3971.3813308 3707.5454565 
3538.1849158 2848.0931225 9695.7455169 5193.4509378 2380.4379381 2514.3604544 7369.470701 6338.470555 10686.917457 
10951.229675 10477.806302 7792.3789733 9662.439207 9979.5680287 10262.73626 10252.728877 5507.9432285 5566.2104408 
8584.8955903 8707.7435013 10488.981758 10296.537306 10118.965287 10351.842994 10139.489618 10373.622887 10309.626139 
10336.398861 10545.700339 10137.163272 10346.426059 7496.8917575 10590.19224 10023.512558 6433.8870542 8056.5287396 
5326.3695183 5138.4102576 9585.611507 9040.5412247 9408.2977485 9399.0233758 9834.7889695 9852.0120917 9901.0036113 
9580.2316799 10543.916345 9942.6336761 5895.1486232 15479.617233 9311.9594528 9951.9421849 4584.5414793 16183.108722 
10935.244791 12569.318829 15672.717228 14790.303861 11382.804384 11763.631732 9791.2832535 7187.9233689 10913.240503 
9115.0696282 11749.526303 6720.8115649 6704.0420853 9718.4370091 9866.9002304 10177.679317 10203.625485 9899.1293428 
10243.692942 10682.332572 11259.886255 11123.41288 11375.596809 10419.319137 10652.729333 10366.024459 10098.313107 
10289.368133 7585.399443 7948.1533794 7882.3502646 9509.1054046 9931.5559252 10439.447089 8183.6555842 10055.158113 
9730.6304076 10203.035791 9989.0897669 10187.377312 1221.8839302 9250.2824761 2098.3292765 10107.505451 2575.8552977 
10068.616189 11048.376462 10336.890026 9544.4515272 9529.0349124 10414.849674 10368.768351 10191.350184 10642.341615 
3221.7186727 5803.7174727 3370.1453599 10170.326932 9978.2272866 10680.234316 10080.408579 10499.330595 9858.810544 
10489.987708 10125.045216 3384.7314384 971.72012561 10947.877942 15650.638384 10128.138743 3840.0661581 1260.1178032 
10419.724976 10069.112089 10062.067314 9047.4900878 2223.0276023 2324.9643537 9962.767735 10391.311936 10017.246578 
10755.376852 10693.534936 11578.596879 2589.1703904 8335.5111653 6519.7856416 5019.5868715 810.31556984 9535.9160057 
2784.8773893 9564.1938683 575.0245275 4244.5408938 10159.068266 9974.3291737 4670.893302 7505.2842187 6761.1297539 
2380.3708734 2980.1641196 3809.7354859 3844.7776417 3582.9353548 1269.9200203 2192.3322357 2915.3189897 766.16981637 
668.17065198 2165.1969377 9842.6025906 10134.159049 6538.6528358 10570.932393 9806.0976619 9807.1289185 9662.9159532 
10244.353202 9980.5495659 9932.1406022 10003.760139 10066.680205 3684.347023 7765.0707247 6014.4978323 9173.2337961 
10118.567302 10146.306418 10117.512216 11224.292866 3855.8074189 3525.0265786 6405.4754786 9727.6055677 9384.27989 
10033.275416 4070.535295 4232.1552382 2563.8358806 2114.5465032 4783.2373903 9666.7137654 9592.0987004 7644.2949868 
9719.6171173 9697.5153669 9804.3541832 9829.1298826 10098.573201 10450.908669 9483.8548945 9851.2608635 10026.0518 
9615.7319354 10148.189709 9899.1911467 9810.310119 10198.565413 10031.766603 9998.2731171 10047.966256 9911.8527657 
9705.0097508 9981.059941 10015.477575 9972.0786073 9877.1426134 10043.226853 10019.899239 8791.6073522 10502.763122 
10033.528234 10165.377695 5279.88935 2425.1040343 6217.718724 7277.4578797 3283.9221261 3532.9740069 1734.7104918 
3861.4229171 4078.4698287 2994.9654215 4468.0150698 4562.1861644 3790.927909 4385.8823895 4363.8190811 4042.6912934 
3164.0546692 549.79712636 591.12403955 711.50239029 722.36194634 685.53562517 753.46471881 475.15640434 453.89515176 
902.49795907 1237.0494463 11321.43911 10818.646058 9854.3589759 10030.157259 5895.9170405 9794.9280299 10074.64173 
4776.8090683 7464.1782433 1054.2426345 12373.262992 9624.6948559 8422.5527087 6506.0045818 9958.6492187 9839.8458097 
10327.134844 10397.496023 9659.7664731 8803.240951 5873.0721463 9874.9856662 9515.2477125 10061.45055 9629.9225267 
9981.7356861 10328.426821 10377.575087 10002.850043 10012.820604 10030.976181 9919.7659027 9981.8544596 9917.6023401 
10074.17356 9953.6638399 9964.6656818 9934.0783442 9385.5279007 9995.0492787 9836.3166743 9984.5545938 9993.4020811 
10009.919369 9998.1245984 9973.5302196 9877.711177 9959.1341271 10128.083396 9889.9159855 9858.3765206 10030.927799 
10000.277084 10053.335818 9997.381455 7843.7799471 9489.0376798 9947.7197403 10140.486025 9811.0486334 9994.38381 
10014.696233 9994.3324963 9975.5578756 9960.854081 9999.2443055 9994.9895331 10002.960903 10014.522253 10000.092992 
10004.54247 10023.374144 9735.1980756 10059.478705 10099.030031 9956.5774685 1563.3922672 1730.8753431 3824.3796111 
3325.2035908 1067.8500258 2128.0147228 2068.112105 2107.2911299 1061.4683545 10021.595107 9139.8066219 9334.8875271 
7142.1740566 10060.974553 7998.6287235 2405.8232975 1680.1816032 2911.0087167 2236.312356 1766.134522 1952.5723728 
10085.716281 10019.502792 9999.1729308 9848.2819997 1749.5823532 2948.9098449 3393.290829 1480.5497985 1886.5998964 
3173.6839072 9916.0759209 9919.2744236 10003.448273 10046.030523 10088.485657 10580.662415 9950.3377984 9993.2986706 
9926.7331697 10016.419586 9553.580193 9354.9535556 7086.8406136 10043.064218 9503.2808437 10741.263016 9970.5177605 
10005.817799 1151.0261237 9662.4115661 1967.1684192 10187.283786 2621.4735152 10030.695238 10773.618 10230.884642 
10048.759789 10171.190747 10237.433197 10566.937385 10400.505461 10709.491541 3304.4261005 5530.7304696 3364.3477906 
10099.193035 10011.649056 10242.04215 10156.352797 10174.542176 9667.7361434 10115.164286 10045.403757 3185.5351106 
949.98447524 10370.630034 13213.670903 10016.579884 1228.4361299 3749.0652832 10328.126698 10007.882454 10125.864438 
8950.4486925 2201.8626751 2340.4930479 9932.0934279 10489.700485 10047.816554 10832.172336 10331.910363 11014.377554 
2573.4013587 7512.4450746 7307.6891054 4980.0440065 869.76990584 9273.2133632 2826.596848 8207.6042432 570.21122449 
4234.8946252 10080.165596 9945.8087242 7497.1037696 4633.5349383 6799.9448464 3021.0508382 2422.6529335 3826.5625955 
3581.3466124 3852.6097207 1305.4836273 3939.1101468 2192.1201961 795.25649423 798.04948551 1955.3504719 10249.887098 
9724.1064885 9751.1138161 6509.0424619 9101.18567 10033.413639 9092.7851537 10349.654649 10064.669271 9975.5497884 
9944.5057487 9882.422483 7101.4658105 3047.4804421 6108.0874223 10147.900807 9194.6106669 9908.6551534 9456.0835235 
10797.919084 3354.69094 3960.3769624 6652.1691149 9430.3100832 9855.2602412 10194.391489 4211.9103904 4059.2625735 
2622.1721614 2068.5508987 5802.8394054 655.15773586 568.83022644 739.12820266 674.64176855 745.74236251 756.62014642 
452.71099531 498.44197564 872.12483077 1303.5637112 9790.0643195 9637.217851 7372.8376616 9351.426987 9784.281979 
10018.508958 9458.6420424 9932.9286863 9537.4413578 10465.122099 9849.4557841 9418.1256096 9935.2651269 10273.377947 
9785.5646406 9833.3207474 10105.554876 9995.2362441 10019.803807 9909.2913043 10075.152964 9799.48882 10021.988115 
9982.4915632 9966.0832575 10083.400732 9865.6882398 10029.297049 10579.139038 9685.9487462 10112.60606 10183.542027 
2523.2826415 4716.1265636 6428.5522715 7121.17333 3453.1988936 3252.5189625 1779.8890659 4067.7840187 3884.2584042 
2998.7767072 4572.5300924 4457.3497931 3815.5438011 4338.925721 4382.4099378 4030.5657204 3186.927126 10769.160642 
9851.554626 10179.889138 10001.861397 8971.7588857 4870.3246567 10088.63298 4781.5759154 1282.1849489 7469.1799584 
11997.462656 8474.3042618 9581.5450999 6600.0864865 9797.0568261 9937.4084411 10203.014124 10336.189245 8553.7343887 
9245.9922938 5510.4024049 9633.1865794 9780.7649905 9769.0119907 10703.688031 8146.0267039 10068.384074 10029.681794 
10012.90285 10034.612269 10006.806694 9987.3132507 9931.5982877 10053.090779 9815.7159425 9978.5408301 9958.7007793 
9904.0454001 9635.7161102 10054.180515 9626.3337426 10001.665963 9996.5577695 9749.1880846 9997.0186697 9912.6727935 
9910.0753301 9967.5863316 9834.1836453 9886.2640487 10151.520202 10036.094616 10021.339869 10260.244154 10079.198704 
8928.4515708 7860.1844043 10116.787405 10039.739747 10034.465449 9971.1302168 9985.523011 10013.417814 9905.3095462 
9996.0591174 9969.0870779 10021.569892 9991.7796846 9974.5652797 10049.932025 10005.937005 10013.077819 10013.012982 
9980.3283535 9987.7053969 9978.8043537 1605.0288785 1562.4597097 3637.7327796 5223.9595534 2055.3460172 2094.5121487 
1073.5894784 1710.5624085 1048.5279083 9506.618579 10085.971405 8976.8047518 7287.7313181 7925.1744392 10160.788647 
1612.0260184 2318.8228725 2876.3993407 1757.9368489 2111.7862478 1916.8466984 10094.001695 10049.032955 9831.8883798 
9967.3145951 2970.2534632 1731.2247209 3366.4424763 1500.6648907 1893.5187894 3172.9944724 10057.168655 9962.8714704 
9839.8418947 10015.192582 9986.355728 10451.354491 9986.9340594 9990.8320817 9955.0186189 10038.629291 9448.3016005 
9320.9539901 7419.6196327 1951.5773037 2759.8841981 2159.2078205 2540.1837045 10026.749079 10008.843175 9163.9884471 
9791.2125374 9996.2556484 6250.6287725 10304.318624 6474.3307259 9899.5169859 10264.831555 4859.0106729 3181.6833072 
1983.5071138 3149.91397 2189.6855219 2027.2909732 1743.233526 9312.9554859 9377.0060389 8845.2473786 7296.8368864 
7165.627252 1640.6647057 1192.4299996 3486.0827435 4660.3142522 3415.6181215 1311.7129722 1285.6442187 1291.0358269 
9818.9068931 9899.163784 10019.877614 9972.7213841 9996.1401616 10031.056646 3155.4515997 2890.2419951 10010.243057 
10005.406926 10037.561866 10007.50422 9893.7253217 10132.838207 8740.4965773 10093.284678 9663.863373 8757.2012128 
7440.0631936 9966.3261519 10021.032405 8236.9943256 7611.9779478 9911.3676129 9138.3588867 10555.290211 8832.4835512 
9799.5974924 9990.6447818 9705.5328645 10042.086481 4205.766274 3889.6884509 4203.3301999 10178.40489 9741.0174054 
10156.520298 10284.228361 9811.6109116 9748.5469624 9845.9674267 3250.2668771 9821.4560054 10452.92157 10824.574764 
7189.4721713 5381.5348157 7678.5169031 595.59011437 729.64355318 712.24335672 567.82136973 759.8944301 3404.4965081 
3510.8315423 3768.8890219 5201.137084 5497.2065881 7909.3109235 797.79735754 764.8493282 800.17088768 624.66919235 
686.6282976 629.50158493 1814.62613 4009.6095365 3747.9470371 2617.3606847 2989.8254241 9835.8138184 9860.7389165 
3467.98866 4410.7119306 3797.5240703 4004.4799883 4396.9641498 4219.4849759 9208.7245549 7142.0019898 7135.9634073 
695.46562374 696.54382108 694.03282643 10093.506793 9904.0343083 9890.5600231 9862.8168388 8971.6521161 9928.2082132 
9365.9596777 9938.3834575 9836.5317825 9934.7510406 938.75806623 479.97142708 1011.5541405 2260.8700923 10131.204733 
9902.9449013 3334.6522472 10143.274276 9692.8848106 10277.722331 10298.074967 9533.7892987 10607.020071 10405.713071 
5031.7799153 8242.3071789 9895.1392462 1022.9147335 2300.9066576 10459.833064 10177.361531 8172.9192421 7141.1040943 
963.74302827 4056.354631 4056.11308 4434.8495848 4438.1177308 4534.6736453 7694.2911957 7515.9738289 5833.1469025 
9375.8600852 9991.7078942 9226.1782052 4542.1308794 10001.132526 9996.8895454 10018.562689 9999.0088194 6653.9849218 
5893.2545637 7132.202142 10769.406072 2124.2796822 1549.5465102 3540.3797224 10173.488737 9577.6353188 9844.4318576 
9599.1568788 10050.683923 10158.744301 10009.603204 9968.7943437 9895.1842279 9903.5623232 9830.8228143 489.46711263 
1235.2119868 9658.9966716 10203.426084 9917.4065157 9994.904558 10128.169133 9879.9343035 10028.260683 9554.1498564 
10118.132687 2068.5845071 1081.9752075 2097.7574626 1187.3792807 5201.3189722 4425.0292609 3784.0664099 9748.2646401 
9988.4557533 9859.6766879 10152.118601 9875.3031476 9686.0000636 7010.4288366 9855.768649 9852.2700954 10113.784209 
9540.8498165 9918.5425764 8972.6474722 10067.159346 7387.3145593 10225.709089 4839.9310406 9917.2959928 9866.4633712 
9804.7555403 9714.3698853 9928.0605702 9956.8941568 10045.858006 5558.1727445 3558.3979588 9989.6758055 9513.3343266 
9997.1560671 10025.622982 9991.3637531 9998.865343 10006.828652 10029.525789 10042.098759 9953.2355645 9727.3588631 
9689.473018 9829.0443338 9613.7842107 4086.1631207 1564.6138142 10024.716583 3207.2040692 2586.5062276 1927.9925658 
778.76071227 726.94074893 2368.7788252 1744.0508153 2962.4900103 10359.586868 9535.0537699 10003.571042 10084.043044 
9222.0170859 10084.483471 9861.7440751 10181.465731 9990.084438 9895.6858955 10065.363856 9959.4852354 9048.4076529 
7559.8261311 10123.666778 9838.2842912 9976.6462987 9918.6517491 3905.4515632 7627.8157923 9970.0308165 4383.2669182 
4397.8080658 9956.3974514 3394.1880084 455.37583909 880.1232444 1489.150641 3994.5065019 9842.8505822 10030.733678 
9718.8351468 9578.0187168 9974.3182078 1240.7986295 5267.1103502 3471.1309264 6688.9281656 5383.863805 5454.8023191 
10043.132195 10070.783029 9755.6515529 4404.1285707 9971.8467661 3118.6104306 1545.8613895 8425.1027817 9331.6910776 
9748.7187753 10014.942251 10025.890533 450.5247473 7373.2810092 6843.9891471 6807.3523603 486.85836743 9983.2442533 
10038.827489 9986.7663152 10054.027611 9923.3266962 9989.395783 9999.9247912 9963.46709 3245.1900244 3877.2803452 
9865.8985077 9950.8024077 9303.7633206 9886.0579108 9851.6136922 9850.6928792 9966.0856111 10024.719147 9975.9821255 
10034.88345 9971.74941 10044.174139 10015.052601 9302.4625784 11700.683551 10353.717887 9036.7636444 9735.8595465 
9843.4884345 9441.787374 10012.789758 9892.3033007 10008.982788 9898.1232875 10010.026343 10759.657629 3380.0916664 
3772.594718 9961.4552392 9949.3652991 3538.2501722 3606.4876676 2576.3882913 2619.115347 3926.1332711 3934.1991052 
9986.0837986 5766.7393252 1224.8711196 9671.3426052 10069.654655 10045.015785 9946.0565972 1720.6160181 1963.2482351 
1992.4035508 6435.00021 10698.731008 10005.114114 9988.1692 9913.0414575 9526.4487814 6273.3124512 10177.306316 
10072.490723 9929.6347588 9883.4901415 9427.0994118 10257.529757 9280.622923 9995.0391395 10025.94264 9926.8632254 
2267.3698709 2478.201113 4900.7847515 9949.8456087 9947.4321951 9996.4891431 9978.8119808 2439.2713123 9610.2965301 
10012.046837 9997.2435778 9884.7104514 9560.0688183 9998.8744064 4947.1504902 6667.8900584 9695.297035 10377.294899 
10234.573396 10235.394044 3579.1302922 3281.3996548 9699.6082359 6696.4614995 3402.8719523 
