# vtk DataFile Version 4.1
vtk output
ASCII
DATASET UNSTRUCTURED_GRID
POINTS 3545 float
7.18e-13 50 10 0 100 10 0 100 0 
7.18e-13 50 0 200 100 10 200 0 10 
50 -1.2e-14 10 200 100 0 200 0 0 
50 -1.2e-14 0 0 60 10 0 70 10 
0 80 10 0 90 10 0 55 10 
0 65 10 0 75 10 0 85 10 
0 95 10 0 100 5 0 60 0 
0 70 0 0 80 0 0 90 0 
0 55 0 0 65 0 0 75 0 
0 85 0 0 95 0 0 50 5 
10 100 10 20 100 10 30 100 10 
40 100 10 50 100 10 60 100 10 
70 100 10 80 100 10 90 100 10 
100 100 10 110 100 10 120 100 10 
130 100 10 140 100 10 150 100 10 
160 100 10 170 100 10 180 100 10 
190 100 10 5 100 10 15 100 10 
25 100 10 35 100 10 45 100 10 
55 100 10 65 100 10 75 100 10 
85 100 10 95 100 10 105 100 10 
115 100 10 125 100 10 135 100 10 
145 100 10 155 100 10 165 100 10 
175 100 10 185 100 10 195 100 10 
200 10 10 200 20 10 200 30 10 
200 40 10 200 50 10 200 60 10 
200 70 10 200 80 10 200 90 10 
200 5 10 200 15 10 200 25 10 
200 35 10 200 45 10 200 55 10 
200 65 10 200 75 10 200 85 10 
200 95 10 60 0 10 70 0 10 
80 0 10 90 0 10 100 0 10 
110 0 10 120 0 10 130 0 10 
140 0 10 150 0 10 160 0 10 
170 0 10 180 0 10 190 0 10 
55 0 10 65 0 10 75 0 10 
85 0 10 95 0 10 105 0 10 
115 0 10 125 0 10 135 0 10 
145 0 10 155 0 10 165 0 10 
175 0 10 185 0 10 195 0 10 
49.0393 9.75452 10 46.194 19.1342 10 41.5735 27.7785 10 
35.3553 35.3553 10 27.7785 41.5735 10 19.1342 46.194 10 
9.75452 49.0393 10 49.7592 4.90086 10 47.847 14.5142 10 
44.0961 23.5698 10 38.6505 31.7197 10 31.7197 38.6505 10 
23.5698 44.0961 10 14.5142 47.847 10 4.90086 49.7592 10 
10 100 0 20 100 0 30 100 0 
40 100 0 50 100 0 60 100 0 
70 100 0 80 100 0 90 100 0 
100 100 0 110 100 0 120 100 0 
130 100 0 140 100 0 150 100 0 
160 100 0 170 100 0 180 100 0 
190 100 0 5 100 0 15 100 0 
25 100 0 35 100 0 45 100 0 
55 100 0 65 100 0 75 100 0 
85 100 0 95 100 0 105 100 0 
115 100 0 125 100 0 135 100 0 
145 100 0 155 100 0 165 100 0 
175 100 0 185 100 0 195 100 0 
200 100 5 200 10 0 200 20 0 
200 30 0 200 40 0 200 50 0 
200 60 0 200 70 0 200 80 0 
200 90 0 200 5 0 200 15 0 
200 25 0 200 35 0 200 45 0 
200 55 0 200 65 0 200 75 0 
200 85 0 200 95 0 60 0 0 
70 0 0 80 0 0 90 0 0 
100 0 0 110 0 0 120 0 0 
130 0 0 140 0 0 150 0 0 
160 0 0 170 0 0 180 0 0 
190 0 0 55 0 0 65 0 0 
75 0 0 85 0 0 95 0 0 
105 0 0 115 0 0 125 0 0 
135 0 0 145 0 0 155 0 0 
165 0 0 175 0 0 185 0 0 
195 0 0 49.0393 9.75452 0 46.194 19.1342 0 
41.5735 27.7785 0 35.3553 35.3553 0 27.7785 41.5735 0 
19.1342 46.194 0 9.75452 49.0393 0 49.7592 4.90086 0 
47.847 14.5142 0 44.0961 23.5698 0 38.6505 31.7197 0 
31.7197 38.6505 0 23.5698 44.0961 0 14.5142 47.847 0 
4.90086 49.7592 0 50 -1.225e-14 5 200 0 5 
0 95 5 0 55 5 0 65 5 
0 75 5 0 85 5 0 52.5 7.5 
0 52.5 2.5 0 57.5 7.5 0 97.5 2.5 
0 97.5 7.5 0 92.5 7.5 0 92.5 2.5 
0 57.5 2.5 0 67.5 7.5 0 62.5 7.5 
0 60 5 0 62.5 2.5 0 77.5 7.5 
0 72.5 7.5 0 70 5 0 67.5 2.5 
0 72.5 2.5 0 87.5 7.5 0 82.5 7.5 
0 80 5 0 77.5 2.5 0 82.5 2.5 
0 90 5 0 87.5 2.5 86.5007 50 10 
144.301 49.2374 10 55.6644 66.0252 10 115.75 66.6252 10 
114.795 33.475 10 169.167 30.8333 10 169.167 69.1667 10 
27.9007 72.4238 10 72.1258 27.0212 10 78.603 74.0537 10 
139.641 25.5189 10 139.698 74.9477 10 94.8332 22.6195 10 
57.423 42.8454 10 178.626 50 10 99.1787 79.0705 10 
124.951 50.3402 10 105.858 49.9855 10 44.7787 81.4609 10 
36.3608 57.3288 10 156.218 17.9037 10 156.108 83.1076 10 
181.576 83.4881 10 183.768 16.5687 10 69.7256 55.8018 10 
62.9725 82.6685 10 123.496 82.961 10 123.948 17.4483 10 
161.813 53.6198 10 153.04 35.0433 10 15.9253 84.0824 10 
96.9839 62.8898 10 184.522 34.9102 10 184.649 65.2763 10 
152.524 66.6773 10 15.104 63.621 10 96.6898 38.2782 10 
109.559 15.5562 10 81.3464 15.5409 10 64.7793 14.374 10 
73.8401 41.582 10 57.5113 28.498 10 130.755 62.8214 10 
128.621 33.7869 10 86.9167 86.5816 10 31.438 86.2371 10 
112.059 85.8438 10 169.12 13.5789 10 169.747 86.7403 10 
44.1559 45.2582 10 143.931 12.7368 10 145.649 86.3725 10 
84.269 30.6613 10 66.9849 68.4161 10 81.1833 59.6594 10 
39.1224 69.325 10 72.6274 87.7777 10 25.4042 57.4207 10 
169.159 40.7853 10 141.792 61.4077 10 141.457 39.153 10 
95.1703 10.8703 10 104.284 29.5377 10 52.8439 55.9648 10 
189.185 44.3283 10 54.3956 89.2059 10 88.4262 71.9522 10 
10.1461 74.1976 10 135.268 89.8813 10 134.584 8.82114 10 
115.229 55.3578 10 105.335 70.4671 10 114.87 44.5409 10 
49.6234 36.0168 10 171.484 58.5025 10 190.117 25.5687 10 
190.032 74.0834 10 54.2312 76.3466 10 96.4349 88.0697 10 
65.2829 35.7208 10 154.717 45.724 10 189.452 10.548 10 
189.834 89.2301 10 134.911 53.9377 10 189.369 56.1143 10 
72.3841 10.39 10 106.614 39.6429 10 114.677 76.1787 10 
124.405 72.0983 10 116.884 9.70735 10 114.46 22.6686 10 
149.603 26.2255 10 129.846 25.8542 10 159.484 28.1279 10 
96.774 52.971 10 106.235 59.7813 10 152.333 56.7981 10 
178.773 72.492 10 178.444 27.2944 10 39.7631 89.632 10 
24.4432 91.3785 10 36.8216 45.6975 10 160.601 73.7323 10 
153.074 7.28536 10 67.166 46.1259 10 153.817 92.4479 10 
64.2851 91.8742 10 148.423 76.5393 10 85.1773 40.0962 10 
177.44 9.32794 10 177.842 90.6449 10 133.225 42.4809 10 
161.775 63.0767 10 30.7842 64.2249 10 35.2611 78.5908 10 
60.8329 58.8886 10 9.39452 90.6055 10 118.867 90.6507 10 
46.0315 61.9531 10 55.5806 18.5519 10 177.53 41.1906 10 
77.2589 50.4311 10 161.245 37.8189 10 17.0806 54.3229 10 
19.4255 73.6708 10 69.9588 77.3313 10 132.397 80.0601 10 
165.649 21.999 10 171.181 77.8157 10 8.38827 57.6443 10 
104.227 8.64393 10 79.2733 25.0029 10 86.7124 8.06884 10 
57.5582 8.29152 10 64.367 23.2913 10 105.097 92.542 10 
89.0387 58.2339 10 125.091 7.0823 10 72.3793 19.2701 10 
23.7237 66.2722 10 122.668 60.8101 10 192.765 34.9615 10 
192.913 65.0677 10 163.303 92.3556 10 76.8524 33.8263 10 
161.682 7.75359 10 6.72769 65.0926 10 180.033 59.0029 10 
7.90607 82.4603 10 49.7908 26.329 10 121.771 38.4439 10 
25.2701 81.4403 10 135.544 18.5943 10 103.241 20.3085 10 
107.048 78.8937 10 92.1463 30.9327 10 75.1537 64.722 10 
121.518 27.8362 10 48.3331 70.0852 10 93.1568 45.458 10 
80.9156 91.9904 10 89.1373 16.3006 10 134.735 70.4476 10 
64.9443 6.61111 10 61.8267 74.4691 10 80.0317 82.9522 10 
176.596 64.9548 10 192.385 17.8863 10 192.385 82.1137 10 
27.3448 49.3147 10 170.086 48.4162 10 174.091 19.7463 10 
95.7142 71.3724 10 125.885 92.9209 10 44.5295 52.6562 10 
143.893 69.7285 10 89.3293 79.1503 10 144.669 32.738 10 
164.188 82.7503 10 136.562 32.467 10 148.455 41.379 10 
100.462 44.6325 10 59.4655 50.3745 10 103.686 85.0368 10 
33.2246 93.4062 10 42.0474 38.0801 10 57.4601 35.7702 10 
87.4186 24.1708 10 16.1065 93.5369 10 46.7789 92.8841 10 
144.987 20.1958 10 144.822 5.51954 10 79.0516 7.19462 10 
89.9889 92.6385 10 82.5479 67.1377 10 144.962 93.9877 10 
128.393 56.5541 10 162.976 45.5947 10 139.826 81.7255 10 
51.3402 47.186 10 184.023 5.90405 10 184.067 94.1354 10 
112.578 93.4367 10 175.698 34.4354 10 194.479 5.52096 10 
194.479 94.479 10 89.2715 65.2769 10 4.19413 53.8221 10 
4.19413 58.8221 10 9.07139 53.3418 10 4.69726 90.3027 10 
4.69726 95.3027 10 9.69726 95.3027 10 197.24 97.2395 10 
197.24 92.2395 10 192.24 97.2395 10 197.24 2.76048 10 
192.24 2.76048 10 197.24 7.76048 10 58.7791 4.14576 10 
53.7791 4.14576 10 53.2987 9.02302 10 3.36385 62.5463 10 
3.36385 67.5463 10 7.55798 61.3684 10 5.07307 72.0988 10 
5.07307 77.0988 10 8.43692 69.6451 10 3.95304 81.2302 10 
3.95304 86.2302 10 9.0261 78.329 10 8.65029 86.5329 10 
67.4721 3.30555 10 62.4721 3.30555 10 61.2512 7.45131 10 
79.5258 3.59731 10 74.5258 3.59731 10 68.6642 8.50054 10 
71.192 5.19498 10 75.7178 8.79229 10 88.3562 4.03442 10 
83.3562 4.03442 10 82.882 7.63173 10 97.5852 5.43517 10 
92.5852 5.43517 10 90.9414 9.46959 10 107.114 4.32196 10 
102.114 4.32196 10 99.6988 9.75713 10 118.442 4.85367 10 
113.442 4.85367 10 110.555 9.17564 10 127.546 3.54115 10 
122.546 3.54115 10 120.987 8.39483 10 137.292 4.41057 10 
132.292 4.41057 10 129.837 7.95172 10 147.411 2.75977 10 
142.411 2.75977 10 139.703 7.17034 10 156.537 3.64268 10 
151.537 3.64268 10 148.948 6.40245 10 165.841 3.87679 10 
160.841 3.87679 10 157.378 7.51947 10 178.72 4.66397 10 
173.72 4.66397 10 173.28 11.4534 10 169.56 6.78946 10 
165.401 10.6663 10 187.011 2.95203 10 182.011 2.95203 10 
180.731 7.61599 10 189.251 5.71251 10 52.3099 14.1532 10 
50.8873 18.8431 10 56.5694 13.4217 10 47.9924 22.7316 10 
45.6821 27.0538 10 52.6857 22.4405 10 41.8104 32.9293 10 
38.7013 36.7177 10 49.7071 31.1729 10 45.5984 31.8977 10 
45.8354 37.0485 10 36.0885 40.5264 10 32.3001 43.6355 10 
39.4345 41.8888 10 27.5617 45.4441 10 23.2395 47.7543 10 
32.0832 47.5061 10 18.1074 50.2584 10 13.4175 51.6811 10 
22.2127 51.8188 10 12.7344 55.9836 10 196.193 18.9431 10 
196.193 13.9431 10 190.919 14.2171 10 194.726 10.274 10 
191.965 8.03449 10 195.059 27.7844 10 195.059 22.7844 10 
191.251 21.7275 10 196.382 37.4807 10 196.382 32.4807 10 
191.441 30.2651 10 194.593 47.1642 10 194.593 42.1642 10 
190.975 39.6449 10 194.685 58.0571 10 194.685 53.0571 10 
189.277 50.2213 10 196.457 67.5339 10 196.457 62.5339 10 
191.141 60.591 10 195.016 77.0417 10 195.016 72.0417 10 
191.473 69.5756 10 196.193 86.0569 10 196.193 81.0569 10 
191.209 78.0986 10 191.11 85.6719 10 194.917 89.6151 10 
192.157 91.8546 10 13.0532 96.7684 10 18.0532 96.7684 10 
12.7505 92.0712 10 22.2216 95.6893 10 27.2216 95.6893 10 
20.2749 92.4577 10 31.6123 96.7031 10 36.6123 96.7031 10 
28.8339 92.3924 10 43.3895 96.4421 10 48.3895 96.4421 10 
36.4939 91.5191 10 39.8815 94.816 10 43.271 91.2581 10 
52.1978 94.603 10 57.1978 94.603 10 50.5873 91.045 10 
62.1425 95.9371 10 67.1425 95.9371 10 59.3404 90.5401 10 
75.4578 95.9952 10 80.4578 95.9952 10 68.4562 89.826 10 
71.3137 93.8888 10 76.7715 89.884 10 85.4578 95.9952 10 
89.9944 96.3192 10 94.9944 96.3192 10 85.4522 92.3144 10 
102.549 96.271 10 107.549 96.271 10 100.766 90.3058 10 
98.2174 94.0348 10 93.2119 90.3541 10 111.289 96.7184 10 
116.289 96.7184 10 108.838 92.9893 10 122.942 96.4604 10 
127.942 96.4604 10 122.376 91.7858 10 119.433 95.3253 10 
115.722 92.0437 10 132.634 94.9406 10 137.634 94.9406 10 
130.576 91.4011 10 142.481 96.9939 10 147.481 96.9939 10 
140.115 91.9345 10 151.908 96.224 10 156.908 96.224 10 
149.389 93.2178 10 161.651 96.1778 10 166.651 96.1778 10 
158.56 92.4017 10 173.921 95.3225 10 178.921 95.3225 10 
173.795 88.6926 10 169.874 93.3701 10 166.525 89.5479 10 
182.033 97.0677 10 187.033 97.0677 10 180.954 92.3901 10 
189.273 94.3072 10 79.2211 55.0452 10 81.8798 50.2155 10 
83.842 54.8297 10 87.7697 54.1169 10 85.111 58.9466 10 
92.9064 55.6024 10 91.6374 51.4855 10 89.8287 47.729 10 
94.9654 49.2145 10 81.2181 45.2636 10 85.839 45.0481 10 
89.1671 42.7771 10 138.351 57.6727 10 139.606 51.5875 10 
143.046 55.3226 10 148.317 53.0178 10 147.062 59.1029 10 
138.763 45.8591 10 137.341 40.8169 10 142.879 44.1952 10 
144.956 40.266 10 146.378 45.3082 10 153.525 51.2611 10 
149.509 47.4807 10 151.586 43.5515 10 134.068 48.2093 10 
58.2486 62.4569 10 63.9089 63.6524 10 61.3246 67.2207 10 
64.4058 71.4426 10 58.7455 70.2472 10 56.8384 57.4267 10 
54.2541 60.995 10 50.8479 63.9891 10 49.4377 58.959 10 
51.2822 73.2159 10 51.9987 68.0552 10 54.9478 71.1859 10 
58.029 75.4079 10 47.1823 66.0191 10 110.992 63.2032 10 
110.732 57.5695 10 115.49 60.9915 10 118.949 58.084 10 
119.209 63.7177 10 115.213 71.4019 10 110.006 73.3229 10 
110.543 68.5461 10 105.785 65.1242 10 120.078 69.3617 10 
119.541 74.1385 10 123.537 66.4542 10 110.704 36.559 10 
105.449 34.5903 10 109.54 31.5064 10 109.372 26.1032 10 
114.627 28.0718 10 110.742 42.0919 10 114.832 39.0079 10 
118.283 35.9594 10 118.32 41.4924 10 117.989 25.2524 10 
118.156 30.6556 10 121.644 33.14 10 165.202 39.3021 10 
165.206 34.3261 10 169.163 35.8093 10 172.432 32.6344 10 
172.428 37.6103 10 160.365 32.9734 10 164.325 29.4806 10 
162.567 25.0634 10 167.408 26.4162 10 171.629 25.2898 10 
176.268 23.5203 10 173.806 29.0638 10 177.071 30.8649 10 
169.87 20.8727 10 165.471 66.1217 10 166.63 60.7896 10 
170.325 63.8346 10 174.04 61.7286 10 172.881 67.0607 10 
174.977 75.1538 10 170.174 73.4912 10 173.97 70.8293 10 
177.685 68.7234 10 161.188 68.4045 10 164.884 71.4495 10 
165.891 75.774 10 29.3424 68.3243 10 34.9533 66.7749 10 
33.5115 70.8744 10 37.1917 73.9579 10 31.5809 75.5073 10 
25.8122 69.348 10 27.254 65.2485 10 30.2656 80.0155 10 
26.5854 76.9321 10 21.5746 69.9715 10 23.6631 73.0473 10 
22.3478 77.5555 10 64.8249 29.506 10 68.2464 25.1563 10 
68.7043 31.371 10 74.4891 30.4237 10 71.0676 34.7735 10 
72.2525 23.1456 10 75.8263 22.1365 10 75.6996 26.012 10 
78.0628 29.4146 10 68.3732 21.2807 10 74.2809 75.6925 10 
68.4719 72.8737 10 72.7939 71.2349 10 71.0693 66.569 10 
76.8783 69.3878 10 88.8778 75.5513 10 83.9661 76.602 10 
83.5146 73.0029 10 80.5754 70.5957 10 85.4871 69.545 10 
79.3173 78.503 10 74.9953 80.1417 10 78.8508 65.9298 10 
84.6805 81.0513 10 147.136 29.4817 10 142.155 29.1284 10 
144.622 25.8722 10 142.314 22.8573 10 147.295 23.2106 10 
132.695 22.2243 10 137.592 22.0566 10 134.743 25.6865 10 
138.101 28.9929 10 133.204 29.1606 10 140.266 19.3951 10 
140.616 32.6025 10 141.796 72.3381 10 146.158 73.1339 10 
144.061 75.7435 10 144.124 79.1324 10 139.762 78.3366 10 
133.566 75.2539 10 137.216 72.6976 10 136.048 77.5039 10 
136.111 80.8928 10 139.314 70.0881 10 99.2058 15.5894 10 
99.0372 21.464 10 95.0018 16.7449 10 91.9853 19.4601 10 
92.1538 13.5855 10 103.763 24.9231 10 99.5588 26.0786 10 
98.2154 30.2352 10 93.4898 26.7761 10 89.7824 27.5517 10 
91.1259 23.3952 10 88.2779 20.2357 10 53.5417 35.8935 10 
57.4416 39.3078 10 53.5232 39.4311 10 54.3816 45.0157 10 
50.4818 41.6014 10 66.2244 40.9233 10 62.2945 44.4857 10 
61.3529 39.2831 10 61.3715 35.7455 10 63.3157 48.2502 10 
58.4442 46.61 10 55.4028 48.7803 10 183.998 53.0571 10 
183.906 47.1642 10 178.078 45.5953 10 183.357 42.7594 10 
179.329 54.5015 10 175.758 58.7527 10 175.055 54.2512 10 
170.785 53.4593 10 174.356 49.2081 10 184.701 57.5586 10 
173.808 44.8034 10 106.192 74.6804 10 103.113 78.9821 10 
102.257 74.7688 10 97.4465 75.2215 10 100.525 70.9197 10 
92.8821 83.61 10 94.254 79.1104 10 97.8068 83.5701 10 
101.432 82.0536 10 100.06 86.5532 10 105.367 81.9653 10 
92.5218 75.2614 10 115.049 49.9493 10 119.91 47.4405 10 
120.09 52.849 10 123.81 55.5752 10 123.361 44.392 10 
129.088 46.4105 10 129.931 52.1389 10 131.652 55.2459 10 
126.672 53.4472 10 127.498 40.4624 10 125.531 58.6821 10 
110.364 47.2632 10 110.544 52.6717 10 106.047 54.8834 10 
106.236 44.8142 10 103.16 47.309 10 103.538 42.1377 10 
101.504 56.3762 10 101.316 51.4783 10 98.618 48.8018 10 
40.0199 80.0258 10 41.9505 75.3929 10 43.7278 69.7051 10 
46.5559 75.773 10 49.5049 78.9037 10 54.3134 82.7763 10 
49.5872 85.3334 10 45.7788 87.1725 10 37.5121 84.1114 10 
42.2709 85.5464 10 33.5725 60.7768 10 37.7416 63.3269 10 
41.1961 59.641 10 42.5769 65.639 10 28.0942 60.8228 10 
30.8825 57.3748 10 26.3745 53.3677 10 31.8528 53.3218 10 
36.5912 51.5132 10 40.6755 49.1769 10 40.4451 54.9925 10 
45.2805 57.3047 10 167.384 17.789 10 160.934 19.9513 10 
162.669 15.7413 10 158.95 12.8286 10 148.502 10.0111 10 
154.646 12.5945 10 150.074 15.3202 10 150.603 19.0497 10 
144.459 16.4663 10 157.851 23.0158 10 154.543 27.1767 10 
152.91 22.0646 10 154.962 87.7778 10 149.733 89.4102 10 
150.878 84.74 10 147.036 81.4559 10 152.266 79.8234 10 
154.512 75.1358 10 158.354 78.4199 10 162.394 78.2413 10 
160.148 82.9289 10 159.705 87.7316 10 163.745 87.5529 10 
179.709 87.0665 10 175.662 85.1142 10 170.464 82.278 10 
176.379 80.6519 10 180.175 77.99 10 184.403 73.2877 10 
185.804 78.7857 10 186.981 82.8009 10 185.705 86.3591 10 
186.951 91.6827 10 182.822 88.8117 10 184.281 26.4315 10 
181.106 21.9315 10 186.943 21.0687 10 188.077 17.2275 10 
186.61 13.5583 10 183.895 11.2364 10 186.737 8.22604 10 
178.929 18.1575 10 175.765 14.5371 10 180.604 12.9483 10 
65.2792 57.3452 10 68.3552 62.1089 10 72.4396 60.2619 10 
73.4922 53.1164 10 75.4544 57.7306 10 78.1685 62.1907 10 
72.2124 48.2785 10 68.4458 50.9638 10 64.5955 53.0881 10 
60.1492 54.6316 10 63.6288 87.2714 10 67.7999 85.2231 10 
66.4657 79.9999 10 71.2931 82.5545 10 58.6019 79.5076 10 
58.6841 85.9372 10 62.3996 78.5688 10 65.8928 75.9002 10 
113.368 81.0113 10 119.086 79.5698 10 117.778 84.4024 10 
121.181 86.8058 10 115.463 88.2473 10 127.946 81.5106 10 
133.833 84.9707 10 129.382 86.4211 10 124.69 87.9409 10 
123.951 77.5296 10 128.401 76.0792 10 124.52 12.2653 10 
129.266 13.1347 10 135.064 13.7077 10 129.746 18.0213 10 
119.204 20.0585 10 115.672 16.188 10 120.416 13.5778 10 
122.733 22.6422 10 126.897 21.6513 10 125.682 26.8452 10 
161.794 58.3483 10 166.649 56.0611 10 165.95 51.018 10 
157.073 55.209 10 158.265 49.6719 10 158.846 45.6594 10 
162.395 49.6072 10 157.054 59.9374 10 166.531 47.0055 10 
157.143 36.4311 10 157.981 41.7714 10 153.879 40.3837 10 
150.748 38.2111 10 156.262 31.5856 10 151.322 30.6344 10 
148.855 33.8907 10 146.562 37.0585 10 14.7858 73.9342 10 
17.6754 78.8766 10 13.0357 79.14 10 11.9157 83.2714 10 
20.5977 82.7614 10 24.8567 86.4094 10 20.1843 87.7305 10 
16.0159 88.8096 10 12.6599 87.344 10 101.609 61.3356 10 
101.159 66.6784 10 96.3491 67.1311 10 96.879 57.9304 10 
93.0113 60.5618 10 93.1277 64.0834 10 89.1551 61.7554 10 
92.4929 68.3247 10 181.026 38.0504 10 186.854 39.6193 10 
188.643 34.9358 10 181.483 31.1023 10 187.32 30.2395 10 
180.11 34.6728 10 176.614 37.813 10 181.711 68.8841 10 
187.341 69.6798 10 188.781 65.172 10 187.009 60.6953 10 
182.341 62.1396 10 180.623 65.1156 10 178.314 61.9789 10 
152.428 61.7377 10 147.158 64.0425 10 148.208 68.2029 10 
142.842 65.5681 10 157.15 64.877 10 150.474 71.6083 10 
156.562 70.2048 10 16.0923 58.9719 10 21.2424 55.8718 10 
20.2541 60.5209 10 24.564 61.8465 10 19.4139 64.9466 10 
17.2648 68.6459 10 12.6251 68.9093 10 10.9159 64.3568 10 
11.7462 60.6326 10 101.652 38.9605 10 100.487 33.9079 10 
94.4181 34.6054 10 98.5759 41.4553 10 88.6618 35.5145 10 
90.9336 39.1872 10 94.9233 41.8681 10 96.8094 45.0453 10 
112.009 19.1124 10 113.221 12.6318 10 106.893 12.1 10 
108.85 21.4886 10 106.4 17.9323 10 103.734 14.4762 10 
76.8628 17.4055 10 72.3817 14.83 10 76.8652 12.9655 10 
80.199 11.3678 10 80.3098 20.2719 10 84.3825 19.8559 10 
83.3459 24.5868 10 87.9249 12.1847 10 85.2418 15.9208 10 
84.0294 11.8049 10 68.5793 16.822 10 68.5817 12.382 10 
64.8618 10.4926 10 61.1687 11.3328 10 60.1799 16.463 10 
64.5731 18.8327 10 59.9738 20.9216 10 70.5031 43.8539 10 
69.5615 38.6514 10 75.3463 37.7041 10 75.5495 46.0065 10 
79.5087 40.8391 10 81.0148 36.9612 10 53.651 27.4135 10 
53.5673 32.2574 10 57.4857 32.1341 10 60.9392 25.8947 10 
61.3971 32.1094 10 56.546 23.525 10 132.833 58.3795 10 
136.273 62.1146 10 138.263 65.9277 10 132.745 66.6345 10 
129.574 59.6878 10 126.712 61.8158 10 127.58 67.4599 10 
129.57 71.273 10 125.07 30.8116 10 129.234 29.8206 10 
132.592 33.1269 10 125.196 36.1154 10 130.923 38.1339 10 
134.894 37.4739 10 88.123 82.866 10 91.6758 87.3257 10 
88.4528 89.6101 10 80.4737 87.4713 10 83.4742 84.7669 10 
83.9161 89.286 10 33.3496 82.4139 10 35.6005 87.9345 10 
32.3313 89.8216 10 28.3541 83.8387 10 27.9406 88.8078 10 
109.554 82.3688 10 110.862 77.5362 10 112.318 89.6403 10 
104.392 88.7894 10 107.873 85.4403 10 108.578 89.1929 10 
171.605 16.6626 10 166.968 84.7453 10 167.685 80.283 10 
43.1016 41.6692 10 46.8896 40.6375 10 47.748 46.2221 10 
44.3427 48.9572 10 40.4888 45.4779 10 47.9348 49.9211 10 
139.738 15.6655 10 139.257 10.779 10 144.377 9.12816 10 
145.306 90.1801 10 140.459 88.1269 10 137.547 85.8034 10 
142.737 84.049 10 80.5607 32.2438 10 84.7232 35.3787 10 
88.2077 30.797 10 81.7711 27.8321 10 85.8438 27.416 10 
85.2274 62.4682 10 81.8656 63.3986 10 85.9097 66.2073 10 
76.3295 85.365 10 169.623 44.6007 10 173.344 40.9879 10 
166.067 43.19 10 162.111 41.7068 10 139.01 35.81 10 
143.063 35.9455 10 56.1547 53.1697 10 48.6867 54.3105 10 
52.092 51.5754 10 92.0702 71.6623 10 88.8488 68.6146 10 
5 100 5 195 100 5 15 100 5 
25 100 5 35 100 5 45 100 5 
55 100 5 75 100 5 65 100 5 
85 100 5 95 100 5 105 100 5 
115 100 5 125 100 5 135 100 5 
145 100 5 155 100 5 165 100 5 
175 100 5 185 100 5 2.5 100 7.5 
2.5 100 2.5 7.5 100 7.5 7.5 100 2.5 
197.5 100 2.5 197.5 100 7.5 192.5 100 7.5 
192.5 100 2.5 17.5 100 7.5 12.5 100 7.5 
10 100 5 12.5 100 2.5 27.5 100 7.5 
22.5 100 7.5 17.5 100 2.5 20 100 5 
22.5 100 2.5 37.5 100 7.5 32.5 100 7.5 
27.5 100 2.5 30 100 5 32.5 100 2.5 
47.5 100 7.5 42.5 100 7.5 37.5 100 2.5 
40 100 5 42.5 100 2.5 57.5 100 7.5 
52.5 100 7.5 47.5 100 2.5 50 100 5 
52.5 100 2.5 67.5 100 7.5 62.5 100 7.5 
57.5 100 2.5 60 100 5 62.5 100 2.5 
77.5 100 7.5 72.5 100 7.5 72.5 100 2.5 
70 100 5 67.5 100 2.5 87.5 100 7.5 
82.5 100 7.5 77.5 100 2.5 80 100 5 
82.5 100 2.5 97.5 100 7.5 92.5 100 7.5 
87.5 100 2.5 90 100 5 92.5 100 2.5 
107.5 100 7.5 102.5 100 7.5 97.5 100 2.5 
100 100 5 102.5 100 2.5 117.5 100 7.5 
112.5 100 7.5 107.5 100 2.5 110 100 5 
112.5 100 2.5 127.5 100 7.5 122.5 100 7.5 
117.5 100 2.5 120 100 5 122.5 100 2.5 
137.5 100 7.5 132.5 100 7.5 127.5 100 2.5 
130 100 5 132.5 100 2.5 147.5 100 7.5 
142.5 100 7.5 137.5 100 2.5 140 100 5 
142.5 100 2.5 157.5 100 7.5 152.5 100 7.5 
147.5 100 2.5 150 100 5 152.5 100 2.5 
167.5 100 7.5 162.5 100 7.5 157.5 100 2.5 
160 100 5 162.5 100 2.5 177.5 100 7.5 
172.5 100 7.5 167.5 100 2.5 170 100 5 
172.5 100 2.5 187.5 100 7.5 182.5 100 7.5 
177.5 100 2.5 180 100 5 182.5 100 2.5 
190 100 5 187.5 100 2.5 86.5007 50 0 
144.301 49.2374 0 55.6644 66.0252 0 115.75 66.6252 0 
114.795 33.475 0 169.167 30.8333 0 169.167 69.1667 0 
27.9007 72.4238 0 72.1258 27.0212 0 78.603 74.0537 0 
139.641 25.5189 0 139.698 74.9477 0 94.8332 22.6195 0 
57.423 42.8454 0 178.626 50 0 99.1787 79.0705 0 
124.951 50.3402 0 105.858 49.9855 0 44.7787 81.4609 0 
36.3608 57.3288 0 156.218 17.9037 0 156.108 83.1076 0 
181.576 83.4881 0 183.768 16.5687 0 69.7256 55.8018 0 
62.9725 82.6685 0 123.496 82.961 0 123.948 17.4483 0 
161.813 53.6198 0 153.04 35.0433 0 15.9253 84.0824 0 
96.9839 62.8898 0 184.522 34.9102 0 184.649 65.2763 0 
152.524 66.6773 0 15.104 63.621 0 96.6898 38.2782 0 
109.559 15.5562 0 81.3464 15.5409 0 64.7793 14.374 0 
73.8401 41.582 0 57.5113 28.498 0 130.755 62.8214 0 
128.621 33.7869 0 86.9167 86.5816 0 31.438 86.2371 0 
112.059 85.8438 0 169.12 13.5789 0 169.747 86.7403 0 
44.1559 45.2582 0 143.931 12.7368 0 145.649 86.3725 0 
84.269 30.6613 0 66.9849 68.4161 0 81.1833 59.6594 0 
39.1224 69.325 0 72.6274 87.7777 0 25.4042 57.4207 0 
169.159 40.7853 0 141.792 61.4077 0 141.457 39.153 0 
95.1703 10.8703 0 104.284 29.5377 0 52.8439 55.9648 0 
189.185 44.3283 0 54.3956 89.2059 0 88.4262 71.9522 0 
10.1461 74.1976 0 135.268 89.8813 0 134.584 8.82114 0 
115.229 55.3578 0 105.335 70.4671 0 114.87 44.5409 0 
49.6234 36.0168 0 171.484 58.5025 0 190.117 25.5687 0 
190.032 74.0834 0 54.2312 76.3466 0 96.4349 88.0697 0 
65.2829 35.7208 0 154.717 45.724 0 189.452 10.548 0 
189.834 89.2301 0 134.911 53.9377 0 189.369 56.1143 0 
72.3841 10.39 0 106.614 39.6429 0 114.677 76.1787 0 
124.405 72.0983 0 116.884 9.70735 0 114.46 22.6686 0 
149.603 26.2255 0 129.846 25.8542 0 159.484 28.1279 0 
96.774 52.971 0 106.235 59.7813 0 152.333 56.7981 0 
178.773 72.492 0 178.444 27.2944 0 39.7631 89.632 0 
24.4432 91.3785 0 36.8216 45.6975 0 160.601 73.7323 0 
153.074 7.28536 0 67.166 46.1259 0 153.817 92.4479 0 
64.2851 91.8742 0 148.423 76.5393 0 85.1773 40.0962 0 
177.44 9.32794 0 177.842 90.6449 0 133.225 42.4809 0 
161.775 63.0767 0 30.7842 64.2249 0 35.2611 78.5908 0 
60.8329 58.8886 0 9.39452 90.6055 0 118.867 90.6507 0 
46.0315 61.9531 0 55.5806 18.5519 0 177.53 41.1906 0 
77.2589 50.4311 0 161.245 37.8189 0 17.0806 54.3229 0 
19.4255 73.6708 0 69.9588 77.3313 0 132.397 80.0601 0 
165.649 21.999 0 171.181 77.8157 0 8.38827 57.6443 0 
104.227 8.64393 0 79.2733 25.0029 0 86.7124 8.06884 0 
57.5582 8.29152 0 64.367 23.2913 0 105.097 92.542 0 
89.0387 58.2339 0 125.091 7.0823 0 72.3793 19.2701 0 
23.7237 66.2722 0 122.668 60.8101 0 192.765 34.9615 0 
192.913 65.0677 0 163.303 92.3556 0 76.8524 33.8263 0 
161.682 7.75359 0 6.72769 65.0926 0 180.033 59.0029 0 
7.90607 82.4603 0 49.7908 26.329 0 121.771 38.4439 0 
25.2701 81.4403 0 135.544 18.5943 0 103.241 20.3085 0 
107.048 78.8937 0 92.1463 30.9327 0 75.1537 64.722 0 
121.518 27.8362 0 48.3331 70.0852 0 93.1568 45.458 0 
80.9156 91.9904 0 89.1373 16.3006 0 134.735 70.4476 0 
64.9443 6.61111 0 61.8267 74.4691 0 80.0317 82.9522 0 
176.596 64.9548 0 192.385 17.8863 0 192.385 82.1137 0 
27.3448 49.3147 0 170.086 48.4162 0 174.091 19.7463 0 
95.7142 71.3724 0 125.885 92.9209 0 44.5295 52.6562 0 
143.893 69.7285 0 89.3293 79.1503 0 144.669 32.738 0 
164.188 82.7503 0 136.562 32.467 0 148.455 41.379 0 
100.462 44.6325 0 59.4655 50.3745 0 103.686 85.0368 0 
33.2246 93.4062 0 42.0474 38.0801 0 57.4601 35.7702 0 
87.4186 24.1708 0 16.1065 93.5369 0 46.7789 92.8841 0 
144.987 20.1958 0 144.822 5.51954 0 79.0516 7.19462 0 
89.9889 92.6385 0 82.5479 67.1377 0 144.962 93.9877 0 
128.393 56.5541 0 162.976 45.5947 0 139.826 81.7255 0 
51.3402 47.186 0 184.023 5.90405 0 184.067 94.1354 0 
112.578 93.4367 0 175.698 34.4354 0 194.479 5.52096 0 
194.479 94.479 0 89.2715 65.2769 0 4.69726 95.3027 0 
4.69726 90.3027 0 9.69726 95.3027 0 4.19413 53.8221 0 
9.07139 53.3418 0 4.19413 58.8221 0 197.24 92.2395 0 
197.24 97.2395 0 192.24 97.2395 0 197.24 2.76048 0 
197.24 7.76048 0 192.24 2.76048 0 53.2987 9.02302 0 
53.7791 4.14576 0 58.7791 4.14576 0 50.8873 18.8431 0 
52.3099 14.1532 0 56.5694 13.4217 0 45.6821 27.0538 0 
47.9924 22.7316 0 52.6857 22.4405 0 38.7013 36.7177 0 
41.8104 32.9293 0 45.5984 31.8977 0 49.7071 31.1729 0 
45.8354 37.0485 0 32.3001 43.6355 0 36.0885 40.5264 0 
39.4345 41.8888 0 23.2395 47.7543 0 27.5617 45.4441 0 
32.0832 47.5061 0 13.4175 51.6811 0 18.1074 50.2584 0 
22.2127 51.8188 0 12.7344 55.9836 0 196.193 13.9431 0 
196.193 18.9431 0 194.726 10.274 0 190.919 14.2171 0 
191.965 8.03449 0 195.059 22.7844 0 195.059 27.7844 0 
191.251 21.7275 0 196.382 32.4807 0 196.382 37.4807 0 
191.441 30.2651 0 194.593 42.1642 0 194.593 47.1642 0 
190.975 39.6449 0 194.685 53.0571 0 194.685 58.0571 0 
189.277 50.2213 0 196.457 62.5339 0 196.457 67.5339 0 
191.141 60.591 0 195.016 72.0417 0 195.016 77.0417 0 
191.473 69.5756 0 196.193 81.0569 0 196.193 86.0569 0 
191.209 78.0986 0 194.917 89.6151 0 191.11 85.6719 0 
192.157 91.8546 0 3.36385 67.5463 0 3.36385 62.5463 0 
7.55798 61.3684 0 5.07307 77.0988 0 5.07307 72.0988 0 
8.43692 69.6451 0 3.95304 86.2302 0 3.95304 81.2302 0 
9.0261 78.329 0 8.65029 86.5329 0 18.0532 96.7684 0 
13.0532 96.7684 0 12.7505 92.0712 0 27.2216 95.6893 0 
22.2216 95.6893 0 20.2749 92.4577 0 36.6123 96.7031 0 
31.6123 96.7031 0 28.8339 92.3924 0 48.3895 96.4421 0 
43.3895 96.4421 0 39.8815 94.816 0 36.4939 91.5191 0 
43.271 91.2581 0 57.1978 94.603 0 52.1978 94.603 0 
50.5873 91.045 0 67.1425 95.9371 0 62.1425 95.9371 0 
59.3404 90.5401 0 80.4578 95.9952 0 75.4578 95.9952 0 
71.3137 93.8888 0 68.4562 89.826 0 76.7715 89.884 0 
85.4578 95.9952 0 94.9944 96.3192 0 89.9944 96.3192 0 
85.4522 92.3144 0 107.549 96.271 0 102.549 96.271 0 
98.2174 94.0348 0 100.766 90.3058 0 93.2119 90.3541 0 
116.289 96.7184 0 111.289 96.7184 0 108.838 92.9893 0 
127.942 96.4604 0 122.942 96.4604 0 119.433 95.3253 0 
122.376 91.7858 0 115.722 92.0437 0 137.634 94.9406 0 
132.634 94.9406 0 130.576 91.4011 0 147.481 96.9939 0 
142.481 96.9939 0 140.115 91.9345 0 156.908 96.224 0 
151.908 96.224 0 149.389 93.2178 0 166.651 96.1778 0 
161.651 96.1778 0 158.56 92.4017 0 178.921 95.3225 0 
173.921 95.3225 0 169.874 93.3701 0 173.795 88.6926 0 
166.525 89.5479 0 187.033 97.0677 0 182.033 97.0677 0 
180.954 92.3901 0 189.273 94.3072 0 62.4721 3.30555 0 
67.4721 3.30555 0 61.2512 7.45131 0 74.5258 3.59731 0 
79.5258 3.59731 0 71.192 5.19498 0 68.6642 8.50054 0 
75.7178 8.79229 0 83.3562 4.03442 0 88.3562 4.03442 0 
82.882 7.63173 0 92.5852 5.43517 0 97.5852 5.43517 0 
90.9414 9.46959 0 102.114 4.32196 0 107.114 4.32196 0 
99.6988 9.75713 0 113.442 4.85367 0 118.442 4.85367 0 
110.555 9.17564 0 122.546 3.54115 0 127.546 3.54115 0 
120.987 8.39483 0 132.292 4.41057 0 137.292 4.41057 0 
129.837 7.95172 0 142.411 2.75977 0 147.411 2.75977 0 
139.703 7.17034 0 151.537 3.64268 0 156.537 3.64268 0 
148.948 6.40245 0 160.841 3.87679 0 165.841 3.87679 0 
157.378 7.51947 0 173.72 4.66397 0 178.72 4.66397 0 
169.56 6.78946 0 173.28 11.4534 0 165.401 10.6663 0 
182.011 2.95203 0 187.011 2.95203 0 180.731 7.61599 0 
189.251 5.71251 0 83.842 54.8297 0 81.8798 50.2155 0 
79.2211 55.0452 0 85.111 58.9466 0 87.7697 54.1169 0 
91.6374 51.4855 0 92.9064 55.6024 0 94.9654 49.2145 0 
89.8287 47.729 0 85.839 45.0481 0 81.2181 45.2636 0 
89.1671 42.7771 0 143.046 55.3226 0 139.606 51.5875 0 
138.351 57.6727 0 147.062 59.1029 0 148.317 53.0178 0 
142.879 44.1952 0 137.341 40.8169 0 138.763 45.8591 0 
146.378 45.3082 0 144.956 40.266 0 149.509 47.4807 0 
153.525 51.2611 0 151.586 43.5515 0 134.068 48.2093 0 
61.3246 67.2207 0 63.9089 63.6524 0 58.2486 62.4569 0 
58.7455 70.2472 0 64.4058 71.4426 0 54.2541 60.995 0 
56.8384 57.4267 0 49.4377 58.959 0 50.8479 63.9891 0 
54.9478 71.1859 0 51.9987 68.0552 0 51.2822 73.2159 0 
58.029 75.4079 0 47.1823 66.0191 0 115.49 60.9915 0 
110.732 57.5695 0 110.992 63.2032 0 119.209 63.7177 0 
118.949 58.084 0 110.543 68.5461 0 110.006 73.3229 0 
115.213 71.4019 0 105.785 65.1242 0 119.541 74.1385 0 
120.078 69.3617 0 123.537 66.4542 0 109.54 31.5064 0 
105.449 34.5903 0 110.704 36.559 0 114.627 28.0718 0 
109.372 26.1032 0 114.832 39.0079 0 110.742 42.0919 0 
118.32 41.4924 0 118.283 35.9594 0 118.156 30.6556 0 
117.989 25.2524 0 121.644 33.14 0 169.163 35.8093 0 
165.206 34.3261 0 165.202 39.3021 0 172.428 37.6103 0 
172.432 32.6344 0 164.325 29.4806 0 160.365 32.9734 0 
167.408 26.4162 0 162.567 25.0634 0 173.806 29.0638 0 
176.268 23.5203 0 171.629 25.2898 0 177.071 30.8649 0 
169.87 20.8727 0 170.325 63.8346 0 166.63 60.7896 0 
165.471 66.1217 0 172.881 67.0607 0 174.04 61.7286 0 
173.97 70.8293 0 170.174 73.4912 0 174.977 75.1538 0 
177.685 68.7234 0 164.884 71.4495 0 161.188 68.4045 0 
165.891 75.774 0 33.5115 70.8744 0 34.9533 66.7749 0 
29.3424 68.3243 0 31.5809 75.5073 0 37.1917 73.9579 0 
27.254 65.2485 0 25.8122 69.348 0 26.5854 76.9321 0 
30.2656 80.0155 0 23.6631 73.0473 0 21.5746 69.9715 0 
22.3478 77.5555 0 68.7043 31.371 0 68.2464 25.1563 0 
64.8249 29.506 0 71.0676 34.7735 0 74.4891 30.4237 0 
75.6996 26.012 0 75.8263 22.1365 0 72.2525 23.1456 0 
78.0628 29.4146 0 68.3732 21.2807 0 72.7939 71.2349 0 
68.4719 72.8737 0 74.2809 75.6925 0 76.8783 69.3878 0 
71.0693 66.569 0 83.5146 73.0029 0 83.9661 76.602 0 
88.8778 75.5513 0 85.4871 69.545 0 80.5754 70.5957 0 
74.9953 80.1417 0 79.3173 78.503 0 78.8508 65.9298 0 
84.6805 81.0513 0 144.622 25.8722 0 142.155 29.1284 0 
147.136 29.4817 0 147.295 23.2106 0 142.314 22.8573 0 
134.743 25.6865 0 137.592 22.0566 0 132.695 22.2243 0 
133.204 29.1606 0 138.101 28.9929 0 140.266 19.3951 0 
140.616 32.6025 0 144.061 75.7435 0 146.158 73.1339 0 
141.796 72.3381 0 139.762 78.3366 0 144.124 79.1324 0 
136.048 77.5039 0 137.216 72.6976 0 133.566 75.2539 0 
136.111 80.8928 0 139.314 70.0881 0 95.0018 16.7449 0 
99.0372 21.464 0 99.2058 15.5894 0 92.1538 13.5855 0 
91.9853 19.4601 0 99.5588 26.0786 0 103.763 24.9231 0 
93.4898 26.7761 0 98.2154 30.2352 0 91.1259 23.3952 0 
89.7824 27.5517 0 88.2779 20.2357 0 53.5232 39.4311 0 
57.4416 39.3078 0 53.5417 35.8935 0 50.4818 41.6014 0 
54.3816 45.0157 0 61.3529 39.2831 0 62.2945 44.4857 0 
66.2244 40.9233 0 61.3715 35.7455 0 58.4442 46.61 0 
63.3157 48.2502 0 55.4028 48.7803 0 183.906 47.1642 0 
183.998 53.0571 0 183.357 42.7594 0 178.078 45.5953 0 
175.055 54.2512 0 175.758 58.7527 0 179.329 54.5015 0 
174.356 49.2081 0 170.785 53.4593 0 184.701 57.5586 0 
173.808 44.8034 0 102.257 74.7688 0 103.113 78.9821 0 
106.192 74.6804 0 100.525 70.9197 0 97.4465 75.2215 0 
97.8068 83.5701 0 94.254 79.1104 0 92.8821 83.61 0 
100.06 86.5532 0 101.432 82.0536 0 105.367 81.9653 0 
92.5218 75.2614 0 120.09 52.849 0 119.91 47.4405 0 
115.049 49.9493 0 123.81 55.5752 0 123.361 44.392 0 
129.931 52.1389 0 129.088 46.4105 0 126.672 53.4472 0 
131.652 55.2459 0 127.498 40.4624 0 125.531 58.6821 0 
110.544 52.6717 0 110.364 47.2632 0 106.047 54.8834 0 
106.236 44.8142 0 103.538 42.1377 0 103.16 47.309 0 
101.316 51.4783 0 101.504 56.3762 0 98.618 48.8018 0 
41.9505 75.3929 0 40.0199 80.0258 0 46.5559 75.773 0 
43.7278 69.7051 0 49.5872 85.3334 0 54.3134 82.7763 0 
49.5049 78.9037 0 45.7788 87.1725 0 42.2709 85.5464 0 
37.5121 84.1114 0 37.7416 63.3269 0 33.5725 60.7768 0 
42.5769 65.639 0 41.1961 59.641 0 30.8825 57.3748 0 
28.0942 60.8228 0 31.8528 53.3218 0 26.3745 53.3677 0 
36.5912 51.5132 0 40.4451 54.9925 0 40.6755 49.1769 0 
45.2805 57.3047 0 162.669 15.7413 0 160.934 19.9513 0 
167.384 17.789 0 158.95 12.8286 0 150.074 15.3202 0 
154.646 12.5945 0 148.502 10.0111 0 144.459 16.4663 0 
150.603 19.0497 0 152.91 22.0646 0 154.543 27.1767 0 
157.851 23.0158 0 150.878 84.74 0 149.733 89.4102 0 
154.962 87.7778 0 152.266 79.8234 0 147.036 81.4559 0 
158.354 78.4199 0 154.512 75.1358 0 160.148 82.9289 0 
162.394 78.2413 0 159.705 87.7316 0 163.745 87.5529 0 
175.662 85.1142 0 179.709 87.0665 0 176.379 80.6519 0 
170.464 82.278 0 185.804 78.7857 0 184.403 73.2877 0 
180.175 77.99 0 186.981 82.8009 0 185.705 86.3591 0 
182.822 88.8117 0 186.951 91.6827 0 186.943 21.0687 0 
181.106 21.9315 0 184.281 26.4315 0 188.077 17.2275 0 
186.61 13.5583 0 186.737 8.22604 0 183.895 11.2364 0 
178.929 18.1575 0 180.604 12.9483 0 175.765 14.5371 0 
68.3552 62.1089 0 65.2792 57.3452 0 72.4396 60.2619 0 
75.4544 57.7306 0 73.4922 53.1164 0 78.1685 62.1907 0 
68.4458 50.9638 0 72.2124 48.2785 0 64.5955 53.0881 0 
60.1492 54.6316 0 67.7999 85.2231 0 63.6288 87.2714 0 
71.2931 82.5545 0 66.4657 79.9999 0 58.6841 85.9372 0 
58.6019 79.5076 0 62.3996 78.5688 0 65.8928 75.9002 0 
117.778 84.4024 0 119.086 79.5698 0 113.368 81.0113 0 
115.463 88.2473 0 121.181 86.8058 0 129.382 86.4211 0 
133.833 84.9707 0 127.946 81.5106 0 124.69 87.9409 0 
123.951 77.5296 0 128.401 76.0792 0 129.266 13.1347 0 
124.52 12.2653 0 129.746 18.0213 0 135.064 13.7077 0 
120.416 13.5778 0 115.672 16.188 0 119.204 20.0585 0 
122.733 22.6422 0 126.897 21.6513 0 125.682 26.8452 0 
166.649 56.0611 0 161.794 58.3483 0 165.95 51.018 0 
158.265 49.6719 0 157.073 55.209 0 162.395 49.6072 0 
158.846 45.6594 0 157.054 59.9374 0 166.531 47.0055 0 
153.879 40.3837 0 157.981 41.7714 0 157.143 36.4311 0 
150.748 38.2111 0 151.322 30.6344 0 156.262 31.5856 0 
148.855 33.8907 0 146.562 37.0585 0 13.0357 79.14 0 
17.6754 78.8766 0 14.7858 73.9342 0 11.9157 83.2714 0 
20.1843 87.7305 0 24.8567 86.4094 0 20.5977 82.7614 0 
16.0159 88.8096 0 12.6599 87.344 0 101.159 66.6784 0 
101.609 61.3356 0 96.3491 67.1311 0 96.879 57.9304 0 
93.0113 60.5618 0 89.1551 61.7554 0 93.1277 64.0834 0 
92.4929 68.3247 0 186.854 39.6193 0 181.026 38.0504 0 
188.643 34.9358 0 187.32 30.2395 0 181.483 31.1023 0 
180.11 34.6728 0 176.614 37.813 0 187.341 69.6798 0 
181.711 68.8841 0 188.781 65.172 0 187.009 60.6953 0 
182.341 62.1396 0 180.623 65.1156 0 178.314 61.9789 0 
147.158 64.0425 0 152.428 61.7377 0 142.842 65.5681 0 
148.208 68.2029 0 157.15 64.877 0 156.562 70.2048 0 
150.474 71.6083 0 20.2541 60.5209 0 21.2424 55.8718 0 
16.0923 58.9719 0 19.4139 64.9466 0 24.564 61.8465 0 
12.6251 68.9093 0 17.2648 68.6459 0 10.9159 64.3568 0 
11.7462 60.6326 0 100.487 33.9079 0 101.652 38.9605 0 
94.4181 34.6054 0 98.5759 41.4553 0 90.9336 39.1872 0 
88.6618 35.5145 0 94.9233 41.8681 0 96.8094 45.0453 0 
113.221 12.6318 0 112.009 19.1124 0 106.893 12.1 0 
106.4 17.9323 0 108.85 21.4886 0 103.734 14.4762 0 
76.8652 12.9655 0 72.3817 14.83 0 76.8628 17.4055 0 
80.199 11.3678 0 80.3098 20.2719 0 83.3459 24.5868 0 
84.3825 19.8559 0 84.0294 11.8049 0 85.2418 15.9208 0 
87.9249 12.1847 0 68.5817 12.382 0 68.5793 16.822 0 
64.8618 10.4926 0 60.1799 16.463 0 61.1687 11.3328 0 
59.9738 20.9216 0 64.5731 18.8327 0 69.5615 38.6514 0 
70.5031 43.8539 0 75.3463 37.7041 0 75.5495 46.0065 0 
79.5087 40.8391 0 81.0148 36.9612 0 53.5673 32.2574 0 
53.651 27.4135 0 57.4857 32.1341 0 61.3971 32.1094 0 
60.9392 25.8947 0 56.546 23.525 0 136.273 62.1146 0 
132.833 58.3795 0 132.745 66.6345 0 138.263 65.9277 0 
129.574 59.6878 0 127.58 67.4599 0 126.712 61.8158 0 
129.57 71.273 0 129.234 29.8206 0 125.07 30.8116 0 
132.592 33.1269 0 130.923 38.1339 0 125.196 36.1154 0 
134.894 37.4739 0 91.6758 87.3257 0 88.123 82.866 0 
88.4528 89.6101 0 83.9161 89.286 0 83.4742 84.7669 0 
80.4737 87.4713 0 35.6005 87.9345 0 33.3496 82.4139 0 
32.3313 89.8216 0 27.9406 88.8078 0 28.3541 83.8387 0 
110.862 77.5362 0 109.554 82.3688 0 112.318 89.6403 0 
108.578 89.1929 0 107.873 85.4403 0 104.392 88.7894 0 
171.605 16.6626 0 167.685 80.283 0 166.968 84.7453 0 
46.8896 40.6375 0 43.1016 41.6692 0 47.748 46.2221 0 
40.4888 45.4779 0 44.3427 48.9572 0 47.9348 49.9211 0 
139.257 10.779 0 139.738 15.6655 0 144.377 9.12816 0 
140.459 88.1269 0 145.306 90.1801 0 142.737 84.049 0 
137.547 85.8034 0 84.7232 35.3787 0 80.5607 32.2438 0 
88.2077 30.797 0 81.7711 27.8321 0 85.8438 27.416 0 
85.2274 62.4682 0 81.8656 63.3986 0 85.9097 66.2073 0 
76.3295 85.365 0 173.344 40.9879 0 169.623 44.6007 0 
162.111 41.7068 0 166.067 43.19 0 139.01 35.81 0 
143.063 35.9455 0 56.1547 53.1697 0 48.6867 54.3105 0 
52.092 51.5754 0 92.0702 71.6623 0 88.8488 68.6146 0 
38.6505 31.7197 5 31.7197 38.6505 5 44.0961 23.5698 5 
47.847 14.5142 5 49.7592 4.90086 5 23.5698 44.0961 5 
14.5142 47.847 5 4.90086 49.7592 5 2.45338 49.9398 2.5 
2.45338 49.9398 7.5 7.33652 49.4588 7.5 7.33652 49.4588 2.5 
49.9398 2.45338 7.5 49.9398 2.45338 2.5 49.4588 7.33652 7.5 
49.4588 7.33652 2.5 48.5016 12.149 2.5 47.0772 16.8445 2.5 
49.0393 9.75452 5 42.8864 25.7051 2.5 45.1995 21.3778 2.5 
46.194 19.1342 5 37.0476 33.5779 2.5 40.1604 29.785 2.5 
41.5735 27.7785 5 33.5779 37.0476 2.5 29.785 40.1604 2.5 
35.3553 35.3553 5 25.7051 42.8864 2.5 21.3778 45.1995 2.5 
27.7785 41.5735 5 16.8445 47.0772 2.5 12.149 48.5016 2.5 
19.1342 46.194 5 9.75452 49.0393 5 47.0772 16.8445 7.5 
48.5016 12.149 7.5 45.1995 21.3778 7.5 42.8864 25.7051 7.5 
40.1604 29.785 7.5 37.0476 33.5779 7.5 29.785 40.1604 7.5 
33.5779 37.0476 7.5 21.3778 45.1995 7.5 25.7051 42.8864 7.5 
12.149 48.5016 7.5 16.8445 47.0772 7.5 200 5 5 
200 15 5 200 25 5 200 35 5 
200 55 5 200 65 5 200 75 5 
200 95 5 200 45 5 200 85 5 
200 97.5 7.5 200 97.5 2.5 200 92.5 7.5 
200 2.5 2.5 200 2.5 7.5 200 7.5 7.5 
200 92.5 2.5 200 7.5 2.5 200 17.5 2.5 
200 12.5 2.5 200 10 5 200 12.5 7.5 
200 27.5 2.5 200 22.5 2.5 200 17.5 7.5 
200 20 5 200 22.5 7.5 200 37.5 2.5 
200 32.5 2.5 200 27.5 7.5 200 30 5 
200 32.5 7.5 200 47.5 2.5 200 42.5 2.5 
200 37.5 7.5 200 40 5 200 42.5 7.5 
200 57.5 2.5 200 52.5 2.5 200 52.5 7.5 
200 50 5 200 47.5 7.5 200 67.5 2.5 
200 62.5 2.5 200 57.5 7.5 200 60 5 
200 62.5 7.5 200 77.5 2.5 200 72.5 2.5 
200 67.5 7.5 200 70 5 200 72.5 7.5 
200 87.5 2.5 200 82.5 2.5 200 77.5 7.5 
200 80 5 200 82.5 7.5 200 90 5 
200 87.5 7.5 55 0 5 65 0 5 
75 0 5 85 0 5 95 0 5 
105 0 5 115 0 5 125 0 5 
135 0 5 145 0 5 155 0 5 
175 0 5 185 0 5 195 0 5 
165 0 5 197.5 0 7.5 197.5 0 2.5 
192.5 0 7.5 52.5 0 2.5 52.5 0 7.5 
57.5 0 7.5 192.5 0 2.5 57.5 0 2.5 
62.5 0 7.5 67.5 0 7.5 60 0 5 
62.5 0 2.5 72.5 0 7.5 77.5 0 7.5 
70 0 5 67.5 0 2.5 72.5 0 2.5 
82.5 0 7.5 87.5 0 7.5 80 0 5 
77.5 0 2.5 82.5 0 2.5 92.5 0 7.5 
97.5 0 7.5 90 0 5 87.5 0 2.5 
92.5 0 2.5 102.5 0 7.5 107.5 0 7.5 
100 0 5 97.5 0 2.5 102.5 0 2.5 
112.5 0 7.5 117.5 0 7.5 110 0 5 
107.5 0 2.5 112.5 0 2.5 122.5 0 7.5 
127.5 0 7.5 120 0 5 117.5 0 2.5 
122.5 0 2.5 132.5 0 7.5 137.5 0 7.5 
130 0 5 127.5 0 2.5 132.5 0 2.5 
142.5 0 7.5 147.5 0 7.5 140 0 5 
137.5 0 2.5 142.5 0 2.5 152.5 0 7.5 
157.5 0 7.5 150 0 5 147.5 0 2.5 
152.5 0 2.5 162.5 0 7.5 167.5 0 7.5 
160 0 5 157.5 0 2.5 162.5 0 2.5 
172.5 0 7.5 177.5 0 7.5 170 0 5 
172.5 0 2.5 167.5 0 2.5 182.5 0 7.5 
187.5 0 7.5 180 0 5 177.5 0 2.5 
182.5 0 2.5 190 0 5 187.5 0 2.5 
31.7496 68.5708 4.22118 60.5839 46.4648 4.18688 117.325 28.2543 4.34669 
167.93 83.1747 5.30025 158.872 57.5457 5.36189 146.639 23.0503 5 
65.1881 35.8916 5 154.307 17.8432 5 161.694 92.0924 5 
35.9791 79.8103 5 21.8394 65.6855 5 105.568 27.367 4.82293 
50.4238 48.7858 5 152.623 66.6002 5 123.213 36.6841 5 
163.678 74.6046 5 154.726 48.2081 5 161.794 58.3483 5 
161.813 53.6198 5 160.343 55.5827 7.68095 160.343 55.5827 2.68095 
160.324 60.3112 7.68095 161.775 63.0767 5 160.324 60.3112 2.68095 
142.314 22.8573 5 139.641 25.5189 5 143.14 24.2846 7.5 
143.14 24.2846 2.5 145.813 21.6231 7.5 30.7842 64.2249 5 
34.9533 66.7749 5 35.436 68.9479 2.11059 31.2669 66.3978 7.11059 
31.2669 66.3978 2.11059 144.987 20.1958 5 145.813 21.6231 2.5 
63.3157 48.2502 5 67.166 46.1259 5 60.0247 48.4197 7.09344 
63.875 46.2954 7.09344 63.875 46.2954 2.09344 117.989 25.2524 5 
121.518 27.8362 5 119.421 28.0452 2.17335 119.421 28.0452 7.17335 
115.892 25.4615 2.17335 59.4655 50.3745 5 60.0247 48.4197 2.09344 
69.9721 3.30555 2.5 73.692 5.19498 2.5 68.6642 8.50054 5 
69.9721 3.30555 7.5 64.9443 6.61111 5 114.46 22.6686 5 
115.892 25.4615 7.17335 39.1224 69.325 5 35.436 68.9479 7.11059 
67.4721 3.30555 5 64.9721 3.30555 2.5 64.9721 3.30555 7.5 
100.766 90.3058 5 100.049 96.271 2.5 95.7174 94.0348 7.5 
100.049 96.271 7.5 105.097 92.542 5 69.6425 95.9371 2.5 
69.6425 95.9371 7.5 64.2851 91.8742 5 68.4562 89.826 5 
73.8137 93.8888 7.5 73.692 5.19498 7.5 72.3841 10.39 5 
167.374 93.3701 7.5 164.151 96.1778 7.5 163.347 96.0462 5 
162.499 92.224 7.5 165.721 89.4164 7.5 167.374 93.3701 2.5 
164.151 96.1778 2.5 165.721 89.4164 2.5 162.499 92.224 2.5 
196.457 67.5339 5 196.457 70.0339 7.5 196.457 70.0339 2.5 
192.913 65.0677 5 196.457 65.0339 7.5 196.457 65.0339 2.5 
196.457 60.0339 2.5 196.457 60.0339 7.5 191.141 60.591 5 
194.685 55.5571 2.5 194.593 49.6642 7.5 189.277 50.2213 5 
189.185 44.3283 5 194.593 49.6642 2.5 5.07307 74.5988 7.5 
3.36385 70.0463 2.5 8.43692 69.6451 5 6.72769 65.0926 5 
3.36385 70.0463 7.5 194.593 44.6642 7.5 194.593 47.1642 5 
194.593 44.6642 2.5 196.457 62.5339 5 196.382 39.9807 7.5 
196.382 39.9807 2.5 190.975 39.6449 5 192.765 34.9615 5 
194.685 55.5571 7.5 189.369 56.1143 5 53.5417 35.8935 5 
57.4857 32.1341 5 57.4601 35.7702 5 125.531 58.6821 5 
123.81 55.5752 5 126.672 53.4472 5 128.393 56.5541 5 
127.546 3.54115 5 130.046 3.54115 2.5 125.046 3.54115 2.5 
191.441 30.2651 5 196.382 29.9807 7.5 195.059 25.2844 2.5 
196.382 29.9807 2.5 196.382 34.9807 7.5 196.382 32.4807 5 
196.382 34.9807 2.5 116.933 95.3253 7.5 119.433 95.3253 5 
118.867 90.6507 5 116.933 95.3253 2.5 121.933 95.3253 7.5 
121.933 95.3253 2.5 131.652 55.2459 5 61.2791 4.14576 2.5 
61.2512 7.45131 5 3.36385 67.5463 5 3.36385 65.0463 2.5 
3.36385 65.0463 7.5 67.1425 95.9371 5 64.6425 95.9371 2.5 
64.6425 95.9371 7.5 125.091 7.0823 5 130.046 3.54115 7.5 
125.046 3.54115 7.5 195.016 74.5417 7.5 191.473 69.5756 5 
85.2418 15.9208 5 84.3825 19.8559 5 88.2779 20.2357 5 
89.1373 16.3006 5 57.4416 39.3078 5 172.881 67.0607 5 
174.04 61.7286 5 176.596 64.9548 5 59.6425 95.9371 7.5 
59.6425 95.9371 2.5 59.3404 90.5401 5 54.6978 94.603 7.5 
102.549 96.271 5 105.049 96.271 2.5 105.049 96.271 7.5 
169.747 86.7403 5 196.382 37.4807 5 187.417 94.6151 7.5 
189.74 97.2395 7.5 192.157 91.8546 5 187.417 94.6151 2.5 
189.834 89.2301 5 132.833 58.3795 5 129.574 59.6878 5 
73.8137 93.8888 2.5 72.6274 87.7777 5 110.862 77.5362 5 
107.048 78.8937 5 106.192 74.6804 5 103.113 78.9821 5 
166.531 47.0055 5 162.395 49.6072 5 162.976 45.5947 5 
194.479 94.479 5 189.74 97.2395 2.5 95.7174 94.0348 2.5 
96.4349 88.0697 5 80.3098 20.2719 5 75.8263 22.1365 5 
79.2733 25.0029 5 72.3793 19.2701 5 76.8628 17.4055 5 
92.1538 13.5855 5 95.0018 16.7449 5 91.9853 19.4601 5 
29.1123 96.7031 2.5 24.7216 95.6893 2.5 28.8339 92.3924 5 
29.1123 96.7031 7.5 33.2246 93.4062 5 20.5532 96.7684 2.5 
20.5532 96.7684 7.5 20.2749 92.4577 5 16.1065 93.5369 5 
122.376 91.7858 5 125.442 96.4604 2.5 81.8656 63.3986 5 
82.5479 67.1377 5 85.9097 66.2073 5 173.28 11.4534 5 
176.22 4.66397 7.5 172.06 6.78946 2.5 176.22 4.66397 2.5 
177.44 9.32794 5 5.07307 74.5988 2.5 10.1461 74.1976 5 
18.0532 96.7684 5 15.5532 96.7684 7.5 15.5532 96.7684 2.5 
151.908 96.224 5 149.408 96.224 2.5 154.408 96.224 2.5 
104.392 88.7894 5 107.873 85.4403 5 103.686 85.0368 5 
162.111 41.7068 5 166.067 43.19 5 186.951 91.6827 5 
184.533 97.0677 2.5 46.9434 24.9494 2.5 47.9924 22.7316 5 
49.7908 26.329 5 46.9434 24.9494 7.5 194.917 87.1151 7.5 
197.24 89.7395 7.5 194.917 87.1151 2.5 72.3817 14.83 5 
83.3459 24.5868 5 45.6821 27.0538 5 64.8618 10.4926 5 
84.0294 11.8049 5 87.9249 12.1847 5 154.408 96.224 7.5 
153.817 92.4479 5 149.408 96.224 7.5 195.059 25.2844 7.5 
190.117 25.5687 5 194.726 12.774 7.5 197.24 10.2605 7.5 
194.479 5.52096 5 197.24 10.2605 2.5 191.965 8.03449 5 
189.74 2.76048 7.5 187.226 5.27401 7.5 189.74 2.76048 2.5 
173.97 70.8293 5 177.685 68.7234 5 109.614 4.32196 2.5 
107.114 4.32196 5 104.614 4.32196 2.5 113.221 12.6318 5 
115.672 16.188 5 109.559 15.5562 5 112.009 19.1124 5 
197.24 89.7395 2.5 105.367 81.9653 5 109.554 82.3688 5 
144.669 32.738 5 142.155 29.1284 5 144.622 25.8722 5 
147.136 29.4817 5 85.4871 69.545 5 80.5754 70.5957 5 
16.0159 88.8096 5 101.432 82.0536 5 194.726 12.774 2.5 
189.452 10.548 5 187.226 5.27401 2.5 100.462 44.6325 5 
103.538 42.1377 5 106.236 44.8142 5 103.16 47.309 5 
81.3464 15.5409 5 167.06 6.78946 2.5 163.341 3.87679 7.5 
165.401 10.6663 5 161.682 7.75359 5 163.341 3.87679 2.5 
144.981 96.9939 7.5 149.389 93.2178 5 115.942 4.85367 7.5 
109.614 4.32196 7.5 104.227 8.64393 5 110.555 9.17564 5 
184.533 97.0677 7.5 165.95 51.018 5 170.086 48.4162 5 
170.785 53.4593 5 31.438 86.2371 5 28.3541 83.8387 5 
27.9406 88.8078 5 169.623 44.6007 5 49.7071 31.1729 5 
125.442 96.4604 7.5 125.885 92.9209 5 62.1425 95.9371 5 
139.314 70.0881 5 138.263 65.9277 5 143.893 69.7285 5 
142.842 65.5681 5 150.748 38.2111 5 148.455 41.379 5 
146.562 37.0585 5 148.855 33.8907 5 78.8508 65.9298 5 
165.649 21.999 5 162.567 25.0634 5 159.978 19.9211 2.5 
156.895 22.9855 2.5 159.978 19.9211 7.5 87.4186 24.1708 5 
39.8815 94.816 5 42.3815 94.816 2.5 37.3815 94.816 2.5 
184.067 94.1354 5 87.7697 54.1169 5 89.0387 58.2339 5 
92.9064 55.6024 5 90.8562 4.03442 7.5 90.8562 4.03442 2.5 
86.7124 8.06884 5 90.9414 9.46959 5 95.0852 5.43517 7.5 
106.893 12.1 5 142.411 2.75977 5 139.911 2.75977 2.5 
144.911 2.75977 2.5 76.8652 12.9655 5 144.981 96.9939 2.5 
144.962 93.9877 5 100.06 86.5532 5 139.981 96.9939 7.5 
139.981 96.9939 2.5 142.481 96.9939 5 52.6857 22.4405 5 
192.24 97.2395 5 194.74 97.2395 2.5 184.701 57.5586 5 
180.033 59.0029 5 179.329 54.5015 5 180.623 65.1156 5 
32.3313 89.8216 5 194.74 2.76048 7.5 192.24 2.76048 5 
115.942 4.85367 2.5 116.884 9.70735 5 149.733 89.4102 5 
154.962 87.7778 5 135.134 94.9406 2.5 140.115 91.9345 5 
64.7793 14.374 5 61.1687 11.3328 5 56.5694 13.4217 5 
60.1799 16.463 5 104.614 4.32196 7.5 118.442 4.85367 5 
120.942 4.85367 7.5 53.651 27.4135 5 61.3241 35.8309 2.5 
61.3497 32.1948 7.5 61.3241 35.8309 7.5 166.649 56.0611 5 
12.6251 68.9093 5 10.9159 64.3568 5 57.5113 28.498 5 
53.5673 32.2574 5 195.016 74.5417 2.5 170.325 63.8346 5 
169.167 69.1667 5 151.586 43.5515 5 24.8567 86.4094 5 
25.2701 81.4403 5 20.5977 82.7614 5 20.1843 87.7305 5 
100.525 70.9197 5 96.3491 67.1311 5 95.7142 71.3724 5 
130.442 96.4604 7.5 135.134 94.9406 7.5 130.576 91.4011 5 
130.442 96.4604 2.5 61.3056 39.3685 7.5 34.1123 96.7031 2.5 
34.1123 96.7031 7.5 36.4939 91.5191 5 159.484 28.1279 5 
156.895 22.9855 7.5 139.911 2.75977 7.5 144.822 5.51954 5 
144.911 2.75977 7.5 178.314 61.9789 5 175.758 58.7527 5 
120.942 4.85367 2.5 172.428 37.6103 5 172.432 32.6344 5 
175.698 34.4354 5 173.795 88.6926 5 172.374 93.3701 2.5 
176.421 95.3225 7.5 177.842 90.6449 5 176.421 95.3225 2.5 
99.1787 79.0705 5 102.257 74.7688 5 171.484 58.5025 5 
172.06 6.78946 7.5 169.12 13.5789 5 194.74 97.2395 7.5 
106.614 39.6429 5 110.742 42.0919 5 110.704 36.559 5 
114.832 39.0079 5 22.3478 77.5555 5 17.6754 78.8766 5 
110.544 52.6717 5 115.049 49.9493 5 110.364 47.2632 5 
105.858 49.9855 5 85.111 58.9466 5 97.4465 75.2215 5 
108.578 89.1929 5 186.737 8.22604 5 184.511 2.95203 2.5 
54.6978 94.603 2.5 54.3956 89.2059 5 194.74 2.76048 2.5 
93.0113 60.5618 5 57.423 42.8454 5 53.5232 39.4311 5 
50.0236 42.4013 7.5 53.9234 45.8156 2.5 53.9234 45.8156 7.5 
144.956 40.266 5 143.063 35.9455 5 149.603 26.2255 5 
31.6123 96.7031 5 101.652 38.9605 5 105.449 34.5903 5 
120.987 8.39483 5 17.2648 68.6459 5 19.4255 73.6708 5 
20.6325 69.6782 7.5 20.6325 69.6782 2.5 18.4717 64.6533 2.5 
184.511 2.95203 7.5 184.023 5.90405 5 24.4432 91.3785 5 
24.7216 95.6893 7.5 113.789 96.7184 7.5 115.722 92.0437 5 
68.5817 12.382 5 68.5793 16.822 5 110.543 68.5461 5 
105.785 65.1242 5 105.335 70.4671 5 108.789 96.7184 7.5 
108.838 92.9893 5 138.101 28.9929 5 134.743 25.6865 5 
124.69 87.9409 5 49.4377 58.959 5 54.2541 60.995 5 
52.8439 55.9648 5 144.124 79.1324 5 139.762 78.3366 5 
139.698 74.9477 5 144.061 75.7435 5 145.649 86.3725 5 
150.878 84.74 5 169.874 93.3701 5 172.374 93.3701 7.5 
7.55798 61.3684 5 4.19413 61.3221 2.5 49.6234 36.0168 5 
94.8332 22.6195 5 93.4898 26.7761 5 100.2 24.9932 7.41147 
98.8569 29.1498 2.41147 100.2 24.9932 2.41147 165.471 66.1217 5 
188.781 65.172 5 190.032 74.0834 5 110.006 73.3229 5 
114.677 76.1787 5 61.2791 4.14576 7.5 57.5582 8.29152 5 
169.159 40.7853 5 165.202 39.3021 5 169.163 35.8093 5 
89.2715 65.2769 5 85.2274 62.4682 5 115.229 55.3578 5 
55.5806 18.5519 5 44.5295 52.6562 5 40.6755 49.1769 5 
40.4451 54.9925 5 108.789 96.7184 2.5 112.578 93.4367 5 
188.643 34.9358 5 127.942 96.4604 5 157.981 41.7714 5 
153.879 40.3837 5 157.143 36.4311 5 161.245 37.8189 5 
98.5759 41.4553 5 137.216 72.6976 5 141.796 72.3381 5 
187.32 30.2395 5 184.522 34.9102 5 181.483 31.1023 5 
169.56 6.78946 5 167.06 6.78946 7.5 134.792 4.41057 7.5 
129.837 7.95172 5 115.49 60.9915 5 110.732 57.5695 5 
180.175 77.99 5 178.773 72.492 5 184.403 73.2877 5 
147.208 64.0039 2.5 148.258 68.1643 7.5 148.258 68.1643 2.5 
166.63 60.7896 5 129.846 25.8542 5 133.204 29.1606 5 
46.0315 61.9531 5 50.8479 63.9891 5 33.5725 60.7768 5 
37.7416 63.3269 5 167.408 26.4162 5 169.87 20.8727 5 
110.992 63.2032 5 115.75 66.6252 5 106.235 59.7813 5 
58.6841 85.9372 5 62.9725 82.6685 5 58.6019 79.5076 5 
129.266 13.1347 5 124.52 12.2653 5 14.7858 73.9342 5 
98.618 48.8018 5 96.8094 45.0453 5 175.055 54.2512 5 
184.281 26.4315 5 186.943 21.0687 5 139.703 7.17034 5 
157.986 43.0135 7.5 158.851 46.9014 7.5 154.721 46.9661 7.5 
190.919 14.2171 5 196.193 16.4431 2.5 101.316 51.4783 5 
94.9233 41.8681 5 89.1671 42.7771 5 93.1568 45.458 5 
56.2791 4.14576 7.5 58.7791 4.14576 5 89.8287 47.729 5 
94.9654 49.2145 5 153.04 35.0433 5 154.543 27.1767 5 
151.955 22.0343 2.5 151.955 22.0343 7.5 71.0693 66.569 5 
75.1537 64.722 5 72.4396 60.2619 5 136.048 77.5039 5 
133.566 75.2539 5 4.19413 61.3221 7.5 4.19413 58.8221 5 
4.19413 56.3221 7.5 158.851 46.9014 2.5 158.269 50.9139 7.5 
106.4 17.9323 5 103.734 14.4762 5 114.87 44.5409 5 
113.789 96.7184 2.5 187.341 69.6798 5 44.1559 45.2582 5 
46.8896 40.6375 5 47.2898 47.022 2.5 47.2898 47.022 7.5 
114.795 33.475 5 181.711 68.8841 5 184.649 65.2763 5 
196.193 83.5569 7.5 191.11 85.6719 5 160.365 32.9734 5 
165.206 34.3261 5 181.106 21.9315 5 183.768 16.5687 5 
178.444 27.2944 5 15.9253 84.0824 5 138.763 45.8591 5 
142.879 44.1952 5 141.457 39.153 5 137.341 40.8169 5 
120.09 52.849 5 92.1463 30.9327 5 98.8569 29.1498 7.41147 
182.341 62.1396 5 88.123 82.866 5 92.8821 83.61 5 
91.6758 87.3257 5 86.9167 86.5816 5 182.011 2.95203 5 
179.511 2.95203 2.5 151.322 30.6344 5 72.7939 71.2349 5 
76.8783 69.3878 5 136.562 32.467 5 140.616 32.6025 5 
134.792 4.41057 2.5 115.463 88.2473 5 121.181 86.8058 5 
164.188 82.7503 5 166.059 82.9625 7.65013 166.059 82.9625 2.65013 
162.941 87.4213 2.5 164.812 87.6335 5.15013 162.941 87.4213 7.5 
30.6246 80.6253 2.5 33.7085 83.0237 7.5 33.7085 83.0237 2.5 
115.213 71.4019 5 106.047 54.8834 5 101.504 56.3762 5 
156.262 31.5856 5 164.325 29.4806 5 50.0236 42.4013 2.5 
96.9839 62.8898 5 101.159 66.6784 5 94.254 79.1104 5 
92.5218 75.2614 5 42.3815 94.816 7.5 39.7631 89.632 5 
37.3815 94.816 7.5 197.24 92.2395 5 197.24 94.7395 7.5 
197.24 94.7395 2.5 183.998 53.0571 5 183.906 47.1642 5 
156.108 83.1076 5 182.033 97.0677 5 179.533 97.0677 7.5 
88.4262 71.9522 5 83.5146 73.0029 5 91.6374 51.4855 5 
86.5007 50 5 13.0357 79.14 5 177.071 30.8649 5 
180.11 34.6728 5 186.854 39.6193 5 128.621 33.7869 5 
129.234 29.8206 5 125.682 26.8452 5 125.07 30.8116 5 
187.009 60.6953 5 122.668 60.8101 5 63.6288 87.2714 5 
174.356 49.2081 5 192.385 17.8863 5 196.193 16.4431 7.5 
181.026 38.0504 5 157.199 64.8385 2.5 157.199 64.8385 7.5 
162.726 68.8407 2.5 162.726 68.8407 7.5 158.151 70.6024 5 
197.24 7.76048 5 197.24 5.26048 2.5 197.24 5.26048 7.5 
3.95304 78.7302 2.5 9.0261 78.329 5 3.95304 78.7302 7.5 
7.90607 82.4603 5 119.91 47.4405 5 35.6005 87.9345 5 
132.592 33.1269 5 130.755 62.8214 5 127.58 67.4599 5 
123.537 66.4542 5 126.712 61.8158 5 110.181 30.421 2.41147 
106.091 33.5049 2.41147 110.181 30.421 7.41147 15.104 63.621 5 
18.4717 64.6533 7.5 101.609 61.3356 5 178.626 50 5 
129.57 71.273 5 128.401 76.0792 5 132.397 80.0601 5 
56.546 23.525 5 147.062 59.1029 5 148.317 53.0178 5 
152.333 56.7981 5 45.2805 57.3047 5 89.1551 61.7554 5 
59.0035 44.6551 7.09344 66.1771 41.0088 7.5 62.886 41.1782 4.59344 
48.6867 54.3105 5 84.7232 35.3787 5 88.2077 30.797 5 
84.269 30.6613 5 88.8778 75.5513 5 83.9661 76.602 5 
124.405 72.0983 5 41.1961 59.641 5 42.5769 65.639 5 
104.926 28.4523 7.41147 104.926 28.4523 2.41147 100.487 33.9079 5 
96.6898 38.2782 5 137.592 22.0566 5 124.951 50.3402 5 
129.088 46.4105 5 124.082 43.5121 7.5 128.219 39.5825 7.5 
124.082 43.5121 2.5 130.923 38.1339 5 50.882 47.9859 7.5 
50.882 47.9859 2.5 134.735 70.4476 5 32.0832 47.5061 5 
36.5912 51.5132 5 36.8216 45.6975 5 59.0035 44.6551 2.09344 
61.3056 39.3685 2.5 95.0852 5.43517 2.5 95.1703 10.8703 5 
55.6644 66.0252 5 149.037 3.64268 7.5 151.537 3.64268 5 
154.037 3.64268 7.5 20.3252 49.2095 2.5 17.0806 54.3229 5 
20.3252 49.2095 7.5 18.1074 50.2584 5 146.378 45.3082 5 
139.826 81.7255 5 66.1771 41.0088 2.5 139.606 51.5875 5 
134.911 53.9377 5 134.068 48.2093 5 26.5854 76.9321 5 
31.9399 76.117 2.5 30.6246 80.6253 7.5 145.306 90.1801 5 
64.5731 18.8327 5 78.1685 62.1907 5 179.511 2.95203 7.5 
191.209 78.0986 5 192.385 82.1137 5 186.981 82.8009 5 
185.804 78.7857 5 132.695 22.2243 5 81.7711 27.8321 5 
80.5607 32.2438 5 176.614 37.813 5 51.7138 16.5331 2.5 
52.7026 11.4029 2.5 51.7138 16.5331 7.5 37.8711 84.7211 2.5 
196.193 83.5569 2.5 96.879 57.9304 5 88.8488 68.6146 5 
83.842 54.8297 5 181.576 83.4881 5 96.774 52.971 5 
185.705 86.3591 5 126.897 21.6513 5 146.158 73.1339 5 
129.931 52.1389 5 31.8528 53.3218 5 27.3448 49.3147 5 
68.3732 21.2807 5 63.9089 63.6524 5 68.3552 62.1089 5 
65.2792 57.3452 5 60.8329 58.8886 5 93.1277 64.0834 5 
173.344 40.9879 5 152.478 61.6992 7.5 147.208 64.0039 7.5 
152.478 61.6992 2.5 28.0942 60.8228 5 119.004 35.0796 7.5 
119.041 40.6125 2.5 119.004 35.0796 2.5 97.8068 83.5701 5 
118.32 41.4924 5 88.3562 4.03442 5 85.8562 4.03442 2.5 
85.8562 4.03442 7.5 58.7455 70.2472 5 61.8267 74.4691 5 
64.4058 71.4426 5 78.0628 29.4146 5 43.1016 41.6692 5 
42.0474 38.0801 5 45.8354 37.0485 5 81.8798 50.2155 5 
85.839 45.0481 5 92.4929 68.3247 5 75.6996 26.012 5 
73.8401 41.582 5 75.5495 46.0065 5 81.2181 45.2636 5 
79.5087 40.8391 5 52.7026 11.4029 7.5 132.745 66.6345 5 
72.2525 23.1456 5 176.379 80.6519 5 174.977 75.1538 5 
133.225 42.4809 5 128.219 39.5825 2.5 67.7999 85.2231 5 
36.3608 57.3288 5 157.378 7.51947 5 153.074 7.28536 5 
157.995 12.7984 7.5 153.69 12.5643 7.5 153.69 12.5643 2.5 
85.8438 27.416 5 99.6988 9.75713 5 99.6136 4.32196 2.5 
141.792 61.4077 5 143.046 55.3226 5 56.2791 4.14576 2.5 
9.69726 95.3027 5 7.19726 95.3027 2.5 12.1973 95.3027 2.5 
134.894 37.4739 5 136.273 62.1146 5 25.4573 46.7054 7.5 
25.4573 46.7054 2.5 179.533 97.0677 2.5 111.289 96.7184 5 
125.917 35.2355 7.5 122.365 32.2601 2.5 125.917 35.2355 2.5 
22.2127 51.8188 5 113.368 81.0113 5 119.086 79.5698 5 
8.38827 57.6443 5 147.036 81.4559 5 112.059 85.8438 5 
94.4181 34.6054 5 142.737 84.049 5 119.541 74.1385 5 
133.833 84.9707 5 127.946 81.5106 5 120.078 69.3617 5 
119.209 63.7177 5 173.808 44.8034 5 177.53 41.1906 5 
183.357 42.7594 5 139.01 35.81 5 158.95 12.8286 5 
4.19413 56.3221 2.5 112.318 89.6403 5 99.0372 21.464 5 
72.1258 27.0212 5 68.2464 25.1563 5 64.7776 29.5915 7.5 
68.657 31.4564 2.5 68.657 31.4564 7.5 129.746 18.0213 5 
135.064 13.7077 5 135.544 18.5943 5 99.6136 4.32196 7.5 
169.167 30.8333 5 154.512 75.1358 5 148.423 76.5393 5 
150.523 71.5697 2.5 150.523 71.5697 7.5 156.612 70.1662 2.5 
11.9157 83.2714 5 54.3134 82.7763 5 54.2312 76.3466 5 
71.2931 82.5545 5 66.4657 79.9999 5 60.9392 25.8947 5 
61.3497 32.1948 2.5 64.7776 29.5915 2.5 171.181 77.8157 5 
174.091 19.7463 5 171.629 25.2898 5 156.612 70.1662 7.5 
162.139 74.1684 7.5 162.139 74.1684 2.5 58.2486 62.4569 5 
180.731 7.61599 5 92.0702 71.6623 5 59.9738 20.9216 5 
182.822 88.8117 5 152.266 79.8234 5 158.354 78.4199 5 
12.7505 92.0712 5 144.301 49.2374 5 56.8384 57.4267 5 
15.7974 51.085 7.5 15.7974 51.085 2.5 136.111 80.8928 5 
118.949 58.084 5 123.951 77.5296 5 191.251 21.7275 5 
196.193 21.4431 2.5 196.193 21.4431 7.5 138.351 57.6727 5 
102.114 4.32196 5 61.3246 67.2207 5 122.733 22.6422 5 
148.948 6.40245 5 90.9336 39.1872 5 154.037 3.64268 2.5 
149.037 3.64268 2.5 29.8251 70.4973 7.11059 29.8251 70.4973 2.11059 
27.9007 72.4238 5 31.9399 76.117 7.5 33.8643 74.1905 4.61059 
135.268 89.8813 5 178.078 45.5953 5 68.4458 50.9638 5 
148.121 24.6379 7.5 148.121 24.6379 2.5 150.473 20.4467 5 
41.9505 75.3929 5 40.3789 80.6356 7.5 37.5507 74.5676 7.5 
37.5507 74.5676 2.5 44.7787 81.4609 5 40.3789 80.6356 2.5 
43.7278 69.7051 5 46.5559 75.773 5 48.3331 70.0852 5 
81.1833 59.6594 5 74.4891 30.4237 5 71.0202 34.8589 2.5 
117.778 84.4024 5 160.148 82.9289 5 163.933 78.6774 2.5 
159.893 78.8561 7.5 163.933 78.6774 7.5 26.3118 64.9552 7.5 
26.3118 64.9552 2.5 26.7945 67.1282 4.61059 89.3293 79.1503 5 
148.502 10.0111 5 149.119 15.29 2.5 80.199 11.3678 5 
83.4742 84.7669 5 80.0317 82.9522 5 74.9953 80.1417 5 
76.3295 85.365 5 69.9588 77.3313 5 158.901 87.6 7.5 
103.241 20.3085 5 99.2058 15.5894 5 137.547 85.8034 5 
183.895 11.2364 5 186.61 13.5583 5 68.4719 72.8737 5 
74.2809 75.6925 5 44.3427 48.9572 5 75.7178 8.79229 5 
140.459 88.1269 5 69.7256 55.8018 5 66.9849 68.4161 5 
157.756 92.2702 7.5 157.756 92.2702 2.5 196.193 78.5569 7.5 
196.193 78.5569 2.5 77.0258 3.59731 2.5 122.365 32.2601 7.5 
160.841 3.87679 5 158.341 3.87679 7.5 23.6631 73.0473 5 
78.603 74.0537 5 75.4544 57.7306 5 58.029 75.4079 5 
40.3489 34.8999 2.5 40.3489 34.8999 7.5 44.1369 33.8682 7.5 
40.4888 45.4779 5 123.496 82.961 5 129.382 86.4211 5 
64.5955 53.0881 5 166.422 71.8856 2.5 166.422 71.8856 7.5 
85.1773 40.0962 5 77.2589 50.4311 5 50.8895 96.4421 2.5 
50.8895 96.4421 7.5 46.7789 92.8841 5 50.5873 91.045 5 
36.8835 38.3653 2.5 39.4345 41.8888 5 34.2706 42.174 7.5 
36.8835 38.3653 7.5 122.492 37.564 2.5 167.384 17.789 5 
162.669 15.7413 5 180.954 92.3901 5 76.8524 33.8263 5 
71.0202 34.8589 7.5 49.5872 85.3334 5 49.5049 78.9037 5 
62.3996 78.5688 5 91.1259 23.3952 5 123.948 17.4483 5 
134.584 8.82114 5 79.3173 78.503 5 84.6805 81.0513 5 
88.6618 35.5145 5 26.3745 53.3677 5 25.4042 57.4207 5 
30.8825 57.3748 5 170.174 73.4912 5 116.06 30.8647 2.17335 
116.06 30.8647 7.17335 111.446 27.8106 4.58481 51.6338 52.3753 7.5 
47.4766 50.721 2.5 47.4766 50.721 7.5 45.7788 87.1725 5 
178.929 18.1575 5 176.268 23.5203 5 51.6338 52.3753 2.5 
64.367 23.2913 5 173.806 29.0638 5 158.269 50.9139 2.5 
60.1492 54.6316 5 188.077 17.2275 5 79.0516 7.19462 5 
21.2424 55.8718 5 23.6218 61.5531 7.5 19.46 60.0042 7.5 
19.46 60.0042 2.5 82.882 7.63173 5 82.0258 3.59731 7.5 
76.7715 89.884 5 77.9578 95.9952 7.5 2.5 97.5 5 
7.19726 95.3027 7.5 4.69726 92.8027 7.5 4.69726 92.8027 2.5 
47.1823 66.0191 5 149.647 19.0195 7.5 149.647 19.0195 2.5 
45.8895 96.4421 2.5 43.271 91.2581 5 45.8895 96.4421 7.5 
22.7816 65.9789 2.5 24.87 69.0547 2.5 24.87 69.0547 7.5 
22.7816 65.9789 7.5 158.341 3.87679 2.5 75.3463 37.7041 5 
3.95304 81.2302 5 3.95304 83.7302 2.5 3.95304 83.7302 7.5 
77.0258 3.59731 7.5 4.69726 90.3027 5 4.69726 87.8027 7.5 
175.662 85.1142 5 122.492 37.564 7.5 16.0923 58.9719 5 
155.603 57.1719 2.68095 155.748 62.0729 5.18095 153.529 52.5031 7.5 
153.529 52.5031 2.5 149.513 48.7228 7.5 72.2124 48.2785 5 
70.5031 43.8539 5 69.5141 38.7368 2.5 69.5141 38.7368 7.5 
65.8928 75.9002 5 155.603 57.1719 7.68095 9.07139 53.3418 5 
11.4513 52.7456 7.5 11.4513 52.7456 2.5 81.0148 36.9612 5 
54.9478 71.1859 5 29.5322 43.9826 7.5 29.5322 43.9826 2.5 
34.2706 42.174 2.5 180.604 12.9483 5 175.765 14.5371 5 
8.65029 86.5329 5 4.69726 87.8027 2.5 155.262 17.8734 2.5 
155.262 17.8734 7.5 23.6218 61.5531 2.5 44.1369 33.8682 2.5 
9.39452 90.6055 5 165.804 78.8896 5.15013 158.901 87.6 2.5 
56.1547 53.1697 5 27.5617 45.4441 5 55.5038 47.6253 4.59344 
6.64456 53.7017 2.5 6.64456 53.7017 7.5 108.85 21.4886 5 
196.193 18.9431 5 51.9987 68.0552 5 37.8711 84.7211 7.5 
159.893 78.8561 2.5 79.2211 55.0452 5 110.014 25.0178 7.41147 
92.4944 96.3192 2.5 92.4944 96.3192 7.5 93.2119 90.3541 5 
89.9889 92.6385 5 12.7344 55.9836 5 77.9578 95.9952 2.5 
80.9156 91.9904 5 110.014 25.0178 2.41147 143.931 12.7368 5 
149.119 15.29 7.5 120.416 13.5778 5 35.6201 79.2005 7.5 
35.6201 79.2005 2.5 144.377 9.12816 5 196.193 81.0569 5 
82.0258 3.59731 2.5 104.404 23.8377 7.41147 11.7462 60.6326 5 
179.709 87.0665 5 53.2987 9.02302 5 80.4578 95.9952 5 
82.9578 95.9952 7.5 51.2822 73.2159 5 104.404 23.8377 2.41147 
119.204 20.0585 5 120.269 32.4692 4.67335 88.4528 89.6101 5 
140.266 19.3951 5 12.1973 95.3027 7.5 42.2709 85.5464 5 
89.7824 27.5517 5 149.513 48.7228 2.5 48.3895 96.4421 5 
53.6587 6.59619 2.5 53.6587 6.59619 7.5 83.9161 89.286 5 
158.347 96.0462 5 79.5258 3.59731 5 54.9446 49.5801 2.5 
73.4922 53.1164 5 12.6599 87.344 5 38.7013 36.7177 5 
151.59 44.7935 7.5 54.9446 49.5801 7.5 167.43 76.2102 2.5 
144.459 16.4663 5 160.847 96.0462 2.5 160.847 96.0462 7.5 
156.799 52.8769 5.18095 139.738 15.6655 5 85.4522 92.3144 5 
152.574 66.6387 2.5 152.574 66.6387 7.5 171.605 16.6626 5 
65.2355 35.8062 7.5 65.2355 35.8062 2.5 80.4737 87.4713 5 
2.45043 52.3796 5 52.3796 2.45043 5 167.43 76.2102 7.5 
82.9578 95.9952 2.5 87.4944 96.3192 7.5 87.4944 96.3192 2.5 
168.838 84.9575 2.65013 168.838 84.9575 7.65013 139.257 10.779 5 
197.5 2.5 5 197.5 97.5 5 169.555 80.4952 2.65013 
169.555 80.4952 7.65013 89.9944 96.3192 5 154.721 46.9661 2.5 
174.753 83.3314 7.65013 161.713 15.7111 2.5 158.846 45.6594 5 
153.883 41.6257 7.5 156.051 75.572 7.5 48.8189 20.4216 2.5 
44.2206 29.0243 2.5 101.129 32.8226 2.41147 
CELLS 1750 19250
10 294 1296 378 2350 2364 2363 975 2365 2366 2367 
10 1296 1380 378 2350 1978 2368 2363 2366 2369 2367 
10 276 1278 456 2351 2371 2370 784 2372 2373 2374 
10 1323 379 1381 2346 2376 2375 1748 2377 2378 2379 
10 1278 1458 456 2351 1787 2380 2370 2373 2381 2374 
10 448 370 1372 2347 824 2383 2382 2384 2385 2386 
10 1425 423 1358 2348 2388 2387 1719 2389 2390 2391 
10 1450 448 1372 2347 2392 2382 1827 2393 2384 2386 
10 1353 2259 1431 429 2395 2394 1619 2396 2397 2398 
10 356 1358 423 2348 2399 2387 716 2400 2391 2390 
10 1323 321 379 2346 2401 746 2376 2377 2402 2378 
10 89 429 1431 2259 498 2398 2403 2284 2397 2394 
10 89 2258 1431 429 2281 2404 2403 498 2405 2398 
10 344 1159 1403 401 2408 2407 2406 623 2409 2410 
10 1374 372 1156 322 2413 2412 2411 2414 614 2415 
10 2259 429 1353 351 2397 2396 2395 2416 503 2417 
10 1166 409 314 2354 2419 650 2418 2420 2421 2422 
10 1316 1411 1166 2354 1608 2424 2423 2425 2426 2420 
10 2204 408 178 1410 2428 2427 2246 2429 2430 1529 
10 2203 178 408 1410 2240 2427 2431 2432 1529 2430 
10 1410 408 2202 1352 2430 2434 2433 1530 2435 2436 
10 1352 330 2202 1332 2438 2437 2436 1527 2439 2440 
10 333 1414 240 412 2443 2442 2441 493 2444 2445 
10 176 330 2206 1332 2447 2446 2230 1523 2439 2448 
10 2202 330 176 1332 2437 2447 2236 2440 2439 1523 
10 2202 177 408 1410 2235 2449 2434 2433 1528 2430 
10 177 2203 408 1410 2241 2431 2449 1528 2432 2430 
10 2206 330 407 1409 2446 576 2450 2451 2452 2453 
10 73 2206 176 330 2239 2230 2238 574 2446 2447 
10 330 176 73 2202 2447 2238 574 2437 2236 2237 
10 330 2202 350 1352 2437 2454 579 2438 2436 2455 
10 1454 307 339 452 2457 1077 2456 2458 1078 815 
10 1408 282 462 1464 2460 858 2459 1862 2461 2462 
10 176 1352 2202 1332 1525 2436 2236 1523 1527 2440 
10 73 350 330 2202 578 579 574 2237 2454 2437 
10 95 1405 198 2265 2463 1634 2316 2314 2464 2318 
10 198 1405 95 2264 1634 2463 2316 2317 2465 2310 
10 1343 2200 407 1409 2468 2467 2466 1521 2469 2453 
10 407 71 2201 1409 572 2229 2470 2453 2471 2472 
10 407 2200 71 1409 2467 2227 572 2453 2469 2471 
10 383 143 1161 1385 2474 1233 2473 2475 1589 2476 
10 143 383 1162 1385 2474 2477 1235 1589 2475 2478 
10 1353 192 1431 2259 1618 1614 1619 2395 2288 2394 
10 429 2259 89 351 2397 2284 498 503 2416 504 
10 282 349 462 1464 856 857 858 2461 2479 2462 
10 1431 2258 1401 429 2404 2480 1615 2398 2405 2481 
10 240 1414 11 412 2442 2482 255 2445 2444 489 
10 239 11 1414 412 250 2482 2483 2484 489 2444 
10 36 1156 1374 372 1207 2411 2485 610 2412 2413 
10 1157 36 1374 372 1201 2485 2486 2487 610 2413 
10 95 403 1405 2265 518 2488 2463 2314 2489 2464 
10 95 2264 1405 403 2310 2465 2463 518 2490 2488 
10 408 2204 342 1410 2428 2491 585 2430 2429 2492 
10 304 1455 1429 427 2494 1816 2493 1061 2495 2496 
10 1454 452 339 279 2458 815 2456 2497 816 817 
10 1274 1342 432 1434 1735 2499 2498 1738 1739 2500 
10 372 1374 1155 331 2413 2502 2501 611 2503 2504 
10 141 1403 401 1160 1580 2410 2505 1225 2506 2507 
10 141 1159 401 1403 1223 2409 2505 1580 2407 2410 
10 75 408 178 2204 580 2427 2248 2249 2428 2246 
10 178 408 75 2203 2427 580 2248 2240 2431 2247 
10 1166 314 1316 2354 2418 2508 2423 2420 2422 2425 
10 407 175 2206 1409 2509 2231 2450 2453 1520 2451 
10 175 407 2201 1409 2509 2470 2225 1520 2453 2472 
10 471 1168 348 1350 2511 2510 591 2512 2513 2514 
10 383 1162 41 143 2477 1232 632 2474 1235 1234 
10 41 1161 383 143 1226 2473 632 1234 1233 2474 
10 1310 462 349 1464 2516 857 2515 2088 2462 2479 
10 1156 1324 1374 322 2517 1573 2411 2415 2518 2414 
10 71 1409 174 2201 2471 1519 2228 2229 2472 2226 
10 174 1409 71 2200 1519 2471 2228 2220 2469 2227 
10 1422 420 1355 1339 2520 2519 2109 1842 2521 1703 
10 1422 1283 420 1339 1841 2522 2520 1842 1840 2521 
10 192 1431 89 2258 1614 2403 2286 2287 2404 2281 
10 89 1431 192 2259 2403 1614 2286 2284 2394 2288 
10 436 294 463 1465 977 981 983 2523 2524 2525 
10 1350 471 1168 1473 2512 2511 2513 1539 2526 2527 
10 1403 1159 344 1346 2407 2408 2406 1582 2528 2529 
10 304 404 1399 397 1053 2531 2530 1057 763 2532 
10 1406 1399 1306 404 1765 2059 2057 2533 2531 2534 
10 1280 327 1429 427 2536 2535 1809 2537 807 2496 
10 1368 1152 1452 450 2539 2538 1558 2540 2541 2542 
10 408 177 74 2203 2449 2243 581 2431 2241 2244 
10 408 74 177 2202 581 2243 2449 2434 2242 2235 
10 1152 1368 1456 454 2539 1555 2543 2544 2545 2546 
10 1441 1162 383 1385 2548 2477 2547 1590 2478 2475 
10 1322 1462 1474 460 2137 2138 2136 2549 2550 2551 
10 1315 2268 375 1377 2554 2553 2552 1651 2555 2556 
10 1414 240 1335 333 2442 2557 1545 2443 2441 2558 
10 1414 11 21 240 2482 256 1540 2442 255 258 
10 1414 21 11 239 1540 256 2482 2483 257 250 
10 31 454 1456 1151 593 2546 2559 1177 2560 2561 
10 31 1152 1456 454 1182 2543 2559 593 2544 2546 
10 1373 146 44 1164 1599 1249 2562 2563 1248 1241 
10 1373 1165 44 146 2564 1247 2562 1599 1250 1249 
10 449 1314 1403 1451 2566 2112 2565 2567 2113 2114 
10 1390 463 1465 1326 2568 2525 2142 1723 2569 2143 
10 348 1168 1469 1350 2510 2571 2570 2514 2513 1927 
10 1417 118 2153 415 2573 2188 2572 2574 545 2575 
10 2207 471 348 1350 2577 591 2576 2578 2512 2514 
10 1306 1353 1406 404 2055 2056 2057 2534 2579 2533 
10 304 1399 1455 397 2530 2060 2494 1057 2532 2580 
10 119 1417 2153 415 2581 2572 2189 546 2574 2575 
10 429 1353 1307 1431 2396 2065 2582 2398 1619 2067 
10 304 1429 1400 427 2493 2064 2583 1061 2496 2584 
10 1332 330 2206 1409 2439 2446 2448 1524 2452 2451 
10 44 1165 1373 371 1247 2564 2562 640 2585 2586 
10 1373 1164 44 371 2563 1241 2562 2586 2587 640 
10 2200 407 341 1343 2467 573 2588 2468 2466 2589 
10 470 2199 347 1472 2591 2590 567 2592 2593 2594 
10 470 347 2269 1472 567 2596 2595 2592 2594 2597 
10 1274 432 363 1434 2498 741 2598 1738 2500 2599 
10 196 2263 93 1398 2308 2304 2306 1628 2600 2601 
10 196 93 2262 1398 2306 2300 2307 1628 2601 2602 
10 1305 1358 355 303 2050 2604 2603 2605 2606 1048 
10 471 1350 2207 1473 2512 2578 2577 2526 1539 2607 
10 1451 1314 420 449 2113 2609 2608 2567 2566 848 
10 1445 276 443 1359 2611 782 2610 1785 2612 2613 
10 1334 1462 1277 460 1777 1778 1774 2614 2550 2615 
10 1307 1431 1401 429 2067 1615 2069 2582 2398 2481 
10 1368 1298 1456 454 1998 2001 1555 2545 2616 2546 
10 449 281 420 1451 846 839 848 2567 2617 2608 
10 1349 347 2199 1472 2619 2590 2618 1515 2594 2593 
10 1349 2269 347 1472 2620 2596 2619 1515 2597 2594 
10 1449 352 447 1285 2622 866 2621 1868 2623 2624 
10 1399 404 304 1306 2531 1053 2530 2059 2534 2625 
10 1315 411 2271 1413 2628 2627 2626 1652 2629 2630 
10 420 1314 1451 1422 2609 2113 2608 2520 2110 1850 
10 1164 461 371 1373 2631 642 2587 2563 2632 2586 
10 420 1451 1283 1422 2608 1849 2522 2520 1850 1841 
10 396 2263 355 1398 2634 2633 517 2635 2600 2636 
10 1343 174 2200 1409 1517 2220 2468 1521 1519 2469 
10 341 2200 71 407 2588 2227 568 573 2467 572 
10 350 2202 408 1352 2454 2434 582 2455 2436 2435 
10 133 1456 31 1152 1550 2559 1184 1185 2543 1182 
10 31 1456 133 1151 2559 1550 1184 1177 2561 1183 
10 1350 1168 1469 1473 2513 2571 1927 1539 2527 1612 
10 471 467 348 1168 654 924 591 2511 2637 2510 
10 294 436 340 1438 977 834 976 2638 2639 2640 
10 1313 1419 1368 311 2108 1999 2107 2641 2642 2643 
10 436 1465 463 1326 2523 2525 983 2644 2143 2569 
10 415 119 1417 339 546 2581 2574 550 551 2645 
10 72 407 175 2206 571 2509 2233 2234 2450 2231 
10 175 407 72 2201 2509 571 2233 2225 2470 2232 
10 1162 383 439 1441 2477 631 2646 2548 2547 2647 
10 1155 35 1374 372 1196 2648 2502 2501 609 2413 
10 1157 1374 35 372 2486 2648 1202 2487 2413 609 
10 1443 1327 428 441 2027 2650 2649 2651 2652 802 
10 1448 446 1297 1445 2654 2653 1989 1993 2655 1992 
10 1297 446 443 1445 2653 991 2656 1992 2655 2610 
10 1424 1277 1462 460 1772 1778 1781 2657 2615 2550 
10 409 314 46 1166 650 649 644 2419 2418 1251 
10 148 1166 1316 1411 1258 2423 1606 1601 2424 1608 
10 1395 1361 393 2353 1729 2659 2658 2660 2661 2662 
10 1455 427 304 453 2495 1061 2494 2663 814 1058 
10 1429 1455 304 1306 1816 2494 2493 2063 2061 2625 
10 135 1367 33 1154 1561 2664 1194 1195 2665 1192 
10 33 1367 135 1153 2664 1561 1194 1186 2666 1193 
10 1469 1168 348 467 2571 2510 2570 2667 2637 924 
10 1268 1404 1362 402 1661 1663 1662 2668 2669 2670 
10 372 36 1156 322 610 1207 2412 614 615 2415 
10 138 1324 1374 1156 1572 1573 1567 1208 2517 2411 
10 398 1400 2261 327 2673 2672 2671 511 2674 2675 
10 1305 355 396 303 2603 517 2676 2605 1048 1049 
10 276 1359 1445 1278 2612 1785 2611 2371 1783 1784 
10 1459 2265 96 199 2678 2315 2677 1639 2322 2321 
10 1459 96 2266 199 2677 2319 2679 1639 2321 2323 
10 11 333 240 412 491 2441 255 489 493 2445 
10 21 1335 1414 240 1544 1545 1540 258 2557 2442 
10 404 1306 351 304 2534 2680 1054 1053 2625 1055 
10 1373 1164 461 1463 2563 2631 2632 1600 2681 2682 
10 1403 344 449 1451 2406 847 2565 2114 2683 2567 
10 1163 461 43 1463 2684 637 1236 2685 2682 2686 
10 1164 43 461 1463 1242 637 2631 2681 2686 2682 
10 385 118 1417 415 543 2573 2687 547 545 2574 
10 1334 1474 1462 460 2150 2138 1777 2614 2551 2550 
10 150 48 1150 1473 1266 1175 1176 1483 2688 2689 
10 150 1168 48 1473 1267 1261 1266 1483 2527 2688 
10 1455 453 304 397 2663 1058 2494 2580 1059 1057 
10 1306 1399 1455 304 2059 2060 2061 2625 2530 2494 
10 350 413 280 1415 836 831 827 2690 2691 2692 
10 74 408 350 2202 581 582 577 2242 2434 2454 
10 177 1410 2202 1352 1528 2433 2235 1526 1530 2436 
10 299 363 432 1434 1016 741 1021 2693 2599 2500 
10 311 450 1368 1313 1104 2540 2643 2641 2694 2107 
10 101 2270 470 204 2274 2695 483 2344 2278 2696 
10 470 2269 101 204 2595 2340 483 2696 2345 2344 
10 1357 355 2263 1398 2698 2633 2697 1632 2636 2600 
10 351 1353 1306 404 2417 2055 2680 1054 2579 2534 
10 1373 287 317 371 2700 906 2699 2586 904 905 
10 1336 461 1163 1463 2702 2684 2701 1597 2682 2685 
10 305 1401 1307 385 2704 2069 2703 1067 2705 2706 
10 93 2263 396 1398 2304 2634 512 2601 2600 2635 
10 396 2262 93 1398 2707 2300 512 2635 2602 2601 
10 94 355 197 2264 515 2708 2311 2309 2709 2313 
10 94 2263 197 355 2305 2312 2311 515 2633 2708 
10 339 307 1417 415 1077 2710 2645 550 1076 2574 
10 1454 307 452 2352 2457 1078 2458 2711 2712 2713 
10 1355 1314 420 1422 1958 2609 2519 2109 2110 2520 
10 340 1296 294 1438 2714 2364 976 2640 1979 2638 
10 1414 333 1303 412 2443 2715 2039 2444 493 2716 
10 461 371 44 1164 642 640 638 2631 2587 1241 
10 146 1164 1373 1463 1248 2563 1599 1595 2681 1600 
10 1454 1309 1341 307 2080 2078 1819 2457 2717 2718 
10 75 342 408 2204 584 585 580 2249 2491 2428 
10 178 1344 2204 1410 1531 2719 2246 1529 1533 2429 
10 340 432 272 1274 736 737 735 2720 2498 2721 
10 1297 1348 446 1448 1986 2722 2653 1989 1681 2654 
10 417 1419 1368 296 2724 1999 2723 996 2725 2726 
10 438 1299 1339 1440 2728 2003 2727 2729 2005 1843 
10 334 1163 439 1441 2731 2730 636 2732 2733 2647 
10 452 279 1454 2352 816 2497 2458 2713 2734 2711 
10 1153 1367 1452 450 2666 1562 2735 2736 2737 2542 
10 393 1361 359 2353 2659 2738 726 2662 2661 2739 
10 2265 96 457 1459 2315 525 2740 2678 2677 2741 
10 2266 457 96 1459 2742 525 2319 2679 2741 2677 
10 1408 462 1310 1464 2459 2516 2090 1862 2462 2088 
10 432 413 299 1434 1022 1020 1021 2500 2743 2693 
10 1342 413 432 1434 2744 1022 2499 1739 2743 2500 
10 355 94 403 2264 515 519 520 2709 2309 2490 
10 197 1357 1405 2264 1631 1635 1633 2313 2745 2465 
10 324 271 469 1471 721 722 723 2746 2747 2748 
10 376 1167 1316 1378 2751 2750 2749 2752 2753 1607 
10 420 1283 281 1339 2522 2754 839 2521 1840 2755 
10 340 1342 1296 1438 2756 1977 2714 2640 1837 1979 
10 1417 415 307 385 2574 1076 2710 2687 547 1081 
10 313 2268 375 1315 2757 2553 535 2758 2554 2552 
10 471 1150 48 1473 2759 1175 481 2526 2689 2688 
10 48 1168 471 1473 1261 2511 481 2688 2527 2526 
10 352 1285 1354 1340 2623 1866 2760 2761 1864 1715 
10 1354 1340 270 352 1715 2763 2762 2760 2761 707 
10 1342 432 340 1274 2499 736 2756 1735 2498 2720 
10 417 1392 1419 296 2764 1758 2724 996 2765 2725 
10 338 1338 283 1285 2767 2766 861 2768 1863 2769 
10 1322 1268 402 1404 1657 2668 2770 1660 1661 2669 
10 1440 438 1283 1339 2729 2771 1844 1843 2727 1840 
10 93 355 396 2263 516 517 512 2304 2633 2634 
10 2263 196 1357 1398 2308 1630 2697 2600 1628 1632 
10 312 449 1403 401 1111 2565 2772 1112 1110 2410 
10 407 2206 72 330 2450 2234 571 576 2446 575 
10 1332 2206 175 1409 2448 2231 1522 1524 2451 1520 
10 1313 1368 1452 450 2107 1558 2106 2694 2540 2542 
10 1468 2269 347 1349 2774 2596 2773 1933 2620 2619 
10 1333 1155 1374 331 2775 2502 1569 2776 2504 2503 
10 1472 470 2270 204 2592 2695 2777 1486 2696 2278 
10 1472 2269 470 204 2597 2595 2592 1486 2345 2696 
10 1362 1299 402 1404 2006 2778 2670 1663 2007 2669 
10 339 1281 279 2358 2780 2779 817 2781 2782 2783 
10 1328 443 446 1445 2785 991 2784 2145 2610 2655 
10 446 1448 1328 1445 2654 1678 2784 2655 1993 2145 
10 443 276 357 1359 782 783 781 2613 2612 2786 
10 1153 1452 134 450 2735 1557 1190 2736 2542 2787 
10 1452 1152 134 450 2538 1188 1557 2542 2541 2787 
10 302 328 352 1354 1040 708 1039 2788 2789 2760 
10 403 1405 355 2264 2488 2790 520 2490 2465 2709 
10 390 1392 1303 2356 2792 2038 2791 2793 2794 2795 
10 43 145 1163 1463 1244 1243 1236 2686 1596 2685 
10 145 43 1164 1463 1244 1242 1245 1596 2686 2681 
10 347 466 2269 1468 932 2796 2596 2773 2797 2774 
10 1438 294 436 1465 2638 977 2639 1985 2524 2523 
10 450 1368 1152 366 2540 2539 2541 600 2798 2799 
10 1161 468 383 1385 2800 633 2473 2476 2801 2475 
10 305 1406 1353 404 2803 2056 2802 1063 2533 2579 
10 269 361 1339 337 695 2805 2804 702 703 2806 
10 454 1152 1368 366 2544 2539 2545 597 2799 2798 
10 1159 401 344 39 2409 623 2408 1216 621 624 
10 1346 1159 141 1403 2528 1223 1581 1582 2407 1580 
10 352 1449 1354 1285 2622 1867 2760 2623 1868 1866 
10 141 401 39 1160 2505 621 1224 1225 2507 1222 
10 39 401 141 1159 621 2505 1224 1216 2409 1223 
10 1160 401 468 1403 2507 628 2807 2506 2410 2808 
10 339 1281 1454 279 2780 1818 2456 817 2779 2497 
10 1278 358 445 276 2810 790 2809 2371 788 789 
10 439 292 334 1441 962 961 636 2647 2811 2732 
10 1386 1270 1331 329 1691 1688 1690 2812 2813 2814 
10 1466 277 373 1279 2816 795 2815 1798 2817 2818 
10 317 287 1373 1319 906 2700 2699 2819 2820 1907 
10 1166 1316 46 148 2423 2821 1251 1258 1606 1259 
10 1166 314 46 1316 2418 649 1251 2423 2508 2821 
10 1167 46 314 1316 1257 649 2822 2750 2821 2508 
10 1316 1167 46 148 2750 1257 2821 1606 1260 1259 
10 36 138 1374 1156 1209 1567 2485 1207 1208 2411 
10 138 36 1374 1157 1209 2485 1567 1210 1201 2486 
10 412 239 1397 1414 2484 2824 2823 2444 2483 1542 
10 339 307 1454 1341 1077 2457 2456 2825 2718 1819 
10 1445 443 1297 1359 2610 2656 1992 1785 2613 1990 
10 283 352 338 1285 864 712 861 2769 2623 2768 
10 378 294 340 1296 975 976 734 2363 2364 2714 
10 278 1423 1280 2357 2827 1812 2826 2828 2829 2830 
10 340 272 378 1274 735 733 734 2720 2721 2831 
10 1301 1352 408 1410 2021 2435 2832 2020 1530 2430 
10 1344 342 2204 1410 2833 2491 2719 1533 2492 2429 
10 353 420 1339 1355 1108 2521 2834 2835 2519 1703 
10 399 1401 2258 429 2837 2480 2836 500 2481 2405 
10 1326 1390 324 1273 1723 2839 2838 1721 1722 2840 
10 460 1474 1322 472 2551 2136 2549 1136 2841 2842 
10 336 283 338 1338 862 861 850 2843 2766 2767 
10 1307 1401 1387 385 2069 1492 2068 2706 2705 2844 
10 1442 1369 1287 440 1892 1890 1891 2845 2846 2847 
10 1160 1403 468 1470 2506 2808 2807 2848 1586 2849 
10 407 1300 1343 1409 2850 2014 2466 2453 2013 1521 
10 463 1390 324 1326 2568 2839 1140 2569 1723 2838 
10 42 1162 439 1441 1231 2646 630 2851 2548 2647 
10 439 1163 42 1441 2730 1237 630 2647 2733 2851 
10 1348 295 388 1390 2853 984 2852 1987 2854 2855 
10 302 352 447 1449 1039 866 1042 2856 2622 2621 
10 2269 1472 1468 204 2597 1656 2774 2345 1486 1654 
10 466 2269 101 470 2796 2340 538 541 2595 483 
10 428 441 277 1279 802 793 799 2857 2858 2817 
10 341 298 364 1300 1013 1012 926 2859 2860 2861 
10 202 1315 99 2271 1650 2862 2336 2338 2626 2330 
10 99 1315 202 2268 2862 1650 2336 2334 2554 2337 
10 2268 313 99 1315 2757 536 2334 2554 2758 2862 
10 2271 99 313 1315 2330 536 2863 2626 2862 2758 
10 438 281 1283 1339 841 2754 2771 2727 2755 1840 
10 2265 335 403 1405 2864 523 2489 2464 2865 2488 
10 1363 336 1271 1338 2867 2866 1699 1698 2843 1697 
10 1392 296 417 390 2765 996 2764 2792 993 756 
10 353 337 1339 420 701 2806 2834 1108 838 2521 
10 288 363 342 1365 919 920 921 2868 2869 2870 
10 1327 441 1443 2359 2652 2651 2027 2871 2872 2873 
10 378 1342 340 1274 2874 2756 734 2831 1735 2720 
10 358 1360 1278 1447 2875 1788 2810 2876 1791 1792 
10 329 1386 1270 384 2812 1691 2813 689 2877 2878 
10 296 1368 417 366 2726 2723 996 998 2798 997 
10 1323 285 1381 379 2880 2879 1748 2376 880 2375 
10 1307 1353 429 305 2065 2396 2582 2703 2802 1065 
10 1395 393 1273 1439 2658 2881 1728 1734 2882 1732 
10 1307 1406 1353 305 2066 2056 2065 2703 2803 2802 
10 454 1368 296 366 2545 2726 999 597 2798 998 
10 1339 361 269 1271 2805 695 2804 1702 2883 2884 
10 361 1271 1339 1363 2883 1702 2805 2885 1699 1705 
10 291 1293 331 343 2887 2886 951 950 2888 875 
10 1295 403 335 1405 2890 523 2889 1968 2488 2865 
10 333 296 1392 390 994 2765 2891 992 993 2792 
10 378 1296 340 1342 2363 2714 734 2874 1977 2756 
10 447 360 425 1449 869 663 1046 2621 2892 2893 
10 413 1415 1342 280 2691 1834 2744 831 2692 2894 
10 341 1343 1366 1291 2589 1930 2895 2896 1928 1929 
10 335 2265 457 1459 2864 2740 526 2897 2678 2741 
10 2269 1349 1468 1472 2620 1933 2774 2597 1515 1656 
10 347 2269 466 470 2596 2796 932 567 2595 541 
10 1401 1431 191 2258 1615 1613 1489 2480 2404 2283 
10 88 399 2258 429 485 2836 2280 499 500 2405 
10 420 281 337 1339 839 840 838 2521 2755 2806 
10 294 1438 1296 1465 2638 1979 2364 2524 1985 1982 
10 388 463 346 2362 1141 980 985 2898 2899 2900 
10 347 2199 1435 1349 2590 2902 2901 2619 2618 1514 
10 1449 447 360 1285 2621 869 2892 1868 2624 2903 
10 447 352 283 1285 866 864 865 2624 2623 2769 
10 374 1427 302 425 2905 2904 1044 666 2906 1045 
10 1401 305 399 385 2704 1066 2837 2705 1067 544 
10 2257 191 88 399 2279 2282 2277 2907 2908 485 
10 191 2258 88 399 2283 2280 2282 2908 2836 485 
10 266 360 1427 425 661 2910 2909 662 663 2906 
10 295 1390 1348 1297 2854 1987 2853 2911 1988 1986 
10 311 1419 1368 417 2642 1999 2643 1105 2724 2723 
10 1359 357 1361 2353 2786 2912 1904 2913 2914 2661 
10 422 1424 319 290 2916 2915 770 938 2917 937 
10 150 1469 1168 1473 1609 2571 1267 1483 1612 2527 
10 467 471 48 1168 654 481 652 2637 2511 1261 
10 1394 428 277 1279 2919 799 2918 1800 2857 2817 
10 304 1400 398 427 2583 2673 1062 1061 2584 1060 
10 239 20 10 395 253 252 251 2920 2921 474 
10 238 10 20 395 244 252 249 2922 474 2921 
10 463 1465 294 2362 2525 2524 981 2899 2923 2924 
10 1305 303 396 1421 2605 1049 2676 2052 2925 2926 
10 1285 338 1338 1340 2768 2767 1863 1864 2927 1854 
10 1385 1161 468 1470 2476 2800 2801 1591 2928 2849 
10 1307 429 1401 305 2582 2481 2069 2703 1065 2704 
10 1301 408 342 1410 2832 585 2929 2020 2430 2492 
10 1317 339 315 2358 2931 1117 2930 2932 2781 2933 
10 1354 1272 270 1340 1711 2934 2762 1715 1714 2763 
10 1429 327 1400 427 2535 2674 2064 2496 807 2584 
10 1365 299 342 1301 2935 1017 2870 2019 2936 2929 
10 324 1471 1326 1273 2746 1724 2838 2840 1725 1721 
10 378 1380 1342 1274 2368 1736 2874 2831 1737 1735 
10 1443 441 428 1279 2651 802 2649 1797 2858 2857 
10 2207 348 434 1350 2576 589 2937 2578 2514 2938 
10 1361 388 1390 1273 2939 2855 1727 1726 2940 1722 
10 364 289 341 1291 927 928 926 2941 2942 2896 
10 341 1366 364 1291 2895 2943 926 2896 1929 2941 
10 1368 1419 1298 296 1999 2000 1998 2726 2725 2944 
10 1429 1400 1306 304 2064 2062 2063 2493 2583 2625 
10 326 1269 377 1328 2946 2945 673 2947 1674 2948 
10 1338 282 338 336 2949 851 2767 2843 852 850 
10 421 1423 278 2357 2950 2827 811 2951 2829 2828 
10 443 295 446 1297 990 987 991 2656 2911 2653 
10 350 299 413 1415 1019 1020 836 2690 2952 2691 
10 1444 344 310 1312 2954 1097 2953 2099 2955 2956 
10 1361 357 359 2353 2912 902 2738 2661 2914 2739 
10 296 1298 1368 454 2944 1998 2726 999 2616 2545 
10 203 1468 100 2268 1653 2957 2341 2342 2958 2335 
10 100 1468 203 2269 2957 1653 2341 2339 2774 2343 
10 1341 1417 307 1309 1499 2710 2718 2078 2079 2717 
10 1361 1297 357 1359 1991 2959 2912 1904 1990 2786 
10 319 1277 1424 422 2960 1772 2915 770 2961 2916 
10 1342 378 1296 1380 2874 2363 1977 1736 2368 1978 
10 445 358 1278 1447 790 2810 2809 2962 2876 1792 
10 449 344 1403 401 847 2406 2565 1110 623 2410 
10 449 344 281 1451 847 845 846 2567 2683 2617 
10 276 443 445 1445 782 792 789 2611 2610 2963 
10 403 95 335 2265 518 522 523 2489 2314 2864 
10 1337 2265 198 1405 2964 2318 1636 1638 2464 1634 
10 1316 1167 376 314 2750 2751 2749 2508 2822 648 
10 1314 383 1385 1294 2965 2475 1959 1956 2966 1960 
10 1446 2349 444 2354 2969 2968 2967 2970 2971 2972 
10 1419 311 1313 2355 2642 2641 2108 2973 2974 2975 
10 353 1339 1271 1355 2834 1702 2976 2835 1703 1704 
10 336 1271 361 1363 2866 2883 696 2867 1699 2885 
10 336 269 361 1271 697 695 696 2866 2884 2883 
10 1363 360 283 1285 2978 868 2977 1865 2903 2769 
10 295 357 359 1361 989 902 988 2979 2912 2738 
10 2271 313 411 1315 2863 537 2627 2626 2758 2628 
10 1303 333 1392 390 2715 2891 2038 2791 992 2792 
10 1361 359 388 1273 2738 724 2939 1726 2980 2940 
10 1341 1281 339 2358 1817 2780 2825 2981 2782 2781 
10 297 438 1299 337 1003 2728 2982 1002 842 2983 
10 1339 1299 438 337 2003 2728 2727 2806 2983 842 
10 1440 442 1283 438 2985 2984 1844 2729 849 2771 
10 1462 1322 1424 460 2137 1943 1781 2550 2549 2657 
10 1419 1392 1298 296 1758 1995 2000 2725 2765 2944 
10 1154 1367 33 365 2665 2664 1192 2986 2987 604 
10 1367 1153 33 365 2666 1186 2664 2987 2988 604 
10 1390 388 324 1273 2855 719 2839 1722 2940 2840 
10 77 471 1473 2205 480 2526 2989 2210 2990 2991 
10 77 2207 1473 471 2256 2607 2989 480 2577 2526 
10 1297 357 295 1361 2959 989 2911 1991 2912 2979 
10 1352 280 330 1332 2992 828 2438 1527 2993 2439 
10 1152 32 134 450 1181 1189 1188 2541 598 2787 
10 32 1153 134 450 1187 1190 1189 598 2736 2787 
10 348 77 471 2207 590 480 591 2576 2256 2577 
10 1350 180 2207 1473 1537 2250 2578 1539 1481 2607 
10 1373 287 1289 1319 2700 2994 1908 1907 2820 1906 
10 149 467 47 1168 2995 651 1264 1265 2637 1262 
10 47 467 149 1167 651 2995 1264 1256 2996 1263 
10 1277 332 1334 460 2998 2997 1774 2615 776 2614 
10 360 1268 402 266 2999 2668 660 661 3000 658 
10 296 1392 1298 333 2765 1995 2944 994 2891 3001 
10 1339 353 269 337 2834 700 2804 2806 701 702 
10 1471 364 469 1300 3002 731 2748 2016 2861 3003 
10 1300 1409 407 330 2013 2453 2850 3004 2452 576 
10 358 1311 309 1425 3006 3005 1091 3007 2093 3008 
10 408 1352 1301 299 2435 2021 2832 1018 3009 2936 
10 462 282 1408 406 858 2460 2459 860 853 3010 
10 1374 331 372 291 2503 611 2413 3011 951 946 
10 340 436 280 1438 834 835 833 2640 2639 3012 
10 1435 2199 347 433 2902 2590 2901 3013 3014 565 
10 386 298 330 1300 1009 1010 830 3015 2860 3004 
10 1380 378 2359 2361 2368 3017 3016 3018 3019 3020 
10 463 388 324 1390 1141 719 1140 2568 2855 2839 
10 313 99 375 2268 536 534 535 2757 2334 2553 
10 202 2268 1315 1377 2337 2554 1650 1648 2555 1651 
10 172 2199 470 1472 2217 2591 3021 1485 2593 2592 
10 172 1472 470 2198 1485 2592 3021 2215 3022 3023 
10 1335 240 1416 414 2557 3024 1548 3025 3026 3027 
10 338 282 1338 1340 851 2949 2767 2927 3028 1854 
10 311 1313 1367 450 2641 2104 3029 1104 2694 2737 
10 309 358 445 1311 1091 790 1092 3005 3006 3030 
10 1310 354 308 1408 3032 1088 3031 2090 3033 3034 
10 1272 1354 270 2357 1711 2762 2934 3035 3036 3037 
10 390 1303 301 2356 2791 3038 1035 2793 2795 3039 
10 361 337 1299 1339 703 2983 3040 2805 2806 2003 
10 1299 361 297 337 3040 1001 2982 2983 703 1002 
10 463 324 436 1326 1140 1138 983 2569 2838 2644 
10 280 1352 1282 1332 2992 1830 3041 2993 1527 1829 
10 330 280 1352 350 828 2992 2438 579 827 2455 
10 428 1356 1394 392 3042 1966 2919 798 3043 3044 
10 270 338 352 1340 713 712 707 2763 2927 2761 
10 1417 385 307 1309 2687 1081 2710 2079 3045 2717 
10 425 360 1427 1449 663 2910 2906 2893 2892 2048 
10 1285 352 338 1340 2623 712 2768 1864 2761 2927 
10 446 1348 1297 295 2722 1986 2653 987 2853 2911 
10 305 1353 351 404 2802 2417 1064 1063 2579 1054 
10 351 429 1353 305 503 2396 2417 1064 1065 2802 
10 1341 1281 1454 339 1817 1818 1819 2825 2780 2456 
10 337 281 438 1339 840 841 842 2806 2755 2727 
10 443 446 326 1328 991 675 1143 2785 2784 2947 
10 325 267 362 1364 669 670 671 3046 3047 3048 
10 317 371 461 1373 905 642 1125 2699 2586 2632 
10 1338 1363 283 1285 1698 2977 2766 1863 1865 2769 
10 440 1386 1287 1442 3049 1885 2847 2845 1893 1891 
10 1322 1474 1404 402 2136 2008 1660 2770 3050 2669 
10 1299 1474 402 1404 2009 3050 2778 2007 2008 2669 
10 1309 1387 1417 385 2083 1495 2079 3045 2844 2687 
10 279 370 2347 2352 821 2385 3051 2734 3052 3053 
10 1386 1442 440 329 1893 2845 3049 2812 3054 1145 
10 1342 413 1434 1415 2744 2743 1739 1834 2691 2024 
10 322 1374 372 291 2414 2413 614 947 3011 946 
10 1434 413 299 1415 2743 1020 2693 2024 2691 2952 
10 1376 1423 1320 318 2046 2133 2131 3055 3056 3057 
10 427 1280 327 278 2537 2536 807 806 2826 805 
10 1334 1277 442 332 1774 3059 3058 2997 2998 772 
10 1394 277 1466 1279 2918 2816 1803 1800 2817 1798 
10 1298 1392 1335 333 1995 1996 1994 3001 2891 2558 
10 1300 407 341 298 2850 573 2859 2860 1011 1013 
10 272 432 363 1274 737 741 740 2721 2498 2598 
10 392 354 428 1356 964 1089 798 3043 3060 3042 
10 285 1323 1386 384 2880 1884 3061 882 3062 2877 
10 1356 354 1310 1408 3060 3032 2089 1708 3033 2090 
10 406 308 354 1408 1087 1088 706 3010 3034 3033 
10 421 278 328 2357 811 809 810 2951 2828 3063 
10 1280 1423 1330 2357 1812 1813 1810 2830 2829 3064 
10 1386 1442 329 1331 1893 3054 2812 1690 2147 2814 
10 328 302 1304 1354 1040 3066 3065 2789 2788 2042 
10 358 418 276 1278 786 787 788 2810 3067 2371 
10 1429 1455 1280 427 1816 1814 1809 2496 2495 2537 
10 282 377 1284 2360 855 3069 3068 3070 3071 3072 
10 445 377 309 1311 1095 1094 1092 3030 3073 3005 
10 137 1374 35 1157 1568 2648 1204 1205 2486 1202 
10 35 1374 137 1155 2648 1568 1204 1196 2502 1203 
10 339 279 465 2358 817 818 819 2781 2783 3074 
10 1341 1467 1281 2358 1820 1821 1817 2981 3075 2782 
10 1394 1356 428 1430 1966 3042 2919 1802 2091 3076 
10 1437 1287 1369 367 1888 1890 1506 3077 3078 3079 
10 1343 341 1366 1300 2589 2895 1930 2014 2859 2015 
10 1283 1451 420 281 1849 2608 2522 2754 2617 839 
10 1281 279 2347 2352 2779 3051 3080 3081 2734 3053 
10 1415 299 1301 1352 2952 2936 2022 1838 3009 2021 
10 1349 2199 172 1472 2618 2217 1513 1515 2593 1485 
10 347 69 2199 470 566 2219 2590 567 484 2591 
10 1329 2261 1400 327 3082 2672 1626 3083 2675 2674 
10 373 277 441 1279 795 793 794 2818 2817 2858 
10 329 1270 268 384 2813 3084 687 689 2878 688 
10 97 369 2266 200 528 3085 2320 2326 3086 2327 
10 200 97 369 2267 2326 528 3086 2328 2324 3087 
10 1301 1365 299 1434 2019 2935 2936 2023 1743 2693 
10 1417 307 339 1341 2710 1077 2645 1499 2718 2825 
10 1391 2156 225 389 3088 2180 1508 3089 3090 3091 
10 1328 446 1269 1448 2784 3092 1674 1678 2654 1677 
10 408 342 299 1301 585 1017 1018 2832 2929 2936 
10 1390 295 388 1361 2854 984 2855 1727 2979 2939 
10 464 277 373 1466 797 795 796 3093 2816 2815 
10 1372 1281 2347 2352 1823 3080 2386 3094 3081 3053 
10 1271 1339 353 269 1702 2834 2976 2884 2804 700 
10 1445 445 276 1278 2963 789 2611 1784 2809 2371 
10 281 1283 442 438 2754 2984 844 841 2771 849 
10 364 1366 341 1300 2943 2895 926 2861 2015 2859 
10 267 349 377 1351 668 680 672 3095 3096 3097 
10 1311 358 1360 1425 3006 2875 2092 2093 3007 1976 
10 1341 339 1317 2358 2825 2931 2118 2981 2781 2932 
10 1419 1275 417 2355 1754 3098 2724 2973 3099 3100 
10 1386 440 285 384 3049 890 3061 2877 891 882 
10 417 1368 311 366 2723 2643 1105 997 2798 1106 
10 1339 1299 361 1363 2003 3040 2805 1705 2004 2885 
10 428 1327 1443 1430 2650 2027 2649 3076 2087 1804 
10 1463 1373 317 461 1600 2699 3101 2682 2632 1125 
10 385 1307 305 400 2706 2703 1067 1069 3102 1068 
10 320 1424 422 290 3103 2916 941 940 2917 938 
10 1414 1335 1303 333 1545 2037 2039 2443 2558 2715 
10 1386 329 440 384 2812 1145 3049 2877 689 891 
10 100 466 1468 2269 539 2797 2957 2339 2796 2774 
10 100 2268 1468 466 2335 2958 2957 539 3104 2797 
10 1447 358 1360 1311 2876 2875 1791 2094 3006 2092 
10 1436 434 342 1290 3106 588 3105 1924 3107 3108 
10 1360 358 1278 1420 2875 2810 1788 1790 3109 1789 
10 1399 1412 1320 318 1767 2132 2134 3110 3111 3057 
10 469 386 324 1471 1015 1139 723 2748 3112 2746 
10 1303 1335 1392 333 2037 1996 2038 2715 2558 2891 
10 77 1473 180 2205 2989 1481 2255 2210 2991 2214 
10 180 1473 77 2207 1481 2989 2255 2250 2607 2256 
10 1297 443 357 1359 2656 781 2959 1990 2613 2786 
10 440 1369 1287 367 2846 1890 2847 889 3079 3078 
10 1465 436 1438 1326 2523 2639 1985 2143 2644 2141 
10 1401 2154 1387 385 3114 3113 1492 2705 3115 2844 
10 311 1367 1313 2355 3029 2104 2641 2974 3116 2975 
10 1367 1313 1452 450 2104 2106 1562 2737 2694 2542 
10 434 1436 2207 1350 3106 3117 2937 2938 1538 2578 
10 1368 1456 133 1152 1555 1550 1554 2539 2543 1185 
10 454 31 1152 366 593 1182 2544 597 595 2799 
10 359 388 295 1361 724 984 988 2738 2939 2979 
10 1299 360 297 361 3118 1004 2982 3040 867 1001 
10 460 332 1474 472 776 3119 2551 1136 1148 2841 
10 69 470 172 2199 484 3021 2218 2219 2591 2217 
10 172 470 69 2198 3021 484 2218 2215 3023 2213 
10 320 402 1268 266 659 2668 3120 657 658 3000 
10 342 1290 288 1365 3108 3121 921 2870 1923 2868 
10 342 1344 1290 1365 2833 1921 3108 2870 1922 1923 
10 283 1363 1338 336 2977 1698 2766 862 2867 2843 
10 402 1362 1268 360 2670 1662 2668 660 3122 2999 
10 348 1469 1290 1350 2570 1926 3123 2514 1927 1925 
10 1295 358 1360 1420 3124 2875 1975 1969 3109 1790 
10 1375 1279 441 1443 1795 2858 3125 1796 1797 2651 
10 1464 282 349 1351 2461 856 2479 1860 3126 3096 
10 144 42 1163 1441 1239 1237 1240 1587 2851 2733 
10 144 1162 42 1441 1238 1231 1239 1587 2548 2851 
10 1358 1421 303 1305 2053 2925 2606 2050 2052 2605 
10 367 1437 285 435 3077 3127 888 558 3128 887 
10 1297 295 1390 1361 2911 2854 1988 1991 2979 1727 
10 404 305 1406 400 1063 2803 2533 766 1068 3129 
10 331 1374 1293 291 2503 1949 2886 951 3011 2887 
10 1322 402 472 1474 2770 1007 2842 2136 3050 2841 
10 282 1284 1338 1340 3068 1852 2949 3028 1853 1854 
10 1363 1362 360 1285 1870 3122 2978 1865 1869 2903 
10 319 1292 1383 381 3131 1939 3130 682 3132 3133 
10 1474 472 297 402 2841 1006 3134 3050 1007 1005 
10 363 1365 1274 1434 2869 1740 2598 2599 1743 1738 
10 324 386 436 1326 1139 837 1138 2838 3135 2644 
10 1354 352 302 1449 2760 1039 2788 1867 2622 2856 
10 362 325 1364 2359 671 3046 3048 3136 3137 3138 
10 1381 285 323 379 2879 885 3139 2375 880 884 
10 1372 2347 370 2352 2386 2385 2383 3094 3053 3052 
10 348 1290 434 1350 3123 3107 589 2514 1925 2938 
10 270 1340 1272 2360 2763 1714 2934 3140 3141 3142 
10 299 342 363 1365 1017 920 1016 2935 2870 2869 
10 1283 442 344 281 2984 843 3143 2754 844 845 
10 280 1342 340 1438 2894 2756 833 3012 1837 2640 
10 357 443 1297 295 781 2656 2959 989 990 2911 
10 283 360 1363 361 868 2978 2977 863 867 2885 
10 282 338 416 1340 851 715 854 3028 2927 3144 
10 1400 2261 194 398 2672 2298 1622 2673 2671 3145 
10 194 2260 1400 398 2297 3146 1622 3145 3147 2673 
10 1270 1432 1321 430 1686 1687 1683 3148 3149 3150 
10 397 1399 318 410 2532 3110 1132 765 3151 1129 
10 1453 451 1317 339 3153 3152 2119 3154 552 2931 
10 1268 374 387 266 3156 664 3155 3000 665 656 
10 1474 438 297 472 3157 1003 3134 2841 1008 1006 
10 1399 404 274 397 2531 762 3158 2532 763 764 
10 1434 299 1301 1415 2693 2936 2023 2024 2952 2022 
10 306 1389 1308 374 3160 2075 3159 1074 3161 3162 
10 399 2154 1401 385 3163 3114 2837 544 3115 2705 
10 332 1474 1334 460 3119 2150 2997 776 2551 2614 
10 1447 445 358 1311 2962 790 2876 2094 3030 3006 
10 428 354 308 1310 1089 1088 1085 3164 3032 3031 
10 1399 1276 404 1406 1764 3165 2531 1765 1766 2533 
10 143 1162 1441 1385 1235 2548 1588 1589 2478 1590 
10 383 439 41 1162 631 629 632 2477 2646 1232 
10 301 1303 333 412 3038 2715 1036 1037 2716 493 
10 1429 1280 1329 327 1809 1805 1808 2535 2536 3083 
10 1396 363 288 1365 3167 919 3166 1742 2869 2868 
10 1284 377 1379 2360 3069 3168 1858 3072 3071 3169 
10 1471 469 386 1300 2748 1015 3112 2016 3003 3015 
10 1293 1374 322 291 1949 2414 3170 2887 3011 947 
10 414 1335 240 333 3025 2557 3026 496 2558 2441 
10 1368 450 311 366 2540 1104 2643 2798 600 1106 
10 390 1303 333 301 2791 2715 992 1035 3038 1036 
10 1300 330 407 298 3004 576 2850 2860 1010 1011 
10 350 1415 280 1352 2690 2692 827 2455 1838 2992 
10 1282 280 1415 1352 3041 2692 1835 1830 2992 1838 
10 285 1287 1437 367 3171 1888 3127 888 3078 3077 
10 309 423 358 1425 1090 974 1091 3008 2388 3007 
10 413 280 1342 340 831 2894 2744 832 833 2756 
10 460 1424 1277 422 2657 1772 2615 779 2916 2961 
10 429 399 1401 305 500 2837 2481 1065 1066 2704 
10 411 369 1371 2353 532 3173 3172 3174 3175 3176 
10 393 1273 1361 1395 2881 1726 2659 2658 1728 1729 
10 1320 1455 1399 318 2135 2060 2134 3057 3177 3110 
10 1284 282 1408 1464 3068 2460 1855 1859 2461 1862 
10 360 402 1299 297 660 2778 3118 1004 1005 2982 
10 327 1329 2261 1398 3083 3082 2675 3178 1629 3179 
10 317 1373 1463 1319 2699 1600 3101 2819 1907 2128 
10 1362 360 1299 1363 3122 3118 2006 1870 2978 2004 
10 325 1364 1327 1269 3046 1672 3180 3181 1673 1669 
10 1401 191 2257 399 1489 2279 3182 2837 2908 2907 
10 2258 191 1401 399 2283 1489 2480 2836 2908 2837 
10 30 1384 132 1149 3183 1477 1179 1171 3184 1172 
10 132 1384 30 1151 1477 3183 1179 1180 3185 1178 
10 1447 377 445 1311 3186 1095 2962 2094 3073 3030 
10 325 428 308 1310 1084 1085 1083 3187 3164 3031 
10 428 1310 1356 354 3164 2089 3042 1089 3032 3060 
10 312 468 401 1403 1109 628 1112 2772 2808 2410 
10 361 1299 360 1363 3040 3118 867 2885 2004 2978 
10 1299 438 1474 1440 2728 3157 2009 2005 2729 2010 
10 389 2156 122 435 3090 2194 559 561 3188 557 
10 1437 2156 225 1391 3189 2180 1504 1509 3088 1508 
10 361 283 336 1363 863 862 696 2885 2977 2867 
10 149 1167 467 1469 1263 2996 2995 1610 3190 2667 
10 149 1469 467 1168 1610 2667 2995 1265 2571 2637 
10 40 468 1470 1160 626 2849 3191 1221 2807 2848 
10 40 1161 1470 468 1227 2928 3191 626 2800 2849 
10 445 1278 1445 1447 2809 1784 2963 2962 1792 1794 
10 1356 1310 428 1430 2089 3164 3042 2091 2086 3076 
10 349 308 462 1310 1082 1086 857 2515 3031 2516 
10 1427 360 266 1268 2910 661 2909 1665 2999 3000 
10 309 1425 1311 2360 3008 2093 3005 3192 3193 3194 
10 1406 305 1307 400 2803 2703 2066 3129 1068 3102 
10 389 1391 2156 435 3089 3088 3090 561 3195 3188 
10 353 1294 1314 1355 3197 1956 3196 2835 1957 1958 
10 1397 239 412 395 2824 2484 2823 3198 2920 490 
10 373 287 317 1319 908 906 907 3199 2820 2819 
10 1403 449 312 1314 2565 1111 2772 2112 2566 3200 
10 302 1304 421 328 3066 3201 1041 1040 3065 810 
10 464 373 317 1466 796 907 1128 3093 2815 3202 
10 1385 383 1441 1294 2475 2547 1590 1960 2966 1964 
10 341 407 1300 1343 573 2850 2859 2589 2466 2014 
10 353 1356 1355 1271 3203 1706 2835 2976 1707 1704 
10 1294 392 1336 1394 3205 3204 1961 1963 3044 1962 
10 266 1427 374 425 2909 2905 665 662 2906 666 
10 1271 354 1356 1408 3206 3060 1707 1700 3033 1708 
10 1271 406 354 1408 3207 706 3206 1700 3010 3033 
10 1438 436 386 1326 2639 837 3208 2141 2644 3135 
10 386 1332 1388 1300 3210 1831 3209 3015 2011 2012 
10 318 1455 1399 397 3177 2060 3110 1132 2580 2532 
10 142 1470 40 1161 1585 3191 1229 1230 2928 1227 
10 40 1470 142 1160 3191 1585 1229 1221 2848 1228 
10 1328 445 443 1445 3211 792 2785 2145 2963 2610 
10 411 1315 1288 1413 2628 1894 3212 2629 1652 1897 
10 20 239 1397 395 253 2824 1480 2921 2920 3198 
10 238 20 1397 395 249 1480 3213 2922 2921 3198 
10 468 1470 1403 1314 2849 1586 2808 3214 2111 2112 
10 1376 1320 1412 318 2131 2132 2077 3055 3057 3111 
10 1425 358 1360 1295 3007 2875 1976 1974 3124 1975 
10 278 1280 327 419 2826 2536 805 804 3215 803 
10 1287 285 440 367 3171 890 2847 3078 888 889 
10 1355 353 1294 1356 2835 3197 1957 1706 3203 1965 
10 438 472 1474 332 1008 2841 3157 1147 1148 3119 
10 1310 428 1430 1327 3164 3076 2086 2084 2650 2087 
10 400 1276 274 2352 3217 3216 758 3218 3219 3220 
10 1317 451 315 339 3152 1116 2930 2931 552 1117 
10 1314 420 353 1355 2609 1108 3196 1958 2519 2835 
10 293 335 418 1420 966 967 968 3221 3222 3223 
10 2261 396 327 1398 3224 514 2675 3179 2635 3178 
10 303 355 356 1358 1048 970 1047 2606 2604 2399 
10 1305 1357 355 1358 2049 2698 2603 2050 1972 2604 
10 388 359 271 1273 724 725 720 2940 2980 3225 
10 330 1332 386 1300 2439 3210 830 3004 2011 3015 
10 1375 373 1370 2359 3227 3226 1912 3228 3229 3230 
10 1335 1416 1298 414 1548 1997 1994 3025 3027 3231 
10 1345 331 1293 343 3232 2886 1953 3233 875 2888 
10 1345 1333 1293 331 1877 1952 1953 3232 2776 2886 
10 322 1393 1293 291 3234 1951 3170 947 3235 2887 
10 307 1309 1402 2352 2717 2082 3236 2712 3237 3238 
10 394 363 288 1396 738 919 918 3239 3167 3166 
10 437 271 393 1439 728 727 732 3240 3241 2882 
10 1273 393 271 1439 2881 727 3225 1732 2882 3241 
10 368 2359 378 2361 3242 3017 742 3243 3020 3019 
10 1380 2359 1370 2361 3016 3230 1745 3018 3020 3244 
10 1299 402 360 1362 2778 660 3118 2006 2670 3122 
10 1383 268 319 381 3245 683 3130 3133 681 682 
10 1468 2268 375 466 2958 2553 3246 2797 3104 540 
10 282 377 349 1351 855 680 856 3126 3097 3096 
10 442 1440 1334 332 2985 2149 3058 772 3247 2997 
10 283 360 447 1285 868 869 865 2769 2903 2624 
10 1307 1387 1402 385 2068 2070 2071 2706 2844 3248 
10 1290 348 467 1469 3123 924 3249 1926 2570 2667 
10 1361 393 359 1273 2659 726 2738 1726 2881 2980 
10 332 442 1440 438 772 2985 3247 1147 849 2729 
10 1289 373 287 1370 3250 908 2994 1911 3226 3251 
10 282 1464 1284 1351 2461 1859 3068 3126 1860 1857 
10 417 1392 1275 1419 2764 1756 3098 2724 1758 1754 
10 1474 1440 332 1334 2010 3247 3119 2150 2149 2997 
10 354 1356 353 1271 3060 3203 705 3206 1707 2976 
10 1464 349 1310 1351 2479 2515 2088 1860 3096 2085 
10 311 1419 417 2355 2642 2724 1105 2974 2973 3100 
10 406 354 269 1271 706 704 699 3207 3206 2884 
10 438 332 1474 1440 1147 3119 3157 2729 3247 2010 
10 325 441 428 1327 1026 802 1084 3180 2652 2650 
10 1413 2271 1315 202 2630 2626 1652 1646 2338 1650 
10 99 313 411 2271 536 537 530 2330 2863 2627 
10 396 355 1305 1398 517 2603 2676 2635 2636 2051 
10 1326 324 386 1471 2838 1139 3135 1724 2746 3112 
10 1384 1151 1456 454 3185 2561 1552 3252 2560 2546 
10 1364 325 267 1269 3046 669 3047 1673 3181 3253 
10 461 43 334 1163 637 635 639 2684 1236 2731 
10 1336 1163 145 1463 2701 1243 1592 1597 2685 1596 
10 1331 1270 1383 329 1688 1685 1689 2814 2813 3254 
10 389 225 1391 2157 3091 1508 3089 3255 2182 3256 
10 277 464 392 1466 797 801 800 2816 3093 3257 
10 282 1408 336 1338 2460 3258 852 2949 1701 2843 
10 354 1294 353 1356 3259 3197 705 3060 1965 3203 
10 450 1153 1367 365 2736 2666 2737 603 2988 2987 
10 1269 326 446 1328 2946 675 3092 1674 2947 2784 
10 1290 1436 434 1350 1924 3106 3107 1925 1538 2938 
10 1443 441 1375 2359 2651 3125 1796 2873 2872 3228 
10 302 447 425 1449 1042 1046 1045 2856 2621 2893 
10 341 2200 1435 433 2588 3261 3260 570 3262 3013 
10 312 449 420 1314 1111 848 1107 3200 2566 2609 
10 1365 363 299 1434 2869 1016 2935 1743 2599 2693 
10 267 325 349 1351 669 667 668 3095 3263 3096 
10 324 388 271 1273 719 720 721 2840 2940 3225 
10 308 349 325 1310 1082 667 1083 3031 2515 3187 
10 195 1398 92 2261 1627 3264 2301 2302 3179 2295 
10 92 1398 195 2262 3264 1627 2301 2299 2602 2303 
10 319 1383 1270 268 3130 1685 3265 683 3245 3084 
10 10 412 239 395 488 2484 251 474 490 2920 
10 20 1414 1397 239 1541 1542 1480 253 2483 2824 
10 1425 423 358 1295 2388 974 3007 1974 3266 3124 
10 369 457 2266 1459 529 2742 3085 3267 2741 2679 
10 1304 1376 1427 302 2045 1668 2047 3066 3268 2904 
10 2267 369 200 1371 3087 3086 2328 3269 3173 1642 
10 200 369 2266 1371 3086 3085 2327 1642 3173 3270 
10 273 1275 2346 2355 3273 3272 3271 3274 3099 3275 
10 1364 325 1327 2359 3046 3180 1672 3138 3137 2871 
10 282 406 336 1408 853 698 852 2460 3010 3258 
10 461 1163 334 1336 2684 2731 639 2702 2701 3276 
10 372 1155 35 331 2501 1196 609 611 2504 607 
10 1333 137 1374 1155 1564 1568 1569 2775 1203 2502 
10 386 1332 1282 1388 3210 1829 3277 3209 1831 1832 
10 355 1357 2263 197 2698 2697 2633 2708 1631 2312 
10 1357 197 355 2264 1631 2708 2698 2745 2313 2709 
10 1372 448 290 370 2382 944 3278 2383 824 943 
10 357 1359 2351 2353 2786 3280 3279 2914 2913 3281 
10 284 321 1323 2355 871 2401 3282 3283 3284 3285 
10 1286 284 1323 2355 3286 3282 1872 3287 3283 3285 
10 432 413 1342 340 1022 2744 2499 736 832 2756 
10 321 284 1426 424 871 3289 3288 872 873 3290 
10 402 1268 1322 320 2668 1657 2770 659 3120 3291 
10 96 457 335 2265 525 526 521 2315 2740 2864 
10 2265 199 1459 1337 2322 1639 2678 2964 1637 1641 
10 1276 1412 274 2352 1763 3292 3216 3219 3293 3220 
10 1408 1271 336 1338 1700 2866 3258 1701 1697 2843 
10 1351 377 267 1269 3097 672 3095 1670 2945 3253 
10 1379 377 1351 1269 3168 3097 1682 1676 2945 1670 
10 1287 1323 1386 285 1882 1884 1885 3171 2880 3061 
10 1268 1362 1427 360 1662 1664 1665 2999 3122 2910 
10 1314 353 312 1294 3196 954 3200 1956 3197 3294 
10 353 269 354 1271 700 704 705 2976 2884 3206 
10 1446 287 444 2361 3295 912 2967 3296 3297 3298 
10 2156 1391 1437 435 3088 1509 3189 3188 3195 3128 
10 460 472 1322 320 1136 2842 2549 1135 1134 3291 
10 1275 1323 2346 2355 1747 2377 3272 3099 3285 3275 
10 379 1381 2346 2356 2375 2379 2378 3299 3300 3301 
10 1440 1444 1283 442 1851 1846 1844 2985 3302 2984 
10 1318 1371 369 2353 1900 3173 3303 3304 3176 3175 
10 330 280 386 1332 828 829 830 2439 2993 3210 
10 351 1306 458 304 2680 3305 505 1055 2625 1056 
10 327 398 1400 427 511 2673 2674 807 1060 2584 
10 1275 273 417 2355 3273 753 3098 3099 3274 3100 
10 1444 1433 1312 310 1782 2102 2099 2953 3306 2956 
10 273 2346 321 2355 3271 2402 747 3274 3275 3284 
10 431 1393 1433 322 3308 1779 3307 1137 3234 3309 
10 1393 322 431 391 3234 1137 3308 3310 949 778 
10 287 1446 444 2354 3295 2967 912 3311 2970 2972 
10 1378 1167 1316 148 2753 2750 1607 1605 1260 1606 
10 46 314 376 1167 649 648 646 1257 2822 2751 
10 364 469 271 1471 731 722 730 3002 2748 2747 
10 419 1280 327 1421 3215 2536 803 3312 1806 3313 
10 1329 327 1280 1421 3083 2536 1805 1807 3313 1806 
10 414 296 1298 333 995 2944 3231 496 994 3001 
10 317 334 464 1466 1126 1127 1128 3202 3314 3093 
10 347 289 1468 1349 930 3315 2773 2619 3316 1933 
10 1271 336 406 1408 2866 698 3207 1700 3258 3010 
10 1289 287 373 1319 2994 908 3250 1906 2820 3199 
10 391 1393 1321 1277 3310 1770 3317 3318 1771 1769 
10 1270 430 319 268 3148 684 3265 3084 685 683 
10 1442 1317 1369 440 2122 2121 1892 2845 3319 2846 
10 1351 1310 325 349 2085 3187 3263 3096 2515 667 
10 469 364 298 1300 731 1012 1014 3003 2861 2860 
10 1306 1460 1353 351 2058 1620 2055 2680 3320 2417 
10 355 1405 1357 2264 2790 1635 2698 2709 2465 2745 
10 1336 317 461 1463 3321 1125 2702 1597 3101 2682 
10 291 322 1393 391 947 3234 3235 948 949 3310 
10 1282 1332 386 280 1829 3210 3277 3041 2993 829 
10 355 1305 1398 1357 2603 2051 2636 2698 2049 1632 
10 1323 1287 1381 285 1882 1883 1748 2880 3171 2879 
10 319 1424 1292 290 2915 1940 3131 937 2917 3322 
10 1292 1321 1424 319 1938 1773 1940 3131 3323 2915 
10 353 420 1314 312 1108 2609 3196 954 1107 3200 
10 1468 289 347 466 3315 930 2773 2797 931 932 
10 287 371 1373 2354 904 2586 2700 3311 3324 3325 
10 1281 1454 279 2352 1818 2497 2779 3081 2711 2734 
10 342 2204 434 1436 2491 3326 588 3105 3327 3106 
10 1459 2266 369 1371 2679 3085 3267 1644 3270 3173 
10 1365 342 1344 1301 2870 2833 1922 2019 2929 2018 
10 310 344 1444 442 1097 2954 2953 1096 843 3302 
10 418 358 293 1420 786 973 968 3223 3109 3221 
10 1460 2259 1353 351 3328 2395 1620 3320 2416 2417 
10 280 1282 1342 1438 3041 1833 2894 3012 1836 1837 
10 292 383 1441 439 957 2547 2811 962 631 2647 
10 1278 358 418 1420 2810 786 3067 1789 3109 3223 
10 309 423 1425 2360 1090 2388 3008 3192 3329 3193 
10 344 1283 1444 442 3143 1846 2954 843 2984 3302 
10 442 1277 1334 1444 3059 1774 3058 3302 1775 1776 
10 1471 324 271 1273 2746 721 2747 1725 2840 3225 
10 1317 1341 1453 339 2118 1500 2119 2931 2825 3154 
10 326 267 377 1269 674 672 673 2946 3253 2945 
10 1269 1379 377 1328 1676 3168 2945 1674 1675 2948 
10 2271 411 98 201 2627 531 2329 2333 3330 2331 
10 2267 98 411 201 2325 531 3331 2332 2331 3330 
10 417 273 1392 390 753 3332 2764 756 755 2792 
10 1284 1351 377 282 1857 3097 3069 3068 3126 855 
10 1335 414 1298 333 3025 3231 1994 2558 496 3001 
10 1466 373 317 1319 2815 907 3202 2129 3199 2819 
10 288 1290 1396 1365 3121 1919 3166 2868 1923 1742 
10 425 1427 302 1449 2906 2904 1045 2893 2048 2856 
10 275 1277 319 422 3333 2960 769 771 2961 770 
10 1424 1321 1277 319 1773 1769 1772 2915 3323 2960 
10 1354 302 1304 1449 2788 3066 2042 1867 2856 2044 
10 285 440 1386 1287 890 3049 3061 3171 2847 1885 
10 307 1454 1309 2352 2457 2080 2717 2712 2711 3237 
10 299 350 408 1352 1019 582 1018 3009 2455 2435 
10 1292 1424 1322 320 1940 1943 1941 3334 3103 3291 
10 377 445 326 1328 1095 1142 673 2948 3211 2947 
10 377 309 1311 2360 1094 3005 3073 3071 3192 3194 
10 1290 342 1436 1344 3108 3105 1924 1921 2833 1536 
10 288 342 434 1290 921 588 922 3121 3108 3107 
10 1375 373 1289 1370 3227 3250 1909 1912 3226 1911 
10 1270 1345 1432 430 1692 1695 1686 3148 3335 3149 
10 381 319 1292 290 682 3131 3132 936 937 3322 
10 1321 1292 1383 319 1938 1939 1684 3323 3131 3130 
10 269 336 406 1271 697 698 699 2884 2866 3207 
10 1310 325 428 1327 3187 1084 3164 2084 3180 2650 
10 1455 318 453 397 3177 1133 2663 2580 1132 1059 
10 280 1415 1342 1282 2692 1834 2894 3041 1835 1833 
10 1314 312 383 1294 3200 958 2965 1956 3294 2966 
10 392 1394 1294 1356 3044 1963 3205 3043 1966 1965 
10 1328 377 445 1447 2948 1095 3211 2144 3186 2962 
10 1283 281 344 1451 2754 845 3143 1849 2617 2683 
10 277 428 1394 392 799 2919 2918 800 798 3044 
10 330 1409 1332 1300 2452 1524 2439 3004 2013 2011 
10 2151 451 1453 339 3337 3153 3336 3338 552 3154 
10 315 1317 440 367 2930 3319 1119 1120 3339 889 
10 1441 334 1163 1336 2732 2731 2733 1594 3276 2701 
10 1441 292 334 1294 2811 961 2732 1964 3340 3341 
10 334 1336 1441 1294 3276 1594 2732 3341 1961 1964 
10 1279 428 1443 1430 2857 2649 1797 1801 3076 1804 
10 1292 1372 1450 448 1944 1827 1946 3342 2382 2392 
10 1274 272 378 2361 2721 733 2831 3343 3344 3019 
10 1299 297 402 1474 2982 1005 2778 2009 3134 3050 
10 1308 1389 1376 374 2075 1667 2076 3162 3161 3345 
10 1389 306 387 374 3160 1073 3346 3161 1074 664 
10 1457 455 1155 331 3349 3348 3347 3350 608 2504 
10 1449 360 1362 1285 2892 3122 1871 1868 2903 1869 
10 385 1309 1402 307 3045 2082 3248 1081 2717 3236 
10 1351 325 1327 1269 3263 3180 1671 1670 3181 1669 
10 2152 367 1453 451 3353 3352 3351 3354 555 3153 
10 1294 354 392 1356 3259 964 3205 1965 3060 3043 
10 1463 1336 317 1319 1597 3321 3101 2128 2127 2819 
10 360 1362 1427 1449 3122 1664 2910 2892 1871 2048 
10 274 404 1399 1276 762 2531 3158 3216 3165 1764 
10 443 445 1328 326 792 3211 2785 1143 1142 2947 
10 1340 1418 1272 2360 1716 1717 1714 3141 3355 3142 
10 313 393 286 1315 892 893 894 2758 3356 3357 
10 297 438 1474 1299 1003 3157 3134 2982 2728 2009 
10 467 1167 376 1469 2996 2751 653 2667 3190 3358 
10 1387 1309 1402 385 2083 2082 2070 2844 3045 3248 
10 274 1412 410 2352 3292 3359 760 3220 3293 3360 
10 92 2262 396 1398 2299 2707 513 3264 2602 2635 
10 396 2261 92 1398 3224 2295 513 2635 3179 3264 
10 428 1279 1394 1430 2857 1800 2919 3076 1801 1802 
10 381 1383 268 329 3133 3245 681 686 3254 687 
10 1415 350 299 1352 2690 1019 2952 1838 2455 3009 
10 1345 1286 1333 331 1878 1876 1877 3232 3361 2776 
10 331 1345 284 343 3232 3362 876 875 3233 874 
10 1293 1432 1345 430 1954 1695 1953 3363 3149 3335 
10 1399 410 397 274 3151 765 2532 3158 760 764 
10 1435 2200 341 1343 3261 2588 3260 1518 2468 2589 
10 1421 1329 327 1398 1807 3083 3313 2054 1629 3178 
10 327 396 419 1421 514 1052 803 3313 2926 3312 
10 1445 1328 445 1447 2145 3211 2963 1794 2144 2962 
10 278 427 1455 453 806 2495 3364 813 814 2663 
10 1371 369 411 2267 3173 532 3172 3269 3087 3331 
10 322 1374 1293 1324 2414 1949 3170 2518 1573 1948 
10 293 403 335 1295 965 523 966 3365 2890 2889 
10 335 1337 1295 1405 3366 1967 2889 2865 1638 1968 
10 194 398 91 2260 3145 506 2296 2297 3147 2290 
10 91 398 194 2261 506 3145 2296 2294 2671 2298 
10 1385 1314 468 383 1959 3214 2801 2475 2965 633 
10 1338 282 1408 1284 2949 2460 1701 1852 3068 1855 
10 1277 442 431 1433 3059 780 3367 1780 3368 3307 
10 421 1376 1304 302 3369 2045 3201 1041 3268 3066 
10 323 1325 1437 285 3371 1889 3370 885 3372 3127 
10 272 363 1396 1274 740 3167 3373 2721 2598 1741 
10 270 2348 1272 2357 3375 3374 2934 3037 3376 3035 
10 285 1437 323 435 3127 3370 885 887 3128 886 
10 1346 1444 1312 344 1847 2099 2098 2529 2954 2955 
10 329 1442 440 2358 3054 2845 1145 3377 3378 3379 
10 455 1457 1286 331 3349 1879 3380 608 3350 3361 
10 1346 1283 1444 344 1845 1846 1847 2529 3143 2954 
10 1459 335 2265 1337 2897 2864 2678 1641 3366 2964 
10 1293 1374 331 1333 1949 2503 2886 1952 1569 2776 
10 1341 1317 1467 2358 2118 2120 1820 2981 2932 3075 
10 465 315 339 2358 1118 1117 819 3074 2933 2781 
10 364 437 289 1291 729 933 927 2941 3381 2942 
10 364 1291 1366 1439 2941 1929 2943 3382 1935 1731 
10 1289 1319 373 1375 1906 3199 3250 1909 1910 3227 
10 1427 374 1268 266 2905 3156 1665 2909 665 3000 
10 450 33 1153 365 599 1186 2736 603 604 2988 
10 1452 135 1367 1153 1556 1561 1562 2735 1193 2666 
10 1442 329 1331 2358 3054 2814 2147 3378 3377 3383 
10 1276 400 1402 2352 3217 3384 1760 3219 3218 3238 
10 364 1366 1273 1439 2943 1730 3385 3382 1731 1732 
10 268 1383 1270 329 3245 1685 3084 687 3254 2813 
10 1376 1389 1268 374 1667 1658 1666 3345 3161 3156 
10 387 374 1268 1389 664 3156 3155 3346 3161 1658 
10 294 1465 1296 2362 2524 1982 2364 2924 2923 3386 
10 377 1351 1284 1379 3097 1857 3069 3168 1682 1858 
10 289 1468 375 466 3315 3246 935 931 2797 540 
10 419 396 303 1421 1052 1049 1051 3312 2926 2925 
10 1421 327 396 1398 3313 514 2926 2054 3178 2635 
10 325 1310 1351 1327 3187 2085 3263 3180 2084 1671 
10 1323 384 285 321 3062 882 2880 2401 883 881 
10 1424 460 320 422 2657 1135 3103 2916 779 941 
10 1275 1392 417 273 1756 2764 3098 3273 3332 753 
10 1403 1346 344 1451 1582 2529 2406 2114 1848 2683 
10 1274 378 1380 2361 2831 2368 1737 3343 3019 3018 
10 1433 1393 1324 322 1779 1950 2139 3309 3234 2518 
10 1291 364 437 1439 2941 729 3381 1935 3382 3240 
10 1336 1466 317 1319 2130 3202 3321 2127 2129 2819 
10 1468 1377 375 2268 1655 2556 3246 2958 2555 2553 
10 1437 1325 1287 285 1889 1886 1888 3127 3372 3171 
10 271 437 364 1439 728 729 730 3241 3240 3382 
10 364 1273 271 1439 3385 3225 730 3382 1732 3241 
10 381 1292 1383 448 3132 1939 3133 945 3342 3387 
10 298 386 469 1300 1009 1015 1014 2860 3015 3003 
10 1301 342 1344 1410 2929 2833 2018 2020 2492 1533 
10 1268 387 320 266 3155 655 3120 3000 656 657 
10 1351 267 325 1269 3095 669 3263 1670 3253 3181 
10 271 359 393 1273 725 726 727 3225 2980 2881 
10 1337 335 2265 1405 3366 2864 2964 1638 2865 2464 
10 289 341 1435 433 928 3260 3388 929 570 3013 
10 1277 442 1433 1444 3059 3368 1780 1775 3302 1782 
10 280 386 1438 436 829 3208 3012 835 837 2639 
10 458 1460 1306 351 3389 2058 3305 505 3320 2680 
10 323 389 1391 2356 1031 3089 3390 3391 3392 3393 
10 1400 398 2260 458 2673 3147 3146 3394 508 3395 
10 1321 1383 1270 319 1684 1685 1683 3323 3130 3265 
10 1324 1393 1293 322 1950 1951 1948 2518 3234 3170 
10 1156 426 1324 322 3397 3396 2517 2415 616 2518 
10 277 1466 392 1394 2816 3257 800 2918 1803 3044 
10 284 1286 1345 331 3286 1878 3362 876 3361 3232 
10 320 1292 1424 290 3334 1940 3103 940 3322 2917 
10 2268 1377 203 1468 2555 1649 2342 2958 1655 1653 
10 100 466 375 2268 539 540 533 2335 3104 2553 
10 1327 325 441 2359 3180 1026 2652 2871 3137 2872 
10 307 1402 400 2352 3236 3384 1079 2712 3238 3218 
10 1293 343 291 430 2888 950 2887 3363 693 952 
10 458 1400 398 304 3394 2673 508 1056 2583 1062 
10 1 1149 237 382 1169 3398 246 477 3399 3400 
10 237 2 1384 1149 245 1475 3401 3398 1170 3184 
10 1307 385 1402 400 2706 3248 2071 3102 1069 3384 
10 1426 1270 1386 384 1693 1691 1696 3402 2878 2877 
10 1298 1384 1456 454 2002 1552 2001 2616 3252 2546 
10 456 2351 1458 2353 2374 2381 2380 3403 3281 3404 
10 1367 1154 1457 455 2665 3405 1563 3406 3407 3349 
10 1381 1407 1275 2356 1752 1753 1749 3300 3408 3409 
10 379 273 405 2356 745 750 751 3299 3410 3411 
10 421 1423 1376 318 2950 2046 3369 1131 3056 3055 
10 1438 386 1388 1326 3208 3209 1839 2141 3135 2140 
10 302 1376 1427 374 3268 1668 2904 1044 3345 2905 
10 456 276 418 1278 784 787 791 2370 2371 3067 
10 285 379 1323 321 880 2376 2880 881 746 2401 
10 1371 2267 411 1413 3269 3331 3172 1647 3412 2629 
10 1421 396 1305 1398 2926 2676 2052 2054 2635 2051 
10 458 1306 1400 304 3305 2062 3394 1056 2625 2583 
10 1308 374 410 306 3162 1075 3413 3159 1074 1072 
10 1381 379 323 2356 2375 884 3139 3300 3299 3391 
10 1274 363 1396 1365 2598 3167 1741 1740 2869 1742 
10 323 1381 1325 285 3139 1887 3371 885 2879 3372 
10 1323 1286 1426 284 1872 1874 1875 3282 3286 3289 
10 284 1426 1323 321 3289 1875 3282 871 3288 2401 
10 240 22 1416 414 262 1547 3024 3026 3414 3027 
10 22 241 1416 414 263 3415 1547 3414 3416 3027 
10 1412 318 1399 410 3111 3110 1767 3359 1129 3151 
10 1276 400 404 1406 3217 766 3165 1766 3129 2533 
10 1303 1397 1414 412 2040 1542 2039 2716 2823 2444 
10 458 2259 1460 351 3417 3328 3389 505 2416 3320 
10 442 332 1277 275 772 2998 3059 773 774 3333 
10 2266 97 457 369 2320 524 2742 3085 528 529 
10 200 2266 1459 1371 2327 2679 1640 1642 3270 1644 
10 468 1314 1385 1470 3214 1959 2801 2849 2111 1591 
10 373 1375 1466 1279 3227 1799 2815 2818 1795 1798 
10 13 237 23 382 247 248 264 476 3400 3418 
10 241 13 23 382 259 264 265 3419 476 3418 
10 1304 1376 421 1423 2045 3369 3201 2043 2046 2950 
10 1366 364 1471 1300 2943 3002 1733 2015 2861 2016 
10 1277 275 332 460 3333 774 2998 2615 775 776 
10 335 1420 1295 1337 3222 1969 2889 3366 1970 1967 
10 1295 335 293 1420 2889 966 3365 1969 3222 3221 
10 286 411 313 1315 895 537 894 3357 2628 2758 
10 1450 1383 1292 448 1947 1939 1946 2392 3387 3342 
10 1396 288 1316 1290 3166 3420 1920 1919 3121 1917 
10 1284 1379 1418 2360 1858 1861 1856 3072 3169 3355 
10 282 416 377 2360 854 859 855 3070 3421 3071 
10 472 402 1322 320 1007 2770 2842 1134 659 3291 
10 288 348 467 1290 923 924 925 3121 3123 3249 
10 431 1277 1393 391 3367 1771 3308 778 3318 3310 
10 1433 1277 1393 431 1780 1771 1779 3307 3367 3308 
10 1277 319 391 275 2960 768 3318 3333 769 767 
10 391 1277 1321 319 3318 1769 3317 768 2960 3323 
10 334 392 464 1466 960 801 1127 3314 3257 3093 
10 1368 134 1452 1152 1553 1557 1558 2539 1188 2538 
10 450 1152 32 366 2541 1181 598 600 2799 596 
10 1391 323 435 389 3390 886 3195 3089 1031 561 
10 319 430 1270 1321 684 3148 3265 3323 3150 1683 
10 1391 389 301 2356 3089 1030 3422 3393 3392 3039 
10 1364 1380 2350 2359 1984 2369 3423 3138 3016 3424 
10 362 1364 267 2362 3048 3047 670 3425 3426 3427 
10 440 1317 1369 367 3319 2121 2846 889 3339 3079 
10 387 306 1372 370 1073 3429 3428 942 1070 2383 
10 2261 1329 195 1398 3082 1625 2302 3179 1629 1627 
10 92 327 2261 396 509 2675 2295 513 514 3224 
10 348 288 434 1290 923 922 589 3123 3121 3107 
10 410 1308 306 2352 3413 3159 1072 3360 3430 3431 
10 1293 430 1393 1432 3363 3432 1951 1954 3149 1955 
10 378 362 2350 2359 982 3433 2367 3017 3136 3424 
10 395 1397 226 2157 3198 1479 3434 3435 3436 2183 
10 1403 312 468 1314 2772 1109 2808 2112 3200 3214 
10 410 374 1308 1412 1075 3162 3413 3359 3437 2074 
10 430 1270 1345 268 3148 1692 3335 685 3084 3438 
10 1336 334 392 1294 3276 960 3204 1961 3341 3205 
10 392 334 292 1294 960 961 959 3205 3341 3340 
10 365 1154 1367 455 2986 2665 2987 605 3407 3406 
10 1325 1381 1287 285 1887 1883 1886 3372 2879 3171 
10 367 121 2152 435 554 2192 3353 558 556 3439 
10 2152 1437 224 1369 3440 1505 2177 3441 1506 1501 
10 1369 2152 1437 367 3441 3440 1506 3079 3353 3077 
10 289 1468 1349 1291 3315 1933 3316 2942 1934 1932 
10 1291 437 375 1377 3381 934 3442 1936 3443 2556 
10 311 450 1367 365 1104 2737 3029 1103 603 2987 
10 1384 241 414 1416 3445 3416 3444 1549 3415 3027 
10 1444 1440 1334 442 1851 2149 1776 3302 2985 3058 
10 467 47 376 1167 651 647 653 2996 1256 2751 
10 1469 1167 1378 149 3190 2753 1611 1610 1263 1604 
10 375 289 437 1291 935 933 934 3442 2942 3381 
10 1395 1288 1361 2353 1895 1905 1729 2660 3446 2661 
10 286 393 359 2353 893 726 901 3447 2662 2739 
10 377 1447 1379 1311 3186 2097 3168 3073 2094 2095 
10 1455 1320 1423 318 2135 2133 1815 3177 3057 3056 
10 323 1391 1325 2356 3390 2033 3371 3391 3393 3448 
10 1396 363 272 394 3167 740 3373 3239 738 739 
10 312 353 292 1294 954 955 956 3294 3197 3340 
10 410 1412 318 374 3359 3111 1129 1075 3437 1130 
10 1439 437 1291 1377 3240 3381 1935 1937 3443 1936 
10 1310 308 462 1408 3031 1086 2516 2090 3034 2459 
10 410 1412 1308 2352 3359 2074 3413 3360 3293 3430 
10 1453 1341 2151 339 1500 3449 3336 3154 2825 3338 
10 460 1277 275 422 2615 3333 775 779 2961 771 
10 290 448 1372 1292 944 2382 3278 3322 3342 1944 
10 1307 1402 1406 400 2071 1768 2066 3102 3384 3129 
10 1372 290 387 370 3278 939 3428 2383 943 942 
10 1149 1384 237 382 3184 3401 3398 3399 3450 3400 
10 354 292 353 1294 963 955 705 3259 3340 3197 
10 444 2349 1446 2361 2968 2969 2967 3298 3451 3296 
10 1289 287 1373 2354 2994 2700 1908 3452 3311 3325 
10 1155 1333 1457 331 2775 1566 3347 2504 2776 3350 
10 1319 1466 373 1375 2129 2815 3199 1910 1799 3227 
10 1372 1389 1308 306 1945 2075 2073 3429 3160 3159 
10 1331 1383 1450 329 1689 1947 2146 2814 3254 3453 
10 1437 2152 121 435 3440 2192 3454 3128 3439 556 
10 341 1435 1343 1291 3260 1518 2589 2896 1931 1928 
10 1281 2347 279 2358 3080 3051 2779 2782 3455 2783 
10 1397 226 2158 395 1479 2162 3456 3198 3434 3457 
10 356 303 1421 419 1047 2925 3458 1050 1051 3312 
10 462 308 406 1408 1086 1087 860 2459 3034 3010 
10 421 318 1376 374 1131 3055 3369 1043 1130 3345 
10 291 430 1393 1293 952 3432 3235 2887 3363 1951 
10 367 2152 1437 435 3353 3440 3077 558 3439 3128 
10 1333 1286 1457 331 1876 1879 1566 2776 3361 3350 
10 323 1391 1437 1325 3390 1509 3370 3371 2033 1889 
10 2152 1369 1453 367 3441 1503 3351 3353 3079 3352 
10 1455 427 278 1280 2495 806 3364 1814 2537 2826 
10 173 2200 433 1435 2221 3262 3459 1512 3261 3013 
10 173 1435 433 2199 1512 3013 3459 2216 2902 3014 
10 1413 411 2271 201 2629 2627 2630 1645 3330 2333 
10 1413 2267 411 201 3412 3331 2629 1645 2332 3330 
10 268 1270 1426 384 3084 1693 3460 688 2878 3402 
10 1378 376 1167 1469 2752 2751 2753 1611 3358 3190 
10 1326 386 1388 1471 3135 3209 2140 1724 3112 2017 
10 302 421 1376 374 1041 3369 3268 1044 1043 3345 
10 1437 1391 323 435 1509 3390 3370 3128 3195 886 
10 1303 1391 301 2356 2034 3422 3038 2795 3393 3039 
10 1436 342 2204 1344 3105 2491 3327 1536 2833 2719 
10 1453 367 1317 451 3352 3339 2119 3153 555 3152 
10 310 1433 431 442 3306 3307 1100 1096 3368 780 
10 1367 311 365 2355 3029 1103 2987 3116 2974 3461 
10 1289 1370 287 2361 1911 3251 2994 3462 3244 3297 
10 1358 423 1425 1295 2387 2388 1719 1973 3266 1974 
10 431 442 1277 275 780 3059 3367 777 773 3333 
10 1441 1163 144 1336 2733 1240 1587 1594 2701 1593 
10 334 42 439 1163 634 630 636 2731 1237 2730 
10 306 1372 370 2352 3429 2383 1070 3431 3094 3052 
10 1322 1268 1389 320 1657 1658 1659 3291 3120 3463 
10 1435 341 289 1291 3260 928 3388 1931 2896 2942 
10 270 356 2348 2357 711 2400 3375 3037 3464 3376 
10 1429 1329 1400 327 1808 1626 2064 2535 3083 2674 
10 241 22 12 414 263 261 260 3416 3414 494 
10 240 12 22 414 254 261 262 3026 494 3414 
10 1159 1346 1461 459 2528 1583 3465 3466 3467 3468 
10 1402 400 385 307 3384 1069 3248 3236 1079 1081 
10 395 1391 1397 2157 3469 1510 3198 3435 3256 3436 
10 459 1159 1346 344 3466 2528 3467 625 2408 2529 
10 1324 1156 1428 426 2517 3470 1574 3396 3397 3471 
10 1399 1276 1412 274 1764 1763 1767 3158 3216 3292 
10 1295 293 358 1420 3365 973 3124 1969 3221 3109 
10 1289 287 1446 2361 2994 3295 1913 3462 3297 3296 
10 375 1468 1291 1377 3246 1934 3442 2556 1655 1936 
10 389 1391 395 2157 3089 3469 562 3255 3256 3435 
10 1272 2348 1358 2357 3374 2391 1712 3035 3376 3472 
10 292 383 312 1294 957 958 956 3340 2966 3294 
10 1291 1468 375 289 1934 3246 3442 2942 3315 935 
10 369 316 1318 2353 896 3473 3303 3175 3474 3304 
10 287 1289 1446 2354 2994 1913 3295 3311 3452 2970 
10 1295 355 403 1405 3475 520 2890 1968 2790 2488 
10 1460 1306 1400 458 2058 2062 1623 3389 3305 3394 
10 273 321 380 2355 747 748 749 3274 3284 3476 
10 1382 1323 1275 2355 1751 1747 1750 3477 3285 3099 
10 457 369 316 1459 529 896 1124 2741 3267 3478 
10 1471 386 1388 1300 3112 3209 2017 2016 3015 2012 
10 179 2207 434 1436 2251 2937 3479 1534 3117 3106 
10 2204 179 434 1436 2245 3479 3326 3327 1534 3106 
10 2260 1460 1400 458 3480 1623 3146 3395 3389 3394 
10 326 446 267 1269 675 676 674 2946 3092 3253 
10 384 1426 268 424 3402 3460 688 694 3290 691 
10 278 1280 419 2357 2826 3215 804 2828 2830 3481 
10 310 1444 1433 442 2953 1782 3306 1096 3302 3368 
10 456 357 2351 2353 785 3279 2374 3403 2914 3281 
10 320 1292 1389 1322 3334 1942 3463 3291 1941 1659 
10 70 433 173 2200 563 3459 2223 2224 3262 2221 
10 173 433 70 2199 3459 563 2223 2216 3014 2222 
10 344 1346 1283 1451 2529 1845 3143 2683 1848 1849 
10 455 1286 284 331 3380 3286 877 608 3361 876 
10 301 1391 1397 395 3422 1510 3482 1038 3469 3198 
10 367 315 1317 451 1120 2930 3339 555 1116 3152 
10 376 1290 467 1469 3483 3249 653 3358 1926 2667 
10 220 2154 1401 399 2167 3114 1487 3484 3163 2837 
10 139 426 37 1158 3485 613 1214 1215 3486 1212 
10 37 426 139 1156 613 3485 1214 1206 3397 1213 
10 395 301 1391 389 1038 3422 3469 562 1030 3089 
10 343 1426 284 424 3487 3289 874 690 3290 873 
10 290 1292 381 448 3322 3132 936 944 3342 945 
10 441 1279 1375 373 2858 1795 3125 794 2818 3227 
10 1286 1367 1457 455 1880 1563 1879 3380 3406 3349 
10 356 419 1421 2357 1050 3312 3458 3464 3481 3488 
10 1372 306 1308 2352 3429 3159 2073 3094 3431 3430 
10 1393 430 291 391 3432 952 3235 3310 953 948 
10 1459 369 1318 1371 3267 3303 2126 1644 3173 1900 
10 1304 302 1427 1449 3066 2904 2047 2044 2856 2048 
10 355 293 356 1358 971 969 970 2604 3489 2399 
10 1295 1358 355 1357 1973 2604 3475 1971 1972 2698 
10 423 2348 1425 2360 2390 2389 2388 3329 3490 3193 
10 392 1466 1336 1394 3257 2130 3204 3044 1803 1962 
10 344 1312 459 310 2955 3491 625 1097 2956 1098 
10 1400 1329 194 2261 1626 1624 1622 2672 3082 2298 
10 398 2261 91 327 2671 2294 506 511 2675 510 
10 292 354 392 1294 963 964 959 3340 3259 3205 
10 69 347 2199 433 566 2590 2219 564 565 3014 
10 1435 2199 172 1349 2902 2217 1511 1514 2618 1513 
10 303 1421 1358 356 2925 2053 2606 1047 3458 2399 
10 1403 1160 142 1470 2506 1228 1579 1586 2848 1585 
10 40 401 468 1160 622 628 626 1221 2507 2807 
10 391 431 1277 275 778 3367 3318 767 777 3333 
10 404 400 1276 274 766 3217 3165 762 758 3216 
10 1376 1412 1308 374 2077 2074 2076 3345 3437 3162 
10 1420 456 1278 1458 3492 2370 1789 1793 2380 1787 
10 378 2350 1380 2359 2367 2369 2368 3017 3424 3016 
10 430 1345 343 268 3335 3233 693 685 3438 692 
10 386 1388 1282 1438 3209 1832 3277 3208 1839 1836 
10 320 460 1424 1322 1135 2657 3103 3291 2549 1943 
10 293 358 423 1295 973 974 972 3365 3124 3266 
10 1383 329 381 448 3254 686 3133 3387 1144 945 
10 30 1151 1384 382 1178 3185 3183 478 3493 3450 
10 30 382 1384 1149 478 3450 3183 1171 3399 3184 
10 1412 410 1399 274 3359 3151 1767 3292 760 3158 
10 284 365 1367 455 879 2987 3494 877 605 3406 
10 347 1435 289 1349 2901 3388 930 2619 1514 3316 
10 1455 421 453 318 3495 812 2663 3177 1131 1133 
10 1427 1376 1268 374 1668 1666 1665 2905 3345 3156 
10 1386 1323 1426 384 1884 1875 1696 2877 3062 3402 
10 377 1328 1379 1447 2948 1675 3168 3186 2144 2097 
10 267 1364 1269 2362 3047 1673 3253 3427 3426 3496 
10 1290 376 1316 1378 3483 2749 1917 1918 2752 1607 
10 1437 121 2156 435 3454 2195 3189 3128 556 3188 
10 34 1155 1457 455 1197 3347 3497 602 3348 3349 
10 1154 34 1457 455 1191 3497 3405 3407 602 3349 
10 456 1278 418 1420 2370 3067 791 3492 1789 3223 
10 320 1268 1389 387 3120 1658 3463 655 3155 3346 
10 362 1364 2350 2359 3048 3423 3433 3136 3138 3424 
10 1397 412 301 395 2823 1037 3482 3198 490 1038 
10 2155 220 1401 399 2166 1487 3498 3499 3484 2837 
10 1323 321 2346 2355 2401 2402 2377 3285 3284 3275 
10 1428 1312 1433 310 2101 2102 2103 3500 2956 3306 
10 34 1457 136 1154 3497 1559 1199 1191 3405 1198 
10 136 1457 34 1155 1559 3497 1199 1200 3347 1197 
10 179 434 76 2204 3479 587 2253 2245 3326 2252 
10 76 434 179 2207 587 3479 2253 2254 2937 2251 
10 365 33 1154 455 604 1192 2986 605 601 3407 
10 135 1457 1367 1154 1560 1563 1561 1195 3405 2665 
10 318 1412 1376 374 3111 2077 3055 1130 3437 3345 
10 355 1358 1295 293 2604 1973 3475 971 3489 3365 
10 419 1280 1421 2357 3215 1806 3312 3481 2830 3488 
10 1438 386 280 1282 3208 829 3012 1836 3277 3041 
10 1273 364 1471 1366 3385 3002 1725 1730 2943 1733 
10 1345 343 1293 430 3233 2888 1953 3335 693 3363 
10 329 1383 1450 448 3254 1947 3453 1144 3387 2392 
10 371 1165 1373 2354 2585 2564 2586 3324 3501 3325 
10 1303 1391 1397 301 2034 1510 2040 3038 3422 3482 
10 430 1321 1393 1432 3150 1770 3432 3149 1687 1955 
10 2259 193 90 458 2292 2291 2285 3417 3502 501 
10 2260 90 193 458 2289 2291 2293 3395 501 3502 
10 1331 329 1450 2358 2814 3453 2146 3383 3377 3503 
10 387 1292 320 290 3504 3334 655 939 3322 940 
10 461 317 1336 334 1125 3321 2702 639 1126 3276 
10 382 1298 296 454 3505 2944 1000 594 2616 999 
10 1453 223 2152 451 1496 2176 3351 3153 3506 3354 
10 364 1471 271 1273 3002 2747 730 3385 1725 3225 
10 289 347 433 1435 930 565 929 3388 2901 3013 
10 356 1421 1358 2357 3458 2053 2399 3464 3488 3472 
10 1316 288 376 1290 3420 915 2749 1917 3121 3483 
10 1389 1292 320 387 1942 3334 3463 3346 3504 655 
10 1375 441 373 2359 3125 794 3227 3228 2872 3229 
10 312 383 468 1314 958 633 1109 3200 2965 3214 
10 41 468 383 1161 627 633 632 1226 2800 2473 
10 1385 143 1161 1470 1589 1233 2476 1591 1584 2928 
10 1458 2351 1359 2353 2381 3280 1786 3404 3281 2913 
10 284 1345 1426 343 3362 1694 3289 874 3233 3487 
10 379 2346 273 2356 2378 3271 745 3299 3301 3410 
10 387 1389 1372 306 3346 1945 3428 1073 3160 3429 
10 1453 1369 1317 367 1503 2121 2119 3352 3079 3339 
10 389 395 123 2157 562 475 560 3255 3435 2196 
10 226 1397 1391 2157 1479 1510 1507 2183 3436 3256 
10 382 30 1151 454 478 1178 3493 594 592 2560 
10 132 1456 1384 1151 1551 1552 1477 1180 2561 3185 
10 223 1453 2151 451 1496 3336 2173 3506 3153 3337 
10 377 1311 1379 2360 3073 2095 3168 3071 3194 3169 
10 387 1372 1292 290 3428 1944 3504 939 3278 3322 
10 434 77 348 2207 586 590 589 2937 2256 2576 
10 1436 180 2207 1350 1535 2250 3117 1538 1537 2578 
10 317 1466 1336 334 3202 2130 3321 1126 3314 3276 
10 301 412 1397 1303 1037 2823 3482 3038 2716 2040 
10 1381 323 1325 2356 3139 3371 1887 3300 3391 3448 
10 1441 383 292 1294 2547 957 2811 1964 2966 3340 
10 457 316 335 1459 1124 1123 526 2741 3478 2897 
10 1378 1290 376 1469 1918 3483 2752 1611 1926 3358 
10 1389 1372 1292 387 1945 1944 1942 3346 3428 3504 
10 1428 138 139 1156 1571 158 1570 3470 1208 1213 
10 37 1156 36 426 1206 1207 56 613 3397 612 
10 237 1384 23 382 3401 1476 248 3400 3450 3418 
10 241 23 1384 382 265 1476 3445 3419 3418 3450 
10 376 314 288 1316 648 916 915 2749 2508 3420 
10 1382 1275 1419 2355 1750 1754 1755 3477 3099 2973 
10 380 417 273 2355 752 753 749 3476 3100 3274 
10 399 117 2154 385 487 2187 3163 544 542 3115 
10 220 1387 1401 2154 1491 1492 1487 2167 3113 3114 
10 1426 1286 1345 284 1874 1878 1694 3289 3286 3362 
10 273 1392 390 2356 3332 2792 755 3410 2794 2793 
10 270 1272 2348 2360 2934 3374 3375 3140 3142 3490 
10 382 1151 1384 454 3493 3185 3450 594 2560 3252 
10 321 1426 384 424 3288 3402 883 872 3290 694 
10 1381 1275 2346 2356 1749 3272 2379 3300 3409 3301 
10 267 1269 446 2362 3253 3092 676 3427 3496 3507 
10 414 241 1384 382 3416 3445 3444 497 3419 3450 
10 1450 448 2347 2358 2392 2384 2393 3503 3508 3455 
10 1426 1345 1270 268 1694 1692 1693 3460 3438 3084 
10 1402 1276 1406 400 1760 1766 1768 3384 3217 3129 
10 1274 1396 272 2361 1741 3373 2721 3343 3509 3344 
10 456 1458 1420 1318 2380 1793 3492 3510 1901 2125 
10 1373 1165 147 2354 2564 1253 1598 3325 3501 3511 
10 371 45 1165 2354 641 1246 2585 3324 3512 3501 
10 1455 278 453 421 3364 813 2663 3495 811 812 
10 376 288 467 1290 915 925 653 3483 3121 3249 
10 284 455 1367 1286 877 3406 3494 3286 3380 1880 
10 430 391 1393 1321 953 3310 3432 3150 3317 1770 
10 240 11 12 333 255 16 254 2441 491 492 
10 22 1335 21 240 1543 1544 26 262 2557 258 
10 1296 2350 294 2362 2366 2365 2364 3386 3513 2924 
10 1420 456 316 418 3492 900 3514 3223 791 1122 
10 1384 2 132 1149 1475 151 1477 3184 1170 1172 
10 1149 1 30 382 1169 49 1171 3399 477 478 
10 1291 289 1435 1349 2942 3388 1931 1932 3316 1514 
10 393 1315 1439 1395 3356 2115 2882 2658 1896 1734 
10 418 335 316 1420 967 1123 1122 3223 3222 3514 
10 193 2259 1460 458 2292 3328 1617 3502 3417 3389 
10 2260 193 1460 458 2293 1617 3480 3395 3502 3389 
10 2206 175 176 1332 2231 185 2230 2448 1522 1523 
10 72 2206 73 330 2234 2239 82 575 2446 574 
10 362 294 378 2350 978 975 982 3433 2365 2367 
10 423 270 2348 2360 717 3375 2390 3329 3140 3490 
10 423 356 293 1358 716 969 972 2387 2399 3489 
10 448 1450 329 2358 2392 3453 1144 3508 3503 3377 
10 343 268 1426 424 692 3460 3487 690 691 3290 
10 1312 1428 459 310 2101 3515 3491 2956 3500 1098 
10 74 350 73 2202 577 578 83 2242 2454 2237 
10 2202 176 177 1352 2236 186 2235 2436 1525 1526 
10 22 1416 1335 240 1547 1548 1543 262 3024 2557 
10 12 414 240 333 494 3026 254 492 496 2441 
10 91 2261 92 327 2294 2295 106 510 2675 509 
10 1329 195 194 2261 1625 209 1624 3082 2302 2298 
10 1423 421 1455 318 2950 3495 1815 3056 1131 3177 
10 45 1166 147 2354 1252 1255 1254 3512 2420 3511 
10 1165 45 147 2354 1246 1254 1253 3501 3512 3511 
10 2200 173 174 1343 2221 183 2220 2468 1516 1517 
10 70 2200 71 341 2224 2227 80 569 2588 568 
10 1275 273 2346 2356 3273 3271 3272 3409 3410 3301 
10 1416 1384 1298 414 1549 2002 1997 3027 3444 3231 
10 1275 1392 273 2356 1756 3332 3273 3409 2794 3410 
10 1364 1327 1302 2359 1672 2025 2026 3138 2871 3516 
10 300 325 362 2359 1024 671 1023 3517 3137 3136 
10 1458 1318 456 2353 1901 3510 2380 3404 3304 3403 
10 1275 1323 1381 2346 1747 1748 1749 3272 2377 2379 
10 1315 375 437 1377 2552 934 3518 1651 2556 3443 
10 2151 222 1341 1453 2174 1498 3449 3336 1497 1500 
10 119 451 2151 339 548 3337 2190 551 552 3338 
10 400 274 345 2352 758 759 757 3218 3220 3519 
10 1276 1402 1347 2352 1760 1761 1759 3219 3238 3520 
10 1272 1330 1354 2357 1709 1710 1711 3035 3064 3036 
10 1296 1364 2350 2362 1981 3423 2366 3386 3426 3513 
10 1318 316 369 1459 3473 896 3303 2126 3478 3267 
10 279 2347 448 2358 3051 2384 825 2783 3455 3508 
10 1357 355 1295 1405 2698 3475 1971 1635 2790 1968 
10 423 1358 293 1295 2387 3489 972 3266 1973 3365 
10 1302 1375 1370 2359 2031 1912 2030 3516 3228 3230 
10 300 368 373 2359 1029 909 1028 3517 3242 3229 
10 426 1156 36 322 3397 1207 612 616 2415 615 
10 1324 138 1428 1156 1572 1571 1574 2517 1208 3470 
10 1315 437 1439 1377 3518 3240 2115 1651 3443 1937 
10 1433 431 426 310 3307 1099 3521 3306 1100 1101 
10 1336 1466 392 334 2130 3257 3204 3276 3314 960 
10 1272 1425 2348 2360 1718 2389 3374 3142 3193 3490 
10 1159 344 459 39 2408 625 3466 1216 624 619 
10 141 1346 1461 1159 1581 1583 1576 1223 2528 3465 
10 294 2350 362 2362 2365 3433 978 2924 3513 3425 
10 382 1384 1298 454 3450 2002 3505 594 3252 2616 
10 2158 238 1397 395 3522 3213 3456 3457 2922 3198 
10 137 1333 136 1155 1564 1565 156 1203 2775 1200 
10 35 1155 34 331 1196 1197 54 607 2504 606 
10 2257 2155 1401 399 3523 3498 3182 2907 3499 2837 
10 356 1358 2348 2357 2399 2391 2400 3464 3472 3376 
10 1327 1443 1302 2359 2027 2028 2025 2871 2873 3516 
10 300 441 325 2359 1025 1026 1024 3517 2872 3137 
10 272 1396 394 2361 3373 3239 739 3344 3509 3524 
10 307 400 345 2352 1079 757 1080 2712 3218 3519 
10 1402 1309 1347 2352 2082 2081 1761 3238 3237 3520 
10 1317 440 1442 2358 3319 2845 2122 2932 3379 3378 
10 459 1158 1428 1461 3526 3525 3515 3468 3527 1578 
10 1367 365 284 2355 2987 879 3494 3116 3461 3283 
10 32 1152 31 366 1181 1182 51 596 2799 595 
10 1368 133 134 1152 1554 153 1553 2539 1185 1188 
10 414 1298 296 382 3231 2944 995 497 3505 1000 
10 2 1384 23 237 1475 1476 28 245 3401 248 
10 237 13 1 382 247 18 246 3400 476 477 
10 1364 362 2350 2362 3048 3433 3423 3426 3425 3513 
10 1446 1316 2349 2354 2117 3528 2969 2970 2425 2971 
10 1426 268 343 1345 3460 692 3487 1694 3438 3233 
10 403 355 1295 293 520 3475 2890 965 971 3365 
10 1455 1423 1280 278 1815 1812 1814 3364 2827 2826 
10 411 286 369 2353 895 897 532 3174 3447 3175 
10 384 1323 1426 321 3062 1875 3402 883 2401 3288 
10 76 342 75 2204 583 584 85 2252 2491 2249 
10 2204 178 179 1344 2246 188 2245 2719 1531 1532 
10 1364 1380 1296 2350 1984 1978 1981 3423 2369 2366 
10 459 1312 1346 1461 3491 2098 3467 3468 2100 1583 
10 1317 315 440 2358 2930 1119 3319 2932 2933 3379 
10 1346 1312 459 344 2098 3491 3467 2529 2955 625 
10 1281 1450 2347 2358 1826 2393 3080 2782 3503 3455 
10 455 34 1155 331 602 1197 3348 608 606 2504 
10 1333 1457 136 1155 1566 1559 1565 2775 3347 1200 
10 1460 192 1353 2259 1616 1618 1620 3328 2288 2395 
10 458 89 2259 351 502 2284 3417 505 504 2416 
10 430 391 1321 319 953 3317 3150 684 768 3323 
10 314 444 2349 2354 1114 2968 3529 2422 2972 2971 
10 1397 3 20 238 1478 24 1480 3213 243 249 
10 238 0 10 395 242 14 244 2922 473 474 
10 1276 1347 1412 2352 1759 1762 1763 3219 3520 3293 
10 274 410 345 2352 760 761 759 3220 3360 3519 
10 191 2257 9 1401 2279 2275 205 1489 3182 1488 
10 6 2257 88 399 2276 2277 102 486 2907 485 
10 284 380 321 2355 870 748 871 3283 3476 3284 
10 1286 1323 1382 2355 1872 1751 1873 3287 3285 3477 
10 323 301 389 2356 1032 1030 1031 3391 3039 3392 
10 1303 1325 1391 2356 2032 2033 2034 2795 3448 3393 
10 278 1455 1423 421 3364 1815 2827 811 3495 2950 
10 94 355 93 2263 515 516 108 2305 2633 2304 
10 2263 197 1357 196 2312 1631 2697 2308 211 1630 
10 431 1433 426 322 3307 3521 1099 1137 3309 616 
10 1420 335 316 1318 3222 1123 3514 2125 3530 3473 
10 316 456 1420 1318 900 3492 3514 3473 3510 2125 
10 149 1167 1378 148 1263 2753 1604 168 1260 1605 
10 46 376 47 1167 646 647 66 1257 2751 1256 
10 1343 2200 173 1435 2468 2221 1516 1518 3261 1512 
10 433 2200 70 341 3262 2224 563 570 2588 569 
10 1372 1347 1281 2352 1824 1822 1823 3094 3520 3081 
10 279 345 370 2352 822 820 821 2734 3519 3052 
10 147 1165 1373 146 1253 2564 1598 166 1250 1599 
10 44 371 45 1165 640 641 64 1247 2585 1246 
10 1318 1459 335 316 2126 2897 3530 3473 3478 1123 
10 328 278 419 2357 809 804 808 3063 2828 3481 
10 1330 1421 1280 2357 1811 1806 1810 3064 3488 2830 
10 323 379 405 2356 884 751 1033 3391 3299 3411 
10 1325 1407 1381 2356 2036 1752 1887 3448 3408 3300 
10 1439 1315 393 437 2115 3356 2882 3240 3518 732 
10 2198 5 8 2270 2212 236 2211 3531 2272 2273 
10 4 2205 7 1150 2208 2209 171 1174 3532 1173 
10 335 1318 1420 1337 3530 2125 3222 3366 2124 1970 
10 459 426 1428 1158 620 3471 3515 3526 3486 3525 
10 375 437 313 1315 934 1113 535 2552 3518 2758 
10 1359 1361 1288 2353 1904 1905 1903 2913 2661 3446 
10 286 359 357 2353 901 902 903 3447 2739 2914 
10 3 1397 2158 238 1478 3456 2159 243 3213 3522 
10 0 238 2158 395 242 3522 2160 473 2922 3457 
10 1413 1371 2267 201 1647 3269 3412 1645 1643 2332 
10 369 98 411 2267 527 531 532 3087 2325 3331 
10 1428 1156 139 426 3470 1213 1570 3471 3397 3485 
10 139 1158 1428 426 1215 3525 1570 3485 3486 3471 
10 335 1459 1318 1337 2897 2126 3530 3366 1641 2124 
10 1401 2257 9 2155 3182 2275 1488 3498 3523 2164 
10 2155 2257 6 399 3523 2276 2163 3499 2907 486 
10 273 379 321 2346 745 746 747 3271 2378 2402 
10 334 43 42 1163 635 62 634 2731 1236 1237 
10 144 1163 145 1336 1240 1243 164 1593 2701 1592 
10 316 456 1318 2353 900 3510 3473 3474 3403 3304 
10 284 1286 1367 2355 3286 1880 3494 3283 3287 3116 
10 203 2268 202 1377 2342 2337 217 1649 2555 1648 
10 100 375 99 2268 533 534 114 2335 2553 2334 
10 314 2349 1316 2354 3529 3528 2508 2422 2971 2425 
10 417 380 311 2355 752 1102 1105 3100 3476 2974 
10 1419 1313 1382 2355 2108 2105 1755 2973 2975 3477 
10 76 434 342 2204 587 588 583 2252 3326 2491 
10 179 1436 2204 1344 1534 3327 2245 1532 1536 2719 
10 1446 2349 1396 2361 2969 3533 2116 3296 3451 3509 
10 223 1453 2152 1369 1496 3351 2176 1502 1503 3441 
10 367 2152 120 451 3353 2193 553 555 3354 549 
10 362 378 300 2359 982 1027 1023 3136 3017 3517 
10 1364 1302 1380 2359 2026 2029 1984 3138 3516 3016 
10 1324 426 1433 322 3396 3521 2139 2518 616 3309 
10 1150 471 2205 1473 2759 2990 3532 2689 2526 2991 
10 1433 426 1428 310 3521 3471 2103 3306 1101 3500 
10 286 316 369 2353 898 896 897 3447 3474 3175 
10 1318 1288 1371 2353 1898 1899 1900 3304 3446 3176 
10 414 1384 1298 382 3444 2002 3231 497 3450 3505 
10 1161 143 142 1470 1233 162 1230 2928 1584 1585 
10 40 468 41 1161 626 627 60 1227 2800 1226 
10 2270 2198 470 1472 3531 3023 2695 2777 3022 2592 
10 1407 1325 1303 2356 2036 2032 2035 3408 3448 2795 
10 323 405 301 2356 1033 1034 1032 3391 3411 3039 
10 1308 1412 1347 2352 2074 1762 2072 3430 3293 3520 
10 345 410 306 2352 761 1072 1071 3519 3360 3431 
10 444 394 2349 2361 1115 3534 2968 3298 3524 3451 
10 1416 23 1384 241 1546 1476 1549 3415 265 3445 
10 414 13 241 382 495 259 3416 497 476 3419 
10 2259 90 89 458 2285 104 2284 3417 501 502 
10 193 192 1460 2259 207 1616 1617 2292 2288 3328 
10 459 1428 1312 1461 3515 2101 3491 3468 1578 2100 
10 368 378 272 2361 742 733 743 3243 3019 3344 
10 1274 1380 1370 2361 1737 1745 1744 3343 3018 3244 
10 307 345 452 2352 1080 823 1078 2712 3519 2713 
10 1454 1347 1309 2352 1825 2081 2080 2711 3520 3237 
10 369 97 98 2267 528 112 527 3087 2324 2325 
10 2267 1371 200 201 3269 1642 2328 2332 1643 215 
10 394 1396 2349 2361 3239 3533 3534 3524 3509 3451 
10 38 1158 37 426 1211 1212 57 617 3486 613 
10 140 1428 139 1158 1575 1570 159 1218 3525 1215 
10 1330 1272 1358 2357 1709 1712 1713 3064 3035 3472 
10 356 270 328 2357 711 709 710 3464 3037 3063 
10 393 313 437 1315 892 1113 732 3356 2758 3518 
10 368 444 287 2361 911 912 910 3243 3298 3297 
10 1289 1446 1370 2361 1913 1914 1911 3462 3296 3244 
10 368 300 378 2359 1029 1027 742 3242 3517 3017 
10 1380 1302 1370 2359 2029 2030 1745 3016 3516 3230 
10 31 1151 30 454 1177 1178 50 593 2560 592 
10 133 1456 132 1151 1550 1551 152 1183 2561 1180 
10 140 38 1461 1158 1219 3535 1577 1218 1211 3527 
10 38 140 1461 1159 1219 1577 3535 1217 1220 3465 
10 96 335 95 2265 521 522 110 2315 2864 2314 
10 198 199 2265 1337 213 2322 2318 1636 1637 2964 
10 1428 1433 1324 426 2103 2139 1574 3471 3521 3396 
10 1382 1313 1367 2355 2105 2104 1881 3477 2975 3116 
10 380 365 311 2355 878 1103 1102 3476 3461 2974 
10 444 409 287 2354 914 913 912 2972 2421 3311 
10 1446 1289 1411 2354 1913 1915 1916 2970 3452 2426 
10 134 135 1452 1153 154 1556 1557 1190 1193 2735 
10 33 1153 32 450 1186 1187 52 599 2736 598 
10 1281 1347 1454 2352 1822 1825 1818 3081 3520 2711 
10 452 345 279 2352 823 822 816 2713 3519 2734 
10 346 294 362 2362 979 978 677 2900 2924 3425 
10 1364 1296 1348 2362 1981 1980 1680 3426 3386 3536 
10 1400 194 193 2260 1622 208 1621 3146 2297 2293 
10 90 2260 91 398 2289 2290 105 507 3147 506 
10 416 309 377 2360 1093 1094 859 3421 3192 3071 
10 1418 1379 1311 2360 1861 2095 2096 3355 3169 3194 
10 459 38 1159 39 618 1217 3466 619 58 1216 
10 140 141 1461 1159 160 1576 1577 1220 1223 3465 
10 2199 70 69 433 2222 79 2219 3014 563 564 
10 173 2199 172 1435 2216 2217 182 1512 2902 1511 
10 1159 1461 38 459 3465 3535 1217 3466 3468 618 
10 1158 38 1461 459 1211 3535 3527 3526 618 3468 
10 362 267 346 2362 670 678 677 3425 3427 2900 
10 1348 1269 1364 2362 1679 1673 1680 3536 3496 3426 
10 23 1416 22 241 1546 1547 27 265 3415 263 
10 13 241 12 414 259 260 17 495 3416 494 
10 118 2154 117 385 2186 2187 125 543 3115 542 
10 1387 220 221 2154 1491 228 1490 3113 2167 2168 
10 198 197 1405 2264 212 1633 1634 2317 2313 2465 
10 95 403 94 2264 518 519 109 2310 2490 2309 
10 1411 1289 1373 2354 1915 1908 1603 2426 3452 3325 
10 371 287 409 2354 904 913 645 3324 3311 2421 
10 191 1431 192 2258 1613 1614 206 2283 2404 2287 
10 2258 89 88 429 2281 103 2280 2405 498 499 
10 2207 179 180 1436 2251 189 2250 3117 1534 1535 
10 77 434 76 2207 586 587 86 2256 2937 2254 
10 273 390 405 2356 755 754 750 3410 2793 3411 
10 1275 1407 1392 2356 1753 1757 1756 3409 3408 2794 
10 1443 1375 1302 2359 1796 2031 2028 2873 3228 3516 
10 300 373 441 2359 1028 794 1025 3517 3229 2872 
10 1428 459 310 426 3515 1098 3500 3471 620 1101 
10 267 446 346 2362 676 679 678 3427 3507 2900 
10 1400 193 1460 2260 1621 1617 1623 3146 2293 3480 
10 398 90 2260 458 507 2289 3147 508 501 3395 
10 276 456 357 2351 784 785 783 2372 2374 3279 
10 2152 224 223 1369 2177 231 2176 3441 1501 1502 
10 2152 120 121 367 2193 128 2192 3353 553 554 
10 226 2158 3 1397 2162 2159 234 1479 3456 1478 
10 0 2158 123 395 2160 2161 131 473 3457 475 
10 1425 1358 1272 2348 1719 1712 1718 2389 2391 3374 
10 316 286 456 2353 898 899 900 3474 3447 3403 
10 1318 1458 1288 2353 1901 1902 1898 3304 3404 3446 
10 239 10 11 412 251 15 250 2484 488 489 
10 21 1414 20 239 1540 1541 25 257 2483 253 
10 1372 1281 1450 2347 1823 1826 1827 2386 3080 2393 
10 201 2271 1413 202 2333 2630 1645 216 2338 1646 
10 99 411 98 2271 530 531 113 2330 2627 2329 
10 1278 1359 1458 2351 1783 1786 1787 2373 3280 2381 
10 1296 1465 1348 2362 1982 1983 1980 3386 2923 3536 
10 463 294 346 2362 981 979 980 2899 2924 2900 
10 142 141 1160 1403 161 1225 1228 1579 1580 2506 
10 39 401 40 1160 621 622 59 1222 2507 1221 
10 42 41 439 1162 61 629 630 1231 1232 2646 
10 1441 144 1162 143 1587 1238 2548 1588 163 1235 
10 306 370 345 2352 1070 820 1071 3431 3052 3519 
10 1308 1347 1372 2352 2072 1824 2073 3430 3520 3094 
10 1407 1303 1392 2356 2035 2038 1757 3408 2795 2794 
10 405 390 301 2356 754 1035 1034 3411 2793 3039 
10 75 408 74 2203 580 581 84 2247 2431 2244 
10 2203 177 178 1410 2241 187 2240 2432 1528 1529 
10 279 370 448 2347 821 824 825 3051 2385 2384 
10 1450 1281 1467 2358 1826 1821 1828 3503 2782 3075 
10 465 279 448 2358 818 825 826 3074 2783 3508 
10 423 270 356 2348 717 711 716 2390 3375 2400 
10 356 328 419 2357 710 808 1050 3464 3063 3481 
10 1330 1358 1421 2357 1713 2053 1811 3064 3472 3488 
10 71 2201 72 407 2229 2232 81 572 2470 571 
10 2201 174 175 1409 2226 184 2225 2472 1519 1520 
10 100 2269 101 466 2339 2340 115 539 2796 538 
10 1468 203 2269 204 1653 2343 2774 1654 218 2345 
10 2155 6 117 399 2163 124 2165 3499 486 487 
10 220 1401 9 2155 1487 1488 227 2166 3498 2164 
10 140 1461 1428 1158 1577 1578 1575 1218 3527 3525 
10 426 38 1158 459 617 1211 3486 620 618 3526 
10 48 471 4 1150 481 479 68 1175 2759 1174 
10 7 150 1150 1473 170 1176 1173 1482 1483 2689 
10 1472 2270 8 204 2777 2273 1484 1486 2278 219 
10 470 101 5 2270 483 116 482 2695 2274 2272 
10 47 467 48 1168 651 652 67 1262 2637 1261 
10 150 1168 1469 149 1267 2571 1609 169 1265 1610 
10 396 92 93 2262 513 107 512 2707 2299 2300 
10 196 2262 195 1398 2307 2303 210 1628 2602 1627 
10 136 1457 135 1154 1559 1560 155 1198 3405 1195 
10 34 1154 33 455 1191 1192 53 602 3407 601 
10 444 368 394 2361 911 744 1115 3298 3243 3524 
10 1446 1396 1370 2361 2116 1746 1914 3296 3509 3244 
10 1382 1367 1286 2355 1881 1880 1873 3477 3116 3287 
10 380 284 365 2355 870 879 878 3476 3283 3461 
10 46 45 409 1166 65 643 644 1251 1252 2419 
10 1166 1411 148 147 2424 1601 1258 1255 1602 167 
10 1373 147 1411 2354 1598 1602 1603 3325 3511 2426 
10 409 45 371 2354 643 641 645 2421 3512 3324 
10 97 457 96 2266 524 525 111 2320 2742 2319 
10 2266 200 1459 199 2327 1640 2679 2323 214 1639 
10 43 461 44 1164 637 638 63 1242 2631 1241 
10 145 1164 146 1463 1245 1248 165 1596 2681 1595 
10 471 77 4 2205 480 87 479 2990 2210 2208 
10 2205 180 7 1473 2214 190 2209 2991 1481 1482 
10 456 286 357 2353 899 903 785 3403 3447 2914 
10 1288 1458 1359 2353 1902 1786 1903 3446 3404 2913 
10 172 2198 8 1472 2215 2211 181 1485 3022 1484 
10 2198 69 5 470 2213 78 2212 3023 484 482 
10 36 1157 35 372 1201 1202 55 610 2487 609 
10 1374 137 138 1157 1568 157 1567 2486 1205 1210 
10 2205 4 471 1150 2208 479 2990 3532 1174 2759 
10 7 1150 2205 1473 1173 3532 2209 1482 2689 2991 
10 2270 8 2198 1472 2273 2211 3531 2777 1484 3022 
10 470 5 2198 2270 482 2212 3023 2695 2272 3531 
10 1418 1311 1425 2360 2096 2093 1720 3355 3194 3193 
10 416 423 309 2360 718 1090 1093 3421 3329 3192 
10 444 314 409 2354 1114 650 914 2972 2422 2421 
10 1316 1446 1411 2354 2117 1916 1608 2425 2970 2426 
10 394 368 272 2361 744 743 739 3524 3243 3344 
10 1274 1370 1396 2361 1744 1746 1741 3343 3244 3509 
10 423 416 270 2360 718 714 717 3329 3421 3140 
10 1272 1418 1425 2360 1717 1720 1718 3142 3355 3193 
10 226 1391 225 2157 1507 1508 233 2183 3256 2182 
10 122 389 123 2157 559 560 130 2197 3255 2196 
10 1166 45 409 2354 1252 643 2419 2420 3512 2421 
10 1411 147 1166 2354 1602 1255 2424 2426 3511 2420 
10 120 2151 119 451 2191 2190 127 549 3337 548 
10 222 2151 223 1453 2174 2173 230 1497 3336 1496 
10 2257 6 9 2155 2276 235 2275 3523 2163 2164 
10 1450 1467 1331 2358 1828 2148 2146 3503 3075 3383 
10 448 329 465 2358 1144 1146 826 3508 3377 3074 
10 2158 0 3 238 2160 29 2159 3522 242 243 
10 221 2153 222 1417 2171 2170 229 1494 2572 1493 
10 2153 118 119 415 2188 126 2189 2575 545 546 
10 1331 1467 1442 2358 2148 2123 2147 3383 3075 3378 
10 329 440 465 2358 1145 1121 1146 3377 3379 3074 
10 2156 225 224 1437 2180 232 2179 3189 1504 1505 
10 2156 121 122 435 2195 129 2194 3188 556 557 
10 237 1 2 1149 246 19 245 3398 1169 1170 
10 1316 1396 1446 2349 1920 2116 2117 3528 3533 2969 
10 314 444 394 2349 1114 1115 917 3529 2968 3534 
10 1442 1467 1317 2358 2123 2120 2122 3378 3075 2932 
10 440 315 465 2358 1119 1118 1121 3379 2933 3074 
10 1359 1278 276 2351 1783 2371 2612 3280 2373 2372 
10 357 1359 276 2351 2786 2612 783 3279 3280 2372 
10 1316 288 2349 314 3420 3537 3528 2508 916 3529 
10 1316 2349 288 1396 3528 3537 3420 1920 3533 3166 
10 394 2349 288 314 3534 3537 918 917 3529 916 
10 394 288 2349 1396 918 3537 3534 3239 3166 3533 
10 1354 270 328 352 2762 709 2789 2760 707 708 
10 270 1354 328 2357 2762 2789 709 3037 3036 3063 
10 1288 1371 411 1413 1899 3172 3212 1897 1647 2629 
10 1371 1288 411 2353 1899 3212 3172 3176 3446 3174 
10 1395 2353 1315 1288 2660 3538 1896 1895 3446 1894 
10 411 2353 1315 286 3174 3538 2628 895 3447 3357 
10 411 1315 2353 1288 2628 3538 3174 3212 1894 3446 
10 393 1315 2353 286 3356 3538 2662 893 3357 3447 
10 1315 393 2353 1395 3356 2662 3538 1896 2658 2660 
10 1348 463 1465 1390 3539 2525 1983 1987 2568 2142 
10 463 1348 1465 2362 3539 1983 2525 2899 3536 2923 
10 463 1348 388 1390 3539 2852 1141 2568 1987 2855 
10 1348 463 388 2362 3539 1141 2852 3536 2899 2898 
10 446 295 2362 1348 987 3540 3507 2722 2853 3536 
10 446 2362 295 346 3507 3540 987 679 2900 986 
10 388 2362 295 1348 2898 3540 984 2852 3536 2853 
10 388 295 2362 346 984 3540 2898 985 986 2900 
10 1348 1269 446 1448 1679 3092 2722 1681 1677 2654 
10 1269 1348 446 2362 1679 2722 3092 3496 3536 3507 
10 2361 373 287 368 3541 908 3297 3243 909 910 
10 373 2361 287 1370 3541 3297 908 3226 3244 3251 
10 373 2361 2359 368 3541 3020 3229 909 3243 3242 
10 2361 373 2359 1370 3541 3229 3020 3244 3226 3230 
10 416 270 1340 338 714 2763 3144 715 713 2927 
10 416 1340 270 2360 3144 2763 714 3421 3141 3140 
10 2360 1340 282 416 3141 3028 3070 3421 3144 854 
10 385 2154 1417 118 3115 3542 2687 543 2186 2573 
10 2153 2154 1417 221 2172 3542 2572 2171 2168 1494 
10 2153 1417 2154 118 2572 3542 2172 2188 2573 2186 
10 2157 389 2156 122 3255 3090 2184 2197 559 2194 
10 2157 2156 389 225 2184 3090 3255 2182 2180 3091 
10 2157 395 2158 226 3435 3457 2185 2183 3434 2162 
10 2157 2158 395 123 2185 3457 3435 2196 2161 475 
10 2156 1437 2152 121 3189 3440 2181 2195 3454 2192 
10 2156 2152 1437 224 2181 3440 3189 2179 2177 1505 
10 2152 451 2151 120 3354 3337 2178 2193 549 2191 
10 2152 2151 451 223 2178 3337 3354 2176 2173 3506 
10 2155 399 2154 220 3499 3163 2169 2166 3484 2167 
10 2155 2154 399 117 2169 3163 3499 2165 2187 487 
10 339 1417 2151 119 2645 3543 3338 551 2581 2190 
10 2153 2151 1417 119 2175 3543 2572 2189 2190 2581 
10 2153 1417 2151 222 2572 3543 2175 2170 1493 2174 
10 421 1304 2357 328 3201 3544 2951 810 3065 3063 
10 1354 2357 1304 328 3036 3544 2042 2789 3063 3065 
10 1354 1304 2357 1330 2042 3544 3036 1710 2041 3064 
10 1284 1340 2360 1418 1853 3141 3072 1856 1716 3355 
10 1284 2360 1340 282 3072 3141 1853 3068 3070 3028 
10 1423 1304 2357 421 2043 3544 2829 2950 3201 2951 
10 1423 2357 1304 1330 2829 3544 2043 1813 3064 2041 
10 1417 1387 2154 385 1495 3113 3542 2687 2844 3115 
10 1417 2154 1387 221 3542 3113 1495 1494 2168 1490 
10 2151 1341 1417 339 3449 1499 3543 3338 2825 2645 
10 2151 1417 1341 222 3543 1499 3449 2174 1493 1498 

CELL_TYPES 1750
24
24
24
24
24
24
24
24
24
24
24
24
24
24
24
24
24
24
24
24
24
24
24
24
24
24
24
24
24
24
24
24
24
24
24
24
24
24
24
24
24
24
24
24
24
24
24
24
24
24
24
24
24
24
24
24
24
24
24
24
24
24
24
24
24
24
24
24
24
24
24
24
24
24
24
24
24
24
24
24
24
24
24
24
24
24
24
24
24
24
24
24
24
24
24
24
24
24
24
24
24
24
24
24
24
24
24
24
24
24
24
24
24
24
24
24
24
24
24
24
24
24
24
24
24
24
24
24
24
24
24
24
24
24
24
24
24
24
24
24
24
24
24
24
24
24
24
24
24
24
24
24
24
24
24
24
24
24
24
24
24
24
24
24
24
24
24
24
24
24
24
24
24
24
24
24
24
24
24
24
24
24
24
24
24
24
24
24
24
24
24
24
24
24
24
24
24
24
24
24
24
24
24
24
24
24
24
24
24
24
24
24
24
24
24
24
24
24
24
24
24
24
24
24
24
24
24
24
24
24
24
24
24
24
24
24
24
24
24
24
24
24
24
24
24
24
24
24
24
24
24
24
24
24
24
24
24
24
24
24
24
24
24
24
24
24
24
24
24
24
24
24
24
24
24
24
24
24
24
24
24
24
24
24
24
24
24
24
24
24
24
24
24
24
24
24
24
24
24
24
24
24
24
24
24
24
24
24
24
24
24
24
24
24
24
24
24
24
24
24
24
24
24
24
24
24
24
24
24
24
24
24
24
24
24
24
24
24
24
24
24
24
24
24
24
24
24
24
24
24
24
24
24
24
24
24
24
24
24
24
24
24
24
24
24
24
24
24
24
24
24
24
24
24
24
24
24
24
24
24
24
24
24
24
24
24
24
24
24
24
24
24
24
24
24
24
24
24
24
24
24
24
24
24
24
24
24
24
24
24
24
24
24
24
24
24
24
24
24
24
24
24
24
24
24
24
24
24
24
24
24
24
24
24
24
24
24
24
24
24
24
24
24
24
24
24
24
24
24
24
24
24
24
24
24
24
24
24
24
24
24
24
24
24
24
24
24
24
24
24
24
24
24
24
24
24
24
24
24
24
24
24
24
24
24
24
24
24
24
24
24
24
24
24
24
24
24
24
24
24
24
24
24
24
24
24
24
24
24
24
24
24
24
24
24
24
24
24
24
24
24
24
24
24
24
24
24
24
24
24
24
24
24
24
24
24
24
24
24
24
24
24
24
24
24
24
24
24
24
24
24
24
24
24
24
24
24
24
24
24
24
24
24
24
24
24
24
24
24
24
24
24
24
24
24
24
24
24
24
24
24
24
24
24
24
24
24
24
24
24
24
24
24
24
24
24
24
24
24
24
24
24
24
24
24
24
24
24
24
24
24
24
24
24
24
24
24
24
24
24
24
24
24
24
24
24
24
24
24
24
24
24
24
24
24
24
24
24
24
24
24
24
24
24
24
24
24
24
24
24
24
24
24
24
24
24
24
24
24
24
24
24
24
24
24
24
24
24
24
24
24
24
24
24
24
24
24
24
24
24
24
24
24
24
24
24
24
24
24
24
24
24
24
24
24
24
24
24
24
24
24
24
24
24
24
24
24
24
24
24
24
24
24
24
24
24
24
24
24
24
24
24
24
24
24
24
24
24
24
24
24
24
24
24
24
24
24
24
24
24
24
24
24
24
24
24
24
24
24
24
24
24
24
24
24
24
24
24
24
24
24
24
24
24
24
24
24
24
24
24
24
24
24
24
24
24
24
24
24
24
24
24
24
24
24
24
24
24
24
24
24
24
24
24
24
24
24
24
24
24
24
24
24
24
24
24
24
24
24
24
24
24
24
24
24
24
24
24
24
24
24
24
24
24
24
24
24
24
24
24
24
24
24
24
24
24
24
24
24
24
24
24
24
24
24
24
24
24
24
24
24
24
24
24
24
24
24
24
24
24
24
24
24
24
24
24
24
24
24
24
24
24
24
24
24
24
24
24
24
24
24
24
24
24
24
24
24
24
24
24
24
24
24
24
24
24
24
24
24
24
24
24
24
24
24
24
24
24
24
24
24
24
24
24
24
24
24
24
24
24
24
24
24
24
24
24
24
24
24
24
24
24
24
24
24
24
24
24
24
24
24
24
24
24
24
24
24
24
24
24
24
24
24
24
24
24
24
24
24
24
24
24
24
24
24
24
24
24
24
24
24
24
24
24
24
24
24
24
24
24
24
24
24
24
24
24
24
24
24
24
24
24
24
24
24
24
24
24
24
24
24
24
24
24
24
24
24
24
24
24
24
24
24
24
24
24
24
24
24
24
24
24
24
24
24
24
24
24
24
24
24
24
24
24
24
24
24
24
24
24
24
24
24
24
24
24
24
24
24
24
24
24
24
24
24
24
24
24
24
24
24
24
24
24
24
24
24
24
24
24
24
24
24
24
24
24
24
24
24
24
24
24
24
24
24
24
24
24
24
24
24
24
24
24
24
24
24
24
24
24
24
24
24
24
24
24
24
24
24
24
24
24
24
24
24
24
24
24
24
24
24
24
24
24
24
24
24
24
24
24
24
24
24
24
24
24
24
24
24
24
24
24
24
24
24
24
24
24
24
24
24
24
24
24
24
24
24
24
24
24
24
24
24
24
24
24
24
24
24
24
24
24
24
24
24
24
24
24
24
24
24
24
24
24
24
24
24
24
24
24
24
24
24
24
24
24
24
24
24
24
24
24
24
24
24
24
24
24
24
24
24
24
24
24
24
24
24
24
24
24
24
24
24
24
24
24
24
24
24
24
24
24
24
24
24
24
24
24
24
24
24
24
24
24
24
24
24
24
24
24
24
24
24
24
24
24
24
24
24
24
24
24
24
24
24
24
24
24
24
24
24
24
24
24
24
24
24
24
24
24
24
24
24
24
24
24
24
24
24
24
24
24
24
24
24
24
24
24
24
24
24
24
24
24
24
24
24
24
24
24
24
24
24
24
24
24
24
24
24
24
24
24
24
24
24
24
24
24
24
24
24
24
24
24
24
24
24
24
24
24
24
24
24
24
24
24
24
24
24
24
24
24
24
24
24
24
24
24
24
24
24
24
24
24
24
24
24
24
24
24
24
24
24
24
24
24
24
24
24
24
24
24
24
24
24
24
24
24
24
24
24
24
24
24
24
24
24
24
24
24
24
24
24
24
24
24
24
24
24
24
24
24
24
24
24
24
24
24
24
24
24
24
24
24
24
24
24
24
24
24
24
24
24
24
24
24
24
24
24
24
24
24
24
24
24
24
24
24
24
24
24
24
24
24
24
24
24
24
24
24
24
24
24
24
24
24
24
24
24
24
24
24
24
24
24
24
24
24
24
24
24
24
24
24
24
24
24
24
24
24
24
24
24
24
24
24
24
24
24
24
24
24
24
24
24
24
24
24
24
24
24
24
24
24
24
24
24
24
24
24
24
24
24
24
24
24
24
24
24
24
24
24
24
24
24
24
24
24
24
24
24
24
24
24
24
24
24
24
24
24
24
24
24
24
24
24
24
24
24
24
24
24
24
24
24
24
24
24
24
24
24
24
24
24
24
24
24
24
24
24
24
24
24
24
24
24
24
24
24
24
24
24
24
24
24
24
24
24
24
24
24
24
24
24
24
24
24
24
24
24
24
24
24
24
24
24
24
24
24
24
24
24
24
24
24
24
24
24
24
24
24
24
24
24
24
24
24
24
24
24
24
24
24
24
24
24
24
24
24
24
24
24
24
24
24
24
24
24
24
24
24
24
24
24
24
24
24
24
24
24
24
24
24
24
24
24
24
24
24
24
24
24
24
24
24
24
24
24
24
24
24
24
24
24
24
24
24
24
24
24
24
24
24
24
24
24
24
24
24
24
24
24
24
24
24
24
24
24
24
24
24
24
24
24
24
24
24
24
24
24
24
24
24
24
24
24
24
24
24
24
24
24
24
24
24
24
24
24
24
24

POINT_DATA 3545
FIELD FieldData 24
Displacement 3 3545 double
0 -0.000101563 -0.000137292 0 -0.000233533 -4.5978e-07 0 -0.000229769 0 
0 -5.66968e-05 0 0.00033359 -5.80461e-06 -1.71491e-06 0.000349516 0 -2.48357e-06 
0.000305476 0 3.42551e-06 0.000333601 -5.79393e-06 0 0.00034943 0 0 
0.000304724 0 0 0 -0.000183202 -9.04995e-05 0 -0.000219878 -4.85617e-05 
0 -0.000227926 -1.83775e-05 0 -0.000231208 -6.62696e-06 0 -0.000148498 -0.000111738 
0 -0.000205754 -6.95352e-05 0 -0.000225949 -3.11307e-05 0 -0.00022997 -1.12687e-05 
0 -0.000232522 -3.23985e-06 0 -0.000230974 1.41893e-07 0 -0.000164257 0 
0 -0.0002072 0 0 -0.000219938 0 0 -0.000226594 0 
0 -0.000123822 0 0 -0.00019039 0 0 -0.000215007 0 
0 -0.000224002 0 0 -0.000228572 0 0 -6.94376e-05 -7.42724e-05 
6.48102e-06 -0.000227505 -7.94297e-07 1.73115e-05 -0.000204837 -6.45374e-06 5.32301e-05 -0.000155451 -2.71015e-05 
0.00011554 -9.99005e-05 -3.27045e-05 0.000172129 -6.13717e-05 -1.76889e-05 0.00020456 -4.14264e-05 -8.22669e-06 
0.000223281 -3.05423e-05 -4.77684e-06 0.000236643 -2.40878e-05 -3.72727e-06 0.000248347 -1.94184e-05 -3.39225e-06 
0.000259376 -1.59996e-05 -3.20233e-06 0.000269699 -1.36863e-05 -2.97323e-06 0.000279212 -1.22126e-05 -2.73123e-06 
0.000287921 -1.13189e-05 -2.49843e-06 0.00029589 -1.07717e-05 -2.2833e-06 0.000303181 -1.03587e-05 -2.09701e-06 
0.000309901 -9.91602e-06 -1.93776e-06 0.000316157 -9.28884e-06 -1.82253e-06 0.000322092 -8.40093e-06 -1.74622e-06 
0.000327844 -7.19829e-06 -1.72072e-06 3.0342e-06 -0.000232419 -4.60924e-07 1.05159e-05 -0.000218655 -2.12915e-06 
3.20723e-05 -0.000183021 -1.64897e-05 8.21248e-05 -0.000127322 -3.39101e-05 0.000146112 -7.80515e-05 -2.58328e-05 
0.000190645 -4.96467e-05 -1.18723e-05 0.00021486 -3.51938e-05 -6.16315e-06 0.000230257 -2.71078e-05 -4.08194e-06 
0.000242614 -2.15761e-05 -3.50354e-06 0.000253943 -1.75576e-05 -3.30174e-06 0.000264635 -1.47194e-05 -3.09088e-06 
0.000274555 -1.28598e-05 -2.85249e-06 0.000283662 -1.17105e-05 -2.61266e-06 0.000291991 -1.10147e-05 -2.38721e-06 
0.000299613 -1.05558e-05 -2.186e-06 0.000306605 -1.0148e-05 -2.01357e-06 0.000313078 -9.63272e-06 -1.87385e-06 
0.000319156 -8.8834e-06 -1.77813e-06 0.000324978 -7.83597e-06 -1.72755e-06 0.000330711 -6.50971e-06 -1.718e-06 
0.000349196 7.58962e-07 -2.46171e-06 0.000348271 1.38124e-06 -2.40195e-06 0.000346812 1.74103e-06 -2.30705e-06 
0.000344947 1.75455e-06 -2.19144e-06 0.000342824 1.34503e-06 -2.06183e-06 0.00034061 5.0223e-07 -1.93228e-06 
0.00033849 -7.52722e-07 -1.82329e-06 0.000336596 -2.31275e-06 -1.74762e-06 0.000334997 -4.05146e-06 -1.72045e-06 
0.000349433 3.8721e-07 -2.47773e-06 0.000348806 1.09263e-06 -2.4373e-06 0.000347599 1.59834e-06 -2.35844e-06 
0.000345922 1.79644e-06 -2.25292e-06 0.000343906 1.60148e-06 -2.12838e-06 0.000341716 9.74477e-07 -1.9961e-06 
0.000339529 -7.88243e-08 -1.87318e-06 0.00033751 -1.50141e-06 -1.78023e-06 0.000335761 -3.17121e-06 -1.72828e-06 
0.000334285 -4.9349e-06 -1.71783e-06 0.000307157 0 1.9757e-06 0.000307483 0 9.52428e-07 
0.000307771 0 2.09006e-07 0.00030853 0 -3.31765e-07 0.000309868 0 -7.39674e-07 
0.000311853 0 -1.05338e-06 0.000314421 0 -1.30087e-06 0.000317543 0 -1.49504e-06 
0.00032116 0 -1.65593e-06 0.000325216 0 -1.7947e-06 0.000329647 0 -1.92014e-06 
0.000334383 0 -2.04313e-06 0.000339346 0 -2.17069e-06 0.000344435 0 -2.31476e-06 
0.0003066 0 2.64591e-06 0.000307352 0 1.41939e-06 0.000307573 0 5.45742e-07 
0.000308074 0 -8.29148e-08 0.00030912 0 -5.52265e-07 0.000310785 0 -9.09438e-07 
0.000313063 0 -1.18609e-06 0.000315916 0 -1.40354e-06 0.000319293 0 -1.58067e-06 
0.000323137 0 -1.72801e-06 0.000327389 0 -1.85841e-06 0.000331981 0 -1.98148e-06 
0.000336842 0 -2.10539e-06 0.000341881 0 -2.24056e-06 0.000346986 0 -2.39719e-06 
0.000303545 -1.121e-05 3.14965e-06 0.000298077 -2.28415e-05 2.59047e-06 0.000289171 -3.56509e-05 1.67334e-06 
0.000277469 -5.0378e-05 6.44209e-07 0.000263026 -6.79267e-05 -2.54406e-07 0.000244878 -8.82522e-05 -1.89275e-06 
0.000178701 -9.60699e-05 -4.85696e-05 0.000304939 -5.56625e-06 3.3381e-06 0.00030119 -1.69276e-05 2.91267e-06 
0.00029401 -2.90505e-05 2.1653e-06 0.000283632 -4.26994e-05 1.17908e-06 0.000270531 -5.87552e-05 1.72986e-07 
0.000254817 -7.80012e-05 -3.27613e-07 0.000222772 -9.35525e-05 -1.43718e-05 9.84716e-05 -9.51195e-05 -0.000101809 
4.60765e-06 -0.00022274 0 1.2207e-05 -0.000198673 0 4.79803e-05 -0.000158056 0 
0.000119988 -0.000106889 0 0.000177507 -6.36305e-05 0 0.000206697 -4.23961e-05 0 
0.000223966 -3.09832e-05 0 0.000236809 -2.43394e-05 0 0.00024844 -1.9588e-05 0 
0.000259471 -1.61521e-05 0 0.000269799 -1.38089e-05 0 0.000279312 -1.23019e-05 0 
0.000288017 -1.13753e-05 0 0.000295975 -1.07977e-05 0 0.000303256 -1.03612e-05 0 
0.00030996 -9.89816e-06 0 0.000316202 -9.25842e-06 0 0.000322119 -8.36823e-06 0 
0.00032786 -7.17604e-06 0 2.19814e-06 -0.00022839 0 7.64382e-06 -0.000212861 0 
2.48416e-05 -0.000180479 0 8.22897e-05 -0.000133519 0 0.000152813 -8.25687e-05 0 
0.000194141 -5.12546e-05 0 0.000216176 -3.58299e-05 0 0.000230573 -2.74132e-05 0 
0.000242727 -2.17699e-05 0 0.000254032 -1.77204e-05 0 0.000264734 -1.48581e-05 0 
0.000274656 -1.29669e-05 0 0.000283762 -1.17833e-05 0 0.000292083 -1.10552e-05 0 
0.000299693 -1.0571e-05 0 0.000306673 -1.01401e-05 0 0.00031313 -9.60638e-06 0 
0.000319192 -8.85013e-06 0 0.000324997 -7.80521e-06 0 0.000330723 -6.4952e-06 0 
0.000333596 -5.79892e-06 -8.54369e-07 0.000349116 7.75269e-07 0 0.0003482 1.41108e-06 0 
0.000346758 1.78377e-06 0 0.000344912 1.80437e-06 0 0.00034281 1.39698e-06 0 
0.000340618 5.49979e-07 0 0.000338515 -7.1292e-07 0 0.000336628 -2.28675e-06 0 
0.00033502 -4.03573e-06 0 0.000349349 3.95948e-07 0 0.000348727 1.11675e-06 0 
0.000347536 1.63587e-06 0 0.000345875 1.8446e-06 0 0.00034388 1.65383e-06 0 
0.000341714 1.02691e-06 0 0.000339548 -3.34942e-08 0 0.00033754 -1.46801e-06 0 
0.000335791 -3.15145e-06 0 0.0003343 -4.92252e-06 0 0.000306576 0 0 
0.000307046 0 0 0.000307453 0 0 0.000308297 0 0 
0.000309686 0 0 0.000311717 0 0 0.00031431 0 0 
0.000317457 0 0 0.000321085 0 0 0.000325152 0 0 
0.000329586 0 0 0.000334321 0 0 0.000339278 0 0 
0.00034436 0 0 0.000305926 0 0 0.00030685 0 0 
0.000307201 0 0 0.000307802 0 0 0.000308916 0 0 
0.000310628 0 0 0.00031294 0 0 0.000315818 0 0 
0.000319213 0 0 0.000323068 0 0 0.000327327 0 0 
0.00033192 0 0 0.000336778 0 0 0.00034181 0 0 
0.000346904 0 0 0.00030289 -1.14963e-05 0 0.000297544 -2.33456e-05 0 
0.000288981 -3.63516e-05 0 0.000277376 -5.11143e-05 0 0.000263302 -6.92579e-05 0 
0.000247526 -9.33261e-05 0 0.000209978 -0.000103181 0 0.000304211 -5.72783e-06 0 
0.000300609 -1.73302e-05 0 0.000293627 -2.96927e-05 0 0.000283466 -4.34417e-05 0 
0.000270579 -5.96223e-05 0 0.000255734 -8.02398e-05 0 0.000236601 -0.000103868 0 
0.000133437 -7.86829e-05 0 0.000304832 0 1.7018e-06 0.000349449 0 -1.24154e-06 
0 -0.000229641 -1.46003e-06 0 -0.000131656 -6.45659e-05 0 -0.00019385 -3.79568e-05 
0 -0.00021672 -1.45117e-05 0 -0.000225505 -5.06684e-06 0 -0.00011515 -0.000100893 
0 -9.49793e-05 -3.45788e-05 0 -0.000159275 -8.13643e-05 0 -0.000229506 -3.5453e-07 
0 -0.000231579 -1.2555e-06 0 -0.000230269 -3.36708e-06 0 -0.000228019 -1.08475e-06 
0 -0.00015027 -3.12071e-05 0 -0.000206858 -4.58514e-05 0 -0.000188835 -6.48264e-05 
0 -0.000170826 -5.30497e-05 0 -0.000180201 -2.18707e-05 0 -0.000222242 -1.70007e-05 
0 -0.000217481 -2.97327e-05 0 -0.000209038 -2.37974e-05 0 -0.00020067 -1.49491e-05 
0 -0.000211754 -9.42519e-06 0 -0.000228382 -6.06596e-06 0 -0.000226044 -1.03075e-05 
0 -0.000221714 -8.8038e-06 0 -0.000217957 -5.83581e-06 0 -0.000222548 -3.33784e-06 
0 -0.000227975 -2.90808e-06 0 -0.000225736 -1.88213e-06 0.000280019 -5.72809e-06 -1.56609e-06 
0.0003125 -1.83789e-06 -1.90917e-06 0.00023788 -2.96994e-05 -2.6332e-06 0.000287606 -4.60205e-06 -2.13752e-06 
0.000304586 -2.94939e-07 -1.48045e-06 0.000330563 -6.68532e-07 -2.00836e-06 0.000320924 -4.11902e-06 -1.94713e-06 
0.000176519 -8.60986e-05 -1.62651e-05 0.000295038 -5.47729e-06 -6.38862e-08 0.00025236 -1.59052e-05 -2.63247e-06 
0.000317657 -2.27732e-07 -1.72389e-06 0.000300704 -5.4799e-06 -2.11642e-06 0.000303241 -5.34709e-07 -8.1539e-07 
0.000271673 -1.94287e-05 -7.27238e-07 0.000331136 -1.48131e-06 -2.00383e-06 0.000267759 -9.98268e-06 -2.57958e-06 
0.000301478 -1.73556e-06 -1.84814e-06 0.000291131 -2.43414e-06 -1.73004e-06 0.000201347 -4.88756e-05 -8.09385e-06 
0.000231688 -5.34162e-05 -2.53935e-06 0.000326567 -2.63657e-07 -1.88387e-06 0.000309583 -6.79774e-06 -2.01397e-06 
0.000325316 -5.39973e-06 -1.83779e-06 0.000340316 1.02664e-07 -2.19522e-06 0.000262866 -1.45603e-05 -1.79551e-06 
0.000228408 -2.89959e-05 -3.37262e-06 0.000286261 -7.6047e-06 -2.37991e-06 0.000313516 1.53288e-07 -1.44711e-06 
0.000320843 -2.40729e-06 -1.96339e-06 0.000321437 -8.84875e-07 -1.88933e-06 5.3668e-05 -0.000196097 -2.15766e-05 
0.000276574 -6.24461e-06 -2.08587e-06 0.000337756 -1.60922e-07 -2.11738e-06 0.00033082 -2.49207e-06 -1.92032e-06 
0.000311529 -4.08503e-06 -2.00025e-06 0.000144404 -0.000130342 -3.32387e-05 0.000294423 -1.74291e-06 -1.2849e-06 
0.000309604 1.7363e-07 -1.12572e-06 0.000304179 -1.41265e-06 -8.47546e-08 0.000303226 -4.98596e-06 1.07479e-06 
0.000281382 -8.164e-06 -9.58462e-07 0.000290279 -1.44457e-05 6.41589e-07 0.000299316 -3.44158e-06 -2.02956e-06 
0.00031032 -3.59735e-07 -1.6636e-06 0.000251687 -1.62522e-05 -2.97972e-06 0.000134408 -0.000105541 -2.48578e-05 
0.000275782 -9.40907e-06 -2.59418e-06 0.000333257 -1.71431e-07 -2.02607e-06 0.000317612 -6.89904e-06 -1.89702e-06 
0.000260862 -3.63835e-05 -8.6574e-07 0.000321889 -5.54484e-08 -1.72789e-06 0.000301833 -7.63669e-06 -2.13139e-06 
0.000295359 -2.70856e-06 -7.14362e-07 0.000246398 -2.09081e-05 -2.54606e-06 0.000267521 -1.00728e-05 -1.98248e-06 
0.000213748 -5.28546e-05 -4.60676e-06 0.000235542 -2.40579e-05 -3.23232e-06 0.000218795 -7.61416e-05 -4.59636e-06 
0.000328289 -1.20948e-06 -1.99437e-06 0.000306697 -3.26976e-06 -1.99527e-06 0.000314478 -9.33326e-07 -1.82511e-06 
0.000307754 -1.0593e-07 -6.27621e-07 0.000302544 -3.50485e-07 -1.21634e-06 0.000249225 -2.89143e-05 -1.92682e-06 
0.000338224 -1.2237e-07 -2.0807e-06 0.000208215 -4.02741e-05 -6.96873e-06 0.00026302 -1.10565e-05 -2.44746e-06 
5.41872e-05 -0.000198992 -3.18286e-05 0.000293544 -8.64759e-06 -2.29774e-06 0.00031869 4.76155e-08 -1.58553e-06 
0.000293356 -2.64121e-06 -1.90097e-06 0.000277862 -6.55518e-06 -2.27986e-06 0.000299076 -1.22779e-06 -1.68055e-06 
0.000278426 -2.56218e-05 1.81367e-07 0.000324986 -2.68386e-06 -1.96558e-06 0.000342386 4.82669e-07 -2.23134e-06 
0.000331996 -2.98222e-06 -1.84314e-06 0.000223976 -3.4504e-05 -3.69615e-06 0.000260415 -1.33381e-05 -2.89366e-06 
0.000284239 -1.10716e-05 -3.32601e-07 0.000319261 -1.65917e-06 -1.92967e-06 0.000343781 2.66097e-07 -2.29149e-06 
0.000329233 -5.3741e-06 -1.76877e-06 0.000305501 -2.21223e-06 -1.92466e-06 0.000335598 -9.59433e-07 -1.98121e-06 
0.000305567 -2.03552e-06 6.10663e-07 0.000297889 -1.05321e-06 -1.48273e-06 0.000282084 -6.73022e-06 -2.34849e-06 
0.000291125 -5.22432e-06 -2.19283e-06 0.000312819 1.6072e-07 -1.25739e-06 0.000308854 1.30574e-07 -1.31791e-06 
0.000321958 -4.28551e-07 -1.83258e-06 0.000313474 -5.69169e-08 -1.60447e-06 0.000326263 -6.03719e-07 -1.9274e-06 
0.000283775 -4.10285e-06 -1.75782e-06 0.000285085 -4.11493e-06 -1.99023e-06 0.000314491 -2.7665e-06 -1.96264e-06 
0.000325822 -3.9856e-06 -1.90207e-06 0.000336021 -2.75291e-07 -2.0987e-06 0.000161056 -7.30239e-05 -2.09482e-05 
6.86963e-05 -0.000168173 -2.19657e-05 0.000256274 -4.90833e-05 -9.43224e-07 0.000314597 -5.07668e-06 -1.97825e-06 
0.000326304 -6.82226e-08 -1.83682e-06 0.00027269 -1.30134e-05 -1.13824e-06 0.000306471 -8.66822e-06 -2.0405e-06 
0.000221798 -3.14638e-05 -4.56795e-06 0.000306082 -5.7135e-06 -2.06192e-06 0.000288035 -4.03191e-06 -1.12311e-06 
0.000337745 -3.12936e-08 -2.1304e-06 0.000321954 -6.96594e-06 -1.82086e-06 0.000309183 -1.02198e-06 -1.79528e-06 
0.000318135 -3.51196e-06 -1.96849e-06 0.000210694 -6.64889e-05 -5.91416e-06 0.000182825 -6.95104e-05 -1.33085e-05 
0.000251941 -2.21471e-05 -2.05643e-06 1.72081e-05 -0.000224396 -8.53482e-06 0.000280073 -9.85197e-06 -2.5856e-06 
0.000233729 -3.97278e-05 -2.58203e-06 0.000299564 -1.18747e-05 1.69373e-06 0.00033266 -9.22426e-07 -2.03897e-06 
0.000273961 -9.03723e-06 -1.5039e-06 0.000324878 -1.10593e-06 -1.94878e-06 0.000209111 -9.71697e-05 -1.27366e-05 
0.000120953 -0.000140042 -2.93603e-05 0.000240832 -2.21504e-05 -2.88071e-06 0.000293951 -6.59655e-06 -2.23455e-06 
0.000330438 -3.87002e-07 -1.98447e-06 0.000320167 -5.31146e-06 -1.91725e-06 0.000119084 -0.00014407 -6.61937e-05 
0.000309893 1.03044e-07 -9.15388e-07 0.000298227 -2.98389e-06 -2.98981e-07 0.000307304 -3.70881e-07 -2.20485e-07 
0.000305498 -5.08448e-06 2.10866e-06 0.000296776 -7.98145e-06 6.02809e-07 0.000266935 -1.24651e-05 -2.88008e-06 
0.000274529 -7.01752e-06 -1.91782e-06 0.000315605 1.00649e-07 -1.41549e-06 0.00030099 -3.78597e-06 3.02499e-07 
0.0001827 -8.99247e-05 -1.57174e-05 0.000295113 -3.24028e-06 -2.01153e-06 0.000342114 6.71402e-07 -2.18741e-06 
0.000335534 -1.38625e-06 -1.89878e-06 0.000312731 -8.27798e-06 -1.92987e-06 0.000290313 -5.22104e-06 -6.10149e-07 
0.000330177 -9.74145e-08 -1.94009e-06 6.39597e-05 -0.000187844 -5.79399e-05 0.000329697 -2.21928e-06 -1.96213e-06 
2.36333e-05 -0.000220597 -1.68207e-05 0.000291392 -2.16996e-05 1.37023e-06 0.000305351 -5.92452e-07 -1.64757e-06 
0.000120659 -0.000130284 -2.68671e-05 0.000317549 -6.79705e-09 -1.63586e-06 0.000306391 -8.91528e-09 -1.02107e-06 
0.000274613 -8.36456e-06 -2.489e-06 0.000297667 -1.45696e-06 -9.57845e-07 0.000257718 -1.44987e-05 -2.25818e-06 
0.000309547 -2.02746e-08 -1.50356e-06 0.00022461 -3.9295e-05 -3.33492e-06 0.000287491 -3.32721e-06 -1.46556e-06 
0.00024209 -2.08408e-05 -3.29014e-06 0.000304963 -6.42265e-07 -4.68606e-07 0.000298894 -4.69767e-06 -2.10512e-06 
0.000306478 -2.33137e-06 1.33812e-06 0.000234757 -2.71328e-05 -2.9286e-06 0.000246946 -1.82191e-05 -2.95e-06 
0.000326293 -3.15465e-06 -1.93997e-06 0.000344608 5.82812e-07 -2.30531e-06 0.000331855 -3.86148e-06 -1.78734e-06 
0.000242113 -6.9745e-05 -1.58226e-06 0.00032685 -1.75574e-06 -1.98512e-06 0.000334987 -2.23506e-07 -2.0742e-06 
0.000269621 -8.71326e-06 -2.37081e-06 0.000285465 -9.83537e-06 -2.49427e-06 0.0002478 -3.84189e-05 -1.72496e-06 
0.000305151 -4.55484e-06 -2.05185e-06 0.000258744 -1.29444e-05 -2.69526e-06 0.000317998 -6.18203e-07 -1.81241e-06 
0.00031485 -6.47726e-06 -1.94888e-06 0.000314322 -4.37149e-07 -1.73527e-06 0.000317292 -1.22724e-06 -1.8828e-06 
0.00029181 -2.16487e-06 -1.5308e-06 0.000262317 -2.02186e-05 -1.41112e-06 0.000268699 -1.06299e-05 -2.69684e-06 
0.000107142 -0.000117501 -2.96958e-05 0.000272982 -3.76831e-05 1.29131e-07 0.000281358 -1.7003e-05 -5.74667e-08 
0.000300615 -1.41626e-06 -6.01019e-07 2.7752e-05 -0.000212034 -9.7781e-06 0.000179279 -5.73072e-05 -1.61043e-05 
0.000321146 -1.8448e-07 -1.76231e-06 0.000322914 -1.57214e-08 -1.72849e-06 0.000306889 -7.72744e-07 2.19019e-07 
0.000251606 -1.69866e-05 -3.1371e-06 0.000261839 -1.18056e-05 -2.30677e-06 0.000300085 -9.252e-06 -2.1693e-06 
0.000300597 -2.52414e-06 -1.94689e-06 0.000323736 -1.65531e-06 -1.96267e-06 0.000298812 -6.78752e-06 -2.17085e-06 
0.000261739 -2.73855e-05 -1.09796e-06 0.000341264 5.86764e-08 -2.22229e-06 0.00032517 -6.92873e-06 -1.76812e-06 
0.000273699 -1.13744e-05 -2.76025e-06 0.000333197 -6.50249e-07 -2.05163e-06 0.000346622 2.56862e-07 -2.38311e-06 
0.000331171 -5.63076e-06 -1.73366e-06 0.000268914 -8.83405e-06 -2.19353e-06 7.20448e-05 -0.000131081 -0.00010248 
5.52624e-05 -0.000168075 -8.60943e-05 0.000148393 -0.000119137 -5.91019e-05 8.40162e-06 -0.000229655 -7.0491e-06 
5.56262e-06 -0.000231281 -3.72715e-06 1.24463e-05 -0.000226595 -4.73914e-06 0.000332382 -5.716e-06 -1.72264e-06 
0.000333079 -4.84959e-06 -1.72751e-06 0.0003295 -6.42001e-06 -1.72799e-06 0.000348099 1.6799e-07 -2.4332e-06 
0.000345554 1.03511e-07 -2.35014e-06 0.000347927 4.68729e-07 -2.42308e-06 0.000306689 -2.34469e-06 2.0778e-06 
0.00030607 -3.43947e-06 2.75132e-06 0.000304701 -7.50871e-06 2.64386e-06 3.50954e-05 -0.000190362 -7.52458e-05 
2.73085e-05 -0.000208424 -5.43751e-05 8.62749e-05 -0.000168461 -6.38942e-05 3.02084e-05 -0.000214161 -3.84961e-05 
2.14021e-05 -0.000221425 -2.58812e-05 6.01161e-05 -0.000194686 -4.36163e-05 1.25213e-05 -0.00022635 -1.71511e-05 
9.06042e-06 -0.000228529 -1.06103e-05 3.59238e-05 -0.000211728 -2.41298e-05 2.0254e-05 -0.000222917 -1.24369e-05 
0.000307198 -9.75017e-07 1.15429e-06 0.000307045 -1.4001e-06 1.65657e-06 0.000306057 -3.47163e-06 1.70862e-06 
0.000307535 -3.66551e-07 2.22313e-07 0.000307338 -5.84025e-07 5.65795e-07 0.000306056 -2.24285e-06 9.57464e-07 
0.000306983 -1.11157e-06 8.04075e-07 0.000306277 -1.29873e-06 4.11467e-07 0.000308133 -1.43611e-07 -2.69807e-07 
0.000307718 -2.71338e-07 -6.1113e-09 0.000307058 -5.58289e-07 -1.07771e-08 0.000309157 3.70114e-09 -6.68673e-07 
0.000308443 -8.279e-08 -4.6936e-07 0.000307476 -2.3823e-07 -4.31684e-07 0.000311038 6.86766e-08 -9.82223e-07 
0.000310047 4.08178e-08 -8.24899e-07 0.000308798 2.98994e-08 -7.74576e-07 0.000313801 8.60635e-08 -1.27341e-06 
0.000312472 9.21306e-08 -1.15391e-06 0.000311234 1.49009e-07 -1.09604e-06 0.000316647 4.59919e-08 -1.45458e-06 
0.000315078 5.91243e-08 -1.35645e-06 0.000314192 1.32448e-07 -1.3388e-06 0.000320026 1.77134e-08 -1.61838e-06 
0.000318212 3.88725e-08 -1.53856e-06 0.00031709 8.01402e-08 -1.5029e-06 0.000324091 -1.32339e-08 -1.76086e-06 
0.000322062 -1.27372e-09 -1.69248e-06 0.000320769 8.92913e-09 -1.6576e-06 0.000328016 -3.89244e-08 -1.87746e-06 
0.000325814 -2.89796e-08 -1.81541e-06 0.000324577 -4.12994e-08 -1.7836e-06 0.000332321 -4.55111e-08 -1.99063e-06 
0.000329972 -4.67303e-08 -1.93019e-06 0.00032821 -8.59801e-08 -1.88917e-06 0.000338623 -3.26958e-09 -2.15148e-06 
0.000336127 -3.37604e-08 -2.08696e-06 0.000335506 -1.01717e-07 -2.07793e-06 0.000333993 -7.27729e-08 -2.03495e-06 
0.000331725 -1.40238e-07 -1.98418e-06 0.000342878 5.43862e-08 -2.26837e-06 0.000340332 1.75297e-08 -2.1972e-06 
0.00033951 2.01701e-08 -2.1751e-06 0.000343942 1.47289e-07 -2.29885e-06 0.000302157 -1.20307e-05 2.40089e-06 
0.000298787 -1.65055e-05 2.11661e-06 0.000303086 -8.48894e-06 1.93613e-06 0.000295064 -2.23893e-05 1.95584e-06 
0.000290155 -2.79865e-05 1.55506e-06 0.000295856 -1.65099e-05 1.57759e-06 0.000281695 -3.67424e-05 8.77942e-07 
0.000274894 -4.35329e-05 3.93625e-07 0.000285352 -2.37972e-05 7.78669e-07 0.000283641 -2.99469e-05 8.99902e-07 
0.00027572 -3.1249e-05 1.83936e-07 0.000266919 -4.94236e-05 -1.61964e-07 0.000258976 -5.78378e-05 -6.44423e-07 
0.00026512 -4.32907e-05 -4.15992e-07 0.0002526 -6.86697e-05 -9.19363e-07 0.000243443 -7.88657e-05 -1.44382e-06 
0.000249666 -5.89555e-05 -1.2366e-06 0.000227979 -9.19335e-05 -6.76611e-06 0.000200287 -0.000102778 -2.58311e-05 
0.000229563 -8.22263e-05 -4.1694e-06 0.000174326 -0.000117366 -3.42165e-05 0.000346449 9.26236e-07 -2.35433e-06 
0.000346965 7.28243e-07 -2.38195e-06 0.000344234 4.10751e-07 -2.30116e-06 0.000346501 4.77519e-07 -2.37384e-06 
0.000345224 2.83805e-07 -2.33621e-06 0.00034461 9.9977e-07 -2.27259e-06 0.00034537 9.23175e-07 -2.3114e-06 
0.000343542 5.6029e-07 -2.26767e-06 0.000343534 1.14697e-06 -2.19129e-06 0.00034449 1.19775e-06 -2.24599e-06 
0.000342293 5.84089e-07 -2.21142e-06 0.000340515 4.84118e-07 -2.07565e-06 0.000341611 7.23488e-07 -2.12992e-06 
0.000340209 3.13793e-07 -2.13181e-06 0.000338093 -3.4036e-07 -1.96229e-06 0.000339234 9.75899e-08 -2.01398e-06 
0.000336922 -4.85573e-07 -2.03033e-06 0.000336995 -1.09102e-06 -1.86152e-06 0.000338078 -4.87946e-07 -1.91293e-06 
0.000335547 -1.15295e-06 -1.9419e-06 0.000334274 -2.67945e-06 -1.79814e-06 0.000335248 -1.94717e-06 -1.83209e-06 
0.000333747 -2.16571e-06 -1.86928e-06 0.000333399 -3.94518e-06 -1.74852e-06 0.000334224 -3.12311e-06 -1.76706e-06 
0.000331896 -3.40647e-06 -1.81509e-06 0.000330526 -4.61362e-06 -1.77742e-06 0.00033212 -4.73549e-06 -1.74438e-06 
0.000330198 -5.50472e-06 -1.75063e-06 1.48392e-05 -0.000221568 -4.53949e-06 2.36123e-05 -0.000208872 -7.83123e-06 
2.28132e-05 -0.000219488 -9.06398e-06 4.06603e-05 -0.000190139 -1.52674e-05 6.18778e-05 -0.000161786 -2.25832e-05 
4.52563e-05 -0.000193661 -1.61041e-05 7.93533e-05 -0.000137712 -2.89342e-05 0.000110252 -0.000107444 -3.12545e-05 
8.67893e-05 -0.000142745 -2.54983e-05 0.000151285 -7.50721e-05 -2.44252e-05 0.000175628 -5.92407e-05 -1.70855e-05 
0.000136249 -9.28227e-05 -2.62016e-05 0.000139244 -8.51848e-05 -2.68593e-05 0.00017033 -6.4441e-05 -1.88983e-05 
0.000193375 -4.81619e-05 -1.15304e-05 0.000206197 -4.0491e-05 -7.96624e-06 0.00019632 -4.7131e-05 -1.07997e-05 
0.000214307 -3.55553e-05 -6.29994e-06 0.000222427 -3.08981e-05 -4.7223e-06 0.000215472 -3.53613e-05 -5.69219e-06 
0.000233462 -2.51878e-05 -3.72363e-06 0.000239387 -2.23822e-05 -3.49149e-06 0.000229188 -2.74067e-05 -3.7088e-06 
0.000229709 -2.70058e-05 -3.86772e-06 0.00023877 -2.23157e-05 -3.25686e-06 0.00024503 -2.00041e-05 -3.33529e-06 
0.000249896 -1.81885e-05 -3.26566e-06 0.000255293 -1.6361e-05 -3.17977e-06 0.000246896 -1.87742e-05 -3.20399e-06 
0.000263163 -1.41581e-05 -3.03959e-06 0.000268142 -1.30504e-05 -2.9338e-06 0.000263612 -1.28152e-05 -2.891e-06 
0.000259552 -1.46364e-05 -3.05041e-06 0.000256075 -1.50743e-05 -3.01487e-06 0.000271649 -1.25004e-05 -2.86512e-06 
0.000276331 -1.17633e-05 -2.75489e-06 0.000270348 -1.18608e-05 -2.82217e-06 0.00028232 -1.09702e-05 -2.60462e-06 
0.000286579 -1.05776e-05 -2.49842e-06 0.000282776 -9.82034e-06 -2.54079e-06 0.000279445 -1.1016e-05 -2.65947e-06 
0.000276934 -1.05689e-05 -2.67096e-06 0.000290612 -9.93004e-06 -2.39027e-06 0.000294517 -9.71146e-06 -2.29904e-06 
0.000289586 -9.19151e-06 -2.39152e-06 0.000297957 -9.99076e-06 -2.22375e-06 0.000301588 -9.81587e-06 -2.13692e-06 
0.000296822 -8.94786e-06 -2.23741e-06 0.000304755 -9.50017e-06 -2.06639e-06 0.000308137 -9.31252e-06 -1.99496e-06 
0.000303327 -8.9586e-06 -2.10217e-06 0.000311248 -9.09232e-06 -1.93433e-06 0.000314425 -8.81366e-06 -1.87904e-06 
0.000309644 -8.49334e-06 -1.98207e-06 0.000318983 -8.13816e-06 -1.81964e-06 0.000321978 -7.68856e-06 -1.78518e-06 
0.000319795 -6.96575e-06 -1.85751e-06 0.00031674 -8.08715e-06 -1.86213e-06 0.000315159 -7.58913e-06 -1.91034e-06 
0.000323605 -7.67105e-06 -1.75674e-06 0.000326518 -7.07775e-06 -1.74049e-06 0.000323567 -6.96541e-06 -1.79421e-06 
0.000328182 -6.31314e-06 -1.74788e-06 0.000270575 -9.51789e-06 -1.75169e-06 0.000277037 -7.20899e-06 -1.53441e-06 
0.00027395 -7.7316e-06 -1.76415e-06 0.000277189 -6.34972e-06 -1.74678e-06 0.000271099 -8.41619e-06 -1.94685e-06 
0.0002793 -5.4177e-06 -1.8322e-06 0.000281825 -4.79387e-06 -1.66798e-06 0.00028388 -4.4162e-06 -1.51032e-06 
0.000285566 -3.68987e-06 -1.61525e-06 0.000281401 -6.23309e-06 -1.29391e-06 0.000284033 -4.83093e-06 -1.34644e-06 
0.000287638 -3.61675e-06 -1.30548e-06 0.000306026 -2.72512e-06 -1.96494e-06 0.000309066 -2.00459e-06 -1.91339e-06 
0.000309639 -2.48748e-06 -1.94983e-06 0.000313436 -2.29519e-06 -1.94019e-06 0.000310658 -3.00839e-06 -1.97511e-06 
0.000310747 -1.41392e-06 -1.85887e-06 0.00031186 -9.68572e-07 -1.80929e-06 0.00031349 -1.34629e-06 -1.86848e-06 
0.000315862 -1.0816e-06 -1.85544e-06 0.000314952 -1.50825e-06 -1.89324e-06 0.000316914 -2.16488e-06 -1.9439e-06 
0.000315916 -1.7537e-06 -1.91587e-06 0.000318255 -1.44503e-06 -1.90771e-06 0.00030735 -1.56145e-06 -1.8606e-06 
0.000245004 -2.58176e-05 -2.35261e-06 0.000248804 -2.14155e-05 -2.32481e-06 0.000242131 -2.4862e-05 -2.58441e-06 
0.000240623 -2.39425e-05 -2.74494e-06 0.000235974 -2.82743e-05 -2.79802e-06 0.000250494 -2.52714e-05 -1.99676e-06 
0.000243223 -2.92795e-05 -2.3052e-06 0.000235694 -3.42574e-05 -2.6149e-06 0.000241666 -3.40946e-05 -2.2422e-06 
0.00022405 -3.66826e-05 -3.54751e-06 0.0002314 -3.43298e-05 -2.89986e-06 0.000230715 -3.22087e-05 -3.03675e-06 
0.000229515 -3.067e-05 -3.20725e-06 0.000228981 -3.95485e-05 -2.92016e-06 0.000286208 -4.30253e-06 -2.0711e-06 
0.000289334 -3.27998e-06 -1.94186e-06 0.000290426 -3.56242e-06 -2.01936e-06 0.000294157 -2.9144e-06 -1.96073e-06 
0.000291444 -3.85586e-06 -2.06993e-06 0.000284794 -5.62238e-06 -2.24134e-06 0.000279872 -6.58464e-06 -2.32107e-06 
0.000282867 -5.44815e-06 -2.20348e-06 0.000281425 -5.27612e-06 -2.13413e-06 0.000289283 -4.87921e-06 -2.17108e-06 
0.000286706 -5.89259e-06 -2.26695e-06 0.000293018 -4.18283e-06 -2.10393e-06 0.000301376 -5.96516e-07 -1.4774e-06 
0.000300277 -6.53949e-07 -1.34895e-06 0.000303458 -2.79504e-07 -1.35779e-06 0.000305859 -2.55971e-08 -1.26132e-06 
0.000306873 -2.63346e-08 -1.39463e-06 0.000298396 -1.10638e-06 -1.58706e-06 0.000301927 -6.94335e-07 -1.57749e-06 
0.000304912 -4.2287e-07 -1.568e-06 0.00030232 -8.56569e-07 -1.65972e-06 0.000309158 7.5264e-08 -1.41501e-06 
0.000307155 -1.22052e-07 -1.48899e-06 0.00030756 -2.52089e-07 -1.57187e-06 0.000326567 -1.17779e-06 -1.9728e-06 
0.000327767 -8.86236e-07 -1.97566e-06 0.000329476 -9.11342e-07 -2.00189e-06 0.000331872 -6.7715e-07 -2.03129e-06 
0.000330775 -9.27665e-07 -2.02035e-06 0.000325619 -8.31737e-07 -1.93923e-06 0.000328387 -6.61763e-07 -1.96966e-06 
0.000328388 -4.93422e-07 -1.95427e-06 0.000330541 -5.16907e-07 -1.99785e-06 0.000332875 -4.16648e-07 -2.03952e-06 
0.000335534 -2.54572e-07 -2.08807e-06 0.000333299 -4.93495e-07 -2.05202e-06 0.000334642 -4.46992e-07 -2.07471e-06 
0.000332706 -3.1795e-07 -2.02826e-06 0.0003195 -3.83267e-06 -1.96084e-06 0.000321595 -3.11933e-06 -1.96494e-06 
0.000322939 -3.36119e-06 -1.95488e-06 0.000325617 -2.92457e-06 -1.95458e-06 0.000323628 -3.65029e-06 -1.94133e-06 
0.000323009 -4.65964e-06 -1.90791e-06 0.000320502 -4.69821e-06 -1.93343e-06 0.000323374 -4.09837e-06 -1.92567e-06 
0.000326033 -3.55721e-06 -1.92165e-06 0.000316329 -4.25417e-06 -1.97375e-06 0.000317791 -4.60895e-06 -1.95882e-06 
0.000317381 -5.24106e-06 -1.9497e-06 0.000195848 -7.38602e-05 -1.04079e-05 0.000212194 -5.9169e-05 -5.2429e-06 
0.000200041 -6.51077e-05 -8.61067e-06 0.000201228 -5.88077e-05 -8.03108e-06 0.000179873 -7.74851e-05 -1.45541e-05 
0.000178971 -8.78059e-05 -1.59668e-05 0.000199761 -7.61527e-05 -9.76886e-06 0.000156542 -9.42754e-05 -2.00476e-05 
0.000150514 -0.000105577 -2.21005e-05 0.000153755 -0.000111295 -2.37485e-05 0.000151462 -0.000109856 -2.37146e-05 
0.000120846 -0.000134963 -2.73454e-05 0.000290912 -9.55923e-06 1.42937e-07 0.000295828 -6.61555e-06 2.51797e-07 
0.000290078 -7.98916e-06 -1.69358e-07 0.000292654 -5.33294e-06 -3.44993e-07 0.000287365 -7.70691e-06 -4.71624e-07 
0.00029821 -4.61305e-06 1.2734e-07 0.000299574 -3.37495e-06 -1.27448e-08 0.000296678 -4.09091e-06 -1.81512e-07 
0.000294529 -4.01128e-06 -4.42405e-07 0.000299021 -5.59849e-06 4.57577e-07 0.000246717 -1.88398e-05 -2.76074e-06 
0.000243387 -2.15259e-05 -2.72522e-06 0.00024925 -1.81297e-05 -2.59168e-06 0.000252201 -1.75021e-05 -2.3961e-06 
0.000254816 -1.51847e-05 -2.45416e-06 0.000260797 -1.19929e-05 -2.57357e-06 0.000255469 -1.42493e-05 -2.66689e-06 
0.000257821 -1.32729e-05 -2.53682e-06 0.000257122 -1.37865e-05 -2.46966e-06 0.000262346 -1.13884e-05 -2.37995e-06 
0.000249494 -1.70662e-05 -2.79651e-06 0.000243796 -1.99972e-05 -2.91521e-06 0.000259755 -1.30486e-05 -2.28252e-06 
0.000252975 -1.53943e-05 -2.82061e-06 0.00032003 -5.14475e-07 -1.8205e-06 0.000317831 -4.05448e-07 -1.76952e-06 
0.000319768 -3.32691e-07 -1.77968e-06 0.000319443 -2.0261e-07 -1.74171e-06 0.000321561 -2.95881e-07 -1.79818e-06 
0.000315599 -1.92564e-08 -1.61736e-06 0.000317625 -1.00537e-07 -1.68008e-06 0.000315531 -1.39898e-07 -1.6661e-06 
0.000316052 -3.17172e-07 -1.72775e-06 0.000313872 -2.27031e-07 -1.67229e-06 0.0003193 -9.33938e-08 -1.70135e-06 
0.00031614 -5.29105e-07 -1.77498e-06 0.000302941 -4.99996e-06 -2.08245e-06 0.000305562 -5.12707e-06 -2.059e-06 
0.000303405 -5.59736e-06 -2.08997e-06 0.000302495 -6.22847e-06 -2.11136e-06 0.000299715 -6.11963e-06 -2.14416e-06 
0.000296375 -5.60406e-06 -2.16857e-06 0.000299763 -5.08405e-06 -2.11295e-06 0.000297374 -6.00399e-06 -2.1721e-06 
0.000296391 -6.68353e-06 -2.2034e-06 0.000302055 -4.61621e-06 -2.07788e-06 0.00030712 -4.33124e-08 -8.28055e-07 
0.00030483 -2.14479e-07 -9.20583e-07 0.000305852 -2.60442e-07 -7.0681e-07 0.000304108 -5.82798e-07 -6.46611e-07 
0.000306473 -3.08978e-07 -5.44655e-07 0.000304598 -1.43262e-07 -1.11491e-06 0.000302792 -4.00442e-07 -1.02812e-06 
0.000300106 -7.77002e-07 -1.09368e-06 0.000300649 -9.31973e-07 -8.79823e-07 0.000299136 -1.42431e-06 -7.83322e-07 
0.000301937 -9.12146e-07 -7.11177e-07 0.000302989 -9.82314e-07 -5.2679e-07 0.000279856 -2.094e-05 7.21794e-08 
0.000276601 -1.82119e-05 -3.94675e-07 0.000274765 -2.21911e-05 -3.00642e-07 0.000266891 -2.32038e-05 -8.97786e-07 
0.000270147 -2.64551e-05 -4.81117e-07 0.000278503 -1.20193e-05 -7.44683e-07 0.000272022 -1.58682e-05 -9.46324e-07 
0.000278317 -1.49025e-05 -4.9745e-07 0.000282783 -1.3764e-05 -1.96848e-07 0.000267696 -1.63511e-05 -1.25789e-06 
0.000266922 -1.97945e-05 -1.08081e-06 0.000261877 -2.3489e-05 -1.26533e-06 0.000333352 -1.30034e-06 -1.99709e-06 
0.000334707 -8.54437e-07 -2.03799e-06 0.000331912 -1.17939e-06 -2.02225e-06 0.000335434 -6.23256e-07 -2.06173e-06 
0.000330411 -1.82629e-06 -1.98401e-06 0.000327346 -2.49116e-06 -1.96418e-06 0.000328094 -2.0735e-06 -1.98096e-06 
0.000325914 -2.18907e-06 -1.97601e-06 0.000328987 -1.6564e-06 -1.99553e-06 0.000332662 -1.64398e-06 -1.97022e-06 
0.000329792 -1.33847e-06 -2.00861e-06 0.000276131 -7.44331e-06 -2.38638e-06 0.000271231 -9.09589e-06 -2.53412e-06 
0.000272877 -8.15518e-06 -2.42394e-06 0.000268565 -9.3348e-06 -2.47856e-06 0.000273818 -7.51142e-06 -2.32339e-06 
0.000259354 -1.30945e-05 -2.79908e-06 0.000263326 -1.13136e-05 -2.63701e-06 0.00026403 -1.16132e-05 -2.73484e-06 
0.000268135 -1.02887e-05 -2.64128e-06 0.00026463 -1.18958e-05 -2.79297e-06 0.000271655 -9.46046e-06 -2.59075e-06 
0.00026426 -1.07056e-05 -2.52904e-06 0.000296234 -1.87323e-06 -1.7904e-06 0.000300166 -1.44232e-06 -1.77223e-06 
0.000297531 -2.11097e-06 -1.87056e-06 0.000298339 -2.42158e-06 -1.92587e-06 0.000303417 -1.09768e-06 -1.7478e-06 
0.000305461 -1.32011e-06 -1.81678e-06 0.000303436 -1.95573e-06 -1.89022e-06 0.00030308 -2.35169e-06 -1.93461e-06 
0.000301 -2.11541e-06 -1.89912e-06 0.000307176 -7.78026e-07 -1.72859e-06 0.000297905 -2.85028e-06 -1.9766e-06 
0.000295239 -1.73185e-06 -1.70098e-06 0.000292138 -2.48907e-06 -1.82256e-06 0.000288091 -3.22488e-06 -1.85943e-06 
0.000294587 -1.67668e-06 -1.60231e-06 0.000291406 -2.27826e-06 -1.63433e-06 0.000294949 -1.54361e-06 -1.50322e-06 
0.000284271 -4.04228e-06 -1.88246e-06 0.000287548 -3.15972e-06 -1.73986e-06 0.000287911 -3.05151e-06 -1.63861e-06 
0.000193087 -5.74642e-05 -1.05793e-05 0.000207534 -5.04697e-05 -6.13607e-06 0.00021952 -4.54609e-05 -3.94688e-06 
0.000214108 -4.34325e-05 -5.16873e-06 0.000213898 -4.07506e-05 -5.48379e-06 0.000216456 -3.69294e-05 -5.16771e-06 
0.00020441 -4.40503e-05 -7.76683e-06 0.000191297 -5.20469e-05 -1.20041e-05 0.000172205 -7.05718e-05 -1.68421e-05 
0.00018474 -5.81477e-05 -1.4083e-05 0.000221908 -5.95229e-05 -3.73082e-06 0.000222346 -5.2952e-05 -3.46025e-06 
0.000232515 -4.60518e-05 -2.56055e-06 0.000224302 -4.58769e-05 -3.30634e-06 0.000214203 -7.09117e-05 -5.30149e-06 
0.000225706 -6.38275e-05 -3.24585e-06 0.000230591 -7.27118e-05 -2.78979e-06 0.000235829 -6.08311e-05 -2.22783e-06 
0.000243715 -5.10788e-05 -1.75476e-06 0.0002514 -4.32192e-05 -1.3653e-06 0.000240091 -4.55475e-05 -2.083e-06 
0.00024047 -3.90565e-05 -2.17414e-06 0.000331913 -2.67357e-07 -2.00481e-06 0.000328475 -3.35182e-07 -1.9353e-06 
0.000329894 -2.3561e-07 -1.95366e-06 0.000328479 -1.716e-07 -1.911e-06 0.000324108 -7.05044e-08 -1.78196e-06 
0.000326536 -1.46907e-07 -1.86013e-06 0.000324167 -1.55592e-07 -1.80986e-06 0.000323827 -2.33847e-07 -1.82369e-06 
0.000321577 -1.07777e-07 -1.74465e-06 0.000326485 -4.12339e-07 -1.90642e-06 0.000324074 -5.30062e-07 -1.8814e-06 
0.000324341 -3.39244e-07 -1.85508e-06 0.000307945 -7.71138e-06 -2.02754e-06 0.000304122 -8.16706e-06 -2.09045e-06 
0.00030577 -7.2142e-06 -2.06913e-06 0.000303888 -6.64093e-06 -2.09604e-06 0.000307785 -6.26679e-06 -2.04097e-06 
0.000310404 -5.41452e-06 -2.01626e-06 0.000312059 -5.90582e-06 -1.99515e-06 0.000314657 -5.76749e-06 -1.96756e-06 
0.000312242 -6.65526e-06 -1.98047e-06 0.00031108 -7.55494e-06 -1.97854e-06 0.000313707 -7.36092e-06 -1.94115e-06 
0.000323612 -6.17502e-06 -1.82959e-06 0.000321504 -6.20171e-06 -1.86361e-06 0.000318843 -6.08469e-06 -1.90733e-06 
0.000322736 -5.40886e-06 -1.87882e-06 0.000325505 -4.66848e-06 -1.87094e-06 0.000328924 -3.55801e-06 -1.87459e-06 
0.000328646 -4.20148e-06 -1.83957e-06 0.000328606 -4.6859e-06 -1.81232e-06 0.000327269 -5.41564e-06 -1.8023e-06 
0.000327194 -6.16056e-06 -1.76877e-06 0.000325188 -6.1522e-06 -1.80334e-06 0.000339203 4.40909e-08 -2.16252e-06 
0.000338258 -4.86804e-08 -2.1458e-06 0.000341397 2.53545e-07 -2.21658e-06 0.000342461 3.03517e-07 -2.24974e-06 
0.000342079 2.03683e-07 -2.2426e-06 0.000340884 9.46413e-08 -2.21119e-06 0.000342537 1.39759e-07 -2.25697e-06 
0.000337651 -7.56013e-08 -2.13289e-06 0.00033646 -1.04523e-07 -2.10255e-06 0.000339063 1.03823e-08 -2.16414e-06 
0.000257563 -1.80654e-05 -1.9151e-06 0.000254566 -1.76362e-05 -2.18341e-06 0.000260031 -1.4473e-05 -2.0412e-06 
0.000268616 -1.1583e-05 -1.6376e-06 0.000265088 -1.20329e-05 -1.89168e-06 0.000262731 -1.21573e-05 -2.11331e-06 
0.000273159 -1.07802e-05 -1.33469e-06 0.000267653 -1.37525e-05 -1.47813e-06 0.000262355 -1.70665e-05 -1.61752e-06 
0.000257005 -2.11628e-05 -1.7433e-06 0.000225158 -3.00938e-05 -3.93531e-06 0.00023194 -2.63203e-05 -3.28317e-06 
0.000234694 -2.55018e-05 -3.09712e-06 0.000237933 -2.31258e-05 -3.06888e-06 0.000226087 -3.14693e-05 -3.56534e-06 
0.000219426 -3.3825e-05 -4.79622e-06 0.000231424 -2.80976e-05 -3.11989e-06 0.000237787 -2.44893e-05 -2.90479e-06 
0.000278863 -8.02208e-06 -2.46858e-06 0.000284058 -7.12783e-06 -2.37146e-06 0.000281151 -8.39069e-06 -2.48243e-06 
0.000283148 -8.67849e-06 -2.47822e-06 0.000277865 -9.60351e-06 -2.59373e-06 0.000290179 -7.05176e-06 -2.3031e-06 
0.000293593 -7.60123e-06 -2.26942e-06 0.000289815 -8.08801e-06 -2.34726e-06 0.000285681 -8.70205e-06 -2.44018e-06 
0.000288585 -6.3684e-06 -2.28567e-06 0.000292406 -5.88681e-06 -2.22064e-06 0.000314737 1.45212e-07 -1.42698e-06 
0.000316212 1.08036e-07 -1.51408e-06 0.000318241 4.10978e-08 -1.60789e-06 0.000315455 8.29879e-08 -1.54604e-06 
0.000311242 1.69426e-07 -1.38171e-06 0.000311164 2.00036e-07 -1.27691e-06 0.000313187 1.79667e-07 -1.35355e-06 
0.000311712 1.07902e-07 -1.47029e-06 0.000313519 7.65149e-08 -1.52695e-06 0.000311508 -2.68344e-08 -1.55504e-06 
0.000319481 -2.92866e-06 -1.96617e-06 0.000322889 -2.58174e-06 -1.96717e-06 0.000323877 -2.09062e-06 -1.97161e-06 
0.000317697 -2.59948e-06 -1.9604e-06 0.000320013 -2.03133e-06 -1.95107e-06 0.000321495 -1.67519e-06 -1.94674e-06 
0.000322306 -2.00871e-06 -1.96222e-06 0.000316266 -3.15702e-06 -1.97121e-06 0.000325281 -1.72439e-06 -1.97496e-06 
0.000323134 -1.00798e-06 -1.92039e-06 0.000322129 -1.36776e-06 -1.93629e-06 0.000320381 -1.23532e-06 -1.90986e-06 
0.000319405 -1.0452e-06 -1.88398e-06 0.0003239 -7.38726e-07 -1.90561e-06 0.000321726 -6.35143e-07 -1.86125e-06 
0.000319687 -7.57675e-07 -1.85256e-06 0.000317656 -8.99306e-07 -1.84887e-06 8.73813e-05 -0.000170838 -3.17817e-05 
8.45153e-05 -0.000170388 -2.73816e-05 5.4577e-05 -0.000197644 -2.64296e-05 3.75792e-05 -0.000210399 -1.9189e-05 
8.54208e-05 -0.000165313 -2.56207e-05 9.43948e-05 -0.000150527 -2.46981e-05 6.25848e-05 -0.000183429 -2.11773e-05 
4.03174e-05 -0.000205621 -1.55821e-05 3.12815e-05 -0.000214288 -1.47513e-05 0.000280942 -5.05367e-06 -2.03336e-06 
0.000277046 -6.34766e-06 -2.1915e-06 0.00027307 -7.43685e-06 -2.22747e-06 0.000280137 -5.12425e-06 -1.92166e-06 
0.000275461 -6.56665e-06 -2.00698e-06 0.00027283 -7.4293e-06 -2.1356e-06 0.00027168 -7.90488e-06 -2.05669e-06 
0.000269148 -8.73581e-06 -2.28783e-06 0.000335235 -5.4492e-07 -2.07492e-06 0.000338009 -1.43887e-07 -2.10269e-06 
0.000339935 2.05841e-07 -2.15158e-06 0.000336904 -2.38783e-07 -2.11113e-06 0.000340131 1.94148e-07 -2.17149e-06 
0.00033547 -4.49843e-07 -2.0843e-06 0.000332944 -7.78189e-07 -2.04623e-06 0.000328325 -3.23692e-06 -1.90944e-06 
0.000331374 -2.73359e-06 -1.88391e-06 0.000333183 -1.98985e-06 -1.91005e-06 0.000333213 -1.70687e-06 -1.94766e-06 
0.000330244 -2.36017e-06 -1.94308e-06 0.000328565 -2.86174e-06 -1.93058e-06 0.000327998 -2.67826e-06 -1.95006e-06 
0.000312986 -3.39001e-06 -1.98198e-06 0.000309065 -3.68745e-06 -2.00275e-06 0.000308379 -4.31691e-06 -2.02337e-06 
0.000305879 -3.89113e-06 -2.02513e-06 0.000314871 -3.80787e-06 -1.98147e-06 0.000308792 -4.85927e-06 -2.02874e-06 
0.00031301 -4.59321e-06 -1.99351e-06 0.000180723 -0.000110081 -2.21071e-05 0.000215595 -8.60517e-05 -6.93601e-06 
0.000193493 -9.39253e-05 -1.45026e-05 0.00020374 -8.03638e-05 -9.15519e-06 0.000166592 -0.00010837 -2.28953e-05 
0.000132174 -0.000135044 -3.09856e-05 9.62955e-05 -0.000167446 -3.69291e-05 0.000105852 -0.00016204 -4.65144e-05 
0.000135867 -0.000140683 -4.71513e-05 0.000296109 -1.32783e-06 -1.38911e-06 0.000298746 -9.09616e-07 -1.24212e-06 
0.000296011 -1.57569e-06 -1.12502e-06 0.000293077 -1.93522e-06 -1.41107e-06 0.000293187 -2.55273e-06 -1.02466e-06 
0.0002913 -2.68787e-06 -1.20522e-06 0.000291081 -2.46197e-06 -1.36976e-06 0.000289674 -2.68284e-06 -1.49757e-06 
0.000309257 1.71544e-07 -1.22223e-06 0.000311287 1.8819e-07 -1.19038e-06 0.000309792 1.46389e-07 -1.0219e-06 
0.000307519 9.91421e-08 -1.17893e-06 0.000308066 1.14592e-07 -1.07233e-06 0.000308462 9.3786e-08 -9.57661e-07 
0.00030268 -2.39153e-06 1.06386e-07 0.000303588 -2.90224e-06 4.71605e-07 0.000304851 -1.7403e-06 2.43392e-07 
0.000305751 -1.11895e-06 7.44793e-08 0.000301522 -2.12112e-06 -1.78275e-07 0.000302459 -1.42531e-06 -3.48924e-07 
0.000299419 -2.09965e-06 -4.54933e-07 0.000306317 -5.12207e-07 -3.38949e-07 0.000304526 -9.83117e-07 -2.83265e-07 
0.000305973 -7.87894e-07 -1.42904e-07 0.000302114 -4.3949e-06 6.72356e-07 0.000304514 -3.26671e-06 8.42215e-07 
0.00030515 -3.68701e-06 1.22512e-06 0.000304566 -5.2342e-06 1.57183e-06 0.000301558 -7.85407e-06 1.38258e-06 
0.000300348 -6.49876e-06 8.57294e-07 0.000298159 -9.76629e-06 1.10707e-06 0.000277209 -1.04001e-05 -1.03767e-06 
0.000282617 -9.45782e-06 -6.69763e-07 0.000286036 -6.59988e-06 -7.76366e-07 0.000277574 -8.56285e-06 -1.24042e-06 
0.000284796 -5.79567e-06 -1.04051e-06 0.000289018 -4.54034e-06 -8.8343e-07 0.000290742 -1.76736e-05 9.88508e-07 
0.000284779 -1.96199e-05 4.53413e-07 0.000285985 -1.57404e-05 2.90818e-07 0.000293733 -1.09004e-05 6.35075e-07 
0.000287143 -1.25921e-05 1.17964e-07 0.000295325 -1.33327e-05 1.15723e-06 0.000302458 -2.77973e-06 -1.9737e-06 
0.000303053 -3.33225e-06 -2.01094e-06 0.000302861 -3.92669e-06 -2.04515e-06 0.000299036 -4.05177e-06 -2.07042e-06 
0.000299925 -2.96766e-06 -1.98943e-06 0.000297199 -3.31936e-06 -2.02256e-06 0.000295289 -4.25983e-06 -2.10582e-06 
0.000295073 -4.91641e-06 -2.14787e-06 0.000309887 -1.67497e-07 -1.58742e-06 0.000311974 -1.82833e-07 -1.63192e-06 
0.000312317 -3.9095e-07 -1.69982e-06 0.000307896 -4.50538e-07 -1.65202e-06 0.00030974 -6.56269e-07 -1.73185e-06 
0.000311864 -6.86285e-07 -1.76244e-06 0.000255177 -1.45684e-05 -2.83802e-06 0.000256086 -1.46581e-05 -2.93723e-06 
0.000251553 -1.66094e-05 -3.0596e-06 0.000244373 -1.9532e-05 -3.11195e-06 0.000249279 -1.71653e-05 -2.96573e-06 
0.000246941 -1.84655e-05 -3.1252e-06 0.000161246 -8.46438e-05 -1.8938e-05 0.0001483 -8.75351e-05 -2.29178e-05 
0.000120625 -0.000111561 -2.74699e-05 0.000128343 -0.000118035 -2.54894e-05 0.000100163 -0.000137761 -2.49134e-05 
0.000275079 -8.86693e-06 -2.54645e-06 0.000278416 -7.47805e-06 -2.41696e-06 0.000274636 -1.03783e-05 -2.67804e-06 
0.000267701 -1.15356e-05 -2.78929e-06 0.000272277 -9.94584e-06 -2.64663e-06 0.000271415 -1.08456e-05 -2.73217e-06 
0.000334141 -2.02502e-07 -2.05092e-06 0.000316224 -6.70155e-06 -1.92368e-06 0.00031752 -5.89899e-06 -1.93055e-06 
0.000266877 -3.69312e-05 -3.82411e-07 0.000270158 -3.08638e-05 -3.10832e-07 0.000261181 -3.15814e-05 -9.87215e-07 
0.000254259 -3.73614e-05 -1.31869e-06 0.000258538 -4.24064e-05 -9.03452e-07 0.00025503 -3.26539e-05 -1.39559e-06 
0.000319759 -3.2894e-08 -1.68073e-06 0.000320248 5.25724e-09 -1.65842e-06 0.000322467 -3.14284e-08 -1.72742e-06 
0.000300884 -8.4321e-06 -2.15092e-06 0.000297767 -8.10933e-06 -2.20975e-06 0.000296142 -7.68322e-06 -2.23117e-06 
0.000300291 -7.21366e-06 -2.15403e-06 0.000292934 -3.8156e-06 -6.59416e-07 0.000291799 -3.3248e-06 -9.16545e-07 
0.000296493 -2.00594e-06 -8.39371e-07 0.000296768 -2.83728e-06 -5.12815e-07 0.000298142 -1.99588e-06 -6.50034e-07 
0.000268081 -9.36951e-06 -2.09466e-06 0.000264592 -1.09253e-05 -2.14783e-06 0.000265442 -1.02218e-05 -2.24739e-06 
0.000241321 -2.10224e-05 -3.09455e-06 0.000327582 -1.4658e-06 -1.99012e-06 0.000330469 -1.09792e-06 -2.01659e-06 
0.000326035 -1.43438e-06 -1.97672e-06 0.000324321 -1.36424e-06 -1.95643e-06 0.000314385 -6.68243e-07 -1.78194e-06 
0.000316283 -7.6169e-07 -1.81722e-06 0.000255971 -2.43465e-05 -1.66173e-06 0.000248354 -3.32961e-05 -1.83034e-06 
0.000255336 -2.8121e-05 -1.53312e-06 0.000266369 -9.79763e-06 -2.40827e-06 0.000265937 -9.92256e-06 -2.32109e-06 
2.61167e-06 -0.000229455 4.70085e-08 0.000330719 -6.49973e-06 -8.57987e-07 8.53653e-06 -0.000214224 -8.93225e-07 
2.44451e-05 -0.000180748 -8.23351e-06 8.12361e-05 -0.000132323 -1.75445e-05 0.000151563 -8.17103e-05 -1.26124e-05 
0.000194008 -5.0498e-05 -5.58596e-06 0.000230568 -2.73095e-05 -2.00718e-06 0.000215966 -3.57336e-05 -2.8873e-06 
0.000242709 -2.17091e-05 -1.75296e-06 0.000254016 -1.7677e-05 -1.64926e-06 0.000264713 -1.48211e-05 -1.54573e-06 
0.000274633 -1.29406e-05 -1.42684e-06 0.000283742 -1.1767e-05 -1.30679e-06 0.000292066 -1.10451e-05 -1.1932e-06 
0.000299675 -1.05665e-05 -1.09455e-06 0.000306659 -1.0143e-05 -1.00703e-06 0.000313109 -9.61739e-06 -9.38007e-07 
0.00031919 -8.86106e-06 -8.8948e-07 0.000324988 -7.81496e-06 -8.63971e-07 1.43911e-06 -0.0002319 -1.01029e-07 
1.19332e-06 -0.000229829 9.39232e-08 4.29798e-06 -0.000228659 -1.98214e-07 3.54269e-06 -0.000226411 -3.21407e-09 
0.000332159 -6.14656e-06 -4.2815e-07 0.000332152 -6.15291e-06 -1.28647e-06 0.000329281 -6.85099e-06 -1.28856e-06 
0.000329289 -6.84106e-06 -4.2943e-07 1.18159e-05 -0.000209817 -2.74827e-06 7.46976e-06 -0.000221268 -8.29983e-07 
5.2158e-06 -0.000224036 -2.22623e-07 6.26129e-06 -0.000218677 -1.89535e-07 3.78849e-05 -0.000168738 -1.71731e-05 
2.00036e-05 -0.00019309 -7.79796e-06 9.87281e-06 -0.000206645 -7.6028e-07 1.37185e-05 -0.000200294 -3.17279e-06 
1.71024e-05 -0.000190171 -3.05953e-06 9.95785e-05 -0.00011602 -2.62175e-05 6.54307e-05 -0.000143199 -2.39908e-05 
3.48599e-05 -0.000169625 -5.21742e-06 4.92913e-05 -0.000157179 -1.42342e-05 6.40981e-05 -0.00014599 -8.73673e-06 
0.000162941 -7.08666e-05 -1.56852e-05 0.000133984 -9.08425e-05 -2.25053e-05 0.000100837 -0.000119584 -8.8786e-06 
0.000118695 -0.000104835 -1.6813e-05 0.000137111 -9.38327e-05 -7.3493e-06 0.000199554 -4.57449e-05 -7.02984e-06 
0.000184328 -5.59282e-05 -1.06675e-05 0.000165879 -7.23092e-05 -5.20111e-06 0.000176085 -6.35126e-05 -8.40152e-06 
0.000186518 -5.67353e-05 -3.2665e-06 0.000219819 -3.29934e-05 -3.89924e-06 0.00021076 -3.85161e-05 -5.21059e-06 
0.000200836 -4.63117e-05 -2.41626e-06 0.000206049 -4.22121e-05 -3.951e-06 0.000211571 -3.88569e-05 -1.60114e-06 
0.000233638 -2.56551e-05 -2.87254e-06 0.000227131 -2.89288e-05 -3.23565e-06 0.000227343 -2.90923e-05 -1.05617e-06 
0.000223824 -3.09719e-05 -2.30253e-06 0.000220247 -3.32157e-05 -1.25918e-06 0.000245545 -2.0531e-05 -2.58011e-06 
0.000239743 -2.28752e-05 -2.69714e-06 0.000233737 -2.57897e-05 -9.65243e-07 0.000236773 -2.42874e-05 -1.84611e-06 
0.000239804 -2.29806e-05 -8.95436e-07 0.000256723 -1.68105e-05 -2.43829e-06 0.000251205 -1.85225e-05 -2.50947e-06 
0.000245594 -2.06202e-05 -8.61124e-07 0.000248418 -1.95456e-05 -1.695e-06 0.00025125 -1.86062e-05 -8.36009e-07 
0.000267237 -1.42315e-05 -2.27369e-06 0.000262075 -1.5391e-05 -2.36111e-06 0.000256769 -1.68891e-05 -8.13252e-07 
0.000259451 -1.61144e-05 -1.59965e-06 0.000262122 -1.54631e-05 -7.86488e-07 0.000276955 -1.25592e-05 -2.0934e-06 
0.000272198 -1.32989e-05 -2.18594e-06 0.000267286 -1.42961e-05 -7.58802e-07 0.000269775 -1.37776e-05 -1.487e-06 
0.000272248 -1.33568e-05 -7.28198e-07 0.000285861 -1.15318e-05 -1.91516e-06 0.000281509 -1.19813e-05 -2.00458e-06 
0.000277003 -1.26086e-05 -6.9914e-07 0.000279288 -1.22795e-05 -1.36608e-06 0.000281556 -1.20222e-05 -6.67178e-07 
0.000294003 -1.09032e-05 -1.74932e-06 0.000290022 -1.11786e-05 -1.83265e-06 0.000285909 -1.15627e-05 -6.38961e-07 
0.000287994 -1.13614e-05 -1.24809e-06 0.000290068 -1.12036e-05 -6.09192e-07 0.00030145 -1.04615e-05 -1.60533e-06 
0.000297808 -1.06685e-05 -1.67686e-06 0.000294046 -1.09187e-05 -5.84636e-07 0.000295953 -1.079e-05 -1.14217e-06 
0.000297849 -1.06793e-05 -5.58646e-07 0.000308298 -1.00307e-05 -1.48106e-06 0.000304942 -1.02538e-05 -1.54166e-06 
0.000301489 -1.04653e-05 -5.3617e-07 0.000303238 -1.03589e-05 -1.0486e-06 0.000304978 -1.02522e-05 -5.13366e-07 
0.000314645 -9.45791e-06 -1.3856e-06 0.000311525 -9.77065e-06 -1.42834e-06 0.000308329 -1.00248e-05 -4.94212e-07 
0.000309946 -9.89913e-06 -9.69775e-07 0.000311553 -9.76061e-06 -4.77411e-07 0.000320646 -8.63736e-06 -1.32029e-06 
0.000317686 -9.0827e-06 -1.35006e-06 0.00031467 -9.44328e-06 -4.62226e-07 0.00031619 -9.26529e-06 -9.1083e-07 
0.000317706 -9.06612e-06 -4.49709e-07 0.000326418 -7.51356e-06 -1.29309e-06 0.000323546 -8.11333e-06 -1.3015e-06 
0.000320662 -8.62227e-06 -4.40935e-07 0.00032211 -8.37502e-06 -8.73755e-07 0.000323558 -8.09835e-06 -4.34045e-07 
0.000327855 -7.18155e-06 -8.59699e-07 0.000326427 -7.5009e-06 -4.30431e-07 0.000279971 -5.93848e-06 0 
0.00031249 -1.87099e-06 0 0.000238082 -3.01182e-05 0 0.000287628 -4.70368e-06 0 
0.00030451 -3.76943e-07 0 0.000330523 -6.62549e-07 0 0.000320939 -4.10968e-06 0 
0.000181605 -8.88459e-05 0 0.000294793 -5.75404e-06 0 0.000252419 -1.61063e-05 0 
0.000317601 -2.54458e-07 0 0.000300741 -5.52204e-06 0 0.00030308 -6.46237e-07 0 
0.000271598 -1.99032e-05 0 0.000331121 -1.45753e-06 0 0.000267817 -1.01318e-05 0 
0.000301456 -1.80788e-06 0 0.000291091 -2.56415e-06 0 0.000203897 -5.17798e-05 0 
0.000232377 -5.45216e-05 0 0.000326513 -2.67949e-07 0 0.000309629 -6.80001e-06 0 
0.000325342 -5.37406e-06 0 0.000340254 1.16887e-07 0 0.000262889 -1.48673e-05 0 
0.000228798 -2.97989e-05 0 0.000286323 -7.68564e-06 0 0.000313432 1.19719e-07 0 
0.000320837 -2.41026e-06 0 0.000321396 -9.00014e-07 0 5.11584e-05 -0.000191317 0 
0.000276583 -6.40795e-06 0 0.000337716 -1.30783e-07 0 0.000330833 -2.46041e-06 0 
0.000311546 -4.10314e-06 0 0.00016132 -0.000128455 0 0.000294331 -1.8903e-06 0 
0.000309481 1.25128e-07 0 0.000303909 -1.54746e-06 0 0.000302809 -5.24424e-06 0 
0.000281273 -8.45047e-06 0 0.00028998 -1.48985e-05 0 0.000299327 -3.50486e-06 0 
0.000310264 -4.12175e-07 0 0.000251771 -1.64334e-05 0 0.000135456 -0.000107941 0 
0.000275854 -9.52715e-06 0 0.0003332 -1.67537e-07 0 0.00031765 -6.87886e-06 0 
0.000260883 -3.70184e-05 0 0.000321826 -6.72585e-08 0 0.000301893 -7.65753e-06 0 
0.000295199 -2.90251e-06 0 0.000246509 -2.11858e-05 0 0.000267528 -1.03013e-05 0 
0.000215511 -5.46032e-05 0 0.000235774 -2.44218e-05 0 0.000220597 -7.88702e-05 0 
0.000328263 -1.20112e-06 0 0.000306706 -3.30862e-06 0 0.000314439 -9.67209e-07 0 
0.000307559 -1.63794e-07 0 0.000302433 -4.5535e-07 0 0.000249309 -2.93759e-05 0 
0.0003382 -8.27025e-08 0 0.000210732 -4.21611e-05 0 0.000263065 -1.12393e-05 0 
5.72205e-05 -0.000191225 0 0.00029362 -8.69021e-06 0 0.000318612 3.57133e-08 0 
0.000293342 -2.7431e-06 0 0.000277888 -6.69152e-06 0 0.000299026 -1.32156e-06 0 
0.000278297 -2.62634e-05 0 0.000324985 -2.67219e-06 0 0.000342331 5.13061e-07 0 
0.000332021 -2.95087e-06 0 0.000224705 -3.55519e-05 0 0.000260491 -1.34947e-05 0 
0.00028406 -1.14442e-05 0 0.00031924 -1.67363e-06 0 0.000343708 2.8124e-07 0 
0.000329255 -5.35352e-06 0 0.000305488 -2.26531e-06 0 0.000335597 -9.18374e-07 0 
0.000305189 -2.16096e-06 0 0.000297816 -1.16607e-06 0 0.000282128 -6.84001e-06 0 
0.000291155 -5.30519e-06 0 0.000312705 1.36674e-07 0 0.00030875 6.91384e-08 0 
0.000321909 -4.44332e-07 0 0.000313407 -9.86038e-08 0 0.000326221 -6.10151e-07 0 
0.000283743 -4.2705e-06 0 0.000285082 -4.24618e-06 0 0.00031449 -2.7871e-06 0 
0.000325841 -3.9632e-06 0 0.000335973 -2.57149e-07 0 0.000166179 -7.69331e-05 0 
6.30401e-05 -0.000166471 0 0.000256323 -4.98563e-05 0 0.000314622 -5.07947e-06 0 
0.000326242 -7.17879e-08 0 0.000272626 -1.33607e-05 0 0.000306534 -8.66818e-06 0 
0.000222898 -3.22745e-05 0 0.000306117 -5.73718e-06 0 0.000287929 -4.24233e-06 0 
0.000337682 -2.61552e-08 0 0.000321985 -6.93861e-06 0 0.00030915 -1.07335e-06 0 
0.000318146 -3.51518e-06 0 0.000212942 -6.89961e-05 0 0.000186648 -7.28321e-05 0 
0.000251994 -2.25083e-05 0 1.51896e-05 -0.000219722 0 0.00028016 -9.94703e-06 0 
0.000234116 -4.03861e-05 0 0.000299094 -1.229e-05 0 0.000332634 -9.02163e-07 0 
0.000273914 -9.30485e-06 0 0.000324849 -1.11037e-06 0 0.000219684 -0.000102062 0 
0.000125402 -0.000138472 0 0.000240953 -2.23997e-05 0 0.000294003 -6.65364e-06 0 
0.000330389 -3.86101e-07 0 0.000320193 -5.29645e-06 0 0.000147592 -0.000139795 0 
0.000309736 6.54962e-08 0 0.000298003 -3.18778e-06 0 0.000307053 -4.31399e-07 0 
0.000304919 -5.2567e-06 0 0.000296439 -8.31662e-06 0 0.000267026 -1.26023e-05 0 
0.000274522 -7.21447e-06 0 0.000315508 8.57962e-08 0 0.000300676 -4.0029e-06 0 
0.000188992 -9.32372e-05 0 0.000295119 -3.32492e-06 0 0.000342071 7.14981e-07 0 
0.000335549 -1.34348e-06 0 0.000312782 -8.26102e-06 0 0.000290145 -5.47417e-06 0 
0.000330118 -9.84794e-08 0 7.55533e-05 -0.000177582 0 0.000329697 -2.19425e-06 0 
2.20412e-05 -0.000214207 0 0.000291054 -2.22558e-05 0 0.0003053 -6.63251e-07 0 
0.00012239 -0.000130143 0 0.000317478 -3.10941e-08 0 0.000306251 -8.59461e-08 0 
0.000274667 -8.49482e-06 0 0.000297531 -1.61039e-06 0 0.00025776 -1.47426e-05 0 
0.000309471 -7.68307e-08 0 0.000225171 -4.03419e-05 0 0.000287425 -3.50398e-06 0 
0.000242237 -2.10659e-05 0 0.000304757 -7.44058e-07 0 0.000298922 -4.75191e-06 0 
0.000305987 -2.43963e-06 0 0.000235019 -2.75717e-05 0 0.000247037 -1.84207e-05 0 
0.000326302 -3.13451e-06 0 0.000344539 6.07895e-07 0 0.000331882 -3.83772e-06 0 
0.000242843 -7.13114e-05 0 0.000326835 -1.74617e-06 0 0.000334933 -2.13368e-07 0 
0.000269659 -8.87659e-06 0 0.000285558 -9.90689e-06 0 0.000247941 -3.90237e-05 0 
0.000305176 -4.58987e-06 0 0.000258803 -1.3119e-05 0 0.000317955 -6.44291e-07 0 
0.000314887 -6.46812e-06 0 0.000314271 -4.74952e-07 0 0.000317264 -1.25194e-06 0 
0.000291751 -2.30887e-06 0 0.00026231 -2.06311e-05 0 0.000268768 -1.07688e-05 0 
0.000106338 -0.00012024 0 0.000272881 -3.83767e-05 0 0.000281175 -1.74715e-05 0 
0.000300428 -1.56511e-06 0 2.43949e-05 -0.000207001 0 0.00018485 -6.07297e-05 0 
0.000321088 -2.01365e-07 0 0.000322846 -2.04407e-08 0 0.000306572 -8.39955e-07 0 
0.000251696 -1.71577e-05 0 0.000261872 -1.20146e-05 0 0.00030016 -9.26976e-06 0 
0.000300592 -2.59221e-06 0 0.000323716 -1.65681e-06 0 0.000298866 -6.82504e-06 0 
0.000261727 -2.7906e-05 0 0.000341194 6.54668e-08 0 0.000325191 -6.9003e-06 0 
0.000273795 -1.14875e-05 0 0.00033316 -6.35075e-07 0 0.000346542 2.65691e-07 0 
0.000331187 -5.61498e-06 0 0.000268932 -9.02462e-06 0 4.81894e-06 -0.000227219 0 
7.06541e-06 -0.000225004 0 1.06339e-05 -0.000221792 0 0.00010399 -0.00011603 0 
0.000183323 -0.000119764 0 7.54346e-05 -0.000155297 0 0.000333098 -4.83545e-06 0 
0.000332395 -5.70364e-06 0 0.000329514 -6.40072e-06 0 0.000348016 1.72756e-07 0 
0.000347847 4.82957e-07 0 0.000345475 1.08404e-07 0 0.000304075 -7.80021e-06 0 
0.000305404 -3.56015e-06 0 0.000306095 -2.4508e-06 0 0.000298317 -1.69761e-05 0 
0.00030161 -1.24179e-05 0 0.00030256 -8.8176e-06 0 0.00028987 -2.86634e-05 0 
0.000294685 -2.29891e-05 0 0.000295419 -1.69684e-05 0 0.000274821 -4.4286e-05 0 
0.000281526 -3.74369e-05 0 0.000283406 -3.05846e-05 0 0.000285092 -2.43808e-05 0 
0.000275586 -3.18838e-05 0 0.000259058 -5.8738e-05 0 0.000266926 -5.01888e-05 0 
0.000265118 -4.40068e-05 0 0.000244779 -8.16185e-05 0 0.000253046 -7.00703e-05 0 
0.000249927 -6.00082e-05 0 0.000220928 -0.00010946 0 0.00023415 -9.72299e-05 0 
0.000232347 -8.5451e-05 0 0.000196776 -0.00011925 0 0.000346889 7.50349e-07 0 
0.000346378 9.57534e-07 0 0.000346424 4.94015e-07 0 0.000344164 4.29744e-07 0 
0.000345148 2.94832e-07 0 0.000345306 9.57979e-07 0 0.000344553 1.03963e-06 0 
0.000343479 5.88318e-07 0 0.000344441 1.24274e-06 0 0.000343493 1.19738e-06 0 
0.000342242 6.22419e-07 0 0.000341581 7.72885e-07 0 0.000340495 5.34552e-07 0 
0.000340174 3.55372e-07 0 0.000339228 1.47947e-07 0 0.000338096 -2.90351e-07 0 
0.000336912 -4.45476e-07 0 0.00033809 -4.39381e-07 0 0.000337016 -1.04952e-06 0 
0.000335554 -1.10925e-06 0 0.000335272 -1.9117e-06 0 0.000334302 -2.64785e-06 0 
0.000333766 -2.13091e-06 0 0.000334254 -3.09649e-06 0 0.000333425 -3.92606e-06 0 
0.000331922 -3.37718e-06 0 0.000332142 -4.719e-06 0 0.000330551 -4.59226e-06 0 
0.000330217 -5.48664e-06 0 3.13701e-05 -0.0001964 0 4.71185e-05 -0.00017723 0 
0.000106463 -0.000160199 0 2.10777e-05 -0.000212359 0 3.20572e-05 -0.00020357 0 
6.67515e-05 -0.000186123 0 7.80506e-06 -0.000222964 0 1.14571e-05 -0.000219126 0 
3.66415e-05 -0.000204534 0 1.84663e-05 -0.000217275 0 1.93312e-05 -0.000203421 0 
1.25702e-05 -0.000216301 0 2.01655e-05 -0.000214505 0 5.52753e-05 -0.00016129 0 
3.3664e-05 -0.000186302 0 4.00507e-05 -0.000189977 0 0.000112055 -0.000113127 0 
7.59961e-05 -0.000140447 0 8.28273e-05 -0.000143101 0 0.000181288 -6.20567e-05 0 
0.00015798 -7.98197e-05 0 0.000144291 -9.05347e-05 0 0.000138064 -9.66231e-05 0 
0.00017616 -6.82838e-05 0 0.000208699 -4.21001e-05 0 0.000197274 -5.05671e-05 0 
0.000199804 -4.98823e-05 0 0.000223318 -3.15167e-05 0 0.000216011 -3.65287e-05 0 
0.000217348 -3.66495e-05 0 0.000239534 -2.26354e-05 0 0.000233711 -2.55329e-05 0 
0.000230119 -2.74902e-05 0 0.000229624 -2.804e-05 0 0.00023895 -2.26043e-05 0 
0.000245146 -2.01953e-05 0 0.000255383 -1.65231e-05 0 0.000249993 -1.83582e-05 0 
0.000247008 -1.89716e-05 0 0.00026824 -1.31807e-05 0 0.000263257 -1.43031e-05 0 
0.00025964 -1.47906e-05 0 0.000263694 -1.29616e-05 0 0.000256158 -1.52396e-05 0 
0.000276434 -1.18659e-05 0 0.000271747 -1.26194e-05 0 0.000270443 -1.19869e-05 0 
0.000286676 -1.06401e-05 0 0.000282421 -1.10503e-05 0 0.000279546 -1.1108e-05 0 
0.000282866 -9.90261e-06 0 0.000277028 -1.06722e-05 0 0.000294603 -9.74762e-06 0 
0.000290702 -9.97931e-06 0 0.000289667 -9.25002e-06 0 0.000301665 -9.82609e-06 0 
0.000298037 -1.0014e-05 0 0.000296901 -8.97998e-06 0 0.000308201 -9.30355e-06 0 
0.000304824 -9.50238e-06 0 0.000303398 -8.96615e-06 0 0.000314475 -8.78944e-06 0 
0.000311305 -9.07436e-06 0 0.000309702 -8.48416e-06 0 0.000322008 -7.65887e-06 0 
0.000319019 -8.10901e-06 0 0.000316781 -8.06286e-06 0 0.00031983 -6.94082e-06 0 
0.000315204 -7.5705e-06 0 0.000326535 -7.0516e-06 0 0.00032363 -7.63988e-06 0 
0.000323595 -6.93802e-06 0 0.000328199 -6.29105e-06 0 0.000306507 -1.46714e-06 0 
0.000306736 -1.02295e-06 0 0.000305518 -3.62086e-06 0 0.00030697 -6.22641e-07 0 
0.000307218 -4.03181e-07 0 0.00030658 -1.18166e-06 0 0.000305629 -2.37882e-06 0 
0.000305933 -1.38401e-06 0 0.000307436 -3.0697e-07 0 0.000307893 -1.73893e-07 0 
0.000306775 -6.24174e-07 0 0.00030823 -1.16772e-07 0 0.000308968 -2.3858e-08 0 
0.000307257 -2.96242e-07 0 0.00030988 2.25094e-08 0 0.000310889 5.19424e-08 0 
0.00030862 -1.44739e-08 0 0.000312348 7.7919e-08 0 0.00031369 7.29415e-08 0 
0.000311106 1.18057e-07 0 0.000314976 4.99136e-08 0 0.000316553 3.87852e-08 0 
0.000314084 1.12093e-07 0 0.000318129 3.19885e-08 0 0.00031995 1.22981e-08 0 
0.000317006 6.64926e-08 0 0.00032199 -4.03829e-09 0 0.000324024 -1.54844e-08 0 
0.000320696 1.25457e-09 0 0.00032575 -3.07859e-08 0 0.000327955 -4.00586e-08 0 
0.000324513 -4.57444e-08 0 0.000329911 -4.69577e-08 0 0.000332261 -4.51609e-08 0 
0.000328151 -8.79907e-08 0 0.000336064 -3.19075e-08 0 0.000338558 -5.45146e-10 0 
0.000333933 -7.17403e-08 0 0.000335446 -9.64636e-08 0 0.000331667 -1.38443e-07 0 
0.000340264 1.99378e-08 0 0.000342804 5.80487e-08 0 0.000339444 2.54132e-08 0 
0.000343867 1.55016e-07 0 0.000273924 -7.95818e-06 0 0.000276989 -7.44499e-06 0 
0.000270555 -9.76372e-06 0 0.000271098 -8.63081e-06 0 0.000277163 -6.55355e-06 0 
0.000281792 -4.97997e-06 0 0.000279284 -5.59942e-06 0 0.000285517 -3.8616e-06 0 
0.000283825 -4.60946e-06 0 0.000283965 -5.04501e-06 0 0.00028133 -6.46984e-06 0 
0.000287554 -3.81498e-06 0 0.000309631 -2.52532e-06 0 0.000309051 -2.04844e-06 0 
0.000306029 -2.77142e-06 0 0.000310663 -3.0373e-06 0 0.000313425 -2.32106e-06 0 
0.000313469 -1.38053e-06 0 0.000311826 -1.01016e-06 0 0.000310722 -1.45601e-06 0 
0.000314932 -1.53755e-06 0 0.000315829 -1.11113e-06 0 0.000315898 -1.7774e-06 0 
0.000316902 -2.18199e-06 0 0.00031823 -1.46468e-06 0 0.000307331 -1.6141e-06 0 
0.000242283 -2.52236e-05 0 0.000248892 -2.17291e-05 0 0.000245115 -2.61981e-05 0 
0.000236218 -2.87055e-05 0 0.00024079 -2.4286e-05 0 0.000243357 -2.97179e-05 0 
0.00025056 -2.56755e-05 0 0.000241874 -3.46301e-05 0 0.000235959 -3.48008e-05 0 
0.000231114 -3.2849e-05 0 0.000231739 -3.49645e-05 0 0.000224734 -3.77697e-05 0 
0.000229931 -3.13682e-05 0 0.000229415 -4.036e-05 0 0.000290432 -3.6656e-06 0 
0.000289324 -3.39935e-06 0 0.000286214 -4.42202e-06 0 0.000291454 -3.95237e-06 0 
0.000294152 -3.0091e-06 0 0.000282886 -5.57074e-06 0 0.000279911 -6.70542e-06 0 
0.000284823 -5.72984e-06 0 0.000281443 -5.4093e-06 0 0.000286748 -5.98431e-06 0 
0.000289312 -4.97009e-06 0 0.000293033 -4.26658e-06 0 0.000303366 -3.74633e-07 0 
0.000300195 -7.6231e-07 0 0.000301299 -6.96786e-07 0 0.000306785 -9.90314e-08 0 
0.000305754 -1.06393e-07 0 0.00030187 -7.84479e-07 0 0.000298337 -1.21363e-06 0 
0.000302265 -9.41435e-07 0 0.000304851 -4.9929e-07 0 0.000307078 -1.91227e-07 0 
0.00030907 1.49735e-08 0 0.000307496 -3.17997e-07 0 0.000329441 -9.03621e-07 0 
0.000327732 -8.85431e-07 0 0.00032654 -1.1765e-06 0 0.000330744 -9.16285e-07 0 
0.000331833 -6.6612e-07 0 0.000328344 -6.6007e-07 0 0.000325579 -8.34969e-07 0 
0.000330495 -5.12624e-07 0 0.000328341 -4.95413e-07 0 0.000333254 -4.81365e-07 0 
0.000335482 -2.39965e-07 0 0.000332828 -4.08402e-07 0 0.0003346 -4.30672e-07 0 
0.000332655 -3.12807e-07 0 0.00032295 -3.35027e-06 0 0.000321601 -3.11433e-06 0 
0.000319511 -3.82858e-06 0 0.00032364 -3.63632e-06 0 0.000325624 -2.90897e-06 0 
0.000323391 -4.0828e-06 0 0.000320526 -4.6864e-06 0 0.00032303 -4.64207e-06 0 
0.000326048 -3.53576e-06 0 0.000317812 -4.60491e-06 0 0.000316346 -4.25681e-06 0 
0.000317407 -5.23468e-06 0 0.000203219 -6.79258e-05 0 0.000214129 -6.13327e-05 0 
0.000199763 -7.68397e-05 0 0.000184087 -8.05741e-05 0 0.000203911 -6.16361e-05 0 
0.000203656 -7.93355e-05 0 0.00018469 -9.095e-05 0 0.000154659 -0.000106882 0 
0.000160168 -9.68033e-05 0 0.000157251 -0.000111031 0 0.000161152 -0.000112735 0 
0.000124004 -0.000134702 0 0.000289866 -8.31373e-06 0 0.000295536 -6.91467e-06 0 
0.000290661 -9.9207e-06 0 0.000287194 -8.01618e-06 0 0.00029245 -5.60217e-06 0 
0.000296444 -4.32281e-06 0 0.000299311 -3.5898e-06 0 0.000297941 -4.86241e-06 0 
0.000294332 -4.2455e-06 0 0.000298693 -5.86065e-06 0 0.000249329 -1.83536e-05 0 
0.000243504 -2.17859e-05 0 0.000246795 -1.90616e-05 0 0.000254867 -1.54073e-05 0 
0.000252277 -1.7758e-05 0 0.000257869 -1.34689e-05 0 0.000255528 -1.4439e-05 0 
0.000260848 -1.21706e-05 0 0.000262383 -1.15852e-05 0 0.00025717 -1.3992e-05 0 
0.0002439 -2.02265e-05 0 0.000249568 -1.72631e-05 0 0.000259791 -1.32751e-05 0 
0.000253045 -1.55824e-05 0 0.000319714 -3.53785e-07 0 0.000317781 -4.31667e-07 0 
0.000319986 -5.35412e-07 0 0.000321506 -3.12359e-07 0 0.000319384 -2.24381e-07 0 
0.000315469 -1.73705e-07 0 0.000317562 -1.26624e-07 0 0.000315533 -5.20203e-08 0 
0.000313813 -2.67306e-07 0 0.000316001 -3.49453e-07 0 0.000319237 -1.14587e-07 0 
0.000316092 -5.60479e-07 0 0.000303441 -5.63119e-06 0 0.000305593 -5.1565e-06 0 
0.000302973 -5.03817e-06 0 0.000299762 -6.15939e-06 0 0.000302538 -6.25864e-06 0 
0.000297419 -6.05405e-06 0 0.000299795 -5.1325e-06 0 0.000296417 -5.6598e-06 0 
0.000296443 -6.73134e-06 0 0.000302082 -4.65959e-06 0 0.000305678 -3.46314e-07 0 
0.000304676 -3.1294e-07 0 0.000306963 -1.16326e-07 0 0.000306267 -3.91901e-07 0 
0.000303931 -6.93215e-07 0 0.000302659 -5.10565e-07 0 0.000304474 -2.3589e-07 0 
0.000300498 -1.06395e-06 0 0.000299981 -9.05273e-07 0 0.000301762 -1.04397e-06 0 
0.000298975 -1.57437e-06 0 0.000302794 -1.10745e-06 0 0.000274628 -2.27025e-05 0 
0.000276468 -1.86844e-05 0 0.000279689 -2.1471e-05 0 0.000270054 -2.70222e-05 0 
0.000266844 -2.37038e-05 0 0.000278183 -1.53229e-05 0 0.000271951 -1.62735e-05 0 
0.000278385 -1.23842e-05 0 0.0002826 -1.41841e-05 0 0.000266879 -2.02363e-05 0 
0.000267663 -1.67347e-05 0 0.000261869 -2.39577e-05 0 0.00033469 -8.1961e-07 0 
0.000333343 -1.26867e-06 0 0.000335407 -5.89844e-07 0 0.000331893 -1.15817e-06 0 
0.000328085 -2.05566e-06 0 0.000327345 -2.47404e-06 0 0.000330406 -1.80234e-06 0 
0.000328973 -1.64105e-06 0 0.000325905 -2.17827e-06 0 0.000332661 -1.61155e-06 0 
0.00032977 -1.32337e-06 0 0.000272918 -8.3001e-06 0 0.000271286 -9.23634e-06 0 
0.000276172 -7.57676e-06 0 0.000273852 -7.66051e-06 0 0.000268609 -9.4926e-06 0 
0.000264095 -1.17668e-05 0 0.000263385 -1.1474e-05 0 0.000259421 -1.32572e-05 0 
0.000264704 -1.20422e-05 0 0.000268197 -1.04332e-05 0 0.000271718 -9.59376e-06 0 
0.000264308 -1.08744e-05 0 0.000297509 -2.2014e-06 0 0.000300138 -1.52907e-06 0 
0.000296208 -1.97231e-06 0 0.000298333 -2.50089e-06 0 0.000303381 -1.17256e-06 0 
0.000303416 -2.01971e-06 0 0.00030543 -1.38448e-06 0 0.000300988 -2.18602e-06 0 
0.000303071 -2.41271e-06 0 0.000307134 -8.39831e-07 0 0.000297905 -2.92766e-06 0 
0.000292109 -2.60707e-06 0 0.000295193 -1.84639e-06 0 0.000288075 -3.35507e-06 0 
0.000294536 -1.79784e-06 0 0.000294882 -1.67263e-06 0 0.000291355 -2.41515e-06 0 
0.000287516 -3.30467e-06 0 0.00028425 -4.19307e-06 0 0.000287864 -3.20773e-06 0 
0.000209411 -5.2719e-05 0 0.000196253 -6.06998e-05 0 0.000215876 -4.53109e-05 0 
0.000220562 -4.68833e-05 0 0.000207149 -4.64819e-05 0 0.000218221 -3.83734e-05 0 
0.000215833 -4.25806e-05 0 0.00019512 -5.54006e-05 0 0.000188579 -6.17978e-05 0 
0.000175955 -7.41379e-05 0 0.000223302 -5.43907e-05 0 0.00022302 -6.13094e-05 0 
0.000225051 -4.70976e-05 0 0.000233007 -4.69095e-05 0 0.000226789 -6.56602e-05 0 
0.00021627 -7.35946e-05 0 0.000236583 -6.21216e-05 0 0.000231732 -7.49259e-05 0 
0.000244111 -5.20029e-05 0 0.00024045 -4.63505e-05 0 0.000251545 -4.39302e-05 0 
0.000240725 -3.96664e-05 0 0.000329837 -2.36595e-07 0 0.000328422 -3.36284e-07 0 
0.000331859 -2.65079e-07 0 0.000328422 -1.75326e-07 0 0.000324109 -1.64639e-07 0 
0.000326478 -1.52748e-07 0 0.000324045 -7.76372e-08 0 0.000321514 -1.22348e-07 0 
0.000323771 -2.44828e-07 0 0.000324288 -3.49249e-07 0 0.000324027 -5.39373e-07 0 
0.000326435 -4.17195e-07 0 0.00030582 -7.22685e-06 0 0.000304182 -8.17799e-06 0 
0.000308003 -7.71156e-06 0 0.000307823 -6.27945e-06 0 0.00030394 -6.66294e-06 0 
0.000312094 -5.90851e-06 0 0.000310438 -5.42339e-06 0 0.000312284 -6.65102e-06 0 
0.000314688 -5.76477e-06 0 0.00031113 -7.54786e-06 0 0.000313752 -7.34779e-06 0 
0.000321532 -6.17966e-06 0 0.000323641 -6.14973e-06 0 0.000322764 -5.38766e-06 0 
0.000318876 -6.0681e-06 0 0.000328671 -4.17688e-06 0 0.000328946 -3.53103e-06 0 
0.00032553 -4.64419e-06 0 0.00032863 -4.66235e-06 0 0.000327294 -5.3906e-06 0 
0.000325215 -6.12703e-06 0 0.000327215 -6.13627e-06 0 0.000341336 2.78335e-07 0 
0.000338202 -3.09147e-08 0 0.00033915 6.67727e-08 0 0.000342395 3.23591e-07 0 
0.000342011 2.16808e-07 0 0.000342465 1.49394e-07 0 0.000340816 1.06375e-07 0 
0.000337594 -6.38536e-08 0 0.000338999 2.28368e-08 0 0.000336402 -9.60796e-08 0 
0.000254609 -1.79285e-05 0 0.000257603 -1.83956e-05 0 0.000260058 -1.47515e-05 0 
0.000265098 -1.23052e-05 0 0.000268593 -1.18763e-05 0 0.000262752 -1.23955e-05 0 
0.000267619 -1.40765e-05 0 0.000273111 -1.10952e-05 0 0.00026235 -1.74124e-05 0 
0.000257031 -2.15518e-05 0 0.000232234 -2.68593e-05 0 0.000225898 -3.09206e-05 0 
0.000238112 -2.34246e-05 0 0.00023493 -2.59574e-05 0 0.000221085 -3.5053e-05 0 
0.000226646 -3.24065e-05 0 0.000231742 -2.86801e-05 0 0.00023798 -2.48252e-05 0 
0.000281223 -8.48534e-06 0 0.00028411 -7.22435e-06 0 0.000278928 -8.13309e-06 0 
0.000277945 -9.70772e-06 0 0.000283225 -8.76585e-06 0 0.000289889 -8.15505e-06 0 
0.000293659 -7.65324e-06 0 0.000290234 -7.12155e-06 0 0.000285761 -8.77931e-06 0 
0.000288638 -6.44856e-06 0 0.000292455 -5.95696e-06 0 0.000316126 8.42042e-08 0 
0.000314647 1.20306e-07 0 0.000315375 5.32033e-08 0 0.000318168 2.2794e-08 0 
0.000313092 1.49102e-07 0 0.000311057 1.56468e-07 0 0.000311144 1.20312e-07 0 
0.000311625 6.10917e-08 0 0.000313439 3.87004e-08 0 0.000311437 -7.63031e-08 0 
0.000322888 -2.57747e-06 0 0.00031948 -2.93186e-06 0 0.000323867 -2.08793e-06 0 
0.00032 -2.0401e-06 0 0.000317693 -2.61102e-06 0 0.000322291 -2.01125e-06 0 
0.000321475 -1.68292e-06 0 0.00031627 -3.16802e-06 0 0.000325264 -1.72058e-06 0 
0.000320355 -1.25012e-06 0 0.000322103 -1.37726e-06 0 0.000323097 -1.01717e-06 0 
0.000319374 -1.06433e-06 0 0.000321684 -6.50297e-07 0 0.000323862 -7.48655e-07 0 
0.000319646 -7.77481e-07 0 0.000317618 -9.23598e-07 0 5.4921e-05 -0.000191315 0 
8.40555e-05 -0.000167141 0 9.03459e-05 -0.00016692 0 3.55397e-05 -0.000204625 0 
5.89705e-05 -0.000180412 0 9.24896e-05 -0.000149686 0 8.37572e-05 -0.000163323 0 
3.71166e-05 -0.00020091 0 2.89443e-05 -0.000209152 0 0.00027707 -6.49579e-06 0 
0.000280942 -5.20332e-06 0 0.000273091 -7.60214e-06 0 0.00028013 -5.28957e-06 0 
0.000275459 -6.748e-06 0 0.000271689 -8.0985e-06 0 0.000272841 -7.60781e-06 0 
0.000269178 -8.91091e-06 0 0.000337974 -1.06275e-07 0 0.000335203 -5.20319e-07 0 
0.000339894 2.40621e-07 0 0.000340082 2.26259e-07 0 0.000336861 -2.17284e-07 0 
0.000335432 -4.25881e-07 0 0.000332911 -7.59752e-07 0 0.000331394 -2.70026e-06 0 
0.000328339 -3.21187e-06 0 0.000333197 -1.95307e-06 0 0.000333217 -1.67303e-06 0 
0.000330251 -2.33127e-06 0 0.000328575 -2.83704e-06 0 0.000328003 -2.65616e-06 0 
0.000309077 -3.71589e-06 0 0.000312994 -3.40902e-06 0 0.000305892 -3.92806e-06 0 
0.0003084 -4.34332e-06 0 0.000314884 -3.81835e-06 0 0.000313031 -4.60322e-06 0 
0.000308819 -4.87953e-06 0 0.000201603 -9.69548e-05 0 0.000220002 -8.94616e-05 0 
0.000195694 -0.000111595 0 0.000176781 -0.000109896 0 0.000207905 -8.36133e-05 0 
0.000103583 -0.000162336 0 0.000142109 -0.00013338 0 0.000119462 -0.000157053 0 
0.000157592 -0.000137756 0 0.000298644 -1.03531e-06 0 0.000296022 -1.46008e-06 0 
0.000295906 -1.7283e-06 0 0.000293002 -2.08157e-06 0 0.000291196 -2.8732e-06 0 
0.000293066 -2.73368e-06 0 0.000291003 -2.62298e-06 0 0.000289613 -2.84053e-06 0 
0.000311164 1.50764e-07 0 0.000309149 1.15848e-07 0 0.000309657 1.02142e-07 0 
0.000307931 5.14625e-08 0 0.000307403 2.83398e-08 0 0.00030832 3.59408e-08 0 
0.000304534 -1.8749e-06 0 0.000303248 -3.08508e-06 0 0.00030239 -2.55519e-06 0 
0.000305467 -1.22509e-06 0 0.000301286 -2.28622e-06 0 0.000299213 -2.27039e-06 0 
0.000302241 -1.57146e-06 0 0.000305721 -8.7813e-07 0 0.000304286 -1.09711e-06 0 
0.000306081 -5.93356e-07 0 0.000304119 -3.43315e-06 0 0.000301751 -4.62292e-06 0 
0.000304685 -3.85999e-06 0 0.000301101 -8.16194e-06 0 0.000304051 -5.41496e-06 0 
0.000297758 -1.0131e-05 0 0.000299972 -6.81446e-06 0 0.000282478 -9.78818e-06 0 
0.000277117 -1.07202e-05 0 0.0002859 -6.86897e-06 0 0.000277514 -8.8456e-06 0 
0.000284686 -6.05303e-06 0 0.000288894 -4.77606e-06 0 0.000284553 -2.01443e-05 0 
0.000290445 -1.8209e-05 0 0.000285752 -1.62058e-05 0 0.000286912 -1.30049e-05 0 
0.000293415 -1.12817e-05 0 0.000294948 -1.37952e-05 0 0.000303063 -3.38462e-06 0 
0.000302458 -2.83802e-06 0 0.000299055 -4.11066e-06 0 0.000302876 -3.97509e-06 0 
0.00029993 -3.03328e-06 0 0.000295305 -4.33415e-06 0 0.000297209 -3.39481e-06 0 
0.000295102 -4.98512e-06 0 0.000311912 -2.29874e-07 0 0.000309824 -2.23339e-07 0 
0.000312265 -4.36267e-07 0 0.000309693 -7.08048e-07 0 0.000307843 -5.12671e-07 0 
0.00031182 -7.30649e-07 0 0.000256164 -1.4827e-05 0 0.000255247 -1.47454e-05 0 
0.000251641 -1.67858e-05 0 0.000247051 -1.8666e-05 0 0.000249365 -1.73577e-05 0 
0.00024449 -1.97459e-05 0 0.000151177 -9.09076e-05 0 0.0001646 -8.7826e-05 0 
0.000120736 -0.000113874 0 9.89763e-05 -0.000137795 0 0.000129484 -0.000119161 0 
0.000278467 -7.59733e-06 0 0.000275142 -8.99146e-06 0 0.00027472 -1.04931e-05 0 
0.000271496 -1.09726e-05 0 0.000272346 -1.00735e-05 0 0.000267782 -1.16743e-05 0 
0.000334085 -1.95807e-07 0 0.000317551 -5.88679e-06 0 0.000316262 -6.68676e-06 0 
0.000270075 -3.14882e-05 0 0.000266843 -3.76008e-05 0 0.000261177 -3.21518e-05 0 
0.000258587 -4.31096e-05 0 0.000254321 -3.79736e-05 0 0.000255078 -3.31997e-05 0 
0.000320177 -6.20022e-09 0 0.000319689 -5.11955e-08 0 0.0003224 -3.96722e-08 0 
0.000297833 -8.14362e-06 0 0.000300956 -8.45102e-06 0 0.000300351 -7.2432e-06 0 
0.000296206 -7.72514e-06 0 0.000291672 -3.52714e-06 0 0.000292769 -4.04212e-06 0 
0.000296343 -2.17827e-06 0 0.000296575 -3.03378e-06 0 0.000297968 -2.17006e-06 0 
0.000268098 -9.57897e-06 0 0.000264614 -1.1144e-05 0 0.00026547 -1.04223e-05 0 
0.000241467 -2.12963e-05 0 0.000330443 -1.08475e-06 0 0.00032756 -1.45671e-06 0 
0.000324296 -1.36706e-06 0 0.000326012 -1.43108e-06 0 0.00031434 -7.04529e-07 0 
0.000316243 -7.91346e-07 0 0.000256014 -2.47812e-05 0 0.000248464 -3.3829e-05 0 
0.000255376 -2.86071e-05 0 0.000266411 -9.96938e-06 0 0.000265967 -1.01102e-05 0 
0.000283474 -4.32323e-05 5.98086e-07 0.00027061 -5.94027e-05 1.00878e-07 0.000293716 -2.95602e-05 1.08904e-06 
0.000300781 -1.72258e-05 1.42948e-06 0.000304408 -5.72278e-06 1.67118e-06 0.000255133 -7.95432e-05 -1.4895e-07 
0.000234817 -0.000103394 -4.4151e-06 0.000127446 -8.34687e-05 -5.4229e-05 7.14101e-05 -7.06113e-05 -3.47509e-05 
6.31767e-05 -8.83245e-05 -9.78302e-05 0.000159402 -9.237e-05 -5.54442e-05 0.000176754 -9.21156e-05 -1.89965e-05 
0.000304995 -2.83539e-06 2.54451e-06 0.000304637 -2.87829e-06 8.47332e-07 0.000304022 -8.48611e-06 2.43323e-06 
0.000303705 -8.59369e-06 8.20363e-07 0.000301917 -1.4365e-05 7.47061e-07 0.00029923 -2.02698e-05 6.79988e-07 
0.000303033 -1.1402e-05 1.57323e-06 0.000291421 -3.29296e-05 4.84099e-07 0.000295697 -2.64689e-05 5.98066e-07 
0.000297663 -2.32554e-05 1.2874e-06 0.000280485 -4.71274e-05 2.33448e-07 0.000286303 -3.9753e-05 3.54158e-07 
0.000289005 -3.61479e-05 8.30308e-07 0.00027407 -5.51942e-05 1.06532e-07 0.000266997 -6.42059e-05 2.91945e-08 
0.000277367 -5.0912e-05 3.38034e-07 0.000259453 -7.44014e-05 2.60313e-08 0.000251399 -8.62992e-05 -1.23615e-07 
0.000263138 -6.88493e-05 4.95974e-08 0.000243183 -9.94003e-05 -4.39398e-07 0.000227905 -0.000105648 -5.53073e-06 
0.000247347 -9.17024e-05 -7.90605e-08 0.000201884 -9.94097e-05 -2.29327e-05 0.000299503 -2.00654e-05 2.05856e-06 
0.000302222 -1.42072e-05 2.26885e-06 0.000295948 -2.61868e-05 1.79566e-06 0.000291547 -3.25985e-05 1.44218e-06 
0.000286381 -3.94135e-05 1.07194e-06 0.000280559 -4.67731e-05 6.83861e-07 0.000266933 -6.36377e-05 2.35637e-08 
0.000274069 -5.48182e-05 3.07934e-07 0.000250886 -8.42859e-05 -4.53585e-08 0.000259034 -7.34908e-05 -1.79212e-07 
0.00021665 -0.000100289 -1.89328e-05 0.000240273 -9.57848e-05 -2.88539e-06 0.00034937 3.94357e-07 -1.23854e-06 
0.000348748 1.10808e-06 -1.21863e-06 0.000347554 1.6303e-06 -1.17894e-06 0.000345887 1.83419e-06 -1.12625e-06 
0.000341714 1.01964e-06 -9.9865e-07 0.000339544 -4.35276e-08 -9.36813e-07 0.000337531 -1.47491e-06 -8.91188e-07 
0.000334295 -4.9272e-06 -8.57943e-07 0.000343883 1.6436e-06 -1.06387e-06 0.000335781 -3.16157e-06 -8.6404e-07 
0.000333942 -5.36793e-06 -1.28635e-06 0.000333948 -5.36108e-06 -4.28137e-07 0.000334644 -4.48989e-06 -1.28848e-06 
0.000349414 1.99118e-07 -6.20253e-07 0.000349457 1.96914e-07 -1.86138e-06 0.000349297 5.81595e-07 -1.85235e-06 
0.000334654 -4.4826e-06 -4.29228e-07 0.000349256 5.87449e-07 -6.17972e-07 0.000348485 1.26768e-06 -6.05603e-07 
0.000348946 9.48108e-07 -6.12085e-07 0.000349134 7.69549e-07 -1.23048e-06 0.000348985 9.38291e-07 -1.83841e-06 
0.000347166 1.71887e-06 -5.83835e-07 0.000347889 1.53149e-06 -5.94516e-07 0.000348522 1.25556e-06 -1.81538e-06 
0.000348216 1.40343e-06 -1.20077e-06 0.000347922 1.51548e-06 -1.78635e-06 0.000345405 1.83424e-06 -5.55943e-07 
0.000346331 1.82454e-06 -5.70451e-07 0.000347194 1.69915e-06 -1.74924e-06 0.000346771 1.77483e-06 -1.15423e-06 
0.000346357 1.80181e-06 -1.71082e-06 0.000343349 1.53615e-06 -5.24446e-07 0.000344404 1.73962e-06 -5.3926e-07 
0.000345426 1.81157e-06 -1.66663e-06 0.00034492 1.79213e-06 -1.09612e-06 0.000344419 1.71524e-06 -1.62092e-06 
0.000341164 7.99447e-07 -4.92261e-07 0.000342264 1.22314e-06 -5.0626e-07 0.000342268 1.19858e-06 -1.52286e-06 
0.000342812 1.38489e-06 -1.03118e-06 0.000343359 1.51152e-06 -1.57057e-06 0.000339024 -3.63944e-07 -4.61644e-07 
0.000340079 2.67636e-07 -4.75221e-07 0.000341163 7.76159e-07 -1.47212e-06 0.000340617 5.38807e-07 -9.65962e-07 
0.000340072 2.46201e-07 -1.42678e-06 0.000337072 -1.87196e-06 -4.4147e-07 0.000338017 -1.08325e-06 -4.50448e-07 
0.000339014 -3.84147e-07 -1.3855e-06 0.000338509 -7.20634e-07 -9.12185e-07 0.000338004 -1.10125e-06 -1.35132e-06 
0.000335395 -3.59536e-06 -4.30455e-07 0.000336198 -2.71872e-06 -4.34287e-07 0.000337057 -1.88636e-06 -1.32236e-06 
0.000336622 -2.29475e-06 -8.7476e-07 0.000336184 -2.73062e-06 -1.30228e-06 0.000335014 -4.042e-06 -8.5969e-07 
0.000335382 -3.60447e-06 -1.29326e-06 0.000306085 0 1.33536e-06 0.00030696 0 7.11185e-07 
0.000307286 0 2.71901e-07 0.000307869 0 -4.03407e-08 0.000308967 0 -2.7295e-07 
0.000310667 0 -4.56797e-07 0.000312967 0 -5.91557e-07 0.000315837 0 -7.02073e-07 
0.000319232 0 -7.89282e-07 0.000323087 0 -8.64271e-07 0.000327342 0 -9.29245e-07 
0.000336791 0 -1.05239e-06 0.000341828 0 -1.12014e-06 0.000346924 0 -1.19927e-06 
0.000331938 0 -9.90171e-07 0.000348218 0 -1.83023e-06 0.000348176 0 -6.10253e-07 
0.000345677 0 -1.76684e-06 0.000305466 0 7.54809e-07 0.000305814 0 2.28054e-06 
0.000306656 0 1.72404e-06 0.000345637 0 -5.89269e-07 0.000306343 0 5.84044e-07 
0.000307033 0 1.26383e-06 0.000307211 0 8.8235e-07 0.000306704 0 1.00105e-06 
0.000306771 0 4.26059e-07 0.000307345 0 5.54038e-07 0.000307507 0 2.7559e-07 
0.000307146 0 4.71765e-07 0.00030698 0 2.93268e-07 0.000307141 0 1.86529e-07 
0.000307777 0 4.37222e-08 0.000308172 0 -1.59074e-07 0.000307531 0 1.07137e-07 
0.000307334 0 9.25344e-08 0.000307632 0 1.51117e-08 0.00030871 0 -3.33384e-07 
0.000309391 0 -4.86531e-07 0.000308351 0 -1.64192e-07 0.000308046 0 -5.33631e-08 
0.000308602 0 -1.09844e-07 0.000310234 0 -6.21219e-07 0.000311236 0 -7.38708e-07 
0.000309735 0 -3.71837e-07 0.000309294 0 -1.60623e-07 0.000310149 0 -2.08592e-07 
0.00031238 0 -8.41002e-07 0.000313673 0 -9.33884e-07 0.00031175 0 -5.28526e-07 
0.000311164 0 -2.47459e-07 0.000312318 0 -2.79902e-07 0.000315105 0 -1.01511e-06 
0.000316671 0 -1.08823e-06 0.000314339 0 -6.4921e-07 0.000313613 0 -3.10469e-07 
0.000315052 0 -3.3813e-07 0.000318365 0 -1.15391e-06 0.000320179 0 -1.21395e-06 
0.000317477 0 -7.48297e-07 0.000316626 0 -3.62604e-07 0.000318325 0 -3.8444e-07 
0.000322105 0 -1.26952e-06 0.000324136 0 -1.32139e-06 0.000321104 0 -8.28403e-07 
0.000320139 0 -4.0448e-07 0.000322069 0 -4.23426e-07 0.000326264 0 -1.3701e-06 
0.000328481 0 -1.41704e-06 0.000325168 0 -8.9721e-07 0.000324103 0 -4.40449e-07 
0.000326232 0 -4.56749e-07 0.000330779 0 -1.46304e-06 0.000333149 0 -1.50902e-06 
0.000329601 0 -9.5998e-07 0.000328451 0 -4.72322e-07 0.000330749 0 -4.87379e-07 
0.000335577 0 -1.5552e-06 0.00033806 0 -1.60279e-06 0.000334337 0 -1.02124e-06 
0.000335546 0 -5.18333e-07 0.000333118 0 -5.02654e-07 0.00034058 0 -1.65384e-06 
0.000343125 0 -1.70723e-06 0.000339295 0 -1.08496e-06 0.000338026 0 -5.34556e-07 
0.000340546 0 -5.51059e-07 0.000344377 0 -1.15839e-06 0.000343089 0 -5.69819e-07 
0.000204407 -6.97082e-05 -3.28636e-06 0.00026836 -1.82417e-05 -4.5624e-07 0.000307729 -7.69318e-08 -6.2731e-07 
0.000317135 -6.36666e-06 -1.01859e-06 0.00031803 -2.86542e-06 -1.05418e-06 0.000321259 -2.93516e-07 -8.95435e-07 
0.000283873 -1.14598e-05 -1.72584e-07 0.000325656 -2.5078e-07 -9.3135e-07 0.000311771 -8.29168e-06 -9.73752e-07 
0.000184579 -7.16049e-05 -6.77687e-06 0.000183213 -9.94937e-05 -7.9029e-06 0.000303952 -2.61572e-07 -5.80091e-07 
0.000258581 -2.94566e-05 -6.32693e-07 0.000311626 -4.08689e-06 -9.99603e-07 0.000306733 -5.22826e-07 -8.19077e-07 
0.000316308 -5.1323e-06 -9.80816e-07 0.000318501 -1.88976e-06 -9.69018e-07 0.000319481 -2.93032e-06 -9.84046e-07 
0.000320838 -2.40852e-06 -9.82053e-07 0.000319444 -2.63107e-06 -1.50841e-06 0.000319442 -2.63386e-06 -5.26493e-07 
0.000318069 -3.18297e-06 -1.51182e-06 0.000318143 -3.51355e-06 -9.84522e-07 0.000318071 -3.18592e-06 -5.2828e-07 
0.000319399 -2.19176e-07 -8.70273e-07 0.000317615 -2.47791e-07 -8.61524e-07 0.000319456 -2.66013e-07 -1.3174e-06 
0.000319428 -2.77103e-07 -4.39107e-07 0.000321202 -2.37545e-07 -1.33265e-06 0.000212415 -6.83704e-05 -2.80279e-06 
0.000213604 -6.07435e-05 -2.46031e-06 0.000210895 -6.15123e-05 -1.19673e-06 0.000207743 -6.80391e-05 -4.75503e-06 
0.000208963 -6.92737e-05 -1.40895e-06 0.000321102 -1.97062e-07 -8.81399e-07 0.000321174 -2.46121e-07 -4.44208e-07 
0.000267671 -1.66373e-05 -6.28031e-07 0.000272644 -1.32734e-05 -5.68274e-07 0.000265372 -1.92488e-05 -8.87766e-07 
0.000270538 -1.54775e-05 -7.87318e-07 0.000270512 -1.56547e-05 -2.31245e-07 0.000309093 3.12822e-08 -7.07903e-07 
0.000309491 -6.17423e-08 -7.52356e-07 0.000308593 -7.50321e-08 -3.20269e-07 0.00030863 -4.65553e-08 -1.05719e-06 
0.000308252 6.51415e-09 -3.00622e-07 0.000262318 -2.05244e-05 -7.03514e-07 0.00026536 -1.94396e-05 -2.61272e-07 
0.000306855 -8.26622e-07 2.31458e-07 0.000306714 -9.60076e-07 1.52756e-07 0.000305738 -2.34069e-06 4.77591e-07 
0.000307067 -8.05273e-07 7.01653e-07 0.000306114 -2.41317e-06 6.72467e-07 0.000308776 8.57544e-08 -6.58757e-07 
0.000308295 3.74572e-08 -9.90407e-07 0.000215 -5.41122e-05 -2.19824e-06 0.000209833 -6.04031e-05 -4.08312e-06 
0.000306847 -1.01617e-06 5.79456e-07 0.000306658 -1.22602e-06 3.47877e-07 0.000306911 -1.20277e-06 1.05053e-06 
0.000263676 -1.29264e-05 -1.44652e-06 0.000260691 -1.49516e-05 -7.71195e-07 0.000257015 -1.54683e-05 -2.31975e-06 
0.000260646 -1.48772e-05 -2.3152e-06 0.000267003 -1.25683e-05 -1.44058e-06 0.000226562 -2.95027e-05 -1.03965e-06 
0.000226266 -2.92557e-05 -3.16937e-06 0.000222646 -3.20935e-05 -2.1534e-06 0.000229554 -2.78798e-05 -1.78942e-06 
0.000232958 -2.5588e-05 -2.72269e-06 0.000306898 -9.3426e-07 4.57838e-07 0.00030529 -2.13174e-06 3.07157e-07 
0.000315206 -8.23579e-06 -1.41382e-06 0.000312872 -8.95148e-06 -1.42865e-06 0.000312388 -8.96358e-06 -9.57056e-07 
0.000312255 -8.28415e-06 -1.4538e-06 0.000314692 -7.60118e-06 -1.43793e-06 0.000315229 -8.22501e-06 -4.71056e-07 
0.000312898 -8.94112e-06 -4.7586e-07 0.000314715 -7.59271e-06 -4.79552e-07 0.000312281 -8.27665e-06 -4.84706e-07 
0.00033701 -1.05987e-06 -9.30795e-07 0.000336485 -1.40632e-06 -1.38014e-06 0.000336495 -1.38823e-06 -4.60391e-07 
0.000335546 -1.35426e-06 -9.48572e-07 0.000337538 -7.58584e-07 -1.41436e-06 0.000337547 -7.36258e-07 -4.71524e-07 
0.000338639 -1.71038e-07 -4.84724e-07 0.000338635 -1.95188e-07 -1.45433e-06 0.000335552 -1.12183e-06 -9.71019e-07 
0.000338662 -5.99573e-08 -4.9682e-07 0.000339948 3.52104e-07 -1.53671e-06 0.000336914 -4.55882e-07 -1.01508e-06 
0.000338206 -9.19181e-08 -1.04023e-06 0.00033994 3.75829e-07 -5.12527e-07 2.59881e-05 -0.000213448 -2.3923e-05 
2.60642e-05 -0.000203596 -1.19002e-05 6.61675e-05 -0.000188018 -2.15637e-05 7.32423e-05 -0.000180856 -2.95107e-05 
2.42356e-05 -0.000208778 -3.52097e-05 0.000341056 6.39183e-07 -1.57764e-06 0.000340499 5.22466e-07 -1.03779e-06 
0.000341044 6.62841e-07 -5.25434e-07 0.000338088 -4.51175e-07 -9.55997e-07 0.000343011 1.11092e-06 -1.62339e-06 
0.000342993 1.13695e-06 -5.41272e-07 0.000340182 3.45586e-07 -1.0655e-06 0.000342081 7.04503e-07 -1.09317e-06 
0.000338662 -8.74718e-08 -1.4911e-06 0.000335597 -9.30193e-07 -9.90876e-07 0.000279729 -2.13371e-05 3.93187e-08 
0.000285814 -1.61014e-05 1.46477e-07 0.000281223 -1.73615e-05 -2.71459e-08 0.000297904 -2.9079e-06 -9.88103e-07 
0.000298334 -2.48207e-06 -9.63584e-07 0.000300992 -2.16761e-06 -9.49132e-07 0.000300593 -2.57489e-06 -9.73365e-07 
0.000316578 4.00546e-08 -7.27374e-07 0.000317398 3.34284e-08 -3.75003e-07 0.000315754 4.61825e-08 -3.52497e-07 
0.000342255 6.12384e-07 -1.10669e-06 0.000344909 1.20845e-06 -1.70186e-06 0.000344947 1.00478e-06 -5.73738e-07 
0.000344882 1.22997e-06 -5.67137e-07 0.000344003 1.20483e-06 -1.66473e-06 0.000344454 1.23113e-06 -1.12236e-06 
0.000343981 1.22822e-06 -5.54596e-07 0.000277252 -1.13454e-05 -2.0348e-06 0.000279523 -1.10854e-05 -1.32975e-06 
0.000280139 -9.92369e-06 -1.29255e-06 0.000277302 -1.13957e-05 -6.77966e-07 0.000281686 -1.08027e-05 -1.95521e-06 
0.000281734 -1.08455e-05 -6.5242e-07 0.000303073 -2.3978e-06 -9.6748e-07 0.000306335 -2.02417e-06 4.45726e-07 
0.000305651 -3.58804e-06 8.47831e-07 3.21167e-05 -0.000198907 -2.90337e-05 3.9977e-05 -0.000188531 -1.69976e-05 
3.57119e-05 -0.00019471 -5.06893e-05 0.000223145 -3.14332e-05 -2.28566e-06 0.000219794 -3.37715e-05 -1.26237e-06 
0.000219179 -3.34278e-05 -3.95189e-06 0.000315533 8.91362e-08 -7.0866e-07 0.000317441 3.61714e-08 -1.12433e-06 
0.000315804 4.94449e-08 -1.05469e-06 0.000334765 -2.29095e-06 -1.36039e-06 0.000333762 -2.13783e-06 -9.33383e-07 
0.000304348 -1.069e-06 -1.44589e-07 0.000302293 -1.53412e-06 -1.75874e-07 0.000302838 -1.07587e-06 -2.63533e-07 
0.000304804 -7.18635e-07 -2.36209e-07 0.000276495 -1.85677e-05 -1.96114e-07 0.000323637 -3.63942e-06 -9.70237e-07 
0.000325621 -2.91288e-06 -9.77488e-07 0.0003263 -3.1393e-06 -9.69896e-07 0.000210312 -3.90233e-05 -5.35907e-06 
0.000211451 -3.96678e-05 -1.72924e-06 0.000216742 -3.63247e-05 -2.67166e-06 0.000201847 -4.48778e-05 -6.82769e-06 
0.000263233 -1.42664e-05 -1.5192e-06 0.000265766 -1.37024e-05 -7.47092e-07 0.000265719 -1.36334e-05 -2.2402e-06 
0.000317641 -6.8831e-06 -9.47779e-07 0.000343503 1.18488e-06 -1.09606e-06 0.00032707 -6.59421e-06 -1.31398e-06 
0.000328067 -6.74833e-06 -1.29948e-06 0.000330212 -5.49114e-06 -8.74832e-07 0.00032708 -6.58287e-06 -4.38103e-07 
0.00032925 -5.35857e-06 -8.83927e-07 0.000302459 -2.82334e-06 -9.86546e-07 0.000299928 -3.01719e-06 -9.94845e-07 
0.000233087 -2.57779e-05 -9.03222e-07 0.000235708 -2.43249e-05 -1.6206e-06 0.000278453 -7.5679e-06 -1.20739e-06 
0.000274653 -8.46221e-06 -1.24477e-06 0.000276161 -7.54327e-06 -1.19378e-06 0.000271273 -9.20111e-06 -1.26692e-06 
0.000325268 -1.72167e-06 -9.87563e-07 0.000322295 -2.00999e-06 -9.81541e-07 0.000323721 -1.6563e-06 -9.8149e-07 
0.000331183 -5.61904e-06 -8.67128e-07 0.000328074 -6.73672e-06 -4.33079e-07 0.00025706 -1.55491e-05 -7.73436e-07 
0.000260471 -1.34559e-05 -1.44579e-06 0.000301342 -2.24443e-06 -8.88412e-08 0.000299377 -3.53308e-06 -6.71637e-09 
0.000298062 -3.13449e-06 -1.48299e-07 0.00030075 -3.946e-06 1.49805e-07 0.000302459 -2.51207e-06 5.05461e-08 
0.000306318 -3.72046e-07 -2.72768e-07 0.000305721 -3.26092e-07 -3.53217e-07 0.000303971 -6.64922e-07 -3.23916e-07 
6.0762e-05 -0.00015349 -6.69035e-06 4.31591e-05 -0.000174493 -4.80245e-06 8.40889e-05 -0.000142986 -1.36723e-05 
6.28388e-05 -0.000152605 -1.9754e-05 0.000106707 -0.00011958 -1.51969e-05 2.49068e-05 -0.000194946 -2.73898e-06 
2.75862e-05 -0.000197408 -8.1611e-06 4.11324e-05 -0.000190702 -7.54849e-06 2.50538e-05 -0.000208117 -4.81658e-06 
0.000282842 -9.88256e-06 -1.27083e-06 0.000284566 -1.08276e-05 -6.37756e-07 0.00026461 -1.10892e-05 -1.07591e-06 
0.000261864 -1.19621e-05 -1.15368e-06 0.000265462 -1.03718e-05 -1.12279e-06 0.000335461 -9.84576e-08 -1.03879e-06 
0.000337342 -1.8058e-08 -1.58909e-06 0.00033516 -5.84092e-08 -5.16557e-07 0.00033731 -1.74856e-08 -5.29527e-07 
0.000337698 -2.72216e-08 -1.06543e-06 2.588e-05 -0.000208972 -7.73667e-06 5.64466e-05 -0.000193087 -1.65031e-05 
2.03988e-05 -0.00020466 -3.80947e-06 1.73629e-05 -0.000213602 -4.19843e-06 1.58323e-05 -0.000210837 -1.43724e-06 
0.000304809 -9.50035e-06 -1.03269e-06 0.000303086 -9.59245e-06 -5.25542e-07 0.000306524 -9.40594e-06 -5.07732e-07 
0.000267762 -1.16387e-05 -1.39431e-06 0.00027233 -1.00412e-05 -1.32374e-06 0.000268751 -1.07334e-05 -1.3481e-06 
0.000324302 -1.36614e-06 -9.78744e-07 0.000326018 -1.43182e-06 -9.88113e-07 0.00032721 -6.1422e-06 -8.84386e-07 
0.000325083 -7.35663e-06 -4.36633e-07 0.000292344 -2.5653e-05 4.46296e-07 0.000294758 -2.2848e-05 9.9243e-07 
0.000291138 -2.21367e-05 6.9129e-07 0.000292529 -2.53483e-05 1.32524e-06 0.000332509 -4.30416e-06 -1.31359e-06 
0.000333451 -4.40925e-06 -1.29944e-06 0.000332521 -4.29421e-06 -4.37756e-07 0.000303333 -3.03636e-06 2.3805e-07 
0.000299265 -2.22799e-06 -2.27497e-07 0.000289939 -2.85006e-05 7.89734e-07 0.000304808 -3.82926e-06 6.23423e-07 
0.000305782 -8.58423e-07 -7.03789e-08 0.000306141 -5.74248e-07 -1.70033e-07 0.000306491 -9.40743e-06 -1.52158e-06 
0.00030652 -8.66838e-06 -1.02018e-06 0.00030305 -9.58889e-06 -1.57875e-06 0.000344977 9.87609e-07 -1.71991e-06 
0.000342346 5.05407e-07 -1.11611e-06 0.000346281 5.92522e-07 -1.77377e-06 0.000347747 6.18284e-07 -1.81101e-06 
0.000346561 2.63865e-07 -1.19173e-06 0.000347708 6.27818e-07 -6.03587e-07 0.000345167 2.92106e-07 -1.16861e-06 
0.000344242 7.77047e-08 -1.73318e-06 0.00034289 1.02323e-07 -1.70186e-06 0.000344203 7.97954e-08 -5.77376e-07 
0.000323386 -4.08699e-06 -9.62984e-07 0.000326044 -3.5411e-06 -9.60676e-07 0.000311465 6.49591e-08 -2.63605e-07 
0.00031093 5.4501e-08 -4.90905e-07 0.000310376 3.90762e-08 -2.25825e-07 0.000311194 1.59741e-07 -5.94641e-07 
0.000311084 1.67338e-07 -6.37861e-07 0.00030951 1.36406e-07 -5.62797e-07 0.000309172 1.29947e-07 -6.10677e-07 
0.000333463 -4.40234e-06 -4.33198e-07 0.000271703 -9.56076e-06 -1.29499e-06 0.000275126 -8.95998e-06 -1.27377e-06 
0.000317965 -6.37938e-07 -9.06808e-07 0.000317793 -4.25274e-07 -8.84749e-07 0.000319728 -3.48736e-07 -8.89694e-07 
0.000319997 -5.30271e-07 -9.09932e-07 0.000262375 -1.1535e-05 -1.19197e-06 0.000257161 -1.394e-05 -1.23483e-06 
3.76803e-05 -0.000202032 -7.59143e-06 0.000268181 -1.03975e-05 -1.32008e-06 0.000346244 6.01721e-07 -5.91112e-07 
0.000343726 2.76774e-07 -1.14583e-06 0.000342854 1.06256e-07 -5.67647e-07 0.000291767 -2.27291e-06 -7.63962e-07 
0.000294898 -1.64184e-06 -7.51265e-07 0.000294549 -1.76785e-06 -8.00219e-07 0.000291368 -2.38177e-06 -8.16266e-07 
0.000303975 -1.51362e-06 -4.31869e-08 0.000332727 -7.87654e-08 -5.01369e-07 0.000331111 -4.60692e-08 -1.47015e-06 
0.000331681 -1.39264e-07 -9.9204e-07 0.000330133 -9.82005e-08 -9.70231e-07 0.000331081 -4.66459e-08 -4.90068e-07 
0.000299827 -9.90791e-06 -1.63406e-06 0.00030338 -8.96509e-06 -1.05046e-06 0.000313067 8.4621e-08 -9.11042e-07 
0.000311533 7.11913e-08 -7.88921e-07 0.000309776 7.5515e-08 -4.58654e-07 0.000311135 1.24844e-07 -5.50003e-07 
0.000325073 -7.37127e-06 -1.31074e-06 0.000323869 -2.08822e-06 -9.85528e-07 0.000326838 -1.74907e-06 -9.92199e-07 
0.000325907 -2.18135e-06 -9.87308e-07 0.000135082 -0.000107354 -1.2582e-05 0.000129396 -0.000118952 -1.25887e-05 
9.88068e-05 -0.000137912 -1.36135e-05 0.000327566 -1.45927e-06 -9.9475e-07 0.000285164 -2.42311e-05 3.95822e-07 
0.000284515 -1.07914e-05 -1.914e-06 0.000285534 -9.88824e-06 -1.24688e-06 0.000215511 -3.62832e-05 -2.97462e-06 
0.000302075 -4.64877e-06 -1.03909e-06 0.000302871 -3.96273e-06 -1.02185e-06 0.00030517 -4.58149e-06 -1.02549e-06 
0.00030589 -3.91905e-06 -1.01279e-06 0.000319381 -1.05965e-06 -9.41744e-07 0.000317271 -1.24567e-06 -9.4121e-07 
0.000317627 -9.17762e-07 -9.2487e-07 0.000319655 -7.72618e-07 -9.2625e-07 0.000259783 -1.32199e-05 -1.14082e-06 
0.000330401 -3.85973e-07 -9.92399e-07 0.000328353 -4.94768e-07 -9.76828e-07 0.000327974 -3.33871e-07 -4.8138e-07 
0.000325988 -4.10482e-07 -4.74156e-07 0.000328001 -3.3322e-07 -1.44427e-06 0.000300475 -1.52837e-06 -3.0049e-07 
0.000142543 -8.93875e-05 -1.39325e-05 0.000158512 -7.93045e-05 -5.89353e-06 0.000127546 -0.000102345 -7.7696e-06 
0.000325187 -6.9069e-06 -8.83509e-07 0.000277171 -6.50163e-06 -8.75066e-07 0.000274524 -7.16426e-06 -9.59566e-07 
0.000279285 -5.55343e-06 -9.13574e-07 0.000308303 -1.0009e-07 -2.88705e-07 0.000308192 -1.15168e-07 -9.64089e-08 
0.000307118 -4.1531e-07 -1.11783e-07 0.000307309 -2.8118e-07 -2.18594e-07 0.000308692 -4.79668e-08 -4.29062e-07 
0.000309691 1.13127e-07 -5.11528e-07 0.000322008 -3.38101e-09 -8.46334e-07 0.000321015 1.90706e-09 -4.14091e-07 
0.000322999 -9.265e-09 -4.32051e-07 0.000304616 -1.845e-06 1.22345e-07 0.000299865 -9.91684e-06 -5.44955e-07 
0.000300143 -9.26548e-06 -1.08439e-06 0.000264685 -1.20052e-05 -1.39635e-06 0.000296122 -1.00992e-05 -1.70124e-06 
0.000296162 -1.01134e-05 -5.67044e-07 0.000298018 -1.00066e-05 -1.1112e-06 0.000295531 -1.68816e-05 7.95661e-07 
0.000329511 -6.40611e-06 -8.643e-07 0.000330953 -6.05641e-06 -4.31214e-07 0.000332661 -1.62025e-06 -9.85366e-07 
0.000329698 -2.20016e-06 -9.81218e-07 0.000330408 -1.80766e-06 -9.91663e-07 0.000328573 -2.84297e-06 -9.65391e-07 
0.000120876 -0.000113353 -1.38535e-05 0.000346792 1.35391e-07 -1.79404e-06 0.000345493 1.07606e-07 -1.17516e-06 
0.000313008 7.72229e-08 -3.04152e-07 0.000312734 1.42729e-07 -6.28092e-07 0.000304168 -8.17547e-06 -1.04451e-06 
0.000307988 -7.712e-06 -1.01479e-06 0.000292669 -9.85285e-06 -5.85777e-07 0.000296881 -8.97096e-06 -1.11853e-06 
0.000302912 -5.17894e-06 5.4824e-07 0.000304184 -5.3855e-06 7.92789e-07 0.000302687 -8.70683e-06 9.87914e-07 
0.000301222 -8.09682e-06 6.98082e-07 0.000310455 4.65088e-08 -6.80288e-07 0.000313719 7.60536e-08 -6.36543e-07 
0.000314475 7.90646e-08 -9.94749e-07 0.000290511 -1.80711e-05 4.9182e-07 0.000282487 -1.42147e-05 -4.98128e-08 
0.00028693 -1.28364e-05 8.23496e-08 0.00028258 -1.40133e-05 -1.51334e-07 0.000322888 -2.57846e-06 -9.83634e-07 
0.000101947 -0.000164072 -1.92987e-05 0.000116648 -0.000158564 -2.41486e-05 0.000290051 -1.47907e-05 3.17127e-07 
0.00028462 -2.00249e-05 2.39005e-07 0.000334778 -2.27428e-06 -4.5324e-07 0.000322947 -3.35286e-06 -9.77565e-07 
0.000320935 -4.11156e-06 -9.73443e-07 0.000318236 -1.45938e-06 -9.54455e-07 9.32876e-05 -0.000149625 -1.3025e-05 
0.000121686 -0.000130406 -1.35701e-05 8.49631e-05 -0.000163853 -1.33587e-05 5.99575e-05 -0.000180939 -1.05206e-05 
0.000273844 -7.62234e-06 -1.16035e-06 0.000273085 -7.5604e-06 -1.11481e-06 0.00026965 -8.83627e-06 -1.18483e-06 
0.000288682 -1.04414e-05 -1.8359e-06 0.000292625 -9.83137e-06 -1.75791e-06 0.000289648 -9.23544e-06 -1.1947e-06 
0.00028873 -1.04682e-05 -6.11983e-07 0.000278132 -1.51517e-05 -3.76644e-07 9.38808e-05 -0.000126498 -7.99378e-06 
9.36866e-05 -0.000124179 -2.42102e-05 0.000137741 -9.57376e-05 -1.3899e-05 0.000326231 -6.07924e-07 -9.63425e-07 
0.000326014 -4.07604e-07 -1.42256e-06 0.000321053 3.46553e-09 -1.24203e-06 0.000322862 -1.95841e-08 -8.64071e-07 
0.000323033 -8.37418e-09 -1.29561e-06 0.000328002 -2.66138e-06 -9.74912e-07 0.000327347 -2.47738e-06 -9.82038e-07 
0.000314422 7.12181e-08 -3.31567e-07 0.000330752 -9.19296e-07 -1.01044e-06 0.000331842 -6.6897e-07 -1.01539e-06 
0.000333169 -6.39073e-07 -1.026e-06 0.000319819 -6.94795e-06 -9.28611e-07 0.00031831 -7.8818e-06 -4.60456e-07 
0.000320504 -7.90909e-06 -1.35082e-06 0.000321976 -6.9462e-06 -9.10288e-07 0.000320518 -7.89539e-06 -4.49685e-07 
0.000267802 -1.00944e-05 -1.29004e-06 0.000272909 -8.26413e-06 -1.21219e-06 0.000324985 -2.67561e-06 -9.82348e-07 
0.000335191 -5.9683e-08 -1.54924e-06 0.000333214 -1.68697e-07 -1.01314e-06 0.000330946 -6.06434e-06 -1.29355e-06 
0.000297834 -1.1398e-06 -7.41158e-07 0.000298351 -1.18682e-06 -7.94121e-07 0.000301319 -6.72179e-07 -7.37142e-07 
0.000301883 -7.62064e-07 -7.89257e-07 0.000122662 -0.000135098 -1.43996e-05 8.44501e-05 -0.000167855 -1.40951e-05 
0.000292117 -2.57673e-06 -9.12022e-07 0.000296214 -1.94819e-06 -8.96556e-07 0.000295206 -1.81773e-06 -8.49839e-07 
0.000291101 -2.53039e-06 -8.64318e-07 0.0002711 -8.57706e-06 -9.73326e-07 0.000268599 -9.45257e-06 -1.23964e-06 
0.000271476 -1.094e-05 -1.36672e-06 0.000342484 1.46842e-07 -1.12877e-06 0.000341536 3.80523e-08 -5.57809e-07 
0.000203228 -4.58279e-05 -2.3224e-06 0.000210095 -4.16927e-05 -3.51311e-06 0.000346752 1.38217e-07 -5.97774e-07 
0.000275459 -6.70197e-06 -1.00516e-06 0.000271605 -1.97847e-05 -3.64267e-07 0.000274665 -2.25755e-05 -1.52575e-07 
0.000268647 -2.75456e-05 -4.22996e-07 0.000265382 -2.44463e-05 -2.43991e-07 0.000265399 -2.41897e-05 -7.29404e-07 
0.000315836 -1.10361e-06 -9.27922e-07 0.000316252 -7.83708e-07 -9.09006e-07 0.000321922 -4.40596e-07 -9.15921e-07 
7.67988e-05 -0.000139663 -1.49794e-05 0.000296045 -1.42716e-06 -6.95147e-07 0.000300213 -7.3716e-07 -6.7596e-07 
0.000314112 1.16385e-07 -6.69476e-07 0.000137744 -0.00013387 -1.56932e-05 0.000123384 -0.00013919 -1.53865e-05 
0.000152321 -0.000117204 -1.9235e-05 0.000156806 -0.000117032 -5.83665e-06 0.000173679 -0.000113381 -4.71005e-06 
0.000341571 3.62877e-08 -1.67453e-06 0.000341211 6.40328e-08 -1.11124e-06 6.53671e-05 -0.000166523 -1.14877e-05 
4.75638e-05 -0.000175455 -1.44602e-05 0.000274059 -1.21573e-05 -2.10723e-06 0.000277003 -1.0647e-05 -1.33465e-06 
0.000304219 -3.39985e-06 4.27939e-07 0.000301842 -4.56661e-06 3.35101e-07 0.000282881 -5.53913e-06 -1.10243e-06 
0.000281438 -5.37636e-06 -1.06508e-06 0.000277882 -6.65753e-06 -1.13877e-06 0.00026928 -1.29987e-05 -2.18944e-06 
0.000270418 -1.19556e-05 -1.4112e-06 0.000316013 -3.41881e-07 -8.63574e-07 0.000315485 -1.64921e-07 -8.33154e-07 
0.000285741 -8.76011e-06 -1.21926e-06 0.000241821 -3.44922e-05 -1.0926e-06 0.000243313 -2.96003e-05 -1.13804e-06 
0.000249287 -2.92578e-05 -9.55119e-07 0.000302529 -6.25086e-06 -1.0558e-06 0.000299748 -6.15017e-06 -1.07255e-06 
0.000300731 -5.51162e-06 -1.05861e-06 0.000303432 -5.62249e-06 -1.04537e-06 0.000301878 -7.6517e-06 -1.06504e-06 
0.000305808 -7.22351e-06 -1.03407e-06 0.000316771 -8.06834e-06 -9.31129e-07 0.000318291 -7.89596e-06 -1.38124e-06 
0.000102154 -0.000163648 -3.27202e-05 6.50612e-05 -0.000171814 -2.08907e-05 0.000278324 -2.60923e-05 9.46411e-08 
0.000303121 -6.18457e-07 -4.08365e-07 0.000300538 -1.03259e-06 -4.37517e-07 0.000303452 -3.54635e-07 -7.58339e-07 
0.000300818 -7.59415e-07 -2.61267e-07 0.000303388 -4.06729e-07 -2.46518e-07 0.000319508 -3.82929e-06 -9.80619e-07 
0.000333194 -1.96213e-06 -9.54862e-07 0.000332014 -2.95862e-06 -9.21796e-07 0.000279901 -6.67598e-06 -1.16027e-06 
0.000282117 -6.81302e-06 -1.17387e-06 0.000306611 -1.97196e-06 1.33769e-06 0.000305061 -5.22726e-06 1.05824e-06 
0.000328269 -1.20349e-06 -9.97149e-07 0.000326546 -1.17669e-06 -9.86575e-07 0.00032945 -9.05804e-07 -1.00052e-06 
0.000268928 -8.97695e-06 -1.09602e-06 0.000268094 -9.52576e-06 -1.04677e-06 0.000293345 -2.71856e-06 -9.50681e-07 
0.000299228 -1.21844e-05 8.42761e-07 0.000247905 -3.88705e-05 -8.40035e-07 0.000251478 -4.37366e-05 -6.67822e-07 
0.000240366 -4.61515e-05 -9.86823e-07 0.000269328 -1.30614e-05 -7.29217e-07 0.000273771 -1.14601e-05 -1.3803e-06 
0.000339903 2.33097e-07 -1.07538e-06 0.000286651 -1.06258e-05 -1.24972e-06 0.000322109 -1.3743e-06 -9.68461e-07 
0.000320361 -1.24663e-06 -9.54413e-07 0.000323108 -1.01461e-06 -9.60778e-07 0.000324856 -1.10896e-06 -9.75154e-07 
0.000293021 -2.04459e-06 -7.04974e-07 0.000299788 -5.11978e-06 -1.05692e-06 0.000302964 -5.02871e-06 -1.04096e-06 
0.000340095 2.17243e-07 -1.08638e-06 0.000337726 -1.38551e-07 -1.05883e-06 0.000336871 -2.21851e-07 -1.05592e-06 
0.000333948 -7.09759e-08 -1.01772e-06 0.000332757 -7.94083e-08 -1.50372e-06 0.00031907 2.62082e-08 -1.18475e-06 
0.000317025 6.9335e-08 -7.52217e-07 0.000290431 -3.64079e-06 -1.00996e-06 0.000289327 -3.36951e-06 -9.70484e-07 
0.000325524 -4.6511e-06 -9.35505e-07 0.000325836 -3.96883e-06 -9.50952e-07 0.00032894 -3.5379e-06 -9.37016e-07 
0.000309119 -3.70874e-06 -5.00876e-07 0.000308432 -4.32186e-06 -1.51715e-06 0.000308443 -4.33574e-06 -5.05703e-07 
0.000321598 -3.11522e-06 -9.81686e-07 0.000313424 -8.79974e-08 -8.02196e-07 0.000313828 -2.5668e-07 -8.36693e-07 
0.000234002 -4.02105e-05 -1.24841e-06 0.000235881 -3.46518e-05 -1.27101e-06 0.000222848 -6.08624e-05 -1.7479e-06 
0.000223067 -5.39831e-05 -1.63986e-06 0.000330506 -5.13288e-07 -9.99526e-07 0.000332668 -3.14477e-07 -1.01388e-06 
0.000286213 -4.39168e-06 -1.03645e-06 0.000287622 -4.67985e-06 -1.06952e-06 0.000285083 -4.21382e-06 -9.94954e-07 
0.000220512 -3.46802e-05 -2.20824e-06 0.000228788 -2.95265e-05 -1.59846e-06 0.000226583 -3.2173e-05 -1.60273e-06 
0.000316148 8.95025e-08 -7.5612e-07 0.000314668 1.26963e-07 -7.13391e-07 8.86154e-05 -0.000168128 -1.58414e-05 
0.000287877 -3.1678e-06 -8.18114e-07 0.000289629 -2.80209e-06 -7.4853e-07 0.000328088 -2.06068e-06 -9.89979e-07 
0.000339164 6.10119e-08 -1.08081e-06 0.000341351 2.72834e-07 -1.10881e-06 0.000320716 3.07916e-09 -8.29244e-07 
0.000321775 -1.46547e-06 -1.45385e-06 0.000321132 -1.78389e-06 -1.46151e-06 0.000318881 -1.77312e-06 -1.45018e-06 
0.000344182 4.24718e-07 -1.15058e-06 0.000346655 8.5862e-07 -5.92701e-07 0.000287523 -3.26825e-06 -8.69302e-07 
0.000291025 -2.58413e-06 -6.8512e-07 0.000287575 -3.76377e-06 -6.51955e-07 0.000287442 -3.45989e-06 -7.32434e-07 
0.000306146 -2.90447e-06 1.8053e-06 0.000306235 -2.44128e-06 1.04007e-06 0.00028384 -4.56283e-06 -7.56498e-07 
0.000285528 -3.82024e-06 -8.0707e-07 0.000321407 -8.96118e-07 -9.44482e-07 0.00032404 -5.37847e-07 -9.40685e-07 
0.000323857 -3.37154e-07 -4.61355e-07 0.000323883 -3.31121e-07 -1.38362e-06 0.000252253 -1.76921e-05 -1.19594e-06 
0.000257752 -1.46824e-05 -1.12753e-06 0.000260051 -1.46841e-05 -1.01828e-06 0.000297408 -6.04141e-06 -1.0853e-06 
0.000296406 -5.64634e-06 -1.08358e-06 5.43498e-05 -0.000177075 -6.07389e-05 7.01176e-05 -0.00016015 -4.59491e-05 
7.5517e-05 -0.000145951 -7.3326e-05 0.000321124 -1.78764e-06 -4.86857e-07 0.000319646 -2.15475e-06 -1.46527e-06 
0.000307967 6.71721e-08 -5.36649e-07 0.000308351 5.135e-08 -4.7836e-07 0.00029904 -1.29993e-06 -8.4125e-07 
0.000274108 -1.2213e-05 -7.02501e-07 0.000331389 -2.70812e-06 -9.41733e-07 0.000260868 -3.68629e-05 -4.26395e-07 
0.000270103 -3.13377e-05 -1.50786e-07 0.000259546 -3.30131e-05 -2.64453e-07 0.00025954 -3.27357e-05 -8.07684e-07 
0.00030453 -3.57519e-07 -7.4081e-07 0.000328336 -3.21744e-06 -9.54347e-07 0.000330831 -2.46802e-06 -9.60395e-07 
0.000333815 -3.52106e-06 -1.31733e-06 0.000330544 -4.59688e-06 -8.88682e-07 0.00032559 -8.34434e-07 -9.6984e-07 
0.000327741 -8.85481e-07 -9.87968e-07 0.000338217 -3.67316e-08 -1.07325e-06 0.000340269 1.14305e-07 -1.09786e-06 
0.000335985 -2.61881e-07 -1.04911e-06 5.19041e-05 -0.000192433 -1.05151e-05 0.00031073 -1.44505e-06 -9.30495e-07 
0.000313472 -1.37197e-06 -9.34503e-07 0.000314449 -9.58514e-07 -9.12642e-07 0.000311832 -9.99186e-07 -9.04364e-07 
0.000297515 -2.17923e-06 -9.33906e-07 0.000297564 -1.5726e-06 -4.78115e-07 0.000300882 -6.99606e-07 -8.02177e-07 
0.00033025 -2.33863e-06 -9.71937e-07 0.000255229 -1.47002e-05 -1.41742e-06 0.000259403 -1.32171e-05 -1.39946e-06 
0.000256144 -1.47841e-05 -1.46737e-06 0.00025175 -1.63868e-05 -1.48823e-06 0.00034028 2.0135e-08 -1.09867e-06 
0.000339005 3.79284e-09 -5.40507e-07 0.000321695 -6.4646e-07 -9.30574e-07 0.000249307 -1.83035e-05 -1.29001e-06 
0.000254858 -1.53542e-05 -1.2262e-06 0.000314284 -4.6577e-07 -8.67428e-07 0.000316103 -5.52432e-07 -8.87729e-07 
0.00031903 2.2619e-08 -3.94865e-07 0.000277925 -9.68224e-06 -1.29775e-06 0.000283206 -8.74504e-06 -1.23748e-06 
0.000314878 -6.47089e-06 -9.74356e-07 0.000315999 -6.42769e-06 -1.48007e-06 0.000316018 -6.42169e-06 -5.13159e-07 
0.00031326 -7.3598e-06 -4.86815e-07 0.000314406 -7.31667e-06 -9.94564e-07 0.000313236 -7.36595e-06 -1.46175e-06 
0.000159053 -9.64776e-05 -5.17498e-06 0.000162302 -8.60104e-05 -1.48932e-05 0.000163366 -8.74244e-05 -4.97553e-06 
0.000284816 -5.70235e-06 -1.12134e-06 0.000288078 -3.322e-06 -9.28667e-07 0.000284258 -4.15414e-06 -9.42973e-07 
0.000323871 -7.46162e-07 -9.52795e-07 0.000328354 -6.60742e-07 -9.84629e-07 0.000268605 -2.78386e-05 -1.43282e-07 
0.00027658 -6.36782e-06 -1.04393e-06 0.000277064 -6.45771e-06 -1.09455e-06 0.000263369 -1.14346e-05 -1.31894e-06 
0.000264297 -1.0831e-05 -1.2637e-06 0.000155012 -7.71887e-05 -1.80528e-05 0.000164218 -7.62569e-05 -1.07841e-05 
0.000125884 -9.95849e-05 -2.21999e-05 0.000333093 -4.83898e-06 -8.64233e-07 0.000332734 -5.27833e-06 -1.29342e-06 
0.000332742 -5.27108e-06 -4.31206e-07 0.000333346 -1.2772e-06 -9.99356e-07 0.000334694 -8.28778e-07 -1.01844e-06 
0.000309617 -6.80038e-06 -1.00777e-06 0.000323624 -7.64679e-06 -8.78406e-07 0.000322149 -7.92063e-06 -1.327e-06 
0.000263054 -1.11945e-05 -1.22563e-06 0.000257858 -1.34192e-05 -1.26897e-06 0.000281798 -4.93465e-06 -8.34584e-07 
0.000279984 -5.88606e-06 -7.84577e-07 5.4165e-05 -0.00019298 -1.25053e-05 0.000334611 -4.35631e-07 -1.03727e-06 
0.000335441 -4.3275e-07 -1.04221e-06 0.000337984 -1.16152e-07 -1.0517e-06 0.000310277 -3.98276e-07 -8.3137e-07 
0.000311927 -2.18206e-07 -8.15398e-07 0.000311455 -6.35775e-08 -7.77625e-07 0.000309839 -2.08445e-07 -7.93693e-07 
0.000333217 -1.68113e-06 -9.73574e-07 0.000295117 -3.30386e-06 -1.00664e-06 0.000225789 -3.06857e-05 -1.8252e-06 
0.000328978 -1.64444e-06 -9.97953e-07 0.000344557 6.02219e-07 -1.15305e-06 0.000346693 8.45371e-07 -1.77704e-06 
0.000335211 -5.25961e-07 -1.03741e-06 0.000314924 -3.81202e-06 -4.95272e-07 0.000314917 -3.80674e-06 -1.48597e-06 
0.000317162 -4.28464e-06 -4.92018e-07 0.000317154 -4.28511e-06 -1.47596e-06 0.000313902 -4.63878e-06 -9.93749e-07 
0.000347866 4.79146e-07 -1.21169e-06 0.000347956 3.29619e-07 -6.0749e-07 0.000347997 3.24744e-07 -1.82243e-06 
1.38628e-05 -0.000216924 -5.32307e-06 3.65506e-05 -0.000206263 -1.24615e-05 1.41718e-05 -0.000220623 -1.62659e-05 
2.24936e-05 -0.000215657 -8.37979e-06 0.000300143 -1.50756e-06 -8.86857e-07 0.000150631 -9.00718e-05 -1.22793e-05 
0.000312277 -4.24417e-07 -8.49981e-07 0.000299324 -3.48968e-06 -1.01439e-06 0.000295303 -4.31492e-06 -1.05271e-06 
0.000293032 -4.24529e-06 -1.05232e-06 0.000297206 -3.37536e-06 -1.01127e-06 0.000304127 -2.8756e-07 -3.25554e-07 
0.000301037 -6.39499e-07 -3.22822e-07 0.000304171 -2.44033e-07 -1.0011e-06 0.000155647 -0.000128739 -1.62739e-05 
0.000167347 -0.000113805 -1.77376e-05 0.000280942 -5.16567e-06 -1.01791e-06 0.000331125 -1.46336e-06 -1.00219e-06 
0.000295097 -4.96764e-06 -1.07426e-06 0.000292441 -5.93925e-06 -1.111e-06 0.00029399 -6.63889e-06 -1.11636e-06 
0.00029504 -1.36773e-05 5.81403e-07 0.00031066 -3.03062e-06 -9.88105e-07 0.000313428 -2.31568e-06 -9.69738e-07 
0.00031449 -2.78283e-06 -9.81475e-07 0.000240635 -3.95057e-05 -1.06018e-06 0.000271687 -8.04892e-06 -1.02758e-06 
0.000269946 -1.88429e-05 -6.501e-07 0.000278323 -1.22334e-05 -5.62818e-07 0.000276508 -1.46724e-05 -3.15979e-07 
0.00024843 -3.36882e-05 -9.00755e-07 0.000291703 -3.47579e-06 -4.56397e-07 0.000296381 -2.13579e-06 -4.20731e-07 
0.00029524 -2.85444e-06 -3.57299e-07 0.000260835 -1.21266e-05 -1.28728e-06 0.000255513 -1.4391e-05 -1.33293e-06 
0.000291149 -5.28527e-06 -1.09644e-06 0.000232875 -4.66713e-05 -1.21774e-06 0.000224865 -4.67411e-05 -1.53388e-06 
0.000303255 -3.10383e-07 -8.95451e-07 0.000303199 -3.59252e-07 -2.9214e-07 0.000298671 -1.0058e-06 -6.20238e-07 
0.000294355 -1.85312e-06 -6.42264e-07 0.000317579 -1.20034e-07 -8.40143e-07 0.000301461 -1.78997e-06 -9.23274e-07 
0.00030544 -1.36811e-06 -9.07397e-07 0.000304162 -1.04724e-06 -1.30596e-06 0.000307866 -7.46068e-07 -1.29259e-06 
0.000304142 -1.08366e-06 -4.35287e-07 0.000309706 -6.94749e-07 -8.66029e-07 0.000260164 -2.84479e-05 -8.85513e-07 
0.000260165 -2.87092e-05 -2.95445e-07 0.000298916 -4.73833e-06 -1.05278e-06 0.000249854 -5.96922e-05 -5.65717e-07 
0.000243976 -5.17553e-05 -8.31686e-07 0.000256309 -4.9643e-05 -4.51087e-07 0.00026992 -1.90463e-05 -1.92385e-07 
0.000278065 -1.53636e-05 -1.24578e-07 0.000308593 -6.51943e-08 -1.43817e-07 0.000307609 -1.50725e-07 -3.12029e-07 
0.000238023 -3.00097e-05 -1.29689e-06 0.000324717 -2.32333e-08 -1.33709e-06 0.000325766 -3.02223e-08 -9.07559e-07 
0.000326877 -3.4942e-08 -1.38515e-06 0.000238807 -8.98678e-05 -4.12322e-07 0.000216974 -0.000100708 -4.44353e-06 
0.000236979 -8.78376e-05 -2.33953e-06 0.000232454 -9.57805e-05 -2.33678e-06 0.000314936 -1.53007e-06 -9.45618e-07 
0.000298853 -6.81607e-06 -1.08554e-06 0.000278264 -1.24147e-05 -1.87987e-07 0.000309054 -2.03722e-06 -9.57346e-07 
0.000305493 -2.25281e-06 -9.62925e-07 0.000307334 -1.60126e-06 -9.30357e-07 0.000153532 -0.000106972 -1.12587e-05 
0.000183219 -8.0181e-05 -3.51511e-06 0.000157883 -9.55341e-05 -1.54414e-05 0.000300938 -8.44598e-06 -1.07542e-06 
0.000300062 -6.72775e-06 4.32271e-07 0.00026275 -1.23369e-05 -1.05813e-06 0.000339039 3.52442e-09 -1.62251e-06 
0.000331915 -3.38529e-06 -9.06659e-07 0.000331876 -3.84301e-06 -8.93109e-07 0.000328625 -4.66676e-06 -9.06229e-07 
0.000328664 -4.18349e-06 -9.19304e-07 0.000315549 -4.31889e-08 -8.0873e-07 0.000296622 -2.9851e-06 -2.57473e-07 
0.000292812 -3.98674e-06 -3.31455e-07 0.000332919 -7.64938e-07 -1.02316e-06 0.000300083 -1.4599e-05 5.69138e-07 
0.000303078 -1.00586e-05 6.39111e-07 0.000300326 -1.43935e-05 1.70661e-06 0.000175261 -7.39332e-05 -4.35539e-06 
0.000333828 -3.5088e-06 -4.38938e-07 0.000280131 -5.24787e-06 -9.5951e-07 0.00026596 -1.00628e-05 -1.16182e-06 
0.000273936 -7.90064e-06 -8.81326e-07 0.000325336 -5.38072e-06 -9.18666e-07 0.000283751 -4.22922e-06 -8.7745e-07 
0.000327288 -5.39704e-06 -9.00228e-07 0.000313459 4.83154e-08 -7.63399e-07 0.000305585 -5.149e-06 -1.03029e-06 
0.000303422 -2.00378e-06 -9.45534e-07 0.000236325 -6.17608e-05 -1.03038e-06 0.000242589 -7.0854e-05 -7.02168e-07 
0.000298772 -5.79002e-06 2.27253e-07 0.000248862 -2.16537e-05 -1.15825e-06 0.000254601 -1.78583e-05 -1.08751e-06 
0.000257596 -1.83163e-05 -9.57767e-07 0.000251982 -2.24171e-05 -1.02661e-06 0.000272838 -7.56284e-06 -1.0689e-06 
0.00033045 -1.08816e-06 -1.00879e-06 0.000313031 -3.39304e-06 -1.48635e-06 0.000309112 -3.6948e-06 -1.50209e-06 
0.000313036 -3.4026e-06 -4.95023e-07 0.000215815 -7.28412e-05 -2.5239e-06 0.000305591 -3.94081e-07 -1.17379e-06 
0.000303036 -8.48672e-07 -4.13106e-07 0.000305558 -4.31241e-07 -3.91308e-07 0.000264079 -1.17282e-05 -1.36632e-06 
0.00030228 -9.20187e-07 -8.30406e-07 0.000307955 -1.67291e-07 -1.35215e-07 0.000307663 -2.33642e-07 -3.64229e-08 
0.000307793 -2.16987e-07 -1.06736e-07 0.000236151 -2.85905e-05 -1.37613e-06 0.000234951 -2.74511e-05 -1.44306e-06 
0.000240736 -2.41882e-05 -1.34913e-06 0.000294383 -4.18761e-06 -2.23158e-07 0.000266847 -3.74345e-05 -1.85833e-07 
0.000272918 -3.82117e-05 7.71754e-08 0.000275629 -3.17228e-05 9.00416e-08 0.000277002 -7.38514e-06 -7.67598e-07 
0.000283981 -4.99213e-06 -6.74666e-07 0.00026917 -8.86755e-06 -1.14388e-06 0.000296507 -4.2668e-06 -8.93697e-08 
0.0002813 -8.37992e-06 -4.78783e-07 0.000277522 -8.77337e-06 -6.21269e-07 0.000281352 -6.41129e-06 -6.454e-07 
0.00028471 -5.9883e-06 -5.19838e-07 0.000303365 -9.87681e-06 1.92145e-06 0.00029905 -4.09629e-06 -1.03549e-06 
0.000298006 -4.79793e-06 6.5094e-08 0.000322756 -5.39353e-06 -9.39565e-07 0.000323026 -4.64605e-06 -9.53702e-07 
0.000309158 -1.06033e-06 -8.98196e-07 0.000307845 -7.74572e-07 -4.30728e-07 0.000232178 -2.67135e-05 -1.63333e-06 
0.000232193 -5.423e-05 -1.21651e-06 0.000328165 -8.79205e-08 -9.44479e-07 0.000326257 -7.0796e-08 -9.18346e-07 
0.000328016 -1.68998e-07 -1.42483e-06 0.000326086 -1.42912e-07 -1.3867e-06 0.000326056 -1.46182e-07 -4.62007e-07 
0.000298011 -2.12632e-06 -3.23995e-07 0.000308668 -4.62635e-09 -3.88756e-07 0.000309436 5.7092e-09 -1.8452e-07 
0.000306703 -3.29948e-06 -9.97733e-07 0.000309634 -2.51554e-06 -9.74513e-07 0.000305838 -2.96479e-06 6.07328e-07 
1.11687e-05 -0.000223065 -2.2771e-06 7.64358e-06 -0.000225374 -8.85174e-07 1.4142e-05 -0.000217803 -1.40604e-06 
0.000311831 -7.18777e-07 -8.80231e-07 0.000303058 -3.37158e-06 -1.00525e-06 0.000248256 -7.44483e-05 -7.21299e-07 
0.000248713 -7.53935e-05 -2.28996e-07 0.000322165 -7.9062e-06 -4.43019e-07 0.000271724 -1.25889e-05 -1.43218e-06 
0.000308546 -4.30422e-07 -1.23657e-06 0.000308154 -2.7017e-07 -3.92614e-07 0.00030852 -4.60327e-07 -4.12259e-07 
0.000231923 -8.44633e-05 -1.38197e-06 0.000278911 -8.10607e-06 -1.23394e-06 0.000284098 -7.19952e-06 -1.18613e-06 
0.000139794 -0.000141644 -3.30645e-05 0.000303926 -6.65722e-06 -1.04711e-06 0.000275837 -9.49643e-06 -1.29847e-06 
0.000295932 -1.68869e-06 -5.62614e-07 0.000300336 -7.23581e-06 -1.07692e-06 0.000286736 -5.9617e-06 -1.13208e-06 
0.000293641 -7.63952e-06 -1.1357e-06 0.00029022 -7.10422e-06 -1.15089e-06 0.000289304 -4.94764e-06 -1.08486e-06 
0.000291451 -3.92728e-06 -1.03549e-06 0.000329776 -1.32749e-06 -1.00399e-06 0.00033264 -9.07007e-07 -1.01945e-06 
0.000335414 -5.98463e-07 -1.03058e-06 0.000314352 -6.95391e-07 -8.91091e-07 0.000328437 -1.74645e-07 -9.55072e-07 
8.94437e-05 -0.000139249 -2.59847e-05 0.000274699 -1.04642e-05 -1.33994e-06 0.000304718 -2.85976e-07 -4.59717e-07 
0.000294857 -5.68359e-06 -3.15647e-08 0.000295614 -6.84421e-06 1.25429e-07 0.000290705 -9.76843e-06 1.05227e-07 
0.000289777 -8.33207e-06 -4.33648e-08 0.00028988 -8.17379e-06 -1.28454e-07 0.000315394 6.04115e-08 -7.72323e-07 
0.000318186 2.68531e-08 -8.04264e-07 0.000317497 -2.53172e-08 -8.1795e-07 0.000309529 1.45755e-08 -5.52788e-07 
0.000330532 -6.637e-07 -1.00404e-06 0.000310429 -5.42174e-06 -1.00759e-06 0.000306109 -5.73111e-06 -1.03119e-06 
0.000308859 -4.87192e-06 -5.07015e-07 0.000308845 -4.86188e-06 -1.5216e-06 0.000313072 -4.59625e-06 -4.98243e-07 
3.5868e-05 -0.000206028 -9.20842e-06 0.000217658 -3.80214e-05 -2.36595e-06 0.000224589 -3.53042e-05 -1.65245e-06 
0.000238061 -2.33343e-05 -1.5058e-06 0.000234907 -2.58165e-05 -1.49219e-06 0.00029349 -1.11938e-05 3.20379e-07 
0.000286811 -1.30441e-05 2.71759e-08 0.000290584 -9.95677e-06 3.50872e-08 0.000320186 -5.30005e-06 -9.5863e-07 
0.000334947 -2.16099e-07 -1.03712e-06 0.000332839 -4.10444e-07 -1.01973e-06 0.000313062 -4.59095e-06 -1.4948e-06 
0.000315455 -5.10883e-06 -1.47754e-06 0.000315468 -5.10872e-06 -4.92744e-07 0.000245084 -2.61022e-05 -1.16128e-06 
0.000339461 2.4676e-08 -1.08789e-06 0.0002664 -9.92749e-06 -1.20401e-06 0.000297859 -1.00277e-05 5.54084e-07 
0.000325208 -6.13291e-06 -9.0131e-07 0.000307815 -6.27542e-06 -1.02168e-06 0.000312085 -5.90825e-06 -9.97361e-07 
2.07066e-05 -0.000215729 -4.43182e-06 0.000312492 -1.86343e-06 -9.5437e-07 0.000250544 -2.55709e-05 -9.9225e-07 
0.000221984 -0.000100165 -8.04943e-06 0.000228459 -0.000103599 -2.0923e-06 0.000296432 -6.71948e-06 -1.10114e-06 
0.000294153 -2.9852e-06 -9.80629e-07 0.000288624 -6.4285e-06 -1.14316e-06 0.000343494 5.80064e-07 -1.13455e-06 
0.000346074 1.04087e-06 -5.83966e-07 0.000346107 1.0229e-06 -1.75258e-06 0.000306028 -2.76021e-06 -9.82431e-07 
0.00030992 2.60001e-08 -4.12412e-07 0.000242237 -2.51249e-05 -1.27242e-06 0.000311648 7.32296e-08 -7.34787e-07 
0.000324528 -4.50397e-08 -8.9183e-07 0.000291225 -2.82399e-06 -6.01881e-07 0.000326846 -3.5247e-08 -4.61776e-07 
0.000324684 -2.46697e-08 -4.4573e-07 0.00019257 -7.70249e-05 -8.29635e-06 0.000194482 -7.83695e-05 -2.26499e-06 
0.000180298 -8.82193e-05 -8.0634e-06 0.000181308 -7.87975e-05 -1.09283e-05 0.000194867 -7.03168e-05 -4.80889e-06 
0.000293599 -8.68044e-06 -1.14952e-06 0.000331898 -1.16301e-06 -1.0113e-06 0.000267631 -1.39952e-05 -7.38553e-07 
0.000321606 -3.58678e-07 -1.35908e-06 0.000321579 -3.67111e-07 -4.53122e-07 0.000323485 -2.75241e-07 -9.1263e-07 
0.000208959 -5.20958e-05 -3.0791e-06 0.000194188 -5.88297e-05 -7.81347e-06 0.000201845 -5.98448e-05 -5.9353e-06 
0.000203006 -6.11928e-05 -1.93741e-06 0.000203344 -5.09884e-05 -4.06943e-06 0.000195534 -6.02796e-05 -2.63129e-06 
0.000220216 -4.65049e-05 -1.76021e-06 0.00021524 -4.47325e-05 -2.45087e-06 0.000225058 -4.0047e-05 -1.53854e-06 
0.000267527 -1.02448e-05 -9.91767e-07 0.000292504 -5.53258e-06 -1.76545e-07 0.000287097 -8.04421e-06 -1.19695e-07 
0.000281206 -8.46296e-06 -1.24155e-06 0.000312273 -6.65235e-06 -9.90292e-07 0.000315553 -5.78437e-06 -4.89314e-07 
0.000312956 -5.94333e-06 -1.48797e-06 0.000315538 -5.78648e-06 -1.46798e-06 0.000200064 -8.03713e-05 -7.36589e-06 
0.000201764 -8.17519e-05 -2.3587e-06 0.000195414 -8.29205e-05 -5.28819e-06 0.000258788 -1.30744e-05 -1.34731e-06 
0.00032406 -7.61916e-08 -8.90994e-07 0.000323698 -1.53967e-07 -4.49693e-07 0.000305535 -1.19756e-06 3.82482e-08 
0.000249342 -1.73082e-05 -1.47891e-06 0.000247013 -1.83736e-05 -1.46543e-06 0.000243872 -2.01646e-05 -1.44451e-06 
0.000241421 -2.12178e-05 -1.53206e-06 0.000240933 -2.23286e-05 -1.41206e-06 0.000310599 -7.55522e-06 -1.48965e-06 
0.000306288 -6.61411e-08 -5.10491e-07 0.000307005 -9.67258e-08 -4.14449e-07 0.000296189 -7.71499e-06 -1.116e-06 
0.000340833 1.04067e-07 -1.10558e-06 0.000342028 2.14016e-07 -1.12096e-06 0.000243473 -2.17198e-05 -1.34719e-06 
0.000246784 -1.90043e-05 -1.36756e-06 0.000254312 -3.78211e-05 -6.38409e-07 0.000306024 -1.36428e-06 2.05947e-07 
0.000297817 -8.1348e-06 -1.10476e-06 0.000262881 -1.47906e-05 -8.94327e-07 0.000246473 -2.11179e-05 -1.26394e-06 
0.000309158 -8.49399e-06 -1.49401e-06 0.000309187 -8.49046e-06 -4.97365e-07 0.000334682 -2.71199e-06 -1.33589e-06 
0.000334697 -2.69598e-06 -4.45586e-07 0.000307101 -5.06397e-07 9.40348e-08 0.000308186 -2.38437e-07 -1.17733e-06 
0.000329926 -4.67305e-08 -9.64995e-07 0.000328798 -4.40751e-08 -1.42471e-06 0.000155678 -0.000110936 -1.1583e-05 
0.000252407 -1.60587e-05 -1.31292e-06 0.000265094 -1.22384e-05 -9.4477e-07 0.000229858 -3.12019e-05 -1.50828e-06 
0.000278191 -4.06683e-05 1.69985e-07 0.000278262 -4.02989e-05 4.80474e-07 0.000280392 -3.32593e-05 5.13538e-07 
0.000258559 -4.29244e-05 -4.38638e-07 0.000286309 -7.66581e-06 -1.18926e-06 0.00028987 -8.1375e-06 -1.17381e-06 
0.000262357 -1.73245e-05 -8.08591e-07 0.000318637 -4.61559e-06 -4.88064e-07 0.000318626 -4.61854e-06 -1.46408e-06 
0.000287955 -4.18838e-06 -5.60456e-07 0.000273928 -9.23442e-06 -7.53472e-07 0.000189662 -5.55203e-05 -3.18482e-06 
0.000187285 -5.44492e-05 -1.03156e-05 0.000183298 -6.00004e-05 -7.65456e-06 0.000199181 -4.92571e-05 -5.0568e-06 
0.000271494 -4.81723e-05 4.08513e-08 0.000265095 -4.38299e-05 -1.85316e-07 0.000262928 -5.38022e-05 -2.95657e-07 
0.000271474 -4.77958e-05 1.30553e-07 0.00030602 -5.94972e-07 -4.10734e-07 0.000331872 -2.65067e-07 -1.00227e-06 
0.000329852 -2.36665e-07 -9.77008e-07 0.000323586 -6.9443e-06 -8.95831e-07 0.000290187 -5.41178e-06 -3.09444e-07 
0.000287187 -7.89055e-06 -3.56616e-07 0.000206509 -4.58679e-05 -3.86161e-06 0.000215299 -4.2105e-05 -2.54217e-06 
0.000231695 -2.85133e-05 -1.51636e-06 0.000301809 -1.00999e-06 -3.5615e-07 0.000313453 1.28007e-07 -7.22676e-07 
0.000318631 3.78602e-08 -7.92236e-07 0.00024955 -1.72172e-05 -1.3933e-06 0.000253027 -1.55351e-05 -1.40769e-06 
0.000293092 -2.68877e-06 -5.11586e-07 0.000231467 -7.42094e-05 -1.2923e-06 0.00022017 -7.80116e-05 -2.18284e-06 
0.000226586 -6.5179e-05 -1.54324e-06 0.000320519 -4.68904e-06 -9.66628e-07 0.00030617 -2.11269e-07 -3.16832e-07 
0.000306207 -1.76459e-07 -1.0471e-06 0.000305765 -1.17663e-07 -6.1015e-07 0.000253765 -2.91608e-05 -1.20666e-06 
0.000253418 -3.40702e-05 -3.65352e-07 0.000253387 -3.37976e-05 -1.10254e-06 0.000194239 -5.46115e-05 -5.76433e-06 
0.000337608 -6.55861e-08 -1.06611e-06 0.000335494 -2.43216e-07 -1.04414e-06 0.000253796 -2.94029e-05 -3.9924e-07 
0.000296522 -8.2297e-06 3.0142e-07 0.000333265 -4.84728e-07 -1.0254e-06 0.00031964 -2.15893e-06 -4.88344e-07 
0.000257029 -2.14526e-05 -8.70739e-07 0.000342411 3.20043e-07 -1.12518e-06 0.000306654 -8.255e-07 1.08221e-07 
0.000219209 -8.8646e-05 -2.63013e-06 0.000204521 -8.50674e-05 -6.59305e-06 0.00019684 -9.79681e-05 -1.01717e-05 
0.000201413 -9.91005e-05 -2.71305e-06 0.000306846 -6.06295e-07 -6.70733e-09 0.00030755 -2.93014e-07 5.47581e-08 
0.000238903 -2.2527e-05 -1.63129e-06 0.000236556 -2.38727e-05 -2.67925e-06 2.01307e-06 -0.000230054 -7.88169e-07 
8.33801e-06 -0.000227615 -3.00261e-06 6.448e-06 -0.000228796 -3.78702e-06 5.94838e-06 -0.00022656 -1.21035e-06 
0.000229268 -4.01414e-05 -1.40604e-06 0.00032338 -2.27166e-07 -1.35973e-06 0.000323353 -2.33144e-07 -4.53196e-07 
0.000170264 -7.01525e-05 -4.99394e-06 0.000174291 -6.74645e-05 -9.17843e-06 0.000167024 -6.82621e-05 -1.53076e-05 
0.000186443 -9.64003e-05 -3.76726e-06 0.000181904 -9.41429e-05 -4.05948e-06 0.000179272 -9.29526e-05 -1.22227e-05 
0.000183423 -9.52988e-05 -1.18829e-05 0.000328767 -4.45996e-08 -4.7497e-07 0.000285933 -6.80194e-06 -3.89286e-07 
1.17918e-05 -0.00022067 -8.32869e-06 9.41483e-06 -0.000221595 -3.19988e-06 9.92921e-06 -0.000224743 -9.79069e-06 
0.000307273 -4.85467e-07 2.91539e-07 7.39286e-06 -0.000226197 -3.31776e-06 9.12409e-06 -0.000226488 -6.68961e-06 
0.000321525 -6.18531e-06 -9.31496e-07 0.000306045 -5.6091e-07 -1.23191e-06 0.0001914 -0.000110691 -9.59494e-06 
0.000316258 -2.83591e-06 -5.2659e-07 0.000314865 -3.44531e-06 -1.0247e-06 0.000316524 -2.30133e-06 -1.46095e-06 
0.00031652 -2.30992e-06 -4.87524e-07 0.000315509 -1.8806e-06 -1.44115e-06 0.000273124 -1.10112e-05 -6.69318e-07 
0.000277142 -1.06422e-05 -5.1748e-07 0.000282377 -9.8167e-06 -1.68568e-07 0.000282443 -9.6492e-06 -5.07915e-07 
0.00023793 -2.47259e-05 -1.41936e-06 0.000316259 -2.82869e-06 -1.50916e-06 0.000176058 -0.000119023 -2.8158e-05 
0.000193134 -0.000113719 -2.76598e-05 0.000205169 -0.000115296 -8.73342e-06 0.000288923 -4.71661e-06 -4.42422e-07 
0.000231035 -3.26941e-05 -1.45009e-06 0.000257235 -6.44541e-05 -4.39152e-07 0.000257355 -6.50409e-05 -9.9186e-08 
0.000262942 -5.41966e-05 -8.42778e-08 0.000339015 1.91282e-08 -1.08226e-06 0.000336416 -9.88598e-08 -1.05143e-06 
1.88216e-05 -0.000218685 -5.98082e-06 8.3712e-06 -0.000223821 -2.16318e-06 0.00032608 -2.60274e-07 -4.68252e-07 
0.000326107 -2.57552e-07 -1.40504e-06 0.000206304 -8.62952e-05 -2.2229e-06 0.000280314 -3.35752e-05 1.66613e-07 
1.57042e-05 -0.000220794 -4.08973e-06 0.000316666 -5.74534e-06 -1.00196e-06 0.000310624 -7.55284e-06 -4.96565e-07 
0.000256002 -2.46682e-05 -8.24447e-07 0.000252846 -6.96533e-05 -3.37871e-07 0.000263634 -2.33438e-05 -5.31375e-07 
0.000146645 -0.000118541 -1.99076e-05 0.000131779 -0.000122238 -6.24036e-05 0.000307433 4.73352e-08 -5.89214e-07 
0.000346395 9.5101e-07 -1.17744e-06 0.000231642 -3.47866e-05 -1.40587e-06 0.000173093 -7.23588e-05 -1.2978e-05 
0.000312973 -5.94404e-06 -4.95904e-07 0.000270559 -9.70374e-06 -8.78084e-07 0.000306474 -1.06067e-08 -9.31963e-07 
0.000252698 -1.73903e-05 -8.04738e-07 0.000252652 -1.73083e-05 -2.41629e-06 0.000256135 -1.51968e-05 -1.50569e-06 
0.000251672 -1.71145e-05 -1.56864e-06 0.000190357 -0.000118704 -1.60841e-05 0.000236643 -2.40118e-05 -8.84406e-07 
0.000242208 -2.1007e-05 -1.63611e-06 0.000306421 -4.7648e-08 -3.0299e-07 0.000321841 -6.42474e-08 -8.64193e-07 
0.000323727 -1.49281e-07 -1.34877e-06 0.000313118 1.57023e-07 -6.77704e-07 0.0001841 -7.0979e-05 -9.97216e-06 
0.000185749 -7.23395e-05 -3.33103e-06 0.000322416 -3.77253e-08 -8.63607e-07 0.000334247 -3.10233e-06 -8.8352e-07 
0.000307402 -3.13214e-07 1.78073e-08 0.000305214 -1.18404e-07 -8.23399e-07 0.000151309 -0.000138346 -2.256e-05 
0.000323633 -6.15611e-06 -9.14813e-07 0.000304229 -7.74515e-06 1.32372e-06 0.000239504 -2.25788e-05 -1.7351e-06 
0.00024229 -2.12566e-05 -2.54554e-06 0.000224639 -3.75072e-05 -1.59308e-06 0.000305152 -1.60591e-07 -2.68434e-07 
0.00031117 1.34173e-07 -6.90602e-07 0.000307209 -2.64374e-07 -7.22051e-07 0.000251618 -1.67413e-05 -1.52834e-06 
0.000319252 -1.08999e-07 -8.51047e-07 1.52091e-05 -0.000220451 -4.06597e-06 0.000187708 -6.1043e-05 -6.69742e-06 
0.000299016 -1.53775e-06 -3.91012e-07 0.000315501 -1.8926e-06 -4.8049e-07 0.000179782 -6.16879e-05 -8.24369e-06 
0.0003049 -5.63656e-06 6.73763e-07 0.000305226 -5.53577e-06 2.03814e-06 0.000247026 -1.86149e-05 -1.5555e-06 
0.000309153 -9.20758e-06 -9.87769e-07 0.000307299 -3.97361e-07 1.10328e-07 0.000260382 -2.46961e-05 -3.33896e-07 
0.000268602 -1.18012e-05 -8.1658e-07 2.94075e-05 -0.000210343 -6.92709e-06 0.000274846 -4.41015e-05 2.02645e-07 
0.000317867 -1.55479e-06 -1.4345e-06 0.000260379 -2.44594e-05 -1.00609e-06 0.00031825 -5.23832e-06 -4.85346e-07 
0.00032153 -1.18488e-07 -8.72349e-07 0.000310795 -9.09008e-06 -4.86127e-07 0.000310766 -9.09771e-06 -1.45753e-06 
0.000318239 -2.35706e-06 -1.01277e-06 0.000319707 -4.59319e-08 -8.40528e-07 0.000246984 -1.89169e-05 -1.59849e-06 
0.000311587 -4.09612e-06 -4.999e-07 0.000311579 -4.08714e-06 -1.4999e-06 0.0003341 -1.985e-07 -1.02556e-06 
0.000284045 -1.12883e-05 -2.53682e-07 0.000283955 -1.14746e-05 -8.49529e-08 0.000244459 -1.96932e-05 -1.54674e-06 
6.31031e-05 -0.000105763 -6.23674e-05 0.000305456 -2.35749e-06 1.5095e-06 0.000318238 -5.24259e-06 -1.45559e-06 
0.00024235 -2.13658e-05 -8.52006e-07 0.000247186 -1.92958e-05 -2.48111e-06 0.00024724 -1.93848e-05 -8.26446e-07 
0.000317386 -6.62185e-06 -5.05893e-07 0.000317366 -6.63098e-06 -1.46112e-06 0.000320196 -3.24308e-09 -8.29835e-07 
0.000348171 1.60255e-07 -1.21946e-06 0.000332504 -5.71622e-06 -8.59556e-07 0.000318657 -5.82486e-06 -5.0837e-07 
0.000318642 -5.83216e-06 -1.4678e-06 0.000249964 -1.83147e-05 -1.63096e-06 0.000318871 -1.78022e-06 -4.83732e-07 
0.000321276 -5.96401e-06 -1.43551e-06 0.000329391 -2.36914e-07 -4.85727e-07 0.000321479 -1.68041e-06 -9.73247e-07 
0.000320015 -1.33161e-06 -1.43509e-06 0.000311288 -5.46857e-06 -1.50521e-06 0.000296833 -2.04304e-05 5.45119e-07 
0.000287321 -3.18473e-05 3.41446e-07 0.00029953 -8.80595e-07 -2.96122e-07 
Major%20Principal%20Stress%20Vector 3 3545 double
228.12922576 -2.1673392592 11.893644494 147.41740937 -10.749296152 -1.2017877425 115.51851282 -7.916474721 -0.20234870101 
247.48210634 -11.892077155 -3.1934004729 120.96910567 0.15586332432 -0.035138649169 121.22702871 0.21538690645 -0.029027111248 
0.0053557750754 -1.5460950893e-05 -0.053902690069 120.99105155 0.11067181037 0.014507561981 -121.21802986 -0.23902561646 -0.010085442164 
0.33350825368 0.017025798282 -2.3441114821 241.36418184 5.4992124655 4.8747274998 258.23538415 8.6041809766 3.0861328924 
276.40452969 -1.8519467955 -6.8479207502 268.40174949 -1.342546492 -2.9404069663 217.56412864 5.732833757 9.4774869221 
208.41326993 7.1109022635 9.0505643252 266.16103377 5.2530331015 -1.2769678437 269.63444938 -4.3776506519 -2.477282978 
217.74903113 -8.6073532576 -2.1593461964 118.6424588 -6.3793691894 -2.2845579925 295.38843285 -5.6054767272 4.2978016939 
255.66179754 7.6402409162 1.5514744257 224.05443746 -0.65598429614 0.91317013866 229.05997549 3.3641192967 0.82667173578 
257.26192806 -5.5055795964 -0.019319865828 256.79126723 -2.763990869 0.072686321998 215.85914717 3.5192871925 -0.41147495785 
219.26610712 -2.2091132017 -0.29201616416 182.79438497 -4.654664364 0.098131580849 233.4926316 -11.111404529 4.4847037214 
187.8579524 -1.2574331504 11.673853471 240.79428306 3.1171436331 -14.239532628 239.80946851 7.7112883385 -8.6771999375 
235.72883098 1.5940913941 1.9657183859 242.43709426 -3.1763217481 5.4648405877 242.18968513 -4.3504687121 4.5814254789 
241.58374948 -2.5138124783 0.27733028654 241.30896974 0.15370140241 0.66852423977 237.80600964 0.029292380134 0.06106325606 
224.58660502 -0.50576097299 0.12786022858 208.28846291 -0.37736530253 0.2242629821 191.21847079 -0.39260488444 0.1611081369 
174.70247212 -0.35848147689 0.19117207647 159.8523329 -0.2790197107 0.16828209654 146.6863686 -0.31070585837 0.10676668561 
135.84028187 -0.25839619232 0.098218221415 127.56425682 -0.24926841072 0.056182937004 121.96306434 0.12131347556 -0.030995989974 
120.1611955 0.16206852508 -0.14397510512 161.0383066 -7.8385130745 4.8800316464 217.76297142 -2.7881308694 2.2315052199 
-240.14642929 -10.334826795 10.188391498 216.80121725 4.0432685992 -6.9716625257 -234.49236563 1.955358471 -4.7248337812 
244.98143281 -5.6887614866 4.8053155815 242.18238537 -3.9059215314 2.0615484666 242.01168151 -0.38036507175 0.43948595223 
240.11091433 -0.53434725828 0.39181984535 231.62128205 -0.36004937206 0.037364741185 216.73447872 -0.42831733881 0.15509717553 
199.68649619 -0.38621277288 0.22113798661 182.77163052 -0.45074755903 0.16540308601 167.21974234 -0.46006765056 0.18960862982 
153.02146302 -0.30326276479 0.22222066066 140.99229007 -0.25303863294 0.13221194308 131.24416814 -0.15257707733 0.14387049103 
124.53805624 -0.11764821083 0.011097530866 -120.67424045 -0.23023404326 0.069869186447 120.59727825 0.23326677257 -0.11248172153 
-121.24400477 0.0092061103043 0.033821157282 121.15101356 -0.11363721108 -0.02013813077 -121.06711148 0.28627225985 -0.0025797456644 
121.15727553 -0.36920794149 -0.05627723494 121.1385204 -0.44959406232 -0.034432896185 120.98119817 -0.24416635647 0.046981420066 
121.00515251 -0.20294069712 0.00085826766578 121.02109047 0.14902286058 0.0081466644499 121.08535806 0.29225466429 -0.0084024732473 
-121.23300361 -0.016701228693 0.028951663855 121.25300649 0.082857212302 -0.017497876121 121.20614571 -0.33989882843 -0.059809878339 
121.18827904 -0.41239381444 -0.021212637876 121.13359496 -0.5047963599 -0.078232763705 121.01952221 -0.42660796705 0.01743186031 
120.94723509 -0.26069736972 -0.0064675879054 120.86504775 -0.065202137751 0.086712457383 120.95959953 0.37760853884 -0.043482771385 
121.01327237 0.25497894123 -0.018829909995 0.0021424598376 -0.00018261358228 -0.31792534488 0.001245146326 0.00075166947131 0.38571906124 
-4.337039583 0.017882771756 0.019530607597 22.093682177 -0.26722018894 -0.065733356066 38.806149281 -0.073079929944 0.046131815105 
53.787314602 0.072607690038 -0.01668238438 67.162418786 0.091520288793 -0.012854397589 -78.776527426 -0.11292793808 0.0030626369 
88.925400611 -0.0098301651108 0.0084195260973 97.714900971 -0.015961664494 0.0089736302382 105.26700043 0.013412440991 0.0031566405242 
111.52200473 -0.047528384173 0.0085060344736 116.54300818 -0.069306871395 0.004546480794 119.97700143 -0.015801669334 -0.016386372937 
0.013675736384 0.00091657118264 -0.20727827066 -0.0053040764739 -0.0015691097184 0.42686356751 -0.035595050398 -0.0023132968255 0.60048391909 
13.688953474 -0.19057286614 -0.055086369401 30.605899551 -0.15687700587 -0.02881625783 -46.770501247 -0.02041914312 0.00085326924209 
-60.707340047 0.25605565115 -0.00051732213686 73.147423701 0.024619480297 0.057342148543 83.960201224 0.019406092083 0.0083073847149 
-93.419003233 0.0027430201931 0.024519613538 101.58200203 0.030009675758 -0.0042592021876 108.48701539 0.051677169687 -0.046400525326 
114.14300934 -0.050804193381 0.032470107041 118.39500454 0.016234096034 -0.031331959961 -120.79700703 -0.020577436539 0.040085386576 
0.0024087112892 0.00039210898241 -0.052594573991 0.1403592852 0.059598884528 -0.75713192724 -0.13018274789 -0.083054025887 0.40666983146 
0.048771871116 0.065564255163 -0.56784944417 42.86708974 -24.806846206 -6.286199187 -240.12974009 104.72454376 11.930362176 
-245.13683804 34.00379756 -19.425962302 -0.067768084656 -0.0040415993279 -1.6243204195 0.11658776283 0.035191633961 -0.29860949956 
0.09384742808 0.048664503954 -0.23202027973 0.10512309559 0.096086114282 -0.74505455209 3.6231386114 -0.72148862876 -1.9018190839 
117.40493615 -63.628867082 -14.895290057 -277.23034912 66.016066698 12.170366232 194.04175914 -14.76918427 15.875212086 
137.33752601 9.3971091531 7.5822509902 222.24093666 0.52083996669 -3.7836764277 234.12750915 -7.6349652041 -1.9007884747 
240.99016149 3.5336068778 0.30875549875 249.98620496 5.0157728074 4.0389931187 243.72034845 -0.14092436849 -0.82713289864 
242.54751596 1.2314060974 1.6366406674 242.42574153 1.4542160393 0.42271010677 237.23214062 -0.060931729704 -0.25086005933 
224.86806204 -0.16684433044 -0.009944436305 208.37003612 -0.11765105861 0.034801613369 191.1261294 -0.21225290251 0.066511229206 
174.54313243 -0.21475424756 0.0097314807222 159.58601454 -0.066260876681 0.01566223976 146.39102802 -0.062091629507 0.065851516846 
135.50105857 -0.12472939475 0.016892985917 127.22707398 -0.13708074657 -0.0014022469844 121.48800374 0.0079154693231 0.029031430154 
120.00005914 0.11903844552 -0.0046600044097 120.79840773 -2.2565141646 3.5399441832 185.10660472 10.862192617 0.32987611788 
234.87041345 -4.7437145784 -1.5855878604 223.3669861 1.2726473028 0.0043462921503 244.24073071 5.4972971409 0.12082477333 
247.20864966 1.1269730862 2.6744215759 247.62074308 -0.60211099914 -0.10521984763 241.60634342 1.96240992 0.85531181752 
239.6001101 0.18844954735 0.13073093207 231.78927028 -0.35353734716 0.027238269184 216.8760681 -0.17127439183 0.015366289963 
199.63505285 -0.14489944546 0.010148140433 182.69817114 -0.24990701839 0.0053150464673 166.98216216 -0.23223609022 -0.01173776076 
152.77303121 -0.097580415791 -0.0015596166572 140.61801026 -0.050505483942 0.018076499404 130.87603142 -0.063985983519 -0.064009454574 
124.05304771 -0.095471263263 0.051798026083 120.41507721 0.13431994092 -0.022467091207 120.54510584 0.159522117 0.0062596391918 
121.14202175 0.072248982707 -0.007366000965 -121.21600159 0.050658185322 0.001286777242 121.17001103 -0.10346106502 0.018513076293 
121.14106916 -0.2254955653 0.013623221257 121.17808738 -0.21119895462 -0.02011656507 121.14610527 -0.19964753607 -0.029458015201 
120.95706343 -0.1382300731 0.025310935861 121.05401181 -0.042340665769 -0.035204393699 120.98300764 0.035681383627 -0.024192831246 
121.01632191 0.27656654428 -0.011064622083 121.21300068 0.022653254534 0.0099569871303 121.20901519 0.090333112319 0.04714844288 
121.2910617 -0.20589445061 0.059349076249 121.17012363 -0.27547024504 -0.013197265652 121.14223473 -0.32165344562 0.029628577324 
-121.01920118 0.2647816967 0.0034083811376 120.95908174 -0.15340953458 -0.0047486394024 120.84501856 -0.02013851807 -0.063870685453 
120.90128517 0.26143420981 0.002169339172 120.98612262 0.17140433467 -0.0021042918894 -0.0020048313627 -0.0011745802059 0.24372318658 
0.0004680730819 -0.00040725899332 0.091568789839 6.0485424511 0.010272041369 0.14586691517 23.303569084 -0.058156412812 0.096932356158 
39.475609031 0.15856069467 -0.086806052951 54.341956985 -0.091252624291 0.062890312481 67.586035127 0.24055898709 0.028526805762 
79.049405264 -0.044190280716 0.012460736478 89.09521598 0.082965158442 -0.011251576658 -97.813009751 0.066218358206 0.0042669698101 
105.29400198 -0.030324345009 -0.0026787181567 -111.50300107 0.023350995804 0.0010134178351 116.45000014 0.0091069547943 -0.0009084350397 
119.7890148 -0.10276664295 -0.020962876211 -0.02033860627 -0.00011866180656 -0.5522679695 -0.0086562596811 1.1203729511e-05 -0.27137496842 
-0.060956794017 0.00023963173482 -0.7288898606 15.004291274 -0.11999636324 0.099463703458 31.457307739 -0.095960232854 0.043288709305 
47.566809831 0.046324622125 0.016160489049 61.059353152 -0.14973710381 0.013313100169 -73.574105754 -0.011745406785 0.028377241517 
-84.134700476 -0.014530019184 0.0014485885243 93.615604475 0.0074941349364 0.028555218413 -101.65400168 0.0017008139654 -0.018469442571 
108.47801031 0.034951800083 0.04118910331 114.05400525 -0.026690606741 -0.030005227123 -118.29201154 -0.013296420846 -0.051673287328 
120.72000014 -0.0025324837922 0.0058014864825 -1.4822132558 -0.2807028659 -2.2373538925 -0.65885184027 -0.26370137489 0.042694430712 
-0.54447269346 -0.36745328706 -1.8328143785 -0.13882288697 -0.12319704799 -0.4408824161 20.340192896 -13.72947374 -1.2148918653 
98.263102589 -15.390985672 -4.9790820876 -241.16492515 59.040451871 -18.705775043 -1.6234081826 -0.16590156095 -3.7143766551 
2.1838705636 0.64822019048 2.1178173901 -2.1094824859 -1.0574706538 0.054243867234 -0.90758944031 -0.74518212534 -1.2525230118 
0.45950002477 0.33107773353 3.5789512894 62.572823854 -20.946813426 -5.7377321861 164.11759423 -38.391050418 35.302846739 
-223.05904873 35.482953697 2.6716758466 -2.1444675077 -0.013520804626 1.7870939837 121.20500105 0.042563282273 -0.0055163849557 
232.83845802 -0.57041782535 -2.5075792841 272.68903475 -4.4880402657 5.7415100111 272.41062029 -0.98234982659 5.3149249217 
244.28466168 -2.3019114786 -3.9258589168 245.07268133 3.164870689 -5.3204517316 281.35136532 -4.0219386288 10.793304751 
-283.81226724 8.2694027713 -2.8357688805 237.33955607 1.2844533249 6.1576165576 169.27511678 -4.4825045424 -1.4345844332 
190.14478333 -6.3485675981 -1.8935482953 246.0354499 -3.3704970666 -0.37111678038 229.73645012 0.33874857035 -1.9642086294 
293.87564234 -3.3698235721 4.7335733324 262.30291662 3.4479766206 6.2959644755 259.46868356 2.8880332805 4.7136134895 
296.56191801 1.008889476 5.305844594 292.37946125 -4.2104306208 5.1050211754 255.8090437 -2.4807214259 -6.3290049497 
252.36632708 4.3032063852 -1.2627681858 278.32900473 4.1062348618 -2.6202908671 276.40712448 1.931775976 3.6814618217 
237.79062345 3.8602725086 -0.47475696913 259.90057789 2.2644911662 -4.885152535 255.1226167 -1.543155925 -4.043045772 
247.865033 -0.39237119703 -1.3153904719 232.18180004 0.76203386388 -3.1142999426 223.77596304 -1.6438985009 -2.7761704939 
237.03367231 1.708151355 0.17039738239 233.17426455 4.5827405039 -2.2388710863 -130.62117459 43.547167579 -0.0020388066277 
-122.53178076 32.465604954 0.030616795594 211.59049097 -19.952386175 -1.6122036923 151.2964044 -36.207747974 0.0033491824524 
96.518421728 -39.001040706 -0.0073059424222 -116.13007347 19.398795521 -0.016843102834 128.4762741 -17.358132021 0.013305532392 
228.04853059 3.8470885834 8.140492983 -50.719450937 22.451998899 -0.017968344579 199.71919717 -24.790535477 -0.014062012806 
-100.12591408 27.160400737 0.015009973124 -145.92704979 25.408942414 -0.0089445994499 62.676135411 -32.210676186 -0.024976669542 
100.80461995 -26.557821335 0.09814811009 -121.98071639 17.129143191 -0.0052070822634 -185.97354479 26.17959282 0.0038778631356 
124.58985117 -39.234606165 0.0044713848872 126.3388973 -43.432755453 0.0075158249201 250.25985004 -10.387125998 0.48400412035 
221.10254082 -8.3020282817 -4.6579626015 -105.86457485 16.605939179 -0.0023500623597 139.19125354 -14.960635123 0.01166327488 
125.30527293 -6.0046028559 0.003326489227 -118.52655461 8.2561052497 0.0080425829453 157.9236722 -37.509612475 0.058332568319 
243.26185351 -7.4436307502 -2.1901628308 167.13092915 -22.643105073 -0.015770006512 80.795159256 -25.491845671 -0.012004592363 
-124.42561184 24.870076398 -0.000127719296 -113.0811408 27.001438311 0.0015874851141 228.08679662 18.26968944 -6.7084819656 
-156.6038741 39.313554227 -0.019923350943 -120.20186036 13.230462415 -0.00024812222301 -123.10455312 10.859028474 0.0090075700598 
133.84121427 -25.384925726 0.0012876590995 234.72989787 4.4100673598 8.3121699899 100.1036207 -42.730694347 0.0054173905557 
64.177787857 -26.349505231 -0.0013610056194 30.951186058 -16.381798535 0.057606758878 0.088499318634 -0.022078984215 -0.43214825605 
104.35762568 -38.143984423 0.01184599749 -28.567126206 6.4234127087 0.073155278368 139.01057348 -34.49331977 -0.0022635189133 
102.9051303 -35.217806252 0.012409880911 214.44204013 -14.048174861 -0.24921629685 226.78313821 9.4216501924 3.7993630438 
182.75278291 -20.218356919 0.0048928027948 -112.0144411 10.411047206 0.0016892379391 131.21223033 -8.555074144 -0.0099189377622 
104.23800692 -17.529837181 0.016383347148 -95.118768402 15.065273921 -0.00036363453377 -148.54338816 15.063437824 -0.0073996373365 
-74.437164849 35.505054406 0.031180759295 201.95415888 -25.553362784 -0.28214094673 160.86381124 -39.081612405 0.0014606172017 
252.40102071 0.80154233061 -0.98274892187 -236.50586747 5.4292059833 1.1670362261 257.80392044 -12.159021634 1.1469988028 
-119.31894593 21.647506612 0.012035735335 133.69461577 -31.322293148 0.019328480595 -112.96462873 32.535988727 -0.013935894022 
40.262334753 -19.323500362 0.027380867517 83.874275895 -38.587067794 -0.023517750048 170.42430129 -25.409947689 -0.48981347967 
-121.21731069 10.849649698 -0.0068123218673 247.10582548 -5.7775868132 -2.1243692272 183.33954191 -30.735958451 0.020879872335 
245.87247742 13.023613276 -5.750108081 160.86011608 -13.62677082 -2.6918451602e-05 -85.218470693 12.592636136 -0.0018671264112 
133.85028959 -40.890794242 0.014553948818 165.17176597 -34.469104514 0.0054255928268 -115.43813402 41.892464616 0.0028173145246 
47.835498463 -8.0635969412 0.013130862952 -124.91449959 19.634436896 -0.0045141875153 -120.44338334 8.2373013896 0.016928440352 
-122.28982478 5.5250646374 -0.0025230320159 248.76390699 -10.611800256 -2.0559663221 205.36372557 -15.473072216 -0.047678886205 
-75.661527312 27.342466074 -0.013807036182 120.20937761 -28.307892489 -0.012271252414 -119.91915786 4.2066497858 0.020731891326 
122.46964443 -1.3845149955 -0.024022225467 127.79058891 -35.47414864 -0.010957437885 -121.65989025 9.8161039398 -0.0039443902815 
-4.3199995504 1.578088641 0.042401701011 105.384173 -42.513737897 0.019697214372 166.36188406 -29.571255191 0.0023903685727 
153.43273736 -31.362928884 -0.020824193076 -66.416343169 17.725138852 -0.018086059506 79.056479652 -32.515443585 0.0045321146203 
-106.12810109 24.239700595 0.014375228168 -94.264190739 30.624266697 0.0029161041392 -111.77586282 21.894473863 -0.0059518713425 
135.04846383 -43.516734976 -0.0065553312839 145.13756665 -40.717154048 -0.00073852945789 -127.61671368 28.459680581 -0.013807667463 
-125.64967316 11.631161002 -0.0041113828338 -118.01305547 14.441199406 -0.0051128141628 235.88074646 -3.9271042812 7.3732292528 
227.98991083 23.602966849 -2.8629873451 99.243887321 -15.572977368 -0.4147778569 133.67583491 -18.99078754 -0.0018146898781 
-100.7153455 7.7612528716 0.011480215916 120.98173417 -36.826148036 -0.050036619855 142.69198232 -8.0041833955 0.0026131693254 
243.97743016 -4.5134301647 0.66108441759 141.43671866 -21.774787686 0.0099192088655 102.51542042 -42.064989921 0.055473066281 
-115.6598743 6.0346192754 0.013851981947 126.55800709 -4.2146857459 0.029207043392 -114.83097332 36.128342725 0.0021592965146 
-128.85642437 22.836088871 0.0096458136972 249.72398013 -7.2430515537 4.4362527849 240.0784386 -0.26915519733 0.37459111909 
-175.19895047 30.183075467 -0.014917238214 262.02268758 17.323685441 -3.6476159049 181.49478259 -14.253400446 -0.010574732844 
213.23472211 -10.823575548 -2.293678605 -0.0069518325838 -0.00066744382795 0.29200472843 -120.28278067 17.724856872 0.0070436107314 
135.04332621 -41.378712848 0.02492397689 -116.65222128 24.479502778 0.0049971508048 270.12409571 -20.26150576 12.394786035 
220.70005479 18.389933503 5.9398809381 219.54185859 -15.667989173 -0.91116203371 155.79834172 -23.521359601 0.0013441853774 
-112.17586194 16.574166301 0.0011661431906 129.53973741 -12.680318851 -0.00090403243392 241.44589691 -8.0147322663 7.4258273645 
49.288756077 -17.722906712 -0.019890800623 53.581407724 -26.784949163 0.01044969766 -23.326171747 10.903282264 -0.034819326496 
-0.023760036731 -0.00059539823278 0.89619121426 -24.254620069 8.1659175872 -0.097077987936 202.02571263 -11.391249703 0.011466803963 
151.22526239 -41.080428388 0.011191147734 74.487038856 -12.07477798 0.020285302975 -26.825180707 12.123348974 -0.090107071963 
238.08207983 -7.5520146635 3.3353669212 139.46205491 -37.473564037 -0.0038258581187 -120.98313521 7.5042612625 -0.00093629821982 
121.5076162 -5.6792454217 0.022089505298 135.11345317 -6.3070840326 -0.049271495752 78.791845992 -34.442557604 -0.028999084405 
-106.82555379 7.0592127347 0.00048246332419 236.85544694 15.725477124 -4.6893311557 -123.34880392 15.011193569 0.014291264144 
255.50180566 11.468490652 -9.2526068378 -0.35201599703 -0.038117624751 0.57797450413 106.80914304 -38.993670593 -0.0027303078212 
220.66653904 17.873634107 4.4236385205 -91.736425164 23.204137187 0.012456799864 65.581099971 -31.502966143 -0.032585048957 
177.45520124 -27.146898394 1.7824108651e-05 80.096601392 -38.475847945 0.022820931474 180.56479196 -32.977712647 -0.029943898503 
91.389941096 -34.429254349 0.0061952340906 247.17400494 -8.184685219 -1.4658571815 117.47721661 -44.054696749 0.0062343783137 
-233.14320189 4.9979401095 0.35138555161 42.765055011 -22.992951427 0.061921135695 145.05457315 -29.661917355 -0.00086887474263 
0.0012861560335 -0.00050225381948 -0.29648531341 227.4158822 -13.455334966 -2.4425689456 216.27250589 -15.321061057 -0.35916734123 
-125.12325436 15.235727291 -0.0086071842501 -120.62373653 5.230503657 0.017222644672 121.86429279 -2.4527962308 0.042546835435 
-156.68427058 34.285464059 11.148767197 -121.93843591 21.564540383 -0.0039170453273 -115.36349643 12.809229933 0.01013011366 
-175.10370766 32.851516857 0.011430500034 -174.93768683 10.823282626 -0.011496510428 160.48936046 -20.158018338 -1.2973074508 
139.53321146 -27.059219087 0.0015751626224 197.10913501 -23.555175695 0.0038616779709 108.42390269 -29.13289711 0.017955771201 
133.96834241 -12.679704359 -0.0064544916827 104.82673861 -31.955225672 0.0127662322 116.42860432 -30.169796522 0.012352389836 
-115.39040908 43.899444415 0.037292707671 -139.63098818 32.185351384 0.025349974971 191.31818923 -20.472428613 -0.0029978563837 
237.96262318 8.5374335845 -1.5565950888 38.960128017 -2.6469409462 0.099398087184 65.044562867 -18.236959767 -0.075602061589 
-59.408854164 31.098584484 0.0072838412008 240.30720117 15.68881855 -3.6531406786 243.85064399 -10.194127897 6.0940235614 
-99.684151176 21.581687563 -0.0057610397842 -93.743392513 6.8277508188 0.0078496752583 -9.858365652 3.9012119531 -0.041317615678 
222.0359 -7.9571354955 -0.22089097353 178.76179413 -33.431696246 0.034730469904 -151.87656547 7.5297298089 -0.010014902016 
131.97605651 -37.021165649 -0.0086713478635 -120.59732812 24.723779811 -0.023242597327 150.9020181 -20.481974219 -0.009521805256 
121.89358231 -24.886410933 0.11177566502 -118.20849155 3.1434248504 -0.0050688604351 123.58543514 -1.3604641396 -0.016402184529 
-193.50499059 10.51842363 -0.026894550564 -118.67940128 17.63168491 0.004234308106 120.81821835 -1.4848100145 -0.025915876455 
121.30327714 0.25957855802 0.011122531377 168.19237255 -36.722117303 0.018879901017 238.55395369 -1.6251958995 1.5805368811 
249.05204531 -2.4950950417 2.306143361 217.39326614 -12.171583925 2.9965064989 269.59576341 11.795746452 -3.094278428 
224.33509673 4.5920208068 -2.0234034577 232.86806228 5.2177999449 5.0142417007 121.11021586 0.22457909895 -0.043591707415 
121.23322921 0.23049912634 0.04770242731 120.83622862 0.20446653763 -0.11650735814 120.93621603 -0.52085900572 -0.028588323117 
-120.41675418 0.81638455498 -0.0048187838882 -120.98962468 0.87238992555 0.016367613092 -0.00069813279562 -0.00013589849984 -0.11538046318 
-0.061935642009 -0.003841012576 0.86359022156 0.040705156209 0.011412916041 1.5510323286 245.79833409 14.156244364 -0.28337311379 
228.77275199 11.43320778 -1.3095145669 206.72507064 7.3309915962 -0.93508501246 261.79570323 19.855323455 3.8578487669 
267.15352091 9.7236486816 -4.9037810214 248.61277734 12.542271044 -5.5705133002 275.32237635 9.6628285683 -5.9946929551 
267.27653332 6.3107722522 -0.38579069163 244.32190464 13.18659352 -10.522546114 247.14263621 11.452438322 -7.3383149433 
-0.00022285518289 -0.0001046675434 -0.040082716352 -0.006205495106 -0.00028260723989 0.28518972754 -0.0011344248554 0.00097112495077 0.18231142562 
-5.8722381028 1.3727566634 -0.069189080098 -0.0098403685279 0.00094507004291 0.18852863612 0.012863942619 -0.0046351129899 -0.25571917969 
-0.0057900181723 0.0022623943555 0.2884602529 -7.3696045468 2.8563929859 -0.031594751318 21.483134834 -6.3249518584 -0.025620607291 
-12.816871145 3.7381104564 0.0069818770923 17.459851607 -7.4971475471 0.14068673113 37.622506601 -11.344916272 0.031128310369 
29.770568341 -10.138796272 0.095924502952 32.416942627 -15.16956582 0.24058455369 50.78070657 -9.671496323 0.026043773492 
43.249620663 -9.5891829477 -0.046332330532 44.875425746 -18.97866979 -0.16571853279 -66.214871826 9.2787023317 -0.0043300054412 
-59.529016471 9.8438848171 -0.0099866475449 58.465244087 -17.74446586 0.12569444352 -76.356087679 6.006861747 0.0087932350899 
70.499779793 -6.2910558991 -0.040695452483 -70.613872149 14.997518256 -0.02102393457 86.743894841 -6.2713956535 -0.016473066944 
-81.665424633 6.6979588346 -0.024802870431 80.083808306 -12.277403128 0.079513416879 -95.610055877 3.3388656364 -0.0020983988234 
-91.240697201 3.4789497224 -0.0042687658139 89.529538637 -9.6850509221 -0.0611075065 -102.84614084 3.7812544775 0.011557390031 
-99.143577537 3.9560670009 -0.0092841504949 -97.372564878 7.2935856641 0.0031875569495 -109.09948188 3.4512864715 0.015505348868 
-105.9545747 3.5977593501 -0.019384581398 103.91242456 -7.4425336897 -0.035438020668 116.05326217 -3.0458541572 -0.042680512825 
-113.5473181 3.1903526927 -0.020717258661 -113.86017692 8.1927191504 0.0010374457886 -111.66085146 5.3131522631 0.0011395129602 
-109.49136027 8.8142686899 0.0092146688976 119.09305879 -1.4669615758 -0.02903456244 -117.31421877 1.6101769338 -0.0084590708395 
116.94060566 -4.5777203544 -0.025238891669 119.71581081 -2.2975378986 -0.028394608577 0.0063803644358 0.00065948328463 0.82647981485 
-0.030740320608 -0.0064680245807 0.82428749149 -0.049911896071 0.013200589972 -1.1929265906 0.049497849403 0.014741237331 -0.27573576117 
-0.048687305134 -0.020760023888 0.5866392651 0.0060568712389 -0.0010225146332 -0.62708482592 8.081348492 2.5419020162 0.0058097760295 
12.011659022 1.8723808627 -0.39374559139 -21.843672535 1.0466854412 0.1493465344 8.5389188014 1.4763542327 0.72691469793 
41.770357918 -4.9610936292 0.20728258277 37.87754415 -1.0175606879 1.3525183242 72.42809653 -17.359575376 -1.8493191857 
66.969017595 -7.430904697 0.75373302898 -97.598472066 29.145605002 9.1418580059 203.02177454 -69.911352426 -13.085323711 
122.72430401 -21.569659516 -4.9711598582 260.51994218 -74.146203248 15.390664338 282.19395416 -15.841255665 24.418030577 
230.70818324 -32.792504773 -3.0309166904 289.9250495 -2.7045618071 19.142227807 -120.90541735 2.8535292298 -0.019457717373 
120.86059428 -2.5370448446 -0.047575726772 120.35980971 -4.7634447864 -0.056383096544 -120.72029706 2.2777340029 -0.017107840303 
-120.2945945 2.8304113764 0.015578582215 120.79081295 -4.6769658111 0.049137527861 -120.71548066 4.4470352978 0.017934867275 
120.5802596 -6.819478977 0.039279889785 -121.07768103 3.9806160075 0.0028432480334 -120.94157661 3.9890217406 0.021085289 
-120.69335786 7.8792228424 0.00030542741082 -121.21026952 5.7440308363 0.0054447447411 121.05352873 -5.9229324532 -0.038989670338 
120.97780313 -9.1996551075 0.05178085395 121.28780247 -5.0501344814 0.047655254032 121.28939743 -5.3902294281 -0.038328135588 
121.44692172 -10.428475567 -0.019537074335 121.28320166 -2.7873019026 0.014923748546 121.16834369 -3.0535958678 0.014630795985 
-121.62201744 7.7473820575 -0.0086261033712 121.68712193 -2.5153228714 0.014631569761 121.57841866 -3.027424918 -0.047928523166 
121.90476609 -5.6057379885 0.0047075436254 121.42859224 -0.80241759417 0.0047423408296 121.40346513 -1.1759402113 -0.01184865263 
121.99464227 -3.9463203325 -0.0076154915144 122.10713461 -1.8942724898 0.045370046367 121.47850127 -0.3404385326 -0.081922676611 
121.86898377 -0.49280934152 0.0049847317254 230.47018808 5.1547881767 5.6179827199 242.48256158 9.4901670645 -8.1824168059 
253.23288005 13.389280127 -4.0646063459 236.86190967 17.179844887 -4.8395310081 234.7310013 18.653824543 -4.1077893403 
236.77828278 20.072283111 -5.01175591 239.78906684 8.7197202543 -5.6361900453 229.1372294 4.6813266089 0.24588985701 
218.96500367 15.40675511 -2.9780692739 240.0884795 -3.834203985 2.9886358827 244.40428922 -6.8924087124 5.0437490077 
217.32598904 3.5175967291 6.4226087273 241.64034885 -1.6004393642 5.3148839387 240.00657191 -8.459709554 6.0869121295 
245.01725785 -9.8180201395 1.5206084111 243.85058786 -10.12870147 -0.44293299135 248.57616822 -13.996753915 2.5769266787 
242.73505676 -4.7137021814 3.6293750609 242.29534405 -2.0857843944 0.67805521206 250.70026632 -4.4819713619 -1.5060564571 
239.16542321 -3.6176139743 0.26389865506 237.73118699 -2.4662286213 0.40039588464 243.23193826 -6.309436664 -2.0070371093 
239.44745951 -5.2202687685 -1.4330506312 236.28835444 -4.8605069195 -0.48526336396 234.74348832 -2.5156689765 -0.17257658358 
229.60637315 -3.903036715 -0.051955302809 223.11400246 -4.4676983167 -0.02804835374 227.99268512 -6.5273111947 -0.77480483816 
-212.99541011 5.8431473141 -0.08607337328 -205.21649063 5.9853110325 -0.059308623663 203.94958631 -13.509589745 -0.11955019495 
214.56908059 -8.2546894298 -0.037082147692 213.55098305 -11.727784994 -0.13833715547 -200.77900132 5.4457224403 -0.11363701302 
192.66590939 -5.4444497333 0.059836749741 198.10073005 -11.017433059 -0.058482729434 -182.7519284 5.6335711181 -0.073828249456 
-174.96406814 5.5822966848 -0.12662314705 178.16247993 -12.628085725 -0.047512737503 186.25954012 -7.5097540574 -0.0065517366915 
187.30896233 -12.411807401 0.0046573136827 -167.64229277 7.3123562401 0.0095939881074 -160.68442893 7.026189976 -0.017958137563 
167.51523317 -12.274741277 -0.10196722868 -155.80121034 3.9147247455 -0.07656263553 -149.43385667 3.8240003177 -0.065048954697 
156.60882357 -10.578416191 -0.011681140933 144.73498712 -4.2033522486 0.058086734314 -139.56380332 3.9873179586 -0.029515935323 
-147.06981585 7.7819944404 -0.016863000861 135.65238316 -3.3541077736 0.0098349518032 131.59121802 -3.0928003275 0.016759534087 
-138.53961809 7.1566014588 0.045672909196 127.28803046 -2.4306873127 -0.023169132452 124.61380594 -1.9267429414 0.048158176268 
128.84120396 -6.3051474502 -0.091599813738 129.7027272 -4.3958172268 0.029929754499 132.90879168 -7.4828510687 0.0072922952402 
122.97794854 -0.69175550046 -0.052417571739 121.84863496 -0.3934620281 -0.020427324116 124.96515443 -2.7596053425 0.049221482859 
121.98965102 -0.38285154976 0.11318501688 -147.89579074 40.555773858 -0.078896680673 132.79238133 -42.585847717 0.064993199535 
145.61388746 -41.493275734 0.12249765935 140.99713052 -42.558228929 0.083245176525 155.74945657 -40.102835352 0.026659810479 
142.92003221 -42.273369565 -0.002265532206 133.10177918 -43.543741968 0.0036261256541 123.87533764 -43.717981104 0.008256295384 
126.30190756 -43.935834815 0.027578582017 118.06563057 -41.840054272 -0.1158599997 116.48467986 -43.000520458 -0.051707367938 
110.28907292 -43.179424054 -0.05367204271 130.90694191 -33.414405883 -0.001921512146 124.79731466 -34.026160688 -0.018396601411 
128.12579341 -32.044543857 0.027243344025 -125.29116604 30.429437263 -0.018959041716 -130.35085417 29.868859906 -0.004425059492 
118.96580516 -34.279306062 -0.038433157545 -113.7370292 34.293603993 -0.014431429964 117.88002091 -32.638959424 -0.086508074422 
114.81369181 -31.429192684 0.010742814884 119.50754964 -31.351657663 -0.057761836046 123.91302386 -28.490910425 0.03857574837 
121.19840106 -30.395595766 -0.052187454016 118.41623208 -29.185268512 0.031691027729 121.30276662 -36.03078661 -0.055967634399 
193.37170741 -25.148228967 -0.18225541781 189.54343848 -28.064671813 -0.008097745216 206.16694608 -22.959437634 -0.73331766533 
215.48100752 -20.252423911 -1.0441028237 220.58560583 -17.049235365 -2.4155055717 173.27664248 -27.915127393 0.013080904477 
190.36238134 -22.741729684 -0.89159753519 211.57511665 -14.810883396 -1.9239396604 191.61567125 -19.120272302 -1.9511812652 
247.93880938 -9.8345162564 -2.769900976 228.5008327 -14.924631488 -3.290828227 232.11878552 -15.872993479 -3.9775802074 
240.44471822 -12.312233564 -3.2803563699 228.70038879 -10.700723385 -2.0594545445 148.56672903 -38.460622984 -0.016832015341 
139.12591467 -40.789508247 -0.048468643207 142.71871513 -38.730575402 -0.10233085329 137.02050969 -39.194169263 -0.019638378336 
145.21056979 -36.811005722 -0.015103902301 158.66091796 -33.044979434 0.044329060096 165.90824659 -32.034387152 0.025079627935 
157.76953866 -35.363620762 0.0229324687 155.19377578 -37.775586805 -0.076938440201 152.84379012 -33.734836562 0.015527198674 
159.51261184 -30.454450797 0.016153410975 146.42693528 -34.498235429 0.035775004715 100.49963865 -40.770258513 -0.052473406624 
94.516751315 -40.683815952 -0.095370866472 90.661363564 -38.884765748 -0.028831608682 -80.989626894 35.636026475 0.019201513133 
87.720603695 -35.924981474 0.066637927251 110.80077597 -42.2341158 -0.013126614363 106.00052761 -40.59407585 -0.096829153489 
102.00852968 -39.062127788 -0.054925380016 110.72670733 -40.331339873 -0.0074165038969 -85.330171366 33.415563962 -0.046864521308 
93.492999091 -36.731593273 -0.011272818404 -99.166689526 36.886844894 0.033766411084 -118.21359552 23.064827861 0.0061994389597 
-116.25354478 21.988607112 -0.016238122787 -117.73907069 20.648333462 -0.032299812843 -117.43832517 18.482846662 -0.00025649501647 
-118.84184513 19.659868073 -0.014580364147 -114.24026283 23.304759116 -0.017371518825 -114.15308284 20.663919402 -0.030741114892 
-111.81501434 19.265485488 -0.0057652759898 -114.05975474 18.063645033 0.0097788121914 -115.7005907 16.269627211 -0.021019642206 
-116.61895751 13.611516364 -0.016336899547 -117.03931218 16.964167225 -0.012179936961 -118.32563691 16.125044878 0.011130848924 
-113.81929865 14.748532979 -0.0035679389933 128.86903586 -20.09086032 0.012388354378 126.64344324 -21.202941368 0.0043007805888 
126.67631201 -18.558509124 -0.025826392195 125.04494192 -17.430562497 0.0090428027102 126.72355965 -16.325803764 0.017235885589 
127.52613134 -12.151324359 0.00016485479879 128.9681197 -15.031560431 -0.019820123311 127.12254349 -14.492066685 0.009510434858 
125.32905261 -13.466674303 0.017095295679 131.30865718 -20.981197452 -0.03632958401 130.85893421 -18.179011495 0.0097542481049 
-131.63834449 15.826778465 -0.0031361445588 239.42423204 -7.7934802148 6.1446639911 255.85565443 -0.74703058027 2.6879532658 
242.98555072 -1.8002176764 5.985870959 248.76626211 -5.9404839031 -0.2296534288 237.09617767 2.4422528845 4.5952484277 
231.23546517 -0.82494242438 3.4219781489 252.86506955 -16.429176673 4.0964555512 220.06230614 12.422290916 2.3032025399 
216.57110227 12.094412251 7.187877532 209.25806644 10.741949108 5.1692630862 207.86245799 12.665109759 7.3910756427 
216.07049751 17.527368923 3.7533713943 49.838195176 -17.912732016 -0.25331223228 -38.094133169 15.086910717 0.09555844701 
62.090119561 -24.598894864 0.077577784441 64.740822362 -28.645469054 -0.057634078539 77.471898015 -30.951905664 -0.12596716143 
39.028915792 -17.478023242 -0.10161175485 40.311164059 -19.474491996 -0.19271298477 52.34631157 -24.843477317 -0.020812200955 
65.985436047 -30.552837695 0.099104824383 -25.430017125 10.029602412 -0.057238697641 209.57773359 -20.180823013 -0.26747603297 
210.88214949 -20.521260651 -0.4515150053 -200.90688033 24.969762539 0.024301495783 190.68010645 -29.166097991 -0.025486136721 
190.19053585 -29.097264204 -0.057672205626 190.19499101 -27.187975379 0.0074611178251 198.38932631 -24.195477112 -0.05847036068 
191.23547134 -27.757675724 -0.036945302296 189.27557325 -29.264328503 -0.11349442244 181.17296782 -32.030822828 0.035401897357 
207.96168521 -20.134868984 -0.11396046104 217.41941268 -15.408986135 -0.73572869988 179.74258006 -33.363825731 -0.061332375625 
206.57968182 -19.369967071 -0.1445465496 -107.15039414 26.724988254 0.017711224147 104.16909433 -28.182635658 -0.023021568093 
-103.20396386 25.697609274 0.0082055672714 -99.790783041 24.403198642 0.00094475829903 -102.76962886 22.902314335 -0.026526381237 
92.79259065 -27.001731211 -0.02268391081 95.822111423 -25.2746459 -0.048617703677 97.169838566 -28.96262509 -0.030298889818 
-102.41277746 29.602923124 -0.0036723074137 -99.515133151 31.292592039 0.011675003253 -95.856817119 22.369303061 0.002523259056 
-106.6601148 30.58825474 -0.010226820915 142.92663506 -26.188414421 -0.0190026637 140.65086546 -24.374403268 -0.0011381626347 
143.87410365 -23.563446113 -0.0015753672303 145.90811606 -21.170971305 -0.041328215815 -148.30663909 23.016315405 0.019957162434 
150.62443881 -26.71380748 -0.063748527564 -145.69226647 27.520629169 0.020574929753 150.66449097 -24.468143191 -0.0061196487749 
153.42079909 -22.039107957 -0.015270398998 142.21929887 -28.389596531 0.016674118895 52.913056217 -25.669718768 -0.12106474747 
63.98414928 -32.04631161 -0.064968089075 50.916825053 -25.929081263 -0.14492823062 52.704924157 -27.684743933 -0.048675117623 
41.13702203 -21.336066433 -0.026930053779 74.661699993 -35.127143382 -0.087209867297 73.379300853 -35.547120922 -0.015835934126 
82.163356239 -38.692474423 -0.017303437226 71.427132823 -35.348911941 -0.017998916256 69.697205106 -34.88463242 0.047685199966 
61.079288524 -31.775309468 0.0018476328463 50.852036938 -26.905136239 -0.047759590119 56.33744499 -12.448281901 0.04517037974 
-82.940051145 22.618200539 -0.015237550638 76.547608473 -17.432459813 0.18198238864 110.1881099 -25.588489522 0.12685431156 
-85.230098047 17.00035424 0.070020853118 98.575278333 -32.660390053 0.22976918988 -111.97738625 31.990745808 0.010683875839 
87.145300894 -26.596226187 0.057126901255 70.533509837 -22.597859706 0.1038124168 129.37224881 -34.156376596 0.059798685208 
-120.37146358 30.078606198 0.034580244227 131.74546942 -28.636902705 -0.067042520264 121.93770368 -13.434436748 -0.018404892738 
-121.40076824 14.067061381 0.012056349315 121.12283288 -17.545353978 -0.018295405847 -120.86791299 14.410357304 -0.014119718479 
-122.62717754 16.126078991 0.015217834176 124.06299657 -17.3767132 -0.005283489565 -123.28859311 18.393780949 0.0071821309595 
123.4176111 -20.674876644 0.039256418281 122.02141684 -19.415117566 -0.0090515835645 -122.40600576 12.433858617 0.011131666321 
-120.95358311 19.645633502 0.020283418415 171.18867194 -30.991137686 0.077868981415 181.67362526 -26.706347725 -0.019086707839 
175.35468621 -30.435855255 0.064977037864 180.45713697 -29.563947898 -0.024765122921 169.88764739 -33.719082823 0.037665245259 
201.30013542 -19.520844299 0.010127092398 191.33508068 -24.974984499 0.011272742417 195.61434093 -20.882792568 0.052376449514 
188.62599297 -23.256012167 -0.01816280416 198.12139927 -18.00974844 0.010568525532 184.44289081 -23.793341637 -0.016241172422 
186.02016237 -28.26243512 0.044106835817 124.62915829 -41.547792117 -0.083174676589 120.45013814 -40.598807883 0.0013299779208 
128.72333123 -40.014157038 -0.035748428058 131.971571 -38.470657159 -0.078430728258 -115.72033838 39.241558665 0.018324880239 
119.2181226 -37.629701922 -0.055816156992 126.44122881 -37.332350281 -0.003604394006 129.86591379 -36.215112726 -0.040370152997 
128.51571974 -38.188576291 -0.0074810555041 111.26494641 -37.644139298 -0.011312667727 135.70413723 -37.265576333 -0.02624067077 
120.43872673 -42.599315804 -0.032182460397 130.35751691 -42.161493457 0.0086816862845 135.74668564 -42.2650624 -0.10762497964 
115.65876432 -43.094642561 -0.084710509354 120.96430802 -43.706551338 -0.0042720595281 110.06756809 -43.195993479 -0.079118722758 
140.33688752 -42.152225915 -0.0062416110411 130.21187482 -43.453755238 0.0021698426371 125.0621343 -43.79639818 0.064135678414 
247.16367348 -8.8570741923 0.022461665349 250.40372083 -7.1494286582 -0.0018497270714 255.44604454 -0.83599398458 -1.0135746509 
252.76306946 -11.841234591 -0.90108058646 255.63680735 -13.153978876 -1.5356367386 250.20015305 -9.9327828216 -0.84469260444 
255.17454045 -8.3365929825 -1.4460591112 247.2596891 -12.511652111 9.0481416915 239.67548581 -2.092562914 2.9215886843 
251.56968654 -9.8522598432 6.4428975403 250.45113315 -5.9659678454 -2.9939904023 242.26601585 -5.5068940869 -4.3936300874 
218.83050271 -8.4760663073 -2.9106916561 238.239207 -4.0409488502 -4.0681843515 252.970798 -9.6387115623 1.6208019545 
246.01538275 -9.7465439013 -5.6868101022 214.51986306 -29.576353549 -3.1310075294 187.95431491 -21.532732476 -7.2550040125 
161.23961032 -17.71355536 -4.1547084253 133.1610328 -18.717813656 -1.3463819703 187.5289125 -16.376603182 -4.0536118947 
186.16964382 -17.149003763 -2.1693572962 -112.14055059 13.569448223 -0.025779648648 -109.11227622 16.587383958 -0.013822301289 
-108.91731183 13.489010472 -0.015180256261 -106.23324549 11.883931407 0.020112894535 -97.832029828 11.406006294 -0.0039734822123 
103.16260516 -12.446670834 -0.054351707742 -100.68912691 15.922875491 -0.020157305941 -102.74891916 19.16364946 -0.012219590453 
-97.399334884 18.510855166 -0.017635937751 108.75112673 -19.456084465 0.045125999232 -109.06740467 23.108979576 0.0083969442856 
-105.80178584 20.507545438 0.0015843598356 141.09698158 -11.605353329 -0.033295927707 145.90801512 -11.476535974 -0.006696855835 
143.54791576 -15.026664035 -0.036541031631 145.04320542 -18.549725666 -0.044722055524 140.44130356 -18.280573531 -0.0020127950182 
137.23586433 -20.41242272 0.0045953209448 136.45677152 -17.047325373 0.059198338584 133.84890781 -15.785730118 0.00098351346862 
136.44611566 -13.822403817 0.015115286899 137.265739 -10.564548262 0.01065767517 134.52352865 -9.5819768478 -0.06251830613 
125.82863614 -5.1470130015 0.021856441559 128.03873657 -7.2596407989 -0.0011548773034 130.22333168 -10.650944153 0.02590748883 
127.42874382 -9.2678319368 -0.018740186712 125.4660272 -8.8037391296 0.0051146741961 123.89531854 -8.611093878 0.028297204965 
123.83638849 -5.8884354282 0.015227749578 123.48259598 -4.1987624988 0.023257954622 123.93815228 -3.5635755056 -0.005363505358 
122.97870036 -1.3866286861 -0.042070981609 124.42336205 -3.5555476659 -0.016149851544 -119.2899741 11.52249166 0.022553898969 
-118.2467049 11.480377503 -0.012927326774 -119.52506261 8.374090487 0.0029675460568 -119.66886889 6.9085264119 -0.0021152732584 
-119.13309982 6.1138822271 0.013231743226 -118.36880244 5.7942882242 -0.0070196823341 -119.06373114 3.6734760567 -0.0018869326331 
-116.96278215 10.613569958 -0.023296159491 -115.51281495 9.5119402237 -0.0022381769602 -117.10573489 7.2785236403 -0.016098781036 
165.45343166 -33.790138463 -0.05879572456 -179.78045268 32.019556509 -0.084758149407 169.47667511 -35.293381716 0.046397256748 
145.80642141 -39.228211903 -0.023626096448 159.45769595 -38.355231993 -0.049636857499 170.45180087 -35.965304025 -0.087153464899 
128.65137007 -39.154321046 -0.061720592257 139.25564553 -37.538886579 0.15047237683 149.33891863 -35.015020021 0.10283338568 
157.60525159 -31.774097171 -0.054439180599 243.91090053 -9.5462662547 -1.6682351848 239.96963615 -5.1507506014 -2.3320130653 
-234.86539964 11.795067242 1.7164740358 228.76280582 -11.445459276 -1.2110549461 247.99615479 -10.399432874 0.036431351831 
252.7788441 -8.3803748267 0.03036799688 234.75651538 -10.809819593 -3.5446490035 224.47248104 -15.367568707 -1.2531504169 
174.52546721 -25.077340973 -0.051271815437 166.88896228 -26.100497483 -0.015974495154 174.61952391 -21.49364443 -0.029869301913 
174.13060864 -18.452572998 0.039029337406 182.22132771 -17.12240738 -0.008741614408 161.17655577 -23.030740154 0.0078447682922 
158.44027959 -18.688121653 -0.029765961622 164.37649512 -18.012716718 -0.004332514358 170.86044486 -16.924313707 -0.042427175913 
160.16928188 -27.115613958 -0.090773037278 154.82291682 -27.412393134 -0.021002551222 77.429944744 -19.265666276 -0.046006470595 
82.53063832 -19.238541315 0.0026831870158 -88.167780585 18.28452597 0.021285517586 -86.510491199 24.327605557 0.0076765721461 
79.421795995 -29.200819093 0.035418254041 71.992618889 -25.810213494 -0.045327731022 73.470346068 -21.886946371 -0.087303299061 
85.913401151 -30.192475663 0.018427125092 87.534093362 -28.24838571 0.044803861127 92.69633778 -32.599549255 0.036349443152 
126.71406671 -23.954366125 0.029082092183 124.84201609 -22.217558286 0.021654118965 -123.01952835 23.210041635 -0.019083194861 
-125.81538872 26.653341403 -0.0096498779183 -122.53204842 26.648496343 0.046980503133 -120.44096289 26.553679595 -0.00026671642189 
-122.61706006 24.874902059 -0.0084185933276 -128.47656745 25.627572181 -0.014820523123 121.34471131 -23.133938123 0.020570841993 
-115.05774321 25.807298547 0.00058321770317 -118.30285704 26.346987245 -0.011495716889 -116.65630087 27.733418499 -0.011023789261 
-114.50974454 28.647370396 0.0035064569611 112.14561514 -24.32538632 -0.0026747735885 109.52131521 -25.663705914 -0.022969179079 
-111.01685781 28.095027088 -0.026539917393 112.39895959 -29.77427364 0.042692052797 218.72722337 14.999417735 -1.0122188104 
219.35288058 17.666381398 0.073146386806 243.5386479 17.405465319 -6.6431795157 241.34691439 15.302410019 -10.469604263 
210.19905445 18.48314181 -4.008439096 218.15032766 19.617255813 -0.6861512318 226.44985732 21.031324941 -5.1666513571 
229.66221745 16.777139503 -6.6728483113 244.61919986 13.659138078 -8.2906065175 150.55945447 -40.10503682 -0.020344660163 
161.16844316 -36.885640122 -0.012283905099 165.82369401 -36.221874552 0.054280653953 -145.91099692 41.685099676 0.064706913278 
154.21592399 -40.20965606 0.0057913542676 162.05478949 -37.981004457 0.027018448431 -159.92764362 39.105742519 0.039276836403 
171.73827548 -34.831148204 0.040944018579 -120.13823309 15.524894734 -0.022191050886 120.72712371 -12.003579164 0.027677972485 
-120.59405705 10.619793389 0.014313290357 -119.17390378 13.90258967 0.015773588706 -120.22714057 10.757568551 0.035056359762 
-119.48068857 15.504334571 -0.011241961624 -119.45680332 17.73921647 -0.0071097225365 -124.37219852 11.260847999 0.01091262529 
122.67672279 -8.1181143196 0.019208144951 122.23921151 -8.387718147 0.024572777659 122.35002248 -10.335254209 0.023635022341 
-123.20784925 12.904008632 -0.0090209756697 124.04908969 -13.109196218 0.011117256303 -124.32921978 15.106846953 0.017650696067 
130.78896912 -27.023733944 -0.042006072661 133.9620427 -28.283198606 0.026428472336 136.50267208 -26.245804966 -0.017399876053 
136.7020343 -29.29558157 0.058697264871 131.08412198 -24.090588198 0.02115109399 137.64936379 -23.678301993 0.055871720588 
-133.8943596 22.112772361 0.038663409082 221.72177028 -7.259757703 9.8234576212 268.06249302 -18.833131222 3.8386636548 
251.24030489 -10.763955654 5.7227543907 247.04416605 -19.999583265 1.4574619915 235.80737587 3.6378606334 5.466305786 
230.8985447 16.389870721 3.9578078976 222.66178013 16.844409762 -2.662014957 220.91724899 12.834709012 0.28465093501 
261.51721066 -1.4019210945 14.758410627 102.87346146 -42.635548778 0.010487268412 91.766299902 -40.503517974 -0.083857451128 
89.899175112 -40.726212687 -0.086877788109 107.72568898 -43.474240693 -0.072360269731 90.759748705 -40.087302324 -0.020602953552 
101.11034011 -42.424521693 -0.048044507612 108.78993434 -43.462806592 -0.030116278675 116.28074103 -44.037905575 -0.012947259461 
71.809835006 -29.577385221 -0.058605634838 -65.010760343 22.36810771 0.025251549855 -56.837808934 22.192946837 0.0070500475601 
72.585287314 -32.023090757 0.024368436161 64.578940403 -28.968619784 0.018545664386 57.03508716 -24.920493564 -0.073405897216 
-28.977024903 14.318521541 0.026558462833 -15.507969364 6.4829848252 -0.081855602635 -17.955447891 8.2610173262 0.18543829506 
-20.343024558 9.8204983152 0.076866118808 41.962106185 -21.476598697 -0.084861060136 45.316312128 -24.035690935 -0.13762101149 
56.704658254 -29.055584207 0.015599777653 33.372931097 -17.220203753 0.15123066924 37.118583996 -19.841467246 -0.018232474951 
26.862771948 -13.632766566 0.0048476767287 -12.336022479 4.3290843645 0.18798369557 -2.0367071003 0.63368870117 0.20507024044 
0.033784446008 -0.007890760465 -1.0628541333 -0.0033650372658 0.0014637251122 -0.33549862046 -0.018159164711 0.0010106224658 0.36695055342 
-10.958950229 3.18982835 -0.081027888187 -5.5371985498 0.90481949499 0.41832317513 -111.94324095 37.293534443 0.01652381844 
-90.762359412 32.906401399 -0.023621916798 91.83223197 -36.508998213 -0.095736753855 120.02468825 -40.346782204 -0.12142458711 
103.43043919 -40.34539636 -0.098248264329 90.884309447 -38.33889213 0.090422682321 -12.989421889 0.94595390173 0.092272124317 
-36.770756889 6.7431157656 0.24945768359 47.057777362 -12.122951152 -0.079985394997 -25.68949694 7.2350035073 0.096899756041 
52.891455519 -16.256368606 -0.12595548706 -8.8079675874 0.97996025489 0.25923643066 133.40121755 -35.035802172 -0.061536357891 
136.1656415 -32.943300372 0.013540397141 139.26498219 -30.52711059 0.065812922615 142.00375143 -32.080816627 0.052004991362 
135.51286961 -35.813613623 -0.034950263825 139.47752189 -35.998176754 -0.020155390548 145.99442868 -32.940757171 0.049741730251 
148.9626516 -30.561132867 0.019212267789 97.333527671 -34.850083687 0.0063731312857 -98.719473284 32.97744707 0.022945964374 
103.73670172 -33.66827782 0.029004573329 104.72444809 -37.12597024 0.010800900741 108.98085771 -35.825975632 0.037075226245 
-109.75585362 34.170388549 -0.037883901196 205.58563682 -18.885330197 -0.047688948084 209.9126173 -14.827836473 -0.090088433418 
218.50264803 -11.130451356 -0.25666765101 224.46690502 -10.849754855 -0.49703134481 215.26334885 -14.70768132 -0.26224908834 
223.94343609 -9.7444220691 -0.52740585513 230.50759333 8.5643000849 0.54786573814 219.29712587 4.2859378237 5.9274774445 
236.66271771 9.8574559119 0.99249269319 222.91413107 14.799208063 3.7418254686 218.6846108 16.018574254 -1.1615520186 
180.29893508 -23.716305805 -0.028221073234 171.75515525 -28.381232556 -0.0069842865368 188.03235307 -15.521991704 0.079072292734 
196.84001045 -16.098179835 -0.05151915048 187.12542151 -20.344446277 0.0089849265411 192.4395107 -15.813899894 0.0024506705918 
-113.66799352 11.624817945 0.0085744233943 132.70829235 -10.631562365 -0.014494373921 131.6411646 -12.647088449 -0.016114015662 
68.287026396 -8.5202956972 0.22141279727 73.504282037 -12.233950722 -0.23118934808 114.11485318 -21.567558133 0.037195489068 
133.43701313 -19.691066508 -0.44274994159 99.543268454 -15.619313629 -0.072419666602 139.12342802 -22.206582514 -0.11242348964 
-93.114135956 19.171226767 -0.0061581836261 90.256926665 -13.848235478 -0.020344749538 -94.470147708 11.094180656 -0.0023618957802 
-150.24783817 11.466323274 0.0059874783849 -154.24279938 14.315717075 -0.035711912859 155.79563268 -17.062423103 0.04089273125 
-149.82763401 17.759094149 0.0050633392073 76.335019849 -34.934819537 0.0035364578976 88.685690962 -39.159884208 -0.16638383909 
77.470491831 -37.023700661 0.016966266594 63.986542262 -31.2671264 0.090668151905 66.823571144 -33.163973672 0.081201924024 
164.61974439 -37.791863578 -0.017673199378 -169.5433681 36.339825494 -0.058075659248 173.29124556 -35.059021172 0.054092131907 
226.71809806 -10.709924781 -1.0026943571 120.61431792 -21.656670613 0.022878206939 -119.82429414 19.694031297 0.0030839226667 
-119.87389491 23.166113684 -0.0070252922044 118.55112636 -24.613431231 0.030747033245 108.92309647 -32.206233625 0.009777669749 
110.58081576 -30.76027533 0.016308574076 -154.13806088 28.761237855 0.008751549714 165.65973341 -22.785577626 -0.7804607103 
-145.97372401 25.620152589 -0.096563019327 179.12064159 -31.797289047 -0.0022007942811 -175.77662828 33.887963647 -0.054886018761 
141.67685557 7.022408923 6.8641592388 120.59511924 0.14168521964 -0.093233899393 203.53980772 16.675108128 3.9657377895 
238.04567252 -4.1482631502 -8.6774283007 242.16166485 -0.26857052437 -2.1758588334 244.0752409 5.7105009054 4.8408405562 
241.52652688 2.7663098496 3.8670768025 241.158789 1.6740471864 1.5396529639 242.21254049 0.15879849196 3.1573760193 
240.89399607 0.93936284406 0.27762070379 231.33102591 0.10956133373 0.0031411733179 216.46009045 -0.10651015729 0.16686657135 
199.62621284 -0.21702211881 0.19457859729 183.01411617 -0.12811550212 0.16148857715 167.11617738 -0.21808242573 0.1081327908 
152.72422614 -0.23639092207 0.11476581555 140.73612541 -0.15375044723 0.10765007615 131.35458744 -0.38920588187 0.046211688908 
124.40200329 0.010764913871 0.026479452688 120.80304467 -0.08276555556 -0.062573379927 135.45969783 -0.69564834664 3.4623634401 
117.48795168 -0.80622616345 4.2283598305 163.69688128 4.7080294323 9.2396150856 127.68903781 5.5561504852 7.2897344053 
120.86106255 0.11078405054 -0.053326598098 120.84708732 0.13351671591 -0.057139314072 120.27714925 0.14578157122 -0.12108370904 
120.237085 0.13075681173 -0.057957448343 224.76705276 7.3225570515 -6.2247277065 196.12806108 6.4833436303 6.8983683572 
149.14882355 5.3296367427 10.637235994 162.00358342 12.737753892 9.1147113281 237.30032205 2.200467763 -6.397541079 
242.5061209 0.019419962305 -12.566290149 206.95434398 10.889484459 -0.41114460855 -232.12853921 -0.78906458555 12.009915283 
225.23926648 -3.295944639 -9.0007469462 240.40170703 1.3308145423 -0.9543324598 240.19621679 2.8542596462 -4.6736874514 
240.77548021 -6.0825565192 -5.8241561423 242.97925777 -3.9242074983 -7.43036411 221.73045211 -5.3881812422 -2.3044151796 
239.79127716 1.4936904844 6.289043328 238.26192435 3.1011635427 4.3250601824 239.17575142 1.4321832982 -0.40801519492 
240.58653789 2.2762800277 1.5504301751 245.64767734 4.4709049857 2.2439866515 241.92067405 -1.925508506 4.3443106565 
244.22861882 1.6509475697 3.2180045511 249.23989997 6.3685795602 3.7359235786 245.90306216 1.1739690956 3.9992959303 
246.22012875 3.9981264521 8.0032379973 241.61310288 -1.0838687287 2.3133568819 242.64511316 -1.1425549294 3.7617186395 
243.05724295 -0.3776553359 1.7456611122 244.13509515 -0.72740673588 2.6095493549 245.9011302 -0.21185621011 1.6585102799 
241.05348747 1.3502044721 0.90395297978 240.7156298 -0.44733977074 0.32886048245 -240.69860876 -1.5585539194 -2.0390877798 
242.20099773 -0.78132499391 1.1748342212 245.32800224 -0.52570872014 1.9986167973 239.30067961 0.48847711587 0.29380627811 
241.2669134 0.28754344413 0.59710269529 242.30082395 1.7907220145 1.0459871266 241.4233076 0.9048049957 0.54633608701 
242.3935225 1.0354825401 0.38160387718 227.87614572 -0.21305519815 0.14544581152 235.25100549 0.032791934052 -0.038965178287 
238.95636222 0.39261576563 -0.13710049883 237.78000336 0.022392295274 -0.033124462573 235.15901526 -0.071517191434 0.045652018377 
212.48121866 -0.19898850851 0.23104057167 220.95210022 -0.17840252046 0.11184949588 228.05400948 -0.051542996565 -0.040926904198 
224.8960131 -0.014017135075 0.07554206436 221.13101563 -0.027002565991 0.078729880251 195.63129075 -0.26577122079 0.20776816397 
203.87031286 -0.28499878268 0.21503370732 212.47302732 -0.098347144134 0.044132839379 208.3221196 -0.17109077136 0.14333656493 
203.85908984 -0.15196517461 0.11616186435 178.5442115 -0.21620623082 0.16942809195 186.87225624 -0.22769325518 0.20942808882 
195.49515871 -0.21077650823 0.13302963082 191.13120741 -0.21642438924 0.18013482241 186.93111322 -0.17868052683 0.10164397957 
163.35125381 -0.25114391862 0.14057601349 171.05821129 -0.1860146926 0.19399653222 178.5191521 -0.18198410686 0.14553613179 
174.54212606 -0.17199378619 0.12014640012 171.03110521 -0.1877112835 0.026598704917 149.75428623 -0.27583179046 0.098064844295 
156.20627495 -0.24384756357 0.16217979825 163.15409546 -0.16503690148 0.062548311473 159.65612463 -0.16690724406 0.10896471557 
156.04807487 -0.13361863356 0.073885183713 138.26213088 -0.17751038776 0.067867865617 143.54622907 -0.2313720859 0.10965225101 
149.63709251 -0.13324702173 0.099672427884 146.47213957 -0.18456651864 0.082168994521 143.35507927 -0.11788733051 0.09357406541 
129.39428894 -0.26672637774 0.057341615415 132.90846817 -0.31819684363 0.14997808088 138.05009759 -0.11326722102 0.11864392527 
135.39218432 -0.20615520687 0.085448309427 132.76525648 -0.25544363262 -0.049753942581 123.00802525 -0.0085467665869 -0.078286379553 
125.9670465 -0.097959274038 0.045459197457 129.28012536 -0.17764491396 0.027895342444 127.35313426 -0.18355732788 0.019447969382 
125.79002298 -0.07396923473 -0.017047213024 120.43806158 -0.012937518443 -0.12100125266 120.82500371 0.029412308506 -0.005397894939 
122.77805052 -0.063076869149 0.091685148941 121.56500742 -0.042364265793 -0.0028282626476 120.58501683 -0.040521339371 -0.048929906062 
120.04503911 0.045619206496 -0.085425771151 120.35400356 0.015397555646 -0.024877193308 -130.63282679 42.857607746 0.019293792143 
-122.52317594 32.192546265 -0.018758458115 207.40867337 -16.497669578 -0.31125608161 151.42918821 -35.714499898 -0.0042472047453 
96.724053135 -38.505275275 -0.015530489645 -116.0625437 19.143423635 0.0040135001336 -128.45996022 17.109348245 0.018816825827 
227.6946871 1.5659810739 0.99692324289 50.789191621 -21.452315052 -0.039211922404 199.25207693 -24.365420685 0.073699553725 
-100.11229307 26.837750444 -0.014859438318 145.91428735 -25.000814766 -0.00026745181088 62.810457778 -31.587926145 0.030766006917 
-100.37890181 25.257710604 0.038354970611 -121.97025712 16.906838642 0.0042577881354 185.84998444 -25.78734295 -0.0035537848486 
124.31152285 -38.902540284 -0.0062833968344 125.94845986 -42.880290711 -0.019682809024 226.14594621 3.369099102 1.3057209412 
200.09919232 -1.1312776763 -0.99447775446 -105.81716971 16.48237239 -0.0016949052264 139.12638284 -14.660083134 -0.028286157936 
125.2664343 -5.9637116018 0.0022300367217 -118.41952288 8.1439667256 0.0034527765081 156.76641127 -36.51744162 0.099171464137 
230.36672991 4.3431007707 -0.10505661881 166.85596341 -22.088469484 0.021625246898 80.888378806 -25.226730563 0.010915818213 
-124.48720068 24.620377844 0.011559224459 -113.06078858 26.678413565 0.0044028489922 241.37533381 9.4097952761 0.12166875525 
-156.63173339 38.778297012 -0.0089649569869 -120.0798218 12.85898327 0.0069994904937 123.14003679 -10.63054686 0.023382899064 
133.75284261 -25.086652212 0.0031400042096 248.50698812 -12.550851521 2.576047091 99.882338495 -42.13350421 0.0032912090794 
-64.531255589 25.899560676 0.033374981202 31.414835326 -15.860445555 -0.075876537827 0.045649930396 -0.011286478882 0.61500733464 
104.08336836 -37.19021835 -0.016002686162 -27.968028443 5.715915738 0.28815023137 138.86647471 -34.090729577 -0.015217735186 
102.86972083 -34.849652404 -0.018068447586 213.90143442 -13.630186455 -0.030119075581 248.28760861 2.5346560392 -1.0743669403 
183.00025755 -19.726041119 0.012561186389 -112.01521529 10.246749137 -0.0010503830137 131.0122914 -8.3852402586 -0.0070042497442 
101.2681394 -15.227144855 -0.16776457328 -95.308523081 14.919957895 0.011977181911 -148.20891155 14.807484192 0.019116756523 
74.33857308 -34.838550159 0.031538236589 200.3338188 -23.940841797 -0.19959044943 -160.49231853 38.358775208 -0.060255910956 
224.81446307 19.116855189 -2.5584624212 232.00154448 -2.0724861513 -0.66042184243 -224.74788864 -11.531069489 4.8865453828 
-119.23069803 21.368995195 -0.00042819421574 133.66418377 -31.031742272 -0.025179575142 -112.97767957 32.055186854 0.028702953269 
40.632073482 -18.727685539 -0.0059702930385 -84.11665603 38.05943589 0.011558395899 168.99598674 -24.047281314 -0.14000513534 
-121.13472407 10.472710295 -0.02007580703 228.25986998 4.7490468308 -2.7475245245 183.42628005 -30.340651463 0.03128374713 
245.37263 2.0321499568 -3.5376038028 160.79850165 -13.203257234 -0.026502099415 -85.351557393 12.481963422 -0.0081296959676 
-133.80438842 40.455142795 0.0062582039543 164.82128677 -34.006798276 0.0025214159195 115.51651096 -41.344524326 0.01404359954 
46.833021667 -6.9631671642 -0.20427152693 -124.75574818 19.303344902 -0.0035506204749 -120.38099508 7.975787872 -0.001129926741 
-122.26356307 5.4148479998 -0.014998247931 235.20816725 8.0233391553 0.017059873578 205.2473997 -15.149640932 0.05775796057 
75.206111461 -26.190415802 -0.044699341426 -120.18447616 27.982893623 0.024936596328 -119.78374604 4.0093915629 0.0050880577609 
122.44611528 -1.5111344084 0.015498039131 127.86887897 -35.137701865 0.013573143277 -121.7442909 9.4274369651 -0.0051450778378 
-5.067891732 1.6526905738 -0.13696476078 105.35899529 -42.121950716 -0.0018791287354 166.15536977 -29.129698221 -0.010499029741 
153.22777913 -30.868596872 0.018644076698 66.693676114 -17.523081342 -0.04139892814 79.229585207 -32.049153208 -0.0038739619066 
-106.1481658 23.922883692 -0.022155389311 -94.370330784 30.360759621 -0.0029104377751 -111.67962549 21.616107724 -0.00090992412475 
134.64457533 -43.020128123 -0.00076354119286 144.99585931 -40.240077375 0.0050414940811 127.55462678 -28.104532868 -0.0081302096961 
-125.61943924 11.442838673 -0.00062192280576 -117.95436181 14.238008563 0.0026644835253 245.40453801 0.15462783268 -0.8878914441 
247.31269953 1.8897349107 1.7922323459 99.182327969 -12.341049315 -0.82553459163 -133.41418757 18.750269056 -0.019916566943 
-100.79299434 7.6816443914 -0.0095481897315 -119.95930786 35.491587065 -0.049790123123 -142.46661822 7.7241864521 0.0024599211379 
233.48842224 6.4124622209 -0.8234958141 141.48299715 -21.509201851 -0.0064649057556 101.98553996 -41.237792147 -0.0678066651 
115.53671 -5.959198613 0.044829153878 126.51067666 -4.2332356553 -0.10829093078 114.94257356 -35.790827606 0.013000400414 
128.80159831 -22.591854444 0.014798161158 219.35277474 15.036543567 0.02915301134 226.46614957 2.591607736 -0.035874866984 
-174.90133263 29.056890634 0.0038716860585 249.17126448 24.714688694 -3.3154577885 181.27342422 -13.843425833 -0.016021864154 
202.77535031 -5.2654429321 -0.68707486454 -0.00041215768706 3.9720809062e-05 0.053966921532 -120.2457313 17.482888053 0.00056485436896 
134.61926748 -40.720847912 -0.013846051829 -116.84334314 24.209910494 -0.0042337220237 191.69115369 -10.271704549 -1.5766418916 
252.96522633 -0.23454231837 -2.6613300083 215.81166797 -13.127268405 0.31942510818 155.54134012 -23.198292443 -0.025749480737 
-112.2409786 16.431060417 -0.0012262986934 129.44939193 -12.486909933 -0.01261630103 262.64310581 -34.269000343 -1.8223325748 
49.9364392 -17.137824434 0.015538606134 -53.502973295 25.679039045 -0.032735338047 24.60396229 -10.5242322 -0.072064798621 
-0.0073361842511 0.0014272837479 0.68437431853 -24.147316831 7.5355548879 -0.088659981149 202.40160843 -10.954970573 -0.0072839277231 
151.04719447 -40.657396326 -0.0039309867975 -74.915438256 11.766463447 0.0019494677836 -27.077913499 11.61507998 0.16948635391 
225.36867868 -4.663374793 1.1949571207 -139.58774163 37.009778622 -0.0087782122391 -120.84689299 7.1126490106 0.0070684821891 
-121.53207005 5.4351705859 -0.0067725449532 134.82171531 -6.1154493871 0.041892519097 78.891218624 -33.583447458 0.015760898734 
-106.81402301 7.002964993 0.0063915255468 261.10065339 -11.248353333 4.9346321271 -123.32138635 14.72451192 -0.010797149186 
234.62681848 7.3697508213 -2.2207790496 -0.055178788352 -0.01026901013 0.5892165334 107.00151912 -38.644106545 -0.0018169057321 
247.35637218 6.5561715384 0.95817048993 -91.917658804 22.825706222 -0.00080416811309 65.897425536 -30.817663003 -0.0049192342448 
-177.41580491 26.835414762 0.0030152795843 80.091616301 -37.727816824 -0.012844273954 179.75729738 -32.269111183 0.027235972468 
91.614061209 -34.002752266 0.011037239788 228.47015234 10.540028167 -0.83666383836 117.34260442 -43.260023782 0.039916321065 
230.26497642 -3.8986147607 -0.36949871596 43.35992235 -22.410898566 -0.018018494569 144.95422193 -29.363993891 0.01152389923 
-0.00032916222122 9.2343699708e-05 0.14096277629 223.3538399 -10.523331183 -0.08840297885 215.04259623 -14.126275525 -0.056792588052 
-125.10131888 15.009897583 0.003964550727 -120.48939722 4.9878822609 0.0099888548685 121.92008802 -2.4365506064 0.0075549227013 
128.0709718 -9.7012039231 -1.400357271 -121.7768995 21.265494549 4.3660278208e-05 -115.27320973 12.63567157 -8.6859967256e-05 
174.80993472 -32.502207924 0.031308624194 174.71504239 -10.352648548 -0.030978156777 155.93231079 -16.699604387 -0.24272223324 
139.39820754 -26.7363204 0.018273561484 197.04487151 -23.146184093 -0.0061105199843 108.5624476 -28.940451405 -0.0072251260442 
-133.75415136 12.442249566 0.00036607420106 104.85679192 -31.714397221 0.00010329816425 -116.44639923 29.907088886 0.017633576391 
115.09102913 -43.246265133 0.0080228175632 138.60812425 -31.034464458 0.17017829857 191.23287147 -19.996745331 0.0045914621403 
253.45669546 1.242944723 2.7593957084 35.426687156 -0.99401849281 0.20186930694 -63.900624829 16.783948882 0.015811286556 
59.603831851 -30.129032914 -0.038335259272 230.1913996 15.555526921 -1.7089178699 233.23119771 5.1382609589 0.21988952514 
-99.789380699 21.376592474 -0.0027776774768 -93.944496323 6.7414921024 0.0011955995996 -10.944204784 4.0106595641 0.069724051467 
221.2573903 -7.448339407 -0.1048098242 -178.67694924 33.183339915 -0.0059940048575 -151.66803901 7.3090164295 0.013549441241 
131.86481039 -36.575763925 -0.0061199087661 120.64063617 -24.470837007 0.00028288492877 150.77932614 -19.997389375 0.011518057398 
-121.32762247 23.643608017 0.050009224719 -118.03977504 3.0893792815 0.0049590140794 123.23228825 -1.435139425 0.0092313519865 
193.5253027 -10.148566864 -0.033430251859 -118.60127428 17.294101073 0.0073762782123 -120.71569658 1.3098362081 0.0041469601451 
121.34902573 0.07780529382 -0.01484496058 -167.73099181 36.192204304 0.024585163924 208.54596577 13.310114769 -2.3796064088 
243.59326804 15.894683745 -0.014802848312 211.61743877 19.791396931 0.027825671892 259.01901136 -24.421589187 -5.1958702902 
-242.10598707 43.294820096 0.21309110768 254.01461608 -22.144468169 2.7146925227 121.23803172 0.078208722866 -0.039386070768 
121.14005295 0.11048178373 0.025295493985 120.74601879 0.065919716834 0.014306915233 -120.89515953 0.457736137 -0.013211878582 
-120.94546053 0.76096061961 -0.00092114956928 120.28769404 -0.78745005288 -0.03574646388 -0.00014176208975 3.0836271603e-06 -0.028222277845 
0.0087685201999 0.0016775606796 0.5896310141 -0.0047995038632 -0.0016113509465 0.32358982357 -0.021627351098 -0.0073454015728 1.0593129497 
-0.030482916725 -0.0031151397838 0.75041520939 0.030746174253 -0.0061093356149 -0.56468132179 0.021360230133 0.0086896543641 0.14273276648 
-0.14203183383 -0.04134456975 0.63670411781 0.0046337390747 0.0049462930381 -0.30957476282 9.83154991 2.1961036822 0.89978887487 
6.2048719028 2.2284478423 -0.3483133903 6.3717674051 1.2647058603 -0.27122362022 -22.124998125 0.24465685263 -0.38661699042 
41.895212222 -4.2966645985 -0.43196237531 65.915977045 -10.659939112 -0.41786932903 38.705537187 -0.45040841289 -0.7702570849 
65.115791936 -5.9427266834 -1.2793823376 116.75826502 -10.918404996 -0.64982493679 71.379974639 -12.630911968 -0.078311771559 
109.62154593 -10.928408651 0.069942391809 206.02939998 -24.116100462 13.380596206 122.19559498 -11.759989714 0.92942711424 
168.14053205 -4.5244779165 -4.993894097 243.98235362 -21.481789738 -2.6619736705 -120.76571935 2.3969047965 -0.0065806581605 
-120.84887028 2.6350462421 0.024637016353 120.6826253 -2.1489679916 -0.029265668551 -120.17488108 4.5547892764 -0.00061208494994 
-120.25372209 2.7273814192 -0.010996127524 -120.62921642 4.1886355254 -0.0050243877078 120.75285075 -4.4156532939 -0.038441038289 
120.45115582 -6.5018638962 -0.016722163793 -120.92447467 3.7675604581 0.0029725026551 -121.04158356 3.7143383513 0.022350608312 
-120.68094195 7.5792263129 0.0095160200526 121.0459088 -5.5930377094 0.047745321054 -121.14072169 5.3990664689 0.0074157971957 
120.92365117 -8.8330876574 0.018395502978 121.29365367 -5.094076096 0.030321761387 -121.28326538 4.7957968923 0.02213006977 
-121.38092231 10.019730997 0.031473796646 121.20477512 -2.8639851874 0.026819494576 121.30157695 -2.6413780879 -0.023866153584 
121.6617148 -7.4010952447 0.050809016495 121.61043067 -2.8858052997 0.035124997748 121.71028476 -2.4678430315 -0.003349824318 
121.84177161 -5.437375889 0.036392445686 121.39974591 -1.2022819869 0.012987066158 121.42402231 -0.86429297548 0.019925656781 
122.00370452 -3.87256495 0.034415255123 121.49395065 -0.47636661689 0.071959517124 122.1582167 -1.9648715768 -0.023319078733 
121.84278253 -0.66297989864 -0.015889861681 255.8523033 -2.7876705445 3.7158582324 268.47965915 -8.5084489894 2.1513964727 
206.98484931 -16.286125207 1.3540591354 237.28535262 -0.31156081249 -1.6134510605 250.78272958 4.2802894169 -2.9088194499 
256.4363887 -6.3706465166 1.872753805 236.88216758 8.8672596732 -0.7013938954 -241.53845878 -4.7733612562 -0.27257498691 
238.00058091 2.5575940986 -3.309522957 224.71576444 11.369798334 -2.9708115947 229.47283579 8.9301212581 -2.2501064859 
197.94380219 14.681492918 -3.0971184989 245.50506545 21.45911321 -5.758086534 262.80336536 1.2831388943 2.0887347828 
224.62669468 3.8772202337 0.36721598934 240.56013845 8.9402691133 0.039019500139 244.02018603 1.7604506307 3.0198811329 
243.60709275 -2.2603700062 1.2202574564 238.11158339 0.32208192442 2.4981856688 241.08466049 5.0896328115 1.9198391792 
244.76626394 4.8509436873 -0.68136163024 247.45522274 2.0691628648 0.039730693658 235.86409575 -0.024202901436 -0.20917717393 
233.35268954 2.3997288566 -2.1699279029 229.08254397 1.4177481166 -3.7014915485 235.06845634 3.2350157114 -1.7087142877 
230.56859643 3.5406792227 -1.6239096217 237.45378077 3.3776273379 0.40338828709 239.68352842 3.6440901677 -0.68458422604 
-238.69995118 -7.4414060132 -0.81143954858 236.01201328 -1.3486380056 -0.22697941006 238.15357627 -0.85959552652 -0.034856286736 
237.98119917 -0.16704613806 0.25505726897 235.8380132 1.1575309065 -0.69368872285 232.13954315 -2.5256240525 -1.0646163801 
232.94558 -2.0958783317 -0.22723690066 223.07396224 -4.2102283047 -0.034474392859 229.09247442 -3.6593689977 -0.1647798439 
226.35851216 -5.7983370215 0.16850870248 -205.28548441 5.6712090501 -0.020111074696 -213.22467803 5.5592072857 0.070555899985 
214.66189973 -7.9349000381 0.095546464965 204.10370026 -13.158363953 0.11958288679 213.32293273 -11.432144813 0.039720186102 
-192.71883216 5.1505343597 0.044048187364 200.88585156 -5.1394723061 0.025716581759 198.11553647 -10.609672069 0.061675521583 
174.69946465 -5.2368360449 -0.00030989161654 -182.68920288 5.3099549602 0.017578735138 -186.12301173 7.1386421125 -0.013582262893 
-178.13383612 12.169710031 -0.0090574305316 187.21945075 -11.98535924 -0.059061057319 -160.42083823 6.7284197472 0.013735921469 
167.55660333 -6.9182481137 0.021360157523 -167.27908403 11.800488328 -0.087852383822 -149.24727973 3.5566685671 0.019963849639 
155.58134816 -3.6732700708 0.034688586126 -156.4065051 10.209910734 -0.0044207375396 139.31215429 -3.7824942174 -0.00090989190634 
-144.42870471 3.9784723054 -0.046274129848 146.86521735 -7.5008489491 0.0051836998409 131.26826995 -2.9637632707 -0.0096676923405 
-135.35348822 3.1908498864 -0.027875083942 -138.27902454 6.9268769522 -0.032499436691 124.36228653 -1.9539092423 -0.10702916584 
127.05459928 -2.3536938075 -0.011239143262 129.36988729 -4.276420851 0.013484372101 128.61271445 -6.231951526 0.044075290004 
132.65950389 -7.3310684125 -0.021134874166 121.62407257 -0.51114846433 -0.02243857231 122.53819351 -0.73213668775 0.059822843133 
124.70808486 -2.7973419467 -0.11561520517 121.89635183 -0.56779239153 -0.094085469599 0.014004603621 -0.00011900749122 0.94388083465 
-0.00026178757452 2.8465236764e-06 0.030390115621 0.0059513267727 -0.00081483960468 0.42713779276 0.013817574913 -0.0018094481554 0.26753231121 
-7.2655606245 1.4960384401 -0.086055874547 0.010868547973 -0.0046435653108 0.34930043277 0.00022680942943 -0.0012796335681 0.24765795854 
-8.3936192797 2.9524140192 0.14173156405 14.075235714 -3.6210411039 0.029270228859 22.565527289 -5.982380989 0.069665665553 
18.362477968 -7.2406604128 -0.25557651357 30.502091126 -9.6509030874 -0.033540305583 38.217871928 -10.822033838 0.045139113957 
33.224187514 -14.696627262 -0.12838770211 44.03368575 -9.2241365354 -0.063053736855 51.424337863 -9.3593787284 0.039464528916 
45.511259176 -18.405182455 0.13846222319 -59.974804749 9.6252924156 0.011647634513 -66.578281729 9.1306260524 -0.0093156764595 
58.949044599 -17.295347187 -0.067372282821 -70.830148719 6.1245547164 0.012734009751 76.694197332 -5.9313761854 0.036035609802 
71.044892981 -14.74266846 -0.08172105806 -81.911615169 6.6053308157 0.014987201113 86.93931481 -6.1665965352 0.03895270358 
80.379510528 -12.06820879 -0.036251056606 91.435033155 -3.4266629824 -0.030912593319 -95.732208797 3.3118655205 -0.016715702774 
89.686223176 -9.5833555171 0.030679117251 -99.205917126 3.9085048777 0.0036490807105 -102.91136673 3.7301431656 -0.018947078619 
-97.475381999 7.1904493419 -0.019753367038 -105.9540657 3.5621295542 0.012117230576 -109.07364582 3.3920047121 0.00014655229527 
103.94588623 -7.3491444448 0.024125918528 -113.45965875 3.1393734062 -0.016261905332 115.9477507 -3.0041283463 0.047934082589 
-111.63049665 5.2556707912 0.013739476799 -113.78511485 8.0821704869 0.00096881694735 -109.48552278 8.7159717759 -0.00014554384761 
117.20786032 -1.5460482944 -0.023553419154 118.90600501 -1.462826377 0.040504329536 116.80088218 -4.4842658798 0.03310877028 
-119.56118979 2.2003104157 -0.019335926052 145.22079045 -40.792938039 0.1334277926 132.46573035 -41.80570495 0.050091285636 
-147.47527493 39.840261389 -0.1124786354 155.48121615 -39.480987874 -0.010655861004 141.01921597 -41.899202282 0.085192992767 
132.87033306 -42.930115343 0.00073178177939 142.61309679 -41.766480769 0.012401150671 125.96471504 -43.345049512 0.052832234911 
123.75334155 -43.035306356 -0.02127459052 116.27573154 -42.397870121 -0.19129344396 117.810112 -41.065135968 -0.12738774452 
109.99522999 -42.339755922 -0.038063799331 128.06742849 -31.779703811 0.061864895181 124.92350958 -33.697724868 -0.0025386220264 
130.83340594 -33.046575306 -0.0063234332951 130.30703877 -29.538929799 -0.013376266348 125.15412897 -30.141583943 0.0076937606418 
117.93487484 -32.255301142 -0.04501717885 113.67536589 -33.926974642 -0.025449132427 119.05061084 -33.981375772 -0.0071037639409 
-119.24790716 31.046014964 0.055800126367 114.8364111 -31.059711044 -0.0210279276 121.0495485 -30.090380174 0.00067994450734 
-123.98701449 28.193049331 0.018202809013 118.47007627 -28.935364064 -0.030979819403 121.30159016 -35.680067006 -0.087897278694 
203.49007361 -20.562533219 -0.26933173258 188.57446662 -26.815231922 -0.19777768524 191.73584118 -23.227064288 -0.031566624555 
216.51218799 -13.806281676 -0.074873679735 212.28547187 -17.556012064 0.16191835762 188.1026867 -20.469394809 -0.39439882812 
172.16763787 -26.743267656 0.08143157368 185.92678948 -15.702180597 -0.57171920687 204.82565249 -10.964253634 -0.40021363529 
224.83437804 -7.0653879946 -0.41417914669 219.21805431 -6.7361355253 -0.81290109898 231.82176311 10.465793382 -0.58518152801 
231.32717936 -3.5856052697 -0.17734887153 212.38934181 -1.2803284878 -1.1234645761 142.52270117 -38.261862341 -0.088315453456 
139.00358858 -40.29692302 -0.066450562086 148.50412603 -38.005179204 -0.021877031554 145.12686805 -36.376544182 -0.025650455765 
136.94926512 -38.741838179 -0.023508511891 157.79219988 -34.897706712 -0.016648430606 165.74193571 -31.499407609 0.0037684191066 
158.75962027 -32.612737878 0.077275614996 154.8850342 -37.388615706 -0.08461284427 159.38696199 -30.026249329 0.0046220203755 
152.51126752 -33.279067113 0.020662413158 146.2983881 -34.166138458 0.12224804985 90.734522881 -38.341459679 0.024876905457 
94.692754957 -40.204697854 -0.017515852586 100.44233148 -40.331101761 0.066224740785 87.890495681 -35.440429573 -0.06454157784 
-81.117557182 35.109392767 0.0085780333002 105.90349557 -40.102038123 -0.087248648036 110.78470076 -41.761472309 -0.024331291773 
110.85824475 -39.974731497 0.0082090281176 102.13511125 -38.609086482 -0.033235537133 93.642461387 -36.271613529 0.0040749219551 
85.57773792 -32.960012352 0.047063952123 -99.290401761 36.463654684 -0.048822632827 117.60073241 -20.405908749 0.035513263128 
-116.22503763 21.692602881 -0.011879810249 118.10319406 -22.789208941 0.0024728940623 -118.842374 19.384294178 -0.011718728477 
-117.39210456 18.212726322 0.0043388859436 -114.0861844 20.408615833 -0.01137779327 -114.20742359 23.044176469 -0.022303123606 
-114.12558224 17.900948967 0.021994801625 -111.77239756 19.039723647 0.02439816355 -116.94592289 16.736346717 0.021302104954 
-116.55235972 13.424730944 0.0056260010754 -115.57384904 16.011713268 -0.0051354791135 -118.3234617 15.847997976 0.020654662862 
-113.7234214 14.562503179 -0.015933784663 126.65514264 -18.293838438 -0.030699986179 126.52909825 -20.937720196 -0.005135612056 
128.7831727 -19.872459613 -0.012292485094 -126.69024548 16.090666917 0.01785097186 124.98230753 -17.137965403 0.0093222304715 
127.08908104 -14.276650861 -0.0084515875254 -128.87585942 14.815294562 0.020951009695 -127.51447439 11.966258223 0.0098608516544 
125.29697007 -13.248269177 0.021372912721 130.79518408 -17.897171917 0.0040153549965 131.19549662 -20.726668713 0.030445204487 
-131.56066772 15.622250588 0.0041755837748 219.96853048 7.3268383353 -2.3419942351 227.22945518 22.619374972 -0.089941510593 
219.99806654 3.4242179973 -0.13160608062 231.24127013 2.6049062574 0.85964324549 224.90760197 6.7741181639 -2.1983449977 
223.80284752 -1.1016030901 -1.942207383 230.43020337 1.4240534148 1.3736394055 234.69451529 3.547506412 -1.8187280502 
230.26796923 4.4995904859 -1.2243792034 231.50496132 1.9691997711 -2.0021328648 234.76497423 0.35698168333 -0.90491339564 
254.52661766 2.7950582868 0.51146601336 61.956064546 -23.589384835 -0.092043030205 -37.940275748 14.140089567 -0.011161257858 
49.531892777 -16.901514916 0.36871718768 77.196503549 -29.918825253 -0.0024613203296 64.496285542 -27.690892604 -0.12166124074 
-52.132538882 23.714919087 0.061826408664 40.273996792 -18.532904221 -0.26324404395 39.145046538 -16.651313313 -0.15508541163 
65.991293999 -29.58229444 0.11789077205 -25.701982557 9.5178444533 0.063963097704 200.01534661 -24.374029646 0.071735802758 
208.3929896 -18.803987994 0.14051100447 208.83459371 -19.601709623 0.26230165989 189.49910893 -28.640584435 0.0502525314 
189.78476009 -28.471413396 -0.066061497154 191.17213198 -27.444253001 0.0099128360152 198.18721364 -23.852905682 -0.011387025532 
190.13373258 -26.878787789 0.017439281467 181.1717149 -31.715136577 0.018612350085 -189.03282453 28.969260227 0.004499498865 
215.64227973 -13.903366751 -0.013063946965 -207.38750808 19.472388408 0.031827062626 179.34055421 -32.911763647 -0.00075483899095 
206.18951583 -18.902658158 -0.039552075784 -103.24083275 25.41417518 -0.0076691368107 104.24537823 -27.899142958 -0.02260624699 
107.22194524 -26.433475797 -0.0059800874352 -102.89982496 22.70087774 0.0061924056679 -99.858036577 24.16180591 -0.0023681591728 
97.308539718 -28.661618037 -0.00078032718887 -95.935621286 24.928514614 0.0030304086467 -92.940943575 26.653475908 -0.0081218630864 
99.63712287 -31.013425433 -0.028591304119 102.53207278 -29.299620449 0.0058043909323 96.018025508 -22.106854403 0.010380997691 
106.78194689 -30.375755651 -0.013878987209 143.68552458 -23.261095768 -0.020416440618 140.53594364 -24.100145047 -0.012857961942 
142.76231606 -25.873632257 -0.01175850502 148.14271074 -22.62727688 -0.032254641344 145.85144007 -20.789357072 -0.010272967787 
150.56625998 -24.128357645 -0.040308740202 -145.54443956 27.171565072 -0.0071208551887 150.29059688 -26.366112958 -0.063766030859 
153.29949833 -21.578508169 -0.0048934690387 142.14012556 -28.058743016 0.017547436918 51.402150024 -25.297746239 -0.094318187685 
64.18014369 -31.39396815 0.032588231663 53.2035807 -25.020121237 -0.09801684485 41.513665686 -20.650394132 0.031346795808 
52.907537952 -27.002863279 -0.11742818971 -73.577049531 34.974201332 -0.04917743804 75.022403774 -34.493403272 0.047159330742 
71.53349732 -34.639069928 -0.03165321656 82.193320856 -38.047271095 -0.086840274859 61.304471068 -31.05989888 -0.062609894218 
69.755642505 -33.961796587 0.088103047639 51.382540933 -26.21647305 -0.17103193364 75.62325672 -16.134003461 0.13048485116 
82.600749707 -21.29757587 0.14724109704 54.067283745 -10.693244167 -0.012415448674 83.979452367 -15.676297396 0.33608526265 
110.04374047 -24.345308756 -0.078664117252 86.293796715 -25.175253513 -0.029504821535 -110.91457287 30.658598669 0.023312555937 
97.82966413 -31.488336647 -0.30352036016 69.894312183 -21.441655689 -0.19588425003 119.66051122 -28.926851195 0.21546440165 
128.73728509 -33.054079589 0.19700612934 130.79857541 -27.357969949 0.17628339149 -121.39549087 13.747089148 -0.016218170405 
121.95718309 -13.128284011 0.00024568783257 -120.75350013 14.059640778 -0.016503428212 -121.12282815 17.2660563 0.030054188219 
-123.25373004 18.119667629 0.011204572814 124.07076702 -17.064246637 0.0081648683497 -122.63450317 15.869240901 0.02362521944 
-121.95453399 19.137318095 0.0029609666189 123.22785125 -20.380982555 0.027781587276 -122.44964075 12.114220342 -0.0093031728689 
-120.92293645 19.375451754 0.017093042864 175.24954228 -29.953150918 0.048901840054 181.54230907 -26.357825127 -0.011048575543 
171.25447492 -30.500265749 0.046084085964 169.58435584 -33.355852682 0.044467639132 180.38384148 -29.187570601 0.0023302485187 
195.52628083 -20.579418236 0.038237151516 191.35040979 -24.571146776 0.011317128685 201.23690895 -19.176102847 0.0057468557594 
198.11571199 -17.640525722 -0.0043297037445 188.53826462 -22.875966762 -0.01186730707 184.37965048 -23.436201734 -0.021576013645 
-185.77933453 27.964333708 -0.046583026416 128.62778867 -39.649708117 -0.015016205756 120.51812009 -40.175112082 -0.030160713118 
124.80612795 -41.0505879 -0.063843364893 131.92331557 -38.00443217 -0.084181393933 -115.65777039 38.848707227 0.055218676325 
126.42026113 -37.025146705 -0.0038868532177 119.23229763 -37.305409889 0.027537053581 128.28601028 -37.773808281 -0.023504039807 
129.79363476 -35.760280752 0.0093483092225 -111.2171477 37.211635826 -0.027773795645 135.55857075 -36.828096064 -0.051771154477 
130.32866481 -41.675679365 -0.030808963345 120.34453668 -42.080519061 -0.032179622656 135.54216462 -41.707294938 -0.041012131934 
115.69125773 -42.598787232 -0.08437480555 110.13325278 -42.546499443 -0.024101103133 120.72231798 -43.096771529 -0.022286299193 
130.12369028 -42.94235219 0.018378540152 140.33529743 -41.680953014 0.021938928164 125.02374487 -43.269406018 0.10190132082 
224.23190225 4.234143719 -0.14109401435 233.58309383 1.1540501252 0.13141953317 234.97765651 7.7296028239 0.76802117789 
233.05125087 16.180435035 0.079204223289 230.84004106 5.3894605987 -0.063819611041 232.89683914 6.6885038624 0.68874347831 
235.64071438 7.074262957 1.348413633 226.46894099 4.220168715 1.6347315477 235.977659 2.2818781209 0.032634598374 
236.63840892 1.4166288772 1.3561669149 219.729932 11.237270356 -1.0170569683 222.96602608 12.088859104 -0.022492877663 
224.4810599 9.8876188228 -0.73811964632 201.47079989 -1.3574155138 -0.32431065127 219.16423871 7.2023258505 -0.56514266028 
225.066055 16.861234484 -0.98798243801 167.83517972 -5.1335097828 -1.9502067438 178.4627646 -2.8710118889 0.8900531007 
150.66522878 -9.4677316433 -1.7799380252 175.50846176 -9.7783943172 -0.87153872419 129.45005464 -14.757870603 -0.62412414569 
180.41065194 -12.23950194 -0.82058063475 -108.9084168 13.350757269 -0.026957735107 -109.12801472 16.460172161 -0.0048221838973 
-112.2010239 13.390018202 -0.022982314345 -106.20877205 11.78386542 -0.0047580877117 -100.77466742 15.779593819 0.013875352562 
-103.21553774 12.307020021 -0.020836060741 -97.846856992 11.278321829 0.015307284025 -97.59524937 18.34913106 -0.012084127618 
-102.8310827 18.936495288 -0.011714057308 -105.80326165 20.29600076 -0.024139871627 -109.13023185 22.842659987 -0.033953993655 
108.72280189 -19.234593097 -0.046910409227 143.385378 -14.747050525 -0.031804910174 -145.62524959 11.11178207 0.0022940847214 
140.95989909 -11.309842684 -0.060301880338 140.39650692 -17.986087036 0.019443575062 144.80365506 -18.259867007 -0.062178573719 
136.24110856 -16.786969722 0.022165694674 137.12379079 -20.144012002 0.009325712024 136.26441177 -13.568592933 -0.021864300717 
133.70393926 -15.553153529 -0.0046662293494 136.99800583 -10.313852654 -0.046458619255 134.28305604 -9.3744539534 0.084882362463 
127.90288869 -7.1544241907 -0.016202373375 125.87082836 -5.1045281964 -0.013848965796 127.41925794 -9.1735146197 -0.015695634419 
130.07196318 -10.470687522 -0.032160045026 -123.7835629 5.8436068829 0.018266172353 123.91810204 -8.4365336165 -0.0024535523935 
-125.46711337 8.7157283773 -0.0014792097819 123.47719406 -4.2154278959 0.013046375472 123.82086527 -3.6224567451 0.00088220206877 
124.23352176 -3.5947449513 -0.011077091227 122.93617219 -1.5138517044 0.057611475764 119.39280472 -8.1504933047 0.036483283031 
118.09352048 -11.2878596 0.029938433699 -119.196146 11.271194262 -0.0031557086201 -119.57005011 6.7383026911 -0.020971446469 
-118.93031536 5.9229256893 -0.004457358301 -118.89241396 3.5675295295 0.0032298075772 -118.26160758 5.6938718233 -0.013027602197 
-116.91404825 10.454390245 -0.014548538526 -116.96988106 7.1033590786 -0.011508180566 -115.45891789 9.4035712506 -0.021159575839 
178.99587639 -31.447322255 0.16798362153 165.41325864 -32.976214521 0.15936307402 168.89481217 -34.74811017 0.049125877182 
158.7029391 -37.626363906 -0.057994563036 144.93446573 -38.292987496 -0.063711348147 -170.14621621 35.371329781 -0.0066120734157 
-138.63167069 36.508983225 -0.13069141127 128.17133088 -38.383492947 -0.086222830197 148.81600308 -33.953763001 0.23637195718 
156.38646607 -30.627628113 0.0016952397819 233.56205064 0.68316367586 -0.074575575277 230.0911308 4.5998661846 -0.87073828656 
224.21578591 -8.3020290208 -0.0071623178157 227.5509998 -6.0124318303 1.4370967378 234.22788106 6.6056346857 0.61501799545 
233.78086389 6.6336193288 0.59915203039 227.92200207 -5.4243171368 0.23663559399 219.38940952 -12.239891504 0.21748976187 
174.52821777 -20.947549929 0.008337532515 166.79955322 -25.660933416 -0.0073246686628 174.47348681 -24.574577324 -0.053689165905 
182.22729041 -16.64286884 0.026510743967 173.89257667 -18.018646314 0.063457187354 164.24907877 -17.554658234 -0.041229013242 
158.24677332 -18.295043797 -0.070593342432 161.03778447 -22.652204176 -0.023405405462 170.71839384 -16.406072439 -0.048033339153 
160.15082416 -26.649993298 -0.05011675157 154.70844098 -26.986977832 -0.010019168989 82.621802376 -19.048465052 0.0294957809 
-77.709394977 18.910761961 0.012494783989 -86.615692365 24.004243348 0.0062059655662 88.382203555 -18.062407515 -0.031668245801 
-73.822424405 21.479227913 0.033514836734 72.384080425 -25.408666052 -0.045267880635 79.834970521 -28.829761946 0.020629578124 
86.179926386 -29.842143976 0.059246688688 87.713411802 -27.957541008 0.051456329508 92.900306732 -32.198651562 0.014839494939 
124.7692078 -21.973819765 0.0090463036657 126.71240824 -23.664716757 0.04594812227 -122.97117661 22.930391534 -0.0031802553758 
-122.48174337 26.351296727 -0.023096263667 125.76204966 -26.370646517 -0.0047123387449 122.61302161 -24.596671601 0.033703030906 
120.37506447 -26.221537244 -0.0074777846514 128.40316612 -25.31032137 0.0042718546271 -121.3323027 22.848470841 -0.0022534652715 
116.47923309 -27.380965098 -0.035033380096 -118.31640962 26.084511595 0.033610542153 -115.14575749 25.498928264 -0.018771798288 
114.56716598 -28.299946113 0.00061254780064 109.52090315 -25.416036364 -0.020364754755 -112.20733586 24.158804061 -0.0066851547371 
110.92965458 -27.848755742 -0.0029852394076 112.4218522 -29.509104861 0.031546611341 250.19721108 5.291135416 -0.32173765664 
237.6221792 4.1541720284 -1.5461946309 242.58432146 1.9752955831 -2.0179024235 244.14518897 8.9493070097 0.63679773655 
249.46205925 8.2914911223 1.7380140481 254.3097818 4.683941464 1.6644794124 243.33157954 9.3803770679 2.5633450856 
224.29192594 10.992268388 -2.1585111542 233.92395638 11.281614604 -1.4657147156 160.92441327 -36.394954456 0.012243334731 
150.46168547 -39.536576578 -0.048229969268 -165.86089772 35.788601409 -0.07038834851 145.52436709 -41.104440949 -0.051494572155 
154.12565745 -39.774830081 -0.013308231358 159.42843134 -38.626930625 -0.0612428485 161.9383571 -37.465615017 -0.018169673699 
-171.49783279 34.313668458 -0.036337375995 120.6661332 -11.699007633 0.036003441509 -120.03996808 15.202965058 -0.019160551247 
-120.51539383 10.26130978 -0.0085753193004 -120.13333226 10.406140091 0.012886488195 -119.06000422 13.602620093 0.021107984705 
-119.41103518 15.192127143 0.0044681226253 -119.37836021 17.446677852 -0.018903070402 -122.75588205 7.9569673759 -0.010729078971 
124.40225208 -11.041420129 0.0088904530398 122.27753681 -8.1171255248 0.023630225088 122.40669095 -10.024876307 0.032651337872 
123.24749641 -12.630081533 0.033530570593 124.06570667 -12.869866226 0.016168617312 124.30572756 -14.832421167 -0.00049144899433 
133.94512981 -28.03708268 -0.033107142976 130.66971581 -26.729826901 0.040361296293 136.60057299 -28.952145051 0.024626543811 
136.43383859 -25.88116803 0.022058780863 131.03469912 -23.828696114 -0.013128470954 133.71529801 -21.842608913 0.02392223354 
137.61573886 -23.354024884 -0.047545130556 216.31721517 -6.0839465985 -4.2832651865 225.76255159 5.7987374287 -9.4753719284 
185.45794212 -14.141605843 2.4359960462 242.01921354 -7.1421394301 2.2621064216 212.07278068 -2.4506972609 -2.4843235815 
232.56089374 -0.9822740215 -1.4222843078 257.77305986 -5.1106502842 -2.3719289868 246.87421451 -11.246604799 1.0181086762 
-285.86272984 24.796276453 1.7311023121 91.844153638 -39.963123852 0.034710285578 102.98689644 -42.181654349 -0.031947716711 
89.814141917 -40.071451477 -0.097821995475 107.52386289 -42.844142794 -0.040382012335 101.06485436 -41.75415765 -0.063722670519 
90.761841283 -39.357358283 -0.1215873097 108.84506385 -42.783222308 -0.023439072797 116.24408356 -43.364405517 0.021162969251 
65.328503578 -21.92627844 0.016858141199 71.90633923 -29.09056626 -0.068576628145 -57.450189382 21.734156463 0.067048814621 
65.041780404 -28.496129112 -0.069582866228 72.838944196 -31.461669861 0.0068577938887 57.53191284 -24.36492911 -0.085875165836 
-18.272113967 7.703461414 0.087097385734 -15.824392612 6.1088471331 -0.10262975237 -29.402097425 13.813774382 0.13110693282 
21.247609601 -9.5205591867 -0.077508952978 42.237433006 -20.708119287 -0.14605938173 -56.77400698 28.101477699 0.062130964886 
45.325758706 -23.163121982 -0.26210034305 27.338504498 -13.055485232 -0.10271050642 37.765261319 -19.229169077 -0.057002965416 
33.919890518 -16.539966017 0.027126327095 -2.5108798679 0.67205043655 0.067788708309 -12.465460213 3.9532239478 0.17398177762 
0.0007315983452 -4.4167901747e-05 0.087921546085 0.057735723569 -0.010159708105 0.83723937975 0.0099203303349 -0.0017484317868 0.53552528268 
5.8098577246 -0.78816429229 -0.0021845965192 -12.010288475 3.1833195671 -0.16441911125 90.341193156 -31.770165983 0.086776409818 
111.42635401 -36.18348679 -0.09086364825 91.515563258 -35.499982273 -0.068032155535 119.37746715 -39.397718338 -0.17890115787 
103.08908566 -39.470220508 -0.12332562466 90.711269696 -37.431540412 0.0048429271098 -34.751041333 5.4087210719 0.18461182915 
-12.2435284 0.51906636146 0.23414438529 46.383329372 -11.029273276 -0.25788411855 51.891682716 -14.907934805 -0.036399255181 
25.63673406 -6.5115117473 -0.02500023119 -8.8650061229 0.77522478028 0.17645180508 136.0512124 -32.593290361 -0.025713458451 
133.41592768 -34.63688468 -0.031808485575 141.92568648 -31.714402206 0.032641741066 139.14781512 -30.208657452 0.042927523989 
135.35433317 -35.376701971 -0.020056594173 145.96741738 -32.558454469 0.067165312838 139.32939247 -35.562586852 0.010732042702 
148.99963689 -30.136866408 0.015321958624 -98.727117422 32.649767 0.040413956135 97.39043038 -34.41538761 -0.00162409126 
103.84072199 -33.314664259 0.003404353787 -109.01625419 35.445102584 -0.02829032679 104.6479365 -36.751662067 -0.0017898421846 
109.79702478 -33.847683212 0.04221037813 209.59910323 -14.410984412 -0.027465511086 205.36876027 -18.42553138 0.0074043282197 
217.94840521 -10.677317551 -0.028772515815 222.26971299 -8.9552429574 -0.089102372955 214.53695427 -14.039663402 -0.044349473499 
222.29946086 -9.3497884297 0.055550557944 249.54062318 -1.392331872 -1.0337360034 229.44179858 1.9262575369 -0.85610894264 
264.48798255 2.404479502 0.72656792985 240.55309738 2.6241956396 1.9298297081 243.69266094 5.2909076721 -0.92280213423 
171.63419085 -27.97322405 -0.0030238782484 180.36938377 -23.340696253 -0.037781801944 188.18629539 -15.042669506 0.058706951827 
192.4943331 -15.296999384 -0.015878030519 187.07119904 -19.924117569 0.0035592117813 196.77679818 -15.626406675 -0.005268193567 
-113.5624073 11.436017577 -0.012843527999 131.53908705 -12.424703656 -0.01195230395 132.59729099 -10.422488604 0.0061554329471 
72.825959812 -11.22408394 -0.29228313675 66.383369062 -6.618340724 -0.13006512496 112.4247074 -19.988402478 -0.092361536581 
99.379491216 -13.450900593 -0.25615380601 129.8169374 -17.152785799 0.27480488074 137.50469961 -20.192130433 -0.20558797277 
-90.453345764 13.677600384 0.0058174592464 93.349296838 -18.975018927 0.0081100385425 -94.618576316 10.926717745 -0.0031788497151 
-154.16793884 13.92919321 0.027502649174 150.03734867 -11.152836623 -0.047084167288 -149.72693017 17.396498469 0.013107381172 
155.66414951 -16.656782745 0.0037514780171 88.155359064 -38.272047799 -0.13424957059 76.334473771 -34.090097474 0.018877138233 
77.472907073 -36.317621133 0.038692598347 63.955627018 -30.346402552 0.10185425089 66.834201364 -32.301793861 0.093683959264 
164.20350249 -37.245596678 0.013771435301 -169.61184852 35.936288476 -0.054652162442 172.94944477 -34.678537001 0.019766248499 
223.11004046 -8.5136659423 0.045365938059 -119.80741388 19.47255623 0.003963083504 -120.46397539 21.351265851 -0.013507591712 
118.62452542 -24.403245376 0.012505333997 -119.83376722 22.895205426 -0.0047777921037 108.86070262 -31.876126263 -0.019029682596 
-110.75163249 30.487947224 0.014284554138 -153.05171699 27.593484764 -0.071671406343 162.98658306 -20.448638337 -0.28704162062 
145.16221771 -24.280110713 -0.23086490669 178.93878585 -31.434324993 0.034247064161 175.66574784 -33.374756483 0.037728710363 
-0.25913468561 -0.19319504024 0.084552171958 -0.92115620706 0.14050612009 2.432541816 -0.56877128595 -0.29801618966 0.0091867572271 
0.26976894787 0.082901984005 -1.0934363583 0.82587543393 0.086794611715 -1.8098758722 -66.442853426 29.812119877 33.868737205 
-222.54972667 68.656343753 -19.047361265 -240.79447193 28.431429345 -18.852420214 -239.35722322 20.261468379 -7.4605792186 
232.26150493 -13.632071801 13.435220306 264.67681266 -40.761403729 26.540450337 251.79034885 -51.539534462 10.958544262 
0.16539775721 0.0039464674698 -1.2809491479 1.4016805076 0.091052194008 -1.9949174583 -0.62694750077 -0.083843892794 -2.886586472 
0.0096433065922 0.00068878629381 -4.1852826306 1.105848525 0.2490263618 1.1271664666 -1.2842309836 -0.4670909411 -1.4727000555 
1.860302906 0.35335948832 -0.78676234101 -0.38397073751 -0.22262811077 0.06744177154 1.6428509407 0.76593642097 -1.2783063711 
-2.0787726714 -0.87394276297 0.64539929294 -0.42561212079 -0.37028494812 -2.4127663721 -0.27753346131 -0.19363368062 -1.1822679689 
-1.7328339394 -1.0832072063 0.84510199389 0.33344205572 0.28762062239 0.8183660653 -10.501980603 7.5178248095 6.1335066784 
-0.96676519902 -0.84717051495 0.52745868054 -46.413404062 22.766109383 10.713973155 -85.096040916 24.808261466 23.120945318 
-36.21487854 19.010412992 11.681650416 -165.51089865 44.697463827 4.9601853254 228.23609037 -63.607853206 28.162877636 
170.03028526 -56.502487283 -17.566742411 -214.83162749 42.024315975 -21.000528974 0.21037280514 0.086821987054 -1.4489477712 
-0.11372170426 -0.027064533149 0.27293521762 -0.52464254255 -0.23834539626 -1.8993442646 -1.5397796726 -0.86808752056 0.34042616378 
-0.1489781877 -0.10266747065 0.21143046374 -1.300497119 -1.1930525835 1.0981356782 19.731962093 -11.904948007 -3.3093369742 
-0.28301071766 -0.25052499631 0.72947190593 -143.40291265 60.976785458 24.186337235 -59.932634709 29.150256913 15.991758348 
228.80052956 -49.454290923 21.886637043 -220.07040645 91.705603185 -4.3882599615 -121.11000391 0.075203599777 0.014380974894 
121.27816148 -0.45976172427 -0.028961902139 121.18103619 -0.17139182068 -0.026804398996 -121.10709477 0.2410870516 -0.010590825526 
-121.0452205 0.27746487388 0.0012830648861 121.05407578 -0.1478177223 -0.0036384522526 120.9580088 -0.036589286987 0.029398681388 
121.05209674 0.15240868703 0.0022592743566 121.03434347 -0.39128916148 -0.032909369984 120.8780049 -0.03194489291 0.012743470799 
121.01107741 0.13628743846 -0.0096257499457 121.01305675 0.11628612235 0.01273097662 121.11311642 0.16675329837 -0.0016350945147 
121.12800153 0.04473336826 -0.010855791932 121.12300246 0.048609459944 -0.017031218022 -121.18601019 0.131469667 0.0073043359452 
121.09310031 0.15107834094 -0.033847498326 121.21901653 -0.15917962931 -0.023053723126 121.35101487 -0.13501932446 -0.0090321828464 
-121.19103687 0.23126422662 -0.0052854910427 -121.12701688 0.16301554045 0.01059901845 121.22903738 -0.16888034178 -0.065133848138 
121.22302033 -0.12573039794 0.012695832865 121.10305485 -0.21981622825 0.037661996706 -121.2680061 0.086686796652 0.0025846409456 
-121.15501452 0.12675592329 -0.0049406275503 121.10307385 -0.18914398638 -0.095086463691 121.16710259 -0.23877360004 -0.020758834024 
121.09706821 -0.21055437105 0.02544901307 121.16501382 -0.10199335497 -0.014396121923 -121.09601358 0.10018103015 -0.0045168153849 
-121.09307521 0.22513895189 -0.0015611831702 121.06113289 -0.22553276028 -0.051856149119 121.01916845 -0.28298052449 -0.023725912062 
-121.1881538 0.29486732495 0.0037084627306 121.16906561 -0.18132160052 -0.024255389183 121.05124085 -0.33359183266 -0.050470127455 
121.08712377 -0.20183560787 -0.008893252502 121.04410811 -0.19998496819 -0.0067886632603 121.03022006 -0.28134005578 -0.039328087268 
-121.17113599 0.23084946779 0.0067746984368 121.12628572 -0.34294595244 0.032806756192 121.06102084 -0.074535430784 -0.014235595873 
120.97110125 -0.17326291967 0.017716948944 121.09216308 -0.21706889419 0.070314651006 120.9890476 -0.12184669553 0.010179357174 
-120.96611982 0.18943757191 0.011205070815 121.01702461 -0.072842261014 -0.028846154816 120.98101295 0.051728451762 -0.025785747298 
121.05805166 -0.11978724172 -0.00497705675 121.06700207 0.015276372718 -0.01704224303 120.93201605 -0.047522390077 0.042377258178 
120.90610278 0.15665908068 -0.0084011003329 120.79400631 0.038793723624 -0.0035324681052 121.03102433 -0.011252549053 0.075930991657 
121.00600299 0.019335846066 -0.01879372252 120.85806904 0.12880002611 0.0081421996758 121.12102307 0.072455923921 -0.015782895691 
120.95206437 0.12344458705 0.014273884622 -0.018653951456 -0.00041613583546 0.53255636719 -0.0060278000778 -0.00055860979411 0.3249646296 
1.4534704548e-05 -1.7069536922e-07 0.0040183485449 13.806838515 -0.05060071831 -0.0296610541 30.447506549 -0.11324355964 -0.013394322312 
47.411106488 0.039579074389 0.011465793706 60.608737448 0.12900934539 -0.0099597890082 73.059936192 0.32813385902 -0.019904263203 
-83.987404993 -0.046705829843 0.0056917853128 -93.510939233 0.13289288432 -0.0036049936602 101.59301192 -0.073721130807 -0.0048712074214 
-114.1090026 0.037631044044 0.00057881585362 118.36908302 -0.23451711392 -0.017318652021 120.82200472 -0.057540036225 -0.020068170119 
-108.43802859 0.11829753768 -0.0009732712605 121.03800253 0.055328157821 -0.007948323476 121.048005 0.06515856383 -0.021548942049 
-120.43000369 0.058040720652 -0.0034476753271 0.024580677671 0.0010128181234 -0.33531183302 -0.0076101668209 -0.00037608814499 0.57604208032 
-0.00090306427126 0.00051914132691 -1.0012367199 120.32901589 -0.096017362431 -0.038331576419 0.010299126793 0.00061473369036 -0.3863249329 
-0.0010357877332 -0.00012421087067 0.072963067299 -0.0018088898571 0.0002070714061 -0.16299588904 0.010334185612 -1.5148154925e-05 -0.82025022799 
-0.012465855393 -0.0017262615891 0.62731714964 -0.0014012934914 -0.00036426284459 0.43507476306 1.3572448766 -0.0084947162317 0.27073960698 
0.0005299755174 -6.1233154652e-05 0.10925477248 0.015353105115 0.0014405688904 -0.38638193416 0.00079895413576 1.4236124914e-05 0.090270448164 
8.9362269987 0.0022938232617 -0.19378284185 18.789210207 -0.14566706101 0.11306814466 5.4300007156 -0.0043825013165 0.087613416513 
-2.3362149467 0.0080036879973 -0.040127083283 9.82284329 0.06067455298 0.10647614913 26.188441768 -0.14526034654 -0.18848169269 
34.783831594 -0.22693055912 0.10025144705 23.049138139 -0.021117357369 0.036636659785 19.428024003 -0.077211555404 0.012237406182 
26.846547587 0.060698272994 0.12681841998 43.37783016 -0.086452317365 -0.014613178396 50.767076505 0.15800575179 0.028183828729 
39.406243184 -0.096671373141 0.0064078595439 34.93321568 -0.018667662513 -0.16970918698 43.838006551 -0.010392574968 0.023218729303 
57.130228219 0.18998536548 -0.074873649394 64.412218108 0.045366722815 0.042039954661 -54.216970228 -0.16860317286 -0.0054276534039 
-51.152623767 -0.0917350229 -0.00046788878197 -57.299949858 -0.0011098041133 -0.075525124163 70.023418725 0.22579061796 -0.037380448605 
76.41512696 0.23938293746 0.02237613842 67.416723829 0.23125097128 0.030719572841 64.620834514 0.11607731555 0.023856265844 
-70.298085589 -0.36081659076 -0.0082168626197 81.341861292 0.15200917431 -0.042511229922 86.509807379 -0.027407280214 0.031453724213 
78.98473535 0.12451651309 -0.015023608147 76.574559021 0.13009032786 -0.058419661586 81.440007027 0.030631203814 0.02842828666 
-91.368314403 0.080442479079 0.0048005201643 95.577008327 -0.059149184541 0.010702671981 -89.060005069 0.04543934919 -0.0093340879821 
86.535809843 0.031391157552 -0.036420242498 91.490605792 -0.048929144104 0.0095251347974 99.765600551 -0.015684746881 -0.0017692084066 
103.40400058 -0.012006126649 0.007437575575 97.771010724 -0.069376901673 -0.0053934767593 -95.658229071 0.11420440838 0.0060027281277 
99.814305718 -0.047636871376 -0.01242678248 107.0420017 -0.022783124416 -0.011556767632 109.9810057 -0.051914110267 -0.0084977529496 
105.30000453 -0.045874397911 -0.0038919864937 103.43800967 -0.063163259558 -0.015071910578 107.04900735 -0.057206316922 0.010923651456 
112.81500286 -0.020640679821 0.021540879481 115.33601332 -0.078578454558 0.023455282652 111.50200262 -0.035034371624 0.0073217444791 
112.80400223 -0.025272037283 -0.015196893064 109.95700146 -0.024555292611 0.007488277326 -117.51600929 0.07669651641 0.0029849567503 
119.10500317 -0.021874330823 -0.024400209637 116.51800669 -0.062521569661 0.0054473899657 115.26100499 -0.047357566257 -0.015347702076 
117.50500547 -0.04142283879 -0.025584920985 119.86001485 -0.098528149851 -0.026344897329 118.98801546 -0.095381970701 -0.026354106844 
221.42452571 4.9122188845 3.8839290299 -120.17341248 31.019598251 -0.004464953133 89.691112343 -35.315387798 -0.018694542094 
131.73820866 -10.995910785 0.003033362702 -126.79909258 25.267501207 0.0017856641437 -102.4432052 22.913837032 0.003983833192 
-75.783291888 26.403764837 -0.020508482681 -104.68688414 17.0013532 0.0097805544285 135.93931925 -6.7847744763 0.003297160243 
230.15740728 1.4911413742 7.3734464479 228.88779038 -6.5873376145 6.805893066 80.673120578 -36.684694675 0.028395011919 
130.44972826 -23.799616153 -0.14524255914 -133.68880305 25.130138105 0.0015433044011 104.93675591 -37.815421303 0.0042783048194 
132.32860716 -17.165209054 0.0021396195493 -121.79558192 28.132397599 -0.005613545277 -126.63369088 23.764173985 0.01931623862 
124.45005381 -24.704770652 -0.022824276805 125.5174731 -25.077905918 0.0011747069642 -125.5073666 24.950572345 0.011656538687 
-127.96137046 24.038993612 0.011289981915 -128.75045852 22.665864916 0.01555152187 127.92992417 -23.864233689 0.012972514043 
-99.786551259 24.218850361 -0.0077544003261 -100.11941586 26.981350869 -0.0068821297724 -101.27963953 24.992006994 0.0080886195654 
-101.27964661 24.864533628 -0.0036927069136 -100.9948378 22.23065954 -0.0029048149653 227.15590038 7.8203289202 2.2274827762 
233.21963357 14.25521373 -0.0078126410798 223.43909754 14.024144647 -0.92826017092 234.01288347 -0.59795040601 4.5025259098 
217.13159756 6.5342041237 1.8860937782 -99.74424267 21.457048814 0.0062619292795 -101.09047349 22.149252981 -0.0015529275444 
128.70477101 -33.334378063 -0.056231650779 -120.14650915 35.887989976 0.029467560023 129.39815288 -31.61013753 -0.0073951068754 
120.6076748 -33.800805964 -0.08595024225 119.99316553 -33.00790852 0.15499877954 85.544157229 -33.091270086 -0.0038414330327 
91.584405602 -34.156927954 -0.017680585865 90.521325139 -34.639174187 -0.023770122302 90.516150179 -34.837002177 0.027620467262 
84.712619901 -33.68458052 0.010471636271 138.95036994 -31.410667305 -0.0032162995101 -129.26814823 31.146378879 -0.0026386019079 
-0.0032412947499 1.6248848346e-05 0.23992338218 -0.0098508577229 0.0016281086398 -0.20829879631 0.00031539937382 -4.2021194027e-06 0.031717913813 
-0.0012959176887 8.4806363981e-05 0.23008221155 -0.00069643342003 0.00035624072606 -0.24318904097 79.198281003 -32.186174166 0.0039961140616 
84.430593171 -33.932386698 -0.025207528044 231.00439108 12.416502574 -2.5860601708 -239.61451554 -4.962442796 -3.3441822257 
0.00010989988269 -1.7388613884e-05 0.013362940258 -0.0085584040779 0.0018829565835 0.43513466019 9.8165074477e-06 -0.0001486064662 0.034955096265 
204.02902006 -13.231298251 0.02102017788 216.60329749 -5.3557207264 -0.034874889824 217.91747416 -7.7606116376 -0.0052403147368 
-216.50921825 5.5089022226 -0.045386424987 202.17903207 -11.133532533 0.017592660265 238.52995703 3.3422650232 1.3539531349 
241.69044533 -0.51200170842 -0.66432031961 236.53328634 1.3896078767 -0.32942269181 236.48901206 -0.07380534001 0.0066973294403 
238.88748513 -1.993579995 0.18520574718 -0.0045610900439 0.0014395773798 -0.18046217298 -4.8597986608 1.6559519617 -0.11575534246 
131.52945501 -4.5940870577 0.042688781927 -133.42269996 3.2993818739 -0.022794812367 -133.89676408 3.5056957741 -0.031104530207 
-135.46130877 6.5249353573 0.028603587877 133.12785575 -7.7559238389 -0.031193525196 131.39247198 -4.5354582415 -0.0045009093488 
133.28231653 -3.2013877359 0.0092356790181 133.02355204 -7.6809778175 0.014794080187 135.29802805 -6.4331787123 0.042980774311 
121.30514494 -2.6758642434 0.011032431088 121.25826317 -2.5397989113 0.057443938437 -121.22611127 2.4729460656 -0.0067015671122 
-121.52650205 5.5359723511 -0.0045245282065 121.26786717 -2.8678572772 0.017379564489 -121.30344743 2.7917203182 0.012794483367 
121.20490125 -3.033338929 -0.024593858544 -121.20742731 3.1170376245 0.0039577068669 -121.66538598 7.4592358452 -0.01186246922 
-121.25197574 5.0070354955 0.0073271374279 -121.15850766 5.4666482004 -0.0073780211019 -121.43448315 10.119645913 0.0058670272066 
-121.17635942 10.609487093 -0.0030661278038 121.13487999 -5.3065076784 0.021385833398 254.80903449 4.7113724544 -2.9595206796 
244.69625408 -5.8781424633 3.8711250026 254.0956962 -3.0922541982 -0.3232466638 258.26360502 -0.61923165272 -0.20900480887 
241.31992422 5.7996074004 -6.6532250282 -121.08806315 5.7738908545 -2.2177968522e-05 -121.2245154 5.5844473566 0.023657795442 
-121.05607576 5.5866409264 0.0052273686081 121.07926941 -2.9906749842 0.025558522036 -121.01193169 3.9328573648 0.0055360931314 
-120.99529119 3.7713559501 0.018098446729 -120.92087289 8.9172307487 0.014365199792 -120.93057398 7.2820332274 0.0090203371096 
121.26887789 -5.1724402571 0.0063468338092 -121.72372347 9.5556585251 -0.0037374275652 -55.715215905 11.786161514 0.00014178174132 
-45.749128762 11.112323085 -0.085486522077 64.233857431 -17.350986918 -0.080143230242 135.61174262 -36.936357228 0.018291952875 
131.89878484 -38.125725072 0.0094989991691 128.43816453 -37.890041826 0.036390662227 131.92721972 -36.74912429 0.014889806936 
76.540923147 -5.9135590887 0.028607025967 -79.332741832 5.7294808233 -0.0020494666301 -73.723258173 5.9760297639 0.00060780711293 
-120.65602935 7.6452780653 -0.0043086849819 120.99275769 -3.8205333286 -0.046349369872 -120.78173356 4.345694251 -0.0038459816581 
-120.95812009 3.6905981849 0.010232464731 -120.99698565 3.949078016 0.0099031202072 -120.88598907 3.7971901962 0.0065843015101 
-120.94647385 3.7710374918 -0.00012475451946 -190.15254246 7.3570033968 -0.10596636422 -186.2667828 7.3174449353 -0.04737549042 
181.42708646 -13.988822534 0.0003780138351 -190.0729229 7.1309337761 -0.051350267238 -182.41979645 7.2641875653 -0.070420293364 
182.5009498 -7.0692169645 0.016635226085 129.77919623 -35.926722163 0.010136952596 0.0014764418549 0.00053280734658 -0.17195183804 
-0.0075286032248 -0.0010824598932 0.7902334115 275.72397486 -5.1904086528 2.0523118501 280.40150244 -7.6607045131 3.7906898944 
231.77820376 8.8349437667 0.8529336283 238.11741219 1.2866766315 0.64819339634 235.82607375 2.7671416036 0.17804361064 
240.50766741 -1.6289823175 3.3679431981 -74.701732607 11.897968261 -0.012935602469 -79.133054518 5.7972645192 -0.0096966241218 
73.475981639 -6.0827214774 -0.032513256835 121.52735358 -2.7460166699 0.023781584709 121.93944517 -5.4609034045 0.0073859538493 
-37.719005539 19.516652066 -0.054411006296 -45.464891602 23.503288185 -0.037823671041 51.108502178 -26.377456437 0.077371054562 
43.127670109 -22.618689917 0.048513075156 82.534838659 -21.735303522 0.058016145696 -126.6523272 16.190972479 0.00033163671477 
125.11624993 -17.222782352 -0.0025771030644 125.11753031 -15.101398371 -0.00026259131184 241.954623 -2.5150743358 3.1630039211 
238.17012761 3.4037788729 0.15162411664 241.81958627 4.6481499109 -1.8834438641 239.65638546 -3.5323576782 0.92487552948 
213.12308369 -5.6467997058 0.082935243791 209.17852386 -5.6515923219 0.041769207067 -209.09834372 5.7880152917 -0.13740556162 
131.20536703 -8.421574572 -0.0051058357284 -121.16028161 3.9020121262 0.020033772539 121.97604248 -0.70690809417 -0.05591839781 
121.19002305 0.058033061346 -0.047089916775 121.91562811 -0.63431515626 -0.0028714019048 121.89147059 -0.77974174207 0.0002955330787 
122.48087498 -1.4915695219 -0.00030615520986 133.29153888 -34.776243224 -0.0063682182496 135.4609679 -35.550326222 -0.0059424522122 
237.71829432 -0.20468061985 0.30985475568 232.60090064 -3.3773554929 -0.59164103881 171.63131021 -28.089025061 -0.017368328783 
177.39032623 -26.92652256 0.0064638607109 171.2089576 -30.63151032 0.0061348556222 181.57830085 -26.452876214 -0.010967240358 
-121.38145683 22.959946395 0.012795978844 -122.52288827 24.696012466 0.0010348026728 -120.62441184 24.5640767 0.0063270118118 
121.37910524 0.15994010779 -0.010016232624 121.07401487 -0.046500739859 -0.037959624953 217.8215404 -7.5912148602 -0.00099732216407 
205.30396414 -15.250110535 -0.03205761985 42.02719396 -20.910435836 0.12029647953 -40.486746447 18.89194431 -0.082427168803 
-53.414957445 26.052930997 -0.042416302975 -26.98809024 11.789103669 -0.056455966348 -29.415015224 14.047057475 -0.040599561793 
41.431640661 -20.846905776 -0.0065158314404 51.195142697 -25.46742495 0.0092438906255 52.989631168 -27.297638347 0.061233803496 
235.53082266 -1.9747989062 -2.0220485184 243.54728306 0.74991055224 -2.8146709841 234.76496335 3.0943149811 -0.71681223322 
233.89861068 1.6295871504 -5.3884483749 262.05947469 4.2849445558 -0.10419953047 234.03605701 4.3120306937 -5.3559950595 
233.95447743 6.1022763993 -6.8921602083 238.14684934 9.654539073 -2.7835761818 226.15223994 15.356981261 -2.0070713038 
178.06933683 -12.2862093 0.0041824695044 -178.89039081 5.2278967414 -0.012287351234 169.64035938 -36.004130594 0.049398526114 
178.69234097 -33.243366151 0.027922982035 173.00182573 -34.747630583 0.0074303775046 -113.85665013 8.0920551317 0.0039403731986 
-114.8609396 3.0460491545 0.017815192818 -112.88853363 5.0864961189 0.010903454269 -114.7938736 3.0418020067 -0.021941344816 
-115.56518518 5.9695459598 -0.005124524799 252.82062599 -2.2053603014 -5.044231794 241.52893591 5.3592894653 -4.0341694111 
223.82682207 10.693015999 -5.9151782926 236.90561214 16.543393641 1.2219966531 215.85172678 18.021813523 0.072107199518 
-144.48854799 4.0801916837 -0.036483992294 -147.29354817 4.1212288835 -0.056586498949 141.73752895 -3.9004137168 0.039680397869 
196.74664682 -15.757218055 0.0015571183439 187.15798489 -20.047499693 0.02282581916 191.29872603 -20.188753351 0.021094905576 
-118.67114817 24.478735337 -0.0094827723113 -119.79445457 22.988162026 0.0055067575217 122.93196741 -1.4963558201 0.0010720632527 
122.08999997 -0.70019897129 0.0011762317622 0.008722455616 0.0043299444732 -0.54097234732 -0.025817064398 -0.009928542033 0.40558592102 
-0.16969622006 -0.024223912838 0.43059240334 0.017192820738 0.0067836278358 -0.24178678878 121.5929071 -0.68590838216 -0.010377676844 
121.0410103 0.017058906561 0.046888409528 121.60636232 -0.76276372801 0.0075585844448 -15.383752573 6.05940491 -0.096244796822 
-56.803225718 28.477405427 -0.0065854703259 0.024552279496 0.0099914389315 -0.54022334385 -0.00015518394148 0.00044338582763 -0.42616047982 
27.219852614 -13.247946325 0.026762315495 33.606840968 -16.734266933 -0.009471795229 -141.90626226 4.0007822493 -0.044878150599 
-142.51714298 7.8617813745 -0.0022235739503 -147.40822726 4.2500403017 -0.077127381266 120.84281965 -4.5034021624 -0.036317434521 
-120.37248793 8.0500984543 0.019981687712 -120.66419186 2.5990413759 0.025509788934 121.05214878 -1.1502146357 -0.057354634579 
120.75898242 -1.4140779325 -0.028709403691 -121.06696719 1.0674511742 0.013949874982 -120.19495417 2.750995622 0.02333449839 
-119.71008136 0.92953440643 0.0135548058 -119.14503078 2.235052674 0.0024098813828 -119.66000482 0.89906057971 0.018060793504 
127.10681245 -14.326193277 -0.0084869286399 -125.3986823 13.307734008 0.0031464004135 -54.76022617 9.2266849807 -0.00025890531229 
-51.117202252 9.4153482174 -0.014125182425 -47.676430429 9.3272181557 -0.017919244541 65.323587692 -21.988225563 0.0094181767648 
72.263110747 -25.52785149 -0.0096347532033 -64.425690445 26.037719364 -0.016368315378 71.837685275 -29.267388267 -0.024807128749 
121.09102714 -0.078771547852 -0.019322738428 184.37725938 -23.534412146 0.014505804882 180.32083337 -23.423247246 0.013578590176 
-108.50955169 29.016084514 -0.0060797938548 104.32342164 -28.04968881 -0.017592901528 -103.24920128 25.504425265 -0.0093660565341 
107.13665257 -26.519252785 0.0037492081856 181.16432684 -31.768872537 0.055675668454 189.04372366 -28.997208564 0.046447618574 
234.19478636 12.157406597 -3.0563394369 188.69597871 -23.000478831 0.016587410701 -120.65581682 2.5411291922 0.016181653046 
-119.83686106 4.1085986531 0.018618953765 -119.09271515 2.1929527654 0.013934226917 115.15647106 -43.493815326 -0.011471941996 
109.97146621 -42.75832613 0.029797920634 -115.71987545 42.750134792 -0.017499573307 120.92230181 -43.333227445 0.0060239132708 
31.266815121 -16.047058716 0.11783014481 -110.09843552 5.4122970595 0.0045649443889 -107.55277093 3.5713304257 -0.0060168433707 
-109.46911523 8.6967670552 -0.006350769746 -106.80008873 7.039519469 0.0054878555165 -107.53014586 3.5280344384 0.010295123117 
152.27223707 -3.8336019123 0.076288160454 -146.87666657 7.5888053329 -6.1711841709e-05 63.133051953 -9.513578448 -0.021130489078 
54.432660056 -9.4306192287 0.02388792999 49.577209834 -17.347566746 0.020154459814 58.932062312 -17.383920513 -0.035575638719 
122.15176638 -0.65490328023 -0.063881578311 122.96319789 -23.028869276 -0.011019213673 -121.8626687 21.384346575 0.012147680971 
-123.39755311 20.483096225 -0.0010836848273 239.66365946 4.9837955005 1.8457766376 238.03548423 7.9248498826 2.8570078469 
239.50408912 5.5154733516 0.27087978321 -120.56950967 21.465507556 -0.0021136077054 -22.058458818 0.50393078947 0.1239961642 
-178.89750534 5.4625394635 -0.13180975539 174.91019778 -10.559057178 0.020221170336 235.27172468 1.7381828804 -0.03743192562 
142.15662638 -28.139339525 -0.014289772163 139.17726181 -30.307867694 -0.01105441247 139.49043134 -26.862945633 0.0022329454176 
-136.64548484 29.092453179 0.004400756832 -114.51283604 28.39005306 0.012697061326 -116.46806129 29.997969953 0.013974404214 
-112.44337814 29.623009922 -0.018783998876 110.96125054 -27.906585731 0.012935520239 -179.31539541 32.993468572 -0.023101060464 
-112.19665088 16.4826327 0.0045103444021 -111.77664365 19.089142042 0.002052990206 -108.65528079 16.754632687 -0.011258203442 
-108.21291918 19.498818885 -0.0029974565295 -108.61965203 16.825328623 0.0018138231051 59.559731649 -30.501658973 0.0041529214493 
250.08291951 2.7211647419 1.0407105866 241.75432072 3.2966655911 1.0618686635 252.97960996 0.28940621085 -1.6008359975 
123.50139163 -1.4454904517 -0.003405425649 140.86382293 -42.046283247 -0.0011568446934 -151.02839079 40.789912055 -0.010884529465 
-142.58899638 41.91106028 0.030202175733 -25.871306927 7.1789406386 0.018262294247 26.453422299 -6.978178509 0.032139086592 
24.01300493 -10.628648316 -0.036158019338 32.935257049 -14.78747264 -0.02107989056 34.272881983 -10.706535416 0.037145991984 
57.204685597 -21.931310484 0.0071470888444 -91.402935912 3.4698011116 0.0042180499849 -89.025393064 3.5180501782 0.0086810389411 
-93.63869579 3.4211259992 0.0011425080083 -18.432581711 8.0907425848 0.036948550488 152.24452416 -3.6840845863 0.029836530086 
-151.68401263 7.4120854148 -0.017023734279 198.09006083 -17.731803663 0.0013658421607 158.99171568 -3.9347716335 0.071255877672 
158.87575898 -3.8145800789 0.068553038567 -155.5067668 3.8107657978 -0.084907979777 0.0012122689503 0.00019261150334 -0.041126398427 
120.86103762 0.079995626461 -0.052106465376 120.98906967 0.12799390135 -0.022204130162 122.37855667 -12.230740245 0.01814406069 
-123.32417674 14.840606533 -0.0084887246244 -122.66706305 15.963360764 -0.017530019489 -124.09948789 12.936066945 0.008630068571 
254.98891422 5.4093754057 -0.41743296832 -120.78146879 0.69705340477 0.01244604874 -120.36187928 0.89146592611 0.020140599309 
-63.213695016 9.4521168164 0.01876096087 -66.589727653 17.54092612 -0.013836459146 145.73933097 -11.224054581 0.018886394052 
140.90560595 -11.411650651 0.0093547517142 163.84320763 -6.877053064 0.014288140843 156.53018843 -10.272557983 0.00075093061826 
-0.005663023209 0.0013192138086 0.0422840266 0.005267239695 -7.2267498569e-05 -0.20506314039 0.015507115929 -0.00019028023304 -0.47050910682 
-0.045882845818 0.0031804458825 0.83347634408 -47.171790943 9.5155372407 0.016460579713 -66.297022184 9.1679916119 0.0016230956006 
69.32499941 -8.9564327768 0.028807055159 -12.957254568 0.67460972655 0.20039839054 70.188076856 -21.447035241 0.026388501126 
52.818358332 -15.712818879 0.082724806186 -70.55797031 22.064313802 -0.0042099041198 -124.83331309 22.049463005 0.017727530131 
250.03225644 2.1774991743 -1.5610496313 276.16599853 0.81449654353 -0.3095635636 27.688100982 -5.8416940096 7.0174891526e-05 
-35.043409981 5.6732736878 -0.070192216263 -121.54522038 2.6918795618 -0.0087128418155 -126.64161306 18.41215514 0.0015825884579 
128.46771576 -17.197371241 0.017900813055 -118.43557763 29.031175932 -0.0013163744544 238.00748807 10.200141733 -1.1435675915 
244.48926841 11.840323257 4.0455637627 242.57821462 12.014128657 -1.7645194303 235.11407629 10.719793333 -3.8080718862 
169.63392965 -33.427453814 0.006306656676 165.8610983 -35.888797049 -0.0096076691698 174.96028955 -32.624376888 -0.020710635787 
-171.41659745 5.3531725644 -0.080489244739 163.93183717 -7.0822770759 0.058356699344 167.40317899 -11.893760989 0.046053793363 
-171.26298445 5.1357937243 -0.021388346687 -87.198818454 26.063923817 -0.022821369194 253.32107714 0.54603593879 0.95633244207 
240.53785274 4.35337416 -1.0818565841 245.08198673 1.1607053994 2.6421398327 -111.70552194 21.702571003 0.013859190985 
-108.21378355 19.645155111 -0.0055832251125 -88.928386887 3.5729302037 -0.0068012521146 -93.852359054 6.778960165 0.0016966475666 
-93.517039002 3.4351938085 -0.01155284656 124.24429353 -14.949824405 -0.012756795289 -124.09726681 17.150300845 -0.00078388781575 
-69.427971518 8.9174171675 0.0054903069536 -118.79606104 19.464402939 0.023155011565 -117.44650806 18.301460042 -0.0033328633536 
-118.63066574 17.425192295 0.013260410695 128.54699157 -6.1964552978 0.0029997788686 128.11365545 -3.9660562545 0.016611884674 
125.63653467 -2.105525591 0.030429518045 126.44333309 -4.2248893377 -0.0011238040017 125.59666202 -2.1130084171 -0.04278312615 
185.87349353 -25.95016538 -0.016318766307 175.17995145 -30.124714791 -0.0048245589811 124.82494345 -19.442410702 0.0047203562265 
-112.88757305 5.1330321757 0.015332797215 -111.99053528 10.320685082 0.0072128017835 120.96320831 0.20893557502 -0.082375876717 
105.33735203 -42.196478616 0.08100493142 110.80216015 -41.908722495 0.064851126525 -100.5621526 40.507757053 0.0075108081736 
-105.88934148 40.269920828 0.0028313557102 244.76511418 9.3452872325 2.311395233 246.73951135 9.2193828698 -3.6491963787 
130.37804264 -41.841103836 0.052983635617 124.66545713 -41.246773547 -0.0099545184891 120.36309518 -42.283887716 0.030972805622 
126.13274055 -43.100992502 0.037129806026 -155.55331634 39.64493709 -0.050723262083 180.54919925 -29.271341326 -0.0055179065871 
192.36994468 -15.471721126 0.0090507575249 -118.98557736 3.680471305 0.001227948389 118.13800802 -1.6249778011 -0.028151259743 
232.07131077 2.4943221671 -0.21824654935 233.89195537 2.2888098333 -1.2312464561 120.74740543 -0.64969848341 -0.025493707704 
-154.20649536 39.901435662 -0.035611010782 -100.37547396 25.59240662 0.014445082245 76.532266036 -16.707262381 0.070757131152 
-89.215454487 16.80775939 -0.030346959672 114.10084202 -24.69704629 -0.13944918101 114.21716375 -25.278074054 0.13234815891 
-114.83671821 31.173018825 0.0011201467597 -110.62677923 30.567023856 -0.0076300441575 -106.19195315 24.05481284 -0.0068901848353 
237.59521276 -0.20720003765 -5.4207443069 102.99837537 -42.304440114 0.044451685737 94.689585302 -40.389866747 -0.031539357927 
-71.003978239 14.707943075 -0.023805924925 247.43313796 2.4740642273 4.0559774925 244.13446158 9.1247768696 1.6962516754 
241.71776212 5.9028211243 7.0326390017 238.93400723 -2.771925816 1.8981812894 219.16710561 -12.09002967 6.4252391317 
118.27414005 -1.6472041938 0.021862188906 -118.08636737 3.1451795643 0.0085399417186 240.40477016 11.043922738 -1.8590853078 
237.26029748 12.929401489 -3.8940090849 -196.62407701 5.3205337639 -0.11661726338 187.17268596 -12.11038722 -0.0065679845248 
-2.3738008953 0.67595278413 0.063932725955 -12.907200169 4.3035670012 0.23014730613 157.68856185 -35.058560789 0.024423740174 
-154.96224 37.510920932 0.0075249661001 164.90570376 -34.19731777 0.00706023247 -204.59616004 5.2765637825 -0.13074119733 
198.12954021 -10.684649728 -0.0044643105529 102.37760354 -29.369504186 0.00076221218156 -97.277789288 28.743094208 -0.0066077352781 
170.8194655 -16.610815525 -0.01898999037 187.2492493 -16.429036919 -0.74903663755 188.66008588 -20.98408452 -0.54368355376 
169.58532692 -24.495916403 -0.36661070462 145.83920818 -20.88575593 0.02886036705 -148.2058028 22.739793288 -0.014452915194 
145.8979669 -25.148504504 0.020889926118 143.70901882 -23.324133883 0.023040967075 148.35459607 -14.870175989 0.027109575993 
143.38155947 -14.840459083 0.023538760558 129.70586735 -4.3141943955 0.013013913426 128.37209762 -4.0168867846 0.013896783845 
272.17042213 -8.4210926754 -0.12855688987 272.79724493 -19.382924456 3.9713668151 47.352969322 -7.3112223762 -0.18209078084 
62.80641593 -31.810087435 0.050742616198 71.283627265 -34.80409288 0.004165396838 71.75971971 -34.525864404 0.03479962131 
80.235278468 -37.380355107 -0.023225218951 71.930526015 -34.253276438 0.022414330811 -128.83284736 19.927020203 -6.9302324115e-05 
122.27284169 -8.2059003213 0.015788758957 -122.31628912 5.4574228226 0.0020022551044 165.89911599 -31.684760658 -0.019374258733 
166.28234049 -29.285879969 -0.0059223907188 -0.0011462040751 0.00037675548438 0.1359006626 -0.016128092357 -0.0005200941158 0.51475700726 
-119.27075726 21.478618646 0.022321003474 -118.17689111 22.89346372 0.018968078414 -117.63957059 20.480493259 0.011262244236 
167.87569763 -36.407924574 0.0045235324249 164.45339268 -37.433869316 0.03831061233 133.78357812 -40.602530979 0.05455755213 
-0.00096700979849 -3.2346968006e-05 0.13474953408 157.9683664 -18.151948293 -0.7836467606 131.78456012 -16.10207868 -1.1833222594 
177.17926551 -11.058718066 -1.2953639062 204.67898227 -5.1147537383 0.050838519696 193.43474423 -10.287936051 0.0075453789584 
-120.50627549 10.366907786 0.0016610486685 174.9392675 -5.3028140993 0.021453689488 -118.28316711 26.18334018 0.021100075812 
-116.61110293 27.559660925 0.029478271433 115.11135162 -25.567261477 0.022352431963 -116.74707544 24.309242793 0.012883563321 
-107.60483171 43.007750503 -0.023592380358 145.56668776 -27.270626071 0.0049161228607 142.78419019 -25.963701353 0.013101590529 
-120.15743884 10.530726749 0.01283635482 -120.12358333 12.993674341 0.0025916215501 -119.10603333 13.708177742 0.0022433111759 
-111.55635129 5.2455700791 -0.0013350797048 -110.08638465 5.4503620846 -0.00073115620146 -84.504187507 6.4363068528 0.0072211401197 
80.316021053 -12.073147989 -0.020222064603 142.56081613 -38.390833131 0.012969501211 138.94469742 -40.456200778 0.03032190577 
125.5470142 -8.7009617219 -0.0084394162029 125.64194837 -11.522199948 -0.00035785265509 -123.89987443 8.4855412532 -0.010075028505 
133.89044883 -28.013132985 -0.01926031631 -136.39593796 26.078289567 0.030161523959 136.37230824 -25.888706119 0.019569244042 
126.54303229 -21.027559874 -0.021750328383 -94.338125051 30.445031278 0.0033727596261 99.664424187 -31.113031126 0.0030500221341 
205.81951549 -8.0030045682 -1.7842555111 208.29133829 -12.802107146 -1.6315007826 224.49409343 9.2623548362 0.30853439853 
224.05933305 9.0038398004 -1.4233437977 -114.13801935 17.954576745 0.006354250631 -113.735717 14.619544408 -6.8790766301e-05 
148.61398434 -38.158362619 0.043086664515 151.41472149 -35.906462714 0.010860739672 145.01019024 -40.413766945 0.04720529555 
236.92674934 3.0477537399 -3.5451921535 234.12317254 -0.75289377979 -1.512332802 235.56527867 -0.42472017581 -1.3378225404 
-82.585491399 19.084780194 -0.00088829424274 77.458825364 -19.059100022 0.015172917865 250.08859089 6.274659049 -5.1175533894 
124.97703395 -43.39210718 -0.0023030292408 -116.27867293 43.609975097 -0.015190584229 -123.21409018 18.188399681 -0.022410211062 
-119.22307487 11.343457769 0.022863824518 -119.44310734 8.2370048468 0.023214655544 -89.617718655 9.612539082 -0.0058098036197 
-118.98396668 26.400473979 -0.0023746202811 -121.12766309 26.439762243 -0.027782312699 120.97525779 -28.242792239 -0.012845699323 
120.28155849 -4.6971153218 -0.03703687289 -120.75853532 2.6598736424 0.00030558137988 130.02170564 -43.080242548 -0.016817137331 
108.7383841 -42.971218558 0.048683712946 110.23655454 -42.653988101 0.066721485175 -117.39062983 43.572477532 -0.024540369535 
0.0090045801318 0.0014179083888 -0.3018669615 -0.00070399735653 2.8029920415e-06 0.034149456923 -123.6483622 43.210997605 0.0067545770985 
-126.1541297 43.498069418 0.011488147546 113.15946139 -26.786204204 0.024134740191 -109.09960627 22.937055741 -0.0047885049646 
-105.19496396 20.55073596 -0.018558416699 -105.19455091 20.654710442 0.016988528269 189.91514937 -28.80272252 -0.20313191158 
180.16495511 -32.58178412 0.016967506187 169.22186144 -34.89624961 0.080228372197 150.55542034 -24.247857207 0.019538340382 
150.34823328 -26.477144205 -0.017951778981 238.57746086 -2.7727548189 4.0105880512 269.01965034 -11.941616204 6.8401505017 
253.95121941 -11.383733397 2.7115972736 -121.12283195 26.245618887 0.0097030022797 -123.27514925 26.452988405 -0.01013228527 
-64.946797237 28.555573562 -0.044655042936 57.206780821 -24.559627735 0.0016124012191 115.51415708 -41.505261395 0.062775549936 
-196.65692177 5.1654139976 -0.031818534463 -122.77216466 7.9819272043 -0.011602604192 102.67267248 -16.165760773 -0.10632204902 
72.163100797 -11.228922765 -0.22183207697 -117.51162099 20.177425195 0.094036487654 118.96126858 -21.136567048 -0.13209820844 
96.56338919 -38.63279802 0.025046992334 124.32459919 -11.131943856 -0.0022911218942 123.13311789 -10.715677739 -0.0074231834868 
121.44407032 -1.124450814 0.060825595261 122.10193194 -2.0095526839 0.011666924347 -114.20761707 23.176560992 -0.0028730225196 
-116.21279792 21.796011475 0.022515588605 -118.1665159 11.330190465 0.015488831746 -118.4408782 8.1774369659 0.026234334873 
-117.95912845 14.296675385 -0.0090663829497 235.6907296 13.063961136 -4.0153916488 -119.06153504 34.055469145 -0.018307797061 
117.90394377 -32.402473966 0.015540496927 112.95225198 -32.236575164 0.014720104694 113.71268072 -34.049801603 -0.0036066767917 
-128.61073589 39.732023989 -0.024433829212 80.065108776 -38.012510192 0.051799842662 -80.25711441 37.713036077 -0.058811699127 
-123.27890829 12.711259688 0.0043863941101 205.54978762 -18.591983202 -0.10795742155 201.26042387 -19.283520334 -0.037741618702 
209.64027556 -14.559966467 -0.041648599231 214.07787598 -13.76260026 -0.13979064433 -117.3002334 1.6214724808 0.0098014285803 
-116.13357467 1.6424835461 0.017160300531 -109.60671082 25.557668331 0.016521525792 200.36356284 -24.622476906 -0.13883623089 
189.92394291 -28.791550955 -0.0099891050873 104.83697798 -31.805446122 -0.00044122823912 -106.76194893 30.405843208 -0.0041912309408 
-84.513886539 6.3900577933 -0.0046343794524 182.29614712 -16.804275203 -0.014870331588 173.83132169 -18.127946155 0.011015142895 
133.75967556 -12.558929049 -0.0062423831962 132.84772184 -11.815983822 0.016113854041 132.77518614 -11.687129692 -0.032664077379 
134.91820306 -9.6724673679 0.0063297803465 133.69987943 -9.0217286038 -0.016570274627 135.02311338 -9.7962769939 -0.0090324071207 
229.02541155 3.9019057276 2.9463050482 232.73005173 4.183450853 6.4233568769 237.45840129 0.74370841548 3.0829183881 
158.69390394 -32.743863279 0.0059271729539 135.60681091 -41.909621239 0.012007433796 140.34824962 -41.825978949 0.047795284482 
-112.13109088 24.195643944 0.0026318345181 -114.12100488 20.479960323 0.0021634301237 89.035379035 -16.411572147 0.15822215185 
156.66685574 -39.002565399 0.029439020348 161.10236982 -36.525289375 -0.020467830615 -191.29897676 24.69743822 0.0099304131241 
-185.82882713 28.066497115 -0.011884659007 241.90204939 -1.5661604597 5.6663784316 240.3242615 -2.1621978382 4.2803345945 
239.66488492 0.08697251389 2.2007656336 121.25802151 0.071747268103 -0.0070724985794 121.13918431 0.21105010509 0.0062761790928 
121.1490653 0.12571577122 -0.00073645240906 -121.97436274 13.229912157 -0.015425783855 -121.35881706 13.854405835 0.0023894050289 
139.08566522 -14.794947124 0.0058859917495 122.65647774 -0.77972483146 -0.043722668759 123.73124525 -0.8964835745 -0.031194962705 
183.34478533 -30.489515799 0.022315344021 -191.05611762 27.557311197 -0.036272530804 -133.09921793 43.13959689 0.032765206101 
-130.62491476 43.145674248 0.03357760188 243.0038994 9.2412263343 -5.6224818016 -118.31259854 15.91520419 -0.0058188453279 
-119.41675716 15.280300081 0.0083453986972 -120.65421917 11.7742125 0.014888073994 102.88843733 -34.987294565 -0.013509436795 
-98.670857247 32.739077643 0.010928938381 92.866442665 -32.31511207 -0.0054623679889 -97.507022083 34.578052935 0.01394181312 
-122.38638913 10.138413693 0.015204688971 139.57340921 -37.185874385 0.018445519219 235.49551711 -0.65478610938 -0.84575929814 
-122.00161147 19.220377779 0.0058234785042 -120.53617324 5.0914676724 0.020122310603 -120.84321152 2.7644332385 0.023669383367 
-120.06889774 15.292563718 0.017779408985 131.02153573 -23.845886157 0.015371832004 -131.04544836 23.967208661 0.020631357668 
-130.67434976 19.943793527 0.0036678825133 130.74017196 -20.047669569 0.010431740346 133.23390651 -21.120950146 0.0083901655616 
120.97365204 -0.89951588299 -0.034738302758 -120.85328683 0.6125079748 0.0029424664124 120.88737321 -0.6912751972 -0.024616758478 
-236.43758884 -0.43688323431 4.5713987098 241.56432942 7.8362470035 -7.5413898987 248.52331571 5.5478213007 -6.8762952029 
239.85549522 8.0157100585 -5.3250055671 120.52024388 -40.304878027 0.0061636101965 239.25694049 0.14860441692 4.1231542327 
103.85361281 -33.432754665 -0.0076951243558 138.89597641 -34.238369388 -0.0088233343757 145.91777982 -32.679424172 -0.021050974579 
146.43483178 -34.256127235 0.0013684220321 139.36580515 -35.689200742 0.0040612612716 89.063123305 -37.65721533 0.0067591847739 
92.846141719 -39.636901842 -0.021479030596 88.968909492 -37.860021091 0.02550473322 246.90238004 -3.5617862477 5.4215358774 
237.36979649 -2.4393603551 5.5759114882 -150.39247455 39.698468212 -0.028588230328 121.96893865 -16.965239573 0.018793130885 
149.00921451 -30.270432342 0.029778905345 154.88451604 -27.097680724 0.0026407639861 155.65001939 -23.307033602 0.021781521719 
-8.44851026 0.77039517668 0.23601305417 130.28887817 -29.680275244 -0.009944436055 125.304244 -30.229117168 0.014595183169 
127.56144791 -28.244419683 -0.0024421093867 180.87264917 -13.404398629 -1.1077925406 -159.51720819 38.762371015 0.0088145476009 
110.78211986 -28.896263515 0.046543753234 98.467503345 -31.997443964 -0.057750189876 97.079634752 -28.798911118 0.060750082407 
163.65482129 -21.065018104 -0.52272506475 88.112238386 -38.51468052 -0.070722162056 77.522220549 -36.548019523 0.03538415509 
-74.341440505 35.038379425 0.0038065087803 190.22048576 -26.971772556 -0.0074095814802 -198.18397037 23.93431523 -0.0017264016301 
153.28728083 -31.071734855 -0.01094848832 207.70635436 -4.6811314634 -2.4202121574 226.13636135 7.7804509022 -0.47244692328 
82.158223018 -37.615081089 0.061781098312 -82.349821121 37.418953054 0.013495182971 91.708549978 -40.142303788 0.035114414689 
99.978831699 -42.332622592 0.04794737983 -95.912878695 25.067274049 -0.0055384302685 124.46248068 -38.992029353 0.028683378861 
119.13607312 -37.419349531 0.029552295751 114.63322355 -38.720507327 -0.022045951417 110.2157671 -37.009194588 -0.015769476253 
114.53977888 -38.534492712 -0.011672159413 108.98627309 -35.557406992 -0.01126559931 -126.08438917 24.350409871 0.010977110382 
126.06845361 -23.826393481 -0.12890648008 144.97371238 -29.450344794 -0.0018211688604 111.50069761 -13.433267382 -1.8994813209 
151.85816769 -11.911643269 -1.6096231953 98.589088132 -13.71150733 -0.65220912627 110.19242168 -28.258300913 -0.086705645316 
-86.423226862 25.305831574 0.066973988683 34.398254569 -10.456890978 -0.019567762089 40.641264912 -18.927300727 0.072045461257 
208.58013056 -17.956464418 -0.83191293698 -97.117230966 4.0704106519 -0.00072506751869 -99.168752642 3.9665056983 0.00028402458072 
-101.0498859 3.8664087999 -0.0032624850464 121.32592692 -15.770946393 -8.3642835009 220.49094518 -13.414815742 3.2380794631 
160.62807612 -28.444614386 -12.335634759 173.45134824 -16.295406829 -6.0278751457 -119.35044414 31.107046993 -0.0030096093822 
150.80660172 -20.196968425 0.0038923472698 -98.083689567 31.456252218 -0.041021310475 124.78655436 -33.76598164 0.016832443223 
127.81871381 -35.269243068 0.035745215984 121.27430898 -35.770657436 0.0091992342258 236.22594697 7.9074218164 5.2141565442 
229.59139856 1.5127872018 5.3192839781 226.01304184 9.9226199378 6.95015918 150.10027803 -11.270008508 0.0058095550152 
-10.926252709 2.9445294096 -0.098341513827 170.07992651 -35.498711097 0.067849116456 -116.22998816 1.7131360265 -0.0055037504523 
-122.13072658 3.9471075597 -0.017597191627 121.91548218 -2.4608910884 0.029393875744 123.4661193 -4.184684287 0.008228154823 
-123.75680888 5.8733659885 -0.016359053991 -92.864744435 26.743355424 0.016407397491 63.915070519 -30.567416936 -0.00056347773032 
-76.382313813 34.361169039 -0.04195338979 -119.39894204 17.530128165 0.011056049676 -0.0039084665915 -0.00045267327689 -0.70479474191 
0.00010847891849 4.3444877348e-05 -0.057052802698 0.0058973518295 0.0015660107995 -0.112253263 237.42267382 -0.14228092679 4.3471935612 
121.45603382 -1.1208761114 -0.017897755401 -145.74937159 41.31051632 -0.015217586743 -175.69551751 33.53533429 0.0036588742191 
-145.42360234 40.973457068 0.027105944694 -125.32631812 5.9849761731 -0.0089855085863 134.87029852 -43.206900958 -0.02477378361 
123.8345619 -3.5739631718 0.0053554138762 -87.634764999 28.066527839 -0.013367694628 140.61907528 -24.193321422 0.0083014524983 
126.47178502 -37.09408647 0.049485115508 171.74072496 -8.3903254378 -4.7717244335 139.79896071 -19.045416664 -5.1692898421 
25.601325876 -9.6369122992 -0.0041498037682 188.90895489 -27.370700565 -0.24308012952 179.34326894 -31.692748295 -0.032462836358 
165.15933789 -33.235815695 -0.069078010799 174.89690974 -29.482679489 -0.059329275056 -161.88162559 37.638561426 -0.0074017190709 
-119.81805844 19.531623393 0.011991565734 -130.67639201 26.870371823 0.00045103089838 133.91439714 -28.128002972 0.013735097569 
130.6083695 -26.715903424 -0.002713491081 225.73079549 7.6301018018 1.3226439543 100.99629484 -38.377345773 -0.0053419515579 
109.68062787 -39.614124818 0.023405962673 101.12098123 -38.176778051 0.017350292374 195.5006025 -20.657579785 -0.012115659219 
110.7069563 -40.039186274 0.041383923469 22.115231354 -6.1009497365 -0.047202780637 18.278398776 -4.9943933174 -0.05971860231 
17.627557349 -5.0678633924 -0.015276649594 217.39150769 -14.740223082 -1.293336765 224.11456838 -11.114904698 -1.2590706044 
213.11394977 -18.453903147 -1.1145310998 -65.783512701 29.79449258 0.0056921779856 67.59214076 -7.5450469616 0.12841736181 
37.043906674 -1.5762436882 0.3037121716 40.572235582 -3.8526138987 -0.21758562807 132.53902875 -42.061878997 0.02389537752 
116.20658171 -42.583459188 0.029377732021 -171.62117697 34.469864193 0.030944051188 -52.253051167 24.12081964 -0.038201556735 
104.062551 -37.522933751 0.085224458747 119.63772009 -39.81601581 -0.029638077538 117.75447997 -41.271186491 0.069417840511 
103.13005343 -39.60752504 0.036533620022 -0.057709175789 -0.011005411576 1.1549859965 141.95032644 -31.811375328 -0.0058422220639 
38.916512404 -16.819425549 0.14525198509 -127.38696986 9.1821415555 0.0014010599203 -127.45076742 12.04371059 -0.0098260475627 
-114.81193134 35.898816227 -0.00012223420233 110.22190643 -36.815771435 0.012876475014 233.86689349 -0.91191516302 -0.18913734799 
205.06755825 -3.5298636124 -1.9861149831 -103.92815201 7.3887724503 -0.00089965731191 -100.76891958 7.7123732512 0.0065500783774 
-105.5837602 12.038437749 0.012675989386 -102.56533014 12.584931042 0.0087065453905 -102.59297634 12.535162777 0.0045133707915 
66.877876654 -32.516755054 -0.045455414681 -45.389991694 18.63552322 -0.074764698142 40.087322104 -8.9542649413 -0.011658013097 
133.63315631 -31.131419118 -0.033340270966 128.06762776 -31.890646875 0.022288451497 -0.014842149919 0.0020999645817 0.50608845622 
231.65676989 16.804824494 2.4165929572 215.39682992 18.499892347 -1.4150943802 224.10383369 23.598272469 0.87086475108 
-109.69229312 33.964072231 -0.00071624777584 136.11038713 -32.70939605 -0.0044853755965 -107.72877552 30.320609265 22.305034431 
100.60114357 -17.332134137 -6.6427482976 123.5979787 -0.85773791144 0.038396670046 200.69264141 -5.2421385788 0.085055560746 
103.63580414 -36.380392746 -0.0026722838016 98.275683663 -35.903164074 0.0019518780401 -103.61661368 36.209762128 0.0060177353166 
179.04165251 -16.493579253 -5.5106359301 174.52575222 -24.761866414 0.0083068432878 166.85722681 -25.78725576 0.030992383908 
246.04866061 -23.067056778 6.4106099758 144.90027409 -18.363660507 0.0029181598254 182.90679545 -19.918796182 0.024048139836 
89.964404036 -40.358063442 0.0036229379015 -149.76628375 17.472213413 -0.0046803495242 159.34152825 -30.155029131 -0.010841650257 
158.32933272 -18.440835822 -0.036231814654 161.07048033 -22.741499159 0.042305078758 152.75873225 -33.428771318 -0.026268715748 
145.03015783 -36.5057139 0.017114768685 -120.88949643 19.436185395 -0.0056947473828 -120.26113027 17.549397972 -0.00012929582727 
-120.80616211 14.176355072 -0.010379770475 108.932408 -31.968840098 0.0088398204459 -106.18730845 11.794231487 -0.0099287775769 
258.51469849 -22.986223755 2.2414288407 188.15567193 -15.188925275 0.035236685422 64.09163618 -31.574417691 0.043146059414 
-50.847446573 21.88954323 -0.069766038486 -38.359752759 14.616430293 -0.14099776394 49.81814551 -17.427358009 0.099590419395 
61.87060714 -23.575223965 -0.15370793997 62.224459807 -24.121203127 0.16030947492 -86.654300599 24.096376825 -0.011707981145 
-88.327945838 18.101733153 -0.0059313787924 -91.866831513 22.977321236 -0.013434850552 -39.688593082 9.1963104886 0.048525048579 
-116.07213477 19.244325425 -0.001952591881 137.1562678 -20.246877382 -0.0049610665811 141.46497155 -21.581059678 0.022068314013 
137.54287709 -23.370425497 0.00055944738461 137.56438324 -23.553276656 -0.0058918854787 133.73358024 -21.855268816 0.032840911986 
247.66001475 10.572868391 -5.9077686863 238.98722287 3.5866174544 -2.4796607102 237.81277954 0.51068200979 -1.3805088985 
225.06199523 -9.3107039885 -0.83235817068 227.13978769 -8.0332773927 -2.1786807336 -25.553672226 6.7351911895 0.028883947831 
52.855190132 -15.262539025 -0.098533230453 -49.694864926 16.888589525 0.029857753368 -129.5059534 12.546836855 -0.008477520044 
-115.31700375 12.718367154 0.014475205212 -115.56487078 16.097964953 0.009836382319 -133.84344724 21.982913498 0.034634855325 
132.95124552 -18.102093013 0.022557732858 132.86412036 -17.962469478 -0.012692333559 191.93318305 -24.021088735 -0.54165361616 
-116.803677 4.5234644925 0.0068688512145 178.98411052 -31.545696117 0.0037634008214 -6.1352529659 0.90579459854 0.21782482471 
124.35036955 -3.5547151889 0.0020933330467 140.47365148 -18.086053219 0.021827054664 136.2817434 -16.878920859 -0.0052894735204 
-236.37007378 -18.378687611 2.4250003878 -122.54287099 32.300489875 0.0049250706145 172.53032086 -27.138038561 -0.20888147855 
245.96549306 -48.1401319 14.131069416 197.60143223 -38.529793548 7.0225969104 -153.3638092 21.754311392 -0.010228662972 
137.05603704 -38.885973999 0.044257827785 160.11058406 -26.838126724 0.0017859323244 -120.38124982 6.6423556488 0.023443057918 
-120.88950644 2.7849704664 0.014451869959 120.92577155 -2.9520630643 -0.04418704723 130.98185754 -33.185667065 0.0018016033582 
-43.81570815 9.2488090232 -0.03169652304 204.07566273 -21.370790165 -0.4153747502 86.042089627 -30.002634096 0.0019591624164 
-97.454290771 7.2221229274 0.0080185923492 -100.98251943 41.876854501 -0.014801390404 -101.10530422 3.8282359691 0.000848346905 
-97.14717753 4.0364495616 0.00078392825844 229.12781 3.1214378235 6.485440876 218.20755317 3.061266123 3.1072161228 
233.6520318 2.7911919918 5.6868535063 231.70990983 3.0288355362 7.474618407 223.49415996 4.4457266068 5.911626219 
160.77354403 -13.317308941 0.0068520457436 -121.14238958 17.354985658 0.00784536256 138.89882168 -36.890550125 0.02372947529 
-104.24812175 23.551644845 0.003443762958 -104.3348742 23.439775696 -0.0028292963111 -103.47999195 19.968680199 0.013035612871 
228.03756262 2.3369143428 -1.6505210529 242.64784459 -2.9941548763 5.4702456599 235.35863393 1.1229203981 4.7080725736 
223.35115817 7.5944536673 0.8516808224 232.45925 -0.91755182923 0.40584057563 231.84024676 2.02349778 3.5642131873 
240.21620284 10.100497428 -2.8264408881 238.67595004 3.6282269283 -3.5610274217 234.64579622 2.6919411507 -1.5651858266 
160.67842979 -38.652669426 0.017716256349 64.832661575 -28.119142183 -0.067371184916 -77.356243462 29.879721124 0.010969734303 
174.50623917 -21.128601284 8.839250937e-05 136.33012241 -13.679205716 -0.010487747204 133.0115743 -14.733449142 0.012049233632 
135.66134645 -16.124108454 -0.0063862855779 133.13062534 -14.845685012 -0.012559963914 227.78429221 -7.1655571229 6.8430912426 
221.78374694 0.87394710835 1.8797302986 223.7047003 -0.59003269625 5.2180053863 197.06940039 -23.319521304 -0.023262650847 
-97.867887824 11.288559328 0.002680390213 -100.09302906 15.983004165 0.024859781388 -20.771349645 9.5544726259 -0.015657923196 
214.73615838 -14.158803452 -0.23960305026 215.53316813 -14.610619317 -0.27263057532 216.28614361 -14.681545975 -0.31023278982 
224.7803318 -9.3573310277 -0.87049629618 216.65548885 -14.106702402 -0.65531137798 137.79690486 -10.713305421 0.010778031805 
65.751976171 -31.054705987 0.019362990788 53.08085616 -25.271734979 -0.0040336203712 155.71792213 -16.784189733 0.013649446154 
-118.25151068 5.7403239729 0.00317002812 -119.00528815 5.9751704976 0.021402502199 209.3625591 -19.543103367 -0.70641602515 
208.62868726 -19.74120331 -0.48564276276 132.85739257 -18.207454064 -0.64286888336 -7.8818877379 2.856815448 -0.019988463427 
-154.19330776 14.039049692 -0.021857984147 -157.11587798 36.854993064 0.010866160033 200.98560127 -24.671304537 -0.38216641305 
139.15630773 -7.3463981451 0.0017751548158 -139.03553096 7.2146761226 -0.00030657657459 121.37700164 -1.4345755479 0.041789604017 
121.39268846 -1.404558276 0.022403967678 -2.6223104612 0.50621667385 0.081222700436 98.127118257 -36.123869561 -0.0068000173555 
-105.92879992 3.6115686625 -0.0045560048282 -104.16572171 3.7103878922 -0.0064252545292 236.10772301 3.1151597554 4.6121523598 
199.33212775 -24.466389621 -0.020071634617 -158.86791703 37.828788441 0.040469010323 231.98444439 -3.9527162945 -1.1615093935 
10.06607286 3.0356812719 0.24225003169 8.7615600508 2.4858369472 -0.055278404221 12.324820581 1.7937287827 -0.054859896081 
98.725048666 -14.230351594 -0.66459755586 166.93862889 -22.277508774 0.025972734476 164.32944322 -17.693162994 0.019869523881 
148.93632418 -34.26293112 0.043588551516 -130.24131487 17.088078735 0.024588452278 130.28235119 -17.214109845 0.011626832756 
102.22816097 -41.530459022 0.07926811434 134.71545575 -40.901817779 0.068908575459 237.62323619 6.6106632018 3.5624888456 
243.49353508 -1.3742051192 3.1967956706 237.52789636 -1.3197273175 3.1808020172 234.99122422 -0.92126423213 1.9594981629 
15.768328392 0.73810105778 -0.095313614431 66.131305008 -6.3348576968 -0.32645851297 49.950348278 -6.7261940262 -0.66106731629 
18.198231337 0.37187689866 -1.1052097841 105.94946548 -38.242829288 0.0045985467489 -112.14258429 13.445205049 0.00073982577181 
-108.91859895 13.371037935 0.0010023409646 124.83395569 -2.7976777991 -0.0049945217239 -78.808306352 33.889905875 -0.025142635671 
77.657439936 -30.445242096 0.0013505311921 233.57198544 2.7789601444 -0.63736835563 -240.4246298 -2.8749862252 3.4423232636 
229.11862659 -5.2313270095 -1.0090441973 61.237064944 -31.20252925 0.0090603963465 80.85532757 -25.311417188 -0.01335088374 
-85.349544151 12.500954417 0.0011610455752 207.53171723 -19.795643152 -0.16487501508 206.2257662 -19.024418506 -0.077448090525 
-90.639831683 39.552247118 -0.035595915084 193.37763914 -9.4747999271 -1.0077277397 233.51145523 4.7070896348 0.73820410898 
222.42924499 4.6052318212 -1.4231739654 -128.95449061 14.911173908 0.0054005589161 93.071903481 -36.887075809 -0.044418297085 
93.014660325 -37.089295835 0.024999373351 85.338375247 -36.038688849 -0.014147601477 150.13608194 -24.472052647 -0.27776660073 
141.95427371 -19.738209873 -0.29059045263 142.8963163 -20.938112305 -0.54385355752 228.77132732 -2.2635512482 4.8001320797 
-116.87363023 10.468769948 0.022229759416 -116.61332121 13.512973565 0.0056321243532 149.86907686 -23.90474783 -0.26396483546 
-24.079305897 7.7141747539 -0.054859070256 -116.95661156 16.792362747 -0.0091935363056 -123.25999569 26.31120319 0.019224083428 
157.18890929 -31.121519015 -0.066418806482 -119.58616144 6.7599762714 0.016835728089 -10.407573941 3.9136500825 -0.052433942181 
231.28344415 -0.96286679364 -3.6856549405 237.78211981 -9.0231162331 5.6854221748 234.33456078 -12.331341902 7.5427633629 
217.5363526 -12.043356704 2.3371888535 18.026365461 -7.2549843575 0.067271199814 -10.853403422 2.6293176927 -0.0077907421637 
231.07428971 -3.6489455267 -0.67155367916 238.8575785 -1.2286807022 0.81652720654 189.88835198 4.9202858304 1.4617067177 
218.66706143 13.490996217 2.7043465734 256.07430063 10.653907366 -2.8712661107 248.86718609 17.419231175 -3.1131875476 
218.0110329 -2.2267490704 -1.2809957825 -102.13080889 19.263901643 0.0094098915697 -102.20091891 19.145212407 0.0016394407247 
242.04596843 5.7898180867 1.4836320811 239.9628603 -1.5990810977 1.9559247686 245.11202449 -0.58421657184 5.1711723657 
225.83724286 -5.4774011499 4.5971411669 232.52658064 0.18896261276 3.8944367647 236.84110563 -0.33395416897 6.5551575499 
234.64352517 -6.5840635599 4.8392628568 -104.18138901 3.6887845966 0.0023599160308 91.294386097 -35.783261188 -0.0023259374692 
250.5106255 3.7364715454 -5.0450729878 238.11062105 5.9401198551 -5.3633642463 255.36803422 3.8502883722 -4.2651450709 
-1.9619668021 0.39090937545 -0.015608930461 243.76005421 12.829262843 -1.7302137286 254.36885771 16.333580717 -3.3840322551 
127.84240377 -7.2150349931 0.015521350231 105.95929796 -38.410359465 0.0058018551932 212.62570437 -13.244046399 8.777478789 
127.17868267 -26.681394647 -0.0046753664284 -130.0963242 25.244383506 0.0057160358716 124.70579009 -28.267755219 0.017143326216 
124.76326885 -28.090246392 -0.0034810336681 -122.04996417 30.277998086 0.027106911316 128.34238971 -38.598425448 0.05126597246 
111.44939599 -36.493288911 0.1414603456 90.878201463 -31.969231761 0.10260969287 91.127040231 -32.509901443 -0.013123299358 
220.27936219 -12.808417065 -0.88025557881 127.21011396 -26.836703218 0.0069777689941 -248.23046677 39.656929079 -18.857204235 
228.32073232 -31.674449749 17.769287982 226.79460653 -41.492164044 11.168036342 91.114153392 -37.806488872 0.073110242571 
225.0542029 -7.4467960515 -1.157451821 -72.820869589 16.808508543 5.0185829553 64.475444275 -9.171180312 -3.4048835521 
50.685593715 -6.0338737928 -1.5329770003 -117.05389364 7.1761378172 0.0038028544303 -115.42563196 9.4185487725 0.0029825261996 
229.74050717 11.415900815 -5.9513245846 239.6924659 13.911749147 -3.1086485482 -105.2861021 16.750032069 0.010791107148 
-105.28672226 16.81848779 0.0036145922842 223.76426534 0.49586245963 -2.2655427134 11.932210567 1.8946295542 -0.3531290735 
241.19545334 20.171247583 -2.730920259 132.11747847 -13.967055285 0.015065906398 137.71129537 -10.587656782 -0.039375192078 
153.21493023 -27.89371256 -0.16682090649 89.828129641 -18.357455586 -4.3770397066 125.10269714 -27.241591608 -0.10126679662 
268.59825242 -34.782656435 7.0273405403 251.21504052 -17.340927907 14.966249969 72.90106628 -31.667774272 0.0038113625102 
-120.89907142 2.8203160569 0.024128152111 220.77754116 -6.7905857075 -1.0053922679 239.93401132 -2.9362977354 6.9769631353 
-135.50693975 16.00432416 -0.019733620839 147.86347427 -40.084692724 -0.0029944291599 79.650248908 -34.512258004 0.0017422542654 
226.30101764 -3.8526289574 -0.08512329109 226.37777786 -3.954708934 -0.057825056585 213.47750514 -11.481036514 -0.10185191277 
221.54568436 -7.6611652737 -0.12674855916 227.220463 -14.896684972 10.560726144 237.80998444 -0.68012096982 0.017501106295 
-230.16453466 4.4284318833 0.38950463524 79.69871557 -34.280858355 0.035968831981 -95.217082478 14.968068495 0.015789147389 
-100.07444504 16.066523247 -0.010033165608 -73.71974558 21.629668303 0.0078538304961 235.87613465 0.73949436114 3.685428035 
227.74779772 2.4175069086 3.7995675132 -94.53216735 11.005652225 0.0068702077845 121.42012697 -1.2429562235 0.031640327787 
11.425903825 -2.6314802796 0.018617435364 73.315002209 -34.045598701 0.0042207840402 262.07516247 -16.630189403 9.3611497284 
125.94336468 -5.0934740174 0.0087353958187 -0.0078271590152 -0.0011336093886 0.1345810676 -237.57275101 1.6469740264 -0.069031647991 
236.1414978 -2.0012682872 0.062839182389 236.13609754 1.5218203322 -1.9828471421 73.523576986 -33.684743254 -0.018601445116 
79.700743444 -28.905506268 0.0045600959349 97.376656801 -36.571703928 -0.0066917946245 218.02128753 -10.836517776 -0.095367318358 
-95.980918387 22.18534692 0.0007607147487 236.13294215 14.243758833 0.3695674072 239.61527511 -2.5003172285 2.638238899 
69.825063804 -34.308373154 -0.043666269577 -121.89399295 30.106450843 -0.018676797004 237.42959376 1.3363598505 2.7696186647 
0.0030642063417 0.00088104963561 0.74475946463 -0.025026542668 -0.0014146182447 0.29543024956 222.26555723 -9.0730821593 -0.13798966985 
-138.35344094 3.5894698835 -0.048197104511 -6.6097078249 1.4357458274 0.025318336229 135.21569352 -27.159480912 -0.067963487031 
144.97161355 -38.55476812 0.03193264116 241.6952565 11.669577745 -5.406959181 -9.9650059433 -1.9742639213 -0.0001340070273 
119.24099055 -29.175342538 0.015165229966 -135.70956473 27.823274288 -0.008407541825 130.96111334 -14.783242323 -0.0082296480568 
-97.486925049 18.42419016 -0.0052349260738 -135.9861559 3.4716362438 -0.010567749555 136.13799735 -3.544329108 0.045749200653 
-124.36944646 26.725056542 -0.004845812502 -93.229605505 18.995645614 -0.011841633703 226.35484168 -6.0328450406 -0.11065783136 
-133.70937159 25.098584374 -0.0085033732109 -133.76402554 25.252088799 0.0012358996325 -113.64895817 11.518614183 0.016094742892 
-75.70427747 26.858653644 -0.023434440789 -75.594292076 26.339704994 0.0068470894088 223.55519996 -9.8766920682 -0.50318139661 
-234.40083776 14.478202042 -9.4685321872 -0.053027942778 -0.0027273543496 0.86329477907 130.97101083 -14.859052442 0.0099607947477 
235.0095824 -1.6134735314 0.093500849454 231.2831039 -3.4635640522 0.00029740814045 231.19821237 -3.049253468 -0.035192266336 
131.35472365 -9.6766424844 -0.021212640546 131.40536845 -9.7750587446 0.011700739233 -90.437340432 13.751455574 -0.0098115703171 
120.95301272 -0.12393638157 -0.018438287537 120.91207127 0.12373296423 -0.04354076268 130.5385154 -11.727602186 -0.0017596968148 
-130.58035176 11.838804646 -0.012605032604 229.19880833 -3.6188320911 -0.1486280917 -120.99672947 28.07125361 -0.014645298505 
128.31022364 -8.5016805677 0.0095266775178 -108.39830384 13.564776564 -0.01936156785 -120.44714173 26.310433146 0.0082357229804 
117.45467392 -27.801659119 -0.029156536317 136.56107404 -19.514428362 -0.022970717756 0.0016106209107 0.00046090916646 -0.0097620157397 
-0.015040992546 -0.0021625277752 -0.71726607479 89.701226487 -39.400250098 0.036942754109 
Intermediate%20Principal%20Stress%20Vector 3 3545 double
0.059637149851 0.58733264119 -1.0368586127 -0.43569317138 -6.6986954272 6.471610669 0.19643772211 1.8896921834 38.213702794 
0.12061921848 0.57080706844 7.2220871612 3.8168240408e-05 -0.014012560859 0.06924379983 0.093492707584 -52.621600662 -0.0055338858877 
-4.1830895355 -0.063482039473 -0.41561386177 -6.0930305734e-05 0.013032201187 0.40873335378 -0.10457836547 53.034435283 0.019319067765 
-3.4167268127 -0.055358571517 -0.48651658642 0.35384048577 -7.8806385964 -8.6296338296 2.052720944 -56.32904765 -14.717402936 
-0.65593677001 -102.36175506 1.206881644 -0.24332462957 -64.97417042 7.4554606048 -0.87834743272 5.7907422944 16.660485235 
-0.44891097168 8.2426932704 3.8611976036 1.7078925916 -87.894242587 -5.5889488671 -1.2961399526 -81.613124526 3.1444794195 
-0.98940394031 -26.009698919 3.905310473 0.42699524373 -1.1290194288 25.327523994 -1.6069123135 -80.603525139 5.314839385 
1.2255451357 -40.427274435 -2.8688556018 0.0084830330556 3.6505340778 0.54100742834 -0.13630119409 9.9005429303 -2.5227176041 
-0.5601653389 -26.184758189 2.746152699 -0.33630178573 -31.178243239 2.5174214539 0.1518742172 -9.4090208445 -0.80103915137 
0.076846450805 7.5335861594 0.70981506486 0.037184761626 1.3247074104 -6.4311330806 -0.12693256017 -1.6073545994 2.6262270746 
-0.58809746475 -7.7839377692 8.6253441847 -0.018166084059 3.0583132402 0.36229506912 0.041742930903 -0.60991796605 0.61161397836 
-0.00834510985 0.20328113078 0.83589506006 -0.14439555219 -4.9760480115 3.5136081779 -0.082324203106 -0.24908400363 4.1154092218 
-0.04660110751 -4.4088003765 0.63163992446 0.0028418009534 0.59075152863 -1.1615904892 2.8897124995e-05 -0.16205164287 -0.034800497023 
-0.00037920598827 -0.18045999992 -0.047747761003 -1.4456922861e-05 0.0043316468582 0.020715962237 -5.7021407037e-05 -0.020736687177 0.017145140128 
-0.00015450073682 -0.071240181549 0.0076024448656 1.537280033e-05 -0.0067591551018 -0.025809730127 -8.0339092864e-07 -0.01231935902 -0.034747266899 
2.351111459e-06 -0.0024655215954 -0.0097380814054 1.9937703097e-05 -0.013427356489 -0.10484240242 -4.1565143197e-05 0.045559540449 0.014762360013 
9.9139536867e-05 -0.070275287709 0.0036347467342 -0.46697489641 -8.1977456255 2.2423441217 -0.20374453711 -8.6473504479 9.0782091433 
-0.10484630526 3.2027576796 0.77750055595 -0.68347219212 18.295267608 -10.643791477 -0.060520723558 -4.2660716539 1.2381278499 
-0.18629330197 -4.1731618477 4.5570945905 -0.047751996179 -1.729988277 2.3319819828 -0.0075471135843 -3.2577363418 1.3364716863 
-0.001015873661 -0.099712257426 0.48655366615 -0.00051969779197 -0.33509728065 -0.0074534605493 0.00016372931772 0.14270131687 0.16528772926 
4.7018395736e-06 0.027650824863 0.044045837724 -5.3826182866e-05 -0.018374441235 0.0094052941167 -6.3672776702e-06 -0.011615984527 -0.022569669865 
-5.4095354741e-06 0.043178219905 0.062649986453 -2.6502863978e-07 0.00038230406998 0.0010143160366 3.6792054968e-05 -0.025660246808 -0.060776244295 
-6.0957285736e-06 -0.0081553427125 -0.018050077382 -0.00012915941501 0.042146129609 -0.084196493104 -4.8353625966e-05 0.011461559782 -0.028073135645 
-0.0038925038732 -51.18820361 -0.020653032127 -0.044137121877 -47.045348988 -0.057343839147 0.096005064196 40.602380559 0.10831631311 
-0.09841251276 -32.274589169 -0.13073305551 -0.0858608922 -23.12445089 -0.12910987769 -0.02846626177 -14.12921692 -0.12764532557 
-0.010539195525 -6.28440447 -0.075107505769 0.0012663243777 -1.0298295992 0.026537941227 -2.2526257538e-05 0.0079400668231 -0.048447449211 
-0.0071969131201 52.302609913 0.035039613096 0.033784129472 -49.458838483 -0.091108783505 -0.12319930379 -43.914337152 -0.10167244935 
-0.1247255899 -36.647632553 -0.09534944621 -0.11561392528 -27.724309592 -0.12270860777 -0.065539140371 -18.597009024 -0.12143050546 
-0.021359235499 -9.9077681757 -0.063605480531 0.0018467288761 3.4778469484 0.041033112434 -4.8536856991e-05 0.0097296945248 -0.050525368579 
-1.4019681473e-05 0.0049315269813 -0.023320982648 22.444667182 -0.033285824107 0.15127097359 12.319289456 -0.094780799307 -0.039583405917 
-0.00039842117608 0.00011061443698 -0.088576174371 -0.019285587554 -1.6069607745 0.050548457827 -0.024825430999 -13.190091026 -0.011955888133 
0.027387199623 -20.283929119 0.018863247393 0.032878435445 -24.129299655 -0.0097416000798 -0.037373061479 26.070665275 -0.0044173401756 
0.0029934050344 27.078799079 -8.0281223764e-05 -0.0045609642681 -27.922097783 -0.0010012676466 0.0037114110187 -29.127698944 -0.0049299280196 
-0.013423986452 -31.493494716 0.027623303255 -0.021049662832 -35.395965081 0.0016337446686 -0.0055097703575 -41.863007681 0.028052491894 
15.357240701 0.066112632723 1.013527234 17.63097725 -0.044505934933 0.21891354536 3.9802614573 -0.050055728427 0.23574621886 
0.00087066222202 -0.0033223763794 0.22785327068 -0.042132271721 -8.2215592699 0.0096308718032 -0.0073689164021 16.875645745 -0.07229613932 
0.094824229129 22.481522721 -0.011179142346 0.0084897800959 -25.217893285 -0.0026876381887 0.0061844943407 -26.750101263 -0.016426463708 
-0.0008105512749 -27.516301716 -0.009915365246 0.0084258753359 -28.523195252 -0.012808875046 -0.014366462933 30.180587653 0.023117499128 
-0.014797296885 -33.258386858 -0.02025003601 -0.0052794976272 38.527800231 0.012698324823 -0.0080217289787 47.123900298 0.017168750984 
-2.1864481083 -0.44656530919 -0.10346361036 -3.2735870827 -1.3337530977 -0.71185551744 0.43201467436 0.27072704676 0.19358659654 
-2.1338095132 -2.1457266782 -0.43101715872 0.053316655107 -0.54890388977 2.5296850674 -1.1490433913 -2.736595011 0.89428744058 
1.7329630631 14.507965913 3.5268703356 -5.6676748181 -0.61770297625 0.23799736195 5.3785232128 1.6072000704 2.2893778875 
1.6261914349 0.81474130793 0.82864681294 -2.5366699966 -2.0105253331 -0.6171979866 1.2250443361 -0.31224208313 2.4522756064 
0.46950986771 0.88526625012 -0.080945890682 10.142987026 35.718473466 37.299675205 4.1051986121 30.948268346 -21.385495856 
-1.4030633865 -1.3307308805 27.062976146 0.0088001961459 -6.1726623186 -0.33279944155 0.0062382289245 0.19447388334 -0.012763299629 
-0.023609173864 1.3424509738 3.0635393763 -0.29084802698 -1.5888769159 19.974641635 -0.029143520853 0.85260201814 -8.7326008555 
-0.013697902534 -1.5683626614 3.210040959 -0.0028310257738 -0.016176751411 1.6792548901 -6.3234209039e-06 -0.09054258492 0.016012105094 
5.3113147387e-05 0.055802060193 0.26479058952 -7.0733565018e-07 -0.0033645931355 -0.0071393353688 -2.2388449618e-05 -0.018756806505 0.0044779069644 
-4.996729447e-06 -0.0033990438022 0.014610902442 3.3573024239e-05 0.083056746812 0.0092980139355 -1.0585084588e-05 -0.0283928625 -0.0032405887487 
8.2317426454e-05 0.095624988468 0.045767427667 -4.6089032719e-05 -0.042297302352 -0.046801306518 -3.3809808721e-06 0.085151551575 -0.0090683054904 
-4.036131649e-06 0.0040244661026 -0.0011308675304 -1.1150559392 0.1180883819 38.125869534 0.12911454045 -2.2044279399 0.13631387293 
0.0056533755336 0.26113617951 0.056165381612 -0.060836871852 10.671610217 1.783761998 0.011889650583 -0.76613414764 10.823360782 
0.12692587657 1.1934326445 -12.235221746 0.0031952517831 -1.1045776382 13.840439793 0.015473158671 -1.1256385234 -1.7881771908 
-7.4326248414e-05 0.027882747314 0.09602996012 -0.0005463991343 -0.3374114061 0.27027867137 -3.1938985893e-05 -0.022517665493 0.19979462995 
9.5860711862e-06 0.013052355618 -0.0022109210076 1.8060299105e-05 0.013585926472 0.017993212393 -7.0357315873e-05 -0.053552948245 0.058657746228 
4.8846589285e-05 0.076690679761 -0.013507748316 6.47344948e-05 0.15684648162 -0.065346081048 0.00011023613836 0.20791543781 0.017553571382 
0.00018135032616 0.19890617584 -0.067709854035 -0.00017971304303 0.15688158299 -0.025274077062 -5.6090873609e-06 -0.0011313724718 0.13684925523 
2.6640431623e-05 -0.0096342006109 0.34363483873 0.021549385388 51.563287811 0.021560512077 -0.04047774957 -47.418579594 -0.069539202853 
-0.076005305016 -40.831651 0.00056425486196 -0.056420719643 -32.371381964 -0.0075989362743 -0.038113319632 -23.124111637 -0.020650415734 
-0.015937071445 -13.951184915 -0.030498635387 -0.0020920458771 -5.9893539213 0.0097341894928 0.00018450271717 -0.64905279354 -0.034613893288 
-6.8547988555e-06 0.00049606576813 -0.06257306797 0.0098457506033 -52.687998092 0.012218260902 0.037066124611 -49.762373197 0.051785089666 
-0.075135194729 -44.267619052 -0.020717514476 -0.083667748211 -36.802568876 -0.0014191357309 -0.073783565412 -27.788044619 0.0062676506707 
0.040463210787 18.494186888 -0.028381990523 -0.01233043357 -9.7225085723 0.010022445841 -0.00052095794421 -3.110411401 -0.0049490032845 
-6.3675382609e-05 0.031394601279 -0.23471995206 3.3621745954e-06 -0.00077997289508 0.12977559534 19.710084249 -0.019399307681 0.16203878496 
10.606692208 -0.018132116507 -0.054298976614 0.00047410293056 0.00018546557236 -0.019672293805 -0.0010760903781 -0.15890468679 0.16336567613 
0.050921626894 -12.65205164 0.046588195933 0.033350286039 19.855276203 -0.0075329539228 0.084002953901 -23.602295866 0.011140167056 
-0.01443317771 -25.816080957 0.0091687683061 0.025084233458 -26.936835069 0.0059021236647 0.018843047579 27.833361791 0.0036736590842 
-0.0083938443172 -29.145192853 -0.0046950671026 0.0065902065704 31.466346471 0.056527391935 0.0027721848415 -35.447099968 0.0063716022739 
-0.036264020038 -42.265335989 -0.026930479269 -14.039350169 -0.088545683998 0.51705211626 15.675246383 -0.025062958606 -0.50000663231 
1.9650892525 -0.0083494145549 -0.16434244465 -0.0013875256676 2.8541336077e-05 0.20934535313 -0.022197991321 -7.2769211339 -0.00013865708705 
0.015881205005 -16.307062618 1.5803030073e-05 -0.053782811694 -21.931398744 -3.2879802007e-05 -0.0039637758049 24.829398441 4.3926126234e-06 
-0.0045796790332 26.518197886 1.8617268108e-07 0.00219204457 -27.382699488 2.3613519322e-06 0.00047659393708 28.484999976 2.6421869294e-07 
0.0097387962491 -30.225790307 1.3117623501e-05 -0.007799605301 -33.329194667 6.7969306104e-06 0.0043495695209 -38.69609875 5.5368993591e-06 
0.00099674378886 47.513399957 8.5649210676e-07 3.1469478189 0.6251458816 -2.1632375769 -0.10373165396 -0.050207431115 -1.9108712391 
2.6778407384 1.7813488326 -1.1526391697 1.5810528404 1.5211409425 -0.92289095369 -0.027244871288 -1.0386627267 11.281766785 
3.6805227974 10.494880128 40.194766027 1.5475925073 4.1664771564 -6.8018746554 5.2830947971 0.56200706174 -2.3341351664 
3.7527955968 1.1080517585 -4.2089943158 -0.067188424853 -0.029917895639 -3.1961235617 1.8517393845 1.4428734861 -2.2002171749 
-0.61078276517 -0.45199095404 0.1202304255 0.41666390964 -3.8247837787 18.507115039 1.656247396 15.023001034 8.6375315366 
-0.81144816512 -5.5633138371 6.1391996707 -1.8949690326 -0.010930830579 -2.2739975341 0.018645280452 -53.095388377 -0.0023142282145 
0.071666558304 -8.634392647 8.6186476897 0.49338714236 33.616795985 2.8445949486 -0.093969614115 64.513079415 16.740167464 
-0.57243521491 -44.333261955 -9.6248742064 -0.39097722128 25.116774151 -3.0686292192 -1.6841363146 -33.604439084 31.378624775 
1.1409717459 27.406102482 -34.27277833 0.059523866229 -2.2467684126 -1.8256250164 0.03498603249 -3.7859805149 15.95788931 
-0.19958923955 -8.445283434 8.2726171256 -0.26310746359 -19.835904203 5.720823922 -0.0076249496422 0.87257388563 -0.74133963421 
0.90721262508 67.256311311 -8.4430486024 1.1080417535 -53.362056835 -16.939653918 0.72586663956 -37.627093768 -16.90239612 
0.41386874406 -72.72582825 -9.3039637535 0.98677344172 79.76745765 9.2738222499 -0.78796081808 -74.17828206 -2.7732400026 
0.90072125696 -56.835221234 -13.669944943 -0.88571150784 68.263188873 12.893791255 0.58699153844 -58.170190468 -13.548114631 
0.49136547894 -30.884107563 -5.0109170659 -0.64556989113 54.262328715 -9.1926349123 -0.30952023786 -48.391519974 -1.0610694203 
-0.065569300285 -36.246042979 -1.5435975487 -0.0091767451268 21.183452558 4.4991925181 0.02721455715 4.2131986094 -0.30117283675 
0.095207302514 -13.5601329 3.494319176 0.097856027027 -4.9366698108 0.086664408319 -1.562440911e-05 -4.2959612913e-05 0.083435675208 
1.754027195 6.6200515526 0.0031758080061 0.035470546854 0.20140274051 2.1627324047 2.1004721226e-05 9.3723682054e-05 0.064369339462 
2.3044208461e-05 5.6366899523e-05 0.0035345047023 3.763111275 22.527713909 0.0075290692682 -0.88521071623 -6.5518944813 -0.005620568143 
-0.071828441898 -1.209044779 2.5835871414 -1.0198051945e-05 1.6851647534e-05 0.049842809014 -3.0342363519e-05 -0.00020030271962 -0.077822486771 
4.4491740027 16.401736294 -0.0077692305482 0.0022803850872 0.013107140469 0.030041506087 1.1791038868e-05 1.1066502608e-05 0.015316582385 
-6.3793135528e-05 2.6684256675e-05 0.072740254469 2.3764037226 16.92293671 -0.0042984161277 9.0609687106e-07 2.8261379539e-07 0.041546420623 
5.2618561036e-06 1.6488928862e-05 -0.0019316697366 3.1947424355e-05 8.6103102935e-05 -0.039451072125 -0.82302292282 -19.65959436 3.6423441205 
-0.23640232136 -3.0026895602 -5.8696779252 3.8220082972 24.365696072 -0.0069893894213 -0.11090036213 -1.0318065104 -0.010314163758 
-0.15354682531 -3.2042500774 -0.0067074830339 2.4169409889 34.698176345 -0.013399892744 0.00013410822089 0.00025663897363 -0.19804432756 
-0.21362177362 -6.3345760646 -2.1979111996 -5.2662692885e-05 -0.00035867214235 -0.04312704543 -5.0054809004 -15.864634835 0.016354612706 
2.0551472015 10.281952593 -0.011474293121 3.6983404613 15.488528777 0.0026175541185 -0.00082967757563 0.10781894195 0.26542220638 
2.2644761492e-06 4.2172224534e-05 0.065416420262 2.9771108522 27.04775178 0.0015845731253 0.95149716984 10.786758409 -0.0091940467088 
-0.69782817743 -3.6792766193 0.0053679326338 -0.3786005821 -9.4539469309 15.707260428 1.4633042989e-05 3.053160669e-05 -0.029568448126 
-3.5175364964 -8.567435303 -0.021831480715 -4.3910809575e-05 0.00015449510262 0.067526786068 1.6456790217 -0.40711341395 0.35781730132 
5.623107782e-05 0.0001056256581 -0.15525567307 0.00061537575155 -5.0689736414e-05 0.24475496854 -1.3009968715e-05 -5.1406712037e-05 -0.015610673759 
-2.5168838744 -7.3542445 -0.0076467108342 0.00038568580785 0.0035944284204 0.12925355572 -0.01108192191 -0.38639503409 1.619658823 
-8.7894034539e-05 -0.00077030661445 0.099849792841 2.7150904589 29.212178232 -0.015552483882 -0.088851183824 -1.3627252362 -0.014776155079 
-5.0691605104e-05 -0.00019356373605 0.11541299158 3.8533374408 24.329110367 0.00086811295629 0.005437238234 0.053615227255 -0.0048850142 
2.7839784382e-06 -2.5099737152e-06 0.0095042013716 -5.7437234387e-06 -2.7268900754e-05 -0.0016415792446 -5.8242857633e-06 -2.3178014747e-05 0.021280467535 
-0.065827763017 23.896549296 2.5836723738 0.031922842837 1.1039838846 1.3334493743 -1.3537760175 -28.872124341 -1.7855465658 
3.2635198479 17.988201574 0.0029722207909 -0.54828666403 -2.3402900422 -0.014273019919 2.8223765211 9.7992624314 -0.0017113442708 
0.00068387880464 0.0013757171516 -0.034728135823 0.00016055569758 0.00030807361532 0.067133777354 -0.00041089387283 -0.0011136166122 -0.085194391444 
2.1463360083 23.979848499 -0.018016316531 -0.32870876097 -13.920919718 -0.37494778154 -1.0120739271e-05 -1.894483164e-05 0.06097949849 
-0.27219660128 7.7944447789 6.014875079 -2.8403715877e-05 -0.00033534518537 0.02403383764 3.6226489013 24.515643741 -0.0096227058446 
2.590846348e-05 9.6491869435e-05 0.032827780658 1.0949210332e-05 3.8928884907e-05 -0.086010251597 7.4679007743e-06 1.6996286481e-05 0.05326497951 
0.00027442194314 0.00099897888923 -0.38624630708 1.7361494653 11.045402774 0.0048950601906 2.408166425 35.211513892 -0.0082959258642 
0.30566579948 6.7654969264 -0.0036612673048 -0.79901015647 -18.251331883 -2.473484052 -1.9385362554e-05 -0.00013050609943 -0.041144416966 
-1.9724547516e-06 -2.0012466921e-06 0.0068457790676 -2.6533410996 -11.267407817 0.0070830809109 1.4136330288 40.298402124 0.020146830246 
-0.016202345993 -1.4321488391 -0.060943948177 -0.52978450674 -1.9084747853 0.0040243335709 1.3328456814 16.519174307 0.018424020459 
0.00032412433817 -7.0216460476e-05 0.035635947563 -2.7615063859e-05 -8.8152996183e-05 -0.042519855425 -2.7308893136e-05 -0.00015744250816 -0.047111426371 
9.2830850666e-07 5.8620540246e-06 -0.0019889494901 4.9066723733 18.385340727 -0.028692217675 -2.64525341 -6.431538408 0.021647844168 
4.3126257342 18.881870654 -0.0077506546233 4.07696619 12.549261002 0.00095928022026 4.0508046944 20.680200225 -0.014538445023 
-3.5275309933e-05 -9.8630504087e-05 -0.071971787618 -7.9333657868e-08 -2.627123431e-07 -0.0011067874185 1.4426242922 6.4689025141 -0.0052135144539 
0.64258177997 6.9417118403 -0.0054932772145 3.3979340002 27.767817625 0.0034695741081 -0.058044366264 -0.72652324494 1.4699686562 
0.0087986384903 0.37694922619 3.8083021615 0.0010161927482 0.002521517223 0.14847318131 -0.512296404 -3.6060475046 0.017905582593 
2.1133472715 27.424243715 0.00089916162367 -3.3464355462e-05 2.0394921774e-06 -0.082413288696 -0.00024191261074 -0.0043201187601 -0.022973204249 
-0.22492102043 -11.855802896 2.065264434 -0.16576452726 -1.0767137112 -0.0021832635455 1.5223042578e-05 3.8115335892e-06 -0.025242240636 
1.7318144253 33.192055237 0.0016174065916 -0.033582377229 -1.008511726 -0.015108018299 1.6277313371 5.1736104876 0.0004291294468 
1.2357711079 6.9730448162 -0.0025731879784 -0.61032469268 -19.066501353 3.2263849419 -0.0030278570563 -1.362610855 0.96150010636 
-3.5360216183e-05 -0.00010803793621 0.1966956309 1.8665632957 -27.901159209 1.5711702854 2.4737615308e-05 0.00030667587304 0.011212962866 
0.075588775619 0.82094899855 3.1532526141 -9.2081140512 -0.14526070191 -0.21955199493 3.0681680229 20.82091884 -0.0035509580087 
-3.7024414284e-05 -7.1311424762e-05 0.08221501315 3.5128558367 16.739819109 -0.0024018735149 -3.2252794679 -40.642804308 3.8517232933 
-0.10746045103 -0.2910367053 4.8938141002 -3.7079976142e-05 -0.00026585701991 -0.004362738813 -2.4993227861e-06 -1.9386304742e-05 -0.049548150708 
3.7141531295 25.137814687 0.0065334076463 -0.39477968894 -4.0329939442 -0.0089610420736 -0.19144388738 -4.6676988274 1.1868017208 
-3.8950275539 -10.83230031 -0.06109112586 3.893571509e-05 6.0296237336e-05 -0.045092096324 -1.7963742296e-06 -2.1590238452e-05 -0.0055573139883 
-18.914541886 -0.1815180874 -0.50158747191 -2.6759219759e-05 1.3941459739e-05 0.0078584191546 0.00024564376211 0.0042823824326 -0.073662066856 
-3.2887143737e-06 -8.4909829071e-06 0.013271514447 -3.7563797814 -23.172430238 -0.016940473581 -0.00023400027054 8.0380278855e-05 0.080477342743 
-0.17744260218 -3.6031904607 4.5076169843 3.5496365682e-05 0.00012634927996 0.056363372483 1.9695247511 31.752530174 0.0031134169905 
-0.53315373888 -11.406888932 -0.012759910537 -0.011219319553 -0.24023474613 -0.014212593608 8.3231847376e-05 3.7083511096e-05 0.18210022976 
1.8946233071 28.670927884 0.0098860313318 0.92142718989 -15.551758752 -5.6114138093 1.5776081409 12.963403485 -0.0057222752587 
-1.32958838 34.549159349 6.1079520778 0.51135290941 0.054499476275 0.31503430259 -0.51323177927 -1.4058136175 -0.0049118491343 
0.00059827869196 0.002519321463 -0.040023504982 4.8692238069 19.250233506 0.010132476929 5.4596800164e-06 1.1911409933e-05 -0.00052763225517 
-3.6014738051e-06 -2.355533104e-05 -0.019856225229 -1.8702736217e-06 -1.4025315355e-05 -0.017082271189 -7.4184386713e-05 -0.0002516275541 -0.17021788861 
-2.6724538126 -7.0938297252 0.020758030459 -0.55773534941 -16.425007103 -2.3359486817 5.6178208228e-06 1.0823710043e-05 -0.029374330654 
-0.0058949615458 -0.25687488679 -0.25762274395 -6.1318709297e-05 6.0565989503e-05 0.064838746674 -4.4796189633e-05 -0.00021987941817 0.027797981428 
15.017705253 -1.7564286814 0.068122380168 0.057592149324 0.58421303153 2.1438852014 -0.00063950266389 -0.0063507352218 -0.11417196623 
1.1760414499 9.6582270486 -0.0023291296284 1.7429694594 40.195643364 0.0016981445229 -0.069133407129 -3.4348174288 -0.00031670986508 
1.7403883491 5.3499387632 8.0068355765 2.640277488 14.929665049 0.014701532322 3.2089330896 28.900551319 -0.0065142403741 
2.9635180885e-06 3.0546056228e-05 -0.042391957886 0.0001958216698 0.0032071401739 0.039594151683 0.0033760109758 0.0093098338596 0.27298543651 
-0.27199499158 -1.4025660049 -0.0038933078305 -3.7127255206e-06 -3.2943618519e-05 -0.011440779548 -3.773114754 -14.042405643 -0.0073430219463 
-0.17727939537 -1.8730602496 0.0036362540653 -3.4696288527 -11.381862148 -0.0075737762497 -2.8976536049 -11.182374324 -0.015620174976 
9.7234317375e-06 0.0001036764597 -0.091957608557 3.8685178798e-05 0.00029331408258 -0.15932035732 1.2786039336e-05 0.00012227353267 -0.019025019373 
0.015842472755 0.52505730045 5.3016730325 -0.0003650414133 -0.00033521740088 0.13415509198 7.5404510162e-05 -0.00011632402388 0.092934634286 
-1.5557960811e-06 9.2695107144e-08 -0.013085231609 -0.32924098216 6.4288802917 5.951743815 -0.59543272577 -11.712400624 4.2334827603 
4.515758688 20.85794269 0.0053151721809 1.9585167133 26.889960269 0.0067199650626 -1.2219011813e-05 1.1108116926e-05 0.0039642801794 
0.00018388609252 0.0013588101084 0.13589092132 6.7680719566e-07 2.0419753368e-06 -0.0015179918244 -4.3406191882e-05 -0.00088816579182 -0.009512334176 
4.1756830143e-05 0.00015139990364 -0.010851731313 2.8521515931 13.912182902 -0.0049387814333 -1.719561186e-05 -0.00012834108597 0.0035525072271 
5.0622330825e-05 5.3286529116e-05 -0.04334062148 0.98867341906 37.179078568 0.0090717695754 -0.0048692850755 -0.44183793453 -0.040729295462 
3.0176991076e-05 0.00051397896204 -0.016105489989 3.463973541 23.316107895 0.0090139034294 -0.56208531356 -45.736707636 0.0067674610013 
0.00052633934101 -0.24795005964 0.046377211712 1.69895101e-05 3.1323202496e-05 -0.090426941019 0.0022077571564 -0.20566983027 -0.54470286238 
0.010374010308 12.762723385 12.688083424 0.64463125685 11.961525174 1.8195232172 2.4565588121 -54.995244645 4.3848304869 
0.41469171555 -18.765539794 3.3894164359 0.13335198764 -9.5342510558 3.7282597821 0.00013291872391 -0.061659475125 0.051624176087 
6.8060298555e-05 -0.055701022404 0.096176808692 0.00031383196211 -0.18910649502 -0.0063831123629 -0.21104814527 -49.000919115 -0.02777634012 
0.29695763469 43.801174481 -0.014974925754 0.34970633635 48.500071259 -0.008258413346 -20.970578149 -0.31058578974 0.12725253555 
-11.979668401 -0.28988085569 -0.86045658105 -11.438143635 -1.4324443915 0.31072195086 1.0720772911 -18.888967239 -13.699337255 
0.89825923392 -18.71582347 -6.479241825 -0.66724259624 19.832264133 7.9718835759 3.1852898078 -40.099159851 -9.7757580408 
2.5718728103 -69.604826124 2.0947103432 -0.68597891352 16.661894618 6.89970088 2.7517999849 -80.558881842 -3.4688271691 
1.5742300739 -66.531060058 2.3131430709 -0.43251204621 12.100270774 5.1213066392 1.0264730064 -24.115705175 -3.0658784017 
14.129581447 -1.1249111478 -0.075621341241 19.170871306 -0.90615457179 0.41624452343 17.425200728 -0.65959179146 0.11194101956 
0.0018524422735 -0.00054442735295 -0.1680228782 3.018091313 -0.5679616705 0.16037825847 6.8311152339 -1.5201765424 0.37119337138 
6.1008862836 -1.2299879586 0.13210471765 -0.0013530371055 -0.00063805196652 0.25791692933 9.272995679e-05 0.00065654565373 -0.084326240328 
-6.4145135346e-06 -7.6162815276e-05 0.029002375731 -0.0016562915854 0.0014784141029 0.28433736175 -2.2554683181 -7.4794582349 0.081734241928 
-0.46336503323 -1.3596366346 0.099677826283 0.00041299915989 0.0052019773291 0.2723515139 -3.2122550499 -16.866342232 -0.083926720923 
-2.8873003968 -13.021993544 -0.094285373009 -2.1185511048 -5.0101311057 0.088952412194 3.0987130531 22.113077825 -0.051006751665 
3.3133910079 20.037041459 -0.058046081249 -4.5443100228 -14.973280654 -0.068998069195 1.9737998604 25.089887241 0.017205349931 
-2.1394435217 -23.975329686 -0.0038800381587 4.4468140216 20.9372382 -0.0068810614123 -1.8933196903 -26.187867753 0.033745086016 
2.0989510077 25.591472744 -0.044122667723 -3.6748128115 -23.970453162 -0.024044811734 0.95959621147 27.478513362 0.0079127679667 
1.0329135749 27.089716979 0.0020237582458 -2.792029292 -25.810001019 0.03403508251 1.0424352762 28.353116748 0.0082697094029 
1.1100140941 27.818192472 -0.014556800694 2.0342835467 27.158576886 -0.0001267194183 0.9509563021 30.060905806 0.0027289931428 
0.98586489017 29.0338306 -0.0082354318687 -2.0169202542 -28.160157204 -0.0043755719549 -0.90313653398 -34.41163986 0.02097838999 
0.90711196081 32.284933032 0.0092998194041 2.2493633658 31.261036627 0.016720103138 1.458938745 30.660970537 -0.054845900256 
2.326799139 28.903626484 0.0079062755158 -0.48539412113 -39.405625127 -0.018346158537 0.49767218353 36.259318855 -0.012360325594 
-1.3778031251 -35.197122334 0.057506266985 -0.79389102767 -41.366732179 0.011511016675 -6.3582289237 -0.97277432681 0.04986128562 
-8.0020644582 -1.9390952074 -0.31363831807 -16.161693893 -0.26922807849 0.67322400449 -4.852824126 -1.4849472871 -0.95052711712 
-3.6176267748 -1.3438585904 -0.34779641804 -6.8181527069 -0.48168473527 -0.065069575368 -0.0016075950135 0.0031929318699 0.83917444588 
0.041988858231 0.011403479416 1.3351451188 0.0013650405536 -0.0012544793174 0.20844503832 -7.0958618734e-05 -1.5688868758e-05 0.00086540031894 
0.0044330609416 0.0081608240419 -0.6980033156 -0.00666312816 0.00079897179492 0.18720332939 -0.0058169509597 -0.0042425386519 -0.18799459757 
-0.00093642768726 0.0014029532536 0.097032837057 1.5552851045 3.039641995 6.9133916596 -3.2003603258 -9.1872760377 -0.56918268017 
0.062484689372 0.15149686635 0.88523690952 -5.6296115528 -18.910848102 4.1881550957 4.3394450974 64.224023342 -8.4845498367 
-4.9801047783 -34.331144531 -7.6368660813 2.7228711884 55.071561694 -33.459225755 1.0275009121 43.535595193 -0.01712369257 
-0.95461613245 -45.476172219 -0.0080880962747 -1.6020123855 -40.478117205 -0.046636433824 0.85803147358 45.475630887 -0.024760680496 
1.0071668809 42.805365762 -0.0040238453358 -1.4639201216 -37.807967977 0.031095536481 1.5034899337 40.812452511 0.0051909342608 
-2.1451432799 -37.930191931 -0.056336406532 1.0560481074 32.121588542 0.051477274603 1.1878111814 36.012433641 0.065271216879 
2.1953222865 33.627787964 -0.054762196169 1.1324113534 23.896088382 0.0030894336709 -1.3733967198 -28.069797911 0.025589546616 
-2.1033477768 -27.659300905 0.045662003226 -0.65402940106 -15.707931284 -0.028886619772 -0.88304621656 -19.869810636 -0.034060818795 
-1.7341000582 -20.194872134 0.031561074949 -0.20958461364 -9.1198771503 -0.050789679187 -0.32216038772 -12.783687406 -0.039263442471 
0.89647554477 14.073267981 -0.020924303849 -0.090346553864 -4.3709711004 -0.026754719293 -0.1713906265 -6.8832743826 0.024933809655 
-0.41185956253 -8.9564108673 0.074560216681 -0.0089312538349 -1.3513353666 0.036755351639 -0.023779262215 -2.4553767797 0.041477963018 
-0.15887559314 -4.9112728987 -0.067632207107 -0.036408673917 -2.3482323715 -0.053628644108 -0.0011872403493 -0.41213320318 -0.047827482138 
-0.003149386062 -0.77917902759 -0.034951654795 0.48669190385 -16.874051571 -4.4830705861 -0.069541719661 3.4130138647 1.8976566236 
0.81465488554 -18.161585079 -9.0717634455 -0.16144234113 3.5220090757 4.6012781722 0.18670538082 -0.66939533806 7.6291053915 
-0.14946907597 3.3085742712 6.1893693318 0.064991509524 1.3290293053 4.8211676603 0.0013523558426 0.12874718768 -3.7113475015 
-0.058075313816 -0.46272696917 -6.6639089203 -0.036064218583 -1.5068173921 0.96403786471 -0.37606144829 -9.9383972969 4.6416930779 
0.40177047014 5.241205201 -16.465522897 -0.10815345871 -0.27517448931 4.8343180591 -0.24036929868 -4.6618685171 2.9985906393 
-0.47234815418 -11.766035791 0.1409127608 -0.43751685014 -10.445549615 -2.0068213046 -0.95224174176 -16.616264922 1.6030073029 
-0.16480382979 -6.5383276304 2.530446044 -0.067162254897 -7.5785028274 0.68722829453 -0.31460765643 -19.05673444 4.3421444974 
-0.0054428459909 -0.36084943531 -0.013919718283 0.0025145330581 0.26178338549 0.11946863365 -0.18993911822 -6.9071675433 -1.3048706085 
-0.044104079734 -2.0872877257 0.23418089467 0.02864828838 1.1949446939 1.9808212135 -0.0061573243806 -0.55228047408 -0.32470771934 
5.2537616973e-06 0.00055461178097 -0.018446105078 1.2358849718e-05 0.0010953010989 -0.076155715557 0.0023109770551 0.038906999582 0.35225356976 
0.00037958963945 0.012529412128 -0.088757414886 -0.00023509986451 -0.0086880741247 -0.063303724433 1.9978259922e-05 -0.00037771772792 0.076765825381 
0.00018837406148 0.0046234761941 0.060780975477 -1.5546849277e-05 0.00020906814262 -0.041723795409 -1.0025202432e-05 -0.00029961200625 0.0033549483247 
-0.00023931903245 -0.0085781580712 -0.0099392330996 8.4122674072e-05 0.00085563348841 0.12376095535 -0.00039959598048 -0.012117559488 0.064498385042 
0.00058097561326 0.019176905718 0.042656659151 -1.4010790866e-05 -1.573115091e-05 -0.048356357579 -2.0921550643e-05 -0.00052699101418 0.0092699857207 
5.8750303404e-05 0.00088124546829 -0.014302094698 -0.0019493011924 -0.044812603731 0.093850577246 0.0012531180189 0.028775367291 0.045920350341 
-0.00039543708331 -0.0047897605697 -0.073049582094 -1.5848980687e-05 -0.0006857048977 -0.0028088839403 0.0029420452806 0.11590239827 0.054876131852 
0.00026551688975 0.0038394826301 0.082752406245 -0.00085318878448 -0.029666088429 -0.020843860312 0.0044386160236 0.15586233024 0.067845883993 
8.6755878534e-05 0.0016204035383 -0.0088477581402 -0.0026195232799 -0.10592141367 0.0073959375944 -0.004822262973 -0.20523527943 -0.010995603858 
0.00024156523836 0.0047092116424 -0.0051583104419 -0.0090861071451 -0.47586298925 0.0052417809071 -0.0062456543986 -0.4024722102 0.058853456212 
-0.057906034955 -1.1828508703 -0.028756733032 -0.020743282417 -0.61194695695 0.015146306382 -0.041979672537 -0.74568475262 -0.052164125335 
-0.001447049031 -0.25595184649 -0.017151187567 -0.00062409464508 -0.19316640186 -0.0020284766028 -0.014237452653 -0.64427077909 0.025443877912 
-0.00078032181743 -0.25417182278 -0.018720587973 -2.7207920358e-05 0.0001971854416 0.15236312822 -8.5704049701e-05 -0.00018317976235 0.055082368783 
-0.0001369240046 -0.00013585085233 0.11674622845 -2.2259528133e-05 1.4470318532e-05 0.045100039174 -3.3762788784e-05 -0.00017835417675 -0.07104222218 
2.5365537991e-05 9.1947345523e-05 -0.11550513849 6.6307877437e-05 0.00020806913098 0.064645330195 -4.2715126483e-05 -0.00010436434773 0.088266238003 
2.2713518474e-06 1.2786266492e-05 0.0099678519105 5.0976579119e-06 -3.0736139617e-06 0.0063046640142 -8.1076973558e-06 -4.4166684203e-05 0.018464832281 
3.4500413469e-05 0.00017940160899 -0.073435616283 -0.58609190553 -2.2961183444 -0.035760473768 -1.1319502461 -4.1516185984 -0.038567204177 
-1.1034035159 -4.4118249619 -0.017162016039 1.6321388768 6.7202218291 -0.00076257358295 0.98108385624 4.2815531427 -0.0017337884464 
-1.7452380726 -6.0568838774 0.055257291308 2.2524778646 7.4704888004 -0.010817281961 -2.2647865658 -8.1796250718 0.015756757527 
-2.8915442431 -10.56307929 -0.017198274662 -2.3214636644 -8.8490427654 -0.00475540829 -2.0260284954 -8.8116362421 -0.0057441954906 
-2.2413971535 -8.9373332335 0.034817819311 -2.7887190997 -11.314954528 -0.011927169145 -1.0412218287 -3.5054350078 0.0087953141892 
0.0024514415604 0.013717295789 0.70820251275 0.00078070542877 0.0051621936932 0.38310906255 0.0025415791256 0.014439840537 0.26244968229 
0.014346249166 0.095934575199 1.0999266679 0.065035256624 0.48826825718 2.4927456658 -9.5619783723e-05 -0.00050069246944 0.19813469426 
0.0016115022534 0.0050025714607 0.21646793648 0.042877536484 0.30027008711 2.4036900069 0.010108689459 0.038535455631 0.61510169895 
-0.75067488789 -18.229523353 -2.4704472238 -0.15301885551 -1.8854757164 -2.0739173203 -0.23047882956 -2.8837820622 -1.9419374934 
-0.44832747612 -7.8482481506 -3.4046634291 -0.14209309784 -2.6587304808 -1.9647956297 -0.00016727147283 -0.00070806001093 0.14148356592 
-0.00015941605096 -0.0004658128439 -0.065581102634 -1.044370658e-05 -0.00014646378535 0.040868556875 -0.00031135930344 -0.0011695429425 0.1617574292 
9.2162712603e-05 0.00034880303496 0.03596484431 -4.7981085042e-05 -0.0002698894432 -0.029456255099 -0.00012164856564 -0.00069244062544 -0.079722508467 
-0.00011802362813 -0.00056173129358 -0.054260144945 -4.9249121667e-05 -7.975360321e-05 -0.060183413804 0.00011739738866 0.00056952289009 0.081746862984 
0.00032392640281 0.0016244540498 -0.13610070531 -6.5868357366e-05 -0.00030166303273 -0.021298127798 -0.00085749609566 -0.0019664656479 -0.11443386892 
-3.1250329245e-05 7.6422607807e-05 -0.063571226021 0.0011746354048 0.0025817267035 0.21171934832 0.016188607084 0.036779888483 0.021882021148 
-1.1065794105 -2.702088313 -0.03989711651 -0.00012006756072 -0.00037275775789 0.18584498244 0.00016414249684 0.0002675098474 0.067540363597 
-0.24951354029 -0.65166894696 0.055826665429 -0.00023130547419 -0.0006324160373 -0.014226029589 2.6622452542 6.7983113988 -0.0092688464071 
-1.2457936023 -3.1709235732 0.008415207138 1.5363579434 4.1303464354 0.002453761691 3.3955005604 17.402870041 0.020651296782 
3.7114912892 19.622611512 -0.0076194191344 3.5591468874 20.294633067 -0.0091610961574 3.6061558276 22.913185833 -0.0015584747014 
3.4107880875 20.617860615 0.0047997716132 3.8177146139 18.714480222 -0.015389810961 3.9155828521 21.630692194 -0.031669851223 
3.9437015519 22.888862312 -0.00014794915851 3.7735416112 23.827376981 -0.0050295500235 3.6239260238 25.771358582 0.00072567239232 
3.2982769888 28.258544353 0.00091004099342 3.653512618 25.20635464 0.017355043426 3.4809463517 25.543189744 0.01016814299 
3.5125753309 27.107703114 -0.0020321782525 -1.0716640129 -6.8739710346 0.025524089974 -1.5020070438 -8.971361384 0.021943096433 
-1.2806223931 -8.741263407 0.011417122342 -1.4522542478 -10.418319547 -0.013482979203 -1.0421315397 -8.0892183495 -0.021643647241 
-0.52580677679 -5.5182549635 -0.011403032369 -0.62227495757 -5.3390130903 0.0033648307166 -0.78173597585 -6.8572952792 -0.012078801678 
-0.89150425879 -8.2968998723 -0.015452095823 -0.84395113567 -5.2817783679 -0.0015281347657 -0.69621506424 -5.0116039709 -0.0046037615703 
0.46816284908 3.8939175807 -0.0036659133899 -0.33504790518 -5.4182043065 6.1829124238 0.078663121564 29.756466169 0.78222555758 
0.13072255571 7.3933154909 -3.0829456705 -0.36676009857 -15.288758993 -1.8066880875 -0.045612972635 -1.4284657337 3.1126360735 
0.029000132285 0.95847487282 -1.7285827776 -0.9129173175 -11.512091656 10.182147167 0.042838616856 0.26745771014 -5.5355975339 
0.1014896391 0.84768654946 -4.4842157444 0.20480495157 0.9578679817 -10.281244423 0.28398288186 2.197728461 -11.752531868 
-0.0093626062264 -0.035456277578 0.70455011381 0.00058535686244 -0.00034237612038 0.13937748262 6.5118870531e-05 -0.00011342685089 0.043867474088 
6.1481233066e-06 -1.8680221145e-05 -0.010843961493 0.00030878120502 9.9428658685e-05 0.29743806117 -0.00019018500828 -0.00019951519897 -0.067943246887 
-0.00015042257692 0.00012048800478 -0.078501963162 -0.00033755492881 0.00049570886997 -0.12070235206 1.3596363218e-05 3.5760385375e-05 -0.0084898689028 
-0.00021246828174 -4.158137589e-05 0.12864543444 -0.00012586914894 -7.6148864436e-05 0.042578043862 0.00090330747164 0.0059757859816 0.25690845127 
0.0023757153358 0.015344706959 0.41217506233 2.5367458338e-06 -1.8829306308e-05 0.040319040757 -2.7315577702e-05 -0.00013098934616 -0.054464478995 
-6.461596846e-05 -0.00010301315375 -0.16111651382 1.7966579811e-05 0.00013988912041 0.051754775205 -0.00014599698188 -0.00095339237381 -0.10084527359 
-5.1324267635e-05 -0.00028277040564 -0.053213024819 -2.7183191712e-05 0.00019795693556 -0.096376462829 -4.409555779e-05 -0.00014679469016 0.092847237154 
0.00025876095032 0.0020691588796 0.10661698134 -0.002929824464 -0.022995067849 -0.38420416736 -9.5953986663e-05 -0.00029786566328 -0.11917162794 
-0.00057284210442 -0.0049417017248 -0.15646821071 4.1097675361 16.477583598 -0.00094971219905 -4.1047398444 -15.172017123 0.017320311329 
4.4114174776 17.716663485 -0.015347718067 4.5799953675 18.728746238 0.00983681167 4.4226557723 19.845775657 -0.018847445249 
-4.6582925425 -16.008435202 0.019018564266 -4.686174595 -17.766413197 0.01354010697 -4.3454884452 -14.579190631 0.040320281189 
4.02737929 13.932916894 -0.0085106252314 3.7496024625 11.924300642 -0.0074527447706 4.6958823236 20.122767314 0.020859374765 
3.6482928265 12.72145861 -0.01125155017 -0.12692486348 -0.69267836415 -0.041866910679 -0.23855620204 -1.376571928 -0.014916578949 
-0.10222404358 -0.62415992695 -0.021478697306 -0.034806721155 -0.23985582884 -0.014572126176 0.00044801285553 0.0029075272433 -0.023915384108 
-9.8122431227e-07 -3.0588545385e-06 -0.0010366154742 -0.0024408261474 -0.012996921181 0.10080008667 -0.00049297519657 -0.0030142650085 -0.085035796063 
1.6387301288e-05 0.00011689366842 -0.0040653370902 -0.067845834404 -0.33987585571 0.0029138592354 5.8538811986e-05 -0.00013177809349 0.053526515228 
-0.0001304033008 -0.00016522668712 -0.046928244417 0.00054932535824 0.00065606241957 0.075615408571 4.5597763174e-05 3.2856083639e-06 0.047504054156 
-6.5048176635e-06 -1.0029915061e-05 -0.0019899660771 0.00035755724086 0.0010028323095 -0.097819239263 -2.8834544456e-05 -4.5032823856e-05 -0.032525487505 
2.8889075326e-05 2.5423740026e-05 0.080326004515 -0.00016585223092 -0.00028970063698 -0.089213539205 -1.7973198133e-05 -0.0001469277359 -0.081216779739 
-5.2050594613e-05 -0.00010206519212 -0.034606323099 3.3302976151e-05 2.6424218399e-05 0.020573396356 0.00040754148506 0.00047047406181 -0.37863866422 
-1.370879311e-05 4.5434785228e-05 0.1420609609 -0.0010593341634 -0.00087980411263 0.36131159417 0.00026511380482 0.00019298119728 -0.19135566949 
-4.8785143987e-05 0.00039835413642 -0.15609812721 -7.7430334172e-05 6.2374852892e-05 0.042085293387 3.2027490307e-05 1.4290430096e-05 0.2928893206 
7.5401543456e-05 5.811834337e-05 -0.087964890027 5.3453826203e-05 5.6585656789e-05 -0.0240007055 0.00020653677051 0.00044721582293 -0.191389733 
3.1475826304e-05 -0.0001801424217 0.26625677312 0.00012150076219 0.00012974221225 0.18334274714 -1.8600223381 -16.882511583 0.0098514379714 
2.3640786144 20.402345838 -0.0075682510434 -2.7363882746 -18.890439488 0.019017126005 2.6782604354 22.464052824 -0.051104823063 
1.9680226469 14.965391299 -0.0012938827329 -1.6820054233 -12.008853086 -0.044879115757 2.0739314685 13.901001331 0.016640655213 
-2.1759520142 -12.989283398 -0.026301207146 -2.5357347229 -15.936732904 -0.044265937826 1.5006881444 14.773607329 0.026666672787 
2.8940502126 17.81796835 0.023021942634 -3.6765446934e-05 -0.00038738212065 -0.073348649235 -1.3250561036e-05 -8.0149743312e-05 -0.013976771031 
-6.7136739001e-06 2.3293941286e-05 0.029029412041 -1.0486483439e-05 -8.3552048109e-05 0.023329891016 0.00016022516735 0.00068857762498 -0.10625367605 
2.3413577687e-05 0.00027214350076 0.059179330324 1.1043786546e-05 7.8072986393e-05 -0.014476704845 5.7408252648e-07 4.1604817795e-06 -0.00048526193181 
5.5300034927e-05 0.00049087168902 -0.054214864862 3.5302591276e-05 0.00035406620788 -0.058433453572 7.0828038686e-06 6.3117438367e-05 -0.012031271431 
-6.0281327966e-07 -2.4103514908e-06 0.00099787302171 -7.9262154415e-06 -6.1464050303e-05 0.018826139036 0.00054171130177 0.001613625502 0.19704884817 
-0.00044659456279 -0.0013725773716 -0.07174059047 9.9509817459e-05 0.00018814841013 0.075152610335 0.034880096715 0.10282985986 0.061807573305 
-0.60372679994 -1.9126925757 -0.020140367842 -0.15928304858 -0.5394804551 0.035769683294 -0.15275246377 -0.54777727266 0.01182523837 
-0.0015009446317 -0.0050745295994 0.11951269585 -1.2038946036 -3.5583486241 -0.026277656432 0.00010233819114 0.00035095957033 0.030830205631 
-0.0002042480839 -0.00049126445806 -0.11409473746 -0.00014276956722 -0.00041674167451 0.11986552558 2.426742144e-05 0.00015495419654 -0.030243227616 
8.7811418018e-05 0.00042792548148 -0.09780528567 5.9865985511e-06 1.7134860053e-05 -0.0057913260085 -0.00022427460943 -0.00031745239874 -0.13868637808 
-0.00012569082784 -0.00043598591233 0.11835359471 0.00016576688348 0.00048848304298 -0.16517054641 0.00011707585816 0.0002301505839 -0.071130300566 
-0.61508908503 -17.15969751 1.9127614287 -0.64154425561 -22.469956723 1.2346994584 -0.089628230185 -24.90529762 -2.0467144509 
-1.1338436 -24.405729993 2.6636747475 -1.3938342745 -27.211107037 1.0542748928 -0.76071653255 -19.159784414 -0.025352874119 
-0.77673177585 -23.749620853 -0.146087679 -0.99856583769 -14.767149061 6.8681115936 -0.030321567125 -1.0771954184 1.7159284517 
-0.84407885236 -16.644673034 7.5054753329 -0.51795314076 -17.952685256 -7.5540683205 -0.29213189017 -8.8061227904 -5.0708054997 
0.13914452316 1.7718199009 5.3014900964 -0.29496927645 -11.24423852 -6.1048988065 -1.094549253 -28.623725498 0.61276090616 
-0.61589075354 -12.383619109 -5.4197540636 -1.6220072609 -11.103356299 -6.2459076904 -1.1979447051 -8.0285423179 -7.2063946961 
0.085677493438 0.34489520393 1.8545911237 0.019556499589 0.050480466732 1.2323989403 0.087513630169 0.39986555361 2.4331131478 
0.0088763529204 0.035179985938 0.48364819948 3.2925270569 27.210077003 -0.0025584279409 3.75330506 24.689347378 0.0018951569238 
3.31537538 26.770068275 -0.0028185019638 2.9889317756 26.718756071 0.0029158354496 3.0246787658 25.94339536 0.016990777523 
-3.1403754833 -26.028610424 0.0042347503468 3.8525214677 24.361602971 -0.012508765717 4.2262319449 22.659610797 0.0060337319466 
4.3051509557 22.652594863 0.0035714366729 -4.0519284533 -22.648501828 0.013742560531 4.213108441 19.884606612 -0.019626617992 
4.2114903616 21.72777033 -0.022736849321 -0.0474908342 -0.57746451738 0.026021231691 -0.015955252328 -0.20285299172 0.0075347430002 
-0.049828907377 -0.47596310523 -0.01910518302 -0.06007483317 -0.4697014506 -0.013713919784 -0.16685238705 -1.2818521175 0.012495159211 
-0.33626364748 -2.2607517832 0.0024458337804 -0.28059570631 -2.2460474555 0.0013920706403 -0.33599358863 -2.8489253147 0.0088684282723 
-0.13561076329 -1.3386659954 -0.0013279270487 -0.065290341937 -0.84831681306 0.0040461690921 -0.076720614332 -1.077193264 0.014606229776 
-0.085724034648 -2.0958268455 -0.032469070306 -0.13381690927 -2.36013488 -0.014311421751 -0.22163417289 -2.7097989811 0.00087981591552 
-0.27501271123 -3.7812863516 -0.01056096152 -0.35300251214 -5.0308032754 -0.011116823711 -0.48825720518 -7.0250504322 -0.020737263849 
-0.23946138998 -5.0360234935 -0.017431219248 -0.10974062372 -3.2273868332 0.0011307172958 -0.071243671216 -2.4778137549 0.012572429213 
-0.010948059461 -0.96935962269 -0.0531545493 -0.049360254206 -1.7272302247 -0.019776406828 3.0439038651 31.512867106 0.020609858668 
3.0288745596 31.197111247 0.013761128477 2.449733668 34.965535726 0.0033500909644 2.1697095172 37.583507181 -0.015000977653 
1.9213421121 37.438654106 -0.0060702496111 1.7745407789 36.251257485 -0.0046316245196 1.1964797292 38.78001778 0.066774602822 
2.8860806899 31.804886899 -0.027252649946 2.5690603035 31.198618722 0.0039792211675 2.1086173217 33.925937068 -0.027709437655 
8.5869883319e-05 0.00076198302386 -0.19627354026 -1.3146638949e-05 -0.00029153751721 -0.082250419034 0.00024375179893 0.00083073385683 -0.25843849746 
-9.3324758449e-05 -0.00017302927862 -0.28865199406 -0.00012857286487 -0.0003788977055 -0.12025788293 -1.2717271011e-05 1.7376296053e-05 -0.032042621825 
-1.4232767714e-05 -2.9952663901e-05 -0.010665627528 0.00010370796616 4.2948818119e-06 -0.094905756081 -4.4043743448e-05 -0.00011949107384 0.023275151937 
-8.3927293244e-06 -6.1116932638e-05 0.011374108371 -0.36488739292 -9.211254461 -0.63955309536 -0.084868017391 -3.0672693518 -1.9583971735 
0.058817523976 0.88003382852 2.0006962065 0.010411288913 0.13618747721 0.67956242799 -0.64116176304 -15.296727395 -1.9663808671 
-0.63259162592 -19.080007788 0.26880374075 -0.098741293397 -1.5607311504 -1.7798489459 0.015584617217 0.13804940495 1.0986980961 
-2.7638798589e-06 -2.7528105417e-05 0.0040561127089 6.7887450545e-05 0.00045549762078 -0.034996306643 2.5966704031e-05 0.00021822299306 -0.0052265675409 
-3.6246924522e-05 -0.00046252622612 -0.056959714678 2.1879736881e-05 0.00017479123536 0.11372132422 -0.0002102963823 -0.0014821414901 -0.030589678524 
0.00032740088802 0.002673539302 0.064169286505 0.00028241032726 0.002564952752 0.050744774133 0.0002058982194 0.0022731872111 -0.077598191249 
2.2466648095e-05 0.00017394590322 -0.012318449431 0.0001458059944 0.000758139336 0.085308484412 -4.9086791441 -19.728270249 -0.010521830183 
-4.8218396151 -20.685023229 -0.064351509937 4.5637680949 22.006403823 0.030152906334 4.981440142 17.714317604 -0.01274053214 
-4.0729800957 -11.077919436 -0.026176638744 -4.4135551385 -12.310689485 -0.041236824861 -5.0857321214 -17.071893412 0.012789739384 
-4.0027191454 -11.389814698 0.027815844518 -4.5535746317 -14.110227779 0.041741716846 -3.4489416491 -9.8070316152 -0.015133632768 
-1.6322844341 -8.6344855162 -0.0078632994534 -1.913163932 -10.750216181 -0.014417475135 2.3744238424 12.585079855 -0.014346436751 
1.76212777 8.3180094547 -0.0046188476052 2.3614299471 10.858041264 0.007997076926 2.7711305054 12.569166809 0.0069615848045 
2.4483948465 12.06899149 0.00039574836138 1.3679769211 6.857960786 -0.0063502954089 -2.7454234419 -14.400621178 -0.022569469476 
3.6356724392 16.209068586 -0.010717708439 3.1105233584 13.966828563 0.0046813209409 3.1728557391 13.346122438 -0.0013445724136 
3.3077869214 13.221940005 0.0064656815448 -3.9201641756 -18.072859925 0.028662930516 -4.0242084439 -17.173560461 0.026282730979 
3.770426019 14.898733637 -0.019748982823 -3.329275828 -12.568147848 -0.0078218313437 0.041055440249 -1.355926641 -11.221059655 
0.053763379363 -0.64889498936 -4.5050176475 -0.28479704861 6.8209889176 7.4306885404 -0.42318763533 9.8355276379 4.6202554997 
-0.014380453267 -2.5012884772 -12.287682595 0.0080361306681 -0.24013825061 -4.3106662456 0.0065624411708 0.74663987907 3.3268917505 
-0.010472471552 0.36532711638 0.55808446155 -0.41433185131 10.699597011 5.4029517517 7.6252882263e-05 0.00025553936728 0.06056511202 
1.1741254475e-06 4.5916129657e-06 0.0016173510666 7.0886852907e-06 6.0273446301e-05 0.018565458534 -4.2339057718e-06 4.4368372818e-05 -0.038129982261 
-9.75661887e-05 -0.000357423383 0.11644748555 -1.1470445375e-05 -6.7636082834e-05 -0.026280034355 1.0090437534e-09 4.1097932002e-06 -0.004087781894 
-3.7978511544e-05 -0.00028928564217 -0.086796243288 3.0780526753 23.819262877 -0.011759082542 -2.5493717721 -25.640583273 -0.016252506071 
2.5973079214 29.493924781 0.035786373099 3.2004018125 27.434075558 -0.020147560609 2.7745529332 31.008472386 0.02276820335 
3.2695097321 25.195725098 -0.028678365082 3.2877629525 22.139968254 0.0052211923907 0.80374726681 8.877113392 -0.00091188452358 
-0.59074657726 -8.9270599216 -0.0020242959376 -0.75304041055 -10.97458913 -0.028258039237 -1.1426742687 -13.52719543 -0.033045846527 
1.251722125 11.951485124 0.0084616526698 -1.0832029577 -10.250094652 -0.01449879841 1.3723685549 11.294581269 5.9139837072e-05 
-1.0553585381 -5.1077395328 0.022352217387 -0.67000853 -3.1734543746 0.010252551068 -0.47481362348 -2.4694998968 0.039328518903 
-0.40989524579 -1.9126746453 0.010185512137 -0.9627531835 -5.2386533825 -0.02768695064 -0.40167953345 -2.3351148015 -0.011118884493 
0.63270046283 3.8310269394 0.010259572716 -0.35032065439 -4.3182179491 4.7157020904 -4.2276839267 -59.909374223 1.303158435 
-1.2201187584 -26.805025537 3.1479426564 -1.5374376477 -19.021960802 -0.42284971538 -0.12234730495 -5.639103908 9.0307189117 
-0.021054896316 -1.8579655653 8.9224543614 -0.04473104519 -1.236145412 -11.563433899 -0.61749769109 10.375562955 11.412433282 
-1.8081148317 -22.620836023 29.890787789 2.3574189011e-05 5.2369270118e-05 -0.018342798761 -1.5650012963e-05 -2.3775121834e-05 -0.0056425243327 
-1.1240802408e-05 1.8741204681e-05 -0.020417153688 9.8712879686e-05 0.00038728738496 -0.085725385482 6.4666457987e-05 0.00012049229815 0.050424823334 
-0.00011516860678 -0.00018876326959 -0.075691182122 2.0055321923e-06 5.2901331514e-07 0.0064811895991 0.00022756008462 0.00064179152479 -0.13920314978 
-3.0654097044 -7.4423797634 -0.0073692645808 4.7112755566 13.692851776 0.016741245858 3.710465411 9.5027806955 0.0024550723001 
-1.2931982554 -2.9312344176 -0.00077406074687 -1.7145909725 -3.8223372891 -0.073730879377 -2.0658749296 -4.7280539338 -0.026142883861 
3.5227859609e-05 0.00011756675652 -0.024948114459 0.00076931137016 7.8432864319e-05 -0.13953813451 -0.00038987442748 0.00010720363576 -0.042526173231 
-0.0001349727547 9.490279781e-05 -0.047846136717 -0.00021858784402 -2.7237875202e-06 -0.10739800581 -1.9649288506e-05 2.1448625377e-05 -0.010216214853 
-5.3355780859e-05 -9.0120539863e-05 0.026091165769 -0.00075734284971 -0.00017180367114 0.14756435735 -6.4128814591e-05 -0.00027937307749 0.17347074294 
-0.00027865392305 -0.00051967836067 0.082671149327 -0.00069722954317 0.00029564444945 -0.052562585555 0.017149124271 -0.0061697442998 0.18938603834 
9.4157859904 -1.6845657954 0.3118015993 12.895555904 -0.9768690802 -0.13360381012 5.5789580636 -0.6049590985 0.27775023828 
0.0039323137427 -0.0010679885556 -0.57388550784 -0.0025946298075 0.00059326230792 -0.035627420606 -5.2818897488e-05 -1.5516981433e-05 -0.32280888984 
1.8637523902e-07 6.1349232732e-06 0.0078301178068 -7.6394154823e-05 9.5990305904e-05 -0.10988419003 0.00014432445481 -7.9220501627e-05 0.16898381547 
3.891063864e-05 2.347782795e-05 0.031321898564 0.0001239596939 0.00091898036973 0.26505183733 -0.0014273520478 -0.00064362053686 -0.19433434211 
-0.0035648142324 0.0009669675386 -0.55160173688 0.00021020002224 -0.000417028237 0.18687360105 -0.00028872762578 0.00029220401036 -0.098363142366 
-2.2968233743e-05 7.4093181161e-05 -0.019207653704 0.027884370847 -0.0038635101414 0.96202034709 -0.10430953365 -0.39716294589 -0.0015663691146 
-0.15630834796 -0.64609748059 -0.05589952635 -0.18164154452 -0.82867170093 -0.0098186425978 -0.00030304657162 -0.0014004800527 -0.036434843679 
-1.8120623496e-05 -5.7992664266e-05 -0.010833990269 0.00024633061301 0.00090786755439 0.0831542694 7.4296160567e-05 0.00027893914117 -0.033339391134 
-0.00045313804635 -0.0022565210822 -0.076055346507 -2.6281921548 -7.3403348003 -0.010710117946 3.3174229132 9.9308451063 0.014111248706 
-3.0241687596 -9.3178923791 -0.0033358888815 -1.5397970724 -4.3434493205 -0.034408337256 -2.0487704801 -6.2323104427 -0.049571389346 
2.5614805244 8.227501725 -0.014537946936 -3.8748687021e-05 -0.00035895772599 -0.024893363398 6.4349799327e-05 0.00067796195382 0.038352601795 
0.00091016854179 0.011232610423 0.28772699765 -0.00050305861641 -0.0060456503047 -0.095217710952 -0.00076617522131 -0.0084330226722 -0.15595567628 
-8.5030246339e-05 -0.0010616204162 -0.016490313938 0.0054363694255 -0.21479104892 1.0703545138 0.15323495902 2.0983145154 -7.1864013051 
0.020328727125 -1.1656790508 6.7301029892 0.0064949617841 0.063059163636 -0.63633231034 -0.041822882389 0.27029301693 -4.1464453756 
-1.3741632709e-05 -0.0001895401811 0.071492360938 6.8682476302e-05 0.00044096334423 -0.10287576799 1.1267818399e-05 0.00020590291553 0.013624354397 
1.6371167422e-05 7.9781093275e-05 0.037620387009 -0.00011895909783 -0.0010653293473 0.06530222022 0.00015303533109 0.0018772029645 0.096241219462 
2.956761166 28.911326867 0.023055472788 -0.14437422143 -1.8021687681 0.014713683347 -0.2842286685 -2.9584672291 -0.012176749257 
0.0044862044171 0.0073085817363 -1.1023675457 -0.0021418178512 -0.00026028541608 -0.66719537786 -0.00016278536974 -0.00048583119065 0.21771554356 
0.0026358506177 0.0060491489281 0.52536616667 6.345553127e-06 2.665150776e-05 0.0029740379947 -0.00035240451335 -0.0011679729634 -0.20539333936 
4.5107382847 21.908541704 0.020012168311 -3.7496274755 -24.438501141 0.01309696195 3.0275654165 25.780592231 -0.0018890347245 
0.00023320353904 0.0030524143428 0.0064063654185 -0.0005575976821 -0.0061092960839 -0.040701455929 -6.8237309315e-05 -0.00053456588568 0.036927967708 
0.0028477676287 0.02401530321 0.036390074026 0.00017862118048 0.00040436313372 0.13892481139 -3.8056911618e-05 6.7361991187e-06 -0.021870467108 
-0.00010709403603 -0.00018551410384 0.084179332366 5.894809017e-06 1.1926948691e-06 -0.0037487948957 -8.5144303748e-05 -1.7541998843e-05 0.06290348551 
-4.2830506536e-05 -0.00015757727142 -0.061992640387 1.2029458062e-06 1.7630838999e-05 0.0075203645479 5.1554856396e-05 0.00013530525628 -0.077466634932 
0.013738806393 0.2063110858 0.90282730549 -2.9602882869 -16.486992943 -0.0097472420071 3.1882134757 19.39802608 0.031309745872 
3.0871562104 15.9745956 -0.020129986059 -3.1740748056 -15.288009698 -0.007545924787 -3.1359725435 -10.606011564 0.015710789247 
-3.3142100807 -11.9143366 -0.013481941828 -6.1869045859e-05 -0.00022759123391 -0.34171880898 0.00045938091905 0.0013595816354 0.057814656261 
-7.8626730403e-06 -0.00035565396475 -0.082476347953 5.8455345518e-05 0.00033616865235 -0.099369948195 -5.4267042584e-06 -9.2778206815e-05 -0.039904091644 
-0.96412974088 -5.1481039586 25.166514239 8.8542124418e-05 0.00095417623203 0.11597649343 -0.27017904594 3.8895987037 -2.4881342191 
-0.091581221781 -3.0825218238 -1.0387181 -0.046664708073 -4.684656437 -4.6153006835 -0.090302083508 -3.1525136598 8.2718970869 
-0.083160729647 -1.7418695508 6.4400254692 -0.0077921335904 -0.40418796221 1.6599657723 0.091123608261 1.878270311 -7.0848536922 
-0.00073226986679 0.19069842284 -0.0098537262514 0.00012586480875 -0.26665651005 0.031455620289 -6.5948114447e-05 -0.10823493475 0.016462343962 
-7.593912664e-06 -0.012540643239 -0.0061962258853 3.2614884756e-05 0.0017169772933 -0.035600121081 -4.2887009214e-06 0.00043284651998 0.0075010319899 
6.3101642578e-06 0.0048818054132 0.0016581551656 1.2030928311e-06 -0.04163918122 -0.061043722342 9.850973915e-06 -0.003666846027 -0.058883990619 
-1.7686572138e-05 0.023783830522 0.073423500897 7.3918169314e-05 0.018919274637 0.11768064378 -0.40508647374 -6.2741120008 14.587814526 
-1.2982369247 -0.65184571749 35.948137835 -0.61162849956 -4.7460547708 13.254474596 -1.5438706068 -4.5030943462 30.47507766 
0.00011255176793 0.0086990282688 0.27316274374 5.2197655826e-05 -0.0058766314478 0.096663850966 6.5382823433e-05 -0.057621347834 -0.0044272760964 
6.2125307802e-05 -0.043466259834 0.030820134634 -0.013001225543 0.27375028365 -0.14742734477 -0.02048179426 -4.5620524496 4.8699064106 
1.1715280549 3.7888132914 -18.324781906 -0.72281494452 -0.023120871124 12.879521347 -0.0016024660729 -1.7866977574 -0.67398340696 
0.16765127878 8.2260729469 3.248071692 -0.038536966099 0.73177703806 -0.016339396941 0.00016176525344 2.3171446318 0.15536555059 
0.030932068022 2.2828900714 -0.061901860317 0.001412547422 1.9233556874 3.0379439581 -0.016459484232 7.5883895816 3.7883851891 
-0.22553889323 -6.3459361136 -2.6964799468 -0.18319724647 -8.822432416 -1.3313042787 0.32970192446 13.227657035 0.79497100706 
-0.056154035622 -1.7035157218 2.5456611297 0.0093605880988 -0.0052187900961 -0.51192060191 -0.004538123051 1.2302116737 1.6579765409 
0.025027880867 -1.1973072758 -2.1258387657 -0.048103776985 -1.7763517691 8.8050795914 -0.10633551884 -0.92140357589 5.513093299 
-0.078271857797 -6.1155361948 9.0778794363 -0.15941065809 -4.1962679441 17.788308925 0.16243208749 4.2162781594 -11.225057797 
0.46557395254 -0.61495372646 -14.016203918 -0.038009997618 -1.5452658489 3.2458667283 -0.10689944378 -1.6403454875 6.3971937076 
-0.043405887796 -1.3013673429 5.7620846477 -0.086002786189 -0.40616720868 7.9327296825 -0.081502680234 -1.1332950764 11.939332438 
-0.003100675323 -0.86908579567 2.1249690758 -0.004554829597 -1.5820560325 1.181966557 -0.01082734217 -0.14830703079 1.3914411773 
-0.020076822568 -3.0707884748 2.0967576757 -0.083560029676 -3.363151299 9.3722704662 -2.6666025753e-05 0.013513702151 -0.00074857544781 
-0.00058117307564 -0.16026301402 0.31200732235 -0.0086595789469 -0.25670783479 2.4454559907 -0.0028535698269 -0.35035127953 1.8412070481 
-0.00049392649234 0.013354630898 0.27750267108 -0.00026983470928 -0.25893934318 0.04345618754 7.9261433151e-05 -0.3968851388 0.1445316253 
-4.4808096235e-05 0.027466199123 0.00055786174592 3.0565028863e-05 -0.18120217179 0.096913878175 -7.0183963072e-05 0.02661824083 0.40322540213 
-1.6737935118e-05 0.070930144918 0.076483452536 -0.00010224204109 -0.012157624077 0.18258144814 -6.8740804124e-05 -0.21569456553 -0.1113954704 
-6.4562340892e-05 0.025563218418 0.19695167553 -0.00010062275189 0.091628029335 0.31404853089 0.00011318903137 0.14088388012 0.073637674855 
6.2320427561e-05 0.0080032020801 -0.048477898391 -5.6418954459e-05 -0.1106049725 0.025147325556 -1.9043871008e-05 0.0067062352369 0.035682692242 
-2.9724533648e-06 -0.023892561586 -0.02604017827 6.6539510802e-05 0.055760905696 0.0010364913853 2.2813097728e-05 0.0045828166647 -0.015373575809 
-0.00013651386657 -0.097035189112 0.04686972096 -1.2870956621e-05 -0.0096818970779 0.0020242772216 9.3701777245e-06 -0.043230564293 -0.093227732678 
8.5598756493e-06 0.030980343936 0.045400765023 9.0743760252e-05 0.043251733142 -0.038541964558 1.5928602597e-05 0.0094310475116 -0.007745567082 
-5.2930944306e-05 -0.04739026834 0.0090543526247 3.7286230345e-06 0.012883148089 0.066943174498 3.4775275728e-05 0.032439818811 0.03813993421 
7.0543551521e-05 0.0051031044461 -0.060272400904 -3.6975991209e-06 -0.0032046493355 0.0011893693295 -8.947421199e-06 -0.040067701815 -0.04826405561 
-3.9952049787e-05 -0.070216363557 -0.042603590298 4.5940295874e-06 0.012646531715 0.023718300463 0.00010932559961 -0.0028821802199 -0.149200162 
-4.8059498949e-05 -0.050841862374 0.0041832727319 6.5492237756e-05 0.069433669509 0.039216038699 -2.9511622006e-05 -0.10644040169 -0.088885033101 
-8.4700671216e-07 -0.019158657287 -0.087205799716 0.00010599726143 -0.058626156362 -0.21831584565 0.00010719772219 0.092923604519 -0.03601918555 
-4.6216965778e-05 -0.060592591516 -0.072957116776 -0.00024430020063 -0.064424696626 -0.32113435498 6.7785645274e-06 0.0091932977785 0.0096472064562 
3.7458747712e-05 -0.014290588993 -0.13459242311 2.8943830183e-05 0.013192692235 -0.050124759003 3.3988603494e-05 0.0085812767651 -0.14157770908 
-1.8867043383e-05 -0.010671581462 -0.09291355158 1.6769301343e-05 0.061218599943 0.010145724568 -2.8976802048e-05 0.12595357301 0.037693051486 
3.5759529424e-05 0.050971919616 -0.012819264843 5.3460295193e-06 0.01535616859 -0.00023430976469 7.8776676367e-05 0.25945402549 -0.020726338033 
-1.5389716229e-05 0.035314706537 -0.0027676682757 -2.2336610074e-05 0.0351182692 -0.08632665742 -9.6348512017e-06 1.919600581e-06 -0.069498900317 
1.7549521705 6.6792555492 -0.0037459237614 0.0068617445272 0.028528908671 3.0602609139 2.4956637705e-05 0.00011210752143 -0.052905543278 
0.00015293687407 0.00040979881371 -0.063535781408 3.7281177023 22.602791259 0.0038175186642 0.88230890183 6.6245223284 0.0056841697176 
0.011065472951 0.17714832806 -2.8055924567 0.00012107850482 0.00011764546752 0.092464524218 -0.00038905110404 -0.0018524159099 0.43941036202 
4.38810733 16.368860619 -0.0061022086269 -0.032508551581 -0.18973224336 -0.0054791868528 5.8080025796e-06 -6.242792848e-06 -0.018266919777 
3.4421636933e-06 -1.8390892708e-05 0.021119360653 2.3589599452 17.018138471 0.0070287303397 1.8024006798e-06 1.2147599529e-05 0.0061123067797 
0.00010238730226 0.00031920665715 0.04933185562 1.0607869322e-05 -2.1362343389e-06 0.07253269344 -0.18944721308 10.397307438 5.9837901485 
0.02042727812 0.14816789572 3.941629466 3.8049253042 24.427697918 -0.0076232791822 -0.13011193932 -1.2348303237 0.025161462136 
-0.15320824299 -3.2181076138 -0.0069094418695 2.397996666 34.868708429 0.0057519307295 -0.00010190303682 -5.1851306503e-05 0.141991413 
0.0027320429219 -0.16738966187 -0.92919776658 1.3146673746e-06 1.9466325992e-05 0.009739600074 -4.8770935544 -15.638189629 -0.018812238852 
2.0527562374 10.379277099 0.013301203082 3.6757843722 15.577653995 -0.0036136945828 -0.022332589081 0.40636620426 12.876875019 
-3.182716813e-06 -2.2017887725e-05 -0.039632285906 2.9191657873 27.259769692 -0.0021275463965 -0.93337296548 -10.811848219 -0.011882033554 
-0.71862208337 -3.8314302096 -0.0034179998912 -0.23980462722 -1.4924249527 15.862257255 8.8275482572e-05 0.00021844274721 0.11746345151 
3.3896440948 8.4456136076 0.0092093574578 -8.8694309932e-05 0.00031555400283 -0.10268186248 1.1193408376 -0.23604849068 -0.087416823511 
-7.738118792e-05 -0.0001517379254 -0.15065771361 -0.0020348156473 0.00068781998742 -0.21114438362 -0.00016814715354 -0.00070399158759 0.042686009806 
-2.4949249612 -7.3645600059 0.00675535095 0.00016762851558 0.0021319007642 0.22569666833 0.063732405061 -0.6276957652 13.247776944 
-2.8870217716e-05 -0.00029404701878 -0.041168587896 2.6733497775 29.224473709 -0.00011903559513 -0.097528366687 -1.5237917136 -0.0078772337443 
0.0014282020879 -0.0034577248129 1.1759493728 3.791254537 24.218482342 0.011166197597 0.013258333485 0.13265677227 0.036100077628 
1.0538641907e-05 -4.9410029028e-06 -0.03029861788 0.0010790189179 -0.0018273788226 1.3022314867 6.8411616126e-06 -2.3590843092e-05 -0.033239390194 
-0.072555008682 -1.0040757304 -13.877939095 -0.0069971811386 -0.2074365914 -1.8070985717 0.64459953912 -15.758868783 -7.5399331615 
3.2440273982 18.100413562 -0.0015561971631 -0.56443000296 -2.4311959607 0.0067841940264 2.8227275023 9.9486281188 0.0024382927413 
0.0016364047144 0.0035153702578 0.10983847097 1.3501328132e-06 9.0980277051e-06 -0.02013230441 0.0017473549509 0.0048059544065 1.2837088874 
2.0719494677 23.965612974 -0.0052481201074 -0.16579787338 7.3298833826 -1.1046458535 1.7584645604e-05 4.0162698535e-05 -0.064152279545 
-0.098063322931 8.4433454249 -1.9515784692 -1.9042085471e-05 -0.00022040586308 -0.0057302443688 3.5600722058 24.343740765 -0.0031254638085 
3.367240489e-07 1.5139474367e-06 -0.0025872925241 -2.0524438476e-05 -9.4802250888e-05 0.063037334076 6.3694779969e-05 0.00016127988328 -0.049115519761 
-0.0002809542291 -8.3024361813e-06 -0.064130936138 1.7222959233 11.131038671 -0.010679660932 2.3499514153 35.46852813 -0.029446744904 
0.29763751712 6.7204090084 -0.015339723678 0.001526716219 -0.051485079825 3.164509564 -9.0105673033e-05 -0.00086796980991 0.092533117089 
-1.4151172846e-05 -6.6663883585e-06 -0.019903183603 2.6523050902 11.391454055 0.0020391401199 1.3540958911 40.454732269 -0.036144769485 
-0.016962177832 -1.3739120051 0.050785596737 -0.59128028543 -2.1517115582 0.010905885755 1.2834507079 16.574245522 -0.027488204426 
-0.0086962861272 0.0025943499967 0.35307982923 4.8501078513e-05 0.00012260558267 -0.028929049422 -1.4273855234e-05 -8.5719298437e-05 0.011934398113 
-3.4420850817e-07 -1.0803345621e-06 0.0010402174103 -4.7766643977 -18.180205678 -0.0020611684935 -2.542070303 -6.2843192857 -0.016541164267 
4.2622234647 18.911899219 -0.0016971882585 4.0392564465 12.555219063 0.0072054814683 4.0116314325 20.726094679 -0.00076982108642 
-3.2396680324e-05 -0.00010306626846 0.094149222854 5.9330172342e-07 2.4893866904e-06 0.0028060768478 -1.4602200205 -6.627324886 0.0061940354783 
0.63397191018 6.9597413522 0.0026500866361 3.3518573889 27.76836196 0.0089325501393 0.032055325997 -2.8970813907 8.3552478176 
0.09621653852 -7.0122370351 -5.8833347011 0.033821787318 0.039937310767 3.466426858 0.51883951653 3.6917079041 -0.0018124971649 
2.0851519771 27.359873275 0.011065617796 2.0012074389e-06 -5.462042949e-06 -0.0087149821072 0.0058356517668 0.10762943727 0.014525320879 
-0.068243037012 1.8436386635 -4.992977125 -0.19417337309 -1.2772322909 0.0025311450988 0.00012431527214 0.00014791327026 0.097022076672 
-1.7215226369 -33.376751534 0.0082583875833 -0.033945640459 -1.0143636799 -0.0041134257591 -1.6437290587 -5.2788520574 -0.0027471310963 
-1.239488054 -7.0666226663 -0.004612351683 0.030780653774 -0.41909097336 -15.440673663 0.010566561361 -1.0481033666 -9.0120007271 
-0.00012296348406 -0.00081650902233 0.57306716045 -0.65495582231 6.5566687281 -0.34690350842 -1.5413913665e-06 -2.1244214285e-05 0.0009162113492 
0.013675989559 0.061220097746 3.5670096072 -9.20619729 -0.30865563861 -0.07008265105 3.0401127721 20.909621932 0.0071643640621 
4.0976340003e-06 1.0430627373e-05 0.0091633700503 3.4936435142 16.861237018 0.012068145332 2.5406513657 44.174617137 21.102937718 
-0.17847222719 2.2351358501 -17.161156694 -0.0040312122558 -0.00063304783831 2.6975727015 9.2394796308e-05 0.00057244701859 0.042385984523 
3.6846374008 25.169849337 0.0061280271863 -0.40298001189 -4.1776227443 0.0064553889516 -3.5045766889 -27.478013397 11.628582335 
-3.6348359906 -10.591204744 0.035974844822 -5.8778607131e-06 7.0543478793e-05 0.064944243678 -0.00011548743961 8.2296827406e-05 -0.051447580525 
-17.25097352 -0.56879460476 -0.18373642253 0.00017500079286 -7.832785355e-05 -0.054320375081 6.3151978745e-06 0.00012492070378 -0.012396667013 
-1.6160061614e-05 -5.607912188e-05 -0.040931423499 3.6062470211 22.960475853 -0.012208463603 -0.000196795288 0.00016680333745 -0.042872123468 
0.0087207971746 -0.040093929098 -1.8012090286 4.274269797e-06 5.051999891e-06 -0.046668075387 1.8701121659 31.77398805 0.0028463525264 
0.49878142322 11.15290719 0.0021022100856 -0.017110509872 -0.37705430597 0.024151482171 0.00011228947134 0.00016649816876 -0.20728962134 
1.8771240222 28.631192088 -0.010544699725 -1.5487819011 -34.639299907 2.9896619222 1.5635909221 13.095463133 0.0095224466866 
0.12987375866 -4.0671954072 0.22408807708 -1.4383945192 -0.22547610147 -0.13863202826 -0.53199947422 -1.4730508793 -0.0092396873032 
-0.050999335776 -0.27097653102 15.019852367 4.7669925508 19.196374067 0.00020872994931 0.00014292042408 0.00030425135812 0.0084916022512 
-8.9889764111e-07 -3.3612780803e-06 -0.02297543401 -8.5994454336e-06 -2.0943320883e-05 0.0078947467354 -3.6262237147e-05 -9.3874410179e-05 0.12810844082 
-2.6543992009 -7.1517899076 -0.022616968659 -0.0062034150774 0.27649256676 1.7891824473 6.9901561294e-07 1.0534030533e-06 -0.00091326230577 
-0.00031843788357 0.076486703768 -1.0054629908 7.6319999156e-05 0.00026542083528 -0.14646563115 -1.3865569783e-05 -7.2853324661e-05 -0.01122811803 
13.241782877 -1.4095891539 0.031844302874 0.0041548705445 0.062184549006 3.0951184033 -0.00010495748492 -0.0049829098606 0.84200472623 
1.1628937885 9.6922373146 0.014435085319 1.6854362521 40.714137022 -0.012388073585 -0.062656700071 -3.1352224617 -0.0023564065676 
0.193729081 1.069711154 10.307073719 2.6185218013 14.994970651 -0.0094397852567 3.1767018957 28.980542983 -0.0095102852887 
-7.3080946135e-06 -1.4377154943e-05 0.025879075938 -1.4465025584e-05 -0.0003250802207 0.027057249497 0.0059319823827 0.017501210995 2.6067839446 
-0.29807327846 -1.5540857545 0.018938382605 1.7656129976e-05 0.0001305816132 0.074720941171 -3.7614144082 -14.109955753 0.018574301608 
0.1924906315 2.0692737238 0.002648386912 -3.4488933742 -11.403019702 -0.0140027994 2.8864113465 11.238547354 -0.0015129545497 
5.0253796896e-05 0.00014880506572 0.081206149552 -0.00014728840808 0.00045030216583 0.20208367822 -7.5644776927e-06 -6.6552890413e-05 0.025206695857 
0.19779157082 -0.87546663984 -17.773254173 -0.0069085504184 -0.0055731672231 1.1849608379 -0.00015192154866 -0.00091037778571 0.35239715092 
-3.4700286985e-05 -2.0836202622e-05 -0.037576253909 -0.80337703778 12.477541342 5.3626014988 -0.0074763246352 0.41174024973 -1.691379801 
4.4639044878 20.838227238 0.0097959016133 1.9190632703 26.742661634 -0.0082481350886 -9.1711902243e-05 3.0509719833e-05 -0.016150494919 
3.439722165e-05 0.00057551966358 0.031714333382 1.3525996682e-06 1.3245571242e-05 0.033008633686 9.5597209057e-05 0.0019422658603 0.022361671132 
-0.00031039183577 -0.0011146232494 -0.026399696751 -2.8328821276 -13.966040817 -0.022602048918 -0.00034083206539 -0.0025545920816 0.026502437528 
8.5096986075e-05 -0.00035487692559 0.37423467426 0.97970710383 37.432885708 0.0049587715318 -0.0058329443384 -0.50082099606 0.0064044473228 
-1.5623571814e-06 -2.4194817172e-06 -0.0083098797957 3.4226412305 23.472151917 -0.021190980193 0.49853751358 45.945598503 0.022835582784 
0.00019311134546 -0.30789640855 -0.03516997585 -1.0153058665e-07 -5.2826891158e-09 -0.00068491037469 0.22068540878 -1.0962790607 13.208676642 
0.041385622058 -0.63422725873 0.028185588974 -0.03768613995 0.40499253385 -1.4491502078 -1.9574133479 -21.502975572 3.4892259633 
1.1481450111 6.4611665064 -8.2699851064 -2.6695625332 -30.07707455 4.4451008296 1.0678125863e-05 0.0058191540487 0.044424425548 
-7.4822176332e-05 0.034371162211 0.20820210492 8.9245859469e-05 -0.16494005382 0.0067603264613 0.1869231965 49.369021683 -0.0094147705695 
0.30728074242 48.838595261 0.039957420923 -0.2885033864 -44.069299005 -0.028960610631 -11.036718838 -1.4493534248 0.055279700294 
-10.322673818 -0.31729151871 0.15441326438 -18.460395034 -0.35860388749 -0.27559140461 -6.5402999321 -1.638815648 -0.14489308565 
-6.1263866499 -0.97746956742 -0.25292009814 -15.421536481 -0.6373019716 -0.83278787189 -4.9557529945 -2.0074815106 0.86385451606 
-3.4601366047 -1.1322954104 -0.8453908162 -7.6690067782 -0.78080295318 -0.12726572484 -0.075228676055 -0.027257123041 0.88851282106 
0.020098774931 0.0066830578658 0.4007975967 -0.06740713522 -0.0055897907657 -1.6096386732 -0.021564087281 -0.0092659013408 1.228188197 
0.0022205343076 0.0018961089026 0.19650510534 0.10668903013 0.32600475044 8.5129982601 0.044861980995 -0.056750154399 2.2875061525 
0.034877407081 -0.015477545063 1.847023156 0.27467310413 2.1341778398 13.493691303 -0.14565487884 -0.88480376822 9.9478907502 
0.024745437017 0.28352412554 5.5164605582 1.9846204684 17.767135957 1.4636022979 -1.3828329805 -16.018102796 -20.869442055 
0.37469886223 3.9391608605 9.0469318844 -0.87032137317 -9.3966920962 -3.9389169414 0.9101221073 45.855569295 -0.017777927509 
0.95643795826 43.863812044 0.051697045048 -0.81480646349 -45.758192808 -0.003123999126 1.5404282286 40.643096944 -0.060541180308 
0.97887190687 43.15975604 0.011498292046 1.4246724326 41.02930494 -0.062683619066 -1.3903924672 -38.022335368 -0.010501050795 
-2.0583505648 -38.132494027 0.094579204638 1.12951116 36.253062004 -0.019926314882 0.9900965489 32.264954598 -0.0046580640982 
2.1276036189 33.876858056 0.087729555564 -1.3022943733 -28.184484933 0.010867834077 1.0648983664 23.893507623 -0.010680307102 
-2.0271052498 -27.750870698 -0.049214506768 -0.8383777985 -19.962431316 -0.0078441001666 0.61864544445 15.645140782 0.019072321054 
1.6717733042 20.252149043 0.0095332052981 -0.29846921913 -12.631270565 0.0045783422934 -0.19171891909 -8.8047293127 0.034017198152 
-0.85291169231 -14.020468213 -0.002392455882 -0.16019096998 -6.7510934404 -0.041235031105 -0.08520086898 -4.2020546372 0.056489283147 
-0.38985987647 -8.7366868059 -0.09430967178 -0.02099218643 -2.1203017918 -0.05810028366 -0.0077562914227 -1.0896186131 0.0025288755223 
-0.14860683867 -4.6807691998 0.11628836867 -0.0011465537136 -0.28526209829 0.047387749949 -0.036353027967 -2.2602994082 0.016166760738 
-0.0040861459413 -0.75158556559 0.026352072969 0.36203556609 34.82654362 1.19953348 -1.3741498579 -42.870511934 1.9381464965 
1.3657567889 17.133148306 -2.7017761246 -0.021277432345 -13.715671871 -0.48068217493 0.51725629156 -29.36313266 1.3875865415 
-0.60430314914 -24.005717849 1.0857670915 0.34491010893 -9.2345733361 -0.25991888228 -0.34600904784 17.445845731 1.0975623614 
0.021746852871 -1.080097404 0.72920263776 -0.66927644392 12.628015672 -2.2953243407 -0.44506965514 11.66298317 0.89793885844 
-0.036700148289 0.4595331778 -0.16723086245 0.60499989271 -6.7492290121 0.64223918516 0.20819819894 -3.6370335553 -23.961092878 
-0.1674879368 9.697414453 0.063314535106 -0.091133615523 2.4160088744 8.2867706989 0.13403150635 -2.7176372473 -9.2461013126 
-0.040690615835 -4.6277809473 -0.44906476075 0.0050706129778 0.60358683066 -0.56111765846 -0.033337541047 -1.3475528728 7.7588369082 
0.048906168693 -1.2971549556 8.3335402219 0.010685889981 -1.4469470447 8.8015026857 0.0017451793526 -0.2130583116 1.9924821213 
-0.01899915069 0.090394761132 -1.9431889834 -0.10483231863 7.5383826283 -3.6006367416 -0.036338663702 1.2760965245 -2.5831593426 
-0.097184361987 2.6315836343 -8.0608355705 -0.01367839852 1.0258323603 -0.53767545474 0.017786219408 -0.4357620946 3.9076381821 
-0.0074784053057 0.28102927627 -0.37730224695 0.00039549837649 0.2070686033 -0.81909729184 6.3301670168e-05 0.057985425215 -0.99748126492 
0.0011477152013 -0.76926593909 -1.5746955411 -0.0041914693898 -0.52889114484 -2.3075417069 -0.0057424807118 -0.061874103945 -1.105361655 
0.0033830455605 0.38822600218 -0.11269716945 3.8548859505e-05 0.0014145923066 0.076679820639 4.6493097076e-05 -0.001373412622 0.095139319544 
9.6758261053e-05 0.008050871752 0.14705241545 0.0002663968805 0.0095263432301 -0.032893752697 0.00010101425101 0.0034700018655 0.031865109748 
-0.00045488983746 -0.01083971837 0.12177776517 -0.00046948346084 -0.005948908871 0.14672169232 2.3225583848e-05 0.00061662895103 0.052739979559 
-0.00028157939117 -0.010703974618 0.019649789974 8.3803900533e-05 0.0035130118024 0.047440556367 0.00018646978125 0.0039542157373 0.081237602664 
7.2303272578e-05 0.002411571773 0.0075414300406 0.00052809059465 0.017933926714 0.071000937387 7.8410516642e-05 0.0019841198087 -0.031664847687 
7.2922020052e-05 0.0010606327396 -0.0090849472469 -2.2817080377e-06 -4.0419560049e-05 0.00096955294261 0.0020185570797 0.048151010025 -0.011763896672 
-0.0008150347916 -0.019885592368 -0.047237507896 -0.00074324956789 -0.011602672401 -0.14327548967 0.003616607738 0.15197359198 -0.037609523638 
-0.00050977827545 -0.021779113555 -0.01985017865 0.0029031163986 0.044534372891 0.14153339262 -0.0061629289495 -0.22699056877 0.021546624448 
0.0026264906618 0.095733882792 0.033149346534 4.7555085742e-05 0.00093406055162 0.0042554746615 -0.0077737484391 -0.34426095823 -0.014328665483 
0.004687698893 0.19902792222 0.020513880675 0.003174021265 0.063425645139 0.013571777032 -0.0067385100722 -0.42759782786 -0.023630685781 
-0.010626532799 -0.57353305874 -0.020344770998 -0.022465444178 -0.67988244986 -0.082429025613 -0.062251016938 -1.2847004976 0.0018386516373 
-0.047193756419 -0.85411067889 0.039910597507 -0.00085286312371 -0.20252095102 -0.0093773051196 -0.0013769627348 -0.23069486102 -0.0028357958615 
-0.014735638553 -0.65508025984 -0.044715345332 -0.001462633982 -0.31073946579 -0.019708059573 16.573840173 -0.60628895184 -0.24598678828 
11.989670757 -0.81087250111 0.10335778361 14.975698479 -0.36616873621 -0.20935549512 1.3749761171 -0.22402447258 -0.072530290202 
0.0019211478034 0.00053622873127 -0.15287738471 4.5666153697 -0.76905210278 -0.15231478949 4.7154071512 -0.93476715676 -0.0091483360801 
0.0065823766282 -0.0013698606785 0.41835676929 1.0617555905e-05 -3.131098809e-05 -0.008979191048 0.0010027073279 0.0022287621574 -0.133398786 
0.001224678806 -0.0010779728288 0.11852956423 -0.21691734308 -0.68545650698 -0.03453295514 -1.9659524625 -6.9430408582 -0.073188879962 
-0.00041319251853 -0.0024126389382 0.16925039641 -2.6026797178 -12.4247806 0.036347991473 -2.9615750993 -16.27219482 -0.015090816645 
-1.9342420548 -4.7827840038 0.012849951283 3.151973344 19.639810642 0.0056203386831 2.983128674 21.752240776 -0.00053344213811 
-4.3278449971 -14.751027537 0.026937830211 2.0391488626 23.582581077 0.032121537142 -1.9161320809 -24.776220489 -0.024205139911 
-4.3178071734 -20.807686322 0.032700434916 2.0443231223 25.351299123 0.006109674731 -1.8454673305 -26.018310547 -0.019471229609 
-3.5711156718 -23.785194004 0.0043476726395 -1.0097172939 -26.942671391 -0.0025731235438 0.9466114697 27.362657085 0.013979800311 
-2.7402496366 -25.644735912 0.00062198324175 1.0919415734 27.715719704 0.010847167046 1.0261687694 28.311168161 0.014770969219 
1.9961542035 27.060347774 0.0084201987083 0.97506876231 29.002988328 0.0080723880054 0.934867428 30.061691532 -0.0040747835717 
-1.9843157804 -28.066084306 -0.010163681078 0.89482478668 32.339645869 -0.017878036483 -0.89408028886 -34.508270655 -0.014094817779 
1.4463388809 30.720086964 0.062873379486 2.2277880309 31.363992556 -0.018623988757 2.3031182346 28.930577823 -0.028665203472 
-0.4804856189 -36.425980279 -0.015565659708 -0.48766550513 -39.639904534 0.0014581619271 -1.3582766458 -35.379268249 -0.064484110669 
0.76374718243 41.50073999 -0.0005880764872 5.0961732269e-07 -2.0995531315e-06 -0.00119655709 -2.2608146199e-06 -1.591430543e-06 0.0046505012025 
1.9530920593e-05 -0.0003893564441 -0.16351896807 -3.585352472e-05 -0.00013122129817 -0.036956482911 -3.9372569996e-05 -0.00031040365068 -0.087488139054 
3.2573988269e-06 1.0159331678e-05 0.004550009068 -5.2096071027e-05 -0.00015032673278 0.092811018602 -3.7834195594e-07 3.5823873523e-08 0.000931448846 
4.0736658018e-05 0.00016238838218 -0.091524028177 -5.906911935e-05 0.00011412115718 -0.061198119609 0.00049665079362 0.00054343071807 0.28412803313 
6.938410979e-05 9.0942690924e-05 0.099344517466 -1.1226785382 -4.5242391697 -0.0069082186648 -1.161646489 -4.3064297591 -0.02801209655 
-0.62267254924 -2.4651959656 -0.013644682139 -1.0189830871 -4.4951276387 0.044191825631 -1.630769076 -6.7712858922 0.026143305067 
-2.2784497797 -8.3307141832 0.022327508346 -2.2572399786 -7.5631115372 0.035870025338 -1.7618896997 -6.1726241893 0.030559463171 
2.3099983867 8.8727003791 0.0086811877908 -2.8790694393 -10.644709932 -0.018408724209 -2.2530365516 -9.0636629889 -0.011421561188 
2.0348386992 8.9487831184 0.0050200086549 -2.7855420778 -11.404868437 0.020591018136 -1.0606000626 -3.605780022 0.022738723097 
0.0044832317082 0.019977492736 1.8620356669 0.0011767418578 0.0013615327682 0.93738406839 0.0013021277616 0.00790007382 2.0961708809 
0.0040416338647 0.045011577077 3.3873115388 -0.0021186179849 -0.00026716532749 2.7486782072 0.0037463122169 0.0019833141402 1.6838137076 
-0.0011310449702 -0.0038626662799 1.1227711627 0.010437767708 0.031039563773 2.5419327981 0.0093606240635 0.045590778843 3.5416761048 
0.015371389943 0.24476826631 4.1688099006 0.022401515346 0.24928248847 3.9754110129 0.0018272515863 0.10650165979 2.6286220206 
0.0080260172883 0.31728711483 4.0539845764 0.0058459711994 0.061845177149 1.0346920213 9.8247891539e-05 0.00051677952653 -0.065338420322 
-0.00011027583218 -0.00027135931627 -0.066121200337 -0.00012414041882 -0.00053779181926 0.091580526265 -0.00024466398245 -0.00087518306608 -0.14312346181 
-0.00029759889863 -0.001137664848 0.14119468688 -0.00010430239962 -0.00041809486957 -0.11217591594 2.0074446049e-05 0.00010849307418 0.023959654544 
2.255527292e-06 -3.7338848982e-05 -0.020392057067 -5.3455496288e-06 -0.00015847337864 0.060240908583 -0.00015033382087 -0.00079274831512 0.034182546704 
0.00012078353788 0.00060753534579 0.086986891321 -0.00022025979043 -0.0012946894896 -0.098250140367 8.6276503318e-05 0.00021855667987 0.022170151562 
7.79072197e-06 2.1310939179e-05 -0.006798124365 -0.0010189276305 -0.0027874026661 -0.15214183768 -1.1131757387 -2.7606864821 0.036370196137 
0.0030095542587 0.0069545671128 -0.0050056480121 0.00026283420523 0.00090273962158 -0.095894180815 -0.00039552290684 -0.0011442536757 0.16307524281 
9.7588549211e-06 2.5272387133e-05 -0.0087212074788 -0.29245698997 -0.77364420538 -0.012973305947 -1.2470493073 -3.2195088204 -0.0032091080386 
-2.6442425109 -6.8656129206 -0.050868544506 1.5425401167 4.2003238699 -0.0055049492194 -3.5368496833 -20.383121309 -7.3700214116e-06 
3.6787066017 19.709841675 -0.0037820737198 -3.3724241293 -17.477312136 -0.022882565346 3.3894804466 20.780417034 -0.015870022885 
3.5724509742 23.026623682 -0.013122097941 3.8818637672 21.699995222 -0.014018657486 3.7908206259 18.787377037 -0.010096001547 
3.755485481 23.942701266 -0.0048372121005 3.8993278719 22.8909208 0.017175566375 3.6181388649 25.281880273 0.012900948688 
3.2700338281 28.390145397 0.016996220564 3.5821190646 25.856028068 0.0038262447091 3.4334194638 25.634426705 -0.012883907075 
3.4771211474 27.153976069 -0.015731922576 -1.2780732611 -8.8485939193 0.0063963331411 -1.4975027333 -9.0495883144 0.015100919452 
-1.0769047492 -6.9788706419 0.0093285245454 1.0347848577 8.1473861826 0.015143726786 -1.438221051 -10.488553185 -0.029600190496 
-0.77304938402 -6.8815827362 -0.021501355676 0.62484801687 5.4354521845 -7.0660652568e-07 0.52782307696 5.6245671519 0.0060134788878 
-0.88081423601 -8.330440211 -0.026168959878 -0.69596662011 -5.0862289774 -0.0080264960883 -0.85047526793 -5.3833294335 0.0012942849493 
0.47638446028 4.0118071471 0.00026925261232 -0.14950314112 1.3777268668 -9.7317080844 -0.10872667933 1.0538441147 -9.6574863866 
-0.0059957216288 0.06709511798 -8.2769644852 0.0026582205065 -0.023656903868 -0.64336720167 -0.069325938721 0.11856971731 -6.7272085918 
0.008779194112 0.028062773748 0.99571993182 0.00083314406274 0.0015060732414 -0.1413225944 0.02531254547 -0.10801700119 3.0557204993 
-0.0072059720443 -0.12481394718 -1.8139120561 0.0038959694628 -0.043262536453 0.40793680442 0.018563472471 -0.078848984096 4.7848838507 
0.0046756332292 -3.7941797278 18.407636348 0.0004263728764 0.00035451755792 0.19614232937 -9.2415388456e-05 -0.00013637681269 0.14137160841 
-0.0020604262792 0.00032133156501 0.29151828926 -1.1749212953e-05 -3.0865168421e-05 0.0066839820754 8.0841618315e-05 -0.00010060801755 0.065755616652 
-1.5947709923e-05 7.1340841259e-05 -0.040811636001 -0.0013212401867 0.00080474576241 -0.25879369635 -0.00016895706392 0.00015663095386 -0.059463640844 
0.00031563741081 -2.3880020314e-05 -0.18267542566 0.00032406415216 -0.0012547178459 0.31692180654 -0.001617536672 -0.009960936377 1.1255746287 
-0.00092501042291 0.0082566489216 2.4768424077 -0.0030728676569 -0.0040331551693 2.1451039707 -0.00033528209142 -0.0017472780899 0.26849576579 
-0.00018612766376 -0.0030430737735 0.77679767483 2.4600809218e-05 0.00019479745011 0.064873599955 0.00010911012692 0.00084543138463 0.12806127047 
-1.188825335e-07 -1.2283175873e-06 -0.00059704913608 2.3237009938e-06 9.5886105502e-06 -0.0062799592876 5.193652207e-07 -1.8956410945e-05 0.14386719403 
0.00064543544142 0.0088758295794 1.2078475355 -9.3179734728e-05 -0.0022042169741 0.74141482498 1.825801012e-05 9.8496332435e-05 0.04333856754 
0.00029801224356 0.0025839835615 0.31863921205 4.3545114698 17.689469601 -0.014486423108 -4.0600900043 -15.170579617 0.024390216324 
-4.0774891653 -16.539499056 0.02140816612 4.3789612074 19.849201575 0.0070360572691 4.5182641566 18.673480801 0.013242746434 
-4.2914561535 -14.569845648 0.024691860578 4.6067471833 17.72874012 -0.0013357111891 4.5860376063 15.991553621 -0.021329259683 
-3.7279412952 -11.976794106 0.002309635883 -3.9916768427 -13.96860372 0.019526127323 -4.6320340774 -20.11860358 -0.026388837432 
-3.6357852159 -12.781136153 0.032053343484 -0.12591658944 -0.77777633094 -0.022603718573 -0.26038401339 -1.5183987741 0.024705631715 
-0.15182869594 -0.8377430369 0.0033155977759 -0.01111003558 -0.07273456186 -0.0026575162716 -0.078037953959 -0.54747355994 -0.031601377075 
-0.00014614313007 -0.0008880880723 -0.014292629446 -4.8461421096e-05 -0.00025931554134 0.0010225271639 -2.1592073648e-05 -0.00014640558655 0.009645583833 
-0.0004202790764 -0.00300431621 0.081760056762 -0.10308199615 -0.5221690722 0.038755960339 0.00063668001055 0.00058293068317 0.19063013575 
-9.8783230097e-05 -0.00021734478887 -0.014833375516 -0.00054447947237 -0.00092261780982 -0.060033029015 -0.00021723288728 -0.00052000138139 -0.054873232558 
-3.839327124e-05 0.0001047217548 -0.041379167085 1.6926954938e-05 -0.00012142470977 -0.11168063785 -0.00036785742945 -0.00091901513735 -0.086990444468 
-7.0610331848e-09 -5.0999880141e-08 3.9853391005e-05 -8.3021356815e-06 7.8496581336e-05 -0.042249530163 -8.1252590061e-05 -9.1130628789e-05 -0.034349825509 
-1.763700711e-05 2.1476511564e-05 0.022242836457 -0.00035593475973 0.0002166398749 -0.1401397113 -0.00098615313063 -0.0014751614869 0.38913215117 
-0.00086437071466 -0.0007835092262 0.37157303881 9.2589729953e-05 0.00059136448312 -0.10612017679 0.00030073689303 -3.4325877693e-05 -0.076747852752 
5.9045437222e-05 -0.00020384679185 0.14568642294 5.7214086509e-05 5.516574198e-05 0.1202654016 0.00010174079423 8.2096347902e-05 0.37608822372 
-5.2019505566e-05 2.7518139439e-05 -0.019621587142 0.00067246101449 0.00063378293702 0.1705693263 -0.00048891814598 0.00047062573165 0.3347091921 
-0.00013688701948 3.0316497936e-05 0.094537907275 -0.0009880350189 -0.0016806536691 0.47227534963 2.3148867737 20.44188043 -0.028583636119 
-1.8158098958 -16.868240351 0.039997724447 2.617972643 22.484820473 -0.052176336075 2.7094738728 19.007180345 0.0030721032938 
2.0554406635 13.981523373 0.015367391312 -1.6683691296 -12.130396792 -0.0300157747 1.9444996461 15.026713279 0.0091018768578 
2.5210391157 16.065578808 0.019750712041 -2.1558113083 -13.034524954 -0.015495062207 1.4650854606 14.808983544 0.010898051957 
2.8699697992 17.911577017 0.016341160445 -1.2571830507e-05 -2.7871927594e-05 0.027981676904 -4.4746138444e-05 -0.00029047211058 -0.042277323291 
-4.5347042248e-06 -4.4543162638e-05 -0.012628869482 -5.157927177e-06 -1.9746185677e-05 0.004858654553 -2.8987049574e-05 -0.00017457969961 0.05717761279 
-4.3675676437e-05 -0.00020360060869 0.11375744073 -2.9235505806e-05 -0.00020533501939 0.048502507308 9.8327095911e-06 0.00012709276118 0.079772277919 
-6.5790045897e-05 -0.00075430293496 0.062881563701 -5.6875325875e-06 -6.9460591238e-05 0.04353646951 1.1000383932e-05 4.6753969821e-05 0.043219822316 
5.1192947209e-07 0.00012771556968 0.074627501927 0.00014610305355 0.00046242075034 0.030504704409 -0.00014078610961 -0.00059842097291 0.23455520981 
-4.6248342541e-05 -6.2927394769e-05 -0.049948338594 -1.1920564592e-05 -6.6121416067e-05 0.01117000353 0.059774449987 0.1779838077 -0.019218583013 
-0.21002880648 -0.71713537731 0.037560508061 -0.64154898794 -2.0505081855 -0.061316223876 -4.6724681221e-05 -0.00018320040695 0.039399784941 
-0.22525528652 -0.81757981478 -0.019396662977 1.1876492375 3.5496118666 -0.0034764126897 -0.00014681584902 -0.00048806879278 -0.037231201245 
-4.0540446287e-05 -0.0002379380398 0.1503668646 -0.00019032180109 -0.00046679919696 -0.10133855522 4.8032392834e-07 2.1794190882e-06 -0.00062892438224 
-1.2675806882e-05 -9.619515964e-05 0.031186052284 1.7911807333e-06 3.1161088208e-06 0.0026840696005 -0.00015289090998 -0.00052825623005 0.19333820157 
-0.00015397742368 -0.00043570647538 0.072141185362 -5.3315114241e-05 -0.0001563731969 0.043949664922 -0.00017551168161 -4.9026161478e-05 0.19451950826 
-0.0028503988995 -0.34386128963 -14.849024579 0.0058687638393 -0.71125739782 -4.1852022473 -0.0050565781767 0.32204182749 -1.6940581415 
2.87381343e-05 -0.00036896954247 -0.0091834804287 -0.12216523026 5.2464104546 1.1704186069 -0.011811597211 0.73291882706 -3.1234368347 
-0.018204594887 0.88563564017 -1.4650368479 0.064033849825 0.1135798243 -9.164198366 0.0013674684434 -0.12126861426 -1.4086830138 
0.006035005619 0.22141362679 -1.2843367921 0.010336362498 -0.63107965925 -4.7395619601 0.0010589239042 -0.019758427075 -0.12238479356 
-0.0021797370544 0.091810106098 0.5669455501 0.0073576121086 0.033140821889 4.4320410858 0.0078412685867 -0.34395909787 -1.3426341614 
0.36751485755 -5.6923059807 -13.425528881 0.08299485459 0.49988801941 5.8267034171 0.0031664505212 -0.77492614816 -3.1345497209 
0.069754767452 0.20658882254 4.8056113993 0.026235278962 0.10026444313 4.1582641058 0.02245705032 0.061980803817 3.19225225 
0.015427670368 0.031183323383 2.9267662681 3.2857028823 26.802988265 -0.018865658418 3.7317056587 24.74054328 -0.0058743866974 
3.2533974841 27.261681118 -0.0053288062284 2.9650320547 26.724036471 0.007485474648 3.8105080791 24.335386289 0.012488947959 
3.1035552719 26.02865875 0.0047070936887 2.9756815561 25.815967725 0.019294784033 4.2503624081 22.606810962 0.013080919888 
4.1709248295 22.649423678 -0.00096547333392 4.1683141118 21.729473293 0.0073671273376 4.1715097071 19.929248699 -0.022668628746 
-3.9993248036 -22.606039456 0.003670205558 -0.068667358036 -0.66760630888 -0.021101149863 0.024297896227 0.31844216088 -0.031686259793 
-0.058202060087 -0.72544016907 0.0075896895698 -0.18571967143 -1.4496705036 0.025370027715 -0.080736849199 -0.6402851016 0.0085228694335 
-0.29822842647 -2.4203526467 0.026384512365 -0.35300900841 -2.4029744637 0.041495834101 -0.15300831051 -1.5366564984 0.031058647828 
-0.35133664006 -3.0202898575 -0.013056684405 -0.074560266821 -0.99041313944 0.007906353584 -0.086185840834 -1.2347773271 -0.024328972897 
-0.13859499299 -2.4777475835 0.0097077600475 -0.087578074712 -2.1595730024 0.0055218669874 -0.27416022017 -3.8080531256 -0.0038730989133 
-0.22986674342 -2.8555134355 -0.00092319595007 0.23627092803 5.0047994626 0.020622535348 -0.47243172819 -6.9392009315 -0.016779925333 
0.35382575629 5.0934929772 0.0033823802022 -0.10843895596 -3.1764294754 -0.020803580006 -0.071448834963 -2.4422284271 -0.011642920706 
-0.050262796761 -1.7370410692 -0.0094466264925 -0.01308648161 -1.059543497 0.083494263396 -2.3996505252 -35.15152856 -0.035403160667 
-2.9982485547 -31.367674104 -0.0058171638768 2.9871356581 31.589833511 0.029212209133 2.1392871189 37.961304504 0.0044001279872 
1.8676465896 37.501723867 0.028221355557 1.1694207855 38.972437275 -0.018789478672 1.7513803484 36.376168636 0.01428798996 
2.8584029533 31.966226567 -0.0036850171633 2.0656354799 34.014470079 -0.012300477116 2.5515678276 31.32864498 -0.0054369876577 
-0.00060014066746 0.0005375147234 0.74010848394 -8.9436169855e-05 -0.0001390825659 0.064051925638 -0.00017786804564 -0.00035133371532 0.36300232254 
-5.9771499871e-05 -0.00018527691791 -0.043359512268 -0.00013617689513 -0.00034033931779 -0.10522640778 1.2947772189e-06 1.1108312671e-05 0.026105933086 
-7.5010028264e-05 0.0006578711187 0.26334531732 8.4986067613e-05 0.00017488214435 0.04848124132 -0.00042385932438 -0.00057929733159 0.18364160764 
-0.00010021176236 -0.00049357049256 0.3273105585 0.00034649574475 -0.19864065238 -0.73450082513 -0.0094582905124 -0.33912664659 -4.2908483652 
0.00039717536747 0.0097131893791 1.1747324352 -0.023469305019 0.13507821689 4.2812792143 -0.0060411982275 0.36735917834 -1.6448680822 
-0.015503533182 0.22368812633 3.5726616845 0.0013298942447 0.13340946993 1.7771760709 -0.0027218262818 0.0035940757197 2.9478673025 
0.00026552997228 0.0021788283403 -0.084120497288 -4.2746479426e-08 -2.821984368e-07 1.5206370695e-05 -6.2022056377e-06 -5.6251629315e-05 0.0055921816924 
-3.0655700647e-06 -3.6878460173e-05 -0.0020796417209 -0.0002569500765 -0.0022439816437 0.066945912411 0.00029953315334 0.0026689400601 0.056894737673 
1.4641040042e-05 0.00015404809942 -0.0071029273272 0.00026612364478 0.0018393590875 0.05086109482 3.815506005e-05 0.00028405405336 0.038589013906 
-8.6045647371e-06 -6.9346555846e-05 0.0093792414643 0.00030244485606 0.0017069932139 0.072279860833 -4.7222615441 -20.482631561 -0.031577091701 
4.7704952201 19.603225037 0.03000969881 4.8766837106 17.596782083 -0.0166331072 -4.4694384729 -21.86967006 0.002272352878 
4.9302968246 16.94500824 0.022994649113 -4.2760160836 -12.18137078 -0.068699716645 -3.9616658849 -10.97063743 -0.067202887247 
-3.9313505886 -11.35321152 -0.011282409183 -4.4601176686 -13.993091838 -0.0058522572581 -3.4293760495 -9.894538362 -0.047588252337 
-1.9076871595 -10.832018028 -0.021690786096 -1.629909167 -8.7273501599 -0.012053053823 2.3651164086 12.683653599 -0.0014056736742 
2.3589894073 10.964661367 -0.0038959113116 -1.7628762098 -8.4071826939 -0.017488107462 -2.4456887156 -12.191641965 -0.015736032957 
-2.7490222454 -12.619909609 -0.04014564432 -1.3803507538 -7.0027346603 -0.013478783858 2.7312915527 14.503987452 0.018164642496 
-3.1485722819 -13.394127307 0.024193702044 3.1083035098 14.098897795 0.013337948033 3.6114160398 16.308095902 -0.014275944059 
-3.3021204951 -13.368031552 0.023297719972 -3.9865097984 -17.178392502 0.024305254459 3.9070206655 18.146439626 -0.015062613138 
-3.7456187391 -14.919885628 0.019312042442 -3.3114214013 -12.61564047 -0.0041272834065 -0.010970420618 1.3684093773 13.973094489 
0.02289382736 0.491939721 4.8400655563 0.015972581092 2.2225555818 4.0957887129 -0.082905570913 1.7391781932 7.3438651132 
-0.22315242059 3.025843905 17.594394317 -0.091643972633 -0.79056536599 16.226647431 -0.15907522052 1.4625549891 9.7484757459 
-0.018138878099 -1.1790370838 -7.8890933386 0.0015094595022 0.022729906763 0.41585772482 0.00011726195086 0.00057111171981 0.15643404612 
-9.9421175432e-05 -0.00028480288016 -0.076693947803 -2.0831232965e-06 5.0236455774e-05 0.030451079437 -1.0933921963e-05 -6.0019891673e-05 0.017010181519 
2.5268256781e-05 0.00011580776478 -0.053481748089 -1.1953529029e-05 -6.7831215067e-06 -0.026839398534 -6.6965494209e-05 -0.00023020201008 -0.12216081947 
2.0004259708e-06 2.4088868081e-05 0.013306098774 -2.4977437743 -25.762269395 0.0026856921542 3.0349357061 23.963320335 -0.0033182317022 
2.5235845682 29.638619374 0.031105972928 2.7097373033 31.282470962 -0.00026621757717 3.1496593652 27.568130304 -0.016387361625 
3.231185416 25.397316832 -0.015894843075 3.253287367 22.26052422 0.0044294179707 0.57497811919 8.870460474 0.0017169655054 
-0.7902831387 -8.9040383987 -0.025484973185 -0.72463288526 -10.916048939 -0.026033089187 -1.1120250415 -13.578131521 0.0066338691203 
-1.2321009897 -12.023195729 -0.017298670428 -1.0610456579 -10.22854488 -0.03865143237 -1.3576100906 -11.377690667 -0.02071839884 
-0.68416663441 -3.2685409633 -0.013152013031 -1.0743343952 -5.2519478285 -0.017002672688 -0.42899709054 -2.0240734412 -0.00079113963582 
-0.5024141218 -2.6485152121 -0.01722831271 -0.97606181806 -5.3674047506 0.022095073986 -0.6500018785 -3.9791380353 0.018350044667 
-0.43100219397 -2.5397416434 0.010603928526 -0.1462960046 0.90324152496 -8.671332708 0.42874899835 -13.872158875 1.7259967309 
0.043351065299 -7.1862316807 -45.018404464 -0.11966159508 1.9689386747 19.018928227 -0.18041659016 2.5055960678 -17.872834967 
0.015040555431 3.3821761932 0.12347826782 0.16195436377 -2.6232617111 23.252823092 -0.65020856283 -14.235153144 0.41507018757 
2.8067275898 34.860296111 -35.853876702 0.00016243067008 0.00058257617307 0.24094461338 -0.00030711566604 -0.00087896455106 0.17050638181 
8.295174504e-06 -2.1990808626e-05 0.016624355218 -3.0850638439e-06 1.1743654703e-05 -0.02067417527 0.00026250240217 0.00046658584765 0.11060220716 
0.00018819317531 0.00012278926381 0.10073500342 9.7551590547e-05 0.00017569848696 0.13230308646 1.3841139403e-05 2.8975171477e-05 -0.016654538186 
-4.5438045852 -13.538134853 -0.056959759634 -2.9291707908 -7.2403361457 -0.0068558792684 3.5866418804 9.4805126967 0.034437286194 
-1.6257497063 -3.7106811297 -0.02309220329 -1.2112872554 -2.8043403074 -0.050180415552 -1.9820769757 -4.6800212032 -0.050013984655 
-1.3270035811e-05 1.6455028877e-05 -0.0042393038964 0.00029267883877 7.9834622961e-05 -0.040375887605 -8.9397200627e-05 0.00043192473446 -0.065556991145 
-0.0003645737056 0.00041890589395 -0.15139590555 -0.00041166406995 0.000184180171 -0.14515780004 3.1576091191e-06 -0.0001442181277 0.068114387559 
-0.00082181048713 0.0010793420385 -0.23750489761 -0.00010156743967 0.00085939962302 -0.13627214469 0.00016261515641 0.00066236842465 -0.11570609536 
0.0003821533528 0.00061594306788 -0.10229628461 0.022235020815 -0.0093522166025 0.91629755052 0.0025885055552 -0.0012673296116 0.21425778775 
8.1654312205 -1.2509898623 -0.068573288738 4.5354237705 -0.38368228976 -0.31741707279 11.431990103 -0.61482313671 -0.21377906558 
-0.00026308071185 -0.00012043199783 -0.65620415163 -0.0011946395871 0.00018485379635 0.090843544027 0.0001698367879 0.00010312085439 -0.13905958342 
-0.00026074326593 -0.00027377078349 -0.21072992662 -0.00015928513785 0.00015731721196 -0.29635732084 0.0001821535014 -3.6445343645e-05 0.12957371148 
2.6775166982e-05 4.0121057612e-05 0.0095409246456 5.7596801988e-05 0.0001486449624 0.070067310696 0.00024141042381 -4.8812038915e-05 0.046872805276 
-0.0023137219499 0.00018434270289 -0.12139435445 0.00053272275132 -0.00031355070781 0.10922615724 -0.00048266158652 -0.00019417397542 -0.60856709377 
-5.8177457179e-05 0.00056249800469 -0.20616578799 0.013186544601 0.00067478079446 0.65953245296 -0.16116238709 -0.67270627337 -0.024394279524 
-0.16318985799 -0.62856413441 -0.019581400841 -0.00047941739858 -0.0022052242921 -0.058076765756 -0.20158354528 -0.92852334508 0.01086067963 
9.7000616908e-06 4.2047042131e-05 -0.0087023895929 1.6578744484e-05 0.00013333548757 0.028604659224 0.00020262668782 0.00081050284106 0.055136229295 
-0.0002111221902 -0.0010569497116 -0.025846733415 3.2841055894 9.9305404111 0.011073969165 -2.5826237977 -7.3084406843 -0.014896530535 
-3.0177615216 -9.4062671801 -0.028737005586 2.0535858396 6.3160817636 -0.0024688638599 -1.5381743241 -4.3798516405 0.032631662121 
-2.5578098329 -8.2971673851 0.00038831060926 0.0001275322809 0.0015967970959 0.13541468937 4.5797904982e-05 0.00056376489785 0.13265333706 
0.00011929759724 0.0018731859098 0.20853651835 0.00029339575995 0.005389576074 0.19020849403 0.00031018940006 0.0037256623619 0.32108709534 
3.8128981732e-05 0.0028901750374 0.33386654839 0.037371627894 -1.8233258998 11.477218592 -0.023822049769 -0.1718755463 -6.7711598638 
-0.042592137075 -3.5982045841 27.412326853 -0.0024098172919 -0.78352436858 1.3658253027 0.049003629961 -0.22715583716 11.638426073 
-1.6994124479e-05 -0.00010534391652 0.0099329974922 8.3437781047e-06 8.7097031713e-05 -0.013973479812 8.6915038509e-06 -2.5303285193e-05 -0.034344328992 
-6.9363429821e-05 -0.00083556349884 -0.03592717857 3.248554309e-05 0.00029527609119 -0.05450474802 3.0849635874e-06 4.0298792689e-05 -0.0043043342256 
2.9149774737 28.94642571 -0.0020170888141 -0.29576067392 -3.1312057008 0.01789492217 -0.1587319712 -2.0194336733 -0.015445171891 
0.0016939426378 -0.00050909036862 0.44161655349 0.00045400925953 -0.0022569046534 0.34656198751 0.0013046392678 0.0029186114422 0.95640794881 
0.0069551916464 0.0084949982769 2.2523109798 -0.0031498209064 0.012811819076 2.2876540258 0.0020702779217 0.0044015990325 0.95236739446 
3.6790260842 24.330313413 -0.01471493866 -4.4305470149 -21.796481375 -0.024435588768 2.9628903222 25.656783664 -0.0096696139447 
0.0028935313445 0.031895341735 0.065934951724 -0.006274350802 -0.084388250506 -0.0046424978208 0.022196954906 0.19100463041 0.051128188687 
-0.00017375204228 -0.0016307708291 -0.03103617301 4.9000196374e-05 -4.4423709654e-05 0.044840487893 -7.6975632763e-05 -0.00020977075082 -0.0675531909 
7.727274315e-05 0.00012247283323 -0.039765282224 5.950776839e-05 -0.00013922011013 -0.078844879573 -0.00018129019215 -9.2118120421e-05 0.097570648623 
1.2300058013e-05 6.4234924171e-05 0.027067292823 -9.5343216159e-06 -0.00011608790614 -0.046743522229 -8.1159958088e-06 -2.6136254572e-05 0.025158537173 
3.4200160069e-05 0.0044531004066 0.66750102539 3.175070133 19.53502239 0.030174200886 2.9322957089 16.544036027 0.0083925924332 
-3.1693119315 -15.406077744 -0.013730499789 3.0707932824 16.072564401 -0.013334376115 -3.1138973023 -10.634331513 0.012918358243 
3.3170861147 12.049768176 0.00042822162741 -0.00013886976074 0.00081691815997 0.61106480749 0.0059501109284 0.020751641962 1.9002311459 
0.0010033588431 0.00010327636574 0.6200259506 4.0169879199e-05 0.00014378474984 -0.077909535356 1.4596568247e-05 1.8922801017e-05 -0.051222879934 
-0.18137257952 -0.13008141081 -0.8530947 2.126339423 2.2031153849 0.67794911155 -0.025555087768 -0.00094944207732 -1.6129684149 
2.2472679368 0.65637900269 0.60420364062 3.0668351983 0.31928282083 1.4147577289 7.1057678487 -0.82416171081 14.665368135 
-1.1685893555 -4.1662991259 -1.3636336788 -0.10826879111 0.64588017291 2.3569293691 0.009076833934 0.088360865854 -0.051240643053 
-0.052316559256 -0.40313351662 0.49538285118 -5.1010163459 -17.790648459 23.547036142 0.32598463609 6.0503910733 20.965791487 
-3.1177129044 -0.17892237871 -0.40311423308 3.1183461176 0.16261671341 2.1984526523 3.9461572972 0.60809088021 -0.87474190924 
-5.7873330173 -0.86522564947 -0.013476982843 1.696809173 0.40982526823 -1.7552608913 -1.6774730257 -0.58873705108 1.6495256912 
-1.1458898768 -0.2029645674 -2.8006192069 -0.25431532992 -0.15055712111 -1.944905794 -1.5347484689 -0.69016484582 -2.3859580353 
-0.66492239646 -0.26546328221 -2.5011217681 -2.4138921469 -2.0333949307 0.73787388327 1.428383536 0.99702065756 -0.49860185838 
-0.06872875894 -0.041303209365 -0.19386471848 0.02689439563 0.025237838716 -0.019828101547 1.570923113 -1.3698758571 4.3688369754 
-0.13352226019 -0.11283787839 -0.42596246166 1.9209649001 -1.4700934221 11.445504481 11.693577431 2.4170289346 40.444490693 
1.0345869851 -0.91239111784 4.692177219 2.4946771703 7.839692776 12.596681764 1.3522884445 4.1940502298 -1.4865844611 
-4.0838476588 -9.8738941647 -7.7691241618 -3.1329759146 -7.1318393504 17.778201909 -4.3833058979 -1.5637209899 -0.73011170042 
1.8527660959 0.45048142927 0.81664722327 2.7753522372 1.2994398674 -0.92968052038 -0.0062124895215 -0.0031221791985 -0.036061240842 
0.61577901572 0.42539306734 0.64045487884 -0.91775242834 -0.72954653065 -1.8794779217 -0.1167781252 0.22217342698 -1.4955335994 
1.3609374018 1.3870916623 1.0043717906 -1.8591107104 -4.4744242859 0.25775374162 3.7464937022 -2.3906465471 18.398552124 
0.83255903227 5.7834915649 4.3646964464 0.43823918666 1.1894364814 2.8791626209 0.032679097346 52.623866576 0.018177255236 
-0.18818584187 -49.637931374 -0.041848089445 -0.062183825697 -43.954172242 -0.078898442237 0.073177007616 36.764246914 0.10661076182 
0.042540848544 18.558171872 0.097870431134 -0.011890289577 -9.7348788688 -0.10454839211 -0.0010366081403 -3.4568579637 -0.037345605463 
2.1109509413e-05 -0.018670872998 0.12847172052 -0.090753311961 -28.062413231 -0.11393074239 1.4420866139e-05 0.033450403276 -0.052936596945 
2.8619342211e-05 -0.017853010142 0.10701674368 -2.476702974e-06 -0.027559479798 0.27527333855 -3.3343868084e-06 0.002246802741 -0.017843745169 
0.019544162872 -52.929397706 -0.033608699751 0.021157057896 -52.716984864 0.0036527930844 0.056540745065 52.115804152 0.041056448241 
-3.725637837e-06 0.00081269907808 -0.0097013907718 -0.068662456241 -52.286736858 -0.0091970904681 -0.05444559953 -48.931790582 -0.032267840697 
0.09637301664 50.504070838 0.0452314913 0.069307670652 51.496534785 0.027921774744 -0.070146138459 -50.344219591 -0.02456219218 
-0.04390145341 -42.327492377 0.0011278702482 -0.082948223251 -45.719133615 -0.12012852379 0.034850288084 48.749384905 0.11488315042 
0.049595552018 47.407471994 0.08664048652 -0.071142844703 -45.526784737 -0.04732139157 -0.068220334847 -34.614925587 -0.044796041598 
-0.067599235618 -38.887663852 -0.074594545057 -0.035572444918 -42.239845937 -0.13560454798 0.033776342543 40.83088459 0.066339831928 
0.072123897077 38.793162996 0.094520844284 -0.047378465782 -25.419579354 -0.052893349087 -0.070438018217 -30.119360319 -0.048807875248 
0.08424436256 34.622053371 0.13658077052 -0.048415717145 -32.340424713 -0.10181806864 -0.083141419489 -30.141761735 -0.18479164932 
-0.026852819561 -16.105573152 -0.095863537117 -0.034669933351 -20.982119252 -0.07110521593 -0.048704467647 -20.933149165 -0.13677460664 
0.044138705841 23.164603489 0.11819581321 -0.072170093025 -25.504160672 -0.14793797009 -0.0047717923198 -7.7412205227 -0.047967295044 
-0.016856969923 -11.774572872 -0.050271548859 -0.029034762906 -16.242339689 -0.13972152695 -0.014094236803 -14.005221323 -0.12197734671 
0.018527557969 11.822643467 0.13868053935 -0.0012431584533 -2.0301948366 -0.088724301562 0.0020140599306 -4.70268546 0.015526894489 
-0.0077824618814 -7.8621397785 -0.069445546268 -0.00075095924376 5.9981928405 0.041910278259 -0.0018802121218 -4.8870947959 -0.11488668576 
-4.8211693345e-06 -0.00010372958094 -0.071319107274 -7.3929346087e-05 0.21462039676 -0.17106949699 0.00023777836377 2.2677348818 -0.042943742249 
-0.00010008699323 0.63437839125 0.0082536026501 -0.00012427409282 0.1164758677 0.0021409557118 -2.0255726821e-05 0.0092954286501 -0.11277306265 
-7.5632753225e-06 0.011362083819 -0.034173877281 15.400435591 -0.015599326673 0.53942174795 17.179138891 -0.28794669793 0.31816251826 
3.6949939645 -0.039619015741 -0.013366786819 -0.0001959131469 0.000390510922 -0.091861243574 -0.028771999585 -7.7367460377 0.0075416689836 
0.01367595815 -16.384374372 0.0075061443188 0.047295358737 -22.218976456 0.0056600052432 0.11207867159 -24.95417909 0.0075115347 
-0.01472192509 26.473578237 0.0024870444317 0.038888489579 27.364039015 -0.0036378898024 -0.020600517249 -28.389354509 0.0054858923508 
0.010926443212 33.132191347 0.011376865919 -0.075995800326 -38.357810654 0.00056893299152 -0.022366831467 -46.966177947 0.0015030473272 
0.032946687426 30.200789388 0.0053302298916 0.022705854294 -49.672780063 -0.0040468070796 0.026858555624 -49.900974108 -0.013978931939 
0.021469222402 44.545286237 -0.028430249906 -9.9238705861 -0.070669887661 -0.72770184598 -9.9023705997 -0.055803087324 -0.13085793841 
19.016116875 -0.02266598484 -0.017163316362 -0.035735641886 -44.780138645 -0.0094913496112 17.739953588 -0.013621212435 0.47291189961 
19.645507922 -0.055792143291 0.27879373606 13.809668047 -0.035038334611 -0.15330094547 20.872122522 -0.071937673676 0.26296545935 
18.484779886 -0.040799154146 0.36721164588 7.9668691176 -0.039104218543 0.025627038326 0.023645426684 -0.00027720089641 -0.1185455993 
10.989684538 -0.070416434801 -0.053348475652 13.290322328 -0.06127737189 0.5278700255 7.2006060241 -0.018765333523 -0.063727243348 
-0.0044057473712 6.0198454115e-05 -0.20316876431 -0.00015161319909 -0.00019087335133 0.024948568107 0.0019005167257 0.0003928012058 -0.11776832978 
-0.0029886634077 -0.0005376582161 0.17389394654 0.00029495514926 0.00025630776575 -0.027356826778 -0.026461048206 -4.798156855 0.021266295819 
-0.069461104747 -10.658779043 -0.026725978138 0.00046215258326 0.40755867029 -0.055836330486 -0.00016260763088 -0.0027216467722 0.24098263401 
0.0089382513195 -4.1626424751 0.10017487949 -0.029329543562 -14.721691597 0.032326629915 0.056927194158 -18.292901107 0.012644514714 
-0.030937380828 -12.608268993 0.041710632581 -0.0051601662342 -10.217179225 0.061691731529 0.0034533561346 14.562598076 -0.001953449235 
0.0711426318 -21.38429844 0.02258519504 0.016395483672 -23.243105082 -0.038200912524 -0.061807685826 19.875985791 -0.023731386083 
-0.032615927865 18.187064766 -0.0011025499811 0.00040711348307 -21.096500013 0.0011307538389 0.07917984159 -24.557201308 -0.0091613827876 
0.080205133065 -25.603476585 0.0067039313993 0.081550146196 -23.770662885 -0.027826044401 0.041259457511 -22.970929803 0.0076831490198 
-0.12485948912 24.3266706 -0.010137402177 0.049153975417 -26.304462481 -0.0057342983804 0.0084740834534 26.771100199 0.020084029825 
0.040736719366 -25.838839826 0.014428011147 0.043348475444 -25.496851329 0.042736341165 0.0098359059925 -26.163693916 0.013690157456 
0.024005856782 27.266740434 -0.006150784379 -0.017088778254 -27.615070762 -0.010709014215 0.013742445164 26.934380421 -0.0023054015046 
-0.0096851517429 26.669502502 -0.025422528881 -0.014558940898 -27.221778658 0.0071381335284 -0.0044359467716 -28.215497904 -0.001102710346 
-0.0033343670576 -28.722599944 -0.0081047214791 -0.019784989082 -27.882457791 2.8346602414e-05 0.03291045123 27.56628394 -0.0059416477523 
-0.01345576672 -28.194480516 0.0015151820489 -0.0063298268147 -29.733897823 -0.010923399952 -0.014570707203 -30.870381519 0.012633717655 
-0.01270619478 -29.165682803 -0.001086766704 -0.017546250731 -28.735066988 0.0033998199836 -0.015890210187 -29.735373731 -0.0018296351535 
0.0059204795991 32.347298826 -0.011544782665 -0.023244657244 -34.127870167 -0.032794211946 -0.009938169813 -31.631692019 -0.0096447997236 
-0.0072482446358 -32.330317497 -0.038035069224 -0.006885894055 -30.843509151 -0.029263031873 0.024169405221 37.033058149 -0.0048588526735 
-0.0073241310536 -39.882896762 0.0029108603925 -0.019035363654 -35.474771837 0.0044444966579 -0.014028079385 -34.156210912 0.043295949577 
-0.013071047754 -37.068891227 -0.016213940795 -0.03472592476 -42.246534126 0.0084641726076 -0.032049943701 -39.980037004 -0.0069999899476 
0.075031325942 0.57264970757 -5.0018309599 4.7755829107e-05 0.00015853986103 -0.18390745192 -1.6857234516 -4.2812625272 0.0018686135712 
-0.19608633448 -2.3492444006 -0.0063935942694 1.6214524147 8.1368831192 -0.0051459182875 4.4259240452 19.787423268 0.01332982723 
4.8039394716e-06 -4.2720037801e-06 -0.023251614358 3.8984065331 24.004680289 -0.0015322808365 -0.013691143162 -0.27432616085 -0.023187530389 
0.025529789729 0.51616902269 -0.90128154388 -0.42997517155 -4.5496382832 10.05688201 -5.9140271063e-05 -0.00011386263601 0.020919666569 
0.00029402030985 0.000168019271 0.23654275696 0.72160743482 3.8388500648 0.0012562972879 -1.1013548569 -3.0562283649 0.0099518698961 
-0.51184539037 -3.9458768085 -0.0059507103249 2.3903129401 10.348549661 -0.0074598043641 1.6259610535 8.6643594645 0.005366259303 
-2.0536376644 -10.34518552 0.0051600954177 -1.8332046054 -9.1753751159 0.013463795205 1.8284855541 9.1977193322 0.0038732657985 
1.4329459077 7.6276791286 -0.00068237055114 1.2368288811 7.025634321 0.013315964884 -1.4312255549 -7.6724314489 -0.0092775080336 
4.5277093123 18.655074463 -0.0052210356546 4.4139603272 16.378836914 0.0023291034958 4.4865417342 18.181618835 0.022806194756 
4.444752214 18.104620566 0.0036212560714 4.4753504699 20.331710322 0.012123840172 -0.26559059936 8.5461475156 -2.9195345127 
-0.11500750039 1.8816298138 0.13158904002 -0.081829331049 0.76232490533 -8.1797295409 0.010582743354 0.30253291679 -0.50984683995 
0.064742763766 1.4198031567 -12.372122552 4.4836360802 20.842423046 -0.00055614115756 4.449001581 20.305501347 0.0063243488464 
-0.00016089721962 -0.00011341005595 -0.30103662068 5.133649977e-06 6.7128892998e-05 -0.060823865756 7.2825350873e-05 0.0003258786228 -0.1186733625 
-6.882416131e-05 3.5023161545e-05 -0.11034911485 5.8938675583e-05 2.154666645e-05 -0.041039212562 -2.6405457623 -6.8260688915 0.0071466631818 
-2.670867406 -7.1613593256 0.013049264069 -2.1756416496 -5.6855445799 0.025405919481 -2.1896077075 -5.6891952639 0.012754852409 
-2.1244028366 -5.3426262631 -0.037676231912 -8.4763378003e-05 -0.00036306898747 -0.1161780969 3.0759679169e-06 1.3749353582e-05 0.011603834326 
8.538439526 -0.73194131694 0.11540139256 0.84110157636 -0.17636182023 -0.041155821899 5.4045375301 -1.1022606933 -0.053888146425 
9.7324449847 -0.9103217942 0.055152671757 14.101044233 -1.5491579275 -0.042651229532 -2.6063537843 -6.4132702439 0.026614218253 
-2.1222871104 -5.280690595 0.018870925399 -0.31279768545 6.0016713313 0.87473938151 -0.0078715238197 0.31104616176 0.10244136199 
12.961477319 -0.960959381 -0.10784861419 14.967486056 -0.89739670384 0.29826985668 -16.299774529 1.1865007135 0.0096217310831 
-1.7139069678e-06 -3.8734498293e-06 0.014197595799 -4.8642717898e-08 -0.00049916858191 0.076354975183 7.3009055909e-06 0.00018133511545 0.035059630451 
-0.00039266824021 -0.014880767293 0.066971604546 0.00014135969517 0.0024696594573 -0.061612764202 -1.4158549919e-05 0.0077612321117 -0.016664429321 
-0.0071160719849 -3.8360435931 0.36755501681 0.0042673167179 -0.67824351471 0.20299122807 -3.5703397281e-05 -0.20522824963 -1.0009182994 
-0.00066133774167 -0.1363303034 -0.61445207498 1.4780302612 -0.33296844251 -0.040012612213 -0.0021316359595 0.0010641460539 0.10471651735 
-0.020356502371 -0.58296828765 -0.017039663845 0.0031842925192 0.12898587729 0.031444003803 0.0041718354771 0.15980684544 0.052690461742 
0.011941871197 0.24775039807 0.038672396499 -0.043080928615 -0.73930294777 -0.041492374444 -0.021364011499 -0.61889421371 -0.022533244801 
-0.0048040533209 -0.199948168 0.019894851607 -0.046006518274 -0.79673056908 0.018970443809 -0.01397032556 -0.29372021799 0.014025940134 
-0.19762377749 -8.959069187 -0.042775734615 -0.15952913012 -7.6174033754 -0.042607754246 0.15221334852 7.4616461965 0.0024294136505 
0.51408013739 11.285173873 0.010976530884 -0.2551073668 -10.787854545 -0.097867224066 0.24622721564 10.698732599 0.026646843883 
-0.36134276557 -14.438240257 -0.017808425742 0.37469307756 14.570053397 0.045312406716 0.86008825962 14.028630227 -0.0091583013577 
0.73374666345 17.768643706 0.00039469171446 0.99018935476 21.9458189 0.028038810261 1.6856823955 20.227974783 0.0047907736282 
2.1031706176 24.021389638 0.021078146736 -0.96390701871 -22.003749635 -0.014278578025 -0.56843941891 37.147895799 10.195594751 
0.6346299574 29.752834143 5.0630822981 -0.27168129997 -21.992463336 -3.1764039547 -0.089035236247 -35.592436264 -4.5673492389 
-0.59078511418 34.126563953 8.3196425242 1.2463372133 26.137757815 0.07244177113 1.1063352171 24.015600601 0.046211636236 
1.2066842704 26.147454786 0.0040969299502 -0.30987973926 -12.54606514 -0.0465883014 0.98287328495 30.242390393 0.069909966758 
0.94506414782 30.320128803 0.017326972429 2.0476073707 27.766280419 0.0098204130686 1.9145885482 31.794986168 0.016221676639 
-0.75753493115 -17.76063558 -0.065450626598 1.2985224446 16.541089429 0.0040782068277 6.5751396117e-05 0.00031385268921 -0.25225572484 
-0.00082315170638 -0.00035781529347 0.39400730596 0.00015246734072 -0.00051446827528 0.23358301986 3.4411924797e-05 9.7123154607e-05 -0.059003298468 
0.00016038054242 0.00053801985263 -0.067544134008 -0.00018342413622 -0.00058862536224 0.034503900573 5.4080692625e-05 0.00018240990193 -0.028966880679 
-1.9161916738 -24.801771237 0.011882515344 1.8206369131 25.209279808 -0.016086332884 1.9650166347 24.241417133 -0.0026875996487 
2.1421237626 33.806498867 -0.014694551888 -1.1889827705 -37.653500255 -0.039948545001 1.4286479636 39.707020499 -0.0018162000364 
1.1523575321 37.768115406 0.0061165200468 1.1161052308 34.196428745 0.1013423494 1.1340476152 36.1030906 0.025201822838 
1.0676546745 34.242319665 0.024741627903 -1.8131599391e-05 -0.00055053793477 -0.005686141424 3.803997626e-05 0.0010332417251 0.010028506899 
3.4615587343e-05 0.00044948856051 0.020132984019 -4.0865121245e-05 -0.0012196876182 -0.018113997123 0.00017999166168 0.004853061263 0.034358064654 
-1.3766796445e-05 -0.00032518819741 0.012841875669 -0.18326375981 -0.66201267237 -0.012025544624 17.600845336 0.0066826453464 0.15114805166 
15.028407682 -0.37207019127 0.14266692073 -1.0601022028 -59.383898449 -7.762517778 -1.6144213225 -62.272886076 -6.428385251 
0.80492653248 -20.437244964 -7.0374946617 0.0028158615863 -0.59548306378 0.14762333153 -0.009210854523 0.89420969512 -1.6975907791 
-0.056003118481 -3.9962772458 2.0663396071 3.6679042887 23.029025104 -0.015123955946 1.8593114113 25.379790831 0.03811772885 
-2.0195490572 -24.395127916 0.012889157104 -0.1178062485 -5.2137214481 -0.011958575658 -0.39454170557 -8.8099631043 -0.021776031343 
-1.9132869534e-05 0.00019883412296 0.084583056294 9.144238069e-07 7.8167178765e-05 0.047473222468 -5.7278798978e-06 3.2528631814e-06 0.0048925999683 
1.5526664905e-05 -5.2601407228e-06 -0.016255542888 -0.00014374715782 -8.9304204172e-05 0.17104022295 1.0336154913 8.0853580048 -0.0046074926264 
-1.4487274154 -10.524396928 0.021841089246 -1.168206294 -9.6787785207 0.014432654547 -0.068802845326 -3.3397678152 2.6074587286 
0.0013226092718 -0.11418077443 0.48567530201 0.068834725799 -3.3189982987 0.64689120323 -0.032383816099 -1.8881380401 1.1800608572 
-3.267003944e-05 -0.00078397656143 0.030575432319 -3.3964575647e-05 -0.0016305288758 -0.050525849694 0.00031561902786 0.0098389450106 -0.065844873296 
-0.094847175641 -1.4776814104 -0.010635076801 1.04086013 32.319267651 0.036547280699 -0.0032237602667 -0.55484229256 -0.017865526629 
1.1211584057e-06 -0.00056471108546 0.0021894559817 -0.0042346896247 -0.81393260341 0.0052034072185 -0.0036494854496 -0.57049420169 0.010170392139 
-0.016930212061 -1.3902321651 0.0024138225991 -0.13027814023 -0.49933705679 0.014626478525 9.4832554696e-05 0.00036443802633 -0.018474035964 
0.0016396661327 -0.041686486709 -1.2854766466 -0.0022961720745 -0.081585143702 -0.43700426845 1.0193885142e-05 7.3050001685e-05 -0.017406019244 
-1.7290547633e-06 -1.5829388124e-05 -0.018489381692 -9.0889623489e-06 -4.4861456031e-05 0.029656381055 -2.0692290194e-05 -0.00012627699875 -0.038011483651 
2.7464539548 14.519564611 0.01227060449 2.4426893999 12.118773037 -0.0092341885054 2.8440559793 13.966026745 0.0043611454072 
0.00041494196349 -0.31350046105 0.022362372243 -1.5237738966e-05 -0.030029315649 -0.011815418082 -3.4550819932e-05 -0.00099937989879 0.060757417377 
1.0476985133e-07 -1.2201531203e-07 0.00072901272477 -9.2596371748e-05 0.00022568111123 0.07157862063 -8.9218097694e-05 0.00064172111562 0.19090198423 
2.2499830126e-06 -2.0062146665e-05 -0.015155975993 -0.00011326716072 0.00030941665346 0.11875820738 -0.0001774710258 -4.0614734193e-05 0.11452821693 
9.9311197005e-05 0.00025527778089 -0.18526047335 0.00011323401931 0.00019125184817 -0.10021101769 -9.067946081e-06 1.8414868864e-06 0.0086680122911 
-0.011836495521 -0.74246163107 -0.65361790218 0.016558520591 5.8974846885 3.0040344853 0.0046745889724 -0.74337287464 -1.6779849143 
-0.0081248091343 -0.28541000038 -0.43899131498 -0.022362700981 2.0314828589 27.297951649 -0.13910039937 3.2898209542 -3.4295588145 
2.6666315767e-05 0.021633903442 0.020059713964 -0.081363875186 3.2249241973 4.2242803418 0.32080992383 -5.4681451557 -5.6910383787 
-7.402995842e-06 -0.00010829887181 -0.0029494646295 -0.00011110399415 -0.0037075369719 0.040107625461 -7.4325148701e-06 -1.4937086133e-05 0.014637232134 
-8.4273433513e-06 -1.9035429544e-05 0.031268148809 3.9292402752e-06 1.6672292207e-05 -0.013517898748 2.2262361321 31.323540036 -0.0062149859623 
0.88381943116 33.327070817 0.024384511098 1.4192993252 31.49957607 0.013590461711 0.88369508876 33.34934327 -0.031130440666 
1.7191768123 33.281767564 0.010618879875 -0.35685945437 -31.605435109 -4.0680245446 -0.07601896568 4.6858884775 1.6737653219 
-0.72254915282 15.281006649 0.28302915638 0.16736442802 -2.3594430111 -0.50440217064 -0.87400851182 10.476567264 -2.0871020885 
0.0011816258189 0.041770221637 -0.008247120745 0.0030497680667 0.10920267187 0.01480999606 -0.0041091259373 -0.14932454204 -0.00025542918107 
-3.7125377143e-06 -4.7812739161e-05 -0.014749303002 3.0552482019e-06 1.0003585567e-05 -0.016265230861 4.3285895435e-06 6.2528818022e-05 0.020589104682 
3.1764084607 15.398999312 -0.0011063595715 3.0676110052 15.985743421 -0.013194057524 -0.011388319616 -0.93561299441 -0.019974357252 
-0.001370096135 -0.23887112761 0.015064431202 -4.3989969958 -1.6534693585 -0.084162317699 -3.4548230214 -1.1112152746 -0.24711443567 
0.72971770223 0.097000478524 0.29303830244 -3.8894362838 -1.3826566187 -0.31535969815 -0.0049534445984 -0.87854255093 0.028519956917 
5.9157152123e-07 -0.15683966351 0.055534166684 -0.0047907710595 -0.7633933217 0.039624517655 2.1800206729e-05 -1.8090223733e-05 -0.0046234704791 
-1.2539239043e-06 -4.9377260945e-06 -0.010536332543 -5.1512790298 -2.0154613587 -0.27139331029 -8.7476824863 1.376192428 0.0046172373059 
-2.3341863626e-05 -0.00011703178086 -0.034192432407 -2.8161298599e-05 -3.5314171723e-05 -0.037527786312 0.0040555265472 0.14433778091 0.043660843613 
0.0042517602736 0.077083749214 0.030067367667 0.0010632498361 0.03730720023 0.023666446668 -1.477183217 -39.637998554 -0.031298482534 
2.3647771663 35.360347761 -0.0085050224913 0.9655225598 44.825627824 0.013249312555 -0.45560423576 -47.947843526 -0.027205416899 
-0.53799884194 -45.943692748 -0.0080335580177 0.42410418805 48.100360789 0.015858035041 0.98409295745 42.996409854 0.0031134983115 
0.32559525456 41.932154287 -0.025506239278 0.74257013842 39.584542973 0.0014008031489 0.31596120536 42.052044508 0.032326502613 
-0.77613859865 -6.8861682596 0.008734205263 0.8863737679 8.3522950664 -0.0059031515526 2.9829545556 17.703786142 -0.032530009097 
3.0034338405 16.305982414 -0.044786422808 2.8107846393 14.36741103 -0.011233597939 -4.597993956 -13.659902375 0.04743993736 
-4.3140461462 -12.212018665 0.021218646395 3.4379854662 8.5066759078 -0.0090050136752 -2.9757096081 -7.3039730827 0.0050713646416 
-3.4931993431e-05 -0.054490986787 0.0032287560457 -6.678544023e-06 -4.0958777546e-05 0.018436129121 2.7891330831e-05 0.00023391562936 0.033116516235 
3.7688148096 14.09399026 0.0011749416658 -4.0885850518 -15.206419887 0.0092916901719 4.3769207001 17.719025641 -0.00011642332969 
-4.0867875744 -16.510450483 -0.018529906134 -7.8946797438e-06 -1.2586239687e-05 0.018506894046 -6.6306280775e-05 -0.00018620222215 0.15362340993 
-0.0003452635944 0.48319189219 1.8955686969 -4.7331597257e-06 -2.7684991897e-06 0.050004875068 0.94673577286 44.952264139 -0.020558687662 
1.3865501879 40.441967651 0.00045127593747 0.73168510744 39.73556259 0.011067182028 -1.8749194906e-05 -4.3189905054e-05 -0.024459447787 
-3.1094452681e-05 -9.9912430391e-05 -0.028612255908 3.2542945703e-07 2.8034434187e-06 0.0046966246751 1.6220981957e-05 5.3443900398e-05 0.05883521222 
-6.485052817e-05 0.00010327331552 0.031273002664 1.4736366726 29.977115914 0.007855780447 0.97851231367 29.468514342 0.015148981923 
2.2945182942 28.881870805 0.0023577639901 1.8877247347 28.639619394 0.0019763471964 0.96623679317 29.449750174 -0.014522349966 
-0.00069162348293 -0.027591295618 -0.0060165127159 0.00053987244228 0.010448948704 0.0060434328173 -3.1593902746 -20.966069703 0.018860136902 
-3.1248931191 -18.036738615 -0.057315521783 -3.7427274271 -10.696258352 -0.0036061617511 -4.3904216423 -14.883747241 0.035900100365 
-0.00109736397 -0.20088128777 -0.038933493246 -2.3638242701 -12.621705771 0.020032645967 2.6286784834 14.980016644 -0.0076118042623 
2.1686795554 13.064907027 -0.0025925949738 -0.026161576648 -1.7287010824 8.064611703 -0.058431797162 -1.1554569918 8.0733640137 
-0.0032883839111 -0.075462748264 4.4440162943 2.9440764904 16.536569335 -0.0022975182927 0.0045038177304 -0.0021798827444 0.81007173578 
0.00035887903699 0.013820650295 0.085678659966 0.00011485879314 0.0020355645536 0.069415778769 -0.010178847123 1.3310257933 -2.1700371859 
-0.098619036015 -0.49821198323 0.00046853457189 -0.18241664063 -0.83767647015 -0.0055113669005 -0.29294301667 -1.5211564221 0.002458421479 
0.42266328667 1.9852240534 -0.0018388603733 3.308137071 13.343547643 0.010428108534 2.8945533199 11.238191774 0.0053181965307 
3.3272929241 12.62977891 0.00050653143594 -3.7507717019 -14.913701805 -0.013873430201 -1.6445550899e-06 1.6206050665e-05 0.035911246187 
3.7001904853 25.187052126 0.011318484317 3.9120448322 22.907012356 0.013897352145 3.7855419146 24.549577108 0.0024340962568 
4.0328965712 22.381433269 0.0010019867625 3.7987028928 24.5233722 -0.0054161638735 -1.5959477088e-08 -3.870836542e-08 -5.5413325689e-05 
-0.039714552714 -1.2708684977 12.866376118 -0.0010928316363 -1.8645877119 6.0375818041 0.094112706694 2.9635698919 15.408368754 
-0.0057049926807 -0.48738540179 -0.018673351197 7.7751670832e-06 2.652761352e-05 -0.017416160348 -2.5644535421e-06 -1.3930378321e-05 -0.016621170025 
-3.4472755783e-06 -2.8271790301e-05 0.02295719185 -0.0011223257334 -0.0040180931398 -0.010424834207 2.6061571822e-06 8.5758733395e-06 -0.00028307591936 
-0.00053281068351 -0.00078059359023 -0.12439096235 -6.0015655659e-05 -0.00021140588689 0.054531958738 -1.3657392045 -4.3716980553 0.055955348951 
-3.6118025003 -9.4208603345 0.029864649692 1.0242108982 26.980195961 -0.0073134060454 1.054488863 26.684195988 -0.0063291436178 
0.99251676569 27.165905175 -0.0078739576694 6.2529441838e-05 1.79080602e-05 0.027272775994 -0.001398110097 -0.057762906041 0.001715167165 
-0.00027834226209 -0.0057618256006 -0.028611366314 -1.427333848e-05 -0.00016398298572 -0.058797144679 0.00093014944685 0.038000419179 0.022972351264 
-0.0011586190812 -0.047413154508 0.046901075186 0.00028267914013 0.010285815178 -0.056080552762 -5.9697499 -0.56875382375 -0.17863200413 
0.00012467472597 -0.18495070394 0.0052406034057 3.1480633451e-05 -0.017500870856 0.070653874057 -1.4790437382 -14.799063455 -0.014498127053 
1.5667272064 13.019362921 -0.011837224783 1.9576505907 15.04315243 0.001187849665 1.0734385943 10.297814016 -0.003667384496 
0.083107822603 -2.3691874099 20.064896588 0.26740227545 46.333554225 0.022325045692 0.32723443932 44.1817094 0.0031574049734 
3.1129082238 20.818409229 0.021060122771 4.8086250801 18.254719589 -0.025065975348 -0.025593793844 -0.33233502185 -0.0065672920608 
-0.052481770523 -0.64802413636 -0.0052786656306 0.00015485675038 0.0037065039258 0.0082304251943 0.00011329370728 0.0017289099224 0.035212410136 
1.3086493496 -0.29409658553 0.18444052147 11.82347202 -0.70544151076 0.30394561172 -13.612736518 -0.43345297563 -0.44847549753 
5.0155108201 -0.47739554273 0.27792539283 2.9504808079 14.626476856 0.04122741804 3.0064595018 21.740784162 -0.0089658578926 
-2.9316018439 -22.691350075 -0.0088679199902 0.0042798686654 -0.0011334993009 0.28054126241 -0.00013019612757 -0.00022449316443 0.1638404159 
-0.00014353460477 0.00025336807618 0.13976930756 1.1984620536e-05 4.4692517622e-05 0.033373499606 1.9120991622 10.825365381 0.010147046443 
0.044450339716 2.5986952642 10.744485758 0.10425855267 -39.658884022 -11.336465476 -3.6572554465e-06 -1.7190729099e-05 0.011962667918 
0.00050137166936 0.00046074901239 -0.2130694614 0.11641816034 5.2565758654 -0.00020855446489 1.2787971627 8.7957615175 0.0062137810184 
-0.8826279718 -6.5934112575 -0.0079178223208 2.7882119117 11.374788653 0.0017251410369 -0.019203830343 0.98033509043 4.7473376196 
-0.18849124129 -1.5322326157 15.875714468 -0.030412978993 2.0998917758 10.116547037 -0.011678883091 1.3432085988 3.060091595 
1.9723862743e-05 8.9067095924e-05 -0.058438270617 -1.7575877826e-05 -7.0389340015e-05 -0.040484914157 -2.9407619749e-06 -4.886002723e-06 -0.017146444753 
0.00025905153561 0.0086030736201 0.020474845777 -4.2279198681e-05 -0.0010007273705 -0.0026821565249 0.00016536185095 0.002096922523 -0.059534818598 
0.00011621608905 0.0040384255331 0.039133752063 1.8365554744e-05 -4.1502621202e-05 -0.11757295579 0.072534130167 -4.7692542652 -16.490332294 
-0.020941213666 2.2554423842 4.4198372461 0.09322178787 1.0466213867 -9.1069366484 4.0208211891 20.695605966 0.005168413604 
4.067332769 22.404579504 -0.0050760467677 1.0761580346 26.78507145 0.028338156109 1.9351037642 26.790841836 0.0021718185568 
0.99952220899 27.210239275 0.0076242896316 -1.3601025428 -11.303488409 0.014683185976 1.6735877109 12.109854767 -0.010530247213 
2.8982447795 22.564733198 0.021275345353 3.3899858868 20.689928222 -0.0055864936114 3.5849739313 23.005960148 -0.0027995308901 
3.4388090943 23.411397791 0.007827938142 -0.064287364522 -1.333664589 -0.015235383093 -0.022338568772 -0.72168982517 -0.023281050296 
-0.0065281288047 -0.39020753516 -0.046680666266 -0.035687056429 -1.0680448203 -0.017075587521 -0.0068912201887 -0.40975152561 0.0068758314315 
-2.1463824301e-06 -1.3326143492e-05 -0.0032563719736 -1.5342971276e-05 -9.8410839938e-05 0.057376751608 -1.7296865161 -11.104998 0.018976993692 
1.4298299296 31.445400784 -0.014568247697 2.6917642655 29.208540248 -0.0034189417429 -1.056849537e-05 0.02833584212 0.056351040438 
2.6398368794e-05 -1.8388708826e-05 -0.043906870396 -2.9455204016e-05 4.4152492749e-05 0.078858688705 2.2557610514e-05 7.4813564387e-05 -0.1014654884 
8.3619731516e-06 2.7141505018e-05 -0.073301431902 -0.082149618608 -2.1897811501 17.55281573 0.090872358037 2.5008384568 12.462466726 
-3.2904773933e-05 -1.0302351491e-05 0.072833776227 2.6827443756e-05 8.7505540725e-05 -0.026607583602 -4.32731102e-05 -0.00014449207955 -0.029096537042 
4.2293616596e-06 2.8983241053e-05 0.019276843998 1.0248721712e-05 -4.4340683333e-05 -0.066086172579 1.5844241471e-05 9.1513019856e-05 0.032975598205 
-2.0804961281e-05 -0.0002441129217 0.024904236166 1.2065786524 39.007357447 -0.0017759125259 -0.52128344181 -37.898340766 0.020425845788 
-0.065251204808 5.8039350493 -3.0518181449 -0.030431844844 3.039834995 -0.13007913016 -0.25000071053 -46.463781144 0.020043774971 
-1.6135310824e-05 2.5899145536e-05 0.098890279878 -3.1595460177e-05 -6.7447315085e-05 -0.10005274824 -0.00015856217277 -0.00015103678753 0.13584088268 
-1.8685478783e-06 0.00012836620755 0.076589276278 -0.00055754222859 -0.00031393216011 -0.40059640542 0.00024429350368 -0.00017125123458 -0.24353502736 
2.8895118994 10.644527503 0.0067093721803 3.3071646497 11.969141336 0.0072335478435 4.2863519509 18.922458179 0.015157546969 
0.005076243402 0.29548590103 0.21120096734 -3.1194130209e-05 -9.9440069139e-06 0.062815819948 2.3711166114e-05 8.8797210959e-05 -0.042528038612 
4.3281758574 20.89464574 -0.01866231422 -0.31124503709 -4.889592541 21.969920286 -0.047334484094 -1.8850704272 16.953159862 
-0.43825870931 -7.6539773579 21.487662546 -0.11834795417 -3.5301830381 9.7419279922 0.24731111651 1.2620579746 -6.0611196618 
-0.5264156047 -37.798535196 -0.025283047926 0.99514734757 37.363004913 -0.0028385130725 -0.049093928358 2.3187610695 7.4261269657 
-0.010631054864 1.6554430215 4.8488742107 1.083252947e-05 0.00015465061547 -0.01120856595 6.7587743706e-05 0.0010700568373 -0.046928112988 
0.0058829083902 -0.0015307900304 0.23461528916 -0.004776173669 0.00088190152103 -0.28434984956 1.0163536724e-06 1.2952752653e-05 0.012030815724 
-1.5753400412e-08 -3.2508324773e-07 0.0012960842158 2.5642772133e-06 1.1686560143e-05 -0.0032881251092 0.00019431589672 0.0066029737636 -0.037595449527 
-1.5786628219e-05 -0.00031640832669 0.056652589059 -3.9876226085 -13.900243526 -0.018300647635 4.3099421157 14.586519575 0.0098852081125 
-3.0422476624e-05 -0.00029660299128 -0.014214521343 0.012067420923 0.04788423062 1.9664241269 0.0064768342444 0.025723541262 1.2546547271 
0.0033271912935 0.010085527315 0.86519183766 -0.061439488352 -0.4290113239 0.0020973538829 0.0034382284355 0.022409713455 0.0018574888998 
-0.013735084891 -0.079681473039 0.0024450610551 -0.11338262801 -0.69857496251 0.019542152072 -0.010902062332 -0.10875658698 0.0052182768776 
-0.06170850945 -0.59624725826 -0.030618530393 -0.024729780556 -0.7435535488 -0.018204879905 -0.022483039368 -0.71853107258 -0.004536680755 
-1.3832737981 -44.648508023 -3.8659124577 -3.7188001359 -53.010631268 -3.2791304166 -0.00094828940098 -0.00038335322651 -0.23121180562 
-7.5462711928e-05 -6.9012208354e-05 0.050140459466 -3.9626060883e-05 -7.7253836246e-05 0.032635464817 8.6174306604e-05 0.0002542061597 0.074507802521 
3.5180445444e-05 9.8326827775e-05 -0.036717798175 -6.1576571263e-06 -3.8808103905e-06 0.013830127146 1.0737664121 6.9421510657 0.0038437177424 
-0.74054564304 -11.034600859 -0.013589043538 0.29787502009 6.6762242515 -0.0057530404935 -9.622481449e-06 -0.00011868976444 0.11170985392 
-8.7359343816e-06 -4.7209183183e-05 -0.011831226021 18.498282189 -0.091614175272 0.15627092733 -17.605080791 -0.3457583601 -0.55194235697 
3.252279013 18.059906523 -0.002881215314 3.3865242502 17.481351952 0.011118270302 3.5430039932 20.350952098 -0.0061189397194 
7.1443144304e-06 3.1112694071e-05 -0.014724808794 1.5347786579e-05 4.378247456e-05 -0.023101905404 2.0015842755e-06 2.2222304403e-05 0.011629970039 
-9.0930301019 -0.28066695818 -0.065322140014 0.011596374394 0.027377342775 1.7034565519 0.029592532535 0.066882753605 2.3855610758 
0.017575117978 0.078102238639 1.7371457137 -7.1718390373e-05 -0.0024120411846 0.046072358117 4.4748948616e-05 0.00080618640378 -0.047977346815 
2.5455954314 29.590330297 -0.00073902593994 -0.0016134644244 -0.053296298554 -0.016877230822 3.1115304946 14.056332078 -0.0020380188943 
3.1661746426 13.39678927 0.0049992654181 -3.6116480225 -16.260714416 -0.011266490391 3.4993832496 16.806068054 -0.0022113638417 
2.6872460573e-06 2.8745586483e-05 0.040145264589 0.00025116285955 0.0013493965261 0.048400444456 -0.13661686471 -0.75130909217 -0.0027858305242 
2.7304112793 31.154463866 0.0062563769221 2.9390128705 27.170509571 0.0016919513292 3.1754035828 27.590079292 0.0062937921171 
1.4428932191 30.685686603 0.012490619954 1.4821475593 29.93640756 -0.0076785065767 1.969356125 25.856264894 -0.0021695524283 
-3.5816154545 -23.826541596 0.012882174328 3.3291693121e-05 0.00010418589411 -0.057543282063 -6.5096163075e-05 -0.00027061401736 -0.062768097513 
-0.35308657482 -5.0947306399 0.010789875532 -0.63591182149 -6.9341972615 0.019785431262 0.4783281901 6.9842104364 0.00030636256428 
-0.69454464226 -3.319625597 0.011392300545 0.48860962659 2.5555466767 0.0027213292257 -0.50155691152 -2.6420103359 0.012498346624 
-1.4987008876 -9.0191330773 0.0094703873873 4.0521425652 12.556120987 0.010635044251 -3.7426258401 -11.988760685 -0.011496718218 
0.027865087042 0.20062716992 2.3144434925 0.029030566074 0.17721413457 2.3157213045 0.084602488484 -1.8830807487 -5.0269820244 
0.042280876329 -1.8256142188 -4.8927834748 3.7612625571 23.910505533 0.0081708122318 3.4856895613 27.117630366 -0.0015260075963 
-3.3346028396e-05 -5.4310768087e-05 0.066918063664 -8.1917085892e-06 -3.2713482685e-05 0.0060511374214 3.3102894146e-07 -1.0664994656e-06 -0.0019299493746 
-0.0023348857542 -0.43799799023 -0.53258238845 0.0074324105103 0.69483363388 0.804692992 -0.0050484914503 -0.97217657398 -0.5803058825 
4.7495890479 20.552878183 0.019151147706 -4.8160836766 -19.573243328 -0.014360832604 0.12843889088 4.0054217016 11.18772046 
-6.0862638532e-07 -1.7045324868e-06 -0.0009123045529 4.0020435442e-07 -5.163266821e-06 -0.017886419944 2.059897111 13.954387062 -0.016921396912 
2.9976267188 31.505925003 0.0063406951054 2.4260063106 35.179065425 -0.017241112676 2.7529666101 25.665907496 -0.0083049951992 
2.9870749373 13.462410305 -0.0049896091704 2.653069788 12.154406624 -0.018791675002 -2.522995809 -10.807010889 0.0073839265314 
-1.5903089355 -40.723829685 -0.00844777917 0.98758824443 44.83660475 0.021955379886 -5.2251720545e-05 -0.00011559263045 -0.10787206142 
3.651024449e-05 5.7109292415e-05 -0.031139964704 -3.1936594476e-05 3.5847084351e-05 0.075681787281 -2.1000935067e-06 -1.4478329578e-05 -0.015660945538 
-18.410653235 -0.37073046703 -0.55092436531 -18.948261992 -0.19451035841 -0.39060595231 1.5509791365e-06 -2.9041974332e-06 0.046971008509 
1.1228777539e-06 1.2499794699e-05 -0.034997920258 -3.6924861545 -15.599085528 -0.022618422288 4.1821184924 19.892155794 0.0011169923371 
4.2023222286 21.510816258 -0.0016270807727 4.221718997 21.501231606 0.0071234273916 -0.00022214160401 -0.00065117220822 -0.11535619046 
2.3961049522e-05 0.00017081224632 0.073577478589 -2.1256232877e-05 3.6069985001e-05 0.06052380675 2.2400045978e-05 0.00014151151831 0.003014726431 
-7.4356951609e-05 -0.00044559124673 0.034456049767 0.10263232847 19.020261597 7.0445434211 -1.7952592357 -44.339299216 -6.8014413031 
0.63904645663 16.831932748 10.814145719 2.631739034 12.145401381 0.011221793047 2.2337267015 10.409521777 -0.0033203380477 
1.6793967303 3.819609966 -0.006394818525 -1.9536457253 -4.5506292415 0.014065578044 4.7637385053e-05 0.00010690278936 -0.016977376772 
-8.6248663559e-05 -0.0035400494589 -0.041624303807 0.57778856508 8.8871181994 -0.001924389233 0.00055091697862 -0.0010917718032 0.6980061143 
0.00011329024053 -9.1929358326e-05 0.041507264581 0.00037471366293 -0.0036947607075 1.2610420773 0.00089375551816 0.0007402165316 0.68643363871 
0.00050108712754 0.0012363505814 -0.024872807636 -0.79385056826 -8.865943521 0.013877170772 -0.94025091412 -10.804368319 0.013798749432 
-0.016203829219 -1.7466738991 0.062639543725 -0.036575877711 -2.2224330431 -0.0095102724122 3.8154009458 18.801228661 -0.0095396008856 
3.6875837644 19.661601069 -0.0024731402937 3.0064898075 31.355733847 -0.00071243542514 2.4015393881 34.78356023 0.0023983577621 
3.3645556044 27.760301171 -0.0035616077136 0.019054358093 1.1226751883 4.7710216748 1.7676520055 6.1798942514 -0.0089142905365 
-2.2724120996 -8.2686941925 0.012876826964 -2.8191564967 -9.8779160943 -0.0074499914898 -2.2595035507 -7.5458341834 -0.013579357964 
-6.0088258416e-06 -0.00011981358992 -0.16320147288 3.7696955262e-05 3.9682921989e-05 -0.029146099088 -1.7143225822e-06 2.8769508571e-05 0.020787906427 
1.2405664839 12.031517773 -0.014831157667 0.00012372403248 0.0008504210808 0.089113226437 1.2812409167e-05 3.2496417297e-05 0.051719710048 
3.282697834e-05 0.00025007665219 0.077811719353 0.00025594232108 0.0022097207334 0.17440427039 0.50444577646 36.492474722 0.0065087193742 
0.49779909222 35.197294423 0.012301037338 4.0106540948 17.200103641 0.0035976707329 0.00037894224662 0.0016176306241 0.2599908232 
5.8667477478e-05 0.00033973790037 0.13622617456 -3.455565684 -11.390220755 -0.024910777207 3.6474909622 12.807184786 0.0020767758529 
1.9465306349 25.744500355 -0.0051981417869 -3.4621361084e-06 -3.5766154044e-05 -0.0020248222227 -2.6304286208e-05 -0.00027285946186 -0.033941710833 
-0.18233454943 -1.9419620659 -0.0074288445642 -0.18806112857 -2.1143740606 0.0051385130948 -0.19627698964 -2.2298177276 -0.016680724427 
-0.086457626686 -1.2059712918 -0.0016324650456 -0.081217139589 -1.2035989021 -0.010810227802 -0.081028993985 -1.1168134675 -0.019149250308 
0.020364932234 0.51982140877 -2.2714488178 -0.085765250376 -2.3466757761 4.6357931692 0.030593390375 1.2845897882 -2.666310544 
-3.5978036105e-05 -0.00018916564341 -0.081745372234 1.2666126949e-05 3.464568559e-05 -0.022121756071 4.4844965523e-05 0.00027013444393 0.10471169288 
3.9142567277 18.140036505 0.0047431342887 3.8860400266 21.654279825 0.00056120814946 -0.00062252212713 -7.1061231813e-05 0.34293723337 
-1.3793197418e-05 -3.6935590941e-05 0.024469362782 1.7495014006e-06 1.3864503508e-05 -0.010971176442 -4.9285785579e-06 -2.0942255518e-05 -0.04285944279 
2.5949149646e-06 2.7852646325e-05 0.025201918979 -0.15090997501 -3.6090994787 5.4449246026 -0.12875879891 -2.9385074492 5.7449314445 
0.025543802372 -0.075657400773 -2.7787476541 2.7171082898e-06 -0.002791790372 0.018263396123 6.8914701312e-05 -0.042616758773 0.10292898024 
1.4293460719e-05 -0.013276971061 0.084886339922 1.8348689104 16.916730158 -0.0072667074516 2.3306397944 20.415430211 0.013814070516 
-0.11921583733 -1.1207354363 -0.0012706837727 -0.0013084998966 -0.20495658573 -0.015695500572 -0.0010478491646 -0.14212707631 -0.071713263114 
-3.8221409206e-06 -1.2564527044e-05 0.014236090668 7.5376297521e-07 0.00028811715558 0.21492084828 -4.3636193429e-07 5.3543829342e-06 -0.0088223267291 
-3.1649684512e-06 3.0830802215e-06 -0.016274101737 0.11867190924 1.2812399888 7.2348772047 3.446904678 25.624063131 -0.009017804147 
3.2383119915 25.307657381 0.01408731369 2.5144143973 25.766052151 -0.017969988351 -2.5011840073 -7.3553345652 0.025393790027 
3.2882843868 9.9104167937 -0.0059990417256 -3.4397917608 -9.8851932425 -0.017734367371 2.5981643792 7.3265912219 0.00088911878136 
1.119145257 13.509824715 -0.0029573172052 1.2775053007e-05 4.4293765876e-05 -0.0073706402924 0.019366758521 2.4583435858 3.4892854116 
2.5239589433 16.020867393 -0.011211366649 1.7111963328 40.511026479 0.023651426092 1.023087726 44.72277455 0.0034640760566 
3.0494529894 23.942638956 0.0071628694985 -0.98278312168 -5.3999169032 -0.0032422598668 0.97698642805 5.34186492 0.0016151258442 
0.84506749059 5.5369928218 0.00088279212624 -0.83985892742 -5.477105763 0.0090169165197 -0.65332423234 -4.1212671506 -0.016487425145 
-0.36272700899 -48.782160271 -0.0023893311106 0.24966332582 49.260730577 0.014682842896 -0.28080547535 -49.105850516 -0.0073038960789 
-0.0024855650443 15.637318388 1.3658841908 -0.21154998952 9.4656502707 3.0594151107 -0.61423335235 37.519698812 8.0713921209 
0.4334167145 -14.421763252 -2.1865314352 -0.00021879316793 -0.00063889306964 0.10034682496 0.12858558805 3.0241042394 -7.5705122522 
-3.0294020642 -9.410365807 0.013294854164 -4.9411708441e-06 -2.0330412575e-05 0.0011074528256 -4.3078670332e-05 -0.00020935976098 0.026403171927 
-2.0971617241e-05 -9.1077014308e-05 -0.035786143779 1.6095110541e-05 6.1458703025e-05 -0.012236604966 -0.00019124637792 -0.00044192943306 0.05787205551 
0.00031108150462 0.00080199622338 -0.13529139998 -0.00016622197778 -0.00031469742519 0.11269033545 -0.56878944711 -9.7693924747 19.485065276 
-0.57663018732 -12.349322388 19.144877568 -3.694260993e-06 -0.00010323895542 -0.12392650042 -2.3597688618 -16.965200995 -0.010415609003 
-1.6292192953e-05 -0.00013216724464 -0.052825070087 -9.3850095143e-05 -0.00053404080189 0.024485120278 6.5821335246e-05 0.00041223505499 -0.029250290089 
0.019260808834 -0.0025825002062 0.69790498383 -0.99330023454 -4.3603378404 0.0054317313138 -1.6427968432 -6.8096431363 -0.0057390478895 
-1.4570832214 -6.5806843671 -0.014082942906 0.013960639452 0.059217380575 1.5628598347 -1.3687860968e-08 -3.8576353587e-07 0.0014487028163 
4.3079521236e-05 4.6789312109e-05 -0.073487936729 2.8458920522e-05 -1.5499226435e-05 0.057111751288 0.00016257077895 4.8484463929e-05 -0.23680646189 
0.0070865666192 0.018829038818 1.4598816883 4.8506355159e-06 -3.02904994e-06 0.0076929667844 -3.4288896248e-05 -2.5358541064e-05 0.048930006073 
4.1235360436e-07 2.9701341571e-06 -0.019286367334 -2.3414593106e-07 -1.2249046902e-06 -0.0015522471908 2.0754870005e-05 0.00018240690118 0.14625897386 
2.155466891e-06 1.1596159823e-05 -0.0027316232002 0.056739562905 0.5105648893 3.881951573 0.001451390122 -0.052701698549 -0.17320654007 
-3.9819589272e-05 4.1592900957e-05 0.078276805855 2.4608576009e-07 -1.289151987e-06 0.0050761694859 0.00010651676359 0.00029275600243 0.056483995689 
2.6099253055e-05 2.5609369624e-05 -0.031811144945 4.645416246 17.774381699 0.0094257486351 6.7983627981e-05 0.00021201627027 -0.0067797574256 
-0.62595662524 -1.9929500557 -0.02979330537 -0.26261512403 -0.77748352505 0.006273573923 -1.4462266181 -4.3069671526 0.025955831405 
-0.28625893718 -0.85087021381 -0.015705272712 -2.0526360065 -6.2914936776 0.00469637465 6.1655393075e-06 -4.8490071895e-05 0.17838313679 
0.00035251665543 -7.3915185727e-05 0.35841768305 6.1895045495e-06 2.9945159783e-05 0.0084671839762 0.06760401809 0.12367419744 3.093763835 
0.04294324143 0.14581814704 2.972340497 0.020857169918 0.04403524467 2.2270460878 -0.00014386195298 -0.00015915764245 -0.13096001295 
-7.0772729015e-05 0.000196261993 -0.16548186501 -1.2543237211 -4.1259658334 -0.090545338885 0.0014813228543 0.0028556743339 -0.085399240106 
0.016320655435 0.091851660352 2.1093954578 1.1523910628 27.495267152 -0.00099261800283 1.1103938279 27.7615562 -1.9367440341e-05 
1.0723858083 28.027163843 0.0028636474317 0.89407029151 3.2256755203 6.8866569541 0.83566362002 13.717940779 -0.071836879518 
-2.2216939352 -11.168840128 -3.1756024516 -0.3082641622 -3.0329252785 -0.6712287754 2.3110413738 8.8669236477 -0.0012661804761 
-3.9004048639e-06 -2.9047930356e-05 0.00039222364976 -1.1620072824e-05 4.4749412784e-06 0.031215592148 -1.1498326524 -4.2493562183 -0.0017385227243 
-0.56359563267 -2.0425046166 0.013346831033 -1.0535771942 -3.5719712865 0.0092310028781 -0.13393207429 -2.1420434576 9.3162282024 
-0.053324907309 -0.68393845411 2.4961241855 -0.023888460116 -0.43562466692 1.3987653073 -0.00062408195464 -0.0083107571077 0.0021639505654 
-0.00064363313355 0.00039876800503 0.083450844594 8.9717138221e-06 2.4068772086e-05 -0.0098969312482 0.51806635887 35.14897826 0.02438201924 
0.15501991914 4.7965134007 -0.019381173027 -0.066923465702 -3.3154617573 0.00055444344814 -0.11030634843 -3.2545248116 -0.0075432083345 
0.23898133282 5.0355410723 0.0005218521013 4.6053864947 15.991927699 0.014231448864 -3.7064251838e-05 -7.8411654702e-05 0.04947395513 
2.2903563326e-05 -0.00013207687761 -0.14987449431 3.2665367835 22.248620673 -0.012283656206 -8.4298137313 -1.7314453517 0.047859926268 
-11.772836044 -1.9872236725 -0.02389784806 -8.592643303 -1.7296459511 -0.47555397068 -0.060754140766 -2.1699541401 3.2470759035 
-0.015089261267 -1.6349065212 -0.0086135259325 1.0467053684e-05 8.3863411281e-06 -0.07748419212 -2.032063497e-06 -1.4977085164e-05 0.039694480112 
-4.9591278814e-08 1.5814284825e-06 -0.0026565513674 0.15397905533 3.2243326818 -0.0082130382231 -9.5301705788e-06 -2.2298269841e-05 -0.012993486157 
-0.068624429259 -2.3777831391 -0.0062061489764 4.485501889 14.005496926 -0.017547416501 -0.25978751799 -1.5099714714 -0.01741836583 
-0.22205064741 -0.75706534939 0.0099870213821 0.24146042717 1.3015699841 6.401877034 0.82598863468 3.5050901722 9.4242055285 
3.8211060727e-05 5.7567683725e-05 0.10204798156 0.00090901779991 0.0027244162469 0.39967241023 5.3371223971e-05 0.00023969263302 0.060846546687 
2.7595638874e-05 -1.0729545253e-05 0.071141055987 0.00015148663435 0.00039028155226 0.25262399184 -3.9515802563e-08 7.3269246004e-07 0.0045900651178 
3.181324938 19.516052801 -0.0013410006077 1.0654448604 5.1814873022 -0.00037008273538 -0.68784524815 -3.2747742009 -0.034708475101 
-1.0785285263 -5.2726976197 0.010361072937 -0.24383138653 7.3724345239 -0.91647725269 -0.57157059476 -1.5041892348 0.052052927488 
-0.001253012374 -0.0035680825139 -0.16727712592 -0.61148837035 -1.6196882127 -0.009993240367 -1.7003811335e-05 -0.00013148277913 -0.050194492068 
-0.00046969699681 -0.0014229209253 -0.12018848535 -0.00012283958534 -1.7836904623e-05 -0.055246825622 -0.00047317164543 -0.00034028819779 -0.11636720644 
0.00013554323924 0.0007343983982 -0.08722688352 0.027193222911 0.1984547677 2.3089950437 0.025193702369 0.26007431602 2.1885782145 
0.011992188977 0.07436216969 1.0618191652 3.1109011807e-05 4.6735363799e-05 0.11489514647 0.0013244803265 0.0021649643547 -0.5699361979 
-0.0044700118172 -0.0032229609861 0.52848237141 -0.0016063273784 0.0023360522654 -0.34088740557 1.3828936219e-05 1.6145710979e-05 -0.04828359931 
1.7686209801e-05 1.4235628705e-07 -0.06975323894 -7.0171281211e-07 -5.4372009876e-05 0.056675417416 -2.36639249e-05 7.8479239308e-05 0.081920636826 
8.4025154052e-05 2.4526821741e-05 -0.091799392876 -4.442104961e-06 -3.0598494198e-06 -0.013820474574 0.00010169496285 8.2011053835e-05 -0.12374836074 
4.8345727537e-05 1.0234730946e-05 -0.12537835285 -11.130489475 -1.8595882712 -0.57385709439 -0.00059841034344 -0.0026791010047 0.048157020698 
-0.00024050596167 0.00023295657705 0.091412513472 0.27364879152 3.7964223276 0.0022423348544 0.52612885963 5.5676732405 -0.0083203943194 
1.6277676525 5.2059418025 0.00083068890354 -1.4416209976 -4.3160395588 -0.0086355091978 0.0025129145125 0.37124432333 1.3172659217 
0.025760953326 0.2831278274 2.1566390756 1.9954436147 28.06728302 0.00025265973403 2.0956648188 27.381698406 0.00018808381083 
3.0270786024 26.54914585 0.0080182910617 3.1789236947 25.907758106 0.0010359206721 3.1608232867 25.869485006 0.013996929628 
-2.2560097448e-05 -2.2120005854e-05 -0.017368681109 2.0139346964 4.9052155195 -0.016336923561 -2.2417917887 -10.036302501 0.024198241684 
-0.56344864703 -2.4186435082 0.011506522565 -1.1024120493 -4.4271190557 -0.017700312135 -17.427139736 -0.41140530231 -0.50938186969 
0.15894837063 -2.3475808499 1.0879854794 0.16273274867 -1.5402893151 4.6335649178 -0.768240381 7.3758624211 -2.1725492105 
2.5446781629 8.2184369323 0.0036949050585 -0.1774644998 -0.73846734527 0.013175641405 3.9962347763 3.2030614223 14.946881446 
-1.961425535 -6.1189581354 -13.739350728 -0.00051221756505 -0.074226189832 -0.009312300901 5.5484859696e-05 0.0016193498527 -0.031115504879 
-1.819188531 -5.1822730145 0.02293530573 -1.8505396214 -5.0653777035 -0.020673922058 1.8233226899 5.2175572514 0.0026277482071 
1.5660423111 12.859229004 12.392778522 -2.9216224728e-06 -2.9898842112e-05 -0.02774252102 0.00013246889641 0.00096644632791 0.090945115771 
-1.100145352 -10.238174755 5.3855611381 -0.075876649179 -0.59871504769 -0.018029541065 7.9742028198e-06 0.00010079732363 0.022838583973 
-1.3468897511e-05 -3.2191099026e-05 -0.024137614717 0.014301367583 0.12257222329 -0.054404431601 1.3027409775e-05 9.7672201578e-05 -0.080200032339 
-6.1799283587e-06 -1.9221292e-05 -0.017222632903 0.00011355887599 0.00061997007739 -0.099088190635 -5.6577016228e-05 -0.00033410693014 0.096165755278 
-9.5908232675e-06 -6.1521580741e-05 -0.049952799757 2.8744962505 17.878834186 -0.011995454806 3.0488274075 20.89276402 0.0036855689616 
2.6352025859 22.456311087 -0.0068594059424 -3.1279242688 -10.65826875 -0.018865731475 2.9684098783 26.725561267 8.6639976941e-05 
-2.0821321819 -22.92704583 5.0216038697 -7.4472628647e-05 -0.0010508283444 -0.055297644879 2.1011590271e-05 -4.4522526483e-06 -0.034469995735 
1.7885402585e-05 -8.0179635674e-05 -0.038192259607 -0.00027528059106 0.00032702646938 0.10879360479 -0.00034695800788 7.6391079728e-05 0.18692660731 
-0.00041589420857 -0.00018937981291 -0.1383595128 0.00034574548896 -7.6385406989e-06 -0.13535118298 4.9207955818 17.695942941 0.0008406828281 
4.4921338004 21.919498389 -0.0067977112403 4.8104236977 19.23280829 0.0023088888325 2.4139510375 10.417629139 0.052927904665 
3.7418523709 22.56898201 0.021314614105 -0.35715497535 -2.4194416684 0.01921952472 -0.18559474783 -1.2166087715 -0.02495799303 
-0.4275472972 -2.5162604361 0.014829036966 -0.4129809007 -2.412043465 0.010886212475 -0.65268394056 -3.9938172697 -0.005782294303 
-0.10249299122 7.2095738689 8.6060343008 0.0056678696634 0.02834631402 0.58726414025 0.00032801358291 0.29567588214 0.16588243355 
0.013901855064 0.15634918499 2.0100220275 0.0015624254045 0.022260002819 0.080814134227 0.00028197949197 0.00025377266624 0.19029268847 
-0.00030427900326 0.00089316337194 -0.30156999069 2.1928698482e-05 -0.00011856523207 0.10356248869 0.4001294076 4.1300556875 -0.00064876516784 
3.1928663977 28.949622155 -0.0094771854561 3.5971189258 25.823176461 -0.00059001503396 0.64236861323 3.9110671623 0.0051531631447 
-0.51320009391 -3.7691802882 0.023917604976 -0.51276536052 -3.7927856323 -0.025402644289 0.0033697739187 0.013524283871 0.59429753968 
1.3647985039 35.241448833 0.0059908322536 2.0355159778e-06 1.0906523098e-05 -0.0053863923439 0.0062456574027 -0.00097692274561 0.17997755537 
-0.049253955008 -1.7229951238 -0.0045048948791 -0.18299400109 -1.4213239889 -0.014008900303 -0.28993244374 -2.3409388867 0.0044058646819 
-0.014334165333 0.19984199066 0.11738794027 1.755265771 6.6591958227 0.0039943128595 0.00059307466519 0.0016562037681 0.27468802381 
-3.8647361382 -20.058767346 -1.0643197317 3.2207605234 17.492585222 5.3482786176 -2.418860595e-08 7.7293464553e-06 0.01680143992 
-7.9501565837e-05 -0.00017902017804 0.088906206205 -1.3086622187e-05 -7.6479747328e-05 0.023927878219 2.0980535511 38.023598098 0.0020077254437 
0.97957173613 42.520945227 0.025397539267 -1.0347621478 -42.386593889 -0.034237343644 -0.61878833021 -2.4423200379 0.014026319547 
2.6411463254 12.512145399 -0.039540845159 0.0043594320487 0.01962294132 1.1322215009 -3.9288992537 -11.267366442 0.014882283932 
2.004193408 27.044308116 -0.0087998567147 6.6718216818e-06 -3.0989770755e-06 -0.054286303707 1.0596535737 27.985894198 -0.011633447432 
1.1410835662 27.463006926 0.0070426560842 -0.059285278945 -1.0019463049 2.5767591661 0.13361293738 0.65141611364 -10.024893341 
-0.1197831213 -2.1363240856 5.9699903135 -0.10974593784 -2.3090576659 4.3377434819 0.11151602573 1.0259706568 -4.9875219519 
-6.5520719674e-05 -0.00078321338731 0.015134701056 2.7214915611 18.996727466 0.0074174451468 2.3610354867e-06 5.7223163802e-06 -0.0049240721236 
4.3680621874 19.334627149 0.0020074316615 4.3452139463 19.341368854 -0.0010108632446 4.2459694608 22.003096734 0.0064091702994 
-0.095227856231 8.7727069108 -0.73580619964 -0.26861129788 -8.1216219833 7.4696020875 -0.0022797943171 -0.18421700007 0.15790544677 
-0.036285403223 2.1076602595 -9.2782896423 0.013220372319 3.3253660937 -0.054213632809 0.036369334592 1.737154318 -3.3519328908 
-0.10945548133 3.2928513932 2.4647453108 -0.0039409530438 0.51614572813 0.26174556035 -0.0036125370198 0.571452043 0.44125664385 
-1.8403949579e-05 -6.6338704287e-05 0.022180177666 -0.00013052091374 -7.1427685823e-05 -0.09579070019 -7.4485527875e-06 2.30441867e-05 -0.11529412655 
1.0069435976e-05 8.3306920775e-05 0.033705464541 -0.15041339509 -1.4990506722 -0.0051528577839 -0.34508410029 -3.1153772053 -0.0059893240454 
-0.2867179949 -2.4123182357 -0.010707441153 -0.33811834763 -3.0321133786 -0.0085126787192 -0.035991589568 -0.45382041224 0.72283745642 
-0.014325713155 -0.36306440981 1.8590483085 -0.012641327325 -0.14275429763 0.52581291784 1.3187636152e-05 6.6056844481e-05 0.045500642372 
2.9875240238 25.900796551 -0.0046581862984 3.8518385891 24.122013714 -0.0021653924286 8.9267876944e-06 -3.7923532725e-06 -0.014156115161 
0.00074133700813 0.0043839519638 0.40533852504 0.00087527855747 0.007034655291 0.31497160544 0.0029785629158 0.024951357436 0.89577051283 
0.010652372552 0.14165091712 1.2279998427 0.0028891745181 0.020449410421 0.51499452292 -0.073312794999 -0.9429897942 -0.024256468451 
-0.000294890966 -0.00060693103915 0.027970823335 -0.00045150397648 -0.00093718682926 -0.069882743203 2.0831684632e-05 0.00021506497061 0.026801426385 
1.7648482338 36.356133859 -0.0053556339116 1.8832022645 37.507056343 -0.0013264297768 0.0027460564207 0.013181731886 0.44918212441 
0.00027116103522 0.0015009697959 0.055474976624 0.0091398762177 0.018139989852 1.375112583 7.5331710191e-05 -1.1775494439e-05 -0.031387930319 
0.00088587376182 0.0096357843416 -0.060323513484 -1.9891562391e-06 -1.1377407521e-05 0.0098274133657 0.0015676411106 0.004114050816 0.55885154563 
-0.0038877899826 -0.07364310523 -0.00060414948608 0.0055307399544 0.10658469673 0.015331778965 -0.040818133304 -3.4535072375 0.0015696614091 
-0.037897159599 -3.2755904418 -0.014264221505 -0.0014703828979 0.0002020526347 -0.048731239502 -1.858376749 -5.0481105813 0.019581591566 
0.98940596383 29.019689642 0.0033629676937 1.0196725384 28.626362812 -0.0024726171148 -0.10674662623 -2.2126852709 6.9591306753 
6.0062691484e-05 0.00035577592068 0.16281044673 3.2291352547e-06 -7.7469752557e-05 0.085092095019 0.029005467427 0.75139941911 3.2360896421 
-0.034261470538 -0.022523872883 1.705897642 -0.00093431534911 0.00045855738684 -0.12746679725 0.00087952887299 -0.0014674190763 0.14961537131 
0.0040664240788 0.0037272313161 0.5242542647 -8.9243901752e-06 -7.3131105906e-05 -0.0053653724462 -0.00014991880985 -0.0013395823893 0.04703811724 
-4.706406106e-05 -9.3032833853e-05 0.087682901687 0.68741239364 5.2392926761 0.0019620931846 -0.68872296314 -5.2125042342 -0.014922408073 
2.4183252806e-05 2.5000899701e-05 -0.018089374674 -1.6157198774e-05 -1.5837425201e-05 0.022186569763 -0.0099241792757 -0.77302020947 2.0963972584 
-0.12316475432 -8.5647764814 5.6994764812 -0.031559144762 -1.9490826856 1.5480119717 0.026683039005 1.4595334036 -2.5137375348 
0.0030106423748 -0.0015064052201 0.48640394792 0.0040119501222 0.0014046322252 0.7854515712 0.01861979465 -0.0035162767508 1.4426917862 
0.048485018019 -0.0044957202626 0.79683489272 -0.81802761329 -2.2663007874 -0.036044824272 3.2663262118 27.243486156 0.0066294700864 
3.2907285328 26.805812429 0.0064305822149 -0.017065299661 -0.76142800327 -0.019749914467 -6.4121114674e-06 -2.0507473557e-06 0.01733422127 
1.1292906547e-05 2.7753894641e-05 -0.023697468522 -0.031558488826 2.7704492046 0.51428506943 -0.01521553013 1.3409541821 0.057239424772 
0.023866093236 0.60153339079 2.3005420733 1.8255391911e-05 2.6261991095e-05 -0.032941834252 -4.923222891 -15.726857148 0.018185408591 
3.5769562485 24.42146396 -0.019389092241 0.00042254842589 0.0027664876069 0.19971369811 0.0001549578209 3.5115555328e-06 0.41175308296 
1.5719167424e-06 -6.4379037864e-06 -0.011156106803 0.030491167738 0.52759951826 0.89052838305 -0.090969036443 4.4214335684 0.58280352826 
0.011171260312 -1.3905595355 -2.7537280196 0.62732922439 5.4252542907 0.0019165474464 -0.75897497621 -1.9150442797 0.025615409845 
-0.74890048734 -1.8781468098 -0.016728520175 -0.16181406355 -0.38317219779 0.0052543412006 0.00031500641579 0.00047828153628 0.12812662871 
0.0023695167077 0.0014067411549 1.0619635585 -0.0018809813013 -0.003692685527 -0.3520569684 0.15322626425 8.2330643467 -3.4202835466 
2.8518456247 31.838077303 0.001985109866 3.2909275279 28.399823566 -0.013533724297 0.0015106834745 0.0026491134969 0.61780330459 
2.1794001622e-05 -7.9755737504e-05 -0.020781141992 3.6206619168 25.217436543 -0.00080672993143 2.2310534616 10.451809897 -0.0028017944309 
0.00011191303649 0.00019499097107 0.173491117 2.1341531376 37.753856208 0.00056628111141 0.00025487662511 -0.00027068715909 -0.070794260165 
0.021962783023 9.8162084932 -1.186240483 -0.44611455748 -7.8802167006 6.1515139689 -0.98532986799 -11.437792468 11.912545575 
0.14594956217 1.6285872711 -5.1924250666 -0.00033842991499 0.0009341700678 0.19143482791 3.4829264347e-06 2.8362077428e-05 0.0047198720641 
-0.0044271455547 -0.14207216994 -0.75137091966 -0.00097781099078 0.0086030383089 0.29898324352 0.085730989099 -8.498950672 17.471323092 
0.43742627631 -8.4791272491 6.9300123711 1.0010675716 -21.343170355 10.085975074 0.38249088315 -4.8317177301 3.541264866 
0.015707311695 0.45784643502 1.8773349265 4.2345781257 22.450321734 0.010578437179 4.2060924186 22.452951432 -0.0086160499585 
-0.0015532171551 -1.9551665749 7.8833619851 -0.045747935768 -3.6215455637 2.6517688961 0.14347831179 8.2668580841 -5.866875408 
-0.033224291128 -0.25113352386 1.3329421546 0.09700839265 1.4913169253 -5.8644765237 0.33597016244 6.5675126878 -11.80418562 
-0.35187871586 -6.3003218093 8.4897936523 1.0132690596 28.617493719 0.003405787385 -2.7570617256e-05 -7.3863345285e-05 0.054184087705 
-0.40256031776 32.217610367 3.8720049127 0.37048370583 -14.25349332 0.66164564792 -0.59222360922 38.24485426 -0.93344099346 
0.0015249571431 -0.0005241527622 -0.20480657059 0.80258514187 -14.551681195 5.1732654133 2.3550368076 -35.873330207 3.8735115639 
-0.13681945442 -2.4242971272 -0.0039088569671 -0.80714859289 -2.2266003132 0.06546795288 0.42369981319 3.5893829735 -4.8478062553 
-1.5536268579 -7.40546425 -0.022018616753 1.1489730091 5.9212059069 -0.0048360389175 -1.902646057 -8.3937049186 -0.012612304979 
-1.9057926233 -8.4646098218 0.016684953231 2.1130789543 8.517764363 0.013191690304 -5.939354745e-05 -4.9925597107e-05 0.11110021134 
0.00023695275838 -7.9018331871e-05 -0.20706778631 -3.9394740205e-05 0.00018013411331 0.091013549423 -4.190531498e-05 -0.00014873623692 0.077472368153 
0.018125030821 0.18807836715 1.799004857 -1.5480790045 -7.3381280323 0.020407902277 1.7911345037 13.46036623 4.729366769 
-1.4963090651 -9.2411920955 2.7535547239 -2.5396227887 -13.313095126 2.1117073283 5.7207427617e-05 5.967843546e-05 -0.040434474363 
0.039009936462 0.54653515557 4.0687778375 0.70361114408 1.7976771188 4.1886931714 0.53941537497 0.77374779314 8.130341317 
0.08721424962 0.084439714303 2.551249916 2.0829634657 33.976352118 -0.00035741830597 2.5542098462 31.302199514 -0.0023956706593 
-0.21456461827 4.4595997947 0.27156386572 0.58820305364 -9.905840861 1.0230385249 3.8539677997 24.224991062 -0.012038981571 
3.863297605 24.184930652 -0.0052377197727 -0.021006034953 0.64172896342 -1.9342785509 -0.013139285921 -0.0028304496 -0.45916179649 
0.47636858591 -5.6260859031 0.51732208306 -0.34878917135 -3.2992845287 -0.0095298996932 -0.077230805274 -1.0045427568 0.0050716007013 
-3.2822541579e-05 -9.4569193284e-05 -0.014332840972 0.72547353899 1.9066479039 6.8920386654 -2.4529452664e-06 -2.641693203e-06 -0.0023196758386 
-4.2595784194 -29.83751872 15.124805232 -1.271198741 -16.98066714 1.6626555472 -1.2628146535 -2.907069213 0.032305042428 
1.0210966467 43.771531255 0.0034802901812 0.041006318268 0.66765352732 4.495275887 -0.27655603053 -4.8899129113 7.4526633644 
0.29327860819 2.4831556669 -0.0029623102607 -1.0316783242e-05 -4.0335409392e-05 0.030509012917 -0.54016600507 -1.2466384448 0.028187965151 
3.5403066815e-05 0.0015696148003 0.023079542523 9.3714392573e-06 0.00065742128465 -0.0082736492044 2.7491958475e-05 -2.6328133387e-05 0.060589819079 
2.2037324136e-05 0.00013639744218 0.030274984861 0.35032311231 2.8121261286 -3.5707035884 8.73549613e-06 0.002797851896 -0.0099713955765 
-0.0075276760337 -0.27860232059 -1.2806847645 -0.52142635256 -1.2122377205 0.012815915094 3.8162810996 24.276685196 0.0041401503595 
3.8819669715 24.17982098 -0.0034342092971 4.9846901313 16.989171129 -0.0061107475642 -0.041566730898 -2.2437120939 3.1105782413 
0.076177248074 2.3070405138 -6.0339727578 2.9898042631 25.680683367 0.0010038998191 -0.023304301967 -2.2757443351 0.030363768726 
3.2407214365e-05 6.4247399867e-06 -0.018980870947 5.8013311363e-05 0.00012292470765 -0.016158321067 -2.28490229 -21.731561727 25.361858126 
-0.086770001047 -2.1455532732 -0.024493973236 -11.404882119 -1.4039844395 -0.6751276198 -0.0037870776593 -0.5580582479 -0.28104474136 
0.00076004726985 0.090180193478 0.015850948489 -0.0011199501084 0.9929551498 0.62871144298 0.0001048754333 0.00021222569373 0.030215340009 
-4.0208006719 -11.086493409 0.021507588918 -1.4035526464 -3.7371328593 0.0077887790709 0.00022147747844 0.0025243643511 0.21948279771 
4.6455725744 20.098235209 0.0020252844474 0.35312475474 -5.8967493928 1.6437839407 -0.08617137072 -4.3105413379 3.7412290201 
-3.4862685953e-05 7.845424488e-06 -0.061911700911 2.1022704174 8.5115962245 -0.0097501172578 -0.0059093141551 -0.48070188455 0.73852649242 
-9.9922573832 -0.8344699292 0.042098891464 -11.131500152 -0.83859225557 -0.94698918557 9.7210933071e-05 0.001458093836 0.060709160671 
0.0042115764075 0.16272615581 0.029349227408 -0.00029275936197 -3.0428953206e-05 -0.074703392272 0.00034715945325 0.00090229138536 0.33011314685 
-3.3887418565e-05 -8.5687759059e-05 0.050388630839 -0.034096873924 2.5886674809 4.0628388341 2.2317248018e-05 -8.5548854422e-05 -0.39919915708 
-2.6490945215 -10.826982058 -0.016841032079 -4.1507947945e-05 -0.00014868091641 0.17796350715 -0.46699437257 -4.1369952463 0.012182807529 
4.2685634892 22.586022154 0.0072951576654 0.0054874975015 0.21510691295 0.051975546219 -0.0047993802493 -0.18448392798 -0.010792324684 
1.9905401585 9.2633049207 -0.0061680326006 4.4515359072 21.847891667 -0.010893524593 0.00021012604314 0.0040787004839 0.20745824278 
0.71971589386 3.834190038 -0.0020833045242 0.70971825464 3.7594820409 -0.0029108851014 2.9384818114 28.992684453 -0.0093125601594 
-7.2300715695e-06 1.8562369572e-06 0.025484003443 -3.4849146558e-06 -2.4487855172e-06 -0.029054588943 0.00087167142685 2.8049835733e-05 0.38671867015 
-0.26287192374 -4.2364244277 0.029739598963 -8.3880602861 -0.465008968 -0.51670626988 -0.45986832158 -4.0533877678 -0.0082807364219 
0.0036775481449 0.53343751851 -0.038200049215 -0.00056844692952 -0.037986896845 -0.32911038773 0.0002934448008 0.025562154763 -0.28703964644 
-0.15330941314 -2.0810521926 -0.014969242365 -0.14432531868 -1.9401389013 0.012815004352 3.7050008177 24.366173563 -0.0068268855003 
-0.050923542144 -49.696899405 -0.0055294247472 8.3855172035e-05 -0.021822194194 0.1708508833 -0.29193051891 -3.2494418955 -0.0083305393457 
0.28832407616 3.1801731673 -0.00082633670601 -4.0896840354e-05 0.0010034006666 -0.087497897989 2.5209105635 10.865987148 -0.0035852367839 
-0.1891959076 -2.8554241669 -0.014164024775 3.3308760568 26.617558311 -0.0043216565234 2.7766927135 12.711487079 -0.0036642851774 
-3.0414833868 -12.849474101 0.0088969415733 -0.36215810278 -2.5344048639 0.033201757947 -4.2599852538 -1.1912161522 -0.75909156165 
-4.9712870488 -2.0331073827 0.11037709075 3.3657721769e-05 6.4087257136e-06 -0.074889747509 
Minor%20Principal%20Stress%20Vector 3 3545 double
0.37861859001 -18.957457706 -10.716749454 0.16973721764 2.0852128969 2.1698090571 0.14720790787 2.1508201579 -0.10711616324 
-0.24864271128 -5.287763017 0.42207792952 -0.00014322784432 0.11647636384 0.023570884437 7.6966305115e-06 -3.3640562086e-06 0.032118768772 
3.5139430387 -234.27376016 0.41634255388 -8.0219237746e-05 0.088067112794 -0.0028079754419 -1.1727415822e-05 -5.181602048e-05 0.14218113339 
4.0951094388 -242.39743502 -1.1779546562 -0.02967728883 6.843365067 -6.2506230238 0.02648415089 2.1357144405 -8.170490163 
-0.010273426066 -0.0048079345476 -0.41336889902 0.016828884953 0.16743050844 1.4597023374 -0.28700316118 25.66314624 -8.9349591399 
1.2128033388 20.806286286 -44.275225663 -0.04357292053 0.45708805386 -7.2016808732 -0.011391100311 -0.044555402143 -1.161104767 
-0.039831007803 -0.37633020848 -2.516482221 0.1214733837 2.2243663179 0.097107172148 -0.45415916233 2.261787202 34.164386634 
0.013661934783 0.24621675916 -3.4637955181 0.14253892944 4.6840172603 -31.608390008 0.13567177476 -4.7017033888 -18.459421853 
0.021058191623 0.95212343545 9.0828590856 0.0024748485212 0.34099864513 4.2235959266 -0.15681525719 4.0512248962 -47.615494977 
-0.012395394923 3.0536127164 -32.408021601 0.31880348413 12.574449326 2.5919726161 -0.42670964381 -11.919559046 -7.315864492 
0.050019576691 -1.0171119214 -0.91448171175 -0.52199096462 1.0162147594 -8.6045487533 -0.0028496382322 -0.72735374139 -0.72514229234 
-0.035937097204 7.5911692097 -1.8464535008 0.01459608709 -0.77620652191 -1.098680648 0.0021408906429 0.12734471271 0.0077503296224 
-0.00044296562597 -0.18513820238 -1.292283764 -0.00052391308589 0.25608146612 0.13023438993 1.2259542306e-05 0.011430487721 -0.053227083468 
-7.4352940817e-05 -0.01688429973 0.06381385973 0.0001742659725 0.085555525095 -0.017889287396 4.6637717995e-06 0.0045097898757 0.0054545117229 
7.4254253821e-05 -0.0090532396522 -0.084833625959 0.00040807677891 0.20190054262 -0.05287427659 0.00030625817822 0.12888459267 -0.045694984294 
0.0002990682247 0.14341957099 -0.036311397658 0.00045027093322 0.22396325737 -0.028683294645 -4.8815623082e-05 0.027439790488 -0.084684716571 
-8.2359985269e-05 -0.0037751134181 -0.072986933029 -0.0081609439206 0.13222133653 0.48168606982 -0.0024461435778 -0.80418746103 -0.76607501325 
0.086869675306 -0.39656901099 1.6453009585 -0.46304420131 -12.669348294 -21.747197896 -0.10620246799 1.7402554765 5.9910025521 
0.013680050771 2.6034843159 2.3847014154 0.011562732579 1.1785033418 0.87451323568 -0.00024341625861 0.085264573754 0.20783654928 
-0.0011613746655 -0.61416161577 -0.12586611756 -1.635619788e-05 -0.0018571353094 0.08349537616 6.156957001e-05 0.023734879963 -0.02049159198 
0.000117701811 0.044765303775 -0.028102499396 -3.9307150764e-05 -0.056297958294 -0.10998546449 0.00066184199083 0.19846180362 -0.10214298516 
0.00047132272979 0.15801897965 -0.10890625983 0.00050632953944 0.23570668503 -0.088839659007 0.00038255287797 0.23536362467 -0.099372290832 
0.00019898193912 0.20202482028 -0.091278437421 0.00028359856367 -0.17526949508 -0.087734859413 8.2617749497e-05 -0.053183070451 -0.02171346101 
8.9853515377e-06 -1.2998443321e-05 0.032214736495 8.3227180061e-06 -6.146051121e-05 0.050416294079 -1.9827157863e-06 -0.00019152558961 0.071795143345 
1.4938197677e-05 -0.00013387167315 0.033038187088 2.5845715278e-06 -5.4769831555e-05 0.0098079278605 2.2322888972e-05 0.00049598086328 -0.054905705504 
1.3715452405e-06 0.00060404584384 -0.050541990674 6.0523721551e-06 -0.0015746399416 -0.061105662656 -0.0021356676421 0.88902722954 0.14570392938 
-9.8842564532e-06 2.7716486354e-05 -0.041373622081 1.5105952693e-05 -0.0001911509714 0.10377281968 1.6501243748e-05 -7.8501348517e-05 0.03388628646 
9.6079428325e-06 -0.00015045624978 0.057815406592 -1.8933255418e-05 0.00013364823871 -0.030178129029 3.717514889e-06 0.00014528915205 -0.022252952867 
-2.8051787836e-06 0.00045434666287 -0.070772226749 4.9894065245e-05 0.00081328390613 -0.068933817692 -0.00075578661731 0.24759209735 0.047679655295 
-0.0011179164165 0.53898125067 0.11397531112 0.17003147714 114.35909515 -0.064541058931 0.40883280714 53.182547189 -0.10495917331 
0.076766271519 18.59284614 0.022873553908 2.5373163214e-05 0.00023757747657 0.0075623874308 -0.00019010337412 -0.00014438676282 0.15968650103 
4.5599427542e-05 0.00013734169713 0.14761935477 -2.4075027122e-07 5.0605739995e-07 -0.0012542832838 3.4113711142e-06 1.4965928501e-05 0.088298433806 
-3.1871335317e-06 1.0015093906e-07 0.033662002746 -2.7363377965e-07 -1.0679601813e-07 0.002979440018 -3.5233259947e-07 -1.9901077326e-06 0.011757971114 
-3.9935056993e-07 4.6152186524e-06 0.0052616445622 1.5864804293e-09 -1.8793164875e-09 -4.0695971142e-05 3.5249309186e-08 1.7282819731e-07 0.0002579201304 
0.77278382468 -168.84492143 -0.69563491139 0.20325387899 82.014108699 0.3040016038 0.41785012044 33.958807353 0.15559150607 
0.10872253872 7.7769414324 0.11298177039 0.00015942046663 0.00019627714541 0.16825277751 1.612649077e-06 0.00042194540159 0.098491970724 
-8.7874725033e-07 6.8023510641e-05 0.13678945363 7.7022887695e-05 1.04978618e-05 -0.09825729234 -2.5067344941e-06 -1.5580297356e-05 0.025371195925 
3.1206051067e-06 -4.2845567815e-06 0.011889892584 6.7579461304e-07 -7.2149297047e-06 0.016066870987 2.6201297082e-06 -4.6871087869e-06 0.0061207892252 
1.0487863081e-05 2.2421951035e-05 -0.036833174681 -6.001368947e-06 7.4721643552e-06 -0.022673678913 -1.8606362859e-05 2.0421164311e-05 -0.056059649711 
44.246458525 -216.73216371 0.41058068064 67.747365293 -166.00894545 -0.50846647683 -61.972070114 98.668817272 0.31265688793 
30.436726183 -30.094813867 -0.8605942541 2.7727201445 4.5556704389 0.9300735064 -0.88485794515 -1.4084350805 -5.4468578755 
0.37304178612 0.771511179 -3.3569494754 25.412212786 -233.35212414 -0.4795982307 -58.535955167 195.60907178 0.19834196734 
-67.819104551 134.55936437 0.79137988714 52.374818652 -65.746675851 -1.0892350628 0.8248201007 3.9143847654 0.0863664998 
-3.0943030962 -0.42355179411 -22.580046133 -5.0297708389 -25.956752421 26.22415524 1.1862656556 -28.495486877 -41.009856601 
0.10830752597 -1.5268529525 -0.06946272426 -0.64893124911 2.0389754052 -37.835452233 -0.11895128029 -0.7579611266 -11.607162202 
-0.017668922699 1.2529990835 -0.54920364385 0.022565094507 -1.0571918795 -0.083765445727 0.0010645766846 1.1704294586 0.11427059469 
0.010468049267 -1.2501363439 -0.61074727645 -0.0027052376186 0.44971988084 0.0043277218739 0.00014317579007 0.022958401222 0.12982139983 
-9.4359887894e-05 -0.12879332882 0.027141969478 8.1438567703e-07 0.0012658767739 -0.00059657666434 4.2302716569e-06 -0.01218643937 -0.051045855207 
4.1116966212e-05 0.033774166902 0.0078571517801 2.4851028823e-05 0.01923617097 -0.17183181562 7.3771924308e-05 0.016899123077 -0.14806422413 
8.6649763822e-05 0.073370586127 -0.15329829407 0.00010841037328 0.10155647332 -0.091783118333 -6.7508369455e-05 0.029236502049 0.27453130499 
1.7475562138e-05 -0.020468255431 -0.072841308538 0.099872889088 5.3252217308 -0.013573013957 -0.0060788408895 0.069355095345 1.1273480343 
-0.023416910879 2.0939730836 -9.7333932533 -0.020198572125 3.6190713522 -21.652298725 -0.038771580452 1.7199150763 0.12178718589 
0.013169077081 -2.3460049018 -0.22869445241 -0.0043040175728 -1.7456994256 -0.13931976331 0.0052822376723 -0.89625071573 0.56422600083 
-0.00045277195705 0.72086772376 -0.20930765998 0.00028708756555 0.20825304372 0.25998022268 -8.5297638366e-05 -0.10911135163 -0.0122973057 
-6.8347040695e-06 -0.016054382376 -0.09477840809 -0.00011444385089 -0.082343517978 0.062174281233 -0.00017562001382 -0.12070435645 -0.11020004902 
-2.3624866029e-05 -0.033910234589 -0.19252654362 -4.3265744594e-06 -0.085478774194 -0.20516984416 -0.00015112261882 0.028491653023 -0.33747194369 
4.7486599759e-05 -0.10391010689 -0.30524882495 -1.7618744383e-06 -0.041290991939 -0.2563019748 -9.4979851517e-05 0.071749569494 0.00059317060152 
3.5337008412e-05 -0.059420460741 -0.0016659241615 1.7365386166e-06 -6.954608121e-05 0.16632198565 -2.3729765771e-05 -0.00022589559491 0.15405136003 
-8.347249978e-06 1.0415068256e-06 0.074243060648 6.1899246121e-06 -8.785243518e-06 0.037379078244 -7.1617721807e-06 2.647412231e-05 -0.029632217034 
1.9741400358e-05 0.00020378326961 -0.093228194014 -5.020992131e-05 -0.00028003766318 -0.17231529331 -5.1818280783e-05 0.012811741009 -0.24023607468 
-0.0023522048297 1.0295731629 0.0081624913458 -1.6800136716e-05 4.7399520684e-05 0.20441135488 -8.2799009495e-05 0.00022100921725 0.21243590111 
-0.00010924733237 -0.00010413608385 0.22290631507 1.0305184081e-05 -3.6748757844e-06 0.09469330853 -5.5300228707e-06 5.127100818e-06 0.022666241142 
-2.2506278076e-06 -0.00010956824329 -0.071399736191 -5.8436157005e-06 -0.00014849020558 -0.1440535947 0.00016195348238 -0.00048781984777 0.30657406309 
-0.0011541499201 0.53314947272 0.071310889689 -0.0008348734917 0.5893407559 0.0035420575136 0.11415478509 120.85644848 0.58338500834 
0.095061849746 54.878593754 0.24359069278 -0.04004262703 20.806673253 0.19519519558 4.3676722334e-06 -0.0028172671766 -0.0027403079331 
-4.4161656992e-05 -7.4629866848e-05 -0.020219116172 -5.4288510124e-06 1.789812237e-06 0.0046935323043 -6.2471261763e-05 6.9360459214e-05 0.14742273093 
-3.6083295519e-06 8.142108256e-06 0.022919681163 7.7549165288e-07 1.3483887829e-06 0.006150646056 9.7177985399e-07 -2.9469025198e-06 0.022322129197 
7.3586082354e-07 -4.6683094435e-06 0.028977775899 2.7892432358e-07 -5.7511806031e-05 0.032014294568 1.2273776813e-07 2.8331955535e-06 0.015761847875 
-6.638394036e-06 2.4252132894e-05 -0.038052936233 1.10867035 -175.80293765 -0.0030559721824 -0.13642500303 -85.341468995 0.00082832812417 
-0.15178769184 -35.742787031 0.00094305743504 0.073899284824 9.2396951613 -0.00076990526861 -0.0005036903513 -5.4376501175e-06 0.36601277429 
-1.4495843734e-05 2.7230937828e-08 0.042667012038 -3.4240453818e-05 -1.5146624735e-07 0.15703910097 -5.9339750502e-05 1.7745040107e-08 -0.15385106645 
1.4685346109e-06 -3.4519094008e-10 0.085293175072 1.3217182456e-05 -2.6786174363e-09 -0.043331291924 7.1422683504e-06 2.4513134046e-10 -0.039310344949 
1.8202430661e-05 -1.4940073089e-08 -0.047938963948 3.3731467368e-06 1.8254156139e-09 0.012821794193 -2.8826941826e-06 6.202263763e-10 0.0065991482817 
-4.9264924676e-06 -1.7445791342e-09 0.10251272131 -43.888811397 224.20768798 0.94613439039 69.562914674 -173.67392974 0.78699476958 
-66.406426548 99.662415975 -0.25359710512 -32.549640833 34.244267138 0.68009627369 0.99622708795 1.4637710266 0.13716880645 
-0.98272090948 -6.8847941011 1.8876093334 -0.19498426485 -1.0056946134 -0.66040026435 -25.422105111 240.50948198 0.3687173109 
-59.657834242 201.48023494 -0.15042287634 71.150606792 -141.9424919 -0.16703876675 -53.889815024 67.483385362 -1.0998484339 
6.8146837404 -9.2147795219 -0.022503527406 -0.79993582851 -2.2662301638 -0.4503422582 -1.7559960598 -2.7687818765 5.1523721454 
-2.0911407398 -12.286546369 -11.410406812 1.5000322175 -246.51146648 -0.065057029284 7.3572874768e-06 -7.0408934609e-06 0.16159864839 
0.17950493545 13.559882106 13.58316131 -0.67429783739 -2.5325170028 30.04568272 -0.14411514139 -1.829158368 7.0483820948 
0.32868537493 -5.0927911436 23.438425057 -0.22883701421 -1.3925830727 -11.369156053 -0.68283938572 25.542508019 27.317693696 
0.70418342193 33.310454943 26.660026989 0.1478068743 5.5786712943 -6.8607651074 0.1371545689 4.8140109648 1.141814739 
0.38896135191 8.9283305562 9.1240672079 -0.083834690963 -4.4285273367 -15.358959259 -0.13546089563 -15.773114234 -18.563926786 
-0.59406121369 5.0930770461 40.50700779 -0.035750009424 -0.57320670064 1.8033353091 -0.034369337964 -1.1735139095 2.6109298375 
0.74594724881 5.4712809343 -42.733906087 -0.5931196826 -3.5970882491 31.002951272 0.41613298769 -0.64265333475 17.071376368 
-0.15440470353 4.0774745129 -16.96299748 0.19340442163 -2.9921560744 15.854562225 0.20806430641 4.1473045949 -17.797854003 
-0.11773228025 4.1244642311 -25.432120479 -0.08150780049 -0.79829137335 -4.7064340466 0.12100503181 -0.16961771962 7.7003498586 
0.067001160981 -0.54471154043 12.787818109 -0.41085284253 6.1841025084 -29.117316466 0.35144997585 1.9406309256 27.179835209 
0.041626553648 -4.1642208147 -16.160902304 -0.15578278099 -0.29864409788 -16.835781222 -8.9549440866 -26.86065275 -0.015507023243 
-1.9060805978e-06 8.4764703519e-06 -0.016616669965 1.5687087448 16.764020044 -1.5868641578 1.4156712108 5.9154723947 -0.0090750602374 
0.19592098496 0.48486014049 -0.0090097225845 1.8767642222e-07 2.8963312966e-07 -0.0009604134703 1.4264078839e-06 5.484615273e-06 -0.0066180662057 
-0.75072247011 22.382117781 10.453318562 -20.748632747 -46.871508273 0.011601804026 1.9983917994 16.099603812 -0.042216979888 
-5.3539894435e-06 -8.327391598e-06 -0.02064612585 -0.00099874030043 -0.0057349953425 0.0025779966493 6.0203460621 11.714511983 -0.013098536396 
13.740205074 52.153203307 -0.0070818930003 -1.1912778357e-07 4.4121121148e-06 0.017304699257 -0.99593003292 -7.0748479601 6.984617873e-05 
0.3385690609 1.0751303044 0.010099681336 3.9892132474 11.603984415 0.028556490162 0.0088200675258 0.28403296115 1.5350641603 
0.18355990154 6.8624095194 -3.5179237553 3.3958770731e-07 4.3248559997e-06 0.015262568366 -4.4366614358e-05 -0.0003825712371 0.038748634995 
-7.6819799919e-07 -1.266848129e-05 0.0060694803569 -1.3904293505e-07 -5.5975013648e-07 -0.0014745168406 8.26570864 34.800519992 0.050694050856 
0.0040856630371 0.87923619226 -2.5344342056 0.25227856808 1.862103295 -0.015794502963 -2.8969742366e-05 -6.0160746943e-05 -0.067224812568 
1.7024196054e-06 8.5581968259e-06 0.0079737981213 5.5369144186e-07 3.6264159578e-06 -0.022240452248 -1.8471397665 20.065431307 -8.1566879175 
-3.7986026163 -15.131567232 0.0098864122079 -6.2412734533e-10 -4.2786738172e-09 7.4207117216e-05 3.1567018879e-06 1.7998860696e-05 0.021443545059 
-4.186591494e-06 -2.2897375307e-05 -0.016238523296 -0.8256857783 20.607455533 12.383393449 7.3922597406 17.317576819 0.021540011031 
3.6546950672e-05 9.1167165531e-05 -0.041665704546 13.688301931 25.862012839 -0.050268791181 17.355837394 70.132328609 -0.028857672082 
15.104422527 41.324001513 0.033584684608 16.096890227 71.588700834 -0.025645336571 0.24946512806 1.0053627401 -0.0035186134328 
1.1698050363e-05 2.4516060041e-05 -0.027428751863 0.34025277278 5.1964590775 -0.14552428175 -1.1302697933 24.821294006 5.913775819 
0.26868812969 2.4286640335 0.018972819063 1.1317543135e-06 9.3079841771e-06 0.017680732556 -1.9924343414e-06 -3.423300873e-05 0.0031691069028 
7.0280443489 41.791063246 0.073176312898 -7.7890740417e-08 -2.883703519e-07 0.0084273980375 -0.00010961924455 -0.0010868958707 -0.012051181971 
-13.988754726 -29.32774348 -0.003647594613 2.8327934822 22.39244103 -0.38188106755 6.3399054242 26.09568364 0.030157775439 
-0.0035903416835 0.091609694764 -0.84739534059 0.019784416 1.0485514515 -0.8685860159 0.055661616609 0.46575360082 -7.5733948896 
-3.6029296356e-07 9.3274806418e-07 -0.0052494878598 -1.400140093e-05 -5.397027303e-05 0.0093871426451 2.3404426057e-07 -6.7322520355e-07 -0.0034689393131 
0.46907759516 0.97743534659 0.047957276038 3.0551711984 6.6408559961 -0.037781244532 5.0153260905 33.64669338 -0.46400100741 
1.2692354286e-07 8.6895987516e-06 0.011581039987 0.0071253990303 -0.024269693079 0.89482931854 2.4328437186 14.51188048 0.0049122625941 
0.041910935264 -0.50275269362 0.65339447126 0.047736628322 0.56351717229 0.0079191958887 -4.7851518277e-08 -5.2470431606e-07 -0.0013547970335 
1.9750658239 6.4650941155 -0.020561851106 1.794138504 8.5972946394 0.0041195960574 -1.807660202 -4.981156582 0.0018428729759 
10.332565262 61.295919351 0.16587553302 2.527004935e-06 1.044967241e-05 -0.024475306579 1.1361315292e-06 1.638884247e-06 0.0072859365215 
7.6920308207e-08 1.0920354913e-05 0.020185671613 -0.013456812577 0.73627718628 -5.428491501 0.24335002962 3.2298538991 -0.010359438633 
-19.455133755 -53.835869257 -0.021343549776 3.002034436e-06 7.2566286744e-06 0.012668048993 -7.5175586509e-07 2.4487002355e-06 -0.0048452286866 
3.6829894167e-06 0.00055009095496 -0.012927810212 1.6413285643e-05 5.0989920184e-05 0.026341872398 -2.3551887942e-06 -2.1408422919e-05 0.019365402565 
16.126444866 44.147561609 -0.059689383895 3.7220088066 9.2262034582 -0.021545251741 0.79073238683 4.448498793 -0.01532487741 
0.61112686075 2.9897296273 0.0090968981101 -5.9418348826e-06 -6.7309831581e-05 -0.044146773155 -2.2856817226e-05 -5.8379799464e-05 -0.020137524681 
-4.0568221784e-06 -6.7177320241e-06 -0.018622801544 -2.4002051447e-08 3.4024156059e-07 -0.0043490155506 -1.975508846e-06 -1.6687988437e-05 -0.024288246932 
5.7382692143 17.80796793 -0.027216610057 3.060114873 10.907875042 -0.0028084919152 2.6817238239e-07 3.1117925145e-06 0.0039353021067 
-1.0239875666e-07 -2.0068665001e-06 -0.0025480033092 8.4512478697e-07 1.7251368224e-06 -0.014634350306 -0.01030542991 -8.6023243747 -4.2520544671 
-2.6250618579 25.056362063 -2.4740367022 4.0177806909 25.616940203 -0.46255084534 -6.7759016817e-06 -4.6776746825e-05 -0.0096143445955 
-4.0609034533e-07 1.5145872546e-07 -0.0036650041437 13.538900259 44.478174869 -0.0043968355935 -0.00035106871224 -0.0062581781337 0.0011805493223 
-0.0017712653512 -0.6016988884 -3.4542897756 -4.5137852001e-06 -2.3813129619e-05 0.012086561282 12.109536895 29.511832062 0.011759230855 
9.1223497557e-08 -4.2784007169e-08 0.00078032757305 -2.7709197878e-05 -0.00056859503777 0.038017249668 -6.2547844913e-08 -7.6217577072e-07 0.0094260873454 
5.3226060037e-06 1.3500636859e-05 0.039141356725 -0.0067249877626 0.088811138698 0.52356222226 0.0015779282685 -1.447541064 -2.0514094341 
-5.6337001434 -32.701062438 -0.018974311405 -0.0054709055503 -0.030709495277 -0.53884593752 0.072501588074 0.92321328644 -0.025409943868 
0.56155606112 11.712228445 -3.0627389333 1.6911701767 -106.89528098 -0.20407157073 -6.2343964596e-07 -1.2061844907e-06 -0.0076110973168 
10.485864491 34.221626993 0.034405224316 3.8256426358e-06 7.0532864046e-06 0.054752953802 0.64866223451 -1.646228254 -16.827588809 
-3.2941838365 38.811781649 2.2358141019 0.83365318311 11.723211476 -0.72147566972 0.15797323712 1.0463667167 -0.00041737198781 
1.9181147862e-07 1.7906159622e-06 -0.0069985820435 3.0151651388e-07 3.1833245336e-06 -0.0014459658883 0.030723118734 -0.35178801495 -1.3786285636 
-4.985931052e-05 -0.00017756662129 0.034663927457 17.288089422 34.583631341 0.061172293868 -4.630277135 -9.9057554383 0.039980705239 
1.2079560152 -125.72907204 -0.051504396912 21.651229465 64.308563097 -0.040362473639 0.059194819999 1.0498916412 0.061233393943 
5.8610529132 21.575710629 0.015256308535 -1.8769654555e-05 -3.2988097069e-05 0.049285536493 20.832422109 46.095744534 0.014533327891 
-0.1575910799 -7.6834440789 -6.1480103296 0.97751385263 3.6379279005 -0.0087707271259 5.2123094642e-07 3.679744582e-06 -0.037858012108 
-3.2586213971e-06 -1.5453974997e-05 0.013951439706 -9.5439639577e-05 -0.0023562844772 0.039903495918 17.546540616 40.140015483 -0.016194178909 
-1.5183766002e-09 -2.868230453e-08 8.3473843925e-05 -0.83692564544 6.8793195682 -19.203125631 7.8090320532e-07 1.9677682264e-06 0.0046731293984 
0.016360239469 -0.064996625143 0.37120971394 -9.8320678146 91.850597257 0.069348119188 -3.804569208e-05 -0.00010662767785 0.034493099265 
-2.7909404701 33.93834578 2.0945652503 -1.1030033928e-09 2.3332227825e-07 -0.00044274836248 0.50594640756 1.0532207167 0.029011966282 
0.79685009895 5.2088895204 -0.006323807789 9.4229888018 19.616175528 -0.017137452743 4.5285980257 24.795731766 -0.038628376002 
2.7650786071e-05 7.8888643432e-05 0.030519179249 -0.00533070278 0.62170442217 -4.3701843747 8.0230370777 21.394407246 0.0094177072012 
0.02049976394 1.0283956345 -1.0258793671 7.6053025338 14.14523966 -0.0060206762408 0.12845760612 0.6281913102 0.005175942413 
9.1142886231 77.924826888 -0.092468811755 0.54147972988 9.630900729 -2.6389858417 0.56139681111 7.9351133188 -0.44452959929 
3.526154862e-07 -2.2317835042e-06 -0.0090765155882 -1.1290428086e-05 3.8800717788e-06 -0.080254129301 -1.9590652469e-05 -4.754298545e-06 0.055838222951 
0.38633073294 2.2904960137 -1.61441793 3.8030277256e-06 1.8050789976e-05 -0.019013888525 5.2267722986e-07 9.9892604885e-07 0.0046892266852 
-2.2293404124 -11.882729004 -0.0087180969542 -0.029742742628 -0.48069309951 0.039083409003 4.0647584295 32.436262543 -1.1564678629 
1.2941672264e-05 6.5312569102e-05 -0.024433017704 1.1509762906 9.6313368854 -0.028106856346 -7.3514327605e-06 -1.1489487841e-05 0.025749323602 
-3.0069838103e-06 -2.5111402459e-05 -0.013081661835 1.7043009607e-06 3.298552202e-06 -0.0057378191281 -2.752450783e-06 -8.0526645968e-06 0.006275445628 
-5.7067172628 -15.000184969 -0.017515189591 -10.017841539 -43.460734878 -0.082445129996 0.37743484664 3.527186933 0.022922841493 
-0.31900576785 8.7340646455 -0.8640349068 3.0083748049 44.284508973 0.11884095603 16.889514922 60.238464352 0.061695351902 
-11.590773296 -22.142312287 0.0012212543224 -0.58680954558 7.1758211294 -7.7835502042 0.039260987325 -1.4413366508 -3.9820960583 
-1.0126395242e-06 -2.1721920211e-06 0.0093845111162 -6.2519052612e-07 2.4422725753e-06 -0.0095905508169 9.6115938024 24.288098024 -0.038430899851 
0.065560377148 1.8299071009 -0.018386452041 3.7442651678 20.02089716 0.028601157879 -0.0051517442521 -0.10389905781 0.0097245539149 
0.22665917558 0.80801018349 0.012145272382 7.394987989e-07 -2.4321537409e-06 -0.0064241362854 0.044055025011 0.32457215449 0.011939031558 
9.5023706922 46.542896202 0.068322544655 9.7794983064e-08 4.8108216493e-07 -0.0019822900878 -3.5595834415e-05 -0.0037201544314 0.040361087951 
-0.032144443211 -0.59140224967 -0.018933813079 -1.3971628467e-07 -2.5167108063e-06 0.0065636241475 -7.8179891033e-06 -5.2522950279e-06 -0.036146061118 
-2.500150409e-05 0.0095057831627 0.050821784545 3.9257015853 17.980259406 0.0069657896855 0.019986281496 2.1458066463 -0.81013630431 
-0.0088741059781 -0.45902121567 0.4617287472 0.61332166281 4.1631143393 -27.585558025 0.043797619361 0.43991762511 5.4929799592 
-0.0020260845225 -0.06883267097 -0.38084491835 -0.22835283291 2.9452946357 7.5401478 1.5914216853e-05 -0.01117231767 -0.013344161805 
-0.0004037891125 0.18964624177 0.10983434767 1.4732641893e-05 -0.0004868964956 0.014425551057 -1.157506755e-05 2.8096352695e-05 -0.049477512278 
4.9615513371e-08 -4.5030116477e-07 -0.0013161324808 -3.367365811e-06 -4.1762697924e-06 -0.024669020931 1.8226279605 -123.00797414 0.13385422779 
4.274223492 -175.23376426 -0.47284962938 20.93987828 -167.05858432 0.67971799237 -0.281025087 4.7480187192 -6.5686718251 
-0.71654993802 10.764895232 -31.194626144 -0.76280910103 16.32262502 -40.670888678 0.023869770906 -1.5577487354 6.3975036437 
0.072205548807 0.12873168706 4.1889530145 -0.023428646725 0.22357496791 -0.54223424715 0.18487387286 -0.33597667875 7.949269347 
0.0015094243892 0.084387708089 2.4261480253 -0.30995883578 1.9831058234 -4.7117230166 -0.24114219434 0.85297478307 -6.79009785 
5.180905279 65.088744615 -0.19877072514 4.440158991 94.024482319 0.18978728577 3.8891685006 102.65597589 -0.52262116756 
4.9041651998 20.977835692 -0.013904205482 6.8083954946 36.228196135 0.17376107179 13.316327489 59.737860907 -0.41291882167 
9.7570746836 48.376532466 -0.18357175288 13.114057207 33.836462422 0.15250347271 1.000984176 3.3998000489 0.027570838638 
-3.6773814517 -12.608586052 -0.033924600957 7.1457651304 16.640686523 -0.044898619384 6.6586426607e-05 0.00030158080992 0.029434966192 
0.00025749712824 0.00088112621265 0.013215844415 2.3139652672 4.9433266793 -0.097927632735 -4.9313073275e-05 -0.00016470534857 0.034987461833 
5.955537388e-07 8.3390524795e-06 -0.0011699654631 0.00079447269006 0.0011484877985 0.083608811225 -1.1203642941e-05 -0.00010062749991 -0.04430591123 
-1.5411809733e-06 -1.4480180767e-05 -0.0050864160195 -0.00054839140972 -0.00061130941776 0.16877817298 5.0007447827e-07 -5.6761101326e-06 0.0082198802599 
-2.1785625567e-05 8.2584317077e-06 -0.039017530553 -1.5950009599e-05 2.7423364677e-05 0.073134471849 -9.5823137959e-06 -4.3155977586e-05 -0.034028818792 
3.5316743223e-07 -3.8057609935e-06 -0.0021905689884 -0.00012997300885 -9.644748647e-05 0.1160132367 6.8062962671e-07 6.1078708938e-06 -0.021293224102 
-1.4694612818e-08 -2.1589095325e-08 0.00029648835206 3.4808167202e-06 5.2509925229e-06 0.0042675572938 -1.5536442046e-06 4.5209930112e-06 -0.015304609022 
1.1194916358e-07 -8.1084176877e-07 -0.0015409902017 3.8761804347e-07 2.5937265918e-08 0.011781495361 -2.3904759094e-06 1.6356258244e-06 -0.017184050401 
1.563378467e-06 -2.6146022968e-06 -0.0090305695459 2.1078909272e-05 -1.1488499821e-05 0.064220971532 -1.4591914763e-05 -2.2812922122e-05 -0.038049085364 
6.2198771318e-06 9.2353335861e-06 -0.032667758168 -1.2638195108e-06 -2.3040808237e-05 0.043248676969 2.6901095286e-06 5.0468755873e-05 0.028285537017 
2.166516047e-07 -9.7734238238e-07 0.0035091914448 -1.5709626126e-05 3.09210464e-05 -0.065999527933 1.3897741273e-06 -7.0465684291e-06 -0.02061532422 
3.5172186222e-07 2.0433026291e-06 0.0012590449681 1.0153490381e-05 1.1459361695e-05 0.041881366756 23.639345345 -154.51407073 -0.059200709519 
31.950324114 -131.87475782 0.15673418921 1.9522054227 -120.73547283 -1.4177047937 38.295635324 -125.26431178 0.17770869015 
35.035330351 -94.203806278 -0.42598145787 7.3178273744 -103.61477901 0.23963387359 19.534430779 -62.105514683 0.273723934 
5.1755643665 -33.176812981 0.1205974266 3.5394106011 73.805221678 0.42100155425 12.449102895 -71.864084289 -0.28206026229 
6.4416417406 54.264178328 0.67535008928 0.63478969921 23.525900405 -0.077812963052 2.1262972965 8.8998007972 -0.26663700246 
3.901074116 35.109702899 -0.4699872691 0.24261045436 0.96223868892 -0.47765116118 -0.8037753988 1.5733907423 -20.876960213 
2.2272912572 13.230633712 -2.4214660805 0.01898803989 1.1476866856 5.2076924974 -1.210311178 2.1105044359 15.356502084 
0.18508838338 2.2469267485 -10.221644018 -1.9330314521 19.562573491 32.041329501 1.0530356651e-05 -2.7575686862e-05 -0.069477070117 
-2.3399826563e-05 1.1169552793e-05 -0.060040167425 1.828880595e-05 -5.0632600344e-05 0.043318351594 -3.7959536675e-06 1.5801555583e-05 0.028889701216 
-1.3677578096e-05 -9.4450658404e-06 -0.1038993964 1.9682030578e-05 -4.3999337518e-05 -0.052570651876 -5.8895460843e-06 5.4301792234e-06 -0.040987623372 
-1.7239861566e-05 -6.1714986054e-05 0.042207932412 3.6180179099e-07 1.9863302837e-05 -0.012402034215 -4.6617548099e-06 7.3986592166e-05 -0.040736178723 
4.7395092496e-06 7.0904314463e-05 0.043730167348 8.0334138407e-08 -2.7213867871e-07 0.0020754867433 1.0128611152e-05 2.4745702282e-05 0.027687769314 
3.0980965646e-05 -0.00017242134577 -0.10301541342 1.1299993951e-05 4.3868905299e-05 -0.024110826524 1.2217978082e-05 -8.8046094865e-05 0.051046048052 
-4.6001644461e-06 -2.4149480255e-05 -0.015705194202 -1.0084504449e-05 -0.00022360568161 0.040192612674 -4.3073231877e-06 -6.6698317974e-05 0.021751482871 
1.0579301314e-06 6.6332282294e-05 0.044659091157 -1.6428094556e-05 -0.00040733662823 0.066602861063 3.5712204282e-05 0.00026632373254 0.073767309856 
-1.0819129842e-05 -0.00026172989167 -0.031499592043 1.1665610215e-05 0.0022554326806 0.082925342862 1.7119220158e-05 0.0011069966545 0.065540850254 
2.0897433721e-05 0.00075140608235 -0.054614222695 1.5238871071e-05 0.00047935066701 -0.02099962808 -3.2941870701e-05 0.010948956386 -0.094347206989 
-2.5725799286e-06 -0.00051912366496 0.011573082216 -0.18351553487 -2.6519132725 9.9617449556 -0.38565970918 3.8584593749 -6.9537315751 
0.1097955029 -1.2897427488 2.591912614 -0.64164522202 7.272109827 -5.5888873819 -1.2183463203 15.639857444 1.4020935517 
-0.94525625895 9.8324581949 -5.2788423236 -0.2046913856 4.7791576535 -1.3146892663 -0.3565484188 17.420265985 0.60418165451 
-2.3309387748 32.693055554 -2.2498189408 0.0022182931302 -0.63651295303 -0.99480406527 0.012077655559 -0.75681852015 -1.6194567517 
-0.67239124854 26.291514136 8.3525482028 -0.0072092338275 -1.3428498432 -0.076597716343 0.011319301391 -2.7126518633 -4.2164159859 
0.0044725250472 -0.0095487409815 -0.78231551615 0.013944410266 0.43482055439 -2.2662907647 -0.0045024944587 0.08856613735 0.91537383238 
0.0088477486018 -0.46091343617 -1.1903612484 0.0054661566734 -0.24571483551 -2.7091193291 0.0250387268 0.5656903324 2.4845068656 
0.0026008466378 0.059448783204 -1.5421444185 0.0062634457643 0.44531903245 -0.97592874397 -0.0014573249948 0.082254899726 -0.43519377856 
-0.025820566844 -0.34322310789 -3.0640594042 0.014273121187 0.73836330449 -0.44562942246 0.0011322306708 0.11960871853 -0.20345845617 
0.011824064762 0.695303299 0.020908778312 0.014131276401 0.70564319516 0.010151127958 0.035834917793 1.2683359692 -0.14032493902 
-0.01063603903 -0.38851529 -0.054890124088 -0.0087664932925 -0.30016548348 0.041228553216 0.12983890609 1.9600478443 0.0096104074865 
0.038385787832 0.99812635683 -0.076044260561 0.13917417743 2.5340704183 0.012645773725 -0.0058566828054 -0.21633426066 -0.019337125347 
0.0011358354925 0.039816495665 -0.034391387875 0.037125551613 0.66756659463 -0.0046405219899 -0.0048537004103 -0.15784209408 -0.029684471675 
-0.0015271839897 -0.04738236833 0.021322215216 0.051144918683 0.72157551065 -0.00024955961563 0.0082636810108 0.20494851836 0.011669804013 
0.046739989836 0.70537851798 0.043654976712 -0.0019857027314 -0.04549545131 -0.021764814067 -0.0016456539019 -0.037574747454 0.023590616129 
0.045073617134 0.6154636657 -0.040599101223 -0.0013562687403 -0.053721184656 0.013122071146 0.00053745749576 0.020273818848 -0.042848600502 
0.011484701287 0.17003473013 -0.0079259903702 -0.00012624386214 -0.0042630657256 0.0060725888941 -0.00065993611968 -0.022712474352 0.052220535316 
-0.0069041148707 -0.13053095523 -0.02397350729 8.3312615925e-06 0.00035172565201 0.0050402131902 -4.488584714e-05 -0.0017342664072 0.032390135791 
-0.0032774195233 -0.06307677771 -0.057738596763 2.8272587168e-05 0.00079346976296 0.072082329982 9.2135982057e-05 0.0071878100445 0.049163964716 
1.3129398102e-05 0.00066763144385 -0.027488126169 -1.3817981913e-05 -0.00056260764734 -0.022749616928 2.4488534294e-05 0.00042896498863 -0.0061517502694 
4.4001478638e-06 -0.0059803656874 0.089246255815 8.1644413484e-06 -0.00064112116543 0.061049742023 -9.9915397872e-06 -0.0008252863951 -0.020902873558 
0.00011859192828 0.0075362504977 -0.10232558232 -8.1766183189 -29.81781353 0.037129520865 9.7851800885 30.512600308 0.11669651425 
7.5509098013 26.498804268 0.039691097652 7.2891286672 24.149169419 -0.0041506307441 6.1915662695 24.046464182 -0.063312094261 
5.7982381043 19.602987576 0.016878193701 7.2823096067 22.260100637 -0.079116531274 8.4586582565 23.967699076 0.032432400007 
6.7823511847 19.497140855 -0.026555445154 11.41639898 32.215149282 0.0064745775399 10.388603348 28.141738887 0.07187473604 
9.8724842112 25.21625982 0.066240914393 -0.00019358031439 -0.00076137938997 0.052059518332 7.5845744647e-05 0.00029664690894 -0.034159033867 
2.0511698999e-06 6.6383740223e-06 -0.0018383977865 -4.6912613529e-06 5.6944495947e-06 0.040141928754 -4.2941884807e-06 -3.0119607901e-05 -0.0768096368 
0.00026177035619 0.00080078773771 0.096043975447 -1.8192941234e-05 -8.7304962891e-05 -0.064081711786 6.8244008142e-06 9.2796056087e-06 0.0057981158764 
-2.6712682757e-05 -7.9383188101e-05 0.053247888653 -3.3837585902e-06 6.5647530597e-06 -0.010564078811 1.6470521318e-06 2.0724182746e-06 -0.0037600340318 
-6.1664456618e-05 -0.0001659332357 -0.046562800071 -7.5424063655e-06 -1.4130994538e-05 0.01516916639 1.3426039023e-05 2.6392463064e-05 0.012108327978 
3.2950791153 25.340416987 -0.50222878725 3.9964707103 26.991507913 -0.37184048152 2.2485336485 20.227210827 -1.1346652145 
1.4788246763 15.806413748 -1.3979088065 0.91469064061 12.175679129 -2.4087835559 5.3876207158 33.442439826 0.087110139758 
3.0410080566 25.479095919 -0.61146048499 1.0371432718 15.062533279 -1.9001195308 2.3379693167 23.58489069 -1.5159904714 
-0.029289978348 0.6871277144 -5.0614412419 0.15017253173 2.8787010164 -2.6282147493 0.14119620117 3.2952071218 -4.9101487338 
0.036086621681 1.8297796131 -4.2226620599 0.1130146739 3.2680885211 -4.4304990498 2.1006553771 8.1144492376 0.04309261429 
2.5247228567 8.6114702999 -0.067303150464 1.7026114397 6.2739107061 0.022919387345 1.388866873 4.8553779424 0.037778849838 
1.2137398859 4.7879324481 -0.049545798503 1.0827234727 5.1984813857 -0.049394109632 1.2366416778 6.404605432 -0.057515057736 
1.6440115035 7.3344614491 -0.079506398744 2.3847453269 9.7973006347 -0.014934623733 0.91697987678 4.1545839327 -0.030261487734 
0.70146445501 3.6741152689 0.045522572947 0.76210745932 3.2346969303 -0.048172649828 1.9318513695 4.7621826646 -0.096310853851 
3.4957489483 8.1213145585 0.0080446573677 1.3487554296 3.1447104118 -0.045829910217 0.015327446951 0.034872221961 -0.069953613554 
0.00074288133654 0.0015775448807 -0.12744587132 2.5757406293 6.7574247801 0.015217765728 1.0906836252 2.848060616 -0.013931103479 
0.0059956253664 0.015367323614 0.2061809929 0.65807244452 1.8067059072 -0.091016649528 8.5614243841e-08 -8.8323645223e-06 -0.0064535796224 
-0.00016270344044 -0.00036457701586 -0.16146254474 5.5137316456e-07 -3.3248630952e-06 0.005251418644 -1.3328070341e-05 -8.9074847948e-05 0.077254880889 
-2.7228432921e-07 1.7048674122e-06 0.0042579846865 -1.5126344919e-06 3.8714326471e-06 0.0079887401481 -2.2162920591e-07 -1.7781198064e-06 -0.026655305327 
-1.0331755943e-06 -1.361989977e-06 0.0065847429961 6.9532874329e-08 3.7804347076e-06 0.0046143729391 -1.1808172205e-07 4.1896799377e-05 0.028601157805 
3.6113605188e-06 -1.0986909184e-06 -0.073712193985 -2.8347670341e-06 -4.698434469e-06 -0.024385577258 -7.2064070911e-06 -1.0138365512e-07 0.03958849893 
6.0538395883e-06 6.6719389905e-07 -0.042658702714 2.8842617518e-08 9.5277419173e-08 -0.00014445214698 -5.1325248102e-07 5.2960314473e-06 -0.013128349192 
-6.9375827502e-07 2.5343720381e-06 0.032607438105 2.3215812206e-05 0.00017928748963 0.049259212074 -2.5247768308e-05 -0.00016482210992 -0.069115179011 
3.092290867e-06 9.9854687647e-06 0.0079920024425 -3.8592515895e-06 -1.9609384108e-05 0.015567883114 5.6123217373e-06 3.1033330981e-05 -0.011868802196 
-3.2377071514e-06 -3.3755555659e-05 0.016484577508 -4.1016377342e-06 -1.1057276361e-05 -0.018303235695 -6.0585191012e-06 -3.8531748482e-05 0.022267087951 
1.1119211784e-05 6.1052754239e-05 -0.033423389256 -3.7083488921e-06 5.3672396282e-06 -0.016503063388 2.1608856325e-06 9.7086493457e-06 -0.010895513587 
5.1769409667e-07 5.4703934772e-06 0.0058767418064 -0.059362423612 -5.9085876312 -5.1810250589 -0.032743744408 -0.081251594615 3.094166418 
0.016347455167 -0.31672158265 -0.75884749595 -0.0038856806805 -0.2418781302 2.0476370972 -0.15459802495 8.0562503287 3.6949471733 
0.062261411839 -13.427197491 -7.4441478792 0.3183130626 6.8324699218 7.7534347314 -1.7643610249 30.980856272 1.4832158661 
-2.3204053166 37.382219461 7.014137883 -2.443793102 45.585843782 4.1983944235 -3.1608465621 46.812445459 8.677569952 
-3.4427958371 41.998620824 2.0678177287 21.058805544 58.590660841 0.055483329616 21.895698292 55.285479449 0.11044708619 
20.123616942 50.793821672 -0.076090028895 19.054522595 43.064661638 -0.034176997898 18.788215757 47.027241912 -0.19068689075 
20.908032984 46.68804 0.031595497579 19.194826855 39.731188588 0.10949077594 19.235329559 40.529526013 0.20152042584 
17.382943668 37.54234474 0.040843940899 21.680223675 54.971047954 0.1624042242 1.3533284349 14.058705449 -0.33176910377 
1.6156724015 16.616912467 -0.62793714061 -2.4075657726 -19.371282031 -0.0088950633191 3.6567697964 23.907029537 -0.059331384543 
3.094995949 20.230072195 -0.014175764135 1.7033671259 11.915990285 -0.032799313193 1.5624454479 12.811473506 -0.12338182063 
2.2086233872 15.216338886 -0.082988822978 2.8141600393 18.201258288 0.03659158428 3.04534694 17.225144713 0.028679863125 
1.1181699689 11.550229898 -0.22687379792 0.72720146472 10.290419141 -0.62143901414 4.1800243588 22.519360568 -0.059652069847 
0.83035343404 8.8577860975 -0.28279353387 -8.1966268693e-06 -7.4863386639e-07 -0.048458794335 -2.0740659771e-05 -4.2346008554e-05 -0.042009024297 
1.9661323305e-06 5.6376751169e-06 0.0070729878496 5.4106166583e-07 2.3991299735e-06 -0.0048197279747 6.5230092865e-07 -1.4137003452e-05 -0.01473276048 
2.9136378166e-06 5.5141234498e-06 0.0053550343668 -3.0899287981e-05 -2.7405186182e-05 -0.046653347807 -1.4933200945e-05 -3.5129139131e-05 -0.014311568552 
9.0749446139e-07 4.0064607967e-06 0.0069885006217 -9.9486760819e-06 -1.8642397649e-05 -0.034832956525 -7.4026802104e-06 -3.5806223969e-05 0.036208296605 
3.633723431e-06 2.100470705e-05 0.024927000656 -0.00073286816309 -0.0040499544076 0.069227342989 -0.00015385554561 -0.00089177089078 0.084757367848 
-0.0005428584496 -0.0033212199091 0.09909658539 0.00026364584679 0.0018786118032 -0.031551513694 -0.021410246347 -0.13794297332 -0.017171583643 
0.15454445549 0.87139750258 -0.0027176142484 -0.035936531343 -0.19022647033 -0.025397530412 0.094338443875 0.58090157769 -0.021138131177 
0.097863369217 0.68124223501 0.019982751405 -4.4929885211e-05 -0.00024229196099 -0.029307350228 0.45350972466 0.93481222741 0.0018054575788 
3.1290545642 6.2475797763 -0.030691664911 3.3897215879 6.6568421314 -0.082382203558 6.7307385004 12.813678922 -0.0073468961116 
3.9273836257 7.5722598996 -0.051003903614 1.8711851764 3.9770303133 0.047611802523 4.2420104657 8.7567151898 -0.015884652059 
6.1564095627 13.073120536 -0.006351873226 7.791672414 15.744133858 -0.065610577857 10.406703917 20.791856575 -0.039917147336 
8.8772646012 17.064094648 -0.063679605406 9.6254345805 18.192616108 -0.038947447748 13.651855445 61.784814381 0.091464114191 
-15.269619733 -55.993083492 0.016434533809 12.708268844 55.805038869 0.17314641173 11.56876756 49.817283536 0.066268425915 
-10.49454368 -52.613128083 -0.13098606462 16.214723922 48.938824981 -0.042699964107 -13.853884291 -48.492829867 0.0038809490829 
16.384784758 53.686557502 0.049515344609 18.319547645 57.180646386 0.17561376883 11.70587702 44.337916842 0.11623566037 
-11.903441639 -47.636303905 -0.030822308813 9.8125575292 45.143240136 -0.038448300641 6.2450293241e-06 1.6449175855e-05 0.029368229977 
-4.2558116302e-06 -1.0750466607e-05 -0.030310280351 4.5098591548e-06 1.4960561944e-05 0.015509826023 3.0882824792e-06 4.5778844532e-05 0.020284770486 
-1.0691623718e-06 -5.5356027123e-07 -0.0080288433901 2.1384217047e-05 0.000166462043 -0.045343731789 6.5098685254e-06 6.522622351e-05 -0.055298954834 
2.8584381159e-05 8.5740968605e-05 -0.044709430075 -7.7010521441e-08 -5.8409649045e-07 0.00021469934849 -1.1644582917e-06 -2.2861124976e-05 0.012730826037 
1.6233641265e-06 5.0793695981e-05 -0.039516151139 1.2548489296 6.9314338939 -0.037236522706 0.91404811379 6.2179648566 -0.036523452832 
1.3715967595 7.9023745497 -0.0060238559144 1.5346831386 9.3676148524 0.034238344087 2.024456323 10.199943114 0.069153574079 
0.59317563108 6.1168485232 -0.028363770344 1.094218188 8.3829018728 0.046043799544 0.5379565219 5.0392832476 0.043841637224 
0.63333849569 5.1368758017 0.047156265141 0.30787304402 3.3868578083 0.020708011304 0.56353631237 4.3684443539 0.023249116774 
1.6220286369 10.676051436 0.026767751322 1.9516451983 5.8542278156 0.019934714842 0.90114529068 2.6735524514 -0.024370977295 
1.1601312334 3.7321482915 -0.078627323198 0.72579655227 2.4898216606 -0.0071944256755 0.002486385122 0.0073385151202 -0.013612309786 
0.00045993949283 0.0017199034302 -0.17712309666 0.0012211421811 0.0041293579984 0.067716987085 -4.0476879441e-05 -0.00013746713596 -0.0068907123328 
0.25277103339 0.85064070171 0.03929286936 -7.9643711214e-05 -0.00024653215488 0.037032601852 0.61835800787 2.2517957514 -0.027686189304 
2.9162871476 8.2450906719 -0.040722001433 2.8549707876 8.8271825344 0.034090350453 3.5378850593 11.362803517 0.061057287294 
3.9549247858 10.614253924 0.049991135359 4.7465261194 13.136704749 0.043774283029 4.7895667679 12.204344591 -0.035681057868 
4.2475153236 14.141192166 0.056603555657 4.942787704 14.811372598 0.048764474331 5.7990880428 16.559589518 0.063125452448 
-0.0070742645297 -0.20201476423 -1.8145825703 -0.00075540503083 -0.026333439969 -0.47962755487 -0.0034620598191 0.07693100308 -0.93597777103 
0.015144765218 0.1901859627 1.7490119818 0.036410181995 0.17491965503 4.5628585568 0.005921180267 -0.0025962701144 1.784398713 
0.04236115191 -0.049107601796 7.7582427118 0.0085163044679 -0.30491246155 -0.65435507536 -0.0026942300394 -2.4985754233 -1.5685593936 
-0.042750096725 2.4313994886 5.3872357522 0.00199110686 -0.43420275817 1.031771732 -0.010781917358 1.2315332542 -2.1380988318 
0.26735384124 7.8000029939 -2.6138691391 -0.0044032512092 0.30414123442 -0.55996632674 0.0007156905252 -0.002771478292 -0.12818486711 
-0.0052629547019 0.39977207486 -0.91284284165 0.0046215479192 0.04144759399 -0.074881604286 0.062345909504 0.87682844433 -0.98722614054 
1.7327812126 16.511836313 -3.1507287126 4.0273485213 28.740373015 -1.2411470292 1.6979199277 20.28313941 -3.3944660211 
2.1570845416 23.639847077 -1.7591227101 -4.1252962041e-06 2.3002901425e-06 0.01915567828 -1.2290597398e-06 -5.1083596271e-07 0.0090890851628 
-1.6470089211e-06 1.5976207499e-06 0.013236806007 1.7537310258e-06 -1.2902511814e-06 0.010025299679 4.2240269105e-06 2.3479284505e-05 -0.03660272076 
7.9256458565e-06 1.4376867822e-06 0.014714088908 -6.4574126691e-07 2.9581644573e-06 0.0055623310495 -2.1649989468e-07 -3.1346338361e-07 0.0013288520461 
-3.6334493897e-06 -2.1220427885e-06 0.017839410164 2.2746255464e-06 -5.0557613629e-06 -0.007661512588 1.0515873436e-05 3.5677293455e-05 0.038403634328 
-2.0646595152e-07 -9.8920537871e-07 -0.00098354685502 0.00025426915375 0.0029050881745 0.064933928374 9.0017475586e-05 0.0011266350666 0.030522281299 
0.00039428653639 0.0040121338431 -0.1009817361 0.00015499620975 0.0013228062692 -0.045985057875 0.00014748664087 0.0011202024466 0.11688865678 
-9.6229705491e-06 -8.2072960782e-05 -0.077185313707 -1.1945764673e-05 2.2590761237e-05 0.034041369845 7.4792610825e-06 6.47306839e-05 0.02107767713 
1.7742309242e-05 8.2363660618e-05 -0.084841618322 -4.4595087613e-06 -7.3577393909e-05 -0.015498142005 5.5181599521e-05 0.00052175681151 0.038768833416 
-8.7695172497e-06 -0.00016818878443 0.010879471589 -2.1456366949e-07 -3.8865542174e-06 0.00064294830932 1.5549409566e-06 -3.0753266625e-06 -0.0090801824143 
-1.9532400033e-06 -9.7673831489e-05 0.035022369039 7.3982115207e-06 8.3377854436e-05 -0.037966705366 4.5834421538e-06 3.1038498308e-05 -0.01062266055 
-6.5723860681e-06 -7.8979088292e-05 0.022908000361 5.7050049706e-06 -1.153549713e-05 -0.032371876584 7.746222191e-06 0.00020772419082 0.040982829796 
8.6230395578e-06 0.0017121922361 -0.031226385085 7.3655087865e-06 0.00042737319792 -0.037344269589 2.3813394722e-06 -1.2716288137e-05 0.01909174323 
-3.2183987767e-06 -9.1059786894e-06 0.021352053856 -6.8535813338e-08 3.6906773999e-07 -0.0038019137075 3.0513638521e-07 2.2753679178e-05 0.057051289715 
-9.0326295016e-06 -1.1835817472e-05 -0.075857152066 -1.3948766844e-06 3.4357694373e-06 0.026356993418 -3.5881814523e-07 -8.9551543079e-06 0.0052072247116 
-4.0579114975e-06 2.9240832415e-05 0.033695435474 -9.2200981025e-07 -3.8865937506e-06 0.031067651219 1.4468151289e-06 -1.3771191314e-05 -0.016750603033 
6.9831130545 34.192580636 0.13579927816 -5.1049429862 -28.662491956 0.10241047624 6.2054572906 29.798362574 0.10163772156 
9.3247384897 34.658916273 -0.023790711269 7.3238312638 30.4481644 -0.10376355621 5.4230604677 25.70169837 0.011785358649 
11.978156979 39.357446984 -0.12651320365 10.611693736 39.365586167 0.013377352095 9.1374946651 38.972016125 0.2173673255 
7.6090776115 37.742039968 0.20841533823 -0.0046554544305 0.078721667278 -1.1311439152 0.0098317398025 1.5753073894 -2.4676947766 
-0.095800050711 -2.0384822924 0.89947094021 0.22910174452 4.6786878398 -0.941140816 0.0049403292179 0.11468151798 -0.89373299821 
0.0022360262771 0.090826735544 6.4522514017 0.10053031752 3.0669028095 -2.6949125401 0.71617032327 10.570155742 -1.338279329 
0.49372892541 3.4360524336 0.023656300485 0.45739419489 2.9245963737 0.038952625192 0.25851333906 2.1001007481 0.088969100027 
0.14287022827 1.3481940421 -0.011038568439 0.14070331187 1.4974041961 -0.0023286018039 0.21150667695 1.4801670928 -0.073171614006 
0.072713186818 0.61651317797 -0.026057303493 0.10443902061 0.95307840923 -0.048755675612 0.094904992522 0.95804817284 0.02831720157 
0.4025914165 2.3779532892 0.034312769213 0.31406068381 1.773801114 -0.016300609942 1.5030274064e-05 -2.218632078e-05 0.034587037904 
5.5776875001e-05 0.00022845045697 -0.077612011892 -4.8315622164e-07 -1.6057775221e-05 0.011792524907 -2.4781124484e-06 -5.912530948e-06 -0.0091896491129 
0.00012155273875 0.00020330645574 -0.10495214645 -1.1188889705e-05 -7.0026264537e-05 0.022102923375 2.8954454266e-06 8.1066636219e-07 0.0022334364041 
-1.3766027472e-05 -5.3834280655e-05 -0.024024581469 -2.3980033599e-05 -0.00016914209583 -0.059792182985 7.2249697993e-06 1.0860584412e-05 -0.0086845370146 
-2.4388959689e-05 -5.2661661987e-05 0.062889131958 -1.5558531308e-05 -4.9464786724e-05 0.038947400035 -1.8454898924e-06 -3.5992125932e-05 -0.031878700066 
-3.5138170755e-06 -4.9059511596e-05 -0.089691046633 6.6775134494e-06 -2.4525062044e-05 0.03132715338 -1.6504792155e-06 -7.3463411974e-06 0.013920836128 
-1.521754532e-06 -3.8114083427e-07 0.021038220879 7.0477064389e-06 9.6439656425e-05 0.10566760104 -1.8512470869e-06 -6.0675892775e-06 0.004096663056 
1.4783866901e-05 6.3623671721e-05 0.10123710327 -3.5047357926e-07 -6.3954412833e-07 0.0021409682395 1.308201004e-06 -2.2848024709e-06 -0.019591745444 
9.3378510114e-06 5.0567228254e-05 -0.10818418365 -1.7287927128e-05 -7.4290609696e-05 -0.049206946743 -2.0099060729e-05 -5.2384507471e-05 -0.037306295033 
5.2221302759e-06 7.5088733122e-05 0.057644320218 -8.6938404458e-07 -8.3275645382e-07 0.0017081198675 -2.0191080619 29.204751511 -3.5364214437 
-2.6479537186 32.897806379 -4.7701443905 -0.087737486205 0.90816574787 -0.83701205411 -0.39886154658 2.5507227363 -5.4664719831 
-3.8984218447 42.461191421 -8.6388647281 -3.1865930713 35.366841769 -1.9761537787 -2.5251319352 25.769242544 -5.7782983484 
-1.4575124934 15.8216672 -10.384356153 -0.060306134127 0.48919724401 -0.97339387128 3.4826638304 13.074397121 -0.059548908645 
2.6421070344 11.544457467 -0.034692434346 2.9604471323 13.552855444 -0.045130206793 -4.7392285986 -16.588765767 -0.018776591395 
4.7636058758 18.26984614 0.060068597024 3.8841332075 16.57252619 -0.04434748738 -4.8407324772 -19.796738454 -0.019904532019 
3.0210541043 14.895533508 -0.05096763347 1.587109737e-06 -6.7931614449e-06 -0.013344824334 -5.8079966025e-07 -1.2142516875e-06 0.0020067548737 
2.2628498977e-07 -2.3389806186e-05 0.019260668037 -4.4204446976e-06 -1.4576424548e-05 -0.020550276019 -6.6687797193e-07 2.2447644277e-06 -0.0029759233302 
8.2836500361e-07 1.7775921792e-05 0.015711690154 -1.8757506682e-06 -4.5037711111e-06 0.020278964087 7.9586703198e-07 7.7730308981e-07 0.0082684631935 
-1.9901088593e-06 -2.5099268085e-06 0.011649441456 1.4748428634e-05 0.00010000404298 -0.039231647905 1.4088352321e-06 8.5566334549e-06 -0.0035513416987 
-2.1095817605e-08 -1.0025224536e-07 0.00014471987548 5.9971561847e-06 3.5241181645e-05 -0.025362211022 1.6911058051e-06 -2.6905901279e-07 0.012142212285 
1.465776931e-05 5.1552955308e-05 0.01247251067 7.3798154584e-06 4.9811914776e-05 0.015900469754 -0.00011969506313 -0.00059672728571 -0.038914529706 
7.588054796e-06 5.7747281561e-05 0.011149372494 2.8399015181e-05 0.00013177043707 -0.025919824016 -5.0016798981e-05 -0.00019156795347 0.042038739444 
-8.4931655926e-07 -1.5079698372e-05 0.0056832867505 0.21389840032 -27.413966243 -25.0873668 -0.030823022907 0.054848814161 2.4215383564 
-0.047167307797 0.31488709068 2.6630112759 0.020453992274 0.057789083175 -2.6740195667 -0.45029312986 15.06346795 9.400067665 
-1.7642327116 23.665311529 4.9237784131 -1.6705831738 21.717123423 -2.3151250557 -0.96331072992 16.923357898 -15.437917846 
-0.264671418 7.1109325477 5.3654217462 5.4642125042 13.184371703 0.044664410927 5.2671101402 11.933497991 -0.064891294928 
8.3848474295 18.508713251 0.012373084618 6.4954037255 16.094957096 0.080192743522 10.914783743 24.711678692 -0.073047104928 
9.7436658633 23.222156072 -0.07273838742 7.7752993303 19.462029497 -0.0039945268471 6.9725554686 18.410790877 0.096280614942 
-7.7111655576e-06 2.5049981571e-05 -0.022090887415 -2.2502689614e-07 -9.4648421498e-06 0.0078047264498 2.6960575101e-07 -3.5711011542e-06 0.013415095064 
-2.923908567e-05 -7.4975266685e-06 0.07724063394 8.3193865275e-05 0.00017830543651 -0.011178314651 -8.3751778526e-05 -0.000451931067 0.088351964957 
17.806573378 36.035587955 0.19495960989 18.944375973 45.318544573 0.12991851409 15.442856192 33.566563462 -0.056960617181 
12.070483959 25.003716604 0.015544331096 15.647158772 30.572369279 -0.032622126569 12.686512363 23.918696689 0.025816041171 
14.478981938 28.257139876 0.12721110729 6.2446604329 12.102621033 0.046140028486 10.642852345 19.910168309 0.035999606578 
9.0078743302 17.749673976 0.14193828307 20.140188117 57.388430036 0.055633424653 17.602633628 56.495951156 0.24656422107 
13.473751798 75.286596641 -0.1306531685 7.3100426973 96.451654671 0.34748322601 9.4219992383 86.994140512 0.22667196576 
19.952487092 68.548846598 0.0091482629502 13.561761493 82.812612623 0.39132361649 -14.312161134 -42.960523829 0.0044068495854 
-17.113745589 -47.203066235 0.0373911064 16.346219262 41.116095262 0.024553040396 12.602975796 37.491649424 0.0068124255581 
13.857700325 35.526044301 -0.043844287495 14.357913555 34.035876058 -0.12472316686 5.9772529379 82.107809827 -0.3158366977 
12.250990211 66.804239343 0.037935026705 16.768503005 65.089627238 0.12639277382 19.066795632 67.698975285 0.14514381198 
18.871715879 61.399046461 0.21427920112 9.5968320545 86.239122713 0.068173299476 -1.039483329e-05 -7.3549656427e-05 0.019341212839 
0.00075567540495 0.0031078256001 -0.038033894083 -2.7928011759e-05 -0.00010685207559 0.0095347373614 0.16362420615 0.72422509979 -0.02919865857 
0.23765782442 0.89926351029 -0.0052111173626 0.57221658024 2.2171087494 -0.025901202364 0.4604269951 2.0406536514 0.018099494753 
0.40474399457 1.9727857623 -0.060942955086 -3.9484770609e-05 -9.6421047844e-05 0.0757728665 -4.8705440797e-06 -3.0131736332e-05 0.022350343857 
1.8258442496e-05 1.2329277272e-05 -0.05099075424 8.5679687088e-05 0.00023204690397 -0.033126079016 0.00010705915258 0.00028412301268 -0.04014578725 
-2.4211539405e-06 -2.2143160299e-05 -0.012958131506 0.67424791695 7.3401303306 -0.10689285618 0.29590355065 4.1894584782 -0.074553867419 
0.16855139384 3.3118376277 -0.12982442502 0.22059299054 4.5771403171 -0.2917814415 0.46315198349 6.7853295095 -0.36917984993 
0.14140731042 3.2611838969 -0.21067902753 -0.67903868512 18.044422373 3.6244738205 -0.83983908537 30.628328972 8.9250755466 
-0.49564663404 11.695621752 2.0272226367 -2.0164880552 29.636140727 2.9162957855 -2.5472461193 34.94187936 2.3034378363 
0.46834657884 3.5605090088 0.0095296247048 0.79259558146 4.7965580628 0.021088967342 0.12065065921 1.4614408679 -0.022186328723 
0.17186054105 2.1014341056 -0.0045312736426 0.32568978337 2.9956717228 0.049464179825 0.13460680557 1.6380266191 -0.032164056521 
3.1409256226e-07 4.1311636457e-05 -0.051844650194 8.7017319784e-05 0.00092977072486 0.11473448082 1.347640295e-05 0.00020374643649 -0.049816870056 
5.4492239544 43.681621565 0.31178079896 8.5669666137 51.473129568 -0.047582144636 8.2965681762 43.897669259 0.10416076165 
5.47313228 37.099042263 -0.45462385282 5.3819639543 34.301211173 -0.31886967673 6.3969879149 40.0781049 -0.23888053291 
1.1987642572e-05 4.2433563529e-05 -0.049156623072 1.7964928147e-05 2.9276091204e-05 0.059771539345 -7.2937061694e-07 3.3900411369e-06 0.045096604014 
-0.0031373817913 -0.041120663916 0.019706798569 -0.029620723584 -0.31902409947 0.048291371488 0.051704809851 0.47212912861 0.0069300408004 
-0.0029309360869 -0.024732062307 0.016551068289 15.83697784 34.604890067 -0.1210853648 13.031559649 29.512731094 -0.013586233854 
11.704947109 24.492126978 0.068866844771 15.55802384 31.838784087 0.034593926114 12.760029011 25.710811966 0.024441615711 
5.0103381269 21.824846548 -0.058937562028 -4.9149914694 -22.930793663 0.054545440844 3.8229923462 18.896506698 0.035549375617 
0.16777663161 3.6295498813 -0.83196578469 3.7996516853e-06 7.1559647634e-06 -0.013257945667 -3.4563584653e-06 -2.3349954756e-05 0.014818473515 
-3.7397955408e-06 -2.5713840473e-05 -0.020979325801 2.9071890783e-06 3.5331087893e-06 -0.0083809259738 -5.0832380528e-06 -2.201097366e-05 -0.015873775163 
-2.5976612991e-06 -6.1284369099e-06 0.0060544286929 -7.2716287125 -38.970331997 0.02727152978 4.5392055357 33.029574587 -0.81279783506 
-7.0400278664 -40.110702479 0.17363625037 2.3476373157 13.224718626 0.046120259412 -3.1553441387 -16.366685452 0.038482140149 
-0.17073440496 2.8759104396 0.58176017789 -2.8193019493e-05 0.023867237721 -0.00019634198288 0.98182967491 -8.7179123571 -13.734970624 
0.21367646713 -2.3620840219 6.9909312209 -0.012886672071 1.6087445668 -1.6327894441 -0.015046944458 0.48619288659 0.1851293518 
-0.05102813149 3.2335666124 0.87394183652 -0.012118120468 1.4263369731 0.34724439394 -0.011267861285 2.741043188 0.72653487236 
0.0013301513373 -0.050759054783 -0.98243501743 -1.1295907674e-05 0.019187150143 0.16265391907 4.7120809271e-05 -0.010296728175 -0.067697686138 
-3.8198422907e-05 -0.012483605517 0.025265820858 -8.4105637407e-05 -0.12792252362 -0.0061697209104 -7.0169276776e-05 -0.052274917758 0.0030164803095 
5.4266941019e-05 0.014431851573 -0.042489288716 0.00019170254081 0.11875772622 -0.081007089066 0.00090722089355 0.30393425066 -0.018926556281 
-3.8220836645e-06 0.21735867717 -0.070408274527 0.00011489866335 0.1909080169 -0.03069196071 0.0029864653802 -0.51019352892 -0.219347563 
-0.0036247564445 -0.58449271192 -0.010729481054 0.04454596891 -0.91200036484 -0.32450611809 0.16384669111 -3.1631193348 -0.4590920771 
-6.045497509e-05 0.064958273165 -0.0020686095128 -7.3683821246e-05 0.068473352963 0.0041628437255 -2.3501476168e-05 0.0016417818163 -0.021368266998 
5.1160316363e-06 -0.012549149373 -0.017698329734 -0.14776361245 -7.859988872 -14.581779781 -0.47898174173 7.2577135491 6.7968984779 
0.086749210296 -1.7263341435 -0.35138909962 -0.015116307385 0.19261455172 -0.00050257121226 -0.10318223536 1.2780110758 -3.3877008744 
-0.1737985122 1.3270577746 -3.3519384879 -0.017610521732 -0.48665902215 -21.754000039 1.1228254299 -1.4488279814 21.60686415 
1.046349462 0.68898564788 25.932084099 -0.019115880173 2.3749188941 -1.5035783487 -0.16928633654 3.3283073976 -6.6675584148 
-0.058055001784 1.837135294 -4.3186857594 0.066489854886 -0.35801018538 2.3633514567 -0.20755105676 1.4024648099 -23.249770574 
-0.06226185075 2.6197677702 1.7517332837 -0.05304244454 4.1353921235 -0.043128273898 -0.021553509695 2.9713338082 -2.2047762797 
-0.0063017389812 1.0806643344 -0.60872207724 0.050139615485 -2.5016792691 -0.50441911904 -0.0083123471435 -1.6771318594 -0.28045946375 
-0.031027920193 1.9845755169 1.3366904548 0.035413813297 -1.2176359659 -0.28692336374 0.0053097630416 -0.48801111523 -0.18322650698 
-0.013530850822 0.91449833092 -0.040572595223 2.2819551231e-05 -0.31589748266 -0.15038963864 -0.00092222015926 -1.2575540909 -0.32247292446 
-2.5607450972e-05 0.37491077454 0.084673439703 0.0011049586902 0.45435022327 0.023275366597 4.3978590601e-05 0.19869882855 0.018861020046 
-0.0023471525045 0.32896628965 0.1345396764 -1.0580092947e-05 -0.35561284612 -0.47598596875 -0.0014553995484 0.19727327846 0.021015086049 
-0.0015417581868 0.39757828364 0.58225510356 -0.00061898156256 0.79312505118 0.28459996259 0.00048176812252 -0.01990224373 -0.35930358329 
-0.0018921534275 0.76822736187 0.39459757506 0.0025545102428 -0.32568374597 -0.034179085042 0.00041505918625 -0.09933477032 -0.018901122238 
-0.0026950736985 0.64227569297 -0.030913886159 -3.6562480731e-05 0.012747425535 0.075956965311 2.8474462272e-05 0.090269988118 0.24788218103 
-0.00044471046291 0.014876877828 -0.7324954944 9.239031661e-06 0.055558549577 0.1038791322 -0.00010754335766 -0.33931985284 0.022399605694 
-8.6856394306e-05 -0.044658661544 0.041416068134 -6.8798499959e-05 -0.088919302207 -0.0059209437464 1.042147944e-05 -0.085788896291 0.16611266088 
-4.39215669e-06 -0.041464853902 0.0053819031016 3.3487442734e-05 0.14818197081 -0.043234141425 -1.8377510773e-05 -0.00542039932 0.010370356881 
-0.00014037815399 -0.11470581011 -0.018936929137 -4.4358092587e-06 0.0098420655298 0.043288147464 4.4576316079e-05 0.046893179852 -0.008813119931 
0.00010705569346 0.084411313157 -0.07744965474 0.00013436845432 0.0025709037395 -0.13831746584 -0.00016334702809 -0.18470564898 -0.055060440277 
9.4658659403e-07 -0.002862963871 -0.0059272405667 1.7374908969e-05 -0.0051475696021 -0.024620153271 0.00017253271067 0.14282446814 -0.066229013174 
0.00014926660794 0.070253611954 -0.047939331808 1.384502198e-05 -0.07473861598 -0.083871526905 -2.7397728244e-06 -0.10235558331 -0.12462875896 
5.1535579118e-05 -0.019689554117 -0.10305436114 0.00011561992744 0.10254932085 -0.019735522372 6.3365029971e-05 0.026414552457 -0.022466884565 
0.00023475073679 0.15935243992 0.013492223515 9.7245897191e-07 -0.045410396731 -0.12235425154 0.00016008404432 0.099307106891 -0.082442491188 
0.00018173964581 0.11104575351 -0.1830182904 0.0002005224535 0.12973796716 -0.069175961408 0.00039446775093 0.24251281692 -0.0046844621964 
6.1481842938e-05 -0.0085333043058 -0.10370974023 -0.00016192534483 -0.071860363708 0.12723211 0.00024819017068 0.15473109706 -0.18529157131 
0.00063072626942 0.29217814427 -0.06419001357 0.00099894462438 0.37037309804 -0.099458860664 5.8360119526e-05 -0.041784372093 -0.1077966687 
0.00024379203494 0.11910826221 -0.098922351437 0.00068315215829 0.36950251143 -0.074128643438 -9.1653801587e-05 0.17067530532 -0.1626448331 
0.00024880777507 0.30492079012 -0.032375435899 0.00021807326274 0.16554348522 0.043570694551 0.00033842888483 0.236321543 0.014323950303 
0.00013017615792 0.22739302542 -0.026117241343 9.6364118003e-05 -0.01618282297 0.097645874642 -2.6620338576e-05 0.06778552248 -0.22650937479 
0.00010751386926 -0.043785036333 -0.17409762065 -5.9897841488e-06 -0.0031975202572 -0.20955888129 0.0001574738573 0.029078233899 0.36400435198 
-7.8699678039e-05 -0.0090459850477 -0.11542391078 4.9962238806e-06 -0.11394282494 -0.046352714572 -8.6341760831 -26.317540738 0.00047007701086 
5.6721449173e-08 -5.9340727751e-06 -0.010554311193 1.4812844498 18.626044192 -0.17696037179 1.3395761196 5.6797903124 0.012667453891 
0.12914704281 0.32441238292 0.0024032938813 5.544611732e-08 -1.4400257688e-06 0.0084719670163 1.7919918476e-07 -4.8840886847e-06 0.0056642653385 
-0.15077148249 21.075492208 1.3301361147 19.822673871 46.931109229 -0.08566887752 1.893354719 15.483409835 0.066949551046 
-5.9033164725e-07 5.0228668088e-06 0.013049073367 6.9262127538e-05 0.00040439438422 -0.014414231033 5.8800080129 11.691996743 -0.0021262266663 
-12.874190231 -51.164393676 -0.04245601082 1.8745594297e-07 3.5060184938e-06 -0.0085517734167 0.95583751002 6.8887452407 -0.013972551394 
0.32095631083 1.0256043272 -0.0073024129157 3.8811916212 11.399878675 -0.00023187283483 -0.038985408256 8.014137875 -13.926431066 
0.11518482745 21.070568952 -0.79265055294 5.8308667528e-07 5.6277440471e-06 0.018324323358 -0.00013222703345 -0.0011451039516 -0.056881169752 
-2.8968168361e-06 -5.1801184549e-05 0.024190897872 -2.8037979873e-07 2.6281273457e-06 -0.015815047257 7.9904860049 34.302557099 0.018260873223 
-0.2559477099 13.517057505 -2.4357731226 0.22753746207 1.7188111434 -0.003466063684 -1.3914610041e-05 -3.1665519246e-05 0.029930209479 
6.3595565731e-06 5.1474814586e-05 -0.041148607406 -5.4873778947e-07 -1.3049923335e-06 -0.0061836329323 -0.36317900534 9.3198961718 -0.29474554606 
-3.6343680955 -14.679791088 0.0084472835411 -6.1409388818e-07 -6.6160885904e-07 -0.0093196308316 4.7910055122e-06 1.821409284e-05 -0.01694994391 
1.3187628284e-06 6.1355950936e-06 -0.0071550021255 -0.082007992039 -1.6559926659 -0.15704641729 7.181094427 17.02361092 -0.037054920972 
-3.2508110913e-06 5.3044639088e-05 -0.047449068524 13.115520123 25.977625008 0.068503544628 15.575653333 73.786355511 0.19798244004 
14.639396803 40.970948229 -0.048783832071 14.468191877 70.788400399 0.091167821381 0.21845482789 0.88985527095 0.015536312375 
3.6292794011e-06 6.4003663207e-06 0.0083179485438 0.33780258534 5.3013195071 -0.050326451598 0.034604532446 -3.4593059746 -0.16407259497 
0.23583441925 2.1878470613 -0.015792100973 -7.1963758818e-08 3.9407707384e-08 0.0080588097089 -1.5929017966e-05 -0.00029703886673 0.057657156 
5.963464661 39.658821672 0.10936887424 -1.2979565684e-06 1.1664921965e-05 -0.024859476154 -0.001135130757 -0.011416283506 0.04236825414 
13.626447895 29.076143753 -2.0151368606e-06 2.6322123771 22.025767859 0.028727008346 -6.0388549516 -25.266417438 0.016689334653 
-2.0426357128 23.792472076 -1.7107180083 0.037593737989 4.368209751 -0.50157174913 -0.91201048944 9.409005628 -19.74330056 
-7.1058921936e-08 -5.208399623e-07 -0.0062061132328 -4.3313387679e-06 -1.4227167916e-05 -0.0054588313039 -8.4574671931e-07 1.453761666e-06 -0.0049524905108 
0.55012744119 1.1935855912 -0.046396552873 -2.8714011678 -6.3461957156 -0.0030604860787 4.6679356187 32.805391187 -0.12917083957 
-2.7561637415e-06 4.3804904055e-06 0.018915440894 -0.14235671926 -2.4145252144 -16.000228262 2.3058031275 13.939884696 0.0093591392504 
0.01393172226 0.25773664742 1.114376586 0.026435817732 0.32197891387 -0.012472318614 -2.7496337628e-06 5.1170923248e-06 0.036724237208 
-1.9017722347 -6.2900642196 -0.0039281213678 1.7579856209 8.5204576908 0.013386356637 1.6804941896 4.6953030844 0.0175972207 
8.9879320335 60.452614126 -0.047201891455 3.2354893322e-06 2.5989070432e-05 0.027609286473 -1.7617055355e-06 -3.2084857204e-05 -0.038786717732 
-2.523909621e-07 2.6758451354e-05 0.011718113069 -0.42366199489 12.419431467 0.20226269479 0.23851904928 3.2315735445 0.030544742072 
18.486006409 53.08285486 -0.030923173392 -9.3868115029e-07 1.2868957432e-06 -0.0059681749287 -1.0944049971e-06 -1.3487344586e-05 -0.015136597946 
5.596809664e-07 6.27676265e-05 0.0016982509713 -4.6354111312e-05 -0.00018365392999 -0.038747751948 6.8173264612e-07 1.3147606456e-05 0.0079592913488 
14.89479427 45.676718826 0.031233722594 3.6239753391 9.0645924651 0.04449286717 0.76623161423 4.3705622015 0.032308173498 
0.5418223506 2.6895388615 0.0029725532574 4.4852172693e-06 -2.0983488192e-06 0.0081138613968 -4.5116945444e-05 -0.00011778184285 0.051681316979 
-2.3470750041e-06 1.7031519594e-06 0.013084040585 -1.9756946633e-06 -5.1711225622e-06 0.010117979526 -2.7190341934e-09 1.0983750362e-07 0.0029430146513 
5.6547164754 17.698154687 0.021320163283 2.9473888506 10.620236251 -0.010044830269 8.5219289909e-07 2.90917598e-06 0.0033135818441 
5.2993134505e-08 5.0848930773e-07 -0.001348088086 -3.8612816239e-07 -7.7131017249e-06 0.024122388759 0.0012188327585 1.9519414458 0.67680747379 
-0.0028241156862 -2.8349880562 3.378923268 3.2993637469 26.538875175 -0.33795078685 1.0151719371e-06 -6.473526172e-06 -0.01289472716 
-6.754001661e-07 -2.1368214977e-06 0.0054105860587 -12.891111723 -43.571103902 0.024347663548 -0.00017810277273 -0.0032927602936 0.024470184595 
-0.20755883805 7.934157227 2.9324956043 -2.1429118308e-06 -1.2196419557e-05 -0.0063187832721 11.862517398 29.337392778 -0.059925348794 
4.2507015885e-06 -3.0295256615e-06 -0.011357912827 4.6739834513e-05 -0.0002650004741 0.064962942841 5.3033041065e-06 9.3516816382e-06 -0.021143271612 
-4.2905994396e-06 -1.1832153465e-05 0.019281164302 -1.9623446148 28.628155203 -0.78093766781 -0.20265143179 17.680111835 -2.056449686 
-5.1835749296 -31.201342152 -0.045568075805 -0.099954619215 -0.67277903527 -12.527182044 0.0673798817 0.88228538526 0.020570928934 
0.53718637606 20.734071534 -0.35791561612 3.6343254257 -108.42457003 0.10755897576 6.8199506661e-07 5.1893877281e-06 -0.015434932732 
10.131042909 33.492283085 -0.042654485027 4.9345105317e-06 1.8938232365e-05 -0.027888415002 0.98599085415 27.138698395 -56.927935165 
-0.017606700824 -7.6645629765 -0.99807941167 0.87778436316 14.430847488 0.0046982800067 0.1539976153 1.0325485482 -0.014280850689 
1.5469162993e-06 8.0346456019e-06 -0.033931090481 7.3015342405e-07 4.5489423484e-06 0.0029894406669 0.90034199188 6.1172625314 14.72626107 
-9.3729982632e-05 -0.00038427386416 -0.1226027884 -16.578505192 -34.541718633 0.036019310088 4.4179509495 10.328413565 0.0066043499346 
4.277581075 -129.83705231 0.31663291812 20.080424188 64.346406 -0.028093062858 0.051618598117 0.95368737161 0.0096365643432 
5.731680901 21.293897827 -0.031437152633 -7.343633147e-06 -3.5374110758e-05 -0.068697372439 19.728219419 45.990560626 0.088378136538 
0.54030227817 25.963968975 -0.57532782045 -0.9162667946 -3.4558330629 -0.00045802702524 -3.0661826284e-07 5.3595383509e-07 -0.0057814273021 
-4.4636822685e-06 -1.2940857536e-05 0.069714528462 0.00014923705175 0.0036849062804 0.057634694729 16.611255629 39.021688792 0.040341184401 
-1.9443692366e-06 -8.4357878455e-06 -0.023251158479 -0.12371434839 0.71023179039 8.1649116464 1.1453537227e-06 4.7075422138e-06 -0.0066619758849 
-0.10436868749 -0.74754099085 -13.507369827 14.882789432 -94.784017614 -0.25817970177 9.8338179872e-06 2.7461282449e-05 -0.0049442638867 
0.0055835216545 -0.2101082571 -0.0037716516358 3.0660474044e-08 2.3300972751e-08 -0.0028431590311 0.50667430647 1.0834295024 -0.047346659956 
-0.7719786426 -5.1037487516 0.00077687536084 9.2071415202 19.545632723 0.061879979871 4.2960902712 23.931681379 0.018752537325 
2.094861128e-05 5.0464286758e-05 -0.018416082193 -0.75728544801 16.216111496 -2.5085938292 7.7360165582 20.983935141 0.03012512126 
0.040194649825 2.3570353519 0.17928960775 7.2892343891 14.102964557 0.029355248471 0.098432041893 0.48590468877 -0.0032743321982 
8.5585602098 80.398997778 -0.032683707995 0.66608630149 14.139831164 -0.28497989782 0.56603381213 8.6164594736 0.051062005972 
6.0411285985e-07 6.1360977921e-06 -0.0041686650095 -3.1050153432e-06 -9.7813993957e-06 -0.032569595096 -4.0672773855e-06 -3.9641887925e-05 0.052852076266 
0.70486752673 9.4488132688 -0.99388580727 2.3938685782e-06 1.3662571998e-05 0.022366850245 -6.0225231669e-09 -5.613217836e-08 -0.00017306239702 
2.1911465543 11.78487355 0.0071658686651 0.019013289598 0.32086358829 0.0038651908735 3.4800723519 32.498410833 -0.22610438203 
2.445114718e-05 0.0001353372787 0.011490631223 1.0999852674 9.3642458037 -0.016624788002 -1.1751355336e-05 -3.6555275905e-05 -0.030148915133 
1.8521426739e-06 2.0383061559e-05 -0.016060589037 -7.5368319102e-06 -2.4846953177e-05 0.022090156219 5.0359172937e-06 2.5917818048e-06 0.028859816952 
5.5843152089 14.861499281 -0.030688555403 9.4699090974 42.294639069 -0.087342826967 0.36406760287 3.4816533722 0.0093018171811 
0.039614240967 -9.0709088631 0.4472514368 1.2282879612 43.819328489 0.21325441864 -15.600211717 -59.393695179 -0.1601622172 
11.171115114 22.099684844 -0.022570488632 -0.59514510886 7.0062675779 -16.39113391 -0.25355735831 11.390530773 2.7739693116 
9.5439751455e-07 3.4461937332e-06 -0.0077657892525 2.4106980166e-08 2.1265997478e-07 0.00069510944077 9.1711136334 25.0260285 -0.0048025252057 
0.06252455593 1.857804799 -0.033781377367 -3.647856758 -19.642021276 0.0080313497529 -0.0048178816663 -0.099991103649 0.0087055158733 
0.17358419374 0.62581935506 -0.028463657243 4.1716858734e-06 2.0414443995e-05 -0.013137165286 0.011282987741 0.085077976153 0.008345840943 
-8.6809284159 -44.546263454 -0.040268102379 -2.9184045209e-07 1.0113370873e-06 -0.0075767450053 3.0241591709e-06 0.0005225314722 0.040864161877 
0.033404729204 0.6370029215 -0.00019174850661 -2.4251545868e-07 -1.1181763883e-06 -0.0012777157647 -8.1921715727e-07 1.4069895427e-05 -0.028290994887 
8.9310634871e-06 -0.00521632916 0.045666529478 -3.8003032512 -17.612319087 0.00069919721265 0.18086440644 -2.8770564448 -0.24180854441 
0.013641084959 -0.21354966957 -4.8252873638 -0.54668333263 5.8430384476 1.6471648818 0.6039385707 2.7403533534 17.226717119 
0.16555933343 0.92215383551 0.74344457933 0.006093746387 0.41257015493 2.7952506412 -0.00014957765828 0.21752379089 -0.028493398296 
5.4273065535e-05 -0.061846471612 0.010209979239 -8.6854134376e-07 0.00025271561694 0.0061658272291 4.6256396276e-07 -8.1431335401e-07 -0.004260899339 
-6.0879841683e-07 -3.9021160939e-05 0.047698918342 -5.2926152547e-06 1.1910960759e-05 -0.018072158781 22.797863693 -173.60913242 -0.13348386178 
5.568642027 -180.95839402 0.43203279722 2.4632974888 -126.35143799 -0.59264503829 33.93022291 -135.38934693 -0.24607296479 
25.184589136 -157.94194921 0.36738125829 5.0591088381 -124.54183225 1.6228907489 39.177231346 -96.704033625 0.024450939952 
42.260341785 -129.88321037 0.99315894771 10.623821083 -104.10144049 -1.5042835251 7.9038721693 -35.215730891 -0.4111158131 
23.100402476 -64.333964046 -0.085684609875 14.421258613 -72.731693515 -0.35134641702 0.81924147465 75.003192391 0.58023548618 
5.4759974693 53.452531501 -0.57765146047 1.4561253309 9.0182374292 -0.36360172377 0.28345215233 23.376017127 0.57437063271 
3.1868356272 34.868924818 0.23201484525 -0.44116390499 -4.7630491739 0.76230955823 0.8598103682 4.8562155533 0.44451969839 
1.9164600249 19.217402469 -0.99629478234 4.9209830545 4.9562811387 -66.83865191 4.653290506 45.563103096 -35.279773687 
0.26889308767 19.26219674 -8.398167068 0.077225205134 1.2482015887 -2.9947767179 4.6956204571e-08 -3.9010367917e-07 -0.0010038116312 
-4.6094474586e-06 3.0606485059e-05 -0.025883654592 1.840942406e-05 -5.5384266873e-06 0.076321493342 5.7778319562e-07 1.675821975e-05 0.011264993183 
6.0830849584e-06 1.6495055313e-05 -0.062433370214 -8.1354173325e-07 -0.00010915111183 -0.071462901294 -1.1783149621e-05 1.1002442266e-05 -0.038277630979 
-7.5999511422e-06 -6.8911426453e-05 -0.027949145179 6.8995816182e-07 9.0802305066e-06 0.016559282385 1.1641743003e-06 8.539884772e-07 0.0061627628551 
-5.1999292827e-06 -0.00016102329083 0.062305417147 -2.9206298945e-05 3.1315515606e-05 0.077713413087 -1.0536489145e-06 -5.7691869733e-06 -0.013011624162 
1.9788068324e-05 0.00012380863219 -0.070627749187 -2.8299297332e-05 -4.0612923002e-05 0.1063803586 -3.186085478e-06 2.9099908206e-05 -0.023767484936 
-1.0671810487e-05 2.3824673333e-05 -0.048741212722 -6.5565589246e-06 1.1333662028e-05 0.030841210965 -4.8753949143e-06 -6.6986928758e-05 -0.017365818255 
-4.9730202182e-05 -1.6874882187e-05 0.11662042435 -1.6948694494e-05 -0.00023838515143 0.039094804024 1.6045409527e-05 0.00071873091387 0.053488263331 
2.5960211129e-05 0.00035863738391 -0.033330869311 9.3926149277e-06 0.0006802271528 -0.024827486744 -1.8508368511e-06 2.9121425574e-05 0.012541895177 
-3.1968855066e-05 -0.001568656862 -0.063181482371 -7.1589464161e-06 -0.020139051717 -0.12123209826 2.9367280902e-06 6.8628011042e-05 0.0096015902146 
-1.4204156035e-05 -0.0015505106577 -0.044224204725 -0.0064119603115 -0.014758279684 0.43041835635 -0.10485902063 0.72449275935 15.950952899 
-0.2593245079 -6.9945000915 -44.486284599 0.10309850348 -0.53516561138 15.26572574 -0.041751517534 -0.18360534445 -3.8697635718 
-0.056319459418 0.41390310532 9.119826171 -0.052124566459 0.36401333236 -13.002080007 -0.0013110895806 0.71874022731 -11.424849481 
-0.036253570922 -3.6818143445 -5.4524346298 -0.06801463981 -3.0843084855 -16.94887934 -0.3408242563 2.0397844817 -26.662909606 
0.075658893972 -2.4352297799 -6.7083644467 -0.10699084602 -0.68747046238 -7.1237729572 0.07660831045 -20.840995977 3.1641023967 
0.031578562393 0.13604236259 -20.753056826 -0.25667800706 6.9153709469 -2.0189999434 -0.0050056341769 1.39967859 -0.41146959724 
-0.015803574947 -0.25938421261 2.6744836809 -0.02677952846 2.119104298 2.2792504195 -0.11085779834 4.9283946398 0.85548603577 
0.023798618383 -1.2276782675 -0.19123359405 0.050517959081 -6.0225290264 -0.99015142267 0.0012097216458 6.1268495246 0.65514972006 
-0.10968321151 11.13509222 0.51906319863 -0.1633112336 -5.9113414267 -12.371376626 0.058431510534 -5.7454545359 -2.8391116903 
-0.12773947485 9.7840653993 3.1956985645 0.03183327965 -1.822557284 -3.4780714876 -0.063173505713 4.2440900365 0.47356922405 
0.057289441435 -1.69952891 -1.2670102474 0.0087961316475 1.4765037527 0.37326585222 0.0062039047979 1.7147687343 0.099683062148 
0.0028288624309 2.3083346471 -1.1276592376 -0.02664831255 4.7737171727 -1.0940929204 0.031562232145 2.9711781998 -0.16647966162 
-0.0037262099942 -0.30151994063 -1.0388059224 0.012666542515 0.67122320446 -0.012389119508 0.012180849737 0.76207925707 0.010995274617 
0.047708278529 1.8595012091 -0.1018359466 -0.0071654014321 -0.25963886851 -0.07525191305 -0.0090285792741 -0.34677287392 0.0377910054 
0.037409548403 1.0131236015 0.09032019697 0.12186984629 1.8910635258 0.07706413607 0.13564042793 2.5309368109 -0.029651115758 
-0.0017759547115 -0.066142984894 -0.036056003889 0.0054116547803 0.21144621552 -0.015667324023 0.038318908252 0.71533013867 -0.034906433931 
-0.00092770957871 -0.030948732214 0.0099055703036 -0.003070741298 -0.1057374643 0.026730767722 -0.0068664055034 -0.17904647172 -0.011236057509 
-0.038128941436 -0.55816018374 -0.065469109297 0.046661714177 0.72873741622 0.030490046355 -0.0002950896245 -0.0069772032211 -0.028609146007 
0.00069762257793 0.016874110128 -0.0071155375723 -0.033901159592 -0.48027864706 0.039069577343 -0.00016960492752 -0.0069591391406 -0.028136989369 
0.00051995298777 0.021796642797 -0.023928077814 -0.0061412684838 -0.094065752575 0.02972435014 0.00018714674868 0.0068753215695 0.072484046374 
5.3658798105e-05 0.0018845979265 -0.0054468890102 -0.00090686058504 -0.017753460358 0.0039069514285 -7.4498382008e-05 -0.0035803445076 0.086061885116 
-1.781955697e-05 -0.0006967982462 0.0067644850853 0.00056519832978 0.011040181937 -0.051726801265 1.3648304959e-07 0.00098626685013 -0.017846561306 
-5.6470679281e-05 -0.0035226819227 0.099336317222 0.0001978665658 0.0058339428333 -0.04817284296 4.6525041638e-06 -2.4642034075e-05 -0.017060333608 
-2.2145932966e-05 -0.00037738357646 -0.008102421729 2.6384033963e-08 0.00012089172143 -0.0026108917843 2.4508982933e-05 0.00053629033914 -0.04363966211 
6.8389697506e-06 0.00077306304256 -0.011327635102 -5.3363854195e-05 0.0071043788629 -0.11201167891 3.5613052415 97.370208921 -0.040563260311 
4.579641411 67.719418898 0.033107089832 2.5432165973 103.92028518 0.1628112807 6.1434346584 37.726158665 -0.062137692195 
4.5997453391 22.346650525 0.13618565462 8.5111162603 50.458427731 0.40596436755 12.141850946 61.246244106 0.30533589164 
12.350932488 35.117117563 -0.079341206572 3.5481600475 13.791587205 -0.043896541787 1.1430850362 4.3126532518 0.080645847163 
6.869995002 17.419375773 0.087438746357 0.00043678241901 0.0014929967035 -0.032378636078 0.00010840368385 0.0002655906465 -0.028107045776 
2.3647999217 5.3453102347 0.081969800597 -0.00020352800657 -0.00026133117713 -0.10390397382 4.2140768143e-05 3.5456842244e-05 -0.046502698351 
-0.00011466682548 0.00022965107115 0.06821645111 -2.9369636833e-06 6.2854300487e-06 -0.020316822732 -1.4412541412e-06 4.6134960001e-07 0.010752695778 
7.262995719e-05 6.4503387849e-05 0.0469905125 -5.5006076223e-06 0.00012221281125 -0.089375454216 3.1288614596e-05 5.3959627414e-05 -0.057709591832 
0.000135186297 0.00012204408588 0.095508314411 -3.2805611074e-06 5.1305603469e-06 -0.020190901893 6.894312304e-06 9.8585388861e-06 -0.013826849142 
2.5171205254e-05 6.0542263396e-06 0.053796652367 -9.0578048714e-06 2.9291693082e-06 -0.027116390919 5.7492065608e-06 1.5095320645e-05 -0.029935359445 
-1.7128738395e-07 3.0679982269e-08 0.0005103189767 -1.6249103627e-07 2.987785253e-06 -0.0076177666976 6.5173826845e-06 1.6534516107e-05 -0.032144092478 
-5.5882423605e-06 -7.3373050561e-06 0.024904996578 -1.3487790428e-06 3.6244769356e-06 -0.012859331078 -1.5591899665e-07 -3.8007323678e-06 -0.028075652514 
-1.1142335953e-05 -1.4948041644e-05 0.043453046851 6.3049699298e-06 -2.7419255216e-05 -0.049283217492 6.5399805695e-06 6.1349697342e-06 -0.015435067497 
8.011086142e-07 -6.153216267e-05 0.03004633645 6.0149879086e-07 7.0386936078e-06 0.011925562705 -9.2062775393e-07 -1.1763943198e-05 -0.011946818696 
-8.3480702895e-07 1.8377510375e-06 -0.0042748442101 3.0275118462e-05 -3.6466503465e-06 -0.089008455272 -2.934837162e-06 -1.5044304454e-05 0.0083158905055 
-5.9316334987e-06 6.2990656527e-07 0.036749165596 7.2864223338 25.939155229 -0.042411137733 9.4895768636 30.068730523 0.014903010931 
-7.8778560673 -29.160985514 0.068494535996 5.9307077876 23.355915192 -0.08868350101 7.0421260371 23.701350012 -0.087260424701 
7.0929859233 21.953059173 -0.054095077579 5.6869705034 19.418368259 0.034644255866 6.6265351655 19.257325261 0.0019509652074 
8.120910846 23.352660417 0.045048492671 10.138217045 27.803768298 0.04206244695 11.036170861 31.661473075 -0.079847594815 
9.5709297551 24.864520769 -0.02944618327 -3.9422719661e-05 -6.4352813187e-05 0.048551815693 0.00021556457855 0.00080918163179 -0.13333859852 
3.0249785692e-05 0.00012432288383 -0.023841961248 -0.00021227318757 -0.00089306232419 -0.095735622236 5.2011212406e-05 0.00023213663518 0.063369256312 
1.7926622137e-05 4.1421909504e-05 0.01728446324 -7.3903181779e-05 -0.00021079189355 -0.049095583344 -5.0783440558e-05 -0.00017011968337 -0.037289912034 
2.2007950526e-06 -1.1357185919e-05 0.011022117837 -9.2211072757e-06 -5.7630556379e-05 0.034766600702 1.7199855135e-05 6.789849112e-05 -0.057274214311 
2.4558272827e-07 -7.5806807328e-06 0.013413950285 2.0932399185e-05 5.1896538339e-05 0.031575965137 -9.7283510942e-05 -0.00022979015383 -0.040976427732 
2.1576741759 21.355753271 -0.2343176164 3.7096027296 26.087589818 -0.04254857164 2.9790605705 24.591815022 -0.094532498914 
1.0109957234 15.855736333 -0.2119019064 1.4702243535 17.777826352 0.0028611797976 2.73936458 25.173970239 -0.035746475909 
5.0063050592 32.229911746 0.11592366618 2.2047051509 26.117471824 -0.32797371084 1.038132928 19.40280836 -0.25250945893 
0.35591877661 11.365221841 -0.6686120689 0.36996064245 12.131905083 -0.76282909063 -0.66744187145 14.750730089 -0.59717891772 
0.15226523883 9.8616612279 -0.77212926269 0.095533411069 16.725408388 -1.0002438493 1.6418223827 6.1155536265 0.050838365522 
2.4448142482 8.4334112698 -0.038687873612 2.0229139197 7.9044486701 0.049159722 1.1396172497 4.5466068601 -0.029750095289 
1.3217899715 4.6723961282 0.040433419958 1.5615347201 7.0605917744 -0.027767716353 1.1858663616 6.239726108 -0.029248029287 
1.0403072844 5.064220072 -0.009157766987 2.3455338181 9.7164845072 0.025768905754 0.66903138505 3.5514017435 0.085305106671 
0.8871168273 4.0654595025 -0.029625836887 0.72959976797 3.1239713472 -0.042801713517 1.2874197597 3.0466379432 -0.035044286757 
3.3443852007 7.876904082 0.028525426818 1.9398950081 4.8310323053 -0.10150163286 -0.00043823786377 -0.00093335987734 -0.084259918272 
-0.01950596303 -0.045048873303 -0.074315985853 1.052551311 2.7795676632 0.029051526631 2.4834556471 6.5880727905 0.052250053141 
0.62909524408 1.7446131396 0.0057594992438 -0.00016702848987 -0.00046917719535 0.031744018799 6.4765592701e-05 0.00014772772877 -0.17337422318 
3.9680896443e-05 8.3911080263e-05 -0.013387977122 5.5302793809e-08 -7.9240508989e-06 -0.0060306229969 -3.7030065662e-07 6.3797403135e-08 0.0012628935915 
3.2714684443e-06 -1.0394159405e-05 -0.050985908246 -2.757915093e-06 -1.3158032767e-05 0.010456340954 -4.2830017009e-07 -1.2865558621e-05 -0.016937807243 
4.1940823011e-06 1.8871939864e-05 0.034258257544 9.2877094417e-07 3.893640827e-05 0.060528280726 2.6571136673e-06 -1.7645147332e-05 -0.031837692676 
-1.1007548189e-05 -8.4269883248e-06 -0.050256955119 -7.2007737847e-06 6.2678731223e-05 -0.081900978615 6.0968516856e-06 -2.9966013834e-05 0.057014250329 
1.2584184317e-06 3.6758746771e-05 -0.061643188987 4.0241242683e-08 8.7890499061e-08 -0.00063159790263 6.8218326791e-06 1.3515748911e-05 0.028709512244 
-1.94584376e-06 1.7630803876e-05 0.03000145022 6.3574331486e-06 1.2609547266e-05 0.018714164185 -4.4075533691e-06 -2.312849359e-05 -0.014297385615 
1.0236323145e-05 4.4850255398e-05 0.034735147462 3.6695424087e-07 7.2358214932e-06 -0.0039179755145 2.5745936693e-06 1.5684613192e-05 -0.0056827922944 
-5.6661108575e-07 -6.237831062e-06 0.0020168109189 -3.3897682232e-06 3.8693428961e-07 -0.021125083941 -6.5358955149e-07 -3.058823115e-05 0.028667355956 
8.9606109565e-06 5.5669905536e-05 -0.018023163913 1.2243199483e-05 7.8129264901e-05 -0.050570533495 4.2349810737e-06 -6.0463415332e-06 -0.022365787142 
-2.2696449348e-07 6.7684678177e-07 -0.0096833095748 -0.88636856324 27.876665301 3.9601419701 -1.9071636869 19.167365021 2.1130523595 
-0.47431174563 30.482940172 0.24744582535 -0.17905161136 16.090160383 -0.59238228973 -0.67539497573 22.555068572 0.40450217322 
0.1352597341 28.918559247 -0.8162159165 -0.11282651746 18.071655428 0.19192427113 -0.19381256 13.05967383 0.46325332869 
-0.3393319423 17.0466122 -1.1716167447 0.12822559947 -16.897848613 -1.7932761808 0.02116313784 -14.524630409 -0.23943009887 
0.11114543898 -9.7533658652 -2.0103907975 19.146844049 50.288522195 -0.1325152971 20.592243347 55.252559209 0.066761694177 
19.859431356 58.20208008 0.076210411473 17.909821179 46.210870908 0.24487387877 18.267938426 42.548609826 0.042641552483 
-18.518434948 -40.708934075 -0.063924979012 18.399138518 39.982877759 0.03039629769 19.974864135 46.957653791 0.066933804443 
16.626361791 37.089683712 0.023879508536 20.19084586 54.522038509 0.19521107128 2.2533086991 18.491332713 0.1668799148 
1.5212643525 16.858817909 -0.055631377636 1.3005858631 13.856681277 0.027915977394 2.9453725382 19.488150834 0.13050019439 
3.4207493671 22.801823493 0.090144872233 2.0981481635 14.615337306 -0.044681451075 1.4997791286 12.461290958 -0.083544443381 
1.6491766864 11.665842123 -0.024328679961 2.9227018875 16.695857715 0.02657366952 -2.6894782513 -17.549625223 -0.0023026867829 
0.75332713546 11.684242438 -0.086263841761 -1.0840352052 -11.545284451 -0.034460225517 4.032362785 21.972879466 -0.051636938829 
0.81581494975 8.8990327492 -0.072929119526 2.6968763779e-06 1.7735609743e-05 0.022467734519 -2.5188391979e-05 -6.0318879255e-05 -0.041710966609 
-8.5192807034e-06 -2.9102952709e-05 -0.024106947356 4.8512195078e-07 9.89904278e-06 -0.028227801188 -3.8847065324e-06 -1.3991440502e-05 0.021054622413 
1.4321803497e-06 4.7788215986e-06 0.0030687372468 -2.0885343636e-06 -2.7403556742e-06 -0.043575590184 1.0170725373e-05 4.6830954033e-05 0.037298202253 
-2.1260497289e-05 -6.3432443642e-06 -0.067209562619 1.0430433071e-05 4.3019788753e-05 0.032907769612 -2.0971254562e-06 -6.5800272008e-06 0.0053846599247 
1.5662812487e-05 4.5888346179e-05 0.02007440574 6.2408249217e-05 0.00039782021149 -0.014036335541 0.0001001596278 0.00056497524883 0.035778793324 
2.6090795691e-05 0.00012864560755 0.033699290744 0.00026871860473 0.0018324155801 -0.051275478188 -1.9901783352e-05 -0.00014085461561 0.00248936216 
0.065963364932 0.41166976909 -0.026254028743 -0.0087424589398 -0.046832186755 -0.012291102172 0.13818990506 0.78767246634 0.012265038395 
0.071804965104 0.51011735892 0.019113636129 -0.00048974029505 -0.0025028322444 -0.035023903066 3.2868724297 6.6786689134 -0.031400528474 
3.1232374289 6.3848602844 -0.11435290573 0.51777942202 1.1011073039 -0.02161845732 3.8330504492 7.7054805478 -0.088194642811 
6.6109247352 12.952871649 0.02664704246 -4.1443210394 -8.7186116478 0.0088511685866 1.8061433874 3.9282555015 -0.049137920367 
7.6202850141 15.736708826 0.021488192791 5.980521211 12.919636605 0.022828566456 8.6008467676 16.976051901 -0.065382555147 
10.10651641 20.758191753 -0.012029259127 9.2601555271 18.149258426 0.0045371996031 11.571911825 54.241733515 0.23495101358 
14.205761776 55.096812522 0.14922478117 12.120557949 61.283672594 0.35208409641 9.4199556259 50.463927477 0.014341894208 
10.72497635 48.4779853 0.063484439212 15.373765627 52.69704768 -0.031485927305 -13.101694411 -47.398420881 0.013890926959 
15.466114645 48.050705552 0.026385550513 17.271728383 56.303949281 -0.27730100925 11.129192047 46.03730825 -0.048475148935 
11.088678284 43.187612239 0.002206511324 9.0704291437 43.36687857 0.17330272537 -1.5243498317e-07 -8.7061440033e-06 -0.0062386333114 
-2.2568347102e-05 -0.00021133923108 -0.090152648011 -1.6269151295e-06 -2.847039586e-05 -0.012350636466 -4.3993073479e-07 3.8502929164e-07 -0.0019941843638 
-1.8706144535e-06 -2.9444468622e-05 0.027039297357 -1.2266860647e-05 -7.4464527112e-05 0.030775481281 -1.5035016736e-06 8.2978984546e-06 -0.013378183899 
-4.4233005675e-06 -3.2346183303e-05 0.026875561227 -5.4481889344e-07 -1.4863894136e-06 0.0013261583826 6.8933332779e-06 3.3748003944e-05 -0.04678569706 
-1.040682647e-07 -2.0159371536e-05 0.022115002778 1.29713982 7.5893036603 0.0081423263107 0.88122992181 6.0695821869 -0.042634581471 
1.1884663415 6.6730262822 -0.023963113939 2.0060716126 10.199118678 0.043580143459 1.4701620475 9.085838206 0.028486998414 
0.52722888945 5.0092501777 0.0091678703125 1.0291484596 8.0146186207 0.034550163253 0.57376024284 6.0211234333 -0.0096635427808 
0.29296817092 3.2902321888 0.039774872616 0.61929352193 5.1040653071 0.0082242232791 0.54712610387 4.3044100925 -0.0047956434261 
-1.5907084642 -10.567743899 0.018096274536 1.1319671145 3.6722425215 -0.061089101838 0.81531871074 2.4458046348 0.0067293595389 
1.8457236846 5.6115685206 -0.0087787314078 0.67513679346 2.3435439156 0.014593232099 -0.00038967467291 -0.0011433404009 -0.011800488472 
0.0017423269366 0.0059361555599 0.12308049712 0.00073894215583 0.0022992779428 -0.084622886191 0.23046056957 0.78267922618 0.0039125936759 
0.00034273849489 0.0012293985898 -0.055800068831 1.6276852229e-06 2.2192453995e-05 0.023215804442 0.58296797304 2.1458584348 -0.030429194755 
2.7261005771 8.5250826264 0.014224934389 2.8327165177 8.1012149214 -0.042636963986 3.4131803752 11.092260326 0.041044864567 
3.8504890661 10.457224213 0.03382096582 4.527818539 11.720442128 -0.016628598014 4.6421637407 13.003570191 0.039200538451 
4.7761450163 14.47269134 0.097603938751 4.0954876513 13.789096013 0.054029909493 5.6473919763 16.317742649 0.0092082257689 
-0.31190698051 16.505244142 -0.38215476356 -0.041437108549 8.5525133791 -1.4535215352 -0.25400126427 7.5783441464 1.4414075383 
-1.0776807886 15.52520233 -0.62713667007 -0.068765798277 2.7968197928 -12.543943939 -0.30727907367 10.447049176 2.4525767257 
-0.19381034403 5.7883198912 3.5015301074 -0.33584133746 17.937209141 0.21996466778 -0.064793093186 6.7087597465 -0.57759665759 
-0.037105093587 5.3202800171 0.91701691634 -1.1667956161 22.543238755 -3.0042100882 -0.91688322289 16.905833473 -2.7372974832 
-0.80561065984 18.071286521 -2.9295278038 0.14548943785 21.63258896 -0.16200035574 -0.53051927695 15.825157831 -4.0572235623 
-1.528340735 19.903570096 -8.4807756948 0.42734367247 14.444690885 -1.2453345784 0.32439930771 18.729382881 -4.6299668634 
1.3870709886 22.256889295 -0.97693695497 1.4904410651 26.809781142 -0.65584336263 3.3107475014 29.06538532 -0.58762448004 
1.7613977342 25.982241286 -0.28611334803 -1.030580156e-06 4.6926947058e-06 0.0064875584108 2.262803208e-07 -6.5957977923e-06 -0.027635090701 
-6.9284860617e-06 8.3946477143e-06 0.038716192918 -1.0679164965e-06 -3.8723071621e-06 0.014247604792 5.0286303643e-07 -4.6907201717e-06 0.0089866915977 
-5.9131209047e-06 -4.148974728e-06 0.026841179137 -5.5875981988e-06 6.0844535555e-05 -0.080546828125 -5.8761473753e-06 -1.4029207516e-05 0.026154995299 
-9.4862577722e-08 5.6886342783e-08 0.00092470518553 1.2701053136e-06 1.279099922e-06 -0.0044913524609 -5.6070746868e-06 9.2311542688e-05 0.080124375667 
-1.1732684244e-05 -2.1931620668e-06 -0.026293220312 0.00020209250929 0.0021103603045 -0.067426041768 0.00066550814891 0.0087036403978 0.087980611216 
4.6458665702e-06 3.823043184e-05 0.0036897806802 -4.8903826139e-05 -0.00040728074221 -0.023630454327 -3.1223618714e-05 -0.00019636692981 -0.015047950365 
3.5015460614e-06 3.2394193919e-05 0.0030112223589 -0.00016653486025 -0.0011655344328 -0.068911442472 -0.00019359579213 -0.0017992309735 -0.089972420823 
3.5173786389e-06 3.2522937236e-05 -0.0076178973449 -1.8477986978e-05 -0.00015640321006 -0.019766573335 -7.8954561656e-05 -0.00077314110068 0.039519213208 
1.214549174e-05 0.00013734803302 0.035229245427 4.6376923309e-06 5.5388593767e-05 0.021735741223 7.9144826027e-07 -1.6253845202e-05 0.015924850817 
7.0322361636e-08 -1.0909865701e-07 0.00031994064597 -2.7233717351e-06 -0.00023937570121 0.058124319545 2.3238503531e-06 3.8821346992e-05 -0.016119677679 
7.3007486542e-07 8.3601642281e-06 -0.012665860877 1.3436637044e-06 2.6713196827e-05 -0.0040857530891 -1.1925894011e-05 -0.00038781530821 0.081421636833 
1.1289570776e-06 9.0070812324e-05 -0.016568183871 2.194329796e-05 0.0034465469862 0.043740173975 3.751843763e-05 9.8855352269e-05 -0.10069575173 
6.0954890577e-06 3.6230115733e-06 -0.022677930407 -4.4327274245e-06 -3.5885492463e-05 0.039259539917 -9.4982872107e-06 -5.5357261533e-06 0.052376419574 
6.4298901422e-06 6.4393794812e-05 -0.08599470246 -1.4054208603e-06 -1.6247845189e-05 -0.033788146386 -3.7476420796e-06 -1.1250753363e-05 0.029102963361 
-5.9182724603e-06 6.5548451728e-06 0.052270274436 3.19293159e-06 -1.5357796758e-05 -0.041932673072 -5.8884868294e-06 6.5619194129e-06 0.03504719564 
4.8758159199 27.752703869 -0.016202099805 6.5062545328 32.636660114 0.079952083651 5.9047914568 28.700557983 0.030671284157 
7.1057701579 29.971394707 -0.13786433158 8.9378971679 33.829093613 -0.12098204239 -5.1225113484 -24.640743162 0.010738922434 
-10.094151427 -38.329112858 0.092875977518 11.516182878 38.455546228 -0.15890483151 8.6737235459 38.017051271 0.13994440197 
7.1590434253 36.554498922 0.057314504252 -0.013575669326 4.5081983123 -1.2192173611 -0.2718704974 13.398957887 -1.0583856243 
0.33092738207 8.9375347828 -0.074011239942 0.27090480076 10.176476912 -0.31959195829 -0.24793885779 8.6124445255 1.9243843481 
-0.39453024569 13.983197122 -0.87721482017 0.30924629052 12.951659395 -0.97248961865 0.78383339849 14.049240421 -0.016405275602 
0.2311398487 1.9258026811 0.050610352462 0.41464103968 2.6952084768 0.051183025805 0.45993869557 3.2653793388 0.033356488178 
0.13207923531 1.4461302549 -0.025839044591 0.14055220199 1.3565893847 0.046011421242 0.084138015326 0.7873199414 -0.037376248555 
0.049549689377 0.42855405062 0.0093966040914 0.20021998795 1.4234470253 -0.052525678106 0.078326171956 0.81506467968 -0.0060771432612 
0.35623978893 2.1407617454 0.016154797042 0.27392960979 1.570372429 -0.038232830684 -9.8901945915e-06 -2.0259267167e-05 0.014620320169 
1.2408616973e-06 9.2002146595e-06 -0.00620710672 3.2130187842e-05 8.9124546876e-05 0.10370846364 3.6274430764e-06 2.9319591564e-07 0.0099565220706 
-4.0252658396e-06 0.00010132310122 -0.073803040925 -0.00015089850417 -0.00065284606806 0.12515050815 -3.3042233861e-05 -8.0681562551e-05 0.015118851322 
-3.1710269215e-05 -2.3229732258e-05 0.034424939136 2.118322528e-05 6.8038714871e-06 -0.032412600396 2.9507033704e-05 7.6795495006e-05 -0.018093681607 
-1.5970014517e-05 -7.4735973359e-05 0.038726452729 2.0699016213e-06 4.380822006e-06 -0.0034519649438 1.8748780758e-07 -4.1727939639e-06 -0.037336434232 
3.3397186001e-07 -1.1791714137e-06 -0.0031164413648 4.007665032e-05 0.00020987788952 -0.10493599367 -9.1386004255e-06 -2.115314284e-05 0.017808917701 
1.6849808462e-05 8.5330972531e-05 -0.027977871011 -4.787613683e-05 -0.0002225414929 0.12052162156 -8.5857130347e-06 -4.2146358922e-05 0.034943729094 
-3.9593209411e-05 -9.473354357e-05 -0.057599090124 -3.8325140965e-06 5.1195527111e-05 -0.053223170876 1.5367060526e-06 4.5435880653e-05 0.052292330432 
-2.7642712921e-06 -1.1339966208e-05 -0.006898571326 -1.9218527954e-05 -5.1260209939e-05 -0.039381725366 -3.8480670685e-06 -2.722476151e-05 -0.033796723314 
8.7725313485e-06 3.2102560865e-05 0.026502898169 1.7378108352e-05 1.2020625993e-05 -0.050685672649 0.13777593105 -6.4763152613 0.63434495495 
-0.16373997739 9.0249379392 -0.91651172189 0.0051312173473 -0.40543070541 0.21998456993 0.045245044274 -1.255519108 0.29784350424 
0.059448294551 -1.8556440141 0.31988342761 0.22817552657 -12.178170922 -0.59203413898 -0.084086687833 2.2748907426 -0.3426719213 
-1.1170204167 22.142932215 -3.3067268454 -0.57424434285 11.823251694 -0.64414965522 2.5716482043 11.37081919 -0.043440445079 
3.3076448355 12.587743331 -0.051032390496 -2.8519950636 -13.217419005 0.021610243056 4.5912486293 16.25458053 0.060304971798 
4.6152859557 17.884009471 0.040906056195 4.733097871 19.535354951 -0.0070451619423 3.7220345592 16.087838121 -0.032356532758 
-2.8991622692 -14.489825757 0.026667700781 -6.3355288239e-06 2.9269891626e-06 0.022184730128 1.9135533404e-06 -2.1372035595e-06 -0.013684090273 
-8.0755528986e-06 -5.2495908283e-05 0.050674691597 -6.3129369289e-06 4.5686046483e-08 -0.058888779749 1.5113448034e-06 3.5390266808e-06 0.0062441149675 
2.4927472872e-06 1.3227866513e-05 0.021642670136 3.4872938833e-06 3.2717051118e-06 -0.019003634467 -9.6991727777e-07 -1.8233665533e-06 0.0097449728027 
-7.0085093437e-06 -6.1490436868e-05 0.021701098674 5.0318486241e-06 3.3950144131e-05 -0.014375845875 3.0584375244e-07 -6.8851210212e-07 -0.0013579710123 
1.423999099e-05 4.7892961794e-05 -0.034301570352 2.5749377828e-05 0.00018562302512 -0.049829323019 -3.0284557684e-06 -2.5857575971e-05 0.014398359892 
1.6217136343e-05 0.0001110658799 -0.028445729243 -2.7522992953e-05 -8.9961720661e-05 0.029527308481 -4.4105590807e-06 -5.911295436e-06 0.017515255817 
2.9289751199e-05 0.00013587163709 -0.021741750842 -1.694439908e-05 -8.1815269036e-05 -0.020623350026 -3.9306400617e-06 -3.175696747e-05 -0.0070256112672 
4.7967935025e-05 0.00018733901273 0.046819155383 0.9636307705 31.93201816 3.3099121453 -0.90044682949 -2.9195071074 -23.240948281 
4.877140403 62.249633555 -9.9321347538 0.36597370625 12.008403023 -1.2408699299 0.47993049845 36.367680766 5.0935473117 
0.067742605958 -0.41516483264 11.363471091 -0.2591901281 -12.423493208 -1.3997481918 4.3876621737e-05 -0.00046057806557 -0.015727148176 
2.8243790874 30.47658825 29.853121949 5.0923219203 11.703261667 -0.031730075011 5.289902028 12.915286736 0.076106775914 
8.1280831053 18.217828952 0.020042938085 6.3299644522 15.885996526 0.0080792249834 9.542639744 23.09789498 -0.12008907512 
10.583647338 24.407058378 -0.049522953884 7.5245415783 19.143250327 -0.030970336571 6.7851561062 18.188535805 0.037282945252 
-1.6078752589e-05 -3.9670453188e-05 0.010711468212 3.159471925e-05 -7.3792852603e-05 0.064432104465 1.8661591333e-05 0.00036706868028 -0.10299684212 
-6.0176184043e-05 -0.00024307182329 0.043295714525 -0.00056719150917 -0.0012943898322 0.08602841126 1.1486383326e-05 4.2863326509e-05 -0.0044661143151 
14.69605128 34.857076824 0.089296990308 17.895552807 46.360461911 0.22139004594 16.821651757 35.802229827 0.21294540506 
11.570245021 25.821663005 0.043585324837 15.017013646 30.629563362 -0.0037242693011 -14.023142109 -28.331118027 -0.05933520569 
12.254219663 23.978389291 0.066568047676 8.8157499026 18.459531141 0.10984431919 10.161524002 19.956415256 0.12852319581 
6.0397460319 12.386371235 0.097143398051 15.685944623 58.583092063 0.21729236416 18.544141788 58.46875182 0.12180451768 
11.994649103 78.294502827 -0.060476205927 7.6189477348 89.597095969 0.56184036874 5.401026648 100.34728596 0.22757173179 
-11.430642357 -84.259652766 0.02004671841 18.280060203 68.973673651 0.10004055046 16.36141044 46.525223368 0.054483768704 
13.675253182 42.112859932 -0.071631975004 15.677745446 40.41570522 0.013027699836 12.243965726 37.09998676 -0.0067772965004 
13.464059708 35.166271787 -0.18566444334 13.93916129 33.780031564 -0.083121252645 10.444350747 67.104420712 0.016088826996 
3.5133736644 82.845501243 0.058841235974 15.389158227 64.716126232 0.11072102857 17.655642632 61.456012589 -0.033611509677 
-17.176547233 -67.625783228 -0.17966162403 7.6171388618 87.159998331 -0.24147050465 0.000358661545 0.0015323344348 -0.044625779452 
-0.00029800836498 -0.001185098237 0.040525302387 0.13157742618 0.5888003558 -0.023443408693 0.00014873370444 0.00078430922775 0.069814387402 
0.19920296073 0.762165609 0.0039045701318 0.40139300621 1.7995240378 -0.0086207986305 0.54286235354 2.1268510438 -0.033259750216 
0.32970288493 1.6300482899 -0.069350607533 3.3257304256e-06 -0.00010252544357 0.090953026476 -3.1516408359e-05 -9.1564547677e-05 0.050386839403 
-2.3808848534e-06 -7.1562268494e-06 0.0025924177877 2.1918040114e-06 -7.8667751119e-06 -0.018302401309 -0.00015093664581 -0.00042664680028 -0.064379698267 
-2.7583613095e-05 1.2323762174e-05 0.081632280996 0.29798167072 4.3340621682 -0.051387483869 0.65079214786 7.2536386563 -0.031052002643 
0.17028439893 3.4759773858 -0.031320492129 0.16186188414 4.0185579218 -0.1141158986 0.45992022518 7.0281970374 -0.081994424366 
0.24013222286 5.7090614576 -0.049448927987 -0.045759174191 -7.3360200122 -1.1652862658 -0.12164169562 14.327628231 -0.36325699355 
0.20047770149 -21.210936351 -2.7838844198 -0.0036730744787 0.2368046862 0.13583976694 -0.078836659969 3.6435801839 0.071446412448 
0.76506803857 4.6941918103 0.051092956793 0.45104969314 3.4855311649 0.021994727234 0.099577118943 1.2457228227 -0.00089259000955 
0.11857692548 1.4921842045 -0.034932872746 0.31279753062 2.9369163378 0.01609699349 0.16746632993 2.108826696 0.019863652052 
7.3076878551e-06 -5.585003348e-06 -0.069587485709 -3.0099142824e-05 -0.0002723370415 -0.048150275896 -0.00010122489677 -0.0011949213643 0.15727452465 
7.6025995623 49.327723863 0.027702543013 4.2418343135 42.541167652 0.2714825358 7.4770144958 42.055084854 -0.13853634188 
4.4233065553 32.683390024 -0.13693059685 4.7791880747 36.167052559 -0.19597025701 5.7030280601 38.838527466 -0.19189913374 
6.6978346098e-07 2.5587589015e-06 0.0043982213137 2.2935476044e-05 8.0402621237e-05 -0.075877481768 1.7882835619e-07 6.8594196244e-06 0.018255174941 
-0.0076732362453 -0.085009033171 0.04145896587 -5.4469432038e-05 -0.00079401162232 0.014506632984 -0.0036911382593 -0.031859506414 0.12062319115 
0.024026627319 0.22453554205 -0.011932550044 12.73714739 29.338533804 0.015147109587 15.230232965 34.103437016 -0.12325487955 
11.347524968 24.20669245 0.096604786255 14.980293318 31.571107118 -0.044440288371 12.397426538 25.651099503 0.047252559835 
4.8492347123 21.378650528 -0.052938499362 -4.7204605657 -22.279511875 0.056294180395 3.7342323427 18.623444712 0.020551835049 
0.2301586399 6.0313474697 -0.040248728182 1.8666061435e-06 1.3273436704e-05 -0.0087897435828 1.5258823345e-08 3.6810902499e-08 -7.7895392223e-05 
1.5888543344e-05 4.7845071013e-05 -0.057351199579 -1.4903595623e-06 -1.051774243e-05 -0.013020757567 -2.6936487645e-06 -5.9080611481e-06 -0.0055127768663 
-2.7039485997e-06 1.6116152377e-06 -0.024404091196 -6.7934148621 -37.680645197 0.048830505502 4.069923566 32.444619804 -0.36705830866 
6.444287469 38.528281882 -0.016846059009 2.277417573 12.964146521 0.025100010471 3.0036501392 15.809514621 0.0066962904864 
-50.699070928 68.17130089 0.38401630779 2.9027077538 -3.1966184779 1.2838388651 72.735480944 -138.85047291 -1.0706540203 
-57.936818367 197.71905064 0.69665420717 -24.699643068 236.85961023 0.088022314995 -1.825113279 -4.7679076334 0.61637077655 
4.8751021861 7.9256121346 -28.392862418 0.19126297625 1.3757126113 -0.36820691338 -0.0063698550815 -0.20727988331 -0.35856786694 
-0.12693614194 -10.99125573 -8.9578886839 1.5646459945 20.431645349 15.775807299 -2.3271591497 -10.704540107 3.1253421591 
13.54891889 -238.37609071 1.0150420972 -13.69056026 242.77415665 1.4613778357 -35.455455325 231.49049662 0.97680937336 
35.016807536 -234.22155179 0.042135557362 -49.279954216 211.23149755 1.6802782978 65.876377788 -184.60488571 1.1046270749 
-41.71946076 221.84634735 0.99226621927 70.459791218 -121.46587471 0.18949368146 -73.085603998 158.63699379 1.1242203062 
71.660210017 -171.10904751 -0.8897244579 45.132067775 -53.48759324 0.24739055267 -58.475616277 83.778032947 0.0056597259785 
-62.728851676 100.92363491 0.73662760356 -18.075790671 19.628621908 0.46633452473 -0.88236143529 -1.1876413186 -0.05511745986 
-31.464984665 36.094612761 0.30152033438 -0.68213985953 -1.3622201024 -0.060479997721 -5.6869803564 -22.280577069 2.9757809417 
-1.1308975307 -2.0612902697 -0.15146296346 -4.0838427336 -16.340424272 10.978428918 0.30586329407 -4.8996204721 -13.544900741 
0.29458125184 1.5451450336 -2.1185944701 -3.2396932249 -21.070890882 -9.0236397589 66.13853351 -184.71042843 -1.4653237651 
-50.151102813 206.94456911 -0.3752199249 -71.76686757 153.66669969 0.54029249098 -67.088387827 119.47468468 1.2136168953 
-56.550389566 81.943798282 -0.055867285278 44.646451335 -50.640694126 -2.1440243447 3.7844232866 6.1026545264 0.61109279913 
-17.471198146 17.658553039 -0.71370451217 -2.7982909156 0.18068189139 -17.046833701 0.43543564673 0.8810876612 0.025817915647 
3.465152318 9.9210748713 -13.807007528 -10.401241033 -24.402214714 11.664195546 1.2584059632e-05 -3.6680554822e-05 0.10616902068 
1.7941180978e-05 -6.4266735404e-05 0.076149032552 1.0150876919e-05 -8.3346943438e-05 0.046424423391 -6.2054811716e-06 -0.00019302015396 0.066566400777 
5.7093363565e-08 0.00020224867487 -0.038350378704 -1.5796655635e-06 0.0010013294313 -0.093237224808 1.512353448e-05 0.00066330706739 -0.061398763442 
-0.00062395697293 0.49451858688 0.071868788434 -3.1481289179e-06 4.9401327522e-05 -0.012165590559 -3.9988481928e-05 -0.20231279576 -0.1278405786 
-0.00026699743199 0.23989647356 0.040020670313 -0.00021676360969 0.22312920498 0.022338975189 -0.0011786783945 0.85713377285 0.1079265828 
1.1701148542e-05 -8.2681586137e-05 0.13021971327 8.5504964733e-06 4.2178022301e-06 0.060821652868 6.1492913999e-06 -8.1535529755e-05 0.1034902481 
-0.0010922849585 0.89223967126 0.074744585058 3.8525310855e-05 -3.5725533759e-05 0.20281700466 2.043336899e-05 -0.00018286325783 0.27726410993 
-3.1329841834e-06 -6.1904751601e-05 0.069127588 1.0129756783e-05 -6.3309751804e-05 0.1167379508 1.7352325889e-05 -1.58012238e-05 0.032337629976 
-6.0561567519e-06 1.5475299684e-06 0.057841040635 -2.0980983791e-05 -0.00017455118979 0.066446080018 3.3621039175e-06 -0.00040365076971 0.17128368693 
-6.4340085494e-06 -0.00027542585321 0.15070970911 2.1171351285e-05 -2.811815346e-05 0.027019977376 9.5080235621e-06 -7.2924721718e-05 0.056336120004 
-2.0342893375e-05 -0.00018274671899 0.095288041996 9.617519876e-06 -0.00026592073297 0.082829881745 -5.7817427952e-06 -0.00024308529258 0.14961724389 
-1.8119489339e-06 -0.00025339852702 0.10400098646 -3.2330962243e-05 0.00015855159221 -0.076168044908 -7.5963315906e-06 6.4043966861e-05 -0.039510596062 
1.4391816654e-06 -0.00027032873547 0.068525127135 9.2342467728e-06 -0.00014874724465 0.047242125572 6.2357705769e-07 -9.5584018031e-06 0.001558810832 
-3.4201440404e-06 0.00032047610049 -0.053840694749 -2.3563335975e-06 0.00015817435437 -0.046673811881 2.3576759894e-06 -4.9737670528e-05 0.0076114366 
5.2473539693e-07 -5.796764745e-05 0.011360591976 4.2595975596e-06 8.5998033478e-05 -0.014827938206 -1.8774395619e-05 0.0010224898848 -0.16501305911 
1.3799426249e-05 0.00038613974117 -0.090446052307 1.5518211277e-05 0.00022391926159 -0.026033377653 7.1003907634e-06 0.00066561777836 -0.076425866187 
-6.6579285609e-06 0.0010516955808 -0.089657125583 -2.9156171231e-05 0.006008687897 -0.13749075149 -2.9405606937e-05 -0.00045856873656 -0.13888452109 
-3.2248602673e-06 0.0008799061871 -0.09961647232 -2.4110925861e-05 0.0011893245198 -0.17021638181 2.1665534415e-05 0.0014160988612 -0.060238922073 
-0.00076705966947 0.5919539565 -0.00086091147328 6.4602779931e-05 -0.22710080802 -0.2849161958 1.6428526518e-05 -0.00049728556737 -0.026260122242 
-3.3278688261e-05 0.0027509318535 -0.21143918946 1.1192948184e-05 0.0043058928947 -0.23425576596 -0.00063276443923 1.0771003341 0.088781149388 
-0.00053122373689 0.5012281083 0.16664775114 0.16620946145 168.85412254 0.13776328497 1.3593201177 81.280407481 0.1649340781 
0.36958972252 34.469056485 0.00012737344637 0.030897157782 8.409636249 0.035684272478 -2.2125313829e-05 -4.8543996345e-05 -0.049884072308 
-1.6354717688e-05 3.0919211057e-05 0.067520097425 -5.2315602646e-06 -8.1478013594e-06 -0.031941379961 -4.275090948e-06 -4.7663536533e-06 -0.015770584959 
-2.4925381629e-06 3.451194585e-06 -0.03675131962 4.2997612408e-07 -1.4906790712e-06 -0.011208222721 -6.6307211928e-07 -2.6639944301e-06 -0.01378859392 
-6.7077761869e-08 4.64448794e-06 -0.013525810299 -1.7549670233e-06 -1.7439801516e-07 -0.011992442466 -4.1663284419e-07 -8.0069033392e-08 -0.0025081413996 
1.2546038773e-07 2.4151265536e-06 -0.013684749697 9.2245856772e-07 -1.1433543555e-06 0.014039348436 9.5625646904e-06 -1.5029853583e-05 0.053670850853 
-2.582574472e-06 5.8202417222e-05 0.091191174806 1.4877571932 -203.70655669 -0.50623806181 1.1238304422 -199.15588991 -0.11517844672 
0.17071757196 143.17109366 0.074080246084 1.2787946065e-05 -8.5233089992e-06 0.040164780443 0.10657385478 147.02021787 0.23678486927 
0.27134555146 96.385270027 0.16793639791 -0.17533647102 -68.73188803 -0.085371750271 0.41423718864 120.1984659 0.0029991079889 
0.21339263072 99.175831549 0.27715414817 0.20845330243 42.492835117 0.036248172934 -0.17338051076 -26.806326915 0.02809958121 
0.35462119766 55.322493145 0.029285953861 0.30966468401 69.500732179 0.27142808142 0.11421935018 43.855000557 -0.0079270824815 
0.0033165510991 -13.258501589 -0.0040003845502 0.02677570169 3.4744868064 0.026744881223 -0.015397823039 -20.446522585 -0.068445248065 
0.094330782633 27.976226888 0.088120210652 -0.090122605509 14.355976153 0.13353032777 0.00091884343966 0.00055887123956 0.12723727032 
-0.00015106192111 -0.00012970135353 0.05211973869 -9.1010723197e-05 0.0085170471308 0.0621665914 0.016847813485 4.2468619558 0.047975231761 
0.00028680531946 -0.0014438638558 -0.060023556637 5.7451688145e-05 0.00036956463146 0.16835350841 -8.3037225883e-05 0.00010273253914 0.14899767195 
-1.1314169688e-05 0.00024229981452 0.073233873921 0.00022068979753 0.00027399747062 0.045397008497 -2.0762158426e-05 5.263572907e-06 0.039202246052 
4.3933759038e-05 3.5646655594e-05 0.033612867058 3.3788784641e-05 8.5261066898e-05 -0.051862058337 -1.1583425666e-05 0.00013317576437 0.11157020225 
-3.8929379831e-07 2.5491148968e-06 0.04206032896 6.2219689282e-05 -2.5289591013e-06 -0.047205248703 -3.371214388e-05 2.3398144352e-05 -0.063010385734 
-6.0628219831e-05 5.3871698475e-05 0.20647070838 -2.0126605768e-05 -5.2234419833e-05 0.04456276427 -9.5025881858e-05 8.5783670962e-05 0.25698465501 
-4.7750479735e-06 1.6693917564e-05 0.040119118935 -1.4347062823e-06 5.9530005835e-07 -0.0027430678566 4.8220803643e-06 9.9417289302e-06 -0.013253908024 
1.1242482054e-05 3.3175104683e-05 0.059380896341 8.9202442709e-05 0.00019686702149 0.11736199805 -7.9704455326e-06 1.1937829741e-05 0.022820491359 
4.0934948973e-06 1.7505367537e-05 0.077618162378 2.203178054e-06 7.6121398733e-06 -0.019632752992 -3.4904554167e-06 2.853545109e-06 0.033317624703 
-6.2954297632e-06 -1.4272788976e-05 -0.014970470124 -5.6157183308e-06 1.4166300627e-05 0.054012738712 7.2502003199e-07 -1.598479397e-06 0.040898025567 
1.2936285303e-06 5.0724672728e-06 -0.017977022655 9.8550754858e-07 1.7462784873e-08 0.017864702471 -1.1326356215e-06 -3.8731497362e-06 -0.017975757799 
7.7040864389e-06 3.3211314591e-06 0.06186797202 6.7419028737e-06 -2.2958744791e-05 0.062490643907 -7.4955102663e-08 -3.9598688209e-07 -0.00096767702186 
1.0526657313e-06 -1.0621604965e-06 0.028493015693 -1.9163888929e-06 -1.5541652788e-06 -0.013145598606 -9.2275737341e-06 -5.557358956e-06 0.090398773376 
-6.5702963389e-08 1.228647209e-07 0.00034422067217 6.6869993886e-06 3.1490902756e-05 -0.032776298436 -3.1443430265e-06 -1.457827891e-05 0.047815080756 
2.5653400876e-06 -2.2446598046e-05 0.019079419655 -1.220167732e-06 -1.6945720168e-05 0.017861234587 1.4072141944e-06 7.2434731515e-06 0.055215087177 
1.2556734262e-05 4.470905572e-06 0.061289312599 -1.3743089893e-06 3.6889590583e-06 0.029438388756 -4.0175710669e-06 -3.8094835491e-05 -0.030054349361 
2.3901513248e-05 -4.8057431733e-05 0.10985135041 9.2451941494e-06 8.4133736223e-06 0.042030915514 -2.7413801526e-05 2.1706704245e-05 -0.12385106759 
-0.74549965714 30.823030181 3.5176845305 -11.977381167 -46.401727975 -0.043111430178 5.1132535949e-06 4.7650966565e-06 0.015530317075 
-5.1492392129e-06 -5.5974036617e-05 0.020724866478 -9.6333709598e-07 -4.3290746961e-06 -0.0071488076611 2.8371576741e-06 1.731762229e-05 -0.026649120089 
-18.541983748 -53.218639588 0.0059469273724 -7.1989659645e-07 -3.3749872465e-07 -0.0071187985375 -4.7634205672e-05 -0.00094892661898 0.011254651041 
-0.42706740141 17.217830889 9.8486516914 -0.41610602266 -27.18111759 -12.314270795 1.7641047814 3.8794538207 0.026102446301 
7.7298893038 42.369075171 -0.039703458656 1.6227691377e-06 1.0697636152e-05 -0.033620723308 1.7660476833e-05 5.1000433942e-05 0.017616731991 
-5.3137485528e-06 -3.7784325033e-05 0.025511594631 2.9194141373e-06 1.7735167771e-05 0.025538414751 -1.8950981803e-08 3.3820191843e-07 -0.00054031854796 
-3.3777353224e-07 -5.5301663336e-07 -0.0012431406003 -6.1633072286e-06 -3.1905797121e-05 -0.022582507794 -5.0526015198e-07 2.4248440431e-05 -0.057343466727 
7.6694338482e-06 5.3218654919e-06 0.075594361596 -4.3070495677e-06 -3.8777854264e-05 0.020859630492 -1.1721978266e-05 -4.2672172457e-05 0.037097905121 
7.1658176827e-08 -2.1881322746e-06 -0.0077561858989 -3.96993719e-08 -4.5860695649e-08 0.00039773943454 6.225621756e-07 3.453676726e-06 -0.0028758232444 
-1.1171024207e-06 -2.4944741928e-06 0.013842366086 3.1898184942e-06 1.1760547465e-05 -0.020899945595 0.32843134871 -5.1977002372 -15.244738863 
-0.043547432671 0.70688864529 -10.146065593 -1.4286062435 22.903439867 2.1488197664 0.082388555097 -9.3008342255 -5.5172188773 
-0.99863610138 32.122142642 3.6810551198 1.9211623635e-07 3.6948163455e-08 0.0029335511681 2.3708229321e-06 8.7368983893e-06 -0.029719248819 
11.317902991 43.698711757 -0.02251185405 -13.111258967 -43.894086472 -0.049550780945 10.930291986 44.743830484 0.1295746567 
12.762894827 45.540408486 0.006493695503 12.463046646 45.306926355 0.041686196841 2.060685262e-05 4.7158052754e-05 0.052656385879 
3.3227067355e-05 6.6640315876e-05 0.043372586818 -0.00010594971179 -0.0002346185898 -0.061577895595 -6.4678416101e-06 -2.736192398e-05 -0.013314882737 
-0.00014931857756 -0.00035715616743 0.059065480197 9.6901323102 42.865944545 -0.14103057175 -10.628974969 -44.113884694 0.055087979245 
4.8221176944 56.261940019 0.061335051637 8.5573529429 40.831534563 -0.085545823801 12.328120565 60.452091964 -0.1145805055 
5.1242999704 54.785512075 0.0086686879537 8.7700064206 79.825516862 0.091818999867 6.788165042e-05 0.00017303386059 0.048343952603 
1.5825153171e-05 3.1504799901e-05 0.010595803592 -0.26076781643 1.9893216495 -13.742175711 0.0024657094544 0.11392483716 -0.34572436124 
5.0518365799 68.134184978 0.047112594623 4.8599977928 80.974162828 -0.25481079354 -5.8254649553 -80.025664104 -0.33858139992 
0.12890691359 1.987768886 0.00055787315132 0.0045472490287 0.18389816361 0.0012022321599 0.039830724122 1.1184480757 -0.0057931218522 
-0.0066561195406 -0.26207689001 -0.058271246243 0.057838470453 1.0503826146 0.042235783773 -0.046580957441 2.7967074577 1.3025681726 
0.0010798825957 0.035053533244 0.36586241512 0.0025304120933 -2.0716190448 -6.9218408771 0.0014235036709 4.4779119957 -0.91815095429 
0.011377282157 1.3357867327 -0.2963872077 8.9981089824 39.93120641 0.091115361917 15.32905137 44.976737457 -0.1450187701 
-5.4974389792e-05 -0.0011937995899 0.040908458956 -0.00029859576632 -0.011741844516 0.04819624567 -0.00068356263032 -0.025423411165 0.077161723676 
-8.5831539611e-05 -0.001833519367 0.01177274189 0.00028488311135 0.0052686739517 -0.09417198376 -3.9428367183e-05 -0.0011742860936 0.032290121686 
0.00015703412465 0.0067330776234 0.067707010978 -7.7199773959e-05 -0.0014550523534 -0.061297268221 -3.6613858358e-06 -8.9558152414e-05 -0.0018791033292 
6.023188666e-06 0.00014646199984 -0.030703236939 -5.548265282e-06 -5.2427796388e-05 0.009393801438 2.8850100934e-07 1.5116558506e-06 -0.0046609414705 
-1.0631091573e-06 -1.2659419274e-05 0.013065172635 -5.2941131077e-06 -0.00013415968164 0.014802153759 1.693669768e-06 -8.7686123213e-05 0.035190409846 
1.3119190745e-06 -9.4442022571e-06 0.0076302987546 2.195935191e-06 0.00014434411147 -0.046431526501 -5.9880516383e-07 6.8636623232e-06 0.010457480236 
-7.3654990535e-07 3.0580225058e-07 -0.01239765118 -2.3091136626e-06 -2.4833874651e-05 0.019518880093 2.4438548598e-07 -2.0597975749e-06 0.0086110470448 
-4.1868542291e-06 -3.5881714349e-05 0.041309813474 5.1624153209e-06 1.6148742912e-05 -0.025234234367 -0.043525904018 0.71532750451 -2.6087397635 
0.27710409184 2.363956931 -13.926354125 -0.0033695818056 -1.0024557049 6.9409892765 0.0019889543382 -0.50884811136 3.9653124684 
-0.72770676354 5.2965517693 -21.77774231 -2.6893667493e-06 -5.6322244329e-05 0.020367931605 3.3433648787e-06 -6.0682377717e-05 0.031455818986 
2.1719425812e-06 -9.5865341006e-06 0.060543534065 2.4729410319e-05 0.0003028324799 -0.081716204459 9.1303056124e-07 7.1884886009e-05 -0.031109558197 
5.6499696539e-06 -2.4703500623e-05 0.042920004638 -1.841454109e-06 7.1985171458e-06 -0.019969167213 -8.918611081e-07 1.0463712444e-05 -0.020403935592 
-1.7844045639e-06 -3.1366305113e-05 0.0085321912472 -3.7304010963e-07 -1.8193288717e-06 0.0074979234291 -12.869063482 -60.834279109 -0.079043442909 
15.780151965 64.967159482 0.091967082095 16.080307206 59.529207112 0.12061735845 0.58682139595 2.1545152045 0.0038887142416 
0.68962008949 2.3857971935 0.020641435692 0.22436059975 0.76054229012 0.014167315061 0.20011828552 0.71841499515 0.004897612065 
1.6093627586e-05 -2.4277899067e-05 -0.048078744867 -7.6037007813e-07 -2.4029201555e-05 -0.037742798672 -1.6175772603e-06 -1.0344849278e-05 -0.09449040257 
1.0450893477e-07 -5.5903604427e-06 -0.012846029219 -1.0247388079e-05 3.1455222153e-05 -0.029343127452 -6.2054490753e-07 9.6350552795e-07 0.020576694626 
1.668400457e-06 -3.4461958797e-06 0.02096514503 5.2656506609e-07 0.00010498515243 -0.035431436194 -8.7765794868e-08 1.8873585758e-06 -0.0026998026096 
-4.2912468947e-08 -1.3159937044e-06 0.0018231820872 -0.0091155061873 -0.23527510256 0.022808639129 -0.0054017787931 -0.137411388 0.014178049091 
0.067392390863 0.87404051865 -0.019629680398 -0.0078000044675 -0.20780591675 0.014009997355 -0.0081373265797 -0.20406640498 0.028866917447 
0.0048860725765 0.12614779215 0.0031996134958 6.0835717823e-05 0.0002161398631 -0.012825723539 0.043245434484 -106.44851776 -0.32946843472 
2.5245354256 102.03214186 0.16381479831 -0.17700257382 -2.3337703713 17.877707662 -0.37303431652 -2.3488076531 22.84699193 
-0.26793834521 9.7717198381 -28.408220872 0.016915980171 -1.0324042984 -4.164835608 -0.067964377022 5.6022783895 2.9513812884 
0.029131684575 -1.434934136 -2.7743567185 1.9696096025e-06 -1.9658233476e-05 -0.029455627503 7.2473790311e-08 4.6523672066e-07 -0.00031330203459 
-1.9999616616e-05 -2.0224842262e-05 -0.041412934658 5.7451315147e-06 5.313602363e-05 -0.023222936109 -5.5576652192e-06 -8.0122009131e-05 0.032515781404 
-10.232131245 -19.775082856 0.04417186358 -12.366407617 -23.921584018 0.039626357218 9.3974673158 18.20836647 -0.0011040675287 
7.4018139135 14.113244899 0.0025030126879 14.57217867 55.334621894 0.041138414795 -1.9539267741e-06 -1.4745419509e-05 -0.026314009479 
1.1833408012e-05 8.0073737987e-05 0.039369427733 -9.0606467282e-07 -7.4191027466e-06 -0.0050487124543 0.00019301259853 -0.03040908715 -0.038944436445 
-0.054370746249 3.7650084613 0.88529001026 0.00077755901051 0.037522770439 0.1924349683 -0.0097955191461 -1.1438629886 -1.8304890164 
0.011320265035 0.42741372555 0.010971297899 0.0079253407954 0.293265237 -0.0094693433351 -0.0086033076993 -0.31191127227 -0.046648935139 
-1.9338849219e-05 -0.00032912246778 0.045902102707 5.8759903663e-06 -5.1779532224e-05 0.045622011947 -3.4961968656e-06 0.00041417553536 -0.012862247917 
1.1700481923e-05 -0.030901276472 -0.0079701563506 3.9042385001e-06 0.00043931002689 0.068721372769 -2.3954738425e-06 -0.00038260190416 -0.021462388778 
3.9875772846e-07 2.9281961614e-05 0.016867633918 0.00021917846599 0.00083450006781 0.030441433316 0.21665201047 0.82552794229 0.017397359095 
-0.0024010367383 -2.6581026521 0.08619606142 0.044978735834 3.2024951295 -0.59811613555 0.77372071436 4.7276239449 0.020294138038 
0.78198063251 5.151640737 -0.0044836225149 1.2028839128 6.7232912559 0.010539033777 0.89186618539 6.1219722796 -0.02082315563 
-6.8314194818e-07 -1.0855658039e-05 0.012998189806 8.1176993079e-07 3.8089326097e-06 0.0052135053974 5.956417809e-08 1.7270134049e-06 -0.0055693899173 
-1.1021780377e-06 0.0068530441713 0.096073571323 -1.1346792972e-05 0.027489774942 -0.069866250201 0.039670964955 1.1383121356 0.018746302599 
0.24165238339 3.2532338567 0.00050976676705 15.294603087 30.739673558 -0.077133910734 -18.549645603 -39.752631374 0.12496014097 
-16.882517166 -34.613268616 0.043311700613 20.096535268 46.005314537 -0.10069647597 17.065512357 35.735875276 0.039117321298 
3.8683712383 7.6880898428 0.012667413885 3.3427797128 6.7197307228 0.016601740416 6.5880339245 12.788569436 0.0041751156182 
-0.0084037854932 6.1461216803 -6.9813878123 0.0079283620518 -0.30770635801 0.6040417518 -0.11047320158 7.6013998923 -3.3678436902 
-0.20494123183 9.3428771251 -6.0704742088 0.27871786686 -17.015084108 1.2664717498 -0.01649165409 -4.6785359393 -4.4872394394 
-0.42193349989 7.2933068973 -7.8650895056 -0.31598251585 6.386748795 -4.8818943404 -1.0329424965 13.507630306 -13.036823245 
0.043463438933 0.62992647793 -0.023238823024 -0.0017024514234 -0.058267876437 -0.0053909812121 4.7542608485 22.40064554 0.025273663965 
3.6747793783 19.752972371 0.013015639138 3.7600585617 18.720619645 0.02418199904 2.1207489794e-06 8.5314797874e-06 0.043758334828 
1.7921753253e-06 -9.7175394838e-06 0.01321630628 -1.0316386798e-06 5.8277756842e-06 -0.013399711009 2.1630129609e-06 -1.219968429e-05 -0.013007847193 
5.9819993559e-07 3.1153920475e-06 -0.0098611309936 0.037703407353 -0.25818636477 2.0026028582 -0.043211237284 0.62622979655 -1.7551611466 
-0.50891771277 0.32183429083 -18.675355105 -0.057522841503 1.2607816517 -5.9166472863 0.36420503438 -4.2756897306 -21.615075568 
-0.00011941924359 -0.0044296626465 -0.022452575282 3.4253726071e-05 0.0011115969439 -0.0082035013205 -7.0667911824e-07 -3.6797197725e-06 0.0021625418876 
0.17132304107 2.1391607879 -0.0069776300622 0.30456208066 2.8433105068 0.0018059265773 0.36425763525 3.4515156841 -0.010558784428 
1.2578046986e-06 -1.7069316536e-06 -0.020146920086 -4.7203793146e-06 -1.8861437987e-05 -0.023949751256 -4.580193746e-06 -0.00036406285744 0.017055572633 
1.5732204814e-06 0.00028182121511 0.0044688781142 43.220130551 -114.97426466 -0.22338759457 40.503772564 -125.81665207 -0.50171222251 
-12.552277623 93.484973303 0.31235520669 39.727340102 -111.68330967 -0.30850722603 -8.9775314278e-06 -0.0010855227566 -0.033440527423 
-3.3413177429e-05 0.027056007155 0.076411609848 -9.9196078314e-06 -0.0019546483774 -0.037658831664 18.241396319 46.310152641 -0.095187114015 
-14.168179329 -28.260938034 0.014930298496 38.54716811 -98.512530404 -0.070084136018 -12.254063546 -77.891943968 -0.076578077291 
8.8616716804 18.207468646 -0.068368941545 6.2213385067 12.494105073 -0.01642569424 6.0266391711e-05 0.0020611303261 -0.0068194602928 
0.00060470844938 0.010954093178 -0.028168533281 0.00017415160516 0.0058721399005 -0.0092645198829 6.7540186552e-06 -1.9950215086e-05 0.024947205439 
-3.1283909584e-06 -3.9417165123e-06 -0.017257851382 2.8551547591e-06 -4.1791452181e-06 0.013930993859 1.5342875147e-05 -1.8732662394e-05 0.032758199946 
-2.0314655757e-06 1.5310994968e-06 -0.008620269944 9.7167463428e-06 -2.8609504708e-05 0.086518069997 -1.375399247e-05 5.4918674556e-06 -0.071493655877 
4.2220778687e-08 2.1741356796e-07 0.00035796598869 7.142965971e-07 -1.3059752582e-06 0.036526201733 2.0284967546e-07 -1.0758303279e-06 0.0013975149971 
5.7157208009e-06 3.4361827585e-05 0.027599250388 -3.1489287283e-07 -2.2150568674e-06 -0.0031813381649 -2.0528657255e-05 -0.00012378036371 -0.069247356577 
-8.368161834e-06 -0.00010197141201 -0.037687253537 2.8342236977e-05 -0.00010877353193 -0.13202627744 -3.8164300282e-05 -0.00013113826516 -0.041459058153 
-4.6414583679e-06 -1.0501545993e-05 -0.0069876531471 -5.8438810787e-06 -3.9055008898e-05 -0.039124813597 -1.3610240045e-05 -1.1994932883e-05 -0.025261600778 
-1.2521627677e-05 -0.0037449743589 -0.063203222178 0.55576996482 4.3541128438 0.0098746798943 0.45419718715 3.4965636441 -0.025080206007 
-1.2587976373e-06 -1.0990372265e-06 0.017221276369 -1.3596558654e-05 -2.3102537468e-05 -0.043791556126 -2.0937555018e-06 6.8103543923e-07 0.024935574523 
-2.6712675289e-06 -9.5104874801e-06 0.0090631509053 2.9496386101 16.820552871 0.012697644548 2.7126756986 17.684990747 0.022606268236 
-0.6549612188 11.85701733 -3.022544518 0.60847691341 4.9919461713 0.00033397178431 7.6540035058e-06 2.4201669166e-05 0.053270236015 
1.5574126251e-06 -1.6565697765e-07 0.010060503977 2.2100918613e-06 -5.5447662499e-06 0.019761788911 5.6453567858 14.946946201 -0.030720361657 
4.6788793714 12.033722262 -0.047105884815 -3.8479506996 -10.415973292 0.0064839816653 4.6414680492 12.952114457 -0.013044920814 
13.281968701 25.878763378 -0.057917144367 -4.8574317e-07 4.4885939302e-06 -0.01703704584 2.6008935222e-06 1.8246280711e-05 -0.035661524578 
1.0325345204e-07 1.2330563432e-07 -0.0016109391569 -4.6188387777e-07 7.1393522541e-07 -0.0099045975033 -4.6963915731e-06 -2.0560456918e-05 -0.04200684789 
8.6696199188e-05 0.0031554462133 -0.014480616018 0.0013027441345 0.025213457199 -0.043709832568 -4.8098934232e-05 -8.6850647087e-05 -0.1046058168 
-1.0283998304e-05 -3.2239371144e-05 0.010706166269 2.9788939524e-05 1.1069104944e-05 -0.063749189042 5.0964619297e-05 8.6568426984e-05 0.042122967303 
8.0022424147e-06 0.0030049276549 -0.015504453056 -9.5046784403e-07 -3.8582096667e-06 -0.0025430453 -4.2918567274e-07 -1.1150399694e-06 -0.0023426125829 
2.4707473112e-07 2.0444850902e-06 0.010509483284 -0.17489955611 7.7922684673 1.6697551949 -0.37468891241 10.703113304 1.5291139274 
-0.10662988601 4.6264450954 0.07848162529 -4.212238612e-08 -8.3048960414e-07 -0.0060314908011 1.7013364386 74.425297887 0.19081756166 
-0.0039258493165 -0.12807219425 0.020675509105 0.022384589434 0.37077859221 -0.010909836926 -0.041908474393 5.7484559899 3.5261007619 
-3.6825308109e-08 -1.1824828768e-07 -0.0001334893817 -1.5752382112e-05 -7.6783567227e-05 0.012191763931 -3.4385097752e-06 -1.885908699e-05 -0.012078851804 
-4.6459125346e-06 -1.8619344597e-05 -0.021169213268 4.5848971931e-06 4.4757291833e-05 -0.058724793893 -4.7005916372e-08 -1.2466248506e-05 0.02636874206 
6.1300064918e-06 -1.3472454989e-07 -0.036907454542 -2.1332517411e-05 -5.4828181815e-05 0.064706748346 -4.0727732229 -22.135008716 0.0098025886084 
1.4414020767e-07 2.541919744e-06 -0.0057036622139 2.5691829558e-06 1.837986456e-05 -0.031018753715 -1.5047256849e-07 -1.0525604982e-07 0.0012955986098 
-4.0511994061e-07 -4.5055209633e-07 0.011694574157 8.3944603266e-07 3.5990299029e-06 0.016884488372 11.310742946 22.086167104 -0.018685631245 
0.082478200631 -7.3041586904 -0.72120925989 -0.0359755862 2.3995071965 0.74103382167 -0.024122457556 10.217133306 -1.9649658508 
-2.6979360597e-05 -0.0024561402249 0.064114940848 7.1152005937 23.837405674 0.039484670831 -5.7805927957 -21.40317002 0.018830101422 
-5.7444712062 -19.543710553 -0.024930682528 -0.041615846817 -0.15013286705 0.062346735307 0.10875746305 0.41234840346 0.013493506378 
4.5484683433 10.27651172 -0.083971146362 2.3527028146 5.2400021994 0.022903382588 -0.00026050650241 -0.0011742758269 -0.098102565619 
-2.8598810975e-05 -8.4399400773e-05 -0.030082664061 1.1826023777e-06 5.6432105268e-06 0.020984225292 -4.1547630725e-07 -9.0699921146e-07 -0.0038932059922 
-3.6751646129e-07 -4.6667607081e-06 -0.016147095331 14.978847408 34.125535787 -0.056750406242 -2.4724632518e-05 -0.0014051616229 -0.047342782796 
-0.0049261536012 -0.10076414932 0.020340049668 0.30482742839 3.4053654049 -0.0095714323324 0.001000577781 0.039253578759 -0.064973024171 
0.00057915556198 0.024568202026 0.024850751815 -0.0029568908166 -0.1211579575 -0.02223666045 9.7836255255 -102.63043394 -0.19227107227 
8.1819141976e-07 5.6220525035e-05 0.0019841081013 5.5898369037e-05 -0.055211634841 -0.013675873598 2.1968055409e-06 8.6101932175e-06 -0.0090130240126 
-1.1361409408e-07 -2.5687935663e-06 -0.0028403666076 -2.9517998966e-08 -1.1632269766e-08 0.00019596077026 8.666190808e-07 2.8345769884e-06 0.0082129945853 
0.2129131542 -10.128728744 -1.1968440137 -3.6997293757e-06 1.780130809e-05 -0.036900643742 2.5617590197e-06 -1.1165694232e-06 0.015358704511 
-3.2426909155e-06 2.3530459821e-05 -0.022781089545 -1.1282975626e-05 -0.00010466894036 -0.078391434136 -0.00011362341395 -0.0013588932032 0.069209021373 
-2.552959899e-05 -0.00028621576888 0.035390490337 -0.001782109445 -0.04241832996 0.019136274795 0.0030077028426 0.045830317672 -0.002259920422 
16.202697821 72.048754909 -0.077841653868 5.8588133426 98.245894869 0.11586572356 3.9152739538 -123.14553589 0.17884195469 
8.4887616109 89.256578317 0.12671364213 2.6692130124e-05 0.0003511031416 -0.12647303276 -4.7942864162e-06 -2.4057066118e-05 -0.059942207029 
1.6148028502e-05 1.168139915e-05 -0.035228814419 4.2916142926 82.349808112 0.26725446283 17.155523783 56.14368597 0.090560417631 
18.196419929 61.16645326 -0.092193421226 -17.730767412 -56.700000979 0.082297701606 -6.5337147305e-08 -2.6697068557e-06 0.0028604859001 
0.092478993424 -9.0500154749 2.1884827402 0.05958930337 -8.6728545436 30.341198136 -15.097046877 -71.556052972 -0.1074437983 
10.937248814 67.560737701 0.17183208531 3.0619822892e-06 -1.7844044255e-06 -0.043266332835 -3.5102539586e-08 -2.7559272479e-07 0.00039733246213 
3.0051146209e-06 1.1838541065e-05 -0.010193303775 -2.3161106014e-06 -7.1433816674e-06 0.050843532226 -0.31593756734 7.2050546103 -1.4891367838 
-0.24023893121 4.8032415309 0.46072889603 -0.17924171518 3.5119398128 -0.72951223153 -0.54729978689 10.383873149 -4.5600267571 
2.0187425358 10.244493462 0.016295223533 2.8869622036 13.342184641 -0.0244507982 2.2022402797 11.810330534 -0.0037431416569 
-0.0019175095708 -0.061015682244 0.025661689756 -0.0013551352919 -0.031270692441 0.011688628745 0.031739263968 0.4467873942 0.015824806987 
-0.0010016547357 -0.03338775508 0.0034484393622 -15.879152164 -53.12488423 0.016272385902 0.0097809670059 -9.1956408495 2.6595618581 
-0.061907168252 3.0355449235 -1.5493315046 0.0091075675049 -1.5244572949 -0.17510614666 -3.0357785998e-07 1.1003582979e-06 -0.0041699351319 
3.1345490014e-08 -7.0673163815e-07 -0.0030942450603 2.802030097e-06 2.4842061054e-05 -0.023586990097 -1.3987326262e-08 9.4265555377e-08 -0.0011503661985 
2.3633619905e-06 4.8680232702e-06 -0.017683261955 3.6509358509e-06 1.8138385894e-05 0.014301574753 1.2576138747e-06 9.6144261148e-06 0.011256528802 
1.0482596188e-07 2.3773020669e-06 -0.0025356579304 -9.0897537993e-06 -9.0486974897e-06 -0.039028244517 9.2687324654e-08 -1.2414433341e-06 -0.010083230133 
-2.7409908093e-07 1.534327362e-06 -0.0044683763676 -1.1050525251e-05 -0.00021990422156 0.019296454878 -2.674669427e-05 -0.00076460253987 0.023727596013 
9.2946008483e-06 0.00049481232649 -0.0041374768204 -1.7226188225e-05 -0.00052428113004 0.032828767771 2.9761575441e-06 8.014179418e-05 0.0047788739609 
0.97689236874 6.9972145653 -0.029278801908 1.3443125814 7.8173867521 0.013767620571 -8.1913729831e-07 -6.1510982811e-06 -0.0036741744231 
-2.4911207425e-06 -7.2581001474e-06 -0.01591102457 3.2587687949e-07 4.8157084254e-07 0.004370698947 9.5664230763e-05 -0.046221237037 0.023242138497 
3.6445083942 9.0979803323 -0.0016191323574 2.475625151 6.5452827104 -0.0027399707892 -1.9448055776 -4.8280581182 -0.0039922382478 
-1.0566224206 -2.7783776762 -0.0011492926914 -0.21516603999 5.4670356569 0.68102667997 0.071463843419 -1.7720506163 0.35507563133 
2.7520265927 8.5753944731 0.0024562991265 1.8865076291 5.7018309586 0.020653960415 2.8798551008 8.197611402 -0.044991959148 
3.9079230496 11.436311444 -0.018052197305 -5.9836884364 -23.477949433 0.014824631618 1.469570428 9.0644943041 -0.025861652931 
0.13441607689 1.6712919235 0.016494401715 4.9776891585e-07 1.9187034842e-06 0.042481906565 -1.0077299079e-05 -2.1970571482e-05 -0.041021622442 
0.037287276485 -4.1618045289 -7.9156997785 -0.043949368901 -0.38860942316 -9.0711789207 -9.8169273642e-06 -1.9787536269e-05 -0.045992234234 
-4.6336309022 -17.907522129 0.0039338997468 -13.073147749 -51.27395715 0.03869301874 12.036824734 55.138345456 0.075356574904 
-9.5325130893 -50.598351716 0.084571977641 10.287577328 47.529101755 -0.05156479712 10.660526457 48.16870248 -0.023177989916 
-7.2558974719e-06 -2.8464654119e-05 0.048284517093 -2.1018483286e-06 -5.2136345608e-06 0.0095878107017 -1.9107917863e-06 -6.0994939841e-06 0.0081548647801 
0.06861970206 -2.2113378178 3.0921772068 5.2684149505 12.826984255 0.0046468428226 3.3969059095 7.9636565709 0.01852178277 
-2.0569494229e-06 1.3177110204e-05 0.014276268614 -0.063225221854 4.6339284431 1.0304244676 -0.24723667631 6.481010356 0.71995181071 
-0.42733312691 12.292684572 4.3699795971 -0.090686718639 -10.397976148 -3.7690169385 1.5623924832 31.885206143 6.7029489567 
1.8516559975e-06 6.3545181528e-06 -0.0095386529096 4.9944497487e-08 4.9744369508e-08 0.00067228904986 -0.25252950986 5.2223031811 -1.6323005291 
-0.47557312612 7.9130218242 -2.7026093135 -0.0035754811287 -0.13217447418 -0.0018271378674 0.048494654293 0.74950221057 0.017160025367 
16.487986584 57.905633695 -0.035615529913 19.206398285 57.611267942 -0.14392702863 1.5946621381 7.1725644647 -0.0078569231119 
-2.3566616105 -9.7356592271 -0.0024705378828 1.784183011 8.6036625084 0.031970303958 -0.0043344140467 -0.16879990118 -0.02966911098 
0.038409359038 0.71223774605 0.0039885963106 -5.8938176063e-06 -2.0115105332e-05 0.016562647894 -1.0298470538e-05 -2.5254790347e-05 0.041755853893 
0.077648722681 0.79852990101 -0.016828468434 2.2828757395 26.048537258 -0.64831516781 2.8160980732 25.332321909 -0.53391296733 
4.7856825106 33.137355704 -0.40468549521 -3.3560448534e-05 -0.00032857231883 -0.068192203257 0.00035098592823 0.0022697214186 -0.028032779318 
-5.7512340634e-05 -0.00034321464454 -0.011508009286 -3.9942244695e-05 -0.0002553456069 -0.0093596039864 -1.4232506622e-05 -0.00014765735079 -0.0031071316391 
2.303040888e-05 0.00021577084146 -0.0042482099294 -4.8993995867e-05 -0.0013112456993 0.053622600583 -1.4967463612e-05 -0.0003088463105 0.048990042902 
-0.052581603176 -2.0635592944 23.851439854 -0.3559335353 -1.142494741 18.873300313 9.3576398589 60.610565211 -0.13887269443 
5.9367804823 11.721727488 0.02506853484 7.7682824091 15.910529426 0.04709526508 3.5339277293 7.345005068 -0.029147005139 
5.4151882116 11.623439356 0.036314940422 3.5453861759 7.4451731712 0.0036676870226 -5.5393786737e-06 -3.5584481231e-05 0.065816706643 
1.014740118e-05 5.8593096994e-05 -0.048131868169 1.6549856323e-06 2.599417976e-05 0.030251125885 1.171367258 6.1331902266 0.0066173066835 
0.77193187939 4.3829567932 -0.018058936243 0.5254390679 105.60224811 -0.28832799625 2.5223228295 -128.34900182 -0.050651675833 
-2.7149806255e-06 -1.5825752874e-06 -0.012984463911 5.3138035387e-07 -9.5043209685e-06 0.01478187191 -5.3757774499e-08 -1.0310210538e-07 -0.00037403375788 
3.8582871944 17.790435475 0.039462189378 4.8689421605 21.390140764 0.043773046479 1.9373984169 6.3836268956 -0.012531138583 
3.3635070023 -108.9702137 -0.0020208736872 3.7072392724 32.285952144 -0.54412547957 3.520631478 28.876679685 -0.85327358604 
1.6902344388 27.225783956 -1.2411743749 0.0039830868613 0.1594757005 0.0083552835988 0.032733998752 0.61547534031 0.010372659104 
2.6894883098e-07 4.0157849349e-07 0.017005458806 -0.00023865627668 -0.0077738349015 0.02457166662 5.8447982548e-06 2.9296458863e-06 0.029129437228 
-3.8790651339e-06 1.0202472108e-05 -0.024883370016 -9.8334861043e-06 -1.8355863255e-05 0.029644949696 9.2274216754e-07 7.2748333442e-07 0.0069889733292 
-6.3637446283 -15.921999703 0.011826753964 0.013939929547 0.074408956078 -0.0021468476286 -4.0885380881e-07 -1.9702020158e-06 0.00055139284319 
-3.1827775643e-06 7.497047387e-06 -0.035943518583 -1.0408185825e-07 4.531539987e-07 -0.0070962603537 1.033796576e-07 3.2084584579e-06 -0.014117068651 
3.1187688467e-07 4.0752938473e-06 -0.010047795491 -1.6797977918e-07 -7.1221304531e-06 -0.027799672844 -1.7169354594e-06 -1.4469122157e-06 -0.018802496938 
3.3319484086e-06 5.0302928937e-06 0.010230279255 1.6489243336 6.1231324178 0.012040319629 2.5103571949 8.6216601687 -0.03977429323 
-1.575421709e-06 -1.5557038522e-05 -0.0073972290825 -9.3698726746e-07 -1.0106284743e-05 -0.0035720633193 -4.1574877304e-07 -1.8882203727e-07 0.0049537292686 
1.2222341597e-05 4.8240356244e-05 0.014802004442 -1.5456599394e-06 9.7600779664e-05 -0.091377449462 -1.8155625308e-05 -0.00011448068185 -0.024928515222 
-7.0823835479e-06 -2.0886850066e-05 -0.021012409174 -1.4665425956e-06 -5.2992992547e-06 0.0068153249344 6.2567347859e-06 1.8002243669e-05 -0.020809521804 
0.65119098305 17.07900759 -1.488331196 1.0077519031 16.559311933 -1.2798602905 -0.59593388238 14.626648781 -5.48909427 
-0.77291052278 18.161478993 -6.7831600945 -2.1189309299e-08 3.8753511939e-06 -0.011330808368 1.7234996097e-07 1.4651985666e-06 0.026430714827 
2.0218229708 7.8743285998 0.0073983103143 1.3688210645 5.7722204758 0.033058647314 3.0014312542 10.769544475 -0.0054364912131 
-0.08378417007 3.3290121175 -2.7374262125 -0.014400403688 6.0973784198 -5.2648110733 -0.030243927952 3.9222281885 -6.5705790539 
4.3355745564e-06 1.7821079538e-05 -0.020200704428 -1.9472855105e-05 -3.5462688833e-05 0.054864697538 0.26205417526 -8.0860277213 2.8919468522 
5.7114110212 16.449887665 -0.034544915153 -6.827128134 -18.203388562 0.0051020106913 3.19755734e-08 -1.377300009e-05 -0.011354139901 
6.5613777977e-06 -8.3430718659e-06 0.038353466152 -2.0917735714e-06 -4.3704135868e-06 -0.0092118022994 5.4831601934e-07 -6.016986844e-06 -0.018413247495 
-9.0849474725e-07 -5.4711587619e-06 -0.015305552675 -1.4098456137e-06 -2.0814214683e-05 -0.01366162663 4.8272084518e-06 1.1963059904e-05 0.019158363066 
8.0196241394e-06 -5.8703355858e-06 0.026789155127 7.4199150466e-07 4.4017545469e-05 -0.089924659949 4.8466585517 14.627845094 -0.01802243616 
7.6633898183 19.392207676 0.044549424118 9.6242251621 24.873193671 -0.0077200409299 -7.8713193523 -21.2064744 0.020660619209 
3.0137053293 -148.75729628 -0.60883465433 1.3037575225 -127.08069657 0.037308002682 -8.302262235 -23.756940982 -0.0011947414648 
-6.6469136091 -19.27753418 -0.0070983901082 -1.2887539661e-05 -3.2409305933e-05 0.024455401436 -3.0031830484e-06 -2.5302019328e-06 0.05630373308 
1.0661954673e-06 -7.2625538547e-07 -0.0068477542287 -3.2353497568e-06 1.2177563342e-05 -0.034839110255 3.5540709048 23.435290492 -0.13913355501 
4.3897619897 24.273695034 -0.057781644072 5.9494852717 28.850715241 -0.015104489798 0.081668418153 0.50706114032 -0.024408306972 
0.14248852654 0.80910179375 0.010770929691 0.36236569755 6.3546032215 -17.162702935 -0.53056815667 -2.5078214102 16.488792048 
-0.28867635805 -4.6950923526 7.3248463993 4.926431654e-06 3.8612375085e-05 -0.04294571056 -4.6912119401e-07 1.1487700975e-05 0.035699252071 
-1.2431694896e-06 -5.0614749386e-05 -0.030558549112 2.6437788007e-05 6.3164307465e-05 0.024107606174 1.7381540706 4.8375462279 0.035338103656 
-0.0044472079503 -0.16922476987 0.01440138491 -2.0114585968e-06 5.5691827284e-06 0.025115390679 6.3661537675 40.432605686 0.058217192926 
7.8693427446 50.570843199 0.090524525547 -6.953121604 -40.493849941 -0.11657791492 7.3729743898 41.497068276 -0.054348228864 
0.16759031226 0.41891075692 0.024199033533 4.2322097764e-06 4.1729526687e-05 0.026902556366 1.497505903e-06 1.1110544615e-05 0.0088015546729 
-6.8784996911e-06 0.0014615112931 0.040751768276 4.6620325835e-06 0.0001201515562 -0.028095862561 1.5747015314e-06 1.0371699798e-05 0.021070988151 
-2.870590578e-06 -1.181437169e-06 -0.01367269362 8.1852623518e-07 6.2365624432e-08 0.0061990329906 -1.465668677e-06 5.6969199584e-07 -0.006794672192 
1.4844018037e-06 -3.331801731e-06 -0.024566845684 -0.70184751428 11.808996956 -2.7759871008 1.8559985295e-05 0.00010659130686 0.077575506082 
6.7892090291e-06 3.6528629347e-05 0.024654516751 1.5051552984e-06 3.1229834553e-06 -0.004710319055 9.938762359e-06 3.5453441137e-05 -0.021354651499 
-1.1672285046 -3.778263301 0.0028167696923 9.2816014763 19.549733197 0.038621931861 -5.4489828954 -11.595956511 0.015598908767 
4.9817185507e-06 3.76353017e-05 0.030947682214 0.65570531145 7.2497728421 -0.070096061055 0.57581436534 6.0097320992 -0.0039186672006 
0.29563509683 4.256712972 -0.013805238404 0.34008589059 5.2907375248 -0.067533293475 6.2897004746e-07 -1.3923305139e-06 0.007757640466 
-1.6731283698e-06 4.1186979868e-06 -0.011717234892 -2.0730163548e-06 4.9671905124e-06 -0.021436658831 2.332835639 18.98396058 -0.12151600426 
2.9791472613 19.652011718 -0.05029365521 1.3585682414e-07 4.5093247874e-07 -0.00022503042002 -1.356937055e-06 -2.3977678277e-06 0.017169918091 
-9.1842884446e-07 4.7827712274e-06 0.023343400518 0.12561907687 1.3627624274 -0.024286419171 0.14200080045 1.3616581174 -0.011056500148 
1.2489394761e-05 0.00015305874384 -0.040317376406 1.8507394084e-06 4.7624515169e-05 0.019664072038 -7.1359481578e-06 -0.00012979871054 0.017434979487 
-6.7015453286e-07 -6.2857513699e-06 0.0046790439342 1.1704894002e-05 0.00021825846868 -0.02438859718 -2.129003446e-05 -0.00031020686564 0.018181824862 
-0.36264822057 18.151701573 4.1507683127 -0.50300593159 15.753097684 7.9650387661 -0.064216781929 6.8420777684 3.2956771079 
1.059003163 5.1324815164 -0.012343084322 3.4697116921 11.226939266 0.019569550235 4.1122525676 13.798736546 -0.037359035469 
1.4964805366e-06 1.2105403067e-05 -0.047531874248 3.6282349027e-07 -7.435532721e-07 0.026177745329 9.0498752872 49.097263697 0.026601543266 
3.6947813267 14.841344102 0.024485176356 2.568523751 11.328998863 0.014726276734 -1.0650165663 -8.2493017619 0.0041532971866 
-1.599786354 -10.592211758 0.011871018143 0.017375835553 -1.9207779207 -1.2726817929 0.00054440047251 -4.8164251139 -2.4635682978 
-0.00034708516723 3.0752399848 -0.08373323484 -0.00012832872873 0.22020286133 0.033660802881 -0.00021168015453 0.12002301316 0.049694521161 
-7.0350320244e-05 0.067856974125 0.010613440138 -1.1518546972e-06 6.3922899366e-06 0.014590258695 -1.5461252447e-06 -1.8236569325e-05 0.027212172467 
-2.3903096778e-07 -1.6568193621e-06 0.0014837306402 8.1966083853e-06 0.0048155574083 -0.06288368603 0.00021194440218 0.03141911178 -0.062272003664 
2.3654670896 14.224442032 0.013189332629 -2.1449185725 -14.870793771 0.019942911992 -7.0631357671 -21.791984456 -0.012876483673 
-8.7553849554 -26.50720662 -0.0033189744152 -0.0099038659956 0.23518700454 -0.041487322576 -1.894024944e-09 3.6880388345e-07 0.0010472311568 
-1.709356694e-08 -7.2037957592e-06 0.01294544533 2.5197976749e-06 9.0206311586e-06 0.013286701346 -1.8600007962e-06 -4.8559404224e-06 -0.0015897300339 
1.1968329602e-05 2.18379253e-05 0.042636511747 1.6503786802e-05 5.2959137724e-05 -0.032720699199 1.183909226e-06 -2.038099014e-06 0.013334919715 
1.5317655092e-06 2.2444605337e-06 0.010832972682 0.93539687437 3.5109285976 0.022720141985 0.0011883496648 4.7502351679 -3.3467406053 
7.1898934148e-06 3.1506476607e-05 0.046640886512 -4.9692875282e-06 2.0637223357e-05 -0.034988658699 -1.0532208453e-05 4.4461438221e-06 -0.054291104324 
-6.7550098993e-06 1.9534574846e-05 -0.06242054077 1.1647257586e-05 2.976441615e-05 -0.053102499221 -5.1503330569e-06 1.6698019127e-05 -0.052111578433 
9.4426127693e-08 -4.1384701869e-06 0.025866659419 5.1269791977e-06 4.9250649691e-05 0.030393644647 -4.3904155328e-05 -0.00025130835253 0.064557837089 
2.2775314261e-05 -4.0592368265e-06 0.07941851131 4.3396880904e-07 -5.6664715211e-06 0.019003552841 1.4897963246e-06 -1.101293009e-06 0.0073469811633 
0.36076309705 -1.6162760047 18.504584327 -0.23665004269 1.8301213968 -5.678651566 -0.41747968746 2.7600393717 -12.861755981 
-0.31762920987 1.7583073382 -11.660275061 0.86736193162 2.5936013227 0.018404237263 -0.057799844784 7.7037255218 3.0763356569 
3.4255965653e-06 8.9958425046e-06 0.0071480045469 0.23026743621 0.93412918273 0.018175963761 0.44623485246 1.9924846502 0.016527154973 
0.73442188915 3.1394364439 -0.0084203683563 0.54921502404 2.1446779169 0.011494103151 0.78714614726 1.8616832772 0.01681764154 
2.9062748955 6.8076814272 0.04703789866 0.81047509986 1.9045750602 0.0065141667974 -0.015389525336 -4.5073432115 -2.2603341393 
0.097849569786 -20.082783151 -12.951367263 -3.3961403682 -12.865827514 0.010819322885 -1.668880002e-06 -4.1290981357e-06 0.0071036797597 
0.34447087027 1.6956878488 -0.0043488172612 0.2795022681 1.5975783616 0.03591582699 0.15416333109 1.0295539745 0.014856791993 
7.9172950875 86.793272616 0.10266460181 -2.5609148278e-05 -8.7353597448e-05 -0.074806492803 -5.8580936054e-06 -1.4923552607e-05 0.019384352144 
-7.7070452041e-07 -3.6345031748e-06 0.0017780728799 1.9390353019 26.248055124 -1.0118701673 -4.770437163 -19.631584748 -0.0052726111539 
12.803385533 49.08551564 0.038757942556 15.797579077 48.614753886 0.0053213047107 14.925073317 50.311690904 0.020547227128 
4.1999578007 32.640563474 -0.44137392954 12.889869161 29.488884825 0.0034836037138 11.431935266 24.248365486 0.020578203335 
-13.72585549 -29.122347204 -0.0047783588561 1.6500823452 11.637334346 -0.009432122394 -1.5124503566 -12.52358325 0.015833412896 
0.57362609881 2.829885387 0.01246593428 0.30545828436 14.544824974 -1.9174398191 -0.45155744276 12.886062228 -3.9246367532 
2.4076657853 5.2587802511 -0.0015695027681 -2.3450151544 -5.1607954413 -0.0011969605976 5.2009724537 11.882007018 -0.071392251548 
7.2879969284 17.212407944 0.019836135869 2.6484877094e-06 6.9497670333e-06 -0.014410647372 0.31936475241 1.0194374662 0.035082214442 
0.00017279244688 0.00051981001926 -0.038401780854 -7.6121791375e-05 -0.00020881257952 -0.029064625095 0.00021104656427 0.00058232683825 0.1083873477 
0.00026575246009 0.00080459249925 -0.048434549504 1.1561865622e-05 2.375461443e-05 0.036876169617 -8.5844340763 -44.449477576 -0.011786039507 
8.1764083782 43.262403423 0.00088005827819 0.10503808848 0.51706576628 -0.0019054446864 2.069496792 17.281608514 -0.73605985571 
1.7055768101 21.892376117 -1.098645569 3.5877194326 25.822464456 -0.5441864094 12.43326235 48.483367247 -0.072580718482 
-15.476353929 -52.853931622 -0.05606604781 -0.00040367823318 -0.001463138397 0.072264373846 0.50130251358 1.0765818462 0.044695456446 
1.5431125492 17.961397704 -0.7940515864 7.1939721181e-08 -4.4006757988e-07 -0.01210624122 -5.3077375207e-09 -1.0701530936e-09 -0.0018382808263 
5.5066179956e-07 1.5356429825e-06 -0.015235897719 2.3367920115 24.132892784 -11.607103176 0.80616380296 -0.344038461 -56.319504671 
-0.34573524344 3.9167019713 -13.533463621 -0.37655579176 6.0647486801 -27.230434084 -2.3197833968e-07 -2.8871277045e-06 -0.020641648605 
0.023229661734 0.17345361796 0.013076910847 -15.428416458 -48.107319098 0.0011532091092 2.2188426388e-05 3.3665107119e-05 -0.096960486673 
-9.9134980896e-06 -4.3024666821e-05 -0.0070028072287 -2.2464019817e-05 -8.5309254157e-05 -0.035574659615 -0.53710216394 13.937366146 3.1968419103 
-0.21853007869 16.899954164 4.6259218578 -1.3230609261 24.752420758 7.6861780199 -0.00050846612114 -0.0067855455727 -0.026206858205 
18.681196417 69.313985931 -0.18713247275 5.22292184 25.023968071 0.065591518015 -6.9404476448e-07 -8.3533796804e-06 0.012056930935 
4.5295039611e-08 -1.3577553615e-05 -0.0033598532008 -9.6992458564e-06 7.0215809222e-06 0.040816923623 2.1609592248e-06 3.4460833046e-05 -0.014899761311 
-6.4004445279e-06 -4.5450365048e-06 0.046787786613 4.8619190358e-07 5.7464215911e-06 -0.0066146083324 15.146241117 31.670096182 0.06154124394 
-15.377864446 -34.18381084 0.027774459742 3.3350158678e-07 1.0341883376e-06 0.0019618474194 30.658534524 -149.26794179 -0.074146764266 
27.858704977 -165.04142593 -0.07270672297 30.03536326 -149.07360615 -0.50173840092 0.081448005155 -7.0015249453 -4.6774514025 
7.2997204903e-06 -0.00038960019579 0.073936011614 -4.6338289746 -16.348807948 -0.0023954462459 -3.0504395154 -15.981606804 -0.0061861642289 
-7.3925721811 -26.237816734 -0.01548120774 6.6848140343e-07 3.4138338985e-05 0.01341480354 5.6618309325 17.673419416 -0.034482269372 
-2.4333868682e-06 -5.3537848956e-05 0.02053904681 -9.5398351653e-07 -4.9929035436e-06 -0.0042289524554 -1.4962196471e-05 -8.4378475512e-05 0.0075377956802 
0.0001555001342 0.0005949538092 0.048557803208 0.40340559709 9.3466392873 -1.9154869066 0.38107678913 3.1213755713 -1.1943147782 
-20.702101375 -54.997014404 0.03877685696 3.7916448597 26.171092239 -0.18702222032 4.9643973058 28.092703313 -0.11502000306 
6.7441053126 33.513599001 0.0024385044603 5.3942508831 31.999836891 -0.052671572592 -3.7921465088 -16.309837545 0.0025708230663 
2.599034672e-06 1.2237800369e-06 0.02397592473 -1.8832467555e-07 -7.3421427522e-07 -0.010821827442 -0.00010140924339 -0.00046059646877 0.045467376327 
-2.0273075031e-06 -9.4035916713e-06 -0.00499647138 0.2089347414 -2.577439329 -20.78932945 0.0013790654451 0.0036125984013 0.11953727066 
0.36322668096 1.0056606032 -0.024171909439 -0.00021038497544 -0.00051357766905 0.096113335352 0.53545164245 5.0674514063 -0.013455406856 
0.62722738051 1.7342381187 -0.022982988075 1.1868532398 4.3022357578 -0.0040279441617 2.3563551775 8.6241661609 -0.034800718696 
2.3398858486 8.1386111772 0.072158243714 0.98662434569 14.6625103 -1.2718410025 0.62280761359 12.730108871 -1.5199206339 
1.4785198388 17.148149534 -1.2176313417 -16.998198369 -37.530470048 0.019868527046 4.732781357 42.401448452 0.17206504981 
1.8821478849 44.288187452 0.28601204461 5.2331318152 55.090669147 0.35286888747 9.5938209498 30.230604249 0.012856683135 
10.246041762 27.960564733 0.0026549879149 -2.9144082163 -14.510464374 -0.013956812775 -18.730716464 -40.57639094 0.033461190408 
14.838305364 41.151206709 0.024576406605 12.338756519 37.075057095 -0.012174266707 11.227905111 32.035382412 0.030457590243 
13.553035935 35.289395509 0.0081067331624 26.920457146 -161.07275039 -0.1897118394 0.13609712048 0.60729293277 0.035476468565 
20.269756117 46.89925937 -0.066188900312 -5.6644276085e-07 -1.0609942437e-05 0.018032466766 -1.2541193973e-08 -2.9371359019e-07 -0.00019733434709 
-1.0673816442e-06 -3.3354139506e-06 0.022994673633 -1.8902497214e-05 -4.7231622563e-05 0.026762033715 0.012375848868 3.3709174957 -0.9500474153 
0.24535134079 15.392332569 -2.0236664599 -4.4285580589e-07 -3.995050067e-07 0.047877489967 -3.2483822425e-07 5.9671374504e-08 -0.0050676958189 
-2.3540777912e-06 8.680067222e-06 -0.027851619557 -6.2817750671e-07 3.9584947917e-07 -0.0079722747254 -1.0493575641e-07 -2.5927728874e-06 0.0048157263421 
12.487749828 25.683879447 -0.048930164094 2.9257409749e-06 -4.1901944002e-05 -0.012220526956 2.5414754851e-06 7.1892617707e-06 0.0032172199031 
5.6297518138e-06 1.9484552129e-05 0.0043712825727 -2.2655397308e-05 -7.6603447502e-05 0.020570720018 3.5117743123 -149.65523933 0.7239702435 
0.19803873121 -2.0803266514 -4.5177192483 -0.33589492456 4.0138355786 1.3460757039 0.59083457993 -4.9793612456 -17.113990466 
-4.8174069782e-06 -1.479464542e-05 0.036224912018 -5.49020392e-05 -0.00022661533563 -0.013440802066 0.10990536285 0.4892341535 -0.13422563656 
-0.26909211029 -1.9011195333 0.88509822713 9.6445838939e-05 0.010242671561 -0.081647263445 0.0074990565596 0.287340465 0.014967484075 
-7.7981290842e-05 -0.00021806946743 -0.055458523258 -3.0706541865e-05 -8.2798946082e-05 0.023035377921 7.4851928237e-06 3.3256636285e-05 -0.071226887422 
1.0207735573 17.026710568 -17.796569556 0.478508291 3.3726047715 -0.0036851372688 0.42268099469 2.7349346294 -0.029678994762 
0.037191628732 0.8455392319 1.615002484 -1.9529027146e-05 -0.00015327383145 0.0051720199704 0.24713218247 2.2693094607 -0.010101808525 
8.160751957 18.191583522 -0.028814918395 0.002032905153 0.017436085687 0.039817585593 0.68604813371 3.6251302737 0.0045263309055 
0.053747532787 0.46146662994 -0.00053430510864 0.20495483112 1.4516442843 0.0093174620873 0.88128277593 4.0271674111 0.01450999773 
1.1721117369 4.6565709867 -0.005960048804 -1.5285755669e-06 -1.7068753757e-05 -0.025806716622 3.9821137316e-07 2.6171010064e-06 -0.015165243704 
-8.2092981268e-07 5.1728030929e-06 0.016619334099 1.3764183318e-05 4.0018264415e-05 -0.024890566301 -5.1923573867e-07 3.9516868248e-08 0.0056001170536 
0.17404466107 3.5408428436 16.238527024 0.10668814575 1.3215609002 -0.025257477104 3.1196106958 6.3323733299 0.0010836861165 
-20.1520256 -46.811065745 0.088836511407 20.937577029 54.948057993 -0.11219189628 20.428444989 58.397184701 0.014052513031 
19.229454866 50.466436772 -0.12687774705 19.71286072 50.852758689 0.047485302013 -1.8119316736e-06 -1.2138063515e-07 0.013160837593 
1.1103765818e-07 -1.0000534745e-05 -0.032173756942 -1.6963073498e-06 -8.0328430661e-07 0.01022542524 -3.6638876743e-07 4.3280288859e-05 -0.0085020096046 
1.0340971823e-06 5.6154449864e-06 -0.0061274539256 -3.3121794322e-05 -0.00021751336017 -0.027997076333 1.7741273254e-05 0.00011064477076 -0.0055254477232 
-9.6973781055e-07 -5.7311848952e-06 -0.0010004535438 -1.2107585565e-05 -6.6892639114e-05 -0.015280627215 -2.0947804338e-05 -6.1155576853e-05 0.044604525633 
0.26395872524 -4.2103725042 3.5303188951 -0.032938121617 2.124103314 -0.10220922147 -0.036759403417 2.942072799 -5.2440025985 
0.298449309 7.2649374583 -0.56716594847 0.2685173817 8.2067704484 -2.2657208847 17.960471048 68.143482618 -0.11748973622 
17.575146507 60.862854769 0.1625252049 -19.770033059 -58.173434639 -0.062414642272 -7.2119178472e-07 2.3458820609e-06 0.014489146416 
-4.9480114676e-07 -9.5979162694e-07 -0.0030985400717 3.1865753645e-07 3.9668076595e-08 0.0036788974382 4.6004032446e-07 -1.4768562064e-05 0.011151465817 
-2.9916082769e-06 -2.7440719188e-05 -0.004388579526 -1.2424389648e-05 -0.00010293742726 0.01562004283 3.1568857425 25.237486766 -0.59222342841 
-1.5775821406e-06 5.2040271007e-06 -0.030253621764 2.3062489443 13.085208752 0.027366840116 12.254466679 82.997571833 0.025253233459 
3.896764147e-06 0.00011123657324 -0.042587454198 -6.1346283967e-05 -0.00042363511042 0.043782790488 1.0156353115e-05 7.0118661625e-05 0.037924033084 
-0.27816423955 2.9176373195 -5.0009711458 8.99832626e-07 4.6582647023e-06 -0.008161539519 5.146805025 32.722462722 -0.20840917975 
1.4285532962 0.8842787549 -21.852947634 5.7042678514 17.936157508 -62.098829964 -0.076960065375 -0.54255388817 0.00024948608188 
1.3217878509 4.6587356185 0.010562725864 0.37845807367 2.2578012653 0.0074235085318 -4.0616600231e-06 1.345527135e-06 -0.021238064652 
2.8986505363e-06 -1.6441979755e-05 0.027415612086 -8.5860504987e-06 2.028388047e-05 -0.024852397802 7.2479424855e-05 0.00028897726366 0.053515420156 
1.5201339986e-06 -8.9390841284e-05 -0.028184938959 2.2037705048 21.051678418 -0.37333952562 2.9000174345e-05 8.8018647928e-05 0.07429485476 
1.9280088332e-06 5.7859530431e-06 0.018220887526 -9.6324454544 -23.227833603 0.00014214571432 -6.0896672477e-07 -1.0482560129e-05 -0.025272741735 
2.4483552838e-08 2.4314567608e-06 -0.0094854911048 -0.52827838171 21.463238663 8.3336051821 -0.48214045466 32.246733357 2.0889620275 
-0.33254399154 16.107406739 5.7572635818 -0.52979131159 17.531851849 9.3191113383 -0.66216753251 26.153925995 5.3652532455 
0.034109596884 0.41179999899 0.021458115111 4.13996862e-08 -1.8754688568e-06 0.0047880504869 10.260144898 38.63111864 0.049813252736 
-3.6232667622e-07 4.2099169049e-06 -0.03975951449 2.1625838357e-07 -8.2077524919e-07 -0.014774726429 2.9480932228e-07 -1.3336657987e-06 0.0043832547566 
-0.092405780352 -1.2162537626 -14.488921389 0.034912187624 -2.8704872735 -3.1197960028 -0.15871561322 5.6482385954 6.5871048278 
-0.77676746016 22.276716179 5.0634261847 0.019242288156 -0.1866431851 -11.443662728 -0.18063633444 10.821327331 5.6062416785 
-0.12908720188 2.2334511616 -2.9895795069 -0.042273632224 0.94714581131 -1.8683482622 -0.094006668446 4.6741523577 -6.0540584575 
6.1560839701 25.59076429 0.081647425505 18.481552776 42.6119718 -0.05695650704 -17.960174176 -46.497472689 -0.0081332775949 
0.24163672484 1.9957362576 -0.0050048794795 5.110971161e-06 6.5707023737e-05 -0.019264439421 -1.1787046167e-06 -7.4264873238e-06 0.003930837832 
-6.7462588264e-07 -6.2399749147e-06 0.001423891333 4.0751057464e-06 5.2502460598e-05 -0.018862603242 -0.24587172264 -19.548511881 -12.285421786 
-0.17326055922 30.964801067 6.045961846 0.10796185962 -29.233756419 -7.9341519425 1.1233323036 9.4931087481 -0.014107469092 
-1.9554274331e-06 -7.178151162e-06 -0.041166605843 -1.3765636942e-06 -2.6257170251e-07 -0.0053736492346 11.762073584 25.570657996 0.00056686210239 
0.45239797663 6.8624573923 -0.075048536087 0.56941238609 8.4033984167 -0.18926596733 0.74425773124 10.970793253 -0.30806216363 
0.22577073796 5.4824428195 -0.63436331206 0.89076915932 13.706247482 -0.54924519596 -0.00017118951164 -0.0021185008346 0.082875833786 
0.48938254656 1.0361844936 0.027643341567 0.50302871987 1.0565663738 -0.017419458672 0.038992525177 0.36175681159 -0.0029331833653 
9.8427954242e-07 4.2320454397e-06 0.029053127432 -1.1009509958e-05 -1.5963747977e-06 -0.060770992158 1.5429234851 16.547018925 -0.4950226419 
1.3428102781 14.200680887 -0.39078720238 4.8978682192 35.756902798 -0.50424654078 12.630927657 34.848557861 0.017240715681 
-0.012551372275 -0.13788846933 -0.022209954421 -8.1177777789 -34.606744535 -0.04170808214 2.7165613383 22.13319908 -0.17055638427 
1.3505163772e-05 0.00024847662765 -0.0303750911 0.00052702780856 0.010153455508 -0.070775728781 -1.0631950018e-05 1.4385578018e-05 0.031374104735 
4.4139998629e-06 8.1773897282e-05 -0.018790024699 5.6246813907 29.144892288 -0.048872819012 4.3502573789e-05 0.0001119602485 0.032991796639 
3.8942716682e-07 9.4882750492e-07 -0.0083021853973 1.0766798434e-06 -1.6272040916e-06 -0.01839470962 -0.25496062746 13.143014747 4.1749667186 
1.9401098839 15.806457138 -0.035256245392 -7.1663972264 -30.096377628 -0.027128461947 0.13736685695 8.6527886484 -2.0103536902 
14.981609016 -49.649498404 -0.35465611766 14.164406953 -49.930052985 -0.2834449302 8.5812750614 -58.981703267 -0.62893508123 
4.7173283293 32.739702827 -0.26935613626 0.24007369967 1.7989860278 -0.02491986352 0.094796372968 0.88047227166 0.025376800323 
8.845221163 38.449037157 0.045542686632 -3.0361576817e-06 8.6801165182e-06 -0.022114433108 3.6627021463e-06 2.2336545508e-05 -0.007971362566 
11.937921105 29.385569856 0.056572627144 10.267701387 33.818063002 0.031617701293 -0.21457059171 6.4347216973 2.3717072027 
0.01926787252 -1.3683151244 -2.0557923368 0.047890943643 -4.2375319747 -5.3344476369 0.0054182167588 -5.8824533912 -3.415429227 
-1.2284284423 26.254857286 0.088915423027 3.2512517793 33.944687007 -0.077310509574 2.0135426467 14.952028511 0.010455261319 
0.49618130321 -24.786556669 -0.17003620916 -8.6416013316e-05 -0.00023737986967 0.016886332032 -5.5670377997e-07 -6.0195641674e-06 0.025011394131 
-4.6986974351e-08 -5.5933575527e-07 0.002355629741 -7.5844221734e-06 -0.00036344797011 0.014018738819 -16.96790471 -39.457533836 -0.010944681425 
18.306531035 46.69492906 0.063411840137 -0.04795826441 1.8028019548 -9.7146213825 -0.0013046471534 0.0037413851829 -0.087996639135 
0.23594077566 10.882945502 -2.8480618417 8.6726718692 17.020707928 0.018375440156 -1.1055669934e-05 -2.3169062912e-05 -0.023029786099 
-6.6617872607e-07 -4.0617315055e-06 -0.0052388384392 1.1053152015 11.58915697 -0.16287469833 0.81436327034 8.82774519 -0.0003817605302 
-10.759572595 -24.657142577 0.012712961767 0.33531846717 7.3052918577 -4.3395503052 0.011861631948 3.1022364526 -23.533236644 
-0.28070590301 11.727421237 -5.9231751106 -2.3376600502e-08 8.1180969214e-06 -0.022972598676 -0.00010094026932 -0.00023034943789 -0.020212072147 
1.1463090075e-05 2.6403788004e-05 -0.0034775881753 0.00040217728109 0.00092111034434 0.079557417232 6.1619514674 37.805355809 -0.15627241662 
5.2085550035 37.460055604 -0.061243495099 5.5860576444 38.134327204 -0.4298319923 0.20303278431 -5.003961513 -12.036086076 
-4.9101045584e-07 2.1113824721e-07 -0.0026809346462 -3.1301451565e-06 -1.4240253435e-05 -0.030643580203 5.9111439706 37.061401378 -0.17337188928 
20.60045062 64.301395147 -0.22517717939 -4.4357602502e-07 2.5936829164e-07 0.0061167491404 -2.776841132e-07 -3.0580605244e-07 -0.0013618967849 
7.2793017252 36.766475135 -0.046018375966 4.8338076911e-06 -7.9302423029e-07 0.034653525455 9.3912423008 24.973314589 -0.061676574143 
0.43086691783 3.1664668879 26.21067367 -0.044120081509 -6.0398403903 -7.7403601721 -0.36298617812 -16.758424587 -16.12057158 
1.804206996 34.711631103 10.937903401 6.8703991814 17.070131901 -0.071153498103 3.8207430557 15.771127839 -0.097589364631 
0.032278303277 2.1177986248 -0.40063188366 0.004966728633 0.94743415344 -0.027245526202 -0.16491981078 5.5608780276 2.705906504 
0.022585019023 -0.29373715825 -0.36082389028 0.042139879175 -2.3597770967 -4.9977626426 0.21961919111 -4.1551462413 -5.6930212414 
0.12037079526 13.708887997 -3.3443452795 -8.0228651414e-08 1.202638864e-05 -0.025491152917 -1.4680810755e-06 -6.3569665378e-06 -0.017282576857 
-0.08945931817 3.5164144275 0.87209454741 0.010720140218 -2.3996758939 -3.2770748523 -0.010815084856 0.39572345541 0.55733890511 
-0.54505311357 -26.707527102 -5.0454285466 -0.092196122343 18.183581927 4.6224994819 -0.20965111089 14.998757708 8.3389145339 
-0.20366009514 -15.981036315 -11.86805468 -3.6618814466e-07 2.3795238958e-06 -0.01988525864 15.979673433 40.769183118 0.063707222101 
-0.1373180363 0.75090824149 -6.2623236502 -0.32138323776 -0.70702436206 -15.051107492 -0.035608119212 -0.053771139643 -2.1805142954 
5.7174183217 28.694382562 -0.03086532796 0.062765875179 -1.9236211282 -5.4206181427 -0.013171872844 -0.22507545108 -2.076458428 
-2.1426798683e-06 -1.6195808885e-05 0.010119739242 0.00048531470756 0.0013466169384 0.051782568892 -1.058461506 -33.486355557 -24.886271866 
2.7051758199e-06 1.3737461772e-05 -0.0048111612568 -1.3230663746e-05 -5.282666588e-05 -0.067823945833 -1.6738070405e-05 -5.151725504e-05 0.036810659229 
1.7344233292e-05 7.2247097026e-05 0.038633491507 6.1886245451e-07 6.1226997789e-06 -0.0040525071449 11.636872566 38.693424066 0.023608842969 
13.926721609 42.531783685 -0.00029369849773 16.284816052 46.292201421 -0.084572776334 16.681095719 46.757988082 0.098791787913 
0.77387339177 13.405943004 -1.4093315754 -9.0194910211e-07 -4.7359398019e-06 -0.0017713344859 -1.5898905189 -4.1071203402 12.291508469 
0.65458667955 -5.5712080189 -18.341796183 0.50516665977 -4.1967988929 -25.85085982 13.9855917 33.705601051 0.069534161285 
0.3583660652 11.061884605 -1.4893142125 0.89443520624 4.4960136515 -2.079817043 0.50307844032 3.6791363853 -0.38351303873 
1.8312218625 15.529068363 -0.57657179228 -1.2410042641e-06 -3.1941456615e-07 -0.037596027091 6.5159619489e-07 1.5114872224e-06 0.020444040513 
-0.42878884004 0.88406437372 -14.856822732 -0.056618497523 -0.84456073472 -8.145129298 2.3864087077e-06 6.3178977949e-06 0.013476900764 
2.680839417e-07 8.2100891599e-07 0.0039887074251 -0.028971803185 -25.349319595 -8.409742225 9.6170614458 -60.549133899 0.098048121841 
-0.031641371756 -0.80928118696 -8.7721221859 -2.6098316908e-05 -0.00017899528708 0.062923977273 3.0909703385e-06 2.3049606336e-05 0.0046125542205 
6.9690333753 38.281198977 -0.26854156133 0.47527902247 2.502681651 -0.74238339724 9.7484933527 44.768640389 -0.06129198368 
0.96763107407 12.515584475 24.962680888 -0.39002175961 0.75598027436 7.4226163409 0.00013705527616 0.00031961564744 0.03411913859 
1.5234946062e-06 -6.4853211983e-07 0.0077095895237 0.37890038804 12.596427883 -1.8743202929 0.04710207837 -6.8922483073 -4.5204601328 
4.5806113104e-08 -1.1717159569e-05 -0.0098173704542 7.9319608017 29.259227858 0.041365325645 -0.0001196968191 -0.00027698042366 -0.0145434619 
0.012652894488 0.74434202859 -0.050641307756 0.013478182822 0.77063050239 0.061249297901 0.13813204984 2.5684073084 0.001053375808 
0.066653124932 1.9276204788 -0.008732997243 -0.45730217322 -15.864693196 -12.539187494 0.0041144590688 1.4491180073 0.40660843058 
-0.031008289571 -1.6430881918 0.35762243466 4.306229565e-05 0.0001131860095 0.012458116703 1.5682751472e-06 -2.2180133902e-06 0.011560216387 
8.6060776757e-08 -1.7569225257e-07 -0.0011397447806 -7.7966235332e-06 -1.2074445448e-05 -0.039929414498 -0.1404248727 9.7502070332 7.0311108542 
-0.27647485487 16.272838334 6.218297252 3.3436646756e-06 -2.3339593681e-06 0.049746765238 4.0214442037e-06 -0.00043278414845 -0.03243379852 
3.7606492073 16.328846898 0.011947858518 1.2480125443 2.687517657 0.024926083652 0.36110825169 11.028238918 9.482189777 
-1.4908208275e-05 -0.00032040279384 0.028118543352 21.138783427 -171.61118666 -0.21610345084 0.0027865607878 0.37107108982 -0.73685717849 
0.0019358750014 0.19380154238 -1.1026805088 -0.082613138828 4.1921026189 -6.6209426486 1.2380877122 2.7023827833 -0.023278243633 
-3.1472016589e-05 -9.5469057109e-05 -0.055094961242 1.1465926335e-05 2.7717898812e-05 0.015365502167 0.17036810187 3.4280061297 -0.039598862679 
-5.8029980414e-07 -3.8746399111e-06 0.039781695475 0.20184200922 -3.060181517 -11.0211558 0.0079464585655 -3.5309861563 -4.0681222537 
10.179399134 20.717313714 -0.0031067645052 -4.313274971e-06 -3.9351398534e-05 -0.035282743425 -0.065098795211 4.9243072295 3.2046772869 
14.854904875 -177.87069642 0.1493024578 13.304587611 -176.9215987 0.27990129059 0.16094229814 3.9440882361 -0.094985600738 
6.2711398685e-05 0.0022495680955 -0.012481680596 4.8493912137 22.325518796 -0.028098414015 8.4646429743 42.142226773 -0.12408820853 
9.1112495149 34.25969508 0.064387405837 -0.00051162018032 0.008179670854 -0.0052160308243 -7.3737985082 37.218907914 -0.0083882888168 
-3.8117172423e-05 -0.0001144304548 0.079562372858 -8.8390823904 -43.113126497 -0.038080792163 1.6851715788e-05 0.0001252488201 0.043177521152 
-3.3583129482e-06 -9.1564973347e-06 0.030313810041 -0.00018368184559 -0.0071053596341 0.029425759635 -0.00014994748817 -0.0047177011288 0.080711034534 
1.4385844649e-06 9.3156298569e-06 0.014454703115 1.2224541424e-06 -2.5218847251e-05 -0.0500790024 0.054961480185 2.0629224283 -0.040613433488 
-3.1645952876e-07 -4.5766521812e-06 -0.0085323652622 -3.6498348098e-06 -1.8143311406e-05 -0.024322432977 -6.9504595572e-06 -1.2245027501e-05 -0.040315446131 
-18.981840872 -53.502554602 -0.0014882531685 -18.501959303 -53.100160448 0.0066945931804 0.22157384577 5.0152844094 -0.00086320501153 
0.2207126965 -0.052616654189 -5.5443689134 11.084037145 -199.99376744 0.049009697465 -1.4840183355e-06 -9.8071553941e-06 0.0048829783575 
-9.1747245113e-05 -0.070053386073 -0.97825637932 0.011637143778 0.77707471603 -0.089712367883 0.0078975289783 0.59818561715 0.053279158474 
-2.015049523e-05 -0.0003940828905 0.054992517582 -1.1488635881e-06 -1.888124755e-05 -0.002871481895 -1.5813338368e-07 7.1203434476e-07 0.0024555367321 
2.117420328e-07 -1.5487740021e-07 0.0013900440417 -0.00016304680372 0.16682791326 0.021308434129 -2.5470595241e-07 -3.0127720707e-06 0.0011840991105 
-3.3231394537e-07 1.2231494797e-06 0.0045913645322 0.012442499854 0.78767524966 0.009027016989 -1.3709306249e-07 1.1032439881e-06 0.0032472710586 
8.8449536229e-06 0.00010878405766 -0.022048680456 -1.1085536985e-06 1.2935391091e-06 0.0071126424616 4.2847622517e-06 8.9166178746e-06 0.034178819322 
-7.6648866124e-06 -1.1784634536e-05 -0.019640342708 -6.7371528658e-05 -0.00043179927772 -0.03369560541 39.70319506 -141.8903987 -0.14871817953 
34.281532618 -83.849375031 -0.4660776327 4.7350136351 10.780049419 0.0030505664528 
Critical%20Strain%20Ratio 1 3545 double
0.032716056154 0.00015560892273 9.2564607912e-05 0.053089931225 0 0 0 0 0 
0 0.017839240668 0.011427250819 0.0049034627992 0.0010700919475 0.021473514006 0.010965188937 0.0079418114015 0.0027942580989 
0.00023166708239 0 0.040353859564 0.011469404757 0.0027946618182 0.00030236434754 0.043857102604 0.020188868939 0.0055733390495 
0.0014422903519 1.9660598263e-05 0.04383623561 0.00036936635108 0.0011627297276 0.0066251504388 0.0089731088845 0.0053277051989 0.0019079345758 
0.000524928517 0.00012390729708 2.8748506832e-06 0 0 0 0 0 0 
0 0 0 0 0.0001487938886 0.00010366909505 0.0041002163597 0.0073418285871 0.0072213601118 
0.0035569955974 0.0012121384008 0.00031485840255 4.3448072442e-05 0 0 0 0 0 
0 0 0 0 0 0 0 0 0 
0 0 0 0 0 0 0 0 0 
0 0 0 0 0 0 0 0 0 
0 0 0 0 0 0 0 0 0 
0 0 0 0 0 0 0 0 0 
0 0 0 0 0 0 0 0 0 
0 0 0 0 0 7.8997586712e-05 0.019410608151 0 0 
0 0 0 0 0.01096721124 0.0213302848 0.00019350149906 0.00027201664558 0.0077508738658 
0.010631020841 0.0048440524704 0.0016002169987 0.00036277047982 9.6028335353e-05 3.0406722929e-06 0 0 0 
0 0 0 0 0 0 0 7.3924270716e-05 0.00016757209117 
0.0039107134322 0.0090584786253 0.0078050673841 0.003042514463 0.0009864628854 0.00022972280899 3.3429984702e-05 0 0 
0 0 0 0 0 0 0 0 0 
0 0 0 0 0 0 0 0 0 
0 0 0 0 0 0 0 0 0 
0 0 0 0 0 0 0 0 0 
0 0 0 0 0 0 0 0 0 
0 0 0 0 0 0 0 0 0 
0 0 0 0 0 0 0 0 0 
0.0004368722235 0.014167453238 0 0 0 0 0 0 0.0039491738805 
0.031155092702 0 0 0.00025047166975 0.045299082608 0.023491159393 0.0062080452355 0.0014736293026 0.046669134868 
0.058771083347 0.02546389776 0.00010557784638 0.00017165958152 0.00027858078479 1.0269627177e-05 0.046022334147 0.016802848603 0.020041742499 
0.034233308252 0.033232558954 0.005490925463 0.0089078921407 0.014063159303 0.018632617549 0.007982712366 0.0013590856407 0.002901382991 
0.0036173096998 0.0040661043187 0.0020892925737 0.00065056020322 0.00082604024435 0 0 2.3670682941e-06 0 
0 0 0 0.0050219038108 0 0 0 0 0 
0 0 0 0 0 0.0014335491302 8.240203283e-05 0 0 
0 0 0 2.6179032483e-05 0 0 0 0 0.0065446323308 
0 0 0 0 0.010604377393 0 0 0 0 
0 0 0 0 0 0.0073872870519 0 0 0 
0 0 0 0 0 0 0.00022081245816 3.6154303328e-05 9.5492319878e-05 
0 0 0 0 0 0 0 0.0011790478101 0 
0.0086531906822 0 0 0 0 0 0 0 0 
0 0.00013533927732 0 0 0 0 0 0 0 
0 0 0 0 0 0 0 0 0 
0 0 0 0 0 0.0055134709393 0.0062234853749 0 0 
0 0 0 0.00042422486522 0 0 0 0 0 
0 0.00082439481661 0.003674355638 0 0.0015861532688 0 2.4377167799e-05 0 0 
0 0 0.0040623847093 0.0090113221226 0 0 0 0 0.020045554764 
0 0 0 0 0 0 0 0 0 
0.0054389948788 0 0 0 0 0 0 0.013852739007 0 
0.003845813544 0 0 0.0085135138337 0 0 0 0 0 
0 3.6240287163e-05 0 3.3840805401e-05 0 0 0 3.6895973438e-06 0 
0 0 0 0.00012367012753 0 0 0 0 0 
0 0 0 0 0 0 0 0 0 
0.0087255288497 0 0 0 0.002293569211 0.0045412417257 0 0 0 
0 0 0 0 0 0 0 0 0 
0 0 0 0 0 0.026698402188 0.02081425345 0.017172732854 0.0013562917683 
0.00044357136178 0.00048538669735 0 0 0 0 0 0 0 
0 0 0.016526717166 0.010991803662 0.014289816562 0.0095611515977 0.0066940058572 0.011821796445 0.0045035699456 
0.0024463329629 0.0057027648396 0.0026273099467 0 0 0 0 0 0 
0 0 0 0 0 0 0 0 0 
0 0 0 0 0 0 0 0 0 
0 0 0 0 0 0 0 0 0 
0 0 0 0 0 0 0 0 0 
0 0 0 0 0 0 0 0 0 
0 0 0 0 0 0 0 0 0.00014240180743 
0 0.0017402804519 0.013739817161 0.0012007183013 0.016263193521 0 0 0 0 
0 0 0 0 0 0 0 0 0 
0 0 0 0 0 0 0 0 0 
0 0 0 0 0 0 0 0.00070908539242 0.0017216229752 
0.0020843356902 0.0042383720648 0.0061163128139 0.0047396910773 0.0077309363596 0.0083693652994 0.0066023080331 0.0068315649123 0.005080271657 
0.0062046104063 0.0074819116021 0.0050876879168 0.0031379304809 0.0016359202842 0.0028697550604 0.0011390857784 0.00047862039968 0.00089581124085 
0.00017163631051 1.9805361049e-05 0.00018731588131 0.00020167296525 3.2523268831e-05 1.0002133804e-05 0 0 0 
0 0 0 0 0 0 0 0 0 
0 0 0 0 0 0 0 0 0 
0 0 0 0 0 0 0 0 0 
0 0 0 0 0 0 0 0 0 
0 0 0 0 0 0 0 0 0 
0 0 0 0 0 0 0 0 0 
0 0 0 0 0 0 0 0 0 
0 3.9785994346e-06 0 0 0 0 4.255114173e-05 6.4421737209e-06 2.8732779275e-05 
4.1265483699e-05 3.003781633e-05 0 0 0 0 0 0 0 
0 0 0 0 0 0 0 0 0 
0 0 0 0 0 0 0 0 0 
0 0 0 0 0 0 0 0 0 
0 0 0 0 0 0 0 0 0 
0 0 0 0 0 0 0 0.0030157526567 0.00061328633235 
0.0024553066455 0.0019270856797 0.0043500644449 0.0054109100858 0.0032445513057 0.0058797205291 0.0066936472171 0.0066548513559 0.0066473272269 
0.0084063878677 0 0 0 0 0 0 0 0 
0 0 0 0 0 0 0 0 0 
0 0 0 0 0 0 0 0 0 
0 0 0 0 0 0 0 0 0 
0 0 0 0 0 0 0 0 0 
0 0 0 0 0 0 0 0 0 
0 0 0 0 0 0 0 0 0 
0 0 0 0 0 0 0 0 0 
0 0 0 0 0 0 0 0 0 
0 0 0 0 0 0 0 0 0 
0 0 0 0 0 0 0 0 0 
0 0 0 0 0 0 0 0 0 
0 0 0 0 0 0 0.0027290440167 0.00079726867834 0.00022345449439 
0.00060199518859 0.0007962383149 0.0007226283326 0.0014279278295 0.0030004068202 0.0046055586907 0.0038031667074 0.00023347416363 0.00010554843041 
3.9062795252e-05 0.00013825842627 0.00045857223856 1.4199733637e-05 0.00010184026375 0 0 0 0 
0 0 0 0 0 0 0 0 0 
0 0 0 0 0 0 0 0 0 
0 0 0 0 0 0 0 0 0 
0 0 0 0 0 0 0 0 0 
0 0 0 0 0 0 0 0 0 
0 0 0 0 0 0 0 0 0 
0 0.0002690342303 9.1677421895e-06 0 0 9.9613884554e-05 0.0006564552774 1.5962793215e-07 0 
0 0 0 0 0 0 0 0 0 
0 0 0 0 0 0 0 0 0 
0 0 0 0 0 0 0 0 0 
0 0 0 0 0 0 0 0 0 
0 0 0.0085227481921 0.0075874149749 0.0083148208381 0.0052404146876 0.006912139103 0.0070485840734 0.0063681721418 
0.0042821467132 0.0041637847086 0 0 0 0 0 0 0 
0 0 0 0 0 0 0 0 0 
0 0 0 0 0 0 0 0 0 
0 0 0 0 0.0069345412536 0.0024579659725 0.0059909098788 0.0028580985541 0.0080479265556 
0.010028422117 0.0093752586337 0.011124769037 0.017005651638 0 0 0 0 0 
0 0 0 0 0 0 0 0 0 
0 0 0 0 0 0 0 0 0 
0 0 0 0 0 0 0 0 0 
0 0 0 0 0 0 0 0 0 
0 0 0 0 0 0 0 0 0 
0 0 0 0 0 0 0 0 0 
0 0 0 0 0.0052438724345 0.0057997086353 0.0083715430681 0.0079013654207 0.0066858535084 
0 0 0 0 0 0 0 0 0 
0 0 0 0 0 0 0 0 0 
0 0 0 0 0 0 0 0 0 
0 0 0 0 0 0 0 0 0 
0 0 0 0 0 0 0.00018732179997 0 0.00050729248516 
0.0039622684867 0.010962310058 0.008014356834 0.0026927275759 0.00019587379278 0.0010064239625 6.3425081064e-07 0 0 
0 0 0 0 0 0 0 0 9.651335545e-05 
5.3800728819e-05 0.00025180243322 9.8350457973e-05 0 0 0 0 8.8321230929e-05 0.00044470323263 
0.00013212413467 0.00026113677991 0.0054117555536 0.002389552926 0.00017411596265 0.00057516099956 0.0017205805211 0.010196778826 0.0084714575458 
0.0063518530893 0.0076485571749 0.0083128439516 0.006540647133 0.0084482944251 0.010788859372 0.0098570642317 0.0094236200268 0.0022298026355 
0.0041227991371 0.0065549174 0.005156653497 0.0037325199707 0.00077404331329 0.0014630800475 0.0020946384413 0.0017631849808 0.0013087978091 
0.00016218465524 0.00035631351137 0.00027666786543 0.00045805306989 0.00069481300695 2.6827527874e-06 6.2219455287e-05 0.00014913886078 0.00012126392808 
4.339404939e-05 0 0 2.9136333936e-06 0 0 0 0 0 
0 0 0 0 0 0 0 0 0 
0 0 0 0 0 0 0 0 0 
0 0 0 0 0 0 0 0 0 
0 0 0 0 0 0 0 0 0 
0 0 0 0 0 0 0 0 0 
0 0 0 0 0 0 0.0045248362783 0 0 
0 0 0 0 0 0 0 0 0.0012365011827 
1.6615548619e-05 0 0 0 0 0 9.0255401921e-05 0 0 
0 0 0.0064500621446 0 0 0 0 0.010715148054 0 
0 0 0 0 0 0 0 0 0.0087266033215 
0 0 0 0 0 0 0 0 0 
6.0886886798e-05 3.2154909832e-05 0.00028720426567 0 0 0 0 0 0 
0 0.00097638360527 0 0.0089412929931 0 0 0 0 0 
0 0 0 0 5.9813525947e-05 0 0 0 0 
0 0 0 0 0 0 0 0 0 
0 0 0 0 0 0 0 0 0.0067180169944 
0.0073225046948 0 0 0 0 0 0.00014621602608 0 0 
0 0 0 0 0.00041318075689 0.003177864504 0 0.0011685529848 0 
3.0407636446e-06 0 0 0 0 9.032985573e-05 0.011397547318 0 0 
0 0 0.021868889681 0 0 0 0 0 0 
0 0 0 0.004010738354 0 0 0 0 0 
0 0.017364586456 0 0.0033122533732 0 0 0.010257416647 0 0 
0 0 0 0 8.7652142213e-05 0 2.2307204902e-05 0 0 
0 0 0 0 0 0 1.802380313e-06 0 0 
0 0 0 0 0 0 0 0 0 
0 0 0 0.010808476975 0 0 0 0.0015115705461 0.0036426963884 
0 0 0 0 0 0 0 0 0 
0 0 0 0 0 0 0 0 0.00028768829398 
0.00080434202906 0.00033276670703 0.03905380004 0.016295031411 0.027701355515 0 0 0 0 
0 0 0 0 0 0 0 0 0 
0 0 0 0 0 0 0 0 0 
0 0 0 0 0.0039775249557 0.0003369801249 8.2318957725e-07 0.0085254615584 0 
0 0 0 0 0 0 0 0 0 
0 0 0 0 0 0 0 0 0 
0 0 0 0 0 0 0 0 0 
0 0.014713195175 0.024719407162 0.014463716845 0.0055580634397 0.009810301295 0.013056407023 0.0016604520213 0.003224270221 
0.0059533420119 0.0021657626757 0.00077610620573 0.00043830142269 0.001590192446 0.0081097273296 0.0032156309892 0.004148056015 0.010601851281 
0.0094150266655 0.0083796756402 0.0042720646198 0.0073754256087 0.0090969810662 0.0082770866956 0.0047813229455 0.0012278795091 0.0025185146935 
0.002150111652 0.00027427244782 0.00081267273538 0.00060321950224 1.6782505419e-05 0.00010604888287 0.00012026807966 7.3343600254e-05 3.8008431066e-05 
7.5115649529e-06 0 0 0 0 0 0 0 0 
0 0 0 0 0 0 0 0 0 
0 0 0 0 0 0 0 0 0 
0 0 0 0 0 0 0 0 0 
0 0 0 0 0 0 0 0 0 
0 0 0 0 0 0 0 0 0 
0 0 0 0 0 0 0 0 0 
0 0 0 0 0 0 0 0 0 
0 0 0 0 0 0 0 0 0 
0 0 0 0 0 0 0 0 0 
0 0 0 0 0 0 0 0 0 
0 0 0 0 0 0 0 0 0 
0 0 0 0 0 0 0 0 0 
0 0 9.3496239123e-05 0 6.8463879933e-06 0 0 0 0 
0 0 0 0 0 0 0 0 0 
0 0 0 0 0 0 0 0 0 
0 0 0 0 0 0 0 0 0 
0 0 0 0 0 0 0 0 0 
0 0 0 0 0 0 0 0 0 
0 0.0018114521695 0.00031480402047 0.0022696250299 0.0038722762105 0.0014379159592 0.0020812371387 0.0044957587461 0.0072647218891 
0.0063111811912 0.0074578377013 0.0072660784724 0.011131447837 0 0 0 0 0 
0 0 0 0 0 0 0 0 0 
0 0 0 0 0 0 0 0 0 
0 0 0 0 0 0 0 0 0 
0 0 0 0 0 0 0 0 0 
0 0 0 0 0 0 0 0 0 
0 0 0 0 0 0 0 0 0 
0 0 0 0 0 0 0 0 0 
0 0 0 0 0 0 0 0 0 
0 0 0 0 0 0 0 0 0 
0 0 0 0 0 0 0 0 0 
0 0 0 0 0 0 0 0 0 
0 0 0 0 0 0 0 0 0 
0.00059852724457 0.0022578133092 0.00051098864277 5.3394022393e-05 0.0012013301042 0.00046938138111 0.00057357673464 0.0022976414574 0.003405256299 
0.004605236417 3.6346549809e-05 0.00013883646763 3.3286340219e-05 4.6008161206e-06 1.3736922674e-05 6.966523882e-05 0 1.1432422152e-05 
0 0 0 0 0 0 0 0 0 
0 0 0 0 0 0 0 0 0 
0 0 0 0 0 0 0 0 0 
0 0 0 0 0 0 0 0 0 
0 0 0 0 0 0 0 0 0 
0 0 0 0 0 0 0 0 0 
0 0 0 0 1.514664149e-05 1.4198393377e-05 0 0 0.00036980276064 
7.0992393713e-05 0 0 0 0 0 0 0 0 
0 0 0 0 0 0 0 0 0 
0 0 0 0 0 0 0 0 0 
0 0 0 0 0 0 0 0 0 
0 0 0 0 0 0.0080647780621 0.008520701509 0.0098829336834 0.0051308878723 
0.0070191122832 0.0093649251133 0.0087638657429 0.0037751499794 0.0035804523516 0 0 0 0 
0 0 0 0 0 0 0 0 0 
0 0 0 0 0 0 0 0 0 
0 0 0 0 0 0 0 0.0029992213602 1.2134316821e-05 
0.0031677284235 0.0063324308567 0.0014669432078 0.010198178669 0.011692635165 0.013694680828 0.01905261608 0 0 
0 0 0 0 0 0 0 0 0 
0 0 0 0 0 0 0 0 0 
0 0 0 0 0 0 0 0 0 
0 0 0 0 0 0 0 0 0 
0 0 0 0 0 0 0 0 0 
0 0 0 0 0 0 0 0 0 
0 0 0 0 0 0 0 0.0079336162323 0.0054268084284 
0.010485916312 0.0082207667962 0.0091232030545 0 0 0 0 0 0 
0 0 0 0 0 0 0 0 0 
0 0 0 0 0 0 0 0 0 
0 0 0 0 0 0 0 0 0 
0 0 0 0 0 0 0 0 0 
0 0 0 0 0 0.00019727657845 0.0013394381272 0.033937906053 0.043076219163 
0.034057009389 0.031009959499 0.026462160616 0 0 0 0 0 0 
0 0 0 0 0 0 0 0 0 
0 0 0.00024972900438 0 0.00014946301058 0.006801697339 0.00022820215924 0.014419636896 0 
0 0 0 0 0 0 0 0.00020010360998 0 
0.0093492875896 0.0010570451461 0 0 0 0 0 0 0 
0 0 0 0 0 0 0 0 0 
0 0 0 0 0 0 0 0 0 
0 0 0 0 0 0 0 0 0 
0 0 0 0 0 0 0 0 0 
0 0 0 0 0 0 0 0 0 
0 0 0 0 0 0 0 0 0 
0 0 0 0 0 0 0 0 0 
0 0 0 0 0 0 0 0 0 
0 0 0 0 0 0 0 0 0 
0 0 0 0 0 0 0 0 0 
0 0 0 0 0 0 0 0 0 
0 0 0 0 0 0 0 0 0 
0 0 0 0 0 0 0 0 0 
0 0 0 0 0 0 0 0 0 
0 0 0 0 0 0 0 0 0 
0 0 0 0 0 0 0.0015672910062 0 0 
0 0 0 0 0 0 0.0033684135273 0.0050454630204 0 
0 0 0 0 0 0 0 0 0 
0 0 0 0 0 0 0 0 0.00059306518661 
0.00045138697239 0.00075794753449 0.0012488777115 0.0010176245883 0 0 0 0 0 
0 0 0 0 0 0 0 0 0 
0 0 0 0 0 0 0 0.00020061206943 0.00089292450949 
0 0 0 0 0 0 0 0 0.00021819583045 
0.00033180566958 0.00027570717552 6.8017965289e-05 5.6289420075e-05 0 0 0 0 0 
0 0 0 0 0 0 0 0 0 
0 0 0 0 0 0 0 0 0 
0 0 0.0075796476735 0.011551212805 0.012291474339 0.016262772005 0.010319239202 0 0 
0 0 0 0 0 0 0 0 0 
0 0 0 0 0 0 0 0 0 
0 0 0 0 0 0 0 0 0 
0 0 0 0 0 0 0 0.016808802104 0.021904237919 
0.015706450736 0.00035225548885 0.00053492765083 0.00069606158296 0 0 0 0 0 
0 0 0 0 0 0 0 0 0.001397427711 
0.0012315383152 0.00066940177003 0.0018822974899 0 0 0 0 0 0 
0 0 0 0 0 0 6.2514232131e-05 2.292465516e-05 0 
0 0 0 0 0 0 0 0 0 
0 0 0 0 0 0 0 0 0 
0.0074922769431 0.005478408462 0.0078102442947 0.0066775905626 0.010897600914 0.0022039122488 0.0028090566139 0.0045225511668 0.0018188275723 
0 0 0 0 0 0 0 0 0 
0 0.0077654769067 0.0085137211164 0.0011294426648 0.00066585918476 0.00039561636119 0 0 0 
0 0 0 0 0 0 0 0 0 
0 0 0 0 0 0 0 0 0 
0 0 0 0 0 0 0 0 0 
0 0 0 0 0 0 0 0 0 
0 0 0 0 0 0 0 0 0 
0 0 0 0 0 0 0.0041351952392 0 0 
0 0 0 0 0 0 0 0 0 
0 0 0 0 0 0 0 0 0 
0 0 0 0 0.0082170013522 0.0087812871928 0.0080189595005 0 0 
0 0 0.00092924929514 0 0 0 0 0 0 
0 0 0 0 0 0 0 0 0 
0.0085706575959 0.0072847026405 0.010029218296 0 0 0 0 0 0 
0 0 0 0 0 0 0 0 0 
0 0 0 0 0 0 0 0 0 
0 0 0 0.0095945299684 0 0 0 0 0 
0 0 0 0 0 0 0 0 0 
0 0 0 0 0 0 0.010822798578 0.01579700206 0 
0 0 0 0 0 0.0081258145652 0.009926380101 0.0087681874464 0.0067650519165 
0 0 0 0 0 0 0 0 0.011224925521 
0.0096902630544 0.0082374936388 0 0 0 0 0 0 0 
0 0 0 0 0 0 0 0 0 
0 0 0 0 0 0 0 0 0 
0 0.010403886634 0.0093222967676 0 0 0 0 0 0 
0 0 0 0.0017348118565 0.0010142893935 0 0 0 0 
0 0 0 0 0 0 0.008480222404 0 0 
0 0.010784462509 0.010583033115 0.0085758201759 0.008280551248 0.0063582741056 0 0 0.0069140130177 
0.0052156758931 0 0 0 0 0 0 0 0 
0 0 0 0 0 0 0 0 0 
0 0 0 0 0 0 0.020568450333 0.025418324646 0 
0 0 0 0 0 0 0 0 0 
0 0 0 0 0 0 0 0 0 
0 0 0 0 0 0 0 0 0 
0 0 0 0 0 0 0 0 0 
0 0 0 0 0 0 0 0 0 
0 0 0 0 0 0 3.8177793431e-06 0 0.00012176750965 
1.4069511535e-05 0 0 0 0 0 0.00042463714909 2.7980698246e-05 2.0588791663e-05 
0 0 0.010380988298 0 0 0 0 0 0 
0 0 0 0 0 0 0 0 0 
0 0 0 0 0 0 0 0 0 
0 0 0 0 0.020151839847 0.030082386864 0.030606646933 0 0 
0 0 0 0 0 0 0 0 0 
0 0 0 0 0 0 0 0 0 
0 0.006541218323 0 0 0 0 0 0 0 
0 0 0 0 0 0 0 0 0 
0 0 0 0 0 0 0 0 0 
0 0 0 0.0063291618253 0.0054166976348 0.0058264902 0 0 0 
0 0 0 0 0 0 0 0.0069789446616 0.0061149878291 
0.0084680396813 0 0 0 0 0 0 0 0 
0 0 0 0 0.0076026873403 0 0 0 0 
0 0 0 0 0 0.00012434443448 0 0 0 
0 0 0 0 0 0 0 0 0 
0.0043652765665 0.0061029531369 0.0047497244902 0.0035396855768 0 0.0071678596001 0 0 0 
0 0 0 0 0 0.010927156051 0.0082697421394 0 0 
0 0 0 0 0 0 0 0 0 
0 0 0 0 0 0 0 0 0 
0 5.9148911802e-06 4.5044327692e-05 0 0 0 0 0 0 
0 0 0 0 0 0 0 0 0 
0 0 0 0 0 0 0 0 0 
0 0.0001691017913 0.0014867508245 0.00088076647169 0.00096242208261 0 0 0 0 
0 0 0.0074530016111 0.0039524861725 0.0061633720577 0 0 0 0 
0 0 0 0 0 0 0 0 0 
0 0 0.0047499327889 0 0 0 0 0 0 
0 0 0 0 2.3796466728e-06 0 0 0 0 
0 0 0 0 0 0 0 0.00027847644844 0 
0 0 0 0 0 0 0 0 0 
0 0 0 0 0 0 0 0 0 
0 0 0 0 0 0 0 0 0 
0 0 1.8476020378e-05 2.6592880285e-05 0 0 0 0 0 
0 0 0 0 0 0 0.00039330674395 0.00030688163067 0.00031827287002 
0 0 0.0001399090226 0 0 0 0 0 0 
0.00018215648222 0 0 0.020056796613 0 0 0 0 0 
0 0 0 0 0 0 0 0 0 
0.032884160865 0 0 0 0 0 0 0 0 
0 0 0 0 0 0 0 0 0 
0.005226946074 0.00051580173159 3.5798807022e-05 0 0 0 0 0 0 
0 0 0 0 0 0 0 0 0 
0 0 0 0.0016758397265 0 0 0.0026525668882 0.00024832771474 0 
0 0 0 0 0 0 0 0 0 
0 0 0 0 0.0031794312399 0.0027556358385 0.0049843841736 0.0041561910734 0.0023493077607 
0 0 0 0 0 0 0.0006395755561 0.0025232577094 0.0016666726653 
0.0014796382853 0.0012911461816 0.0022919673909 0.00013487033761 0.00050243934049 5.7320304575e-05 0 0 0 
0 0 0 0 0 0.0026373128717 0.0023219606178 0.0030389421921 0 
0 0 0 0 0 0 0 0 0 
0 0 0 0 0 0 0 0 0 
0 0 0 0 0 0 0 0 0 
0 0 0.0080195624674 0 0 5.589237329e-06 0 0 0 
0 0 0 0 0 0 0 0 0.0032510839217 
0.0037844932593 0.004058526547 0.0022447921472 0 0 0 0 0 0 
0 0 0 0 0.0011884989683 0.00058427985701 8.6426117218e-06 0 0 
0 0 0 0 1.876757946e-05 1.5135067128e-05 2.386640756e-05 0 0 
0 0 0 0 0 0.0026218761969 0 0 0 
0 0 0 0 0 0 0.00014325882859 0.0025331277975 0.0046945367041 
0.0025030678387 0 0 1.2591293686e-05 4.962249703e-05 0.00017158477436 0.00045226135645 0.00051538069186 0.00038443611415 
2.9767123421e-05 0 0 0.0058634733037 0.0051627555121 0.0063871958281 0.0043495009225 0.0048579557989 0.0055652353988 
0.0054491708736 0 0 0.0034757876339 0.0022977068251 0.0026512691036 0 0.00090367841285 0.001565277101 
0 0 0.0045794482474 0 0 0 0 0 0 
0 0 0 0 0 0.018841621557 0.010015894042 0.0088748071969 0 
4.8696617445e-06 0 0 0 0 0 0.0023335400995 0.0013564045895 0 
0 0.0018888411295 0 0.0013932233808 0 0 0 0 0 
0.031080543229 0.028119332921 0 0 3.9544880591e-06 0.0046109176567 0 0 0 
0 0 0 0 0.0082607750488 5.0041082762e-05 1.2024328379e-05 0 0 
0 0 0.0035337836269 0.0032687896145 0 0 0 0 0.016304623346 
0 0 2.0373629442e-05 9.4202261221e-06 4.5595636744e-06 0 0 0 0 
0 0.00051371327949 0.00356990905 0 0 0.0045040429511 0 0 0 
0 0 0 0 0.0038720440843 0 0 0 0 
0 0 0 0 0 0 0 0 0 
0 0 0 0.035520445766 0 0 4.1304942264e-06 0 0 
0 0 0 0 0 0 0 0 0 
0 0 0 0 0 0 0 0 
Displacement%20Magnitude 1 3545 double
0.00017077510425 0.00023353345261 0.000229769 5.66968e-05 0.00033364490482 0.00034952482369 0.00030549520568 0.00033365131024 0.00034943 
0.000304724 0.00020433583216 0.00022517676077 0.00022866568169 0.00023130295256 0.00018584142877 0.00021718621631 0.00022808347394 0.00023024592179 
0.00023254457016 0.00023097404358 0.000164257 0.0002072 0.000219938 0.000226594 0.000123822 0.00019039 0.000215007 
0.000224002 0.000228572 0.00010167580683 0.00022759868091 0.00020566850843 0.00016653212378 0.00015620238737 0.0001835967739 0.00020887464816 
0.00022541085877 0.00023789498544 0.00024912810766 0.00025988872906 0.00027006241039 0.00027949230429 0.00028815423282 0.00029609480759 0.00030336515765 
0.00031006565783 0.00031629867659 0.00032220627147 0.00032792752948 0.0002324392617 0.00021891808161 0.00018654015405 0.00015525871744 0.00016765466517 
0.00019736074167 0.00021781048546 0.00023188311949 0.00024359670745 0.00025457065435 0.00026506206349 0.00027487080453 0.00028391564248 0.00029220842984 
0.00029980685996 0.00030677950126 0.00031323175875 0.00031928455784 0.00032507704831 0.00033077952381 0.00034920550175 0.00034828202168 0.0003468240433 
0.00034495842309 0.0003428328386 0.00034061585113 0.0003384957475 0.00033660848207 0.00033502591584 0.00034944199886 0.00034881622655 0.00034761067551 
0.00034593400083 0.00034391631479 0.0003417232194 0.00033953417627 0.00033751803441 0.00033578042326 0.00033432583718 0.000307163354 0.00030748447507 
0.00030777107097 0.00030853017837 0.00030986888282 0.00031185477905 0.00031442369107 0.00031754651942 0.00032116426903 0.00032522095198 0.0003296525922 
0.00033438924186 0.00033935294254 0.00034444277803 0.00030661141668 0.00030735527744 0.00030757348417 0.00030807401116 0.00030912049333 0.00031078633062 
0.00031306524684 0.00031591911778 0.00031929691255 0.00032314162033 0.00032739427455 0.00033198691333 0.00033684857968 0.00034188834182 0.00034699428052 
0.00030376825282 0.00029896210895 0.00029136515574 0.00028200603513 0.00027165562385 0.00026030226313 0.00020862041878 0.00030500806509 0.00030167937183 
0.0002954496576 0.00028683050816 0.00027683790458 0.00026648826995 0.0002420454149 0.00017061491074 0.00022278765235 0.00019904766208 0.00016517811091 
0.00016069343006 0.00018856716464 0.00021100018745 0.00022609893374 0.00023805652453 0.00024921100165 0.00025997324896 0.00027015215365 0.0002795827786 
0.00028824154756 0.00029617189426 0.00030343295141 0.00031011800201 0.0003163375146 0.0003222276795 0.00032793852343 0.00022840057776 0.00021299820024 
0.00018218060965 0.00015684042236 0.00017369341723 0.00020079283329 0.00021912518046 0.00023219688168 0.00024370130298 0.00025464930709 0.00026515062491 
0.00027496192251 0.00028400654711 0.0002922921421 0.00029987937623 0.0003068405947 0.00031327732034 0.00031931466873 0.00032509071244 0.00033078677475 
0.00033364749158 0.0003491168608 0.00034820285919 0.00034676258795 0.00034491671965 0.00034281284639 0.00034061844401 0.00033851575071 0.00033663576698 
0.0003350443068 0.00034934922438 0.00034872878811 0.00034753985004 0.00034587991872 0.00034388397688 0.00034171554302 0.00033954800165 0.00033754319228 
0.00033580578809 0.00033433623974 0.000306576 0.000307046 0.000307453 0.000308297 0.000309686 0.000311717 0.00031431 
0.000317457 0.000321085 0.000325152 0.000329586 0.000334321 0.000339278 0.00034436 0.000305926 0.00030685 
0.000307201 0.000307802 0.000308916 0.000310628 0.00031294 0.000315818 0.000319213 0.000323068 0.000327327 
0.00033192 0.000336778 0.00034181 0.000346904 0.0003031080946 0.00029845845435 0.00029125840277 0.00028204630301 0.00027225833305 
0.0002645352181 0.00023395956754 0.00030426491838 0.00030110813126 0.0002951245018 0.00028677544256 0.00027707005233 0.00026802668572 0.000258396197 
0.00015490781685 0.00030483675032 0.0003494512055 0.0002296456413 0.00014663579979 0.00019753111443 0.00021720531264 0.00022556191587 0.00015309774639 
0.00010107799384 0.00017885378089 0.00022950627383 0.00023158240331 0.00023029361604 0.00022802158021 0.00015347623917 0.0002118786989 0.00019965249651 
0.00017887367874 0.00018152335365 0.00022289129719 0.00021950402914 0.00021038821662 0.00020122605321 0.00021196365425 0.00022846254353 0.00022627888654 
0.00022188872141 0.00021803511306 0.00022257302954 0.00022799354718 0.00022574384623 0.00028008195946 0.00031251123623 0.00023974128243 0.00028765075889 
0.00030458974066 0.00033056977692 0.0003209563388 0.00019706973324 0.00029508884464 0.00025287442513 0.00031766175928 0.00030076137411 0.00030324256768 
0.00027236780681 0.0003311453761 0.00026795744105 0.00030148866027 0.00029114631586 0.00020735223436 0.00023777945257 0.00032657254013 0.0003096641717 
0.0003253660007 0.00034032309558 0.00026327506556 0.00023026582735 0.00028637188332 0.0003135193772 0.00032085803807 0.00032144377042 0.00020445008511 
0.00027665235131 0.00033776267516 0.00033083495952 0.00031156220296 0.00019734833001 0.00029443096242 0.00030960609524 0.00030418229206 0.00030326889396 
0.00028150204168 0.00029063893016 0.00029934266559 0.00031032466769 0.00025222878247 0.00017269141081 0.0002759546555 0.00033326320289 0.00031769258408 
0.00026338848043 0.00032189364237 0.00030193711555 0.00029537228288 0.00024729659414 0.00026771790558 0.00022023405387 0.00023678949345 0.00023171085818 
0.00032829728582 0.00030672091915 0.00031448468104 0.0003077546582 0.00030254664807 0.00025090406534 0.00033823042214 0.0002121887192 0.00026326366375 
0.00020867948746 0.00029368033703 0.00031869394766 0.00029337404864 0.00027794866287 0.00029908324174 0.00027960248033 0.00032500302584 0.00034239361099 
0.00033201450995 0.0002266482652 0.00026077241113 0.00028445474169 0.00031927114275 0.00034378873992 0.00032928160864 0.0003055150721 0.00033560521943 
0.00030557438986 0.00029789455191 0.0002821740497 0.00029118012921 0.00031282156834 0.00030885683941 0.00032196350068 0.00031347811126 0.00032626925156 
0.00028381010189 0.00028512164227 0.00031450929169 0.00032585192736 0.00033602766667 0.00017807400762 0.00018298587798 0.00026093375229 0.0003146441777 
0.00032630917697 0.0002730027111 0.00030660035147 0.00022406514607 0.00030614226484 0.00028806540733 0.00033775172036 0.0003220344981 0.00030918990113 
0.00031816047373 0.00022101518669 0.00019604538379 0.00025292091733 0.00022521662166 0.00028025815237 0.00023709536143 0.0002998040482 0.00033266752752 
0.00027411414185 0.00032488572715 0.00023093631568 0.00018735905953 0.00024186564645 0.00029403349824 0.00033044418551 0.00032021679429 0.00019828961111 
0.0003098943691 0.00029824207704 0.0003073043029 0.00030554758449 0.00029688391856 0.00026724140361 0.00027462537294 0.00031560819027 0.00030101396176 
0.00020423706405 0.0002951376432 0.00034212165167 0.00033554223611 0.00031284649225 0.00029036058532 0.00033018271422 0.00020672020601 0.00032971030764 
0.00022249607913 0.00029220206679 0.00030535601957 0.00017959497766 0.00031755321363 0.00030639270152 0.00027475163467 0.00029767210667 0.00025813538929 
0.00030955065226 0.00022804576474 0.00028751398796 0.00024300767903 0.00030496403635 0.0002989383262 0.0003064897883 0.00023633792455 0.00024763474114 
0.00032631401617 0.00034461620361 0.00033188227828 0.00025196343652 0.00032686074378 0.0003349934961 0.00026977217292 0.00028564527322 0.00025076647975 
0.00030519188957 0.00025908160771 0.00031800376572 0.00031492265008 0.00031432709388 0.00031729995953 0.00029182204528 0.00026309882465 0.00026892270325 
0.00016176443893 0.0002755706897 0.00028187129949 0.00030061893693 0.00021406588215 0.00018890321197 0.00032115088835 0.00032291862647 0.00030689005103 
0.00025219826568 0.00026211515656 0.00030023542861 0.00030061390199 0.00032374618117 0.00029889696278 0.00026317005006 0.00034127124067 0.00032524861637 
0.00027394915323 0.00033320395078 0.0003466302873 0.00033122340237 0.00026906800518 0.00018131418082 0.00019676220921 0.00019926650948 0.00022991671547 
0.00023137790592 0.00022698604331 0.00033243560891 0.0003331187822 0.00032956706825 0.00034810754442 0.00034556200715 0.0003479357532 0.00030670500085 
0.00030610168999 0.00030480497063 0.00020768078525 0.00021712431796 0.00019976219784 0.00021968029285 0.00022395740002 0.00020837218073 0.00022734393699 
0.00022895452282 0.00021610532765 0.00022418048507 0.00030720171589 0.00030705266084 0.00030608145786 0.0003075352988 0.0003073390757 0.00030606571557 
0.0003069860655 0.00030628002993 0.00030813315159 0.00030771811969 0.00030705850773 0.00030915772315 0.00030844336823 0.00030747639532 0.00031103955845 
0.00031004810003 0.0003087989729 0.00031380359555 0.00031247414418 0.00031123596557 0.00031665034427 0.00031508092538 0.00031419488028 0.00032003009256 
0.00031821572183 0.00031709357173 0.00032409578381 0.00032206644708 0.00032077328299 0.00032802137526 0.00032581905891 0.00032458190317 0.00033232696508 
0.00032997764864 0.00032821544823 0.00033862983478 0.00033613348044 0.0003355124501 0.00033399920713 0.00033173096368 0.00034288550763 0.00034033909299 
0.00033951696801 0.00034394971401 0.0003024059435 0.00029925003415 0.00030321103888 0.00029591868843 0.00029150572279 0.00029632049933 0.00028408246649 
0.00027831992304 0.00028634363439 0.00028521893963 0.00027748522886 0.00027145620463 0.00026535673153 0.0002686314802 0.00026176923602 0.0002559030627 
0.00025653536153 0.00024591049817 0.00022659533398 0.00024388054305 0.00021292041026 0.00034645823758 0.0003469739403 0.00034424193645 0.00034650946039 
0.0003452320214 0.00034461894363 0.00034537896827 0.00034354994108 0.00034354290336 0.00034449940374 0.00034230064182 0.00034052167026 0.000341618406 
0.0003402158238 0.00033809886583 0.00033923999233 0.00033692846734 0.00033700190742 0.00033808376399 0.00033555459985 0.00033428957482 0.00033525866063 
0.00033375926132 0.00033342692598 0.00033424326245 0.00033191844391 0.00033056297643 0.00033215833894 0.00033024852135 0.00022211075492 0.00021034823807 
0.00022085646916 0.00019503638845 0.0001746813466 0.00019952959091 0.00016155101081 0.00015708774749 0.00016899313868 0.00017064454817 0.00018613588915 
0.00016693222421 0.00016542902914 0.00018309040697 0.0001996156541 0.00021028595975 0.00020218681233 0.00021732776825 0.00022461247301 0.00021842849024 
0.0002348463245 0.0002404564184 0.00023085064814 0.00023132336063 0.00023983267189 0.00024586782847 0.00025057832485 0.00025583648901 0.0002476295034 
0.00026356110387 0.00026847542213 0.00026393914787 0.00025998224922 0.00025653602006 0.00027195155472 0.00027659498587 0.00027062277126 0.00028254506142 
0.0002867850257 0.00028295787826 0.00027967469149 0.0002771484729 0.00029079142633 0.00029468603857 0.00028974170328 0.00029813274593 0.0003017552642 
0.00029696526714 0.0003049100412 0.00030828414436 0.00030346654603 0.00031138678427 0.0003145541162 0.00030976680287 0.00031909198521 0.00032207473249 
0.00031987624801 0.00031684869752 0.00031525614915 0.00032370067527 0.00032659933891 0.00032364693667 0.00032824737005 0.00027074801804 0.00027713502723 
0.00027406475943 0.00027726722112 0.00027123659465 0.00027935854816 0.00028187070435 0.00028391836554 0.00028559440563 0.00028147299767 0.00028407727096 
0.00028766369983 0.00030604444113 0.00030907842338 0.00030965513029 0.00031345040809 0.00031067884452 0.00031075577642 0.00031186675242 0.00031349845903 
0.00031586930139 0.00031496130156 0.00031692735579 0.00031592667674 0.00031826399811 0.00030735959796 0.00024637175824 0.00024973477691 0.00024341778772 
0.0002418268102 0.00023767834069 0.00025177345917 0.00024498985856 0.00023818494661 0.00024406950806 0.00022706078585 0.00023395064513 0.00023297217308 
0.00023157735333 0.0002323895642 0.00028624783053 0.00028935910673 0.00029045486763 0.00029417797137 0.00029147685569 0.00028485831074 0.00027995907064 
0.00028292804271 0.000281482544 0.00028933229057 0.00028677550822 0.00029305540587 0.00030138021156 0.00030028074205 0.00030346116635 0.00030586160181 
0.00030687617017 0.00029840227153 0.00030193191932 0.00030491632489 0.0003023257693 0.00030916124738 0.0003071586333 0.00030756412002 0.00032657508267 
0.00032777415233 0.00032948334204 0.00033187890722 0.00033078247082 0.00032562583675 0.00032839357372 0.00032839418567 0.0003305474418 0.00033288150874 
0.00033554059367 0.00033330568211 0.00033464872985 0.00033271233426 0.00031952900377 0.00032161613025 0.00032296240784 0.00032563599952 0.00032365440792 
0.00032304824167 0.0003205422645 0.00032340570298 0.00032605806779 0.00031636376198 0.0003178304565 0.0003174302588 0.00020957121136 0.00022035142885 
0.00021054585704 0.00020979883653 0.0001963926136 0.00019998858372 0.00021400729302 0.00018383458618 0.00018517397016 0.00019128818129 0.00018860397778 
0.00018321172994 0.0002910690486 0.00029590206908 0.00029018804497 0.00029270278951 0.00028746871502 0.00029824570499 0.00029959301048 0.00029670625908 
0.00029455664639 0.00029907375496 0.00024745067759 0.00024435225181 0.00024992191846 0.00025281892572 0.00025527983052 0.00026108528898 0.00025587998127 
0.00025817488912 0.00025750318384 0.00026260385285 0.00025009264621 0.00024463212396 0.00026009255254 0.00025345865726 0.00032003559147 0.00031783618446 
0.00031977312546 0.00031944781241 0.00032156616383 0.00031560314483 0.00031762945928 0.00031553542974 0.00031605688162 0.000313876537 0.00031930454634 
0.00031614542557 0.00030298941513 0.00030561194704 0.00030346382394 0.00030256648312 0.00029978513725 0.00029643591012 0.00029981355588 0.00029744253527 
0.00029647453419 0.00030209741807 0.00030712111935 0.00030483146553 0.00030585292759 0.00030410924587 0.00030647363972 0.00030460007412 0.00030279401026 
0.00030010899871 0.00030065173185 0.00029914041644 0.00030193921533 0.00030299105031 0.00028063832516 0.00027720018447 0.00027565982756 0.00026789928749 
0.00027143969017 0.00027876323132 0.00027248607998 0.00027871613597 0.00028311784037 0.00026819785453 0.00026765713976 0.00026293135475 0.00033336051829 
0.00033471429506 0.00033192025578 0.00033544091512 0.00033042200373 0.00032736137157 0.00032810653215 0.00032592734166 0.00032899722183 0.00033267189644 
0.00032980083275 0.00027624160953 0.00027139530641 0.00027300959612 0.00026873861088 0.00027393086116 0.000259699438 0.00026358211935 0.00026429942615 
0.00026834532217 0.00026491196205 0.00027183202776 0.00026448885329 0.00029624533292 0.00030017469687 0.00029754436837 0.00029835504344 0.00030342401948 
0.00030546925525 0.00030344818982 0.00030309529782 0.00030101342431 0.00030718184895 0.00029792519207 0.00029524897927 0.00029215428841 0.00028811504926 
0.000294596129 0.00029141948861 0.00029495686973 0.00028430597096 0.00028757062306 0.00028793183339 0.00020173409588 0.00021367078211 0.00022421262607 
0.00021852993729 0.00021781422763 0.00021964445303 0.00020924674592 0.00019861399856 0.00018686518486 0.00019418638857 0.00022978262577 0.00022859053207 
0.00023704545962 0.00022896945002 0.00022569780726 0.00023457980249 0.00024179949973 0.00024355841844 0.00024901631315 0.00025509159785 0.00024438208184 
0.00024363078208 0.00033191916232 0.00032848087213 0.00032989986895 0.00032848460361 0.00032411290628 0.00032654133117 0.00032417208962 0.00032383221961 
0.00032158175065 0.00032649082634 0.00032407989464 0.00032434648247 0.00030804820942 0.00030423882352 0.00030586209128 0.00030396778099 0.00030785555775 
0.00031045776774 0.00031212125659 0.00031471600354 0.00031231919779 0.0003111780168 0.00031379935159 0.00032367608008 0.00032156920914 0.00031890675755 
0.00032278678942 0.00032554385288 0.00032894858458 0.00032867800317 0.0003286444057 0.00032731876787 0.00032725677179 0.00032525119053 0.00033920989615 
0.00033826480957 0.00034140428984 0.00034246852406 0.00034208641157 0.00034089118465 0.000342544464 0.00033765774497 0.00033646658562 0.00033906990663 
0.00025820287615 0.00025518552307 0.00026044146211 0.00026887060657 0.00026536770127 0.00026302061589 0.00027337489532 0.00026801015752 0.00026291448765 
0.0002578807345 0.00022719429664 0.0002334517102 0.00023609575937 0.00023907390727 0.00022829445911 0.00022206959231 0.00023314432572 0.00023906237886 
0.00027898928371 0.00028415731056 0.00028128713255 0.00028329180657 0.00027804300578 0.00029027380803 0.00029370015086 0.00028993733764 0.00028582392117 
0.00028866430855 0.00029247368191 0.00031474026836 0.00031621564328 0.0003182450645 0.00031545879945 0.00031124511304 0.00031116668429 0.00031318997645 
0.0003117154862 0.00031352272771 0.00031151188249 0.00031950047298 0.00032290531346 0.00032388974832 0.00031771368286 0.00032002539453 0.00032150525825 
0.00032231823228 0.00031628789923 0.00032529156606 0.00032314127851 0.00032213772307 0.000320389074 0.00031941226628 0.00032390644801 0.00032173201074 
0.00031969326552 0.00031766265347 0.00019450241718 0.00019215789991 0.00020673732953 0.00021458833425 0.00018783375977 0.00017938436983 0.00019496546686 
0.00021011494527 0.00021706100534 0.00028099480689 0.00027712737428 0.00027318033103 0.00028019045216 0.00027554656845 0.00027293948814 0.00027180275845 
0.00026929945126 0.00033524186412 0.00033801557078 0.00033994187134 0.000336910699 0.00034013798703 0.00033547677649 0.00033295119728 0.00032834650788 
0.00033139062978 0.00033319441664 0.00033322306366 0.00033025814978 0.00032858313396 0.00032801473109 0.00031301063338 0.00030909348508 0.00030841585137 
0.00030591045207 0.0003149002584 0.00030883689474 0.00031305004673 0.0002127612586 0.00023223739435 0.00021557325538 0.00021920799587 0.00020005285833 
0.00019148617605 0.00019665895521 0.00019906078698 0.0002011834816 0.00029611523541 0.00029874996699 0.00029601733157 0.00029308678599 0.00029319990336 
0.00029131489354 0.00029109463427 0.00028969029432 0.00030925946279 0.00031128933292 0.00030979372004 0.00030752127579 0.00030806788761 0.00030846350085 
0.00030268946651 0.00030360223838 0.00030485606454 0.00030575305656 0.00030152951334 0.00030246255956 0.00029942670732 0.00030631761577 0.00030452771866 
0.0003059740478 0.00030214671305 0.00030453268612 0.00030517473267 0.00030461502894 0.00030166343051 0.00030041952323 0.00029832096022 0.00027740596338 
0.00028277600257 0.00028611318469 0.00027770881606 0.00028485686593 0.00028905501113 0.00029128035267 0.00028545441825 0.00028641798999 0.00029393587282 
0.00028741899267 0.00029562806987 0.00030247721262 0.00030307799092 0.00030289335888 0.00029907061503 0.00029994627929 0.00029722441774 0.00029532723232 
0.00029512177107 0.00030989111108 0.00031197832179 0.00031232187038 0.00030790076156 0.00030974553684 0.00031186973511 0.00025560828227 0.00025652198076 
0.00025211930733 0.00024517207505 0.00024988690026 0.00024765015455 0.00018309421957 0.0001737253847 0.00016658584199 0.0001762211576 0.00017213772739 
0.00027523365182 0.00027852689634 0.00027484507182 0.0002679639446 0.00027247144642 0.00027164534603 0.00033414735546 0.00031630085282 0.00031758065984 
0.00026942047602 0.00027191545695 0.0002630852983 0.00025699270852 0.0002619943061 0.00025711578278 0.00031976341882 0.00032025229412 0.0003224716283 
0.00030100981416 0.00029788559971 0.00029625005342 0.00030038535486 0.00029295959105 0.00029181938036 0.00029650097367 0.00029678200579 0.00029814938914 
0.00026825286183 0.00026482617283 0.00026564824735 0.00024225470601 0.00032759132447 0.00033047697654 0.00032604414746 0.00032432977016 0.00031439076018 
0.00031628913758 0.0002571316127 0.00025058270039 0.00025688443704 0.00026656000728 0.00026613217134 0.00022946986742 0.00033078397723 0.00021439587769 
0.00018257927896 0.00015625776701 0.00017264700614 0.00020055013093 0.0002321883722 0.00021892130967 0.0002436842559 0.00025463567041 0.00026513209284 
0.00027494141138 0.00028398889512 0.000292277208 0.00029986322647 0.00030682835078 0.00031325807241 0.00031931421149 0.00032508309736 0.00023190448733 
0.00022983211715 0.00022869947574 0.00022643871485 0.00033221614168 0.00033221147543 0.0003293547835 0.00032936033464 0.00021016741415 0.00022139560522 
0.00022409681708 0.00021876670223 0.00017378922192 0.0001942799534 0.00020688210756 0.00020078832206 0.00019096298607 0.00015512535373 0.00015925667518 
0.00017324859227 0.00016534050546 0.00015968085976 0.00017837564289 0.00016343365807 0.00015667566232 0.00015925312311 0.00016630698759 0.00020485071013 
0.0001929211515 0.0001810290435 0.00018737759504 0.00019498340599 0.00022231545443 0.00021431383018 0.00020612062188 0.0002103655442 0.00021511557444 
0.00023505988745 0.00022898872475 0.00022919929551 0.00022596845623 0.00022274112613 0.00024641535251 0.00024084695428 0.0002351574483 0.0002380225608 
0.00024090427186 0.00025728435028 0.00025189944913 0.00024645962553 0.00024919150513 0.00025193938178 0.00026762533405 0.00026253716565 0.00025732512982 
0.00025995586966 0.00026257888131 0.00027724752091 0.00027253144824 0.0002676691242 0.00027013067959 0.00027257642576 0.00028609991536 0.0002817709832 
0.00027729069151 0.00027956115474 0.00028181334169 0.00029421030556 0.00029024313978 0.00028614342659 0.00028822071954 0.00029028492278 0.00030163574484 
0.00029800374765 0.00029424923097 0.00029615183076 0.00029804091386 0.0003084646905 0.00030511824019 0.00030167105778 0.00030341669535 0.00030515070315 
0.00031479016499 0.00031168145819 0.0003084923226 0.00031010555647 0.00031170622265 0.00032076503 0.00031781867896 0.00031481200436 0.00031632703222 
0.0003178356481 0.00032650702349 0.00032365032696 0.00032077820407 0.00032222004362 0.00032365962218 0.00032793477212 0.00032651345317 0.00028003397363 
0.00031249560109 0.00023997946724 0.00028766645788 0.0003045102333 0.00033052366405 0.00032096531151 0.00020217311882 0.00029484915097 0.00025293233178 
0.00031760110193 0.00030079169205 0.00030308068896 0.00027232629505 0.00033112420787 0.00026800857983 0.00030146142102 0.00029110229327 0.00021036904311 
0.00023868740016 0.00032651310994 0.00030970366123 0.00032538638184 0.00034025402008 0.00026330906352 0.00023073036048 0.00028642613252 0.00031343202286 
0.00032084605331 0.00032139726016 0.00019803882543 0.0002766572206 0.00033771602532 0.00033084214893 0.00031157301853 0.00020621549269 0.00029433707003 
0.0003094810253 0.00030391293969 0.00030285440815 0.00028139991289 0.00029036247296 0.00029934751873 0.00031026427378 0.00025230674402 0.00017320388973 
0.00027601847022 0.00033320004212 0.00031772447374 0.00026349630287 0.00032182600703 0.00030199010119 0.00029521326895 0.000247417714 0.00026772625491 
0.00022232071557 0.00023703544754 0.00023427237323 0.00032826519745 0.00030672384551 0.00031444048756 0.00030755904362 0.00030243334279 0.00025103370487 
0.00033820001011 0.00021490819942 0.00026330498683 0.00019960257074 0.00029374857302 0.000318612002 0.00029335482536 0.00027796855395 0.00029902892034 
0.00027953351568 0.00032499598586 0.00034233138447 0.00033203411282 0.00022750005411 0.00026084031132 0.00028429043831 0.00031924438701 0.00034370811506 
0.00032929851989 0.00030549639895 0.00033559825658 0.00030519665049 0.00029781828281 0.00028221090362 0.00029120332942 0.00031270502987 0.00030875000774 
0.00032190930666 0.00031340701551 0.0003262215706 0.00028377513496 0.00028511362081 0.00031450234979 0.00032586510128 0.00033597309841 0.00018312335164 
0.00017800743818 0.00026112665697 0.00031466300053 0.0003262420079 0.00027295319046 0.00030665653507 0.00022522247169 0.00030617075779 0.00028796025143 
0.00033768200101 0.00032205975305 0.0003091518633 0.00031816541894 0.00022384091936 0.00020035466227 0.00025299723241 0.00022024641026 0.00028033652813 
0.0002375738591 0.00029934639623 0.00033263522341 0.00027407199716 0.00032485089768 0.0002422348276 0.00018681583549 0.00024199193121 0.00029407828028 
0.0003303892256 0.00032023680243 0.00020328807267 0.00030973600692 0.00029802004958 0.00030705330305 0.0003049643085 0.00029655563877 0.00026732321755 
0.00027461678219 0.00031550801167 0.00030070264413 0.0002107395348 0.0002951377293 0.00034207174721 0.00033555168952 0.00031289107366 0.00029019663603 
0.00033011801469 0.00019298618568 0.00032970430167 0.00021533799792 0.00029190366827 0.00030530072044 0.00017865193128 0.00031747800152 0.00030625101206 
0.00027479833125 0.0002975353581 0.00025818125775 0.00030947100954 0.00022875630732 0.00028744635761 0.0002431512622 0.0003047579083 0.00029895976775 
0.00030599672541 0.00023663078625 0.00024772283213 0.00032631705496 0.00034453953628 0.00033190418801 0.00025309689532 0.00032683966457 0.00033493306796 
0.0002698050595 0.00028572979864 0.00025099320438 0.00030521051404 0.00025913529472 0.00031795565278 0.00031495342409 0.00031427135889 0.0003172664701 
0.00029176013587 0.00026312008359 0.00026898365169 0.00016051612954 0.00027556634639 0.00028171729435 0.00030043207677 0.00020843350294 0.00019457034451 
0.00032108806314 0.00032284600065 0.00030657315066 0.0002522801282 0.00026214746803 0.00030030310363 0.00030060317699 0.00032372023983 0.0002989439197 
0.0002632105001 0.00034119400628 0.00032526420126 0.00027403588211 0.00033316060529 0.00034654210185 0.00033123459507 0.00026908337814 0.00022727009514 
0.00022511490407 0.00022204677681 0.00015581040081 0.00021897656958 0.00017264859422 0.00033313309529 0.00033244393141 0.00032957616026 0.00034801604288 
0.00034784733527 0.00034547501701 0.00030417503004 0.00030542474995 0.00030610481121 0.00029879963263 0.00030186552692 0.00030268845976 0.0002912837232 
0.00029558035785 0.00029590591775 0.00027836636262 0.0002840042432 0.00028505153673 0.00028613261239 0.00027742426011 0.00026563358223 0.00027160339674 
0.000268745516 0.00025802778607 0.00026256832455 0.00025703013325 0.00024655764597 0.00025353476281 0.00024756211707 0.00023008988825 0.00034688981153 
0.00034637932351 0.00034642435224 0.0003441642683 0.00034514812593 0.00034530732885 0.00034455456845 0.00034347950384 0.00034444324189 0.00034349508696 
0.00034224256598 0.00034158187439 0.0003404954196 0.00034017418562 0.00033922803226 0.00033809612467 0.00033691229451 0.00033809028551 0.00033701763418 
0.00033555583343 0.00033527745015 0.00033431248603 0.00033377280227 0.00033426834245 0.00033344811376 0.00033193918032 0.00033217552156 0.000330582898 
0.00033026257782 0.00019888952505 0.00018338654788 0.00019234887567 0.00021340247027 0.00020607864754 0.00019773096339 0.00022310056983 0.00021942531535 
0.00020779017464 0.00021805831757 0.00020433746239 0.00021666594686 0.00021545078885 0.00017049874747 0.00018931904315 0.00019415282408 0.0001592295235 
0.00015968959585 0.00016534284934 0.00019161516892 0.00017699961838 0.00017034208108 0.00016851614626 0.00018893126513 0.00021290300848 0.00020365181727 
0.00020593659769 0.00022553099898 0.00021907783559 0.00022041628559 0.00024060111905 0.00023510159613 0.00023175518388 0.0002313296846 0.00024001678458 
0.00024597644493 0.00025591695826 0.00025066615958 0.00024773549134 0.00026856363948 0.00026364526682 0.00026006093795 0.00026401236469 0.00025661092411 
0.00027668855404 0.00027203985235 0.00027070851856 0.00028687338793 0.00028263710013 0.00027976660591 0.00028303928286 0.00027723349119 0.00029476421714 
0.00029087323602 0.00028981465415 0.00030182498947 0.00029820518702 0.00029703677187 0.00030834138944 0.00030497207446 0.00030353045687 0.00031459780654 
0.00031143722808 0.00030981818826 0.00032209906916 0.00031912204312 0.00031688359325 0.00031990530455 0.00031529490019 0.0003266111316 0.00032372016413 
0.00032366936856 0.00032825928915 0.00030651051132 0.00030673770574 0.00030553945564 0.00030697063146 0.00030721826456 0.00030658227724 0.00030563825746 
0.00030593613054 0.00030743615325 0.00030789304911 0.00030677563498 0.00030823002212 0.00030896800092 0.00030725714281 0.00030988000082 0.00031088900434 
0.00030862000034 0.00031234800972 0.00031369000848 0.0003111060224 0.00031497600395 0.00031655300238 0.00031408402 0.00031812900161 0.00031995000024 
0.00031700600697 0.00032199000003 0.00032402400037 0.000320696 0.00032575000145 0.00032795500245 0.00032451300322 0.00032991100334 0.00033226100307 
0.0003281510118 0.00033606400151 0.000338558 0.00033393300771 0.00033544601387 0.00033166702889 0.00034026400058 0.00034280400491 0.00033944400095 
0.00034386703494 0.00027403957817 0.00027708903623 0.000270731118 0.00027123535257 0.00027724046888 0.00028183600083 0.0002793401263 0.00028554311276 
0.0002838624275 0.00028400981207 0.0002814043847 0.00028757930556 0.00030964129796 0.00030905778862 0.00030604154883 0.00031067784723 0.00031343359415 
0.00031347203994 0.0003118276362 0.00031072541133 0.00031493575326 0.00031583095455 0.00031590300023 0.00031690951182 0.00031823337064 0.00030733523859 
0.0002435924508 0.00024983871087 0.00024651106196 0.00023795577163 0.00024201164 0.00024516480789 0.00025187208043 0.00024434049133 0.0002385115204 
0.00023343679615 0.00023436185778 0.00022788576304 0.00023206082981 0.00023293812875 0.00029045513121 0.00028934396928 0.00028624815817 0.00029148079756 
0.00029416739076 0.00028294084566 0.00027999130447 0.00028488062833 0.00028149497824 0.00028681043822 0.00028935468743 0.0002930640592 0.00030336623132 
0.0003001959679 0.00030129980569 0.00030678501598 0.00030575401851 0.00030187101932 0.0002983394685 0.00030226646609 0.00030485140887 0.00030707805954 
0.00030907000036 0.00030749616443 0.00032944223926 0.00032773319608 0.00032654211942 0.00033074526922 0.00033183366858 0.00032834466347 0.00032558007067 
0.00033049539756 0.00032834137375 0.00033325434765 0.00033548208582 0.00033282825057 0.00033460027716 0.00033265514707 0.00032296737731 0.00032161607897 
0.00031953393739 0.00032366042764 0.00032563699342 0.00032341677158 0.00032056025802 0.00032306335248 0.00032606717084 0.00031784535948 0.00031637463891 
0.00031745016227 0.0002142705679 0.00022273959848 0.00021403176322 0.00020094827484 0.00021302277987 0.00021856323546 0.00020586961553 0.00018799778777 
0.00018714878336 0.00019249872717 0.00019667014855 0.00018308910623 0.00028998519973 0.00029561688037 0.00029083025498 0.00028730585232 0.00029250365264 
0.0002964755164 0.00029933252644 0.00029798067473 0.00029436261735 0.00029875049032 0.00025000360972 0.00024447663172 0.00024753003175 0.00025533227877 
0.00025290122833 0.00025822051125 0.00025593562375 0.0002611317725 0.00026263864062 0.00025755035423 0.00024473724952 0.00025016434847 0.00026012995206 
0.0002535243247 0.00031971419574 0.00031778129318 0.00031998644793 0.00032150615174 0.00031938407882 0.00031546904782 0.00031756202524 0.00031553300429 
0.00031381311385 0.00031600119322 0.00031923702056 0.00031609249691 0.00030349324668 0.00030563650165 0.00030301488723 0.00029982527367 0.00030260272969 
0.00029748060959 0.00029983893106 0.00029647102932 0.00029651941452 0.00030211793476 0.00030567819618 0.00030467616071 0.00030696302204 0.00030626725074 
0.00030393179055 0.00030265943064 0.00030447409138 0.00030049988352 0.00029998236595 0.00030176380584 0.0002989791452 0.00030279602521 0.00027556476896 
0.00027709864999 0.00028051192588 0.00027140258328 0.00026789473767 0.00027860468904 0.00027243746659 0.00027866032483 0.00028295573628 0.00026764511667 
0.00026818562928 0.00026296262957 0.00033469100355 0.00033334541421 0.00033540751865 0.00033189502076 0.00032809143994 0.00032735434914 0.00033041091578 
0.00032897709308 0.00032591227943 0.00033266490349 0.00032977265534 0.00027304418394 0.00027144318701 0.0002762759144 0.00027395912344 0.00026877668116 
0.00026435700597 0.00026363480594 0.0002597595207 0.0002649777768 0.00026839985557 0.00027188731444 0.00026453160764 0.00029751714445 0.00030014189494 
0.00029621456627 0.00029834348215 0.00030338326595 0.0003034227221 0.00030543313783 0.00030099593822 0.00030308060349 0.00030713514822 0.00029791938544 
0.00029212063381 0.0002951987744 0.00028809453678 0.00029454148693 0.00029488674371 0.00029136500987 0.00028753499109 0.00028428092503 0.00028788187166 
0.00021594503903 0.0002054256696 0.00022057997424 0.00022548977729 0.00021229996521 0.00022156922771 0.00021999316213 0.00020283254394 0.00019844648479 
0.00019093608942 0.0002298306582 0.00023129367248 0.00022992637197 0.00023768206335 0.00023610275811 0.00022844885215 0.00024460296212 0.00024354385707 
0.0002495886254 0.00024487664517 0.00025535220676 0.00024397120509 0.00032983708486 0.00032842217217 0.00033185910587 0.0003284220468 0.00032410904182 
0.00032647803573 0.0003240450093 0.00032151402328 0.00032377109257 0.00032428818807 0.00032402744892 0.00032643526659 0.00030590537714 0.00030429191354 
0.00030809952315 0.00030788704231 0.00030401302335 0.00031214992444 0.00031048537003 0.00031235481863 0.00031474079799 0.00031122154021 0.00031383802753 
0.00032159137927 0.0003236994224 0.00032280896297 0.0003189337317 0.00032869753964 0.00032896495116 0.0003255631266 0.00032866307126 0.00032733838914 
0.00032527271131 0.00032727253174 0.00034133611348 0.00033820200141 0.00033915000657 0.00034239515291 0.00034201106872 0.00034246503259 0.0003408160166 
0.00033759400604 0.00033899900077 0.00033640201372 0.00025523944443 0.00025825898573 0.00026047604519 0.00026538343496 0.00026885543727 0.00026304422047 
0.00026798894942 0.00027333627967 0.00026292720318 0.00025793296618 0.00023378206251 0.00022800436379 0.00023926143949 0.00023635966558 0.000223846577 
0.00022895106586 0.00023350996274 0.00023927133333 0.00028135098494 0.00028420183556 0.00027904654869 0.00027811447796 0.00028336061962 0.00029000368474 
0.00029375871113 0.00029032135855 0.00028589582964 0.00028871002575 0.0002925156618 0.00031612601121 0.000314647023 0.00031537500449 0.00031816800082 
0.0003130920355 0.00031105703935 0.00031114402326 0.00031162500599 0.00031343900239 0.00031143700935 0.00032289828723 0.00031949345252 0.00032387373024 
0.00032000650307 0.0003177037294 0.00032229727552 0.00032147940501 0.00031628586635 0.00032526855073 0.00032035743916 0.00032210594446 0.00032309860112 
0.00031937577346 0.0003216846573 0.00032386286531 0.00031964694554 0.00031761934286 0.00019904206959 0.00018708672043 0.00018980165449 0.0002076883745 
0.00018980518859 0.00017595517811 0.0001835474622 0.00020430974058 0.00021114528554 0.00027714613508 0.00028099018115 0.00027319679137 0.00028017993585 
0.00027554164147 0.00027180967316 0.00027294704625 0.00026932545368 0.00033797401671 0.00033520340383 0.00033989408517 0.00034008207527 0.00033686107008 
0.00033543227036 0.00033291186693 0.00033140500093 0.00032835470916 0.00033320272402 0.00033322119998 0.00033025922821 0.00032858724781 0.00032801375458 
0.00030909933641 0.00031301256437 0.00030591721972 0.00030843058284 0.00031490715021 0.00031306484407 0.00030885754738 0.00022370516948 0.00023749580602 
0.0002252766869 0.00020815535731 0.00022408853822 0.00019256794849 0.0001948979022 0.000197324135 0.00020931305263 0.00029864579455 0.00029602560078 
0.0002959110472 0.00029300939394 0.00029121017443 0.00029307874942 0.00029101482099 0.00028962692965 0.00031116403652 0.00030914902171 0.00030965701685 
0.0003079310043 0.00030740300131 0.00030832000209 0.00030453977147 0.00030326369256 0.00030240079546 0.00030546945663 0.00030129467403 0.00029922161359 
0.00030224508527 0.00030572226113 0.00030428797782 0.00030608157513 0.00030413837752 0.00030178641021 0.00030470944972 0.00030121160248 0.00030409921472 
0.00029793030011 0.00030004939202 0.00028264753484 0.00027732427657 0.00028598250427 0.00027765493843 0.00028475034288 0.00028893347675 0.00028526514444 
0.00029101523277 0.00028621116934 0.00028720658622 0.00029363180853 0.00029527043578 0.0003030818992 0.00030247131454 0.0002990832502 0.00030290208437 
0.00029994533783 0.00029533680414 0.00029722838763 0.00029514410349 0.00031191208471 0.0003098240805 0.00031226530476 0.0003096938094 0.00030784342689 
0.00031182085602 0.00025659274118 0.00025567255979 0.0002522002299 0.00024775515364 0.00024996838395 0.00024528607924 0.0001764048669 0.0001865651797 
0.00016596526616 0.00016965780261 0.00017597002636 0.00027857061854 0.0002752888783 0.00027492032218 0.00027171764015 0.00027253223501 0.00026803635724 
0.00033408505738 0.00031760556024 0.00031633268153 0.0002719044177 0.00026947913984 0.00026314855799 0.00026215582042 0.00025714036116 0.00025722948152 
0.00032017700006 0.0003196890041 0.00032240000244 0.00029794431432 0.0003010746314 0.00030043832503 0.00029630671984 0.00029169332577 0.00029279690247 
0.00029635100558 0.00029659051645 0.00029797590202 0.00026826907066 0.00026484855622 0.00026567450995 0.00024240429964 0.00033044478046 0.00032756323909 
0.00032429888139 0.00032601514096 0.00031434078953 0.0003162439901 0.00025721056757 0.00025075637686 0.00025697328178 0.00026659746709 0.00026615909008 
0.00028675232893 0.00027705317728 0.00029520176166 0.00030127725032 0.00030446637502 0.00026724518806 0.00025661028006 0.00016171051678 0.00010626844838 
0.00014616176229 0.00019239353892 0.00020022019701 0.00030501879285 0.00030465177546 0.00030415014574 0.00030382766748 0.00030225946836 0.00029991652185 
0.00030325151236 0.00029327596586 0.00029687990191 0.00029857282629 0.00028441673923 0.00028904988193 0.00029125804729 0.00027957248785 0.00027460844207 
0.00028200106152 0.00026991003725 0.00026579884199 0.00027199602132 0.00026271388277 0.00025126236866 0.00026379892878 0.00022619758319 0.00030018145338 
0.00030256425681 0.00029710972989 0.00029336733849 0.00028908242804 0.00028443196556 0.0002744138916 0.00027949766839 0.0002646656381 0.00026925739165 
0.0002394860266 0.00025867772984 0.00034937241791 0.00034875188946 0.00034755982319 0.00034589369676 0.0003417169805 0.00033954529514 0.00033753539894 
0.00033433241002 0.00034388857342 0.0003357969953 0.00033398761763 0.00033399130405 0.00033467659917 0.00034941460725 0.00034946201276 0.00034930239573 
0.0003346842955 0.00034925704076 0.00034848783191 0.00034894782486 0.00034913701643 0.00034899110356 0.00034717074608 0.00034789287896 0.0003485289895 
0.00034822089845 0.00034792988634 0.00034541031764 0.00034633627578 0.0003472025642 0.0003467774628 0.00034636591182 0.00034335283689 0.00034440881565 
0.00034543477086 0.00034492639738 0.00034442708516 0.00034116529181 0.00034226655996 0.00034227348644 0.0003428163482 0.0003433659189 0.00033902450965 
0.00034007943735 0.00034116705897 0.00034061879585 0.00034007508215 0.00033707748711 0.00033801903589 0.0003390170488 0.00033851099609 0.00033800849521 
0.00033541454639 0.00033620927299 0.00033706487245 0.00033663095812 0.00033619761164 0.00033503948577 0.00033540386201 0.00030608791288 0.00030696082386 
0.0003072861203 0.00030786900264 0.00030896712057 0.00031066733583 0.00031296755907 0.00031583778032 0.00031923297572 0.00032308815598 0.00032734331895 
0.00033679264423 0.00034182983529 0.00034692607285 0.00033193947684 0.0003482228098 0.0003481765348 0.00034568151535 0.00030546693257 0.00030582250319 
0.00030666084629 0.00034563750232 0.00030634355674 0.00030703560112 0.00030721226711 0.00030670563366 0.00030677129587 0.00030734549937 0.00030750712349 
0.00030714636231 0.00030698014008 0.00030714105664 0.00030777700311 0.00030817204106 0.00030753101866 0.00030733401393 0.00030763200037 0.00030871018001 
0.00030939138255 0.00030835104371 0.00030804600462 0.00030860201955 0.00031023462197 0.00031123687665 0.0003097352232 0.00030929404171 0.00031014907014 
0.00031238113209 0.0003136743902 0.00031175044802 0.0003111640984 0.00031231812543 0.00031510663508 0.00031667286983 0.00031433967041 0.00031361315368 
0.00031505218145 0.00031836709116 0.00032018130132 0.00031747788187 0.00031662620763 0.00031832523214 0.00032210750178 0.00032413869341 0.00032110506858 
0.00032013925552 0.00032206927834 0.00032626687676 0.00032848405648 0.0003251692378 0.00032410329928 0.00032623231974 0.00033078223551 0.00033315241758 
0.00032960239799 0.00032845133961 0.00033074935909 0.00033558060369 0.00033806379951 0.0003343385597 0.00033554640035 0.00033311837924 0.00034058401546 
0.00034312924716 0.00033929673468 0.00033802642267 0.00034054644585 0.00034437894825 0.00034308947319 0.00021599133075 0.00026897965978 0.00030772964901 
0.00031720053611 0.0003180446554 0.00032126038199 0.00028410427123 0.00032565742835 0.00031188276097 0.00019809743792 0.00020863474192 0.0003039526661 
0.0002602541549 0.00031165440114 0.00030673453918 0.00031635115515 0.00031850808026 0.00031949595378 0.00032084854315 0.0003194583963 0.00031945329201 
0.00031808851859 0.00031816392436 0.00031808739398 0.00031940026082 0.00031761626509 0.00031945882715 0.00031942842201 0.00032120485237 0.00022316473613 
0.00022208668293 0.0002196859036 0.00021865288356 0.0002201507802 0.00032110327015 0.00032117440149 0.00026818828911 0.0002729675014 0.00026607067259 
0.00027098151657 0.00027096469373 0.00030909381222 0.00030949192063 0.00030859317532 0.00030863181417 0.00030825214666 0.00026312065493 0.00026607122338 
0.00030685620069 0.00030671554065 0.00030574733289 0.00030706885754 0.00030612425026 0.00030877671462 0.00030829659313 0.00022171594992 0.00021839206544 
0.00030684922972 0.00030666064812 0.00030691515471 0.00026399662349 0.00026112055179 0.00025749050423 0.00026108050204 0.0002673025242 0.00022847719804 
0.00022817152242 0.00022495748752 0.00023124775499 0.0002343748889 0.00030689976354 0.00030529759704 0.00031531674481 0.00031300328819 0.00031251803831 
0.00031236825335 0.0003147870716 0.00031533663778 0.00031302608274 0.00031480694154 0.00031239103834 0.00033701295198 0.00033649076919 0.00033649817855 
0.00033555007365 0.00033754181564 0.0003375481323 0.00033863939011 0.00033863817918 0.00033555528022 0.00033866236973 0.00033995165562 0.00033691583758 
0.00033820761222 0.00033994059412 0.00021635096481 0.00020560225801 0.00020048416281 0.00019734287081 0.00021310875291 0.00034106024781 0.00034050098235 
0.00034104504889 0.00033808965266 0.0003430166405 0.00034299531145 0.00034018384418 0.00034208347213 0.00033866529387 0.00033559975194 0.00028054159553 
0.00028626721631 0.00028175840386 0.00029791983057 0.00029834588102 0.00030100130141 0.00030060560398 0.00031657883815 0.00031739822329 0.00031575420014 
0.0003422573371 0.00034491531564 0.00034494894052 0.00034488465955 0.00034400913789 0.00034445802863 0.00034398363982 0.00027749149539 0.00027974588801 
0.00028031769411 0.00027753688191 0.00028189984705 0.00028194342922 0.00030308402926 0.00030634201175 0.00030567323509 0.00020356432105 0.00019347097171 
0.000204344633 0.00022535962666 0.00022237695525 0.00022174866243 0.00031553380838 0.00031744299316 0.00031580576504 0.00033477560296 0.0003337701517 
0.00030434991173 0.00030229694392 0.00030284002574 0.00030480493869 0.00027711781424 0.00032365891693 0.0003256354956 0.00032631654249 0.00021396886437 
0.00021514657801 0.00021978106416 0.00020688848613 0.00026362369094 0.00026612004935 0.0002660779492 0.00031771698134 0.00034350679221 0.00032713910657 
0.00032813897223 0.00033025881198 0.00032714653064 0.00032929478906 0.00030247378598 0.00029994482549 0.00023450984096 0.00023696537378 0.00027855843931 
0.00027478615114 0.00027626658132 0.00027143195472 0.00032527405561 0.00032230276218 0.00032372672502 0.00033123179952 0.0003281434449 0.00025753100069 
0.00026082234067 0.00030135037137 0.00029939784707 0.00029807851795 0.000300775923 0.00030246943603 0.00030631834738 0.00030572137796 0.00030397189983 
0.00016521489499 0.00017981540114 0.00016644179489 0.00016621438363 0.0001609866641 0.00019654972301 0.0001994931589 0.00019523346751 0.00020967493419 
0.00028301744993 0.00028477263213 0.00026484444498 0.00026213961416 0.00026566691239 0.00033546262281 0.00033734574326 0.00033516040315 0.00033731041609 
0.0003376996818 0.00021071052951 0.00020184439683 0.00020570935492 0.00021434764173 0.00021143549359 0.00030495876702 0.00030323821442 0.00030666870084 
0.00026801845474 0.0002725182689 0.00026896862875 0.00032430635437 0.00032602264154 0.00032726883882 0.00032516652279 0.00029346769827 0.00029564386445 
0.00029197918832 0.00029362818055 0.00033253945088 0.00033348268236 0.0003325490149 0.00030334828999 0.0002992733799 0.00029133748746 0.00030483268977 
0.00030578321302 0.00030614158579 0.00030663911692 0.00030664424335 0.00030320577462 0.000344982701 0.00034234819242 0.00034628604982 0.00034775226533 
0.00034656314946 0.00034770909067 0.00034516910184 0.00034424637183 0.00034289423865 0.0003442034935 0.00032341325857 0.00032606464424 0.00031146511832 
0.0003109303923 0.00031037608461 0.00031119460913 0.00031108469896 0.00030951054174 0.00030917263041 0.00033349233968 0.00027187424545 0.00027527480743 
0.00031796693301 0.00031779451614 0.00031972942804 0.00031999873308 0.0002626311437 0.00025754150797 0.00020565593559 0.00026838572872 0.00034624502743 
0.00034372802127 0.00034285448638 0.00029177685317 0.00029490352735 0.00029455539215 0.000291378878 0.00030397877152 0.00033272738707 0.00033111426696 
0.0003316825128 0.00033013444031 0.00033108136599 0.00029999511123 0.00030351425124 0.00031306833702 0.00031153400706 0.00030977634875 0.00031113551118 
0.00032515920561 0.00032387723151 0.00032684418604 0.00032591579543 0.00017300385766 0.00017621401331 0.00017019938558 0.00032757076083 0.00028619191075 
0.0002847260138 0.00028570788781 0.00021856420129 0.00030211255584 0.00030289864649 0.00030520611164 0.00030591678084 0.00031938414629 0.00031727484144 
0.00031762967242 0.00031965727569 0.00026012165292 0.00033040271584 0.00032835482576 0.00032797452321 0.00032598860327 0.00032800434898 0.00030047903726 
0.00016882756458 0.00017734145471 0.00016371575314 0.00032526154219 0.0002772486252 0.00027461914348 0.00027934170191 0.00030830315142 0.0003081920366 
0.00030711830115 0.00030730920638 0.00030869230191 0.00030969144312 0.00032200911223 0.00032101526708 0.00032299928909 0.00030462161192 0.00030002943008 
0.0003002879376 0.00026496079681 0.00029629904985 0.00029633516943 0.00029818801977 0.00029601383997 0.00032957439886 0.00033100869212 0.00033266640509 
0.00032970680111 0.00033041443294 0.0003285867173 0.0001662883924 0.0003467966669 0.00034549501535 0.0003130081573 0.0003127346633 0.00030427964364 
0.00030808621015 0.00029283538951 0.00029701861456 0.00030295676545 0.00030423270367 0.00030281381215 0.00030133160985 0.00031045574883 0.000313719655 
0.00031447658323 0.00029107292499 0.00028284441898 0.00028721699958 0.0002829272908 0.00032289979334 0.00019412689617 0.00019832411069 0.00029042804268 
0.0002853236726 0.00033478603176 0.00032296588382 0.00032096281209 0.00031824077751 0.00017680460278 0.00017887804518 0.000185054016 0.00019090444351 
0.00027395251927 0.00027319190997 0.00026979734244 0.00028887660079 0.00029279538369 0.00028979766142 0.00028892035344 0.00027854465584 0.00015773157303 
0.00015742851344 0.00016831949779 0.00032623298901 0.00032601735845 0.00032105540248 0.00032286315684 0.00032303559829 0.00032801424573 0.00032735784735 
0.00031442218289 0.00033075482097 0.00033184422777 0.00033317119271 0.00031989580974 0.00031840790017 0.00032060441737 0.00032205220523 0.00032061554504 
0.00026799528413 0.00027303678787 0.00032499749864 0.00033519458556 0.00033321558293 0.00033100408518 0.00029783710315 0.00029835441738 0.00030132065141 
0.00030188499359 0.0001830431215 0.00018842980725 0.00029212978795 0.0002962217633 0.00029521281951 0.00029111328056 0.00027123739293 0.00026876813537 
0.00027169977935 0.00034248589159 0.00034153645764 0.00020834397026 0.00021422075576 0.0003467525428 0.00027554235143 0.00027232488515 0.00027559125295 
0.00027005582685 0.00026650569795 0.00026650009909 0.00031583929124 0.00031625427743 0.00032192360448 0.00016008807474 0.0002960492561 0.00030021466602 
0.000314112735 0.00019271964861 0.00018663925616 0.00019315395383 0.00019575156996 0.00020746525197 0.00034157510654 0.00034121281552 0.00017926163712 
0.00018236191894 0.00027433661047 0.00027721075359 0.00030423829817 0.00030187672846 0.00028293737377 0.00028149136308 0.00027796407219 0.00026960244481 
0.00027068583742 0.00031601436488 0.00031548614323 0.00028587785014 0.00024427095954 0.00024510954462 0.00025099987945 0.00030259541273 0.00029981300582 
0.00030078336552 0.00030348588734 0.00030197683638 0.00030589504942 0.00031687510403 0.00031839191995 0.00019566992387 0.00018490384444 0.00027954439013 
0.00030312190599 0.00030054009235 0.00030345315478 0.00030081907203 0.00030338837279 0.00031953245084 0.00033320114548 0.00033202846164 0.00027998300794 
0.00028220169543 0.00030662025922 0.00030510761682 0.00032827272055 0.00032654961039 0.00032945276448 0.00026908001798 0.00026826522076 0.00029335913722 
0.00029947715411 0.00025093527144 0.00025525383572 0.0002447585519 0.00026964551454 0.00027401423241 0.00033990478106 0.0002868505974 0.00032211338764 
0.00032036484718 0.00032311102146 0.00032485935642 0.00029302898112 0.00029983357746 0.00030300751941 0.00034009680451 0.00033772768822 0.00033687272793 
0.00033394955831 0.00033276040709 0.00031907220064 0.00031702589999 0.00029045557514 0.00028934824756 0.00032555856996 0.00032586155775 0.00032896035982 
0.00030914165328 0.00030846600922 0.00030847388646 0.00032161458597 0.00031342503895 0.00031382922032 0.00023743499919 0.00023841604155 0.00023101627214 
0.00022951198382 0.00033050790997 0.00033266969365 0.0002862485676 0.00028766205824 0.00028511587662 0.00022323336386 0.00023069095826 0.00022886136974 
0.00031614891686 0.00031466883429 0.00019071094215 0.00028789559114 0.00028964352167 0.00032809596493 0.00033916572759 0.0003413529099 0.00032071707206 
0.00032178162146 0.00032114028041 0.00031888922706 0.0003441841852 0.00034665657003 0.00028754288841 0.00029103727896 0.00028760036793 0.00028746375539 
0.00030616509986 0.00030624649683 0.00028387768018 0.00028555469595 0.00032140963695 0.00032404181176 0.00032385750411 0.00032388612464 0.00025287549641 
0.00025817230234 0.00026046723842 0.00029747133471 0.00029646175493 0.00019493247641 0.00018076454332 0.00017994780901 0.00032112934475 0.00031965662089 
0.0003079674749 0.00030835137533 0.00029904400867 0.00027438084215 0.00033140140328 0.00026345999437 0.00027191488519 0.00026163726956 0.00026159757263 
0.00030453111092 0.00032835315073 0.00033084159962 0.00033383616857 0.0003305771574 0.00032559251369 0.00032774368528 0.00033821870484 0.00034027079029 
0.00033598673997 0.00019958723009 0.00031073475327 0.00031347639525 0.00031445178528 0.00031183491221 0.00029752444681 0.0002975685396 0.00030088388269 
0.00033025971046 0.00025565591603 0.00025974327061 0.00025657449508 0.000252287147 0.00034028177424 0.00033900543091 0.00032169699548 0.00024998132428 
0.00025532304085 0.00031428554219 0.00031610472925 0.00031903024516 0.00027809662988 0.00028334368798 0.00031494599009 0.00031606783102 0.00031608365627 
0.00031334682262 0.00031449269571 0.00031332600535 0.00018609826579 0.00018428655816 0.00018535434058 0.00028487528509 0.0002880986501 0.00028428991653 
0.00032387326104 0.00032835614109 0.00027004380053 0.0002766552644 0.00027714140823 0.00026362040862 0.00026452185488 0.0001741054828 0.00018138071324 
0.0001620394067 0.00033312926812 0.00033277837739 0.00033278402724 0.00033334994476 0.00033469657562 0.00030969331194 0.00032371552074 0.00032224908923 
0.00026329494092 0.00025821005669 0.00028184243844 0.00028004696306 0.00020082706529 0.0003346128913 0.0003354428982 0.00033798565623 0.00031027836942 
0.00031192814207 0.00031145597725 0.00030984008669 0.00033322266299 0.00029513720962 0.00022787192908 0.00032898362357 0.0003445594556 0.0003466985849 
0.00033521301791 0.00031494746001 0.00031494351282 0.00031719132155 0.00031718638108 0.00031393784643 0.00034786844026 0.00034795668643 0.00034800192344 
0.0002174316768 0.00020984675483 0.000221675275 0.000216988766 0.00030014809628 0.00017593580797 0.00031227844518 0.00029934606032 0.00029533639895 
0.00029306463944 0.00029722688667 0.00030412731019 0.00030103785234 0.00030417274532 0.00020264392059 0.00020315319069 0.00028099133021 0.00033112975015 
0.00029514076454 0.0002925034145 0.00029406706925 0.00029535742443 0.00031067635348 0.00031343805441 0.00031450384344 0.00024385862203 0.00027180814374 
0.00027060362235 0.00027859229201 0.00027689718891 0.00025070534713 0.00029172406418 0.00029638899402 0.00029525401452 0.00026111991257 0.00025592141519 
0.00029119903238 0.00023750886038 0.00022967662363 0.00030325648088 0.00030319935358 0.00029867333756 0.0002943615338 0.00031758013397 0.00030146772787 
0.00030544441179 0.00030416660646 0.00030786961747 0.00030414424203 0.00030970799008 0.00026171620898 0.00026174440334 0.00029895540666 0.00025688616174 
0.00024940647818 0.00026107266117 0.00027059121374 0.00027848913794 0.0003085930404 0.00030760919518 0.00023991084291 0.00032471975369 0.00032576726559 
0.00032687993666 0.00025515715694 0.00023924791096 0.00025274485913 0.00025142439587 0.00031494113641 0.00029893268944 0.0002785408656 0.00030906219713 
0.00030550282393 0.00030733957954 0.00018746157509 0.00020002637506 0.00018518164808 0.00030105841784 0.00030013772392 0.00026304159603 0.00033904288235 
0.00033193350154 0.00033189945126 0.00032865938375 0.00032869190986 0.00031555003931 0.00029663713186 0.00029283932677 0.00033292145102 0.00030043844895 
0.00030324554074 0.00030067555876 0.00019026693251 0.0003338467282 0.00028018179448 0.00026615283461 0.00027405132538 0.00032538178958 0.00028378387238 
0.00032733373397 0.00031345993331 0.00030563011292 0.00030343008956 0.00024426412697 0.00025272555327 0.00029882818468 0.00024980496254 0.00025522885957 
0.00025824814303 0.00025297926521 0.00027294489066 0.00033045333142 0.00031305291712 0.00030913773041 0.00031305488342 0.00022779008915 0.00030559350838 
0.00030303746996 0.00030555855487 0.00026434283752 0.00030228254121 0.00030795507512 0.00030766309087 0.00030779309499 0.00023787939218 0.00023655362545 
0.00024195187717 0.00029441286753 0.00026946001138 0.00027558006948 0.00027744853539 0.00027710149315 0.00028402567648 0.00026931845612 0.00029653771197 
0.0002814251984 0.00027766133775 0.000281425779 0.0002847734434 0.00030353182135 0.00029907984608 0.00029804462821 0.00032280242949 0.00032306081781 
0.00030916112307 0.00030784627578 0.00023371543067 0.00023844488262 0.00032816637091 0.00032625830016 0.0003280191381 0.00032608897981 0.00032605636009 
0.00029801876171 0.00030866824485 0.00030943605507 0.00030672236998 0.00030964575174 0.00030585297296 0.00022335603701 0.0002255053164 0.00021826616761 
0.00031183307074 0.00030307842128 0.00025917968898 0.00025988918533 0.00032226230231 0.0002720192341 0.00030854877813 0.00030815436855 0.00030852061885 
0.00024682835497 0.00027903149804 0.0002841916846 0.00020173905505 0.00030400070476 0.00027600347602 0.00029593735288 0.00030042508151 0.00028680020427 
0.00029374255558 0.00029030921944 0.00028934833761 0.00029147929801 0.00032978020014 0.00033264279872 0.00033541611716 0.00031435403213 0.00032843843507 
0.00016752809945 0.00027490150149 0.00030471848097 0.00029491177433 0.00029569324635 0.00029086909482 0.00028989676611 0.00028999524435 0.0003153949514 
0.00031818701758 0.00031749805463 0.00030952949395 0.0003305341913 0.00031047797755 0.00030616438208 0.00030889783837 0.0003088870136 0.00031310613367 
0.00020932951346 0.00022096658015 0.00022735288881 0.00023920659839 0.00023632608183 0.00029370356467 0.00028710746943 0.00029075453488 0.00032023129781 
0.00033494867536 0.00033284081516 0.00031309922883 0.00031549982614 0.00031550974762 0.00024647279865 0.0003394627441 0.00026658763043 0.00029802826319 
0.00032526707213 0.00030788065699 0.00031214251452 0.00021676578548 0.00031249901321 0.00025184747651 0.00024366927751 0.00025085981185 0.00029651019299 
0.00029416978169 0.00028869784517 0.00034349636347 0.00034607605797 0.00034611294878 0.00030604202442 0.00030992027549 0.00024353981979 0.00031164887482 
0.00032452922853 0.00029123931363 0.0003268463281 0.00032468430689 0.0002075689513 0.00020969062219 0.00020088561949 0.00019799258726 0.00020722144067 
0.00029372954267 0.00033190157837 0.00026799769261 0.00032160907168 0.00032157952878 0.00032348640447 0.0002153771504 0.00020305408949 0.00021061346561 
0.00021203713912 0.00020967870548 0.00020463161784 0.00022507974302 0.00021985281649 0.00022859840918 0.00026772492461 0.00029255637171 0.00028720969874 
0.00028133605808 0.00031234541932 0.00031560639121 0.00031301596631 0.00031559446725 0.00021572993834 0.00021771000968 0.00021234501565 0.00025912156244 
0.00032406123384 0.00032369834898 0.00030553734933 0.0002499463821 0.00024769973523 0.00024470850023 0.00024235643479 0.00024196956581 0.0003106944467 
0.00030628843256 0.00030700529499 0.0002962915629 0.000340834809 0.00034202990387 0.00024444358523 0.00024751843627 0.00025710977522 0.00030602711032 
0.00029793012764 0.0002632982754 0.00024737926949 0.00030927827097 0.00030930395447 0.00033469565372 0.00033470815446 0.00030710143191 0.00030818834104 
0.00032992741456 0.00032880108964 0.00019151136172 0.0002529207371 0.00026537803199 0.00023197097585 0.00028114795393 0.00028116538343 0.00028235813858 
0.00026209817435 0.00028641407518 0.00028998657492 0.00026292962475 0.00031867080137 0.00031866283486 0.00028798600428 0.0002740846428 0.0001976469606 
0.00019531205341 0.00019302019867 0.00020524352338 0.00027573459013 0.00026869397742 0.00026837640977 0.00027564939365 0.00030602085402 0.0003318736193 
0.00032985353183 0.00032366174505 0.00029023762349 0.00028729559851 0.00021157680252 0.00021939223563 0.0002334478114 0.00030181090007 0.00031345385921 
0.00031863198715 0.00025014710824 0.0002535073641 0.00029310477933 0.00024307545573 0.00023359238734 0.00023577934394 0.0003205547548 0.00030617023682 
0.00030620884116 0.00030576563141 0.00025543782709 0.00025569824938 0.00025563345855 0.00020185250198 0.00033760968967 0.00033549571297 0.00025549383464 
0.0002966363351 0.00033326693 0.00031964766393 0.00025792417311 0.00034241299826 0.0003066551302 0.00023646906051 0.00022160498706 0.00022010724136 
0.00022448934565 0.00030684659906 0.00030755014446 0.00023996826925 0.00023777263367 0.00023006415752 0.00022778745862 0.00022891816844 0.00022664130641 
0.00023275980058 0.00032338293843 0.00032335340164 0.0001842176495 0.00018711775709 0.00018108300166 0.00020992427763 0.00020486197845 0.00020230677257 
0.00020704362227 0.00032876734612 0.00028601415773 0.00022114172497 0.00022181799359 0.00022517518263 0.0003072735218 0.00022634209666 0.0002267703994 
0.00032158583826 0.00030604799337 0.00022131091332 0.00031627115304 0.00031488551633 0.00031653573743 0.00031652880408 0.00031551789593 0.00027334669175 
0.00027734673672 0.00028254763518 0.00028260823287 0.00023921552962 0.00031627525058 0.00021437296205 0.00022582696352 0.00023550744957 0.00028896183498 
0.00023334133402 0.00026518742256 0.00026544665102 0.00026846931653 0.00033901672802 0.00033641765758 0.00021957493495 0.00022398793802 0.00032608044008 
0.00032611012851 0.000223636185 0.00028231765869 0.00022138956214 0.00031671970007 0.00031071620708 0.00025718908182 0.00026226474424 0.00026466601843 
0.00018961286149 0.00019026834413 0.00030743356828 0.00034639830659 0.00023424367691 0.00018805693571 0.00031302983286 0.0002707343829 0.00030647541719 
0.00025329695881 0.00025325569848 0.00025658984403 0.00025225812638 0.00022491137218 0.00023785974473 0.00024312278003 0.0003064211535 0.00032184216666 
0.00032372984415 0.00031311877277 0.00019756080688 0.00019936597007 0.00032241715881 0.00033426256456 0.00030740216008 0.00030521513364 0.00020625950353 
0.00032369283783 0.00030433045202 0.00024057219041 0.00024323397566 0.0002277542717 0.00030515216032 0.00031117079528 0.00030720996229 0.00025217895406 
0.00031925315295 0.00022101242552 0.00019749783935 0.00029902020972 0.0003155070424 0.00019024963326 0.00030495284023 0.00030528299959 0.00024773126318 
0.00030929166272 0.00030729927671 0.00026155074989 0.00026886236168 0.0002125016783 0.00027836182763 0.00031787403928 0.00026152724161 0.00031829347787 
0.00032153120522 0.00031092828417 0.00031090255624 0.00031824934023 0.0003197081082 0.00024771253608 0.00031161432359 0.00031160941522 0.000334101633 
0.00028426933021 0.00028418676198 0.00024525581993 0.00013804892604 0.00030546882703 0.00031828450816 0.00024329148325 0.00024795040311 0.00024800014331 
0.00031745547376 0.00031743862828 0.00032019707533 0.00034817317244 0.00033255424223 0.00031871063848 0.00031869874912 0.00025063936156 0.00031887633625 
0.00032133455818 0.00032939144333 0.00032148486501 0.00032002098821 0.00031133966959 0.00029753575968 0.00028908082632 0.00029953144081 
Tresca%20Stress 1 3545 double
125114770.58 75413906.69 58974070.49 121238917.44 60544024.339 60597552.376 117123156.91 60539607.47 60538042.402 
120033553.67 125372203.06 133421083.73 138041011.48 134945291.28 122510749.66 128833098.98 136716116.27 135421688.61 
110237279.85 60532800.678 130615343.88 129626600.43 128005570.93 124067719.61 124094091.38 126284406.24 131838005.38 
125914498.78 97848217.215 123896008.58 94796602.369 124957573.5 120558673.72 121777502.27 121932385.66 121072239.69 
121451232.72 120798620.36 118875789.34 112260600.55 104188165.73 95605932.138 87394129.936 80030687.278 73411741.069 
67994254.168 63895152.861 61026073.982 60117237.799 80401614.663 109451462.45 121139592.04 121061856.68 120393827 
120781993.65 120377539.23 120893866.38 120369378.06 115769024.44 108383157.16 99869923.779 91447908.951 83721844.135 
76606919.194 70622236.359 65749908.823 62379900.438 60435241.276 60327500.619 60605897.547 60550326.097 60497827.281 
60562406.346 60564775.763 60518180.817 60527934.145 60541154.222 60993300.751 60595817.295 60574631.534 60586375.336 
60565583.479 60582425.228 60521264.404 60509144.954 60467017.537 60606169.55 60782221.953 57020653.574 26784971.979 
11465069.555 11043914.866 19323279.417 26819873.385 33581868.328 39344154.997 44445869.775 48855961.623 52627621.68 
55758376.768 58271534.786 59988630.757 84527926.906 41220911.69 17281638.422 10734456.359 15219031.1 23336006.419 
30285545.29 36524596.498 41967416.338 46703558.299 50782969.841 54240458.415 57089929.226 59208841.738 60370477.89 
110575153.22 89264451.536 58475913.478 21118948.539 27669191.998 133969526.29 125854919.76 116553250.66 101928674.91 
75215530.914 41653255.198 4078171.4147 78580877.338 124001319.03 122600765.09 68167517.277 130084831.54 122946084.43 
121192227.07 124504196.7 122448893.82 120582387.37 121440110.24 118682058.49 112368250.95 104184336.42 95589369.6 
87288970.452 79879467.127 73270040.75 67835534.419 63682017.086 60882045.59 60037890.361 57772577.163 92147914.627 
122439889.38 122661645.42 123013637.97 122434261.14 122935121.11 120278374.9 120175429.86 115728218.11 108383167.05 
99865617.101 91400761.06 83572883.547 76484276.232 70420142.244 65607367.643 62187772.753 60337380.472 60308481.818 
60541299.847 60524845.089 60508002.542 60533518.367 60570447.008 60587952.796 60525186.742 60613169.93 60611796.391 
61023123.323 60504295.925 60498310.994 60534172.302 60537872.086 60559999.567 60545445.355 60551616.393 60575805.803 
60719733.24 60787798.022 60550822.336 27485393.796 13428968.572 11653886.713 19748121.108 27168688.229 33719523.248 
39513249.457 44544552.336 48895355.065 52632514.304 55735494.586 58217119.327 59913556.831 87626895.547 42806545.517 
18237271.847 12122545.736 15545735.383 23762084.06 30451249.55 36710130.543 42024704.284 46786138.918 50807346.515 
54215042.394 57033417.055 59142712.214 60308743.795 112883236.75 93188970.451 58906552.67 23386080.035 13173094.31 
46189752.591 125104602.35 118896281.46 103508307.01 78208296.758 42325241.773 7542200.3209 31894851.401 83049222.99 
121388523.92 121862255.45 60521705.001 126023267.82 121313315.29 132590473.77 134157318.17 128303634.29 122090965.16 
120637790.4 123133367.71 87145001.415 101515903.72 131021849.58 127052745.92 126551410.73 132146850.42 128332412.99 
126760953.21 130618886.09 136493942.77 134926515.54 131118013.45 129081265.27 131793545.56 132365350 131431242.65 
130334211.68 130986775.97 125525257.16 126864361.89 125034595.35 83001504.636 63388221.833 114723560.43 80825580.846 
52311697.525 58870055.364 64825099.217 126470231.84 53362652.66 108737557.44 51882488.684 74064506.368 41819795.886 
79088623.38 61580110.31 97475882.918 65874379.901 72933345.402 124457320.19 114510568.78 53571901.725 69977099.284 
62721495.325 59407612.884 99042935.97 123034091.19 85268497.255 42394243.022 63439400.424 58141194.368 125327102.3 
88532086.586 60463861.981 61780559.12 68121746.931 129487277.12 63835827.192 34709032.929 32140170.167 35903151.314 
77554067.457 51328290 72131001.009 54396064.167 110055731.03 126275821.29 93155669.15 56239770.552 65743831.128 
74039850.698 48147999.596 74658654.704 57482159.722 113069359.45 96198978.067 126628273.49 118966389.19 132840475.03 
60636001.58 68652674.316 58780127.825 22872267.814 49817379.553 103165233.01 60845157.203 123143650.7 100306225.61 
122729399.69 81000925.135 43072600.491 73358534.372 88756280.895 64051749.683 55335645.199 63236329.857 60358725.297 
61197193.475 127238421.91 104592419.14 68846918.032 61742413.723 59998882.417 61245205.995 66298309.861 61017943.84 
25800092.411 61792574.097 86743942.443 79828461.702 34392524.073 42751094.381 54439856.9 49559170.419 56962147.486 
80298117.314 81034914.173 65373829.132 63094705.292 59453993.969 122812231.7 127270490.16 63196683.663 67513841.54 
50508807.26 86477776.169 71461339.06 123763186.57 71545488.595 71354886.545 57908208.817 63295074.542 60185422.334 
65412579.577 124668649.15 121294795.22 105481348.27 131579911.71 91490005.403 112820319.17 53600470.495 60794672.311 
88516333.801 59569156.163 144043352.17 130279995.42 115938530.2 79311054.395 56700340.015 65080163.007 121558061.4 
26171803.389 49283659.977 18341616.217 63315695.78 46724020.39 101699973.58 89531671.701 37705052.533 40011144.044 
124033415.49 74087943.539 60626752.227 60813158.918 67610307.994 64899260.501 53529229.292 128919270.45 62127091.98 
127774581.79 46526582.159 56834972.732 127775340.19 47313020.487 36961999.061 92394567.666 55310348.453 104378735.17 
48814789.828 125864005.01 74157634.29 117324884.47 32307274.851 74348739.926 39079798.808 118913631.87 112391082.8 
63028256.497 60408670.778 60916571.771 81803672.766 61924794.985 58033878.522 95124386.17 87877688.906 97232987.731 
71078591.234 104105755.89 56121937.823 67290067.269 54797443.775 60133865.607 69754000.835 93946418.269 97978909.021 
123451652.82 41718400.743 65057138.46 46024379.669 125724673.32 124187401.42 50992119.573 47000651.164 18361541.945 
112004859.04 101114563.65 76083792.899 68954755.342 61555997.097 76306726.372 85955613.187 59126130.934 61776196 
97191618.147 59987710.469 60431745.36 60625926.124 95279188.395 120429228.67 124212043.94 122829512.77 132180345.16 
112389116.73 120539334.95 60563917.798 60726306.963 60411012.001 60493409.282 60210418.889 60508719.966 61453083.323 
88076169.312 84959399.833 127157843.26 131034801.64 125343920.58 127995720.23 131591919.63 124789127.74 133799295.06 
132461844.35 125012549.15 127182180.26 32627415.917 47207356.207 51456633.922 13787207.352 18525797.98 30474682.74 
24819773.225 22096544.632 12969542.31 13242411.142 18556025.843 19633189.338 15718285.78 20625244.013 25829259.622 
22150552.626 24320153.998 33453065.305 30171260.336 30465023.304 38291890.473 35409472.004 36057909.262 43502166.967 
40970916.033 40451736.915 47844815.396 45653350.897 45023809.391 51465466.833 49612007.93 48816780.198 54585621.452 
53012335.812 52057198.735 58065640.964 56812399.385 57055649.017 55879451.068 54921030.726 59584048.187 58672941.993 
58514457.021 59847988.744 78569218.545 68257486.088 59782766.778 65353503.506 50548896.318 51623015.523 36788738.764 
22870693.576 47880242.818 40815494.364 48356903.576 30724966.331 41828269.132 51356565.165 51684069.706 118035851.94 
69169040.89 132985019.78 134071511.31 121757052.62 126488977.06 60504282.426 60473634.534 60205364.183 60356447.32 
60215894.338 60466952.35 60419176.982 60365371.819 60577749.947 60524040.927 60453271.893 60672109.855 60585329.919 
60715057.763 60708507.469 60679036.016 60954772.708 60637516.834 60592532.063 60911932.404 60823256.15 60771173.713 
61032543.761 60674143.772 60671805.29 61056536.804 61071420.186 60786993.161 60929197.778 110142976.89 125383973.62 
125361009.87 123363752.91 125628317.93 124440127.98 122487327.73 123309781.51 126189864.67 120659351.82 123170543.15 
122521952.83 121524571.48 122623201.75 123000493.93 123184461.89 124031797.59 122042228.82 122512757.67 124098316.8 
120368109.63 119408531.36 121882468.45 121295987.56 118600687.49 117496522.86 115167634.11 111932294.32 114681998.36 
106734039.15 102803437.21 103180467.61 107864781.44 108205369.61 100535073.84 96397727.255 99537742.667 91499718.151 
87552562.643 89666424.127 93308158.754 94214005.428 83926084.004 80441184.667 84291413.095 77952860.043 74765098.322 
78568146.28 72394300.769 69781901.802 73704226.632 67844395.564 65797561.347 69404961.9 63619575.952 62289511.514 
64511459.538 64899978.111 66562718.317 61445229.432 60894109.411 62508274.873 61046453.546 92137108.277 85748643.808 
89482035.568 86252634.277 92830188.425 84741686.599 81732253.307 78390005.376 77184362.18 79719163.143 77083119.764 
72760269.534 67526076.726 64693485.67 66037031.429 64446640.015 66902995.59 61854995.273 59429354.156 61154701.621 
59492234.579 61781054.384 63575009.064 62499171.687 60972299.234 63264361.311 110279451.33 109449085.32 113913066.62 
116185017.49 116851003.82 104692286.17 108692641.46 113659452.86 108163035.35 126628594.72 116456129.52 119304964.19 
122692145.86 117233220.25 80923181.288 76978142.578 77190784.032 73783115.307 77371682.628 83687934.898 87747891.687 
84600588.861 84904236.675 80388545.033 83067278.856 76879783.764 56797291.113 55871319.154 51035231.097 44281340.704 
47459701.954 62904407.653 58278751.225 54512495.755 59884089.652 45823092.18 50305603.223 52899814.635 60182715.277 
59155258.078 59763980.927 59455265.373 60225219.934 58294240.205 57989847.602 56768144.633 57752826.267 58399654.35 
58726641.92 59131247.83 59716223.249 57369129.938 65188235.57 64237607.57 64010273.794 63119195.406 63891364.562 
64043628.972 64929726.366 63961831.726 63041950.788 66495422.131 66063258.079 66290237.498 123744229.21 126387728.89 
121944194.67 123387704.72 123008899.88 123307533.91 121546052.12 125745578.1 127566446.6 127720650.22 128046901.15 
129501460.26 57610204.948 50218294.499 60710194.9 58943447.556 67034016.149 46959850.754 44447138.074 51402714.549 
57043537.188 43214272.154 112337442.11 114292917.09 110986472.67 108541480.44 106434463.02 102082781.04 106383155.4 
104307746.53 104971060.81 100737480.1 110270309.22 114150393.67 102858482.27 108193486.31 55240694.954 53978074.718 
53174055.933 51368051.31 52652673.205 48318019.088 49573016.709 50704325.595 53299202.815 52176998.964 49198039.317 
55467311.012 72618364.412 71331244.09 72845885.445 73733831.324 75111329.484 76930004.105 74231999.575 76613642.071 
77842108.112 72527236.621 29925035.949 39274092.522 32304805.375 37003770.084 27435623.044 43453938.41 45633054.783 
52634137.079 48631173.086 50595418.068 44042702.818 39056547.379 60485753.695 72003305.279 67870861.101 82131639.997 
70279401.823 77700180.087 83445222.426 73622332.459 67054508.275 89831266.401 86586816.686 90509651.955 61323085.667 
61121678.708 61185750.51 60851814.07 61845495.904 62659676.472 62354225.733 62591034.613 61778070.511 61511581.572 
61289082.786 90507758.915 94955485.081 92998480.599 96177681.474 91800363.264 104195017.17 100706164.81 100896983.02 
97615104.626 101169583.56 95187973.797 99476752.255 68771598.785 64964830.203 69354157.723 70028988.931 61104265.494 
62596482.196 65884751.683 67413926.71 67478935.867 58711734.501 71531600.683 68248117.119 73141781.863 77037608.697 
67376877.503 71293060.532 65675441.247 80648075.198 76442774.265 75027434.398 124574063.11 125493057.2 127255141.46 
125641249.44 125706629.18 124307126.12 123778132.21 124231642.02 121326277.79 122967153.86 124710327.9 122417931.01 
113622300.87 119472724.44 126643882.07 123635299.61 108328745.51 95322327.28 89580855.689 81762288.842 104460728.07 
105386774.76 56469696.405 55178401.916 54868089.91 53442930.897 49265644.073 51948022.061 50967402.885 52259707.748 
49562449.314 55242741.01 55725133.692 53885965.95 70754228.49 73164062.573 72216669.42 73135288.692 70754579.846 
69411407.023 68741733.847 67377737.905 68614648.36 68843591.744 67412798.164 62961491.2 64121867.44 65333628.936 
63865150.345 62906243.298 62102416.144 61976700.077 61793167.207 61974194.969 61508898.984 62255750.741 59913042.196 
59390675.922 59910927.806 59905533.789 59682868.018 59242089.656 59557589.681 58704828.04 57936358.788 58674230.598 
101883634.74 105861671.81 101775200.68 93441332.846 97661254.732 100236223.22 87808835.286 92498719.789 96709221.815 
99639132.963 122618615.77 121481949.44 118698909.85 116915025.33 124557590.06 123232417 119557966.25 117839987.3 
89894679.7 85939011.326 89027592.343 88230689.238 92264007.321 82155340.07 80079972.898 83160253.916 86329881.764 
82430188.838 79516212.515 39878083.265 42410458.679 45015992.509 44937593.664 42362376.849 38228673.735 38329477.441 
45544139.507 46019543.971 49135144.655 64447752.072 63382319.134 62610888.74 64348641.569 62682517.124 61659731.245 
62546863.029 65450984.88 61763068.197 58907631.352 60599527.392 59963601.332 59073481.787 57401348.404 56262641.325 
57229526.486 58136989.276 124365275.73 126705146.88 122744177.16 124051765.47 127277141.12 127298362.53 127006329.36 
124676009.19 123115782.2 84669902.957 88589230.447 91803092.23 84500590.599 89126271.785 91733894.583 92509663.694 
95216860.7 60575265.551 60660197.316 60520748.007 60001319.453 60355219.91 60233366.453 60373235.115 62436338.583 
61466694.472 61282939.443 61394662.15 61940801.94 62382601.359 62615754.215 66769579.678 68449644.091 69520938.163 
69897359.235 66652670.323 69814523.745 67851184.996 129609540.95 133164156.95 124426955.35 125265694.71 126830155.73 
127874873.68 122608927.05 122108583.59 126512550.24 62815255.627 56675927.472 59506672.91 66761840.24 63116734.71 
67416838.708 69054165.154 72013790.201 38842339.387 34371713.412 30501748.098 39629070.783 35394927.47 31076706.904 
36258556.61 32963860.553 28357075.503 25177150.591 40741374.769 39185576.193 47733150.463 25586445.909 32332555.394 
25014593.875 36947422.307 30659030.444 37709729.101 48196688.233 43935288.845 41403817.004 44771428.483 81636885.975 
73376560.824 71534863.784 83088947.898 74576974.467 67790254.477 47674920.399 52651527.57 57904661.413 48510964.165 
59783820.79 47818793.611 68952993.252 70066109.607 71281002.416 73162746.537 70547802.207 73168991.567 75878275.841 
77040048.431 51654337.275 52029786.923 54557268.356 55571823.851 57379312.593 57482483.4 106911520.9 107318123.68 
111052384.95 114660624.8 111288249.3 113713500.04 124542323.34 125666176.42 124375177.65 126641829.4 127191911.96 
92721623.816 89472951.417 95069264.646 99802827.118 95620918.173 97366020.671 57156363.468 66509366.519 66148552.911 
56419090.651 63348496.327 80405012.682 86193073.504 67741793.199 90735363.93 47558193.502 45626676.872 47537123.843 
75365221.088 77614867.745 78601088.3 75453180.258 61003045.094 64604278.929 56504152.217 53327065.778 51651808.683 
95647326.137 98422928.821 98040755.802 115350296.7 61278208.013 60708561.354 61056414.093 60543829.343 56800283.484 
57386674.86 98220698.754 100285578.72 94464613.649 97676307.945 97840789.476 72477946.379 60309553.286 110278968.45 
122811093.42 122231899.38 122355242.95 122461648.44 121318780.61 122534444.47 120939866.93 115583635.09 108195852.34 
99827303.629 91571151.756 83584358.29 76384662.797 70440002.927 65829848.254 62315242.202 60498224.345 68030540.452 
59075691.334 81527987.984 62408561.92 60463058.158 60457887.199 60149364.9 60129432.981 120769173.73 103155693.02 
73929374.422 81476099.573 120509481.23 123220374.64 114500247.11 127062415.39 125702728.46 121609109.65 123856335.57 
122808131.7 122757876.44 122550418.85 121515234.35 121228655.77 121440215.81 120921315.6 121573044.52 121833889.75 
123324177.57 124048877.32 122708541.2 123649052.05 120988238.65 121987600.91 121339725.71 121847588.84 122853611.21 
120707193.19 120655213.8 120455343.1 120750029.94 122247032.41 119830606.61 121065734.72 120991108.19 120662251.71 
121519529.75 113899636.26 117493601.9 119844685.39 118831101.69 117409486.08 106210265.09 110431542.16 113933530.68 
112468919.45 110488335.52 97809940.047 101993442.01 106214330.88 104184976.68 101986869.21 89341382.111 93532625.049 
97750950.03 95578283.68 93544329.612 81718279.47 85585381.257 89340288.611 87323585.305 85567820.722 74894624.674 
78183236.124 81642350.088 79892658.804 78131110.862 69204644.847 71894507.896 74870622.632 73309200.977 71798279.951 
64846861.691 66646214.916 69082903.358 67773599.345 66571188.538 61621905.899 63136863.813 64725715.947 63795011.758 
63009466.941 60268550.44 60530721.063 61478810.051 60887299.053 60475098.774 60080428.022 60238508.724 82590589.834 
63346198.031 113374845.01 80709727.015 52227926.479 58811120.715 64794335.111 124410108.78 53039843.864 108167602.1 
51817061.533 74027511.292 41696711.415 78133571.255 61572499.9 97292627.025 65665601.138 72545163.089 121121292.78 
110595324.48 53537411.041 69976765.273 62692061.926 59357523.373 98092201.703 122072421.19 85022732.888 42350462.653 
63469818.352 58085962.964 125445168.32 88241817.612 60387846.844 61807499.513 68046143.287 123585809.08 63440799.351 
34791063.047 32146236.078 38014721.785 77017972.822 50399740.113 71953092.434 54302097.716 109823788.07 122419751.29 
93130462.032 56237424.005 65611350.81 71255757.593 48247064.233 74451443.206 57103986.458 111970939.9 95495371.355 
124790743.14 118204406.64 123493126.72 60568343.31 68612283.581 58721067.657 23027675.073 49645899.24 101917228.5 
60783838.456 122253905.44 100023992.47 122131332.87 80831479.87 43111348.715 73178829.41 88496445.961 63839722.326 
54232704.052 63106350.297 60341854.295 61185847.184 123886637.12 104523133 67922837.287 61702561.206 59932982.489 
61226870.559 66323801.725 61050399.718 26688123.047 61614673.938 86563417.408 79524878.736 34474583.294 42707271.158 
54398737.956 49561903.458 56874698.508 79964916.995 80748882.258 65305401.874 63070441.114 59393225.533 121670121.98 
121457855.72 63347944.668 67369119.578 50539938.731 85268820.09 71325583.162 121019602.17 71557481.923 70826156.067 
57850828.744 63258282.424 60203550.308 65374309.726 124286751.74 122140720.79 104463792.49 131480770.76 91343172.527 
111794491.55 54269742.472 60762732.218 87817164.617 59676509.149 127523084.84 122625019.59 115334152.18 79152927.385 
56735606.716 65023631.478 124451967.06 26458996.82 48830249.057 18997021.09 65296149.148 46351405.516 101826496.05 
89237613.421 37951272.864 39753912.551 125698025.38 73992988.301 60530903.589 60791915.574 67451297.463 64076062.696 
53533296.592 126596369.85 62101993.813 124140740.33 48268783.298 56885448.689 123617440.67 47356117.401 36972245.029 
92297827.264 55069255.108 103472481.68 48869528.114 122570570.83 73713695.365 116331230.15 32342252.591 74197150.072 
40497109.159 118880001.59 112070634.18 63001364.147 60312582.181 60945790.371 68986279.307 61798675.232 57981922.217 
94896329.196 87671473.212 94754582.759 70963774.893 103914155.16 56191926.483 67173837.411 54762921.823 60098376.901 
69411982.981 92690998.054 97888091.397 122196374.33 39639131.688 63738287.035 45774367.187 124279198.7 122507039.13 
51030540.668 47092688.307 19154848.2 111620956.23 100855034.34 75972268.185 68746732.714 61555299.201 76092934.55 
84497087.44 59043886.571 61599888.744 97214549.584 59928404.227 60375546.841 60651544.047 94804462.221 103045485.55 
124470659.4 109318125.19 121382933.73 122375351.93 126083477.11 60728722.711 60538711.189 60369933.315 60450143.845 
60450077.733 60154174.48 87535719.159 90817134.94 63350233.241 70318023.292 80344354.544 62044779.403 52241550.395 
68621360.979 52171646.732 23104048.772 37478875.414 40325098.114 48569819.452 47926289.905 37957977.617 31050305.566 
50206972.007 56212831.099 38720340.064 64751683.27 137534848.76 90288212.806 94645298.46 124093048.55 60395253.675 
60451740.477 60312719.463 60124950.704 60173540.398 60386689.535 60435921.33 60327230.73 60483296.414 60546199.703 
60428202.36 60548675.806 60636994.071 60658232.84 60647100.078 60700907.921 60921259.49 60603884.574 60673850.119 
60885006.971 60802787.674 60840904.296 60998187.559 60715268.332 60707278.994 61064177.563 60808899.656 61082209.101 
60944419.328 127731875.52 126327660.15 126331267.46 126283246.94 127355231.35 123696479.02 125028195.57 126516604.8 
122308274.48 121125096.04 128200273.42 102824391.03 126833028.66 120867421.27 122706990.43 123967430.82 122752068.08 
120466778.21 120618594.23 123074671.16 121786283.03 120680143.48 121012983.86 122261419.92 121414464.52 120752921.06 
120447513.87 120702469.13 121991551.51 120468952.76 118769477.82 119936402.51 120275223.63 120369718.61 117565864.44 
117018402.93 111892574.83 114942006.93 114147862.82 102817112.97 106823045.11 107913177.83 103212000.77 108081893.98 
96431501.818 100581840.8 99558318.995 87405222.967 91437731.439 93219695.614 89556167.447 94166785.713 80295664.336 
83840520.713 84088935.93 74659319.666 77828540.211 78419116.896 69645342.429 72244630.862 73537419.525 65607793.739 
67692148.212 69252655.094 62197777.391 63488500.144 64744537.048 64390339.485 66435014.108 60813881.211 61292019.115 
62375431.118 61004973.641 49189653.757 33952247.304 52189353.911 19245519.25 15117013.501 25761156.889 31343296.533 
23062353.305 14387171.842 13903733.026 19232749.693 16012446.755 19874342.449 21087710.101 22546696.922 26157816.85 
24511994.201 30381294.357 33595352.874 30693452.102 35591910.938 38490466.929 36231474.559 41098850.968 43585787.007 
40613317.868 45763170.935 47909707.826 45098138.026 49645249.275 51505546.045 48857663.747 53013393.716 54577225.759 
52080955.197 56776183.647 58001053.308 55862051.811 57029933.461 54921927.065 58611166.891 59502009.074 58439310.061 
59772343.433 88892329.183 85218338.97 91484193.728 92256438.802 85918827.783 81352034.517 84418652.993 76789653.456 
77873531.6 76679523.406 79145991.064 72252816.799 65951514.4 64760990.134 67483130.363 66854443.237 64334593.47 
61124493.559 59339657.982 61921354.906 61606016.919 59463931.823 62395343.336 63569287.166 60960468.077 63240641.006 
112996141.41 108410819.83 108954687.32 116420646.8 115424377.17 107268082.51 103424473.35 106400976.72 112275745.5 
118168090.2 115742261.46 123418258.96 120624024.3 114575867.68 76950805.377 76753755.412 80724746.521 77151865.296 
73589807.988 84418211.147 87530055.877 83622345.979 84664752.784 82902720.819 80130571.276 76721667.304 50905286.201 
55715950.405 56722013.737 47425588.678 44239350.61 58107119.351 62717682.687 59849971.932 54578639.529 50297593.682 
45859485.386 52890122.388 59678373.731 59141540.975 60135674.085 60214907.216 59381123.436 57918353.613 58270468.393 
57785610.165 56732176.735 59040212.674 58692299.568 58339174.141 59675680.12 57311004.12 63975388.412 64132028.539 
65136336.016 63855949.039 63078762.209 63943219.929 64872879.283 64023023.794 63006725.478 66032271.588 66422503.573 
66247320.516 124136738.08 123865039.81 125256193.56 123679798.17 123794568.95 126372188.85 124255862.25 123898847.76 
123702689.31 124257607.3 124646804.38 122291726.66 60052658.257 49727374.908 56917226.148 66176127.932 58247001.886 
50998067.171 44173752.505 46784647.579 56482190.049 42774316.703 110061935.69 113083548.05 111835141.84 105680571.58 
107482843.07 103948622.16 106084481.94 101903046.65 100438245.82 104497110.43 113899419.79 109947894.23 102337665.95 
107995407.42 53150194.595 53977925.413 55228161.229 52701170.817 51359260.353 50719369.237 49582544.149 48324982.41 
52209723.91 53301680.305 49262341.774 55499130.719 72785123.818 71275811.762 72527143.553 74956051.233 73661566.231 
76452525.479 74054118.154 76692819.867 77663125.224 72459101.405 32366960.698 39277865.736 30005067.752 27486425.116 
36971276.26 45559955.24 43447999.247 48481815.518 52404517.304 43877214.302 50335824.98 39029802.589 66394078.865 
71100628.374 58793167.87 68383158.883 81177405.308 72392475.085 82124857.17 76625619.478 66001835.082 85235448.497 
88750782.034 88967403.605 61088813.074 61375954.376 60790798.32 61174637.458 62275733.931 62603985.83 61835191.287 
61710028.802 62450294.768 61547105.642 61221623.683 92745118.939 94789561.888 90363694.233 91614135.065 95967016.494 
100821617.99 100501019.27 104098453.79 101101510.14 97531253.844 95101099.118 99279509.597 69221705.338 64808073.197 
68645602.83 69863649.39 61009916.506 65803668.683 62508389.784 67273795.31 67342811.684 58627032.411 71348019.717 
72890132.299 68035909.202 76709738.563 67214202.974 65315231.556 70995836.955 76133540.748 80389433.9 74783490.314 
120392266.61 121130614.8 121412197.39 124593736.95 121877546.97 121864676.73 121259261 122227929.24 121361291.83 
121022696.98 121395942.72 120222017.96 121512420.15 111554659.21 117814431.73 123693950.13 91214782.681 98891986.083 
86647180.304 101320998.97 79774650.997 103435332.66 54858597.916 55195021.067 56479232.327 53423117.56 50996804.104 
51959914.898 49287629.194 49639524.285 52279606.889 53868418.749 55707573.995 55218715.674 72104603.019 72980079.098 
70704606.852 70783772.718 72982734.681 68634203.859 69332215.595 68514143.668 67306565.205 68702734.968 67285189.458 
64033800.105 62976277.277 63866564.792 65246203.793 61931647.967 62110537.91 62891069.675 61776607.781 61896209.997 
62151043.733 61450815.228 59885692.164 59327222.697 59844301.457 59853695.823 59581852.284 59489857.209 59184747.867 
58664130.592 58613651.287 57903088.71 104957587.1 100973641.21 100866989.17 96952426.095 92448971.015 99475765.482 
91497312.391 86969265.977 95817351.245 98303186.442 119116617.94 121791097.89 116656699.16 118910025.53 121575058.81 
123945983.67 120489230.88 116900893.39 88860555.023 85744642.125 89746720.039 92219046.085 88094131.705 82988605.257 
79866171.363 82030787.454 86161872.191 82261652.383 79319559.605 42387285.945 39991749.263 44888333.499 45099526.706 
38478769.031 38294487.927 42432922.649 45583052.812 46046819.37 49170058.858 63325336.695 64453365.474 62564078.005 
62643734.17 64301017.026 62518990.224 61612944.387 65376703.893 61714975.636 59855905.106 60605435.582 58941516.918 
59008793.265 56235354.948 57406213.746 57172720.311 58140446.546 121872296.86 123368175.92 121069730.14 121509414.2 
123860957.31 121081835.62 122913950.12 123493910.88 123027565.18 88323371.775 84292318.444 91599878.404 84054391.736 
88822610.027 92070806.366 91364326.477 94836984.431 60604878.67 60506272.727 60450390.626 60321038.825 59914146.578 
60175963.071 60332755.648 61501875.156 62434792.488 61280518.793 61408938.202 61963630.639 62390637.175 62586559.726 
68438226.257 66673053.569 69808761.396 69444342.237 66602164.309 67747296.798 69768252.192 124281351.43 124738302.3 
124618836.67 127106516.24 124413633.98 121969285.81 122664921.09 123574044.04 122093079.54 56462533.321 62623713.278 
59148363.79 66423054.362 67171110.341 62765455.912 68760247.841 71741059.501 34449597.968 38751760.542 30763476.513 
35483518.356 39628596.132 31241543.9 28829166.197 33328945.69 36021709.886 25789315.701 40576844.134 47479949.081 
38915199.041 25376458.591 32386947.716 25759219.503 31623640.075 37208816.648 39647953.379 45380749.014 50514204.597 
45447267.408 41890550.31 72541513.566 80715881.731 70754905.56 82389470.293 74021513.437 67336948.582 51541137.26 
47588375.307 57099043.114 58966286.097 48112025.674 48196562.929 69972765.703 68899109.578 73014860.512 71159681.752 
70344419.426 75699126.796 72995797.787 76840676.705 51947437.958 51620994.284 54525675.116 57326033.039 55489100.227 
57407103.947 107219266.06 106738253.41 110845039.36 113236748 111019782.21 114105163.83 121059257.26 121892115.02 
121553062.59 120424087.79 123698485.35 89327607.755 92693991.032 95018130.833 97299239.157 95541396.027 99755921.433 
57103180.381 66086365.879 66424499.258 61798284.04 54732793.118 78451318.604 66633803.057 83713752.171 89117498.809 
45738604.735 47667085.904 47614574.901 77445404.903 75218386.284 75304681.077 78389460.913 64044472.429 60475360.364 
56148794.016 52867494.182 51360420.988 95148219.753 98075603.633 97693036.612 114654147.1 60694173.428 61170796.059 
60582982.996 61007170.667 56718583.903 57447903.55 96903703.907 98482771.678 93121234.26 97420772.456 97450200.995 
42646073.867 3554802.6528 78054686.582 102452333.47 118076342.55 37586341.654 131777780.48 120881022.9 120371649.93 
123614317.27 121624190.13 122926463.35 118735699.07 120362223.68 115618462.65 116319677.11 107655871.27 97000427.013 
111843363.91 69986956.079 86224344.87 91582659.985 33753533.377 50468775.166 60521668.641 13808519.788 7889222.4977 
24637136.926 27159725.739 34208865.374 22446375.126 95808465.262 126504444.42 91335204.743 121528989.25 97366586.807 
106615974.56 83807685.754 69413784.038 49920499.743 32733405.857 15244157.298 12836332.591 87485192.838 33777194.876 
126228239.99 133715693.04 60501929.541 60601443.67 60567367.93 60520384.26 60541944.713 60573704.344 60509710.127 
60775953.384 60523573.066 60558664.501 60627183.237 60618679.034 60988566.952 60498895.268 60531095.879 60541295.722 
60994282.447 60508153.113 60536913.073 60561065.013 60505194.534 60598417.436 60582622.58 60518406.946 60548376.473 
60502185.486 60538119.441 60555501.733 60500982.856 60541113.649 60473218.832 60494641.608 60568761.148 60529506.134 
60559993.459 60560980.674 60525076.09 60570566.981 60545473.791 60511470.924 60579997.67 60570801.919 60613030.427 
60530836.75 60559206.199 60532769.075 60527965.983 60577335.978 60559956.019 60578865.695 60618612.387 60496144.189 
60749079.821 60579182.05 60528656.752 60608731.542 60546216.641 61100899.52 60740167.007 84693571.832 40808480.769 
17237528.12 11108365.906 15248802.094 23671802.144 30320408.475 36538223.179 42012084.746 46761120.978 50803413.688 
57061267.31 59190654.522 60412264.113 54225888.935 60511988.043 60497176.799 60169413.265 101688202.69 99867593.264 
71084988.674 60144447.762 73316992.248 48229384.4 34447585.375 59689432.199 49901945.878 21464219.521 14095456.544 
27716446.767 34557631.261 21972711.999 11098415.376 11132403.977 12938676.103 15156548.972 12090243.873 13158382.342 
17366298.092 11493214.776 11837673.814 13393437.065 21604782.424 25309166.242 19666564.003 17489515.635 21899405.84 
28548490.132 32180192.832 27052831.188 25555322.848 28673602.466 35043401.566 38104517.232 33686282.321 32181979.242 
35129446.458 40672378.752 43261535.676 39462727.01 38228664.806 40731419.123 45645365.888 47798329.992 44513349.762 
43275396.84 45718303.315 49862351.887 51710989.283 48876585.392 47838136.595 49876224.943 53489757.05 54990992.981 
52635760.789 51725587.826 53479312.209 56407331.293 57684409.395 55727096.642 56392463.325 54969571.607 58730409.635 
59583148.494 58244292.6 57645535.057 58697582.098 59909013.66 59555953.841 126272562.13 86017475.487 48188896.027 
66087794.999 64649642.535 52500595.006 68303769.006 53032772.615 68048617.21 125060238.34 129463533.42 46442070.668 
87835759.961 68031918.801 55762440.565 66705878.54 62488421.979 64422370.413 63439848.605 64010387.781 64010368.858 
65062098.502 65354741.021 65049813.768 51345646.141 51845463.373 52160247.959 52136659.113 51716734.637 121705601.06 
121912823.07 123464520.04 122435696.96 124792935.27 51011568.149 51759118.343 89046046.105 85601188.325 89631445.281 
86274814.029 85720137.042 45834425.731 48851617.71 48492070.819 48500963.634 45552478.003 93202108.769 89171914.673 
28354094.174 20755080.379 30864081.36 27627362.264 40031345.545 42720176.996 45491769.462 122620081.66 120026623.22 
34167296.579 40777750.599 40136542.983 103224770.39 108426730.55 109587395.18 108423927.91 101769085.55 120821366.37 
121029720.02 121881398.04 120530047.82 120132097.88 20376023.607 26326466.578 65784371.582 66706941.846 66930704.021 
67803226.574 66723957.35 65719207.825 66626359.088 66653219.231 67726386.411 60682679.408 60637739.208 60627996.57 
60819731.704 60643485.908 60650189.075 60617612.239 60646966.119 60941687.683 60683855.503 60631126.668 60923399.514 
60799307.491 60638145.222 128787577.98 129462870.64 123550855.18 127133301.69 131952830.91 60602638.182 60660811.483 
60562186.636 60598959.147 60553466.512 60505566.899 60634597.389 60585014.828 60685302.424 61045361.35 59564412.357 
56967828.194 64099512.857 71392457.65 69890993.813 67351779.75 68847867.774 38408554.209 39788554.836 37029780.701 
60455425.725 60541207.153 60419655.049 60496722.443 60548422.572 60474155.875 60501712.859 95265696.9 93274355.945 
91421220.776 95207535.733 91385322.964 91382048.023 67336513.434 53310497.708 51426885.139 128875100.89 128780651.25 
130995577.07 121206345.7 121087446.86 121830186.9 37836383.884 39672718.603 36884375.699 60790799.632 61014574.039 
32367307.944 39054848.655 39002184.466 32317782.064 71285046.215 63854678.714 63128356.061 63015317.946 121018888.88 
121031284.63 120837763.55 120921360.31 106812799.2 104774193.32 104746989.85 65714730.25 60588738.907 60995486.312 
60610979.333 60924277.747 60957715.188 61236544.568 68861513.565 70450932.712 120189042.66 117942175.94 89352598.484 
92316482.289 90378809.488 94840841.528 61760436.567 62490895.274 61552850.975 60641446.675 60574554.792 109546468.49 
104565889.06 40638223.976 44272664.795 48970473.319 39826987.772 36099296.998 27493607.976 32342552.961 36996672.838 
122424553.09 121443377.13 121550623.19 122555022.08 122515048.08 120309830.12 122435016.68 123201900.46 122741524.73 
89562269.825 89512653.255 98159312.193 100925089.08 97775692.574 57050045.083 57444053.676 56508234.319 57423588.617 
57864561.422 127450044.02 121743050.48 121422608.68 121767717.83 119319841.7 72284518.385 73679740.832 70894514.351 
99761324.443 95544099.003 97915894.588 60594828.107 61002070.325 61462007.303 61043765.03 61144270.995 66291533.103 
47393942.408 59148304.239 60814150.14 60561040.411 60823232.12 33153868.927 47577722.176 52622397.77 39211920.813 
25261084.611 25750039.639 70984889.92 71382025.257 73740236.462 60450881.02 60329314.3 60339125.644 60512434.297 
60387942.593 60492577.852 60148964.032 59856666.483 59564733.27 59830993.072 63942008.658 63053008.81 27800673.535 
26007386.112 24356131.205 34483221.067 38323294.423 34763744.257 38798045.772 60577184.191 95131319.995 92680905.602 
56152443.493 54036156.988 53163827.12 55180459.826 100502976.19 104573283.46 123391881.27 97560744.313 60314652.011 
59948606.414 59546571.394 69536978.979 65451466.681 67233984.621 71105436.741 32116357.879 55124211.58 53823854.989 
54907820.016 53520870.064 53815007.279 76167663.271 73561531 31975221.307 27616430.098 26294196.531 30700225.565 
61084665.816 62551805.051 61863519.404 62537757.151 123846829.5 124501392.29 122098040.09 61235716.732 48254774.285 
89555361.02 87800119.951 121011013.15 72457518.148 71213418.825 71032791.946 69864645.658 59019160.022 60121430.655 
58158449.335 57175986.948 102416030.33 56703305.245 56712981.576 54969089.072 54971966.019 54949087.937 45864831.439 
121379873.64 122145357.03 121290221.5 61722844.299 85940905.524 89304896.392 84495666.357 13508340.113 13892508.826 
18749274.763 20923314.568 18002200.375 30647371.071 45723893.831 44549385.818 46858659.066 28699174.858 76168229.4 
75983958.516 101150546.56 79558165.132 79443305.514 77838346.197 51527371.994 60429545.212 60466129.605 61498616.943 
62108376.805 61850604.424 62381839.031 122422604.91 60410190.739 60174911.777 31969621.501 34469836.574 73050839.361 
70665781.107 82017020.245 78456443.865 36945440.694 49107685.004 61368563.107 45247083.045 24124219.6 33493933.899 
34968201.176 47719172.309 66049018.859 59460920.691 66667561.412 63381404.951 120367642.54 122305455.82 50714517.091 
51970135.286 60809146.045 63986334.326 64811932.503 60945463.141 122796407.97 124820250.35 123236668.28 123371674.43 
91668812.364 91675220.551 94994945.223 85783201.662 82059086.922 84136681.877 85686777.137 73229032.315 121875474.44 
121994155.97 121782234.27 56899196.96 54992808.021 44511860.555 47049006.623 46798897.396 62563093.509 62632747.449 
35000423.492 60209562.378 59436989.475 59954032.233 64338476.815 64075645.572 62829173.597 63240532.1 62804831.439 
97370683.966 92841706.593 63166846.911 56510062.564 56230359.91 60455840.426 61637749.278 62730369.939 56809587.651 
58130363.027 125233924.6 122564984.72 72966787.06 68658793.329 68131585.391 72689558.45 92377175.518 96044742.78 
97333941.524 59500002.084 59095104.094 120513994.37 121493000.01 60397574.123 88891237.944 78250526.826 67385819.445 
71136719.713 82686454.76 83157650.386 59472136.933 57381239.429 54437094.903 120729637.12 62607293.681 55800929.713 
36248513.429 126113139.23 125418188.03 127472704.55 125008993.72 126106958.08 59147575.237 59063786.608 123071386.25 
123009782.37 98414159.569 94157661.77 31338140.286 37168156.868 84443252.783 84727242.239 88600492.728 102417837.21 
99565356.823 53245219.689 50696805.861 86213836.48 107063254.53 107659117.61 102414672.55 73697673.453 74984154.705 
74030523.54 72799423.569 74550547.69 72075893.556 64861978.756 64192969.055 124180049.97 127301307.41 54621620.507 
41771034.372 48516080.517 43892242.321 50669254.997 43958051.636 65149506.245 61298009.977 61203862.607 87570887.201 
86646016.185 52869927.464 64444401.854 60601139.466 60179585.714 59704707.992 94991179.94 95298695.016 73240182.824 
54578431.937 95756219.22 80936460.223 102417597.97 102451314.69 97162284.249 60467184.971 87496923.737 60558687.156 
59924220.798 58943443.759 59622043.402 66513954.052 74087424.097 72562522.842 60326981.203 60415696.848 59953203.778 
55844829.417 55124512.548 42383874.119 40604072.703 76990425.425 76847223.517 62927779.028 63086372.671 62092578.085 
68387387.28 69478984.059 69416412.3 64149608.496 49561150.69 52214375.313 111569437.45 112665006.5 120159685.45 
121823477.21 57776450.254 57322516.085 80782180.033 80773156.722 80858221.602 120641826.79 121092550.93 121610867.21 
42391087.324 39857148.47 120814007.52 74854425.257 71814564.514 62280331.639 59861571.712 59868001.81 45075092.942 
60946493.755 61996694.034 62104566.702 60173226.813 60438875.069 76191344.493 68886370.241 72435594.536 73918240.374 
74243530.947 63560773.2 78073586.137 76916982.378 58131054.403 55714185.36 53595199.217 53618984.118 107895313.68 
103877434.19 101120137.45 76504864.06 76741720.708 128466106.75 126342285.63 122757746.99 61988345.112 63022857.698 
35488893.599 31115872.071 63942475.404 98447322.503 61503122.648 72434169.359 62105692.85 80158998.767 81485745.343 
52228279.558 62397537.607 61794851.899 60704256.559 61073282.048 58257236.009 59126378.429 59351131.451 59364817.45 
59423458.707 124118917.93 61879352.604 61125346.296 58733539.853 59361251.809 69281304.936 55135879.151 50744340.585 
61950777.792 106834314.16 104109693.03 107206135.49 109910967.91 58651841.327 58078453.731 56284215.065 110499000.69 
105985240.85 54777795.826 55495083.97 42365886.86 92218891.887 88071543.341 67194144.768 66676251.435 66635562.07 
67629897.946 67014153.01 67679917.709 123850680.72 125257837.51 122537144.5 83638692.078 76843085.592 80423305.951 
57379695.744 57958957.267 70229895.92 88371564.868 88403770.958 100602211.78 99324362.135 122138844.79 122891005.3 
121375692.35 60740401.86 60634636.285 60608906.271 61337582.367 61059929.599 69934429.482 61361015.827 61902123.22 
100141215.86 104028989 81411917.696 82740898.196 121741783.22 59688597.529 60188729.6 60607036.838 54338032.332 
51958931.341 49180480.093 51721616.135 61397384.565 74037795.135 120654373.57 61729849.827 60339323.935 60464560.336 
60550634.895 66613466.914 66635621.642 66080826.963 66118950.406 67416531.883 60448791.352 60417917.73 60441002.595 
127530360.41 123889995.35 130920752.72 125922422.13 64907989.377 123793983.1 54547599.304 72007976.781 75787163.076 
76806255.64 73038428.803 49359151.232 54177576.63 49379652.083 126014974.71 130672394.18 84425145.625 61568035.972 
76891551.019 79429658.124 79213241.536 47820269.154 66850782.572 64439809.955 65324585.019 103855536.27 92181066.033 
82608307.134 77326514.998 76870014.527 98959204.178 64172538.192 56256847.726 57189828.806 101938451.67 106119290.48 
79646103.409 111223520.87 119874345.79 48071709.014 48060590.396 56539946.116 63631748.963 49574453.983 65748098.399 
62456396.307 60512578.4 58077543.87 60448281.194 57301578.139 86842536.164 86164291.898 74231206.724 64871840.632 
87159653.319 62808162.702 81905185.091 72562609.245 17940141.921 23010498.02 113699162.78 48607300.002 49624942.224 
50569531.899 74756558.704 138624353.96 88842995.81 101109774.54 61679147.834 76164266.85 76762597.799 64685594.099 
66301209.548 63237637.979 125362572.94 123590493.91 126144780.79 75274926.745 41552014.016 99654176.901 58115277.896 
61098926.896 60949751.54 61775957.786 61924657.809 48322734.267 52977056.489 60619395.444 60338502.16 75839574.543 
83659562.6 75978839.73 122941556.73 60693635.041 84241769.61 97568744.106 89172470.554 62727864.455 80090183.226 
61932792.932 46011847.687 71338786.887 65875427.242 90780588.842 72274349.066 43059698.282 108663325.42 105325124.99 
101327853.67 104907919.31 91472265.231 60687788.778 66710613.69 68395556.688 66658866.44 123406561.52 53961196.639 
58842391.056 53995719.991 100842322.65 59784645.58 13702165.906 13944448.094 13405101.777 116322551.84 118614597.22 
115584562.93 56708324.114 55338590.455 40703878.063 48047554.479 85384814.744 76770963.57 94924411.072 51121337.577 
77182813.915 82581802.756 79361779.151 74138369.177 82231742.156 73047263.936 46744006.627 63849718.125 64009373.733 
60135207.858 58090555.678 118685504.14 110317140.87 52071297.935 50534345.355 53147847.558 51671256.996 51675559.205 
51461382.706 24539453.23 20535993.425 68603548.12 65978977.201 75102248.967 118627847.47 110220646.36 121588996.78 
57396949.532 69999474.777 57317281.281 50092455.868 61841624.077 100524469.22 54945652.087 52302790.006 54916278.394 
102267559.49 89840000.449 85802851.934 122693680.38 73027053.168 93135470.432 59270140.131 75369253.059 82929646.205 
79932110.233 82067033.983 80248063.915 77177938.514 61233887.677 60775009.801 60809241.161 56775717.598 53417347.054 
121461646.63 95046922.958 39253085.164 53161791.614 49926207.337 57322860.675 60108091.585 60638136.127 44964530.657 
45097953.506 47343256.33 20374320.415 58831382.878 69335312.188 71553585.788 69757614.256 69790726.472 67731524.795 
121227534.84 120576906.47 121915189.74 116274596.17 117905131.35 48448567.054 59182297.964 56963659.072 65048914.152 
58009670.312 58338506.646 67812781.022 67091165.048 67028607.054 109436159.28 58460744.136 97514856.044 45051478.167 
62221877.42 70794688.524 68642547.51 121446215.12 63368260.124 103888570.88 136473840.17 133166841.82 77723505.348 
73654168.791 82316825.447 60292802.858 60447083.281 60493329.913 67533465.946 22404703.037 113181005.97 45524347.372 
48851655.804 67233585.456 50601513.44 48620241.889 126135607.32 125284533.25 125423261.94 125856027.36 125161655.17 
80868961.382 61187217.309 91842364.779 53457579.175 53475109.091 52692345.786 121297841.6 123483772.82 122043488.28 
123169990.04 121953307.99 122032571.4 122089522.71 120412611.43 121157759.88 95791552.252 58557641.93 66385990.532 
88895495.694 68516973.223 66910577.436 68307391.217 66987334.272 125544715.94 126671717.86 127028912.72 104001836.73 
49278971.03 50683234.145 25504790.541 111040167.09 112226390.5 113892204.98 115250167.99 115430692.09 69064919.398 
36931482.351 29980053.894 78491861.902 59180851.441 59607985.582 113450034.56 111915270.14 85097532.316 22725336.62 
77485667.548 98463348.364 112397230.44 69690232.995 69647047.668 60677056.087 60709803.045 16177342.077 52266066.419 
52999325.641 52125088.881 124982926.24 108376578.74 97123732.884 120452671.96 31189227.379 30504306.956 36030392.298 
66413242.216 85116806.705 83082562.675 96140000.698 65689826.884 65711323.082 71030036.319 88065142.872 122301555.06 
122993999.96 122182868.25 120901645.39 21034805.906 50267475.999 32746258.575 21513829.456 56311630.57 56460347.849 
54866950.122 62425639.026 64368717.481 66783713.901 121734993.17 120189186.44 120216239.3 43915579.06 42373797.696 
43132709.118 110058322.98 107983327.74 62898079.947 101057925.17 128648446.19 117811410.33 64918349.929 50067667.567 
50070051.003 46278210.258 95211139.343 90570369.509 91483437.373 120934647.51 58672119.144 58712142.765 94647014.762 
46402982.301 59074925.086 63019143.162 98860167.401 59871210.477 18900014.354 128859788.59 123919627.3 129018077.15 
127160432.22 18916327.651 13697492.244 116629838.01 119904986.54 98072093.877 109316856.7 130919467.32 128273504.37 
116068803.98 51978600.039 51997983.916 122871899.56 122018952.54 122241819.94 126567909.04 125660713.98 127047164.08 
127346342.34 52133279.419 70922846.935 128448979.17 126658106.23 128807069.09 15629525.331 124927860.26 128501925.6 
64017860.184 56327289.888 127476598.27 64976081.352 66295387.408 63916327.702 63923890.85 62876805.892 87213178.586 
81012975.508 72705243.352 73198470.4 117077599.61 65005927.364 119513936.24 125185812.19 128511690.51 67569253.246 
118173894.84 39968872.071 34473258.756 33356894.648 58655627.277 57894409.883 122495108.22 124152481.51 53298343.354 
53308781.828 125242098.1 36697524.396 125431141.95 66395390.465 69056547.032 97322369.062 47221264.805 86926068.987 
121495473.93 122392997.16 39724018.438 60462127.861 116812491.38 124147976.7 68229298.576 91757916.543 43410205.532 
113539997.78 113592752.1 108179078.33 111803468.42 124089976.35 119658022.89 115944652.43 43373096.964 48187414.742 
50678542.949 38433645.543 123963922.95 122607487.08 47560458.107 60729464.788 14240668.802 41898805.5 124110191 
63009099.568 86521576.933 119201745.51 118634784.85 121993126.71 41922597.452 42417808.256 52001217.585 110861458.28 
49235886.257 124001169.89 122514818.03 50440773.498 62796109.522 121662567.42 89617376.189 88858930.808 113199610.95 
69206343.7 14805017.027 90450236.255 92730704.434 121023462.61 24050509.804 61339398.194 91271147.414 65874840.352 
49591171.738 68000095.677 68051643.142 63596993.974 47597599.965 114249651.34 68026569.62 68075518.686 57135751.972 
68548809.862 68141465.269 114397006.31 120293677.97 100582806.69 65903167.554 117997950.55 116045679.68 115909463.97 
65827839.35 65885657.649 45737200.197 60475843.79 60540162.867 65531538.729 65555666.685 115007624.47 62103537.251 
64306810.017 54618316.158 61626549.578 60359910.325 68991011.746 73665345.35 44935211.028 54873513.484 
Strain%20xx%20component 1 3545 double
0.0228505 0.000578435 0.000429675 0.0328692 0.000576433 0.000502375 0.000314819 0.000576011 0.000501584 
0.000333105 0.0120184 0.00703907 0.00328276 0.00171464 0.016289 0.00908559 0.00484419 0.00247321 
0.00114169 0.000530741 0.0184939 0.00730632 0.00293746 0.00133546 0.0255049 0.0121785 0.00484602 
0.00208695 0.000913497 0.0293057 0.000635911 0.00186524 0.00516777 0.006763 0.00434271 0.00229178 
0.00146278 0.00122381 0.00113159 0.0010702 0.000992897 0.000911315 0.000832605 0.000762096 0.000699228 
0.00064749 0.000608278 0.000581298 0.000572517 0.000648473 0.00108653 0.00361286 0.0062664 0.00568351 
0.00325093 0.00187446 0.00133733 0.00117122 0.00110354 0.00103283 0.000951766 0.000871221 0.000797249 
0.000729351 0.000672188 0.000625809 0.000593726 0.000575375 0.000574715 0.000504504 0.00050995 0.000518721 
0.000531105 0.000544118 0.000556312 0.000567627 0.00057523 0.000578273 0.000502843 0.000506912 0.000514707 
0.000524966 0.00053758 0.000550064 0.000562206 0.000570996 0.000576748 0.000577395 5.69846e-05 1.6759e-05 
4.73404e-05 0.000102901 0.000165754 0.000227006 0.000285452 0.000337892 0.000384896 0.000425625 0.000459886 
0.000486329 0.000504699 0.000511831 0.000168097 3.263e-05 2.87461e-05 7.59585e-05 0.000133778 0.000198517 
0.00025685 0.000312273 0.000361715 0.000405718 0.00044318 0.000473739 0.000496365 0.000509086 0.000508144 
0.000251683 8.63901e-05 -3.81933e-05 -7.63434e-05 0.000151056 0.000959423 0.0120097 0.000294162 0.000167869 
2.22849e-05 -8.73469e-05 1.87953e-05 0.000471596 0.00585589 0.0181215 0.000475115 0.00130872 0.00602942 
0.00759884 0.00392173 0.00210091 0.00136604 0.0012118 0.00112911 0.00107134 0.000993179 0.000910974 
0.000831857 0.00076086 0.000697828 0.000646042 0.000606485 0.000579356 0.000571859 0.000461125 0.000763184 
0.0035925 0.00723977 0.0057781 0.00292554 0.00172908 0.00128534 0.00116379 0.00110385 0.00103333 
0.000951679 0.000870907 0.000796112 0.000728397 0.000670603 0.00062438 0.000591826 0.00057432 0.000574249 
0.000576614 0.000503643 0.00050936 0.000518747 0.000531062 0.000544211 0.000556506 0.000568457 0.000575849 
0.000578149 0.000501966 0.000506113 0.000514338 0.000524611 0.000537455 0.000550282 0.000562634 0.000571767 
0.000577147 0.000577101 7.84914e-05 2.77713e-05 5.84897e-05 0.000110662 0.000169967 0.000230464 0.000288009 
0.00033965 0.000385946 0.000426192 0.000459967 0.000486241 0.00050416 0.000510414 0.000185186 4.69696e-05 
4.07444e-05 8.43478e-05 0.000138901 0.000203203 0.000259286 0.000314781 0.000362792 0.000406801 0.000443545 
0.000473569 0.000495803 0.000508314 0.000507152 0.00026311 0.000108136 -6.19618e-05 -7.33992e-05 5.16177e-05 
8.87108e-05 0.00864419 0.000309492 0.000184072 2.69052e-05 -8.6305e-05 -1.53177e-05 0.000241913 0.00303644 
0.0214621 0.000342738 0.000501407 0.000965226 0.0241727 0.0125067 0.00458949 0.00200203 0.023471 
0.0291047 0.0171303 0.000717931 0.00079203 0.00133038 0.00114037 0.021446 0.00975881 0.0118358 
0.015819 0.0155448 0.00387686 0.00583016 0.00767057 0.0100289 0.00582465 0.00187073 0.00269349 
0.00316593 0.00361547 0.00250047 0.00153181 0.00164718 0.000593227 0.000545435 0.00101967 0.000695569 
0.000405652 0.000512363 0.000594597 0.00437641 0.000228802 0.000961863 0.000433155 0.000678747 0.00024615 
0.000509457 0.000549722 0.000881644 0.00055027 0.000558474 0.00197313 0.00100187 0.000462995 0.000655677 
0.000591388 0.000513884 0.000758908 0.00116856 0.000787413 0.000341725 0.000561849 0.000497644 0.00530716 
0.000726389 0.000530326 0.000567912 0.000615246 0.00770216 0.000423423 0.000263567 0.000121315 7.06428e-05 
0.000478797 0.000213074 0.000632073 0.000441482 0.0010257 0.00593626 0.000865631 0.000489626 0.000621149 
0.00053824 0.000412725 0.000701978 0.000307087 0.000980137 0.000760463 0.00129512 0.00110428 0.00124548 
0.00053132 0.000607307 0.000494548 0.000161256 0.000342277 0.00084161 0.00054062 0.00183968 0.000872736 
0.00623077 0.000762925 0.000366846 0.000598788 0.000770729 0.000500148 0.000301139 0.000569301 0.000522296 
0.000572081 0.00124403 0.000978926 0.000366063 0.000535397 0.000513506 0.00058143 0.000571089 0.000553596 
5.13463e-05 0.000448397 0.000778754 0.000710891 0.000279842 0.000326896 0.000463499 0.000402503 0.000491328 
0.000609108 0.000661074 0.000577059 0.000584992 0.000518201 0.00457279 0.00508518 0.000496108 0.000622026 
0.000439267 0.000577731 0.000678194 0.00140144 0.000659917 0.000445864 0.000502932 0.000600979 0.000501596 
0.000589983 0.0016317 0.00338672 0.000856261 0.00205913 0.000861979 0.00101064 0.000108351 0.00053597 
0.00062949 0.000516683 0.0033555 0.00715717 0.00105854 0.000730489 0.000492305 0.000606957 0.0131773 
0.000204002 0.000218404 9.75147e-05 8.82875e-05 0.000159682 0.000962032 0.000702159 0.000317602 0.000128166 
0.00449446 0.000631509 0.000530011 0.00056173 0.000642273 0.000342678 0.000466895 0.00964023 0.00056331 
0.00322849 0.000123969 0.000457723 0.0067888 0.000394564 0.000262347 0.000836835 0.000325798 0.00086897 
0.00038499 0.00113876 0.000516967 0.00109263 0.000164324 0.000669357 3.52134e-05 0.00108939 0.00103796 
0.000576135 0.000516957 0.00057546 0.000623383 0.00054793 0.000504903 0.000826145 0.000831773 0.000797935 
0.000643623 0.000941722 0.00047329 0.000631213 0.000453635 0.000514125 0.00050184 0.00068747 0.000908325 
0.00651019 0.000246674 0.00035186 0.000232392 0.00252078 0.00383725 0.000433029 0.000407079 5.70001e-05 
0.00105968 0.00085322 0.000722465 0.000591938 0.000539029 0.00070901 0.000617506 0.000509917 0.000588087 
0.000920933 0.000525058 0.000510326 0.000577524 0.000792888 0.0177336 0.0131869 0.0128306 0.00186756 
0.00130783 0.00140164 0.000576948 0.000577777 0.000575441 0.000506271 0.000511148 0.000507199 7.5949e-05 
0.000191849 0.000168631 0.0107694 0.00803549 0.0117696 0.00611844 0.00436775 0.00794867 0.00322499 
0.00235847 0.00449845 0.00263755 2.38559e-05 4.16967e-05 6.27294e-05 5.08802e-05 3.06661e-05 3.86354e-05 
3.0018e-05 5.33538e-05 9.90208e-05 6.94414e-05 8.01661e-05 0.000159697 0.000128383 0.000131962 0.000214153 
0.000182955 0.000183492 0.000281338 0.000251794 0.000244682 0.000326927 0.00030054 0.000299609 0.000374893 
0.000351327 0.000343064 0.000416001 0.000395672 0.000387309 0.000449171 0.00043223 0.000423829 0.000476611 
0.000463047 0.000453501 0.000503651 0.000494705 0.000496396 0.000487565 0.000478681 0.000511182 0.000507123 
0.000506489 0.000511149 0.000170519 0.000110205 9.72036e-05 9.78792e-05 5.24171e-05 0.00011386 9.16059e-05 
9.73728e-05 0.000207965 0.000130826 0.000270851 0.000213352 0.000339304 0.00036324 0.000422057 0.000811409 
0.000585122 0.00196798 0.00745684 0.00171545 0.00833304 0.000513839 0.000510872 0.000515198 0.000510097 
0.00051202 0.000521192 0.000516587 0.000519452 0.000530698 0.000524553 0.000525767 0.000542619 0.000535881 
0.000535242 0.000554815 0.000548724 0.000547212 0.00056455 0.000558764 0.000557729 0.000573254 0.000569061 
0.000567185 0.000576485 0.000574789 0.000573852 0.000578352 0.000578333 0.000579517 0.0014687 0.00220133 
0.00232646 0.00370292 0.00490326 0.00400408 0.00584342 0.00657451 0.00560618 0.00529881 0.00415334 
0.0054453 0.00565705 0.00422812 0.00299427 0.00211653 0.00280464 0.00182828 0.00143435 0.0016712 
0.00124627 0.00114724 0.00126083 0.00126523 0.00110407 0.00111221 0.00109527 0.0010643 0.00108738 
0.00101532 0.000977987 0.000971291 0.00102286 0.00101904 0.000956707 0.000917731 0.000942603 0.000870451 
0.000833158 0.000846751 0.000886827 0.000890578 0.000797617 0.000764542 0.000795846 0.000742152 0.00071159 
0.000743692 0.000689144 0.000664259 0.000699437 0.000645894 0.000626386 0.000658854 0.00060553 0.000592973 
0.000611076 0.000616593 0.000630631 0.00058543 0.000580188 0.000594292 0.000581007 0.000694524 0.000610754 
0.000677109 0.000648249 0.000730169 0.000654851 0.000602498 0.000554257 0.000563192 0.000535096 0.00051961 
0.000483028 0.00058994 0.000556575 0.000576247 0.000562248 0.000591019 0.00052489 0.000497595 0.000520396 
0.000504722 0.000529943 0.000556125 0.000539789 0.00052525 0.000535909 0.000941808 0.000922204 0.000999912 
0.00104 0.00105734 0.000851269 0.000930756 0.00102208 0.000937234 0.00118603 0.00108272 0.00112321 
0.00116277 0.00107248 0.000679953 0.000628128 0.000648176 0.000616824 0.000662859 0.000736732 0.000775493 
0.00073104 0.000716647 0.000705479 0.000743138 0.000671455 0.000424674 0.000394647 0.000376234 0.000332622 
0.000365802 0.000476035 0.000452613 0.000433063 0.000477239 0.00035664 0.000393478 0.000421374 0.000525053 
0.00051411 0.000521776 0.000518981 0.00052761 0.000504059 0.000502773 0.000491375 0.000501914 0.000508517 
0.000511402 0.00051523 0.000521576 0.000498767 0.000593261 0.000578739 0.000581846 0.00057282 0.000585036 
0.000595585 0.000600655 0.000590092 0.00058037 0.000606268 0.000607366 0.000614758 0.0029683 0.00150908 
0.00260462 0.00227025 0.00382355 0.00460344 0.00298015 0.00506613 0.00569992 0.00588379 0.00591113 
0.00684153 0.000259041 0.000195467 0.000293834 0.000284264 0.000355193 0.00017952 0.000172107 0.000222831 
0.000280314 0.00014233 0.00101043 0.0010197 0.000971617 0.000922948 0.000916056 0.000907322 0.000951674 
0.000916172 0.000908665 0.000863634 0.000999464 0.00104708 0.000861412 0.000990097 0.00046802 0.00045276 
0.00044873 0.000432705 0.000447685 0.000397885 0.000413391 0.00041776 0.000443143 0.000427978 0.000414474 
0.000463672 0.000662148 0.000652511 0.000670137 0.000683421 0.000693483 0.000701114 0.000674921 0.000703891 
0.000720058 0.00065621 0.000210887 0.000253297 0.00020028 0.000204995 0.000160839 0.000301854 0.000294828 
0.000334697 0.000286227 0.000278909 0.000239185 0.000197511 0.000330512 0.000430027 0.000413344 0.000559677 
0.000457134 0.000472643 0.000547951 0.000436183 0.000360868 0.000630302 0.000597337 0.000656999 0.000552321 
0.000544632 0.000542657 0.000538991 0.000556289 0.000566117 0.000558982 0.000558523 0.000549188 0.000558118 
0.000541453 0.000803555 0.000859144 0.000825783 0.000853734 0.000797159 0.000960524 0.000910721 0.000930694 
0.000895074 0.000942787 0.000873249 0.000884203 0.000549405 0.00052717 0.000572165 0.000590558 0.00050395 
0.000523934 0.000561993 0.00058152 0.000572004 0.000481809 0.000611623 0.000527191 0.000579937 0.000609985 
0.000502487 0.000530618 0.000473533 0.000636272 0.000581523 0.000554792 0.00273537 0.00161338 0.00130505 
0.00150163 0.00160796 0.00157224 0.0019562 0.00288551 0.0039543 0.00330539 0.00129694 0.00120596 
0.00102042 0.00119987 0.0014174 0.00116116 0.000929553 0.000872022 0.000780541 0.000660324 0.000912746 
0.000912942 0.000491338 0.000478172 0.000476575 0.000464726 0.000425959 0.000450664 0.000438729 0.00044805 
0.000422919 0.000476675 0.000477798 0.000462613 0.000667799 0.000691503 0.000677539 0.000681613 0.000658331 
0.000639638 0.000639081 0.000626833 0.000643121 0.0006498 0.000636821 0.000595735 0.000605161 0.000613404 
0.000599247 0.000588447 0.00057819 0.000581793 0.000583253 0.000586534 0.000584543 0.000590036 0.000520688 
0.000516159 0.000518238 0.000515559 0.000513577 0.000511534 0.000511641 0.000509554 0.000503916 0.000508501 
0.000803901 0.000871306 0.000816053 0.000692617 0.000759902 0.000814512 0.000606878 0.000667512 0.000725152 
0.000772436 0.00130891 0.00113685 0.00111725 0.00109396 0.00121744 0.00153552 0.00111925 0.00107922 
0.000822635 0.000783783 0.000824993 0.000824348 0.000864216 0.000757654 0.000747419 0.000777072 0.000809311 
0.000749086 0.000721706 0.000329523 0.000353184 0.000379568 0.000369381 0.00033266 0.000300856 0.000310009 
0.000362793 0.000371987 0.000393342 0.000576088 0.000566453 0.000554277 0.00056877 0.000549542 0.000537476 
0.000550851 0.000584648 0.000543943 0.000507851 0.000525705 0.000516515 0.00050495 0.000493569 0.000480186 
0.000486571 0.000493434 0.00697154 0.00624112 0.0060203 0.00422665 0.0060092 0.00587001 0.00519651 
0.00382812 0.00355652 0.000692025 0.000750017 0.000776676 0.000668588 0.00071573 0.000758147 0.000748775 
0.000810133 0.000532971 0.000535422 0.000530104 0.000524533 0.000526227 0.000527955 0.000530225 0.000576408 
0.000569893 0.000564875 0.000560824 0.000565542 0.000571802 0.000570183 0.000596292 0.000612349 0.000628621 
0.000625817 0.000601552 0.000637602 0.000619365 0.00570694 0.0023753 0.00447076 0.00279265 0.00614744 
0.00750815 0.00742574 0.00875744 0.0101138 0.000436733 0.000381901 0.000373542 0.000462365 0.000383347 
0.00043323 0.000470125 0.000508629 0.000295918 0.000271199 0.000234398 0.000296367 0.000262058 0.000232277 
0.000123165 8.96076e-05 8.55674e-05 8.83443e-05 0.000168871 0.000176359 0.00022571 0.000131439 0.000143411 
0.000108303 9.89362e-05 6.07192e-05 5.23687e-05 7.41117e-05 9.18997e-05 0.000116981 0.000131955 0.000525829 
0.000425631 0.000412858 0.000554667 0.000461006 0.000395159 0.000176726 0.000254382 0.000282236 0.000183332 
0.000291089 0.000157417 0.000601553 0.000618822 0.000637824 0.000650744 0.000612087 0.000632847 0.000670597 
0.000688993 0.000413966 0.000422625 0.000447047 0.000449114 0.000471858 0.000477138 0.000983403 0.00100231 
0.00104359 0.00107455 0.00103192 0.00107048 0.00447223 0.00508475 0.00629854 0.00634114 0.00564155 
0.000852093 0.000807165 0.00089328 0.000936001 0.000887402 0.000914357 0.000497471 0.000626413 0.00061862 
0.000381272 0.000408922 0.00058194 0.000672271 0.000509006 0.000701155 0.000402692 0.00039011 0.000410169 
0.000712682 0.000730467 0.000735919 0.000705964 0.000322959 0.000377144 0.000317363 0.000262351 0.000269664 
0.000777376 0.000805968 0.000822224 0.00108267 0.00053946 0.000533859 0.000534874 0.000527571 0.000474288 
0.000483584 0.000762868 0.000820904 0.000729024 0.000849174 0.00083334 0.000508592 0.000574451 0.000652362 
0.0035778 0.00775367 0.00591085 0.00276692 0.00126786 0.00175107 0.00114968 0.00110213 0.00103154 
0.000951497 0.000872467 0.000796489 0.000727842 0.000670919 0.000626391 0.000593166 0.000576022 0.000553062 
0.000470105 0.000584393 0.000488412 0.000575554 0.000575745 0.000573012 0.000572831 0.00115323 0.000643031 
0.000586772 0.000570051 0.00448863 0.00257667 0.000899037 0.00149928 0.00224856 0.00735641 0.00628872 
0.00497868 0.00570676 0.00678974 0.00512819 0.00635239 0.00776667 0.00714152 0.00670143 0.00248639 
0.00359486 0.00491646 0.00417409 0.00333295 0.00161258 0.00202337 0.00239837 0.00219575 0.00192063 
0.00124424 0.00136104 0.00131302 0.00142268 0.00156217 0.00113968 0.00118863 0.00124069 0.00122121 
0.0011823 0.00108578 0.00112048 0.00113845 0.00113307 0.00111996 0.00101257 0.00105284 0.0010865 
0.00107182 0.00105339 0.000932174 0.000971958 0.00101254 0.000992979 0.000971888 0.000851191 0.000890935 
0.000931624 0.000910975 0.000891288 0.000778492 0.00081545 0.00085104 0.000831904 0.000815128 0.000713587 
0.000744688 0.00077769 0.000761103 0.000744043 0.000658982 0.000684566 0.000713127 0.00069828 0.000683639 
0.000617084 0.000634153 0.000658107 0.000645482 0.000633608 0.000586444 0.000600823 0.000616304 0.000607343 
0.000599808 0.000574065 0.000576203 0.000585322 0.000579528 0.000575429 0.000572077 0.000573742 0.000595017 
0.000545784 0.00100497 0.000697007 0.000407981 0.000512152 0.000594633 0.00408016 0.000235554 0.000958472 
0.000433535 0.000679021 0.000249276 0.000510325 0.000549767 0.000881281 0.000549452 0.000557523 0.00193802 
0.000966848 0.000462778 0.000655464 0.000591168 0.000513187 0.00075417 0.00106119 0.000786378 0.000342649 
0.000562419 0.000497858 0.0050103 0.000727255 0.000529672 0.000568234 0.000615006 0.00731908 0.000423794 
0.00026634 0.000128389 8.17663e-05 0.000480534 0.000214204 0.000631856 0.000441984 0.00102333 0.00620412 
0.000867111 0.000489698 0.00061997 0.000523541 0.000413931 0.000700371 0.000309411 0.000971662 0.000759261 
0.00115833 0.00109462 0.000931987 0.000531038 0.000607544 0.000495293 0.000164826 0.00034521 0.00083348 
0.000540415 0.00175955 0.000873149 0.00642407 0.000762604 0.000367723 0.000599404 0.000769438 0.000501849 
0.000298091 0.000568684 0.000521781 0.000572067 0.00109605 0.000978364 0.000368265 0.000535632 0.000512678 
0.000581367 0.000571955 0.000554125 6.17057e-05 0.00044926 0.000778156 0.000710266 0.000281539 0.000328809 
0.000463895 0.000403462 0.000491057 0.000607941 0.000661074 0.000577089 0.000584941 0.000517986 0.00511091 
0.00543294 0.000497013 0.000620894 0.000439741 0.00057546 0.000677072 0.00122459 0.000660206 0.000445594 
0.000502116 0.000600701 0.000502772 0.000589918 0.00138985 0.00321585 0.000854132 0.00191827 0.000861119 
0.000988258 0.000110393 0.000535884 0.000628526 0.000517904 0.000985134 0.0076038 0.001042 0.000729458 
0.00049272 0.000606452 0.0123532 0.000208493 0.000223903 0.000107167 0.000101713 0.000165697 0.000963791 
0.000701995 0.00032029 0.000135226 0.0037721 0.000632992 0.000529397 0.000562202 0.000640727 0.000347264 
0.000466944 0.0103411 0.000563233 0.00319333 0.000115513 0.000459527 0.00709425 0.000395968 0.000265994 
0.000836879 0.000328567 0.000864603 0.000387062 0.00105187 0.000518317 0.00108828 0.000170859 0.000669192 
4.72099e-05 0.00107828 0.0010323 0.000576159 0.000515552 0.00057616 0.000604129 0.000547323 0.00050446 
0.000825003 0.000830712 0.000776576 0.000643171 0.000941316 0.000474269 0.000630079 0.000454142 0.000514528 
0.000501778 0.0006831 0.000908175 0.00723712 0.000229267 0.000350575 0.000238037 0.00212599 0.00344198 
0.000433806 0.000408257 6.551e-05 0.00105628 0.000852674 0.000721501 0.000592084 0.000539493 0.00070855 
0.000614424 0.000508765 0.000586314 0.000921236 0.000524755 0.000509534 0.000577669 0.000790981 0.00114581 
0.00164853 0.00122692 0.0223236 0.0101179 0.0162552 0.000577898 0.00057679 0.000575057 0.000505489 
0.000506408 0.000510176 0.000180178 0.00020771 9.19628e-05 0.000117666 0.000174577 0.000104494 3.81517e-05 
9.95974e-05 0.00010721 8.45801e-05 7.59496e-05 0.000120549 0.000210646 0.000270682 0.000306633 0.0002144 
0.000353388 0.000525863 0.000323168 0.000536331 0.00389662 0.000411428 0.000843461 0.00605353 0.000509804 
0.000513059 0.000509453 0.00051416 0.00051127 0.000515948 0.00052073 0.000518727 0.000524077 0.000530336 
0.000525416 0.000535694 0.000542402 0.00053495 0.000548607 0.000554946 0.000547064 0.000559174 0.000565194 
0.000558029 0.000569474 0.000573633 0.000567254 0.000575375 0.000576936 0.00057425 0.000578623 0.000578672 
0.000579504 0.0091129 0.0137259 0.011606 0.00450907 0.006619 0.0082947 0.00214701 0.00304898 
0.00481288 0.00254557 0.00166482 0.00124104 0.00210106 0.00547511 0.00326285 0.00364495 0.00746108 
0.00676537 0.00631466 0.0037215 0.00551672 0.00645573 0.00631615 0.00416353 0.00192245 0.00271078 
0.00251209 0.00130831 0.00163725 0.00150995 0.00113877 0.0012042 0.00121468 0.00118024 0.00108864 
0.00110785 0.00106388 0.00109278 0.00108087 0.000978295 0.00101624 0.00102333 0.00097201 0.00101794 
0.000918069 0.000957209 0.000942975 0.000832025 0.000870139 0.000886306 0.000846578 0.000890375 0.000763367 
0.000797315 0.000794885 0.000710687 0.000741068 0.000742715 0.000662997 0.000687658 0.000698404 0.000624595 
0.00064436 0.000657549 0.000591835 0.000604246 0.000614965 0.000609852 0.000629356 0.000579192 0.000583559 
0.000593025 0.00058049 5.82384e-05 3.81326e-05 7.6264e-05 4.17158e-05 6.05194e-05 4.25927e-05 5.24444e-05 
6.34864e-05 7.85052e-05 0.000106433 8.85066e-05 0.000133757 0.000163963 0.00013838 0.000187883 0.000218301 
0.000188101 0.000254588 0.000283549 0.00024798 0.000302788 0.000329094 0.000302013 0.000352893 0.000376066 
0.000344941 0.000396855 0.000416764 0.000388337 0.00043269 0.000449576 0.000424472 0.000463096 0.000476512 
0.000453851 0.000494243 0.000502979 0.000487349 0.000495975 0.000478675 0.00050636 0.000509992 0.000505567 
0.000510236 0.000676408 0.000610926 0.000693873 0.000729379 0.000649806 0.000602757 0.000654016 0.000562871 
0.000555383 0.00052027 0.000535366 0.000483701 0.000576203 0.000557773 0.000590136 0.000591094 0.000561939 
0.000521151 0.000497855 0.000525933 0.000529105 0.000505378 0.000539409 0.000556744 0.000525764 0.000536555 
0.000988437 0.000917129 0.00093305 0.00104597 0.00102697 0.000919671 0.000844698 0.000913462 0.000996217 
0.00108104 0.00105567 0.00106133 0.00111079 0.00103022 0.000648114 0.000628402 0.000680371 0.000663238 
0.000617242 0.000731706 0.000775112 0.00073772 0.000715561 0.000742743 0.000704471 0.000671374 0.000378335 
0.000396808 0.000425656 0.000367759 0.000334723 0.000453538 0.000477119 0.000478723 0.000434979 0.000395313 
0.000358854 0.000422918 0.000521239 0.000514249 0.000524829 0.000527688 0.000518745 0.00050256 0.000504159 
0.00050225 0.000491377 0.000514771 0.000511034 0.000508036 0.000521573 0.000498367 0.000581844 0.000578301 
0.000592962 0.000584988 0.00057272 0.000590095 0.000600261 0.000595491 0.00058031 0.000607288 0.000605878 
0.000614426 0.00233705 0.00132102 0.00265765 0.00360123 0.00206824 0.00249732 0.00401483 0.00568345 
0.00518697 0.00590727 0.00569588 0.00737118 0.000297876 0.000201542 0.000262887 0.000357775 0.000287832 
0.000228237 0.000178634 0.000186621 0.00028551 0.000149082 0.000965199 0.00100647 0.00100433 0.000911697 
0.00091687 0.000915279 0.00095024 0.000907126 0.000863567 0.000906676 0.00103906 0.000996304 0.000859238 
0.000987945 0.000449287 0.000453555 0.000468661 0.000448562 0.000433357 0.000418901 0.000414441 0.000399098 
0.000429066 0.000444137 0.000415603 0.000464565 0.000669545 0.000652183 0.000661633 0.000692894 0.000683096 
0.000703501 0.000674642 0.000699817 0.000719611 0.000656077 0.000205024 0.00025651 0.000214527 0.000165648 
0.000209064 0.000297925 0.000305659 0.000289393 0.000337191 0.000243474 0.000282909 0.000204121 0.000410821 
0.000431758 0.000324183 0.000451486 0.000560246 0.000435687 0.000545251 0.000472199 0.000361413 0.000594916 
0.00062836 0.000652614 0.000544725 0.000552803 0.000538685 0.000542758 0.000558844 0.000566163 0.000556459 
0.000548923 0.000557785 0.000558563 0.000541351 0.000825525 0.000858749 0.000804148 0.00079607 0.000853451 
0.000930316 0.000910631 0.000960325 0.000942711 0.000894827 0.00087313 0.000883145 0.000572274 0.000528243 
0.000551378 0.000591214 0.000504475 0.000562248 0.000524417 0.000571737 0.000581817 0.000482515 0.000611731 
0.000580627 0.000527885 0.000609954 0.000503705 0.000475231 0.000530606 0.000581752 0.000637136 0.000555459 
0.00151433 0.00256021 0.00145241 0.00116217 0.00189854 0.00142722 0.00149228 0.00263851 0.00326252 
0.00400015 0.00110866 0.0011748 0.00111528 0.000981656 0.00106026 0.00116673 0.000811279 0.000874133 
0.000739851 0.000866024 0.000644955 0.00088867 0.000476579 0.000478327 0.000491636 0.000464647 0.000439277 
0.000450981 0.000426333 0.000424053 0.000448669 0.00046283 0.000478285 0.000476821 0.000676664 0.000690117 
0.000667201 0.000658371 0.000680456 0.000638087 0.000639183 0.000642171 0.000626142 0.00064847 0.000635554 
0.000604343 0.000595842 0.000599237 0.000612571 0.00058155 0.00057851 0.000588371 0.000583256 0.000585955 
0.000589077 0.000584088 0.000517554 0.000515345 0.000520217 0.000514599 0.000512575 0.000510622 0.000510863 
0.000509134 0.000507808 0.000503517 0.000866027 0.000802992 0.000811964 0.000757008 0.00068932 0.000812733 
0.000665369 0.000605666 0.000723585 0.000766674 0.00111173 0.00113097 0.00107858 0.00109241 0.00136322 
0.001084 0.0011019 0.00105866 0.000824935 0.000783519 0.000822705 0.000864679 0.000823386 0.000776602 
0.000746679 0.000757194 0.000808652 0.000749252 0.000721468 0.000353921 0.000331453 0.000370288 0.000380976 
0.00031249 0.000303438 0.000335323 0.000364711 0.000373414 0.000395081 0.000566277 0.000576419 0.000554251 
0.000549622 0.00056881 0.000551034 0.000537595 0.000584509 0.000544035 0.000516138 0.000526039 0.000508623 
0.000505433 0.000480497 0.000493956 0.000486515 0.000493979 0.00576525 0.00640073 0.0070848 0.00417429 
0.00515859 0.00638069 0.00634087 0.0036143 0.00336999 0.000749256 0.000692396 0.000777205 0.00066752 
0.000716031 0.000746974 0.00075813 0.000809159 0.00053509 0.000532529 0.000529632 0.000525626 0.00052394 
0.00052755 0.000529979 0.000570425 0.000576631 0.000565228 0.000561186 0.000565866 0.000572111 0.000570171 
0.000612578 0.000595924 0.00062569 0.000628535 0.00060147 0.000618638 0.00063757 0.00314376 0.00113993 
0.00371503 0.00490214 0.00214746 0.0076334 0.00755036 0.00907856 0.00975601 0.000383586 0.00043831 
0.000375197 0.000462986 0.000434964 0.000385873 0.000472195 0.000510106 0.00027356 0.000297453 0.00023846 
0.000265585 0.000299136 0.000236261 9.45488e-05 9.82232e-05 0.000130549 9.8081e-05 0.000175479 0.000230926 
0.000181342 0.000115303 0.000151356 0.000138252 7.14585e-05 0.000107381 6.3594e-05 0.000101872 8.67024e-05 
0.000140075 0.00012679 0.000427566 0.000525899 0.000414996 0.000553935 0.000462114 0.000397942 0.000249137 
0.000175886 0.000283792 0.00029337 0.000189617 0.00016181 0.000618828 0.00060207 0.000650827 0.000637539 
0.000611958 0.000670722 0.000632852 0.000689332 0.000423182 0.000415211 0.000448075 0.000472689 0.000449552 
0.000477745 0.0010011 0.000982348 0.00104146 0.00106352 0.00102845 0.00106572 0.00571848 0.00465069 
0.00667813 0.00613076 0.00655668 0.000806799 0.000852833 0.000894085 0.000914925 0.000887582 0.000936063 
0.000497038 0.000618043 0.000625637 0.000403564 0.000371468 0.000573419 0.000506415 0.000654546 0.000693188 
0.000391387 0.000404188 0.000411173 0.000729899 0.000711662 0.000705372 0.000735376 0.000377403 0.000326886 
0.000320357 0.000266704 0.000273526 0.000775707 0.000806359 0.000820699 0.00106984 0.000533839 0.000538963 
0.000528108 0.000534853 0.000474506 0.000484771 0.000756639 0.000807467 0.000724363 0.000848445 0.000832937 
-6.3183e-05 -1.13278e-05 1.63336e-05 0.000185933 0.000312966 7.23281e-05 0.00157709 0.0213213 0.0276738 
0.0229609 0.016584 0.0149685 0.000323591 0.000330954 0.000287301 0.000285484 0.000234993 0.000137943 
0.000269318 -1.5798e-05 5.6207e-05 8.9367e-05 -8.27899e-05 -6.31816e-05 -2.86524e-05 -3.79571e-05 2.21938e-05 
-5.63691e-05 0.000162037 0.000125836 0.000123941 0.000803634 0.0048582 0.000841459 0.0105524 0.000126572 
0.000224211 4.71082e-05 -7.49706e-07 -5.64412e-05 -8.66316e-05 6.99407e-05 -4.29285e-05 0.000462893 0.000203075 
0.0064472 0.0013628 0.000501709 0.000506813 0.000514514 0.000524406 0.000550265 0.000562992 0.00057146 
0.000577289 0.000536598 0.000576362 0.000576757 0.000576499 0.000578313 0.000501321 0.000501701 0.000502799 
0.000578251 0.000502569 0.000507887 0.000505176 0.000503385 0.000505638 0.000517021 0.000511592 0.000507903 
0.000509308 0.000511925 0.000527777 0.000521284 0.000516837 0.000518425 0.000521383 0.000540595 0.000533627 
0.000527848 0.000531049 0.00053369 0.000553992 0.000546813 0.000546736 0.000544216 0.000540696 0.00056598 
0.000559679 0.000553783 0.000556558 0.000559588 0.000573886 0.0005699 0.000565699 0.000568504 0.000569293 
0.000577011 0.000576442 0.000573456 0.000575937 0.000576337 0.000578797 0.00057709 0.00016726 3.37833e-05 
3.16291e-05 7.7898e-05 0.000134029 0.000202315 0.000256999 0.000312393 0.000362328 0.000406406 0.000443466 
0.000496351 0.000509187 0.000508571 0.000473504 0.000505713 0.000505376 0.000510027 0.000244458 0.000236595 
0.000115455 0.000509286 0.000126201 4.40806e-05 3.22164e-05 7.35353e-05 5.28192e-05 2.21499e-05 4.46979e-05 
2.65448e-05 3.66372e-05 2.82422e-05 6.17726e-05 9.44014e-05 5.52323e-05 5.08429e-05 6.73205e-05 0.000118044 
0.00015036 0.000109093 9.82467e-05 0.000121822 0.000185332 0.000215459 0.000169566 0.000151843 0.000187935 
0.000241523 0.000273537 0.000229687 0.0002176 0.000242859 0.00029856 0.000327137 0.000287109 0.000274628 
0.000300049 0.000349913 0.00037389 0.000339257 0.000328177 0.000350611 0.000396207 0.000415906 0.000385743 
0.000374161 0.000396887 0.000434926 0.000451629 0.000425928 0.000416361 0.000435158 0.000467407 0.000479884 
0.000459965 0.000451763 0.000467398 0.000491281 0.000500804 0.000485976 0.000491227 0.000479784 0.00050692 
0.00051059 0.000504424 0.000500402 0.000506736 0.000510663 0.000509982 0.00216777 0.000592975 0.000376252 
0.000620914 0.00057554 0.000446178 0.000370817 0.000457536 0.000646039 0.00329107 0.00436668 0.000329582 
0.000657426 0.000614668 0.000449592 0.000616793 0.000544457 0.000575985 0.000562117 0.000568292 0.00056843 
0.000583288 0.00058963 0.000583348 0.000433001 0.000433373 0.00043979 0.000440015 0.000439307 0.00150722 
0.00140959 0.00160988 0.00191666 0.00180694 0.000433481 0.000439903 0.000628546 0.000575613 0.000637587 
0.000586162 0.000584934 0.000358332 0.00038649 0.000381217 0.00038068 0.00035372 0.000685085 0.000637232 
3.73664e-05 4.51544e-05 4.79237e-05 2.93082e-05 4.26384e-05 0.00032827 0.000351819 0.00125585 0.00168282 
3.38309e-05 4.24297e-05 3.46789e-05 0.000971941 0.00103211 0.0010392 0.00103176 0.00096286 0.00127515 
0.00134655 0.00130773 0.00117747 0.00117599 3.97177e-05 5.82118e-05 0.000625209 0.000635166 0.000637289 
0.000643885 0.000631695 0.000624531 0.000634391 0.000631104 0.000643093 0.000565002 0.000566658 0.000566758 
0.000562036 0.000562125 0.000562405 0.000556607 0.000556491 0.000558161 0.000551714 0.000545184 0.00054722 
0.00054044 0.000545095 0.00523769 0.00776604 0.00796819 0.00987886 0.00710652 0.000538828 0.000542519 
0.000538652 0.000558839 0.000533091 0.000532821 0.000534808 0.000529738 0.000551733 0.00055401 0.000328492 
0.000279559 0.000350287 0.000611826 0.000590995 0.000572252 0.000592157 0.00032832 0.0003411 0.000315717 
0.000525484 0.000522469 0.000518397 0.000522083 0.000527399 0.000524133 0.000527064 0.000905533 0.000886822 
0.000861731 0.000905195 0.000868528 0.000868892 0.000581528 6.80501e-05 7.27922e-05 0.0091585 0.0113556 
0.0109075 0.00135683 0.00146934 0.00156547 0.00031904 0.000339835 0.000314214 0.000571382 0.000567514 
0.000149238 0.000180071 0.000201511 0.000168338 0.000430354 0.000584836 0.000573177 0.000576186 0.0019856 
0.00189665 0.00154932 0.00228618 0.00101585 0.000996944 0.000996582 0.000620959 0.000530737 0.000580376 
0.000577459 0.000579606 0.000579958 0.00058149 0.00060135 0.00061225 0.00117733 0.00109963 0.000806719 
0.000836702 0.000803745 0.00085888 0.000544158 0.000550581 0.000539294 0.000577735 0.000576926 0.00103878 
0.00097874 0.000172532 0.00017699 0.000221368 0.000132637 0.000128534 0.000164637 0.000203704 0.000208286 
0.00582181 0.00440748 0.00604513 0.00534766 0.00697441 0.00251328 0.00288861 0.00389973 0.00229621 
0.000846294 0.000852001 0.000806433 0.000852794 0.000821015 0.000496323 0.000499436 0.000492339 0.000499125 
0.000502382 0.00542492 0.00627683 0.00186847 0.00153634 0.00133624 0.00068803 0.00070129 0.000674753 
0.000935897 0.000887714 0.000908304 0.000528201 0.000534684 0.000584291 0.000581345 6.40374e-05 9.69173e-05 
0.000121293 7.12106e-05 0.000578116 0.000576588 0.000578346 9.46237e-05 0.000229326 4.3847e-05 6.05887e-05 
0.0001132 0.000135403 0.000675549 0.000677369 0.000701905 0.000518758 0.000521842 0.000510753 0.0005082 
0.000509713 0.000507979 0.000511236 0.000510446 0.000510981 0.000510032 0.000590102 0.000580701 0.00023253 
0.000216741 0.00020291 0.000273413 0.0003028 0.00026548 0.000296814 0.000576961 0.000873124 0.000852465 
0.000473844 0.000453681 0.000449177 0.000468113 0.000863574 0.000906855 0.00370356 0.000895308 0.000510482 
0.000512902 0.000510546 0.000501627 0.000474007 0.000503455 0.000531176 0.000125894 0.000481126 0.000470088 
0.000478659 0.000466839 0.000470023 0.000725227 0.000698444 0.00026811 0.000230296 0.000206245 0.000247663 
0.000581718 0.000554124 0.000547669 0.000558448 0.00613445 0.00650823 0.00601839 0.000539372 0.000209906 
0.000852016 0.000831563 0.00171616 0.000656028 0.000637721 0.000643525 0.000625805 0.000505136 0.000514497 
0.000493873 0.000486541 0.000859196 0.000492409 0.000491262 0.000476045 0.000474357 0.000475832 0.000236027 
0.00607054 0.0055356 0.00681079 0.000587581 0.000648655 0.000701674 0.000653764 0.000116169 0.000119707 
0.000103246 0.000136584 0.000147353 0.000236818 0.000396573 0.000385688 0.000407027 9.16032e-05 0.000725128 
0.000721612 0.000942856 0.00075746 0.00075661 0.000740937 0.000113529 0.000575584 0.000576274 0.000558112 
0.000563255 0.000556498 0.000572051 0.00648871 0.000509326 0.000510316 0.000268606 0.000281065 0.000690606 
0.000666945 0.000779771 0.000743363 7.74655e-05 8.26179e-05 0.000111247 9.82452e-05 0.000200026 0.000282305 
0.000295551 0.000177541 0.000362954 0.000293226 0.000362989 0.000566561 0.00735505 0.0088788 0.000212224 
0.00025049 0.000571446 0.000581758 0.000594652 0.00052546 0.00609554 0.00694941 0.00634229 0.00532495 
0.000796348 0.000777283 0.000825652 0.000816335 0.00078009 0.000795259 0.000815585 0.000438076 0.00747393 
0.00702844 0.00601045 0.000491144 0.000474219 0.000385101 0.000407741 0.000406384 0.000569886 0.000566269 
0.000296185 0.000527539 0.000519025 0.000524879 0.00060943 0.000608893 0.000597922 0.000600352 0.000597695 
0.000881377 0.000825199 0.000568957 0.000492406 0.000489576 0.000576173 0.000448975 0.000476912 0.000425736 
0.000453008 0.00722904 0.00656911 0.000580646 0.000550238 0.00052744 0.000558028 0.000729559 0.000854157 
0.000914383 0.000510894 0.000508741 0.00223524 0.00177214 0.00050899 0.00071598 0.000509557 0.000415205 
0.000475307 0.000579894 0.000579539 0.000505177 0.00048406 0.000463945 0.0063738 0.000438102 0.000396342 
0.000301859 0.00737144 0.00738357 0.00619017 0.00619729 0.00544322 0.000509486 0.000509072 0.00529722 
0.00431291 0.0009368 0.000890184 6.82663e-05 0.0001058 0.000730875 0.000715825 0.00076974 0.000974955 
0.000943039 0.000443358 0.00041855 0.000809041 0.000919973 0.000922681 0.000836777 0.000683196 0.000693105 
0.00067889 0.00066968 0.000701129 0.00067658 0.000616333 0.000610082 0.0112279 0.0134289 0.00030011 
0.000248342 0.000287321 0.0002886 0.000327988 0.000290544 0.000593147 0.000565051 0.00057234 0.000775355 
0.000778618 6.26046e-05 9.8651e-05 0.000531182 0.000525058 0.000521401 0.000791545 0.000776684 0.000599042 
0.000111696 0.000785829 0.000655572 0.000877355 0.000975248 0.000920773 0.00052966 0.000832981 0.000525683 
0.000516485 0.000508456 0.000517334 0.00046286 0.00067458 0.000661781 0.000525833 0.000529926 0.0005241 
0.000487104 0.000481131 0.000364604 0.000344643 0.000648044 0.000627935 0.00058875 0.000585037 0.000578311 
0.000612223 0.000628297 0.000628233 0.000578319 0.00040316 0.000428951 0.000998106 0.00100964 0.00117781 
0.00111084 0.00050225 0.000498445 0.000680631 0.000696617 0.000660936 0.00139852 0.00111151 0.00114496 
0.000353678 0.000330031 0.00710101 0.000555264 0.000509576 0.000558679 0.000520431 0.000517598 0.000387994 
0.000529569 0.000541504 0.000539764 0.000514508 0.000511329 0.000581255 0.000471413 0.000484037 0.000517817 
0.00012509 9.12771e-05 0.000554433 0.000563519 0.000498126 0.000478113 0.000459918 0.000459863 0.000919165 
0.000866628 0.000813933 0.000703405 0.000699948 0.0133373 0.0163231 0.0183479 0.000541795 0.000553963 
0.000265003 0.000234174 0.000501503 0.000937086 0.000570445 0.000530492 0.000402404 0.000596039 0.00060349 
0.000406825 0.00057625 0.000568125 0.000576033 0.000578506 0.000503917 0.000514093 0.000515648 0.000513387 
0.000518058 0.00516928 0.000525685 0.000520801 0.000494927 0.000497792 0.00057238 0.000327384 0.000326899 
0.00056586 0.000983156 0.00096038 0.00100119 0.00102417 0.000506683 0.000502997 0.000480681 0.000968522 
0.000913976 0.000453931 0.000464394 0.000364761 0.000864781 0.000823155 0.000630238 0.00062604 0.000625619 
0.000638527 0.000633082 0.000639068 0.00522242 0.00454291 0.00473692 0.000737361 0.000609966 0.000636787 
0.000493573 0.000502766 0.000473131 0.000727075 0.000750103 0.000910696 0.000883365 0.00534288 0.00485502 
0.00631482 0.000578034 0.000577204 0.000577198 0.000552602 0.000544469 0.000655232 0.000584188 0.000589378 
0.000872802 0.000914703 0.000603276 0.000594242 0.00566127 0.000521529 0.000527654 0.000535006 0.000441824 
0.000422819 0.000394716 0.000415505 0.000561106 0.000632584 0.00121481 0.000549102 0.000516049 0.000511839 
0.000532705 0.000601392 0.000601427 0.000603931 0.00060421 0.000616836 0.000506575 0.000505408 0.000505805 
0.00377942 0.00479613 0.0037751 0.0032537 0.000528276 0.0055042 0.000447909 0.000631851 0.000670505 
0.000671826 0.00063292 0.000370657 0.000388148 0.000369557 0.00746749 0.00617619 0.000692073 0.000549757 
0.000689291 0.000722286 0.000729963 0.000158919 0.000590912 0.000562561 0.000576978 0.000892438 0.000747215 
0.000552322 0.000474253 0.000480234 0.000810843 0.00037631 0.000319598 0.000308547 0.000907407 0.000950199 
0.000710427 0.00100084 0.00112523 0.00033533 0.00033702 0.000382621 0.000423989 0.000414055 0.000550103 
0.00052368 0.000499045 0.000477098 0.000498947 0.000472258 0.000637044 0.000636351 0.000669165 0.000543506 
0.000746051 0.000493065 0.000550547 0.000436469 0.000148384 0.000164539 0.00100999 0.000423022 0.000432429 
0.000441059 0.000480665 0.0021882 0.00134468 0.00152098 0.000529564 0.000708638 0.000473718 0.000556976 
0.000571521 0.000536271 0.00571156 0.00367712 0.00512503 0.00071206 0.000121347 0.000812679 0.000503486 
0.000574591 0.000575896 0.000583117 0.000581385 0.000398655 0.000265218 0.000326106 0.00053 0.000142053 
0.000155981 0.000141501 0.00407038 0.000576203 0.000668436 0.000832914 0.000677318 0.000591455 0.000608769 
0.00058621 0.000372796 0.000652522 0.000562438 0.000818743 0.000645584 0.000147729 0.000918924 0.000868751 
0.000802288 0.000854922 0.00075759 0.000533816 0.000595901 0.000612182 0.000595667 0.00130042 0.000429013 
0.000473164 0.000430087 0.000930443 0.000477934 0.000103705 9.11753e-05 8.68932e-05 0.00104957 0.00108107 
0.00103188 0.000282889 0.000377051 0.000238151 0.000268152 0.000610808 0.000519428 0.000809479 0.000226416 
0.000479235 0.000554191 0.000535284 0.000462114 0.000152757 0.000650664 0.000183472 0.000599091 0.000595253 
0.000501905 0.000477644 0.00110647 0.000978363 0.000453746 0.000439597 0.000461822 0.000447924 0.00044812 
0.00027301 0.000187037 0.000171874 0.00060723 0.000576166 0.000129796 0.00134353 0.001213 0.0013007 
0.000477142 0.00061881 0.00034967 0.00044305 0.000588886 0.000956489 0.000444556 0.000418297 0.000444816 
0.000775569 0.000822945 0.00078357 0.0126559 0.000680853 0.000866521 0.000375087 0.000705701 0.000742586 
0.000747008 0.000757509 0.000705391 0.000662504 0.000541244 0.000535928 0.000538863 0.000474705 0.000464552 
0.0188479 0.000893986 0.000255442 0.000233345 0.000200737 0.000261779 0.000298011 0.000297541 0.000370379 
0.000380678 0.000395479 0.000169289 0.000512177 0.000639152 0.000660118 0.000637294 0.000637327 0.000618618 
0.00415316 0.00145609 0.00116381 0.00107874 0.00109351 0.000187059 0.000296225 0.000264266 0.000606732 
0.000504674 0.000507973 0.00061916 0.000619185 0.000618839 0.000936144 0.000505829 0.000848557 0.000137108 
0.000589697 0.000658591 0.000638257 0.00214789 0.000545718 0.00084774 0.00252901 0.00109115 0.000719868 
0.000617547 0.000748946 0.000518508 0.000515076 0.000515501 0.000590547 0.000186606 0.000991158 0.000363741 
0.000424393 0.000434387 0.000441399 0.000423214 0.00317349 0.00300671 0.00425514 0.00376518 0.00268062 
0.000762509 0.000542786 0.000666469 0.000454716 0.000455226 0.000451609 0.00153813 0.00264598 0.00217101 
0.00210195 0.0019505 0.00259073 0.00122459 0.00144616 0.00109269 0.000759868 0.000287998 0.000359286 
0.000824585 0.000642356 0.000623341 0.000635891 0.000623969 0.00283047 0.00266979 0.00313242 0.000941486 
0.000426257 0.000436152 9.39172e-05 0.00102898 0.00103484 0.00104117 0.00107599 0.00104763 0.000651986 
0.000264498 0.000213148 0.000735638 0.000510834 0.000512878 0.00101302 0.00100669 0.000668667 6.02203e-05 
0.000730197 0.000755738 0.000975251 0.000661534 0.000661019 0.000573268 0.000573669 4.79874e-05 0.000417054 
0.000462941 0.000455093 0.00611643 0.000959586 0.000757367 0.00111 8.98775e-05 8.99415e-05 0.000135253 
0.000504518 0.000786717 0.000777017 0.000724132 0.000605131 0.000605229 0.0004461 0.000628816 0.00314441 
0.00339647 0.00364169 0.00254141 0.000111496 0.000358153 0.000252086 0.00012064 0.000454413 0.000491367 
0.000476618 0.000593442 0.000345255 0.000358459 0.00188307 0.00149702 0.00109886 0.000242491 0.000342354 
0.000367659 0.000997579 0.000987797 0.000384728 0.000942909 0.00114406 0.00106768 0.000600578 0.000391525 
0.000390736 0.000354085 0.000748391 0.000713705 0.000719446 0.00282798 0.000509195 0.000511219 0.000746348 
0.00016321 0.000514941 0.000554084 0.000770215 0.000514991 6.2158e-05 0.001253 0.00266625 0.00401509 
0.00281976 8.58843e-05 6.69494e-05 0.00109761 0.00116981 0.000774555 0.00130039 0.00148107 0.00140962 
0.00103708 0.000445284 0.000445715 0.00466875 0.0042823 0.00491497 0.003976 0.0041959 0.00455306 
0.00454204 0.000455186 0.00041227 0.00308059 0.00252435 0.00259074 4.42236e-05 0.0016731 0.00200527 
0.000604137 0.000454061 0.00426789 0.000576365 0.000594456 0.000560768 0.000561222 0.000544573 0.00060608 
0.000525333 0.000429334 0.000428947 0.00106346 0.000576382 0.0112012 0.00716055 0.00643029 0.000398907 
0.00107867 0.000331173 0.000294726 0.000255733 0.00050824 0.000503408 0.00260984 0.00194965 0.000460296 
0.00046031 0.00236315 0.000134829 0.00198224 0.000619307 0.000651673 0.000758554 0.000406131 0.000626223 
0.0165031 0.0169065 0.000298971 0.000513368 0.00106059 0.00394015 0.000635173 0.000695107 0.000327888 
0.00107951 0.00107995 0.0010187 0.00105771 0.00642934 0.00116646 0.0010936 0.000328717 0.00041333 
0.000435918 0.000311702 0.00334004 0.00325699 0.000410642 0.000575259 7.09147e-05 0.000297191 0.00959754 
0.000596204 0.000177513 0.00114703 0.00112158 0.0011379 0.000299296 0.000334526 0.000413183 0.00104167 
0.000415309 0.00144536 0.00331214 0.000282013 0.000544123 0.00392427 0.000199085 0.000194523 0.00106354 
0.000658671 5.66898e-05 0.000674117 0.000689088 0.00344299 9.21396e-05 0.000529769 0.000676568 0.000611987 
0.000423484 0.000647261 0.00064795 0.000560325 0.000403494 0.001081 0.000614779 0.000614958 0.000497306 
0.000368357 0.000369907 0.00107047 0.0236621 0.000241535 0.000612144 0.00111988 0.0011039 0.00110322 
0.000620171 0.000620638 0.000391216 0.000505292 0.000576085 0.000613474 0.000613696 0.00109359 0.000540072 
0.000605234 0.000474259 0.000537636 0.000520887 0.000636897 0.000126192 2.9931e-05 0.000373608 
Strain%20xy%20component 1 3545 double
-0.000354939 -7.21436e-05 -5.71764e-05 -0.00248549 8.61094e-07 7.5486e-07 2.12904e-05 5.80916e-07 8.32659e-07 
2.49219e-05 0.000349352 0.00027399 -1.72482e-06 -1.84916e-05 0.000402012 0.000273247 0.000147022 -3.07613e-05 
-5.75604e-05 -4.02778e-05 -0.000448143 0.000204423 -1.76167e-05 1.21663e-05 -0.00096602 -0.000205591 9.51575e-05 
-2.47011e-05 -4.21209e-05 -0.00166085 -3.33597e-05 9.71047e-06 0.000218208 1.33503e-05 -7.96783e-05 -4.27595e-05 
-1.80182e-05 -9.46364e-08 -3.96464e-07 -3.52722e-06 -2.57976e-06 -2.56792e-06 -2.29592e-06 -1.77724e-06 -1.96441e-06 
-1.64593e-06 -1.60638e-06 6.73105e-07 9.04032e-07 -5.29325e-05 -3.09791e-05 0.000196773 0.000137325 -8.79512e-05 
-8.51281e-05 -3.37384e-05 -4.10709e-06 -4.21046e-06 -2.72181e-06 -2.96855e-06 -2.57922e-06 -2.8968e-06 -2.91345e-06 
-1.92172e-06 -1.61007e-06 -9.98672e-07 -7.98776e-07 1.33881e-06 1.34209e-06 -6.02017e-08 -4.86102e-07 -1.26188e-06 
-1.788e-06 -2.38499e-06 -1.48039e-06 -1.33454e-06 7.84512e-07 1.71132e-06 4.51601e-08 2.62516e-07 -1.41169e-06 
-1.87858e-06 -2.53189e-06 -2.37517e-06 -1.62681e-06 -5.29526e-07 2.22146e-06 1.47876e-06 -8.46311e-07 -1.94218e-06 
-5.85524e-07 -1.53462e-06 -2.98129e-07 2.7984e-07 3.63235e-07 4.67876e-07 -4.22736e-08 -7.06393e-08 6.0037e-08 
-2.11269e-07 -2.99028e-07 -6.38844e-08 4.36909e-06 -9.8292e-07 -2.27639e-06 -1.85263e-06 -7.10024e-07 8.08487e-08 
-9.98354e-07 9.99426e-08 8.19396e-08 -1.19654e-08 1.33706e-07 2.31148e-07 -2.23082e-07 6.78917e-08 7.78217e-08 
0.000264723 0.000379628 0.00032306 0.000123122 -0.0001468 -0.0007753 -0.00315646 0.000152038 0.000337155 
0.00036976 0.000243641 -8.14237e-06 -0.00034842 -0.00185571 -0.00186548 3.74142e-05 -2.12842e-05 -0.000325623 
6.12063e-05 7.15724e-05 -2.25852e-06 8.34301e-06 8.17964e-06 -9.64313e-07 -1.43088e-06 -9.70794e-07 -1.4543e-06 
-1.40869e-06 -4.57479e-07 -4.23143e-07 -8.17763e-07 -9.09374e-07 -2.97426e-08 6.39122e-07 -2.08456e-05 5.16592e-05 
-0.000129118 -4.56766e-05 0.00010153 1.06691e-05 -3.65487e-06 1.19791e-05 4.11354e-07 -2.68355e-06 -1.37807e-06 
-1.08605e-06 -1.65591e-06 -1.50133e-06 -6.46667e-07 -3.53718e-07 -4.48956e-07 -6.61072e-07 7.44536e-07 8.8596e-07 
3.42231e-07 -2.07069e-07 -4.44652e-07 -1.0086e-06 -1.06839e-06 -1.13182e-06 -9.00947e-07 -3.92625e-07 8.95541e-08 
1.61468e-06 6.59196e-08 2.89098e-07 -8.78574e-07 -1.28397e-06 -1.65586e-06 -1.52751e-06 -1.01785e-06 -2.58722e-07 
1.50415e-06 9.59026e-07 -5.8652e-07 -4.7563e-07 3.11563e-07 -3.55383e-07 6.66994e-07 -3.58628e-07 9.69571e-07 
-1.84398e-07 3.58605e-07 -2.93495e-07 -1.35922e-07 -1.03802e-07 3.92662e-08 -4.1221e-07 6.30741e-06 -6.90152e-07 
-8.88488e-07 -1.2003e-06 -4.56351e-07 1.88504e-07 -5.94062e-07 4.82084e-08 6.16754e-08 3.28501e-08 -7.60661e-09 
1.56192e-07 -1.17022e-07 5.54486e-08 -9.49229e-09 0.000261596 0.000397034 0.000332231 0.000139493 -7.55932e-05 
-4.5642e-06 -0.00366485 0.000152367 0.000345683 0.000386929 0.000252802 3.18859e-05 -0.000119398 -0.00115126 
-0.00399776 9.18227e-06 1.48234e-07 -2.29294e-05 -0.000726657 -2.70544e-05 -5.83905e-05 1.47221e-05 -0.000478414 
-0.0013513 -2.96168e-05 -3.63065e-05 -4.72884e-05 -3.05996e-05 -1.48299e-05 -0.000528552 0.000148518 0.000118653 
-5.33176e-05 -0.000292231 -4.36829e-05 0.000107067 0.000161507 8.39431e-05 9.06272e-05 5.30322e-06 -5.7205e-06 
-7.5753e-06 -7.76006e-07 -2.27213e-05 5.47117e-06 2.83186e-05 -0.000308912 -0.000183962 -0.000134174 -0.00022688 
-0.000225158 -9.55744e-05 -0.000101207 0.00018355 -0.000244816 -0.000165543 -0.000135795 -0.000155174 -0.00021062 
-0.000242262 -9.05781e-05 -0.000167154 -0.000233918 -0.000277984 -9.21892e-05 -5.75277e-05 -7.825e-05 -9.15375e-05 
-3.62971e-05 -3.61162e-05 -0.000276779 -4.80003e-05 -0.000140729 -0.000121021 -0.000138655 -0.000140442 0.000770932 
-0.000259421 -6.32013e-05 -6.12367e-05 -0.00015033 2.93021e-05 -0.000285672 -0.000130819 -0.000164591 -0.000102025 
-0.000310214 -0.000136558 -0.000209007 -0.000191686 -8.96228e-05 0.000458607 -0.000126422 -4.74862e-05 -5.24111e-05 
-0.000151397 -6.8603e-05 -9.28852e-05 -0.000276799 -0.000175633 -0.000274063 -3.0571e-06 -3.46033e-05 -9.58517e-05 
-0.000112108 -0.000185697 -0.000176915 -0.000110498 -0.000234363 -0.000187967 -5.37904e-05 -5.21828e-05 -0.000203258 
0.000493048 -8.45088e-05 -5.49683e-05 -0.000254115 -0.000220239 -0.000254562 -0.000113192 -0.000109606 -3.60827e-05 
-3.24109e-05 -6.70736e-05 -9.75847e-05 -0.000273051 -0.000154742 -1.73145e-05 -8.5792e-06 -0.000208666 -5.24858e-05 
-0.000102995 -0.000265699 -0.000185435 -0.00019423 -7.67098e-05 -0.000171121 -0.000120362 -0.000156415 -0.000108502 
-0.0002907 -0.000261364 -0.000163419 -6.78726e-05 -6.79479e-05 -0.000104155 0.000850286 -0.000121346 -0.000113409 
-3.48878e-05 -0.000299165 -4.95669e-05 -3.19714e-05 -0.000132389 -0.000310682 -2.66334e-05 -2.59712e-05 -0.000203919 
-0.000131829 -6.27007e-05 6.36595e-05 -0.000219926 0.000212606 -8.86748e-05 -7.2996e-05 9.09651e-06 -8.98882e-05 
-0.00030774 -0.000127156 -0.000477604 0.000864251 -0.000103046 -0.000145176 -7.88331e-05 -7.58257e-05 -0.00133381 
-8.05859e-05 -0.000244227 -8.71364e-05 6.12934e-06 -0.000175226 -7.117e-05 -0.000281081 -5.08613e-05 -0.000186044 
-0.000184134 -0.000230181 -3.43024e-05 -3.19639e-05 -3.90214e-05 -0.000295268 -3.19302e-05 0.000493018 -8.26957e-05 
0.000307185 5.96627e-05 -0.000223966 0.000892542 -0.000110114 -0.00017871 -0.000171454 -0.000267499 -0.000229439 
-0.000184103 -4.93078e-05 -0.000302286 -3.17819e-05 -0.000166903 -0.000180921 -4.53062e-05 -8.75645e-05 -9.89671e-05 
-8.65432e-05 -2.16266e-05 -1.4874e-05 -0.000191566 -0.000115503 -5.91364e-05 -0.000214067 -6.724e-05 -0.000150707 
-0.000162997 -0.000152594 -0.000151741 -7.71804e-05 -0.000168815 -0.000163584 -0.000287369 -0.000255841 -0.000128815 
0.00033375 -3.58402e-05 -0.000210138 -0.000234279 0.000295362 -0.000188095 -0.000103334 -3.00851e-05 -7.78025e-05 
-5.02749e-05 -0.000227078 -4.66806e-05 -0.000222272 -0.000132782 -0.0001261 -0.000209991 -1.33545e-05 -8.48923e-06 
-6.55129e-05 -8.68642e-05 -5.72914e-06 1.49929e-06 -0.000246551 -0.000556627 -0.000508029 -0.00177248 0.000111635 
4.93134e-05 5.68312e-05 1.28526e-06 1.32146e-06 1.16188e-06 -1.92623e-06 -3.22436e-06 -3.25828e-06 9.22908e-06 
2.44844e-05 0.000119289 0.000580343 0.000363037 -5.6772e-06 0.000516525 0.000258734 0.000369485 0.000184155 
0.000125645 0.000431716 0.000253241 -2.50588e-05 -2.1892e-05 -2.0124e-05 -3.78467e-05 -3.79824e-05 -7.13405e-05 
-5.17713e-05 -9.22158e-05 -4.35161e-05 -4.40801e-05 -8.33137e-05 -5.38915e-05 -5.67225e-05 -9.80563e-05 -3.9297e-05 
-4.05206e-05 -9.6166e-05 -3.79073e-05 -3.99056e-05 -7.82309e-05 -2.49045e-05 -2.56135e-05 -6.39249e-05 -2.70498e-05 
-2.83932e-05 -5.26721e-05 -1.47306e-05 -1.5142e-05 -4.24529e-05 -1.6957e-05 -1.76184e-05 -3.24914e-05 -1.54849e-05 
-1.61741e-05 -3.35297e-05 -1.32763e-05 -1.41454e-05 -3.67385e-05 -2.3857e-05 -4.00697e-05 -6.08581e-06 -6.89654e-06 
-1.98206e-05 -9.3255e-06 0.000138007 0.000179802 1.00662e-05 0.000217177 0.000194818 4.16064e-05 0.00012968 
4.26001e-05 -2.91256e-05 8.41594e-05 -7.1001e-05 -1.10209e-05 -0.000118297 -7.09107e-05 -0.000171061 -0.000367861 
-0.000146587 -0.000725916 -0.00143634 -0.000294099 -0.000661378 -1.13575e-05 -9.83596e-06 -1.96019e-05 -8.81855e-06 
-1.13098e-05 -1.99588e-05 -1.82791e-05 -2.89595e-05 -1.82032e-05 -1.74264e-05 -3.52049e-05 -2.86463e-05 -2.82502e-05 
-4.39194e-05 -2.73331e-05 -2.80116e-05 -5.37594e-05 -1.60955e-05 -1.70471e-05 -4.24657e-05 -1.51402e-05 -1.78123e-05 
-3.22567e-05 -5.02771e-06 -7.25698e-06 -2.35607e-05 -1.16151e-05 -2.20985e-06 -3.13766e-06 7.22548e-05 0.000140167 
0.000233996 0.000455077 0.000591371 0.000581154 0.000324147 0.000174179 0.000626512 -0.0001151 -0.000144927 
0.000153068 -5.97178e-05 -0.000205445 -0.000120976 -9.5572e-05 -0.000175141 -3.82032e-05 -1.57959e-05 -3.4421e-05 
-2.45175e-05 -1.6252e-05 -4.19591e-05 -3.51141e-05 -3.0812e-05 -1.61867e-05 -2.48466e-05 -2.82617e-05 -4.13331e-05 
-3.66219e-05 -3.7412e-05 -8.47335e-05 -5.17867e-05 -7.39577e-05 -3.40048e-05 -3.39105e-05 -6.8675e-05 -3.50481e-05 
-3.4677e-05 -7.85181e-05 -4.67052e-05 -7.72344e-05 -4.53518e-05 -4.35623e-05 -7.62318e-05 -2.43053e-05 -2.37143e-05 
-6.55339e-05 -2.60718e-05 -2.47137e-05 -4.82423e-05 -2.08089e-05 -1.9185e-05 -4.43506e-05 -1.50704e-05 -1.19771e-05 
-3.87343e-05 -2.71549e-05 -4.6091e-05 -4.36206e-06 -2.52939e-06 -1.7091e-05 -2.46624e-06 -0.000291735 -0.000309385 
-0.000292692 -0.000296036 -0.000278273 -0.000285931 -0.000299576 -0.000305089 -0.000296997 -0.000311332 -0.000310557 
-0.000306241 -0.00019713 -0.000196664 -0.000186018 -0.000173415 -0.000174507 -0.000193716 -0.000190079 -0.000181385 
-0.00017055 -0.000173998 -0.000159833 -0.000169223 -0.000158814 -0.000207844 -0.000176168 -0.000197701 -0.000156554 
-0.000135254 -0.000112069 -0.000205092 -0.000160161 -9.96472e-05 -0.000134038 -5.97578e-05 -9.38154e-05 -9.98575e-05 
-7.61888e-05 -6.84501e-05 -0.000243484 -0.000257686 -0.000241918 -0.000241861 -0.00022851 -0.000207204 -0.000202661 
-0.000223972 -0.000242022 -0.000209808 -0.000189788 -0.000212768 -0.000245176 -0.000251427 -0.000229078 -0.000202022 
-0.000199611 -0.000259468 -0.000241206 -0.000224574 -0.000238647 -0.000177392 -0.000204618 -0.000205274 -0.000119638 
-0.00011129 -0.000104318 -9.10817e-05 -9.93611e-05 -0.000118316 -0.000102125 -9.35613e-05 -8.74655e-05 -7.76071e-05 
-6.34934e-05 -8.16452e-05 -7.76572e-05 -6.90529e-05 -0.000116489 -0.000120441 -0.00010598 -9.81146e-05 -9.3985e-05 
-7.17788e-05 -8.87424e-05 -8.44707e-05 -7.75424e-05 -0.000123258 -0.000107349 -9.4542e-05 -4.88224e-05 -6.01397e-06 
2.13487e-05 -3.03974e-05 0.000121741 1.93672e-05 -0.000238547 0.000549101 0.00057165 0.000474427 0.000597316 
0.00089747 -0.000227467 -0.000213135 -0.000257814 -0.000270355 -0.000286421 -0.000217079 -0.000215706 -0.000246742 
-0.00026956 -0.000182819 -0.000133758 -0.000137617 -0.000169316 -0.000202018 -0.000197998 -0.000177794 -0.00015913 
-0.00018444 -0.000197169 -0.000214631 -0.000131887 -0.000100662 -0.000229461 -0.000125316 -0.000135953 -0.000143999 
-0.000127971 -0.000119295 -0.000111749 -0.000132904 -0.00012333 -0.000146153 -0.00015222 -0.00016278 -0.000106624 
-0.000160444 -0.000158901 -0.000147409 -0.000143521 -0.00012967 -0.000141127 -0.000164012 -0.000167848 -0.000150309 
-0.000135857 -0.000172156 -0.000145565 -0.000194808 -0.00016181 -0.000188707 -0.000138884 -0.000207381 -0.000221822 
-0.000251376 -0.000239525 -0.000250909 -0.000223391 -0.000199996 -0.000158609 -0.000227174 -0.000182902 -0.000225273 
-0.000168058 -0.000287953 -0.00027385 -0.000255294 -0.000241903 -0.000275573 -0.000253283 -0.000233935 -7.136e-05 
-7.20985e-05 -9.08601e-05 -7.22426e-05 -8.70389e-05 -9.63663e-05 -0.000100067 -0.000113091 -0.000103334 -6.74773e-05 
-0.000102493 -0.000196898 -0.000169677 -0.00019453 -0.000190578 -0.000217588 -0.000124585 -0.000160671 -0.000132424 
-0.000147296 -0.00011345 -0.000150009 -0.000183579 -0.000255761 -0.000243708 -0.000243689 -0.000233229 -0.000230113 
-0.000218799 -0.000220942 -0.000215281 -0.000228368 -0.00021388 -0.00022643 -0.000265948 -0.0002655 -0.000271125 
-0.000273243 -0.000282457 -0.000276827 -0.000275556 -0.000284612 -0.000290182 -6.72489e-05 -6.19434e-05 -2.55627e-06 
-8.05066e-05 -8.84762e-05 -6.99284e-05 -7.05356e-05 -0.000169745 2.25245e-06 -0.000142773 -4.02262e-05 -3.75021e-05 
-5.7175e-05 -2.46099e-05 -6.85885e-05 -6.38549e-05 -0.000172955 -0.000129524 -0.000121516 -0.00014119 -0.000113493 
-0.000120994 -6.32222e-05 -7.86193e-05 -6.25601e-05 -5.47707e-05 -5.15746e-05 -5.72434e-05 -7.38629e-05 -9.09764e-05 
-8.64596e-05 -9.39534e-05 -0.000114535 -9.91204e-05 -7.14243e-05 -7.08465e-05 -9.23504e-05 -0.000113698 -0.000111351 
-0.000123094 -0.000103141 -9.51247e-05 -8.4429e-05 -6.49162e-05 -5.88034e-05 -3.14159e-05 -4.41559e-05 -6.44711e-05 
-5.56488e-05 -5.23138e-05 -5.02985e-05 -3.50563e-05 -2.54181e-05 -2.17237e-05 -8.61927e-06 -2.18034e-05 -5.23299e-05 
-5.21478e-05 -3.66543e-05 -2.93436e-05 -2.59653e-05 -2.48929e-05 -1.53543e-05 -4.77041e-05 -4.28857e-05 -3.19873e-05 
-0.000248543 -0.000227461 -0.000252562 -0.000291159 -0.000275883 -0.000251625 -0.000303652 -0.000288788 -0.000267276 
-0.000240336 -6.42166e-05 -3.27572e-05 -7.45277e-05 -7.32156e-05 -6.5482e-05 -5.58392e-05 -6.82408e-05 -0.00010057 
-0.000157064 -0.00016276 -0.000133966 -0.000114744 -0.000106712 -0.000142686 -0.000115535 -0.000111703 -0.000105077 
-0.000168255 -0.00016928 -8.63005e-05 -8.69722e-05 -8.32254e-05 -0.000115368 -0.000146091 -0.000124759 -9.97369e-05 
-0.000153062 -0.00013969 -0.000170361 -0.000135941 -0.000123904 -0.000126897 -0.000150912 -0.000147072 -0.000143924 
-0.000136212 -0.000147449 -0.000124126 -0.000134055 -0.000140547 -0.000148062 -0.000152316 -0.000123562 -0.000130541 
-0.000146109 -0.000158392 0.000706295 0.000827985 0.000712253 0.000537196 0.000913813 0.000905564 0.000813108 
0.000532757 0.00042254 -0.000261236 -0.000239056 -0.000237568 -0.000276862 -0.000270012 -0.000252965 -0.000264951 
-0.000230317 -7.65343e-05 -5.83573e-05 -4.95791e-05 -6.59056e-05 -4.93175e-05 -7.52199e-05 -8.86099e-05 -6.461e-05 
-4.66335e-05 -4.72932e-05 -5.68462e-05 -7.18835e-05 -7.41779e-05 -8.45471e-05 -0.000157613 -0.000167449 -0.000156858 
-0.000175056 -0.000140986 -0.000142188 -0.000131363 -0.000354848 -0.000280577 -0.000209285 -0.000278735 5.09375e-05 
0.000648334 0.000713047 0.000484229 -0.000526873 -0.000275354 -0.000259448 -0.000277188 -0.000287183 -0.000289126 
-0.000298151 -0.000294914 -0.000295699 -0.000151843 -0.000103412 -0.000106629 -0.000174153 -0.000154023 -0.00012971 
-0.000178388 -0.000145319 -0.000133362 -0.000122082 -0.0002047 -0.000200934 -0.000240014 -0.000129133 -0.000166496 
-0.000125025 -0.000143071 -0.000107863 -7.19553e-05 -3.92924e-05 -5.45691e-05 -0.000137776 -8.87298e-05 -0.000303836 
-0.000291717 -0.000304547 -0.000311391 -0.000313115 -0.000300968 -4.33763e-05 -0.000116368 -0.000173846 -0.000157135 
-0.000208431 -6.55739e-05 -0.000209394 -0.000197516 -0.000183725 -0.000194954 -0.000216028 -0.000219489 -0.000201982 
-0.000188054 -0.000187941 -0.000174287 -0.000180585 -0.000207812 -0.000198814 -0.000186993 -0.000121313 -9.4043e-05 
-7.05479e-05 -6.93056e-05 -9.45134e-05 -6.19191e-05 0.000348365 0.000201736 0.00045822 0.000723789 0.000729238 
-0.000148849 -0.000178602 -9.68407e-05 -0.000100824 -0.000127629 -9.87807e-05 -5.34398e-05 -6.48338e-05 -7.63123e-05 
-8.69773e-05 -0.000128172 -0.000183109 -0.000155835 -0.000129931 -0.000176517 -8.89548e-05 -6.18355e-05 -4.96319e-05 
-7.09133e-05 -8.85736e-05 -0.00010549 -0.000109344 -0.000286108 -0.000295898 -0.000272409 -0.000260661 -0.000254856 
-0.00025902 -0.000250562 -0.000236705 -6.81678e-05 -0.000114054 -0.000100954 -0.000122177 -0.000130085 -0.000172722 
-0.000163833 -0.000220744 -0.000169383 -0.000200688 -0.000208807 -0.000225905 2.91632e-05 7.73883e-07 6.15188e-05 
-0.000108555 -0.000103051 0.000113143 3.5667e-05 9.77669e-06 1.58352e-06 5.1449e-06 1.87081e-07 -9.71634e-07 
-1.53069e-06 -8.97603e-07 -1.40973e-06 -1.50499e-06 -9.93047e-07 -2.46947e-06 -1.03189e-09 -6.03772e-07 -8.88162e-06 
-1.01403e-05 9.38473e-06 2.44642e-05 5.81876e-07 7.22618e-07 8.00946e-07 7.08441e-07 2.38712e-05 8.12995e-06 
1.95028e-05 5.11703e-05 2.97103e-05 -4.02714e-05 4.88081e-05 2.69638e-07 -5.88133e-05 -1.20355e-05 4.05019e-05 
-0.000218466 -0.000182076 -0.000299451 1.46563e-05 4.24217e-05 -3.87686e-05 3.81701e-05 0.000100994 -2.0008e-05 
2.73076e-06 0.000114202 4.87349e-06 4.54477e-05 -7.57227e-06 -1.19364e-05 -3.4991e-06 -7.82817e-06 -1.22235e-06 
7.73849e-06 -4.44766e-06 9.46163e-06 -5.31824e-06 -2.77671e-06 2.40487e-06 8.68647e-07 1.042e-05 4.74238e-06 
5.62481e-06 -1.76161e-06 -3.4078e-07 1.79793e-06 -4.52445e-07 -9.87358e-07 -1.50806e-06 -1.45881e-06 -7.62749e-07 
-4.8248e-07 -5.22681e-07 -1.80633e-06 -1.97958e-06 -8.85398e-07 -1.30239e-06 -1.15536e-06 -1.42956e-06 -1.53082e-06 
-1.46789e-06 -1.47932e-06 -1.22911e-06 -1.60849e-06 -1.21978e-06 -1.21853e-06 -1.14196e-06 -1.23213e-06 -1.74777e-06 
-1.55598e-06 -1.07473e-06 -1.08226e-06 -8.72652e-07 -1.14196e-06 -1.47471e-06 -8.64252e-07 -1.18307e-06 -7.70656e-07 
-1.71297e-06 -2.02433e-06 -7.43932e-07 -1.32305e-06 -1.63474e-06 -1.25917e-07 -6.71574e-07 -1.15863e-06 -1.1988e-06 
-5.22234e-07 -1.74991e-07 9.82559e-08 -4.64349e-07 -3.41626e-07 -3.3567e-07 1.83758e-07 1.28473e-09 -0.000303458 
-0.000182422 -0.000112607 -0.000223627 -0.000222389 -9.426e-05 -9.97227e-05 9.11218e-05 -0.000235656 -0.000162317 
-0.000134339 -0.000152556 -0.00020734 -0.000229947 -8.93439e-05 -0.000164546 -0.000231983 -0.000274392 3.97046e-05 
-1.14195e-05 -7.76116e-05 -8.95882e-05 -3.60469e-05 -3.55424e-05 -0.000269407 2.71141e-05 -0.000137228 -0.000120338 
-0.000137208 -0.000138719 0.000398904 -0.000255427 -6.12907e-05 -5.99487e-05 -0.000148445 -0.000729072 -0.000281576 
-0.00012939 -0.000160194 -9.30857e-05 -0.000302756 -0.000122962 -0.000206527 -0.000189858 -8.70333e-05 0.000149139 
-0.000123228 -4.67367e-05 -5.13115e-05 -0.000131159 -6.81137e-05 -9.12743e-05 -0.000271926 -0.000164627 -0.00026814 
0.000147533 -1.40915e-05 0.000118112 -0.000110571 -0.000183934 -0.000174249 -0.000108419 -0.000231025 -0.000177655 
-5.19376e-05 4.04974e-05 -0.00020014 3.20201e-05 -8.17816e-05 -5.46858e-05 -0.000251321 -0.000217317 -0.000251032 
-9.85611e-05 -0.000107705 -3.48314e-05 -3.17798e-05 5.34634e-05 -9.55684e-05 -0.000261783 -0.000152879 -1.64629e-05 
-9.35839e-06 -0.00020644 -5.04047e-05 -9.74413e-05 -0.000263216 -0.000182668 -0.000190918 -7.63574e-05 -0.000169443 
-0.000118831 -0.000155228 -0.000107095 -0.000287507 -0.000258048 -0.000161256 -6.67732e-05 -6.69953e-05 -8.46462e-05 
0.000153058 -9.76512e-05 -0.000111918 -3.45726e-05 -0.000288092 -4.78029e-05 4.34364e-05 -0.000130628 -0.000305165 
-2.62313e-05 -2.60834e-05 -0.000202018 -0.000130357 0.000146018 0.00010022 -0.000210514 0.000266364 -8.61253e-05 
-3.81232e-05 2.0092e-05 -8.86023e-05 -0.000302073 -0.000125704 -0.000139539 2.40512e-05 -8.76936e-05 -0.000143211 
-7.81521e-05 -7.4593e-05 -0.00289884 -7.90979e-05 -0.000236029 -8.50703e-05 2.26896e-05 -0.000163495 -6.84351e-05 
-0.000277953 -4.99338e-05 -0.000178458 -8.83447e-05 -0.000227244 -3.25023e-05 -3.06698e-05 -3.78016e-05 -0.00028628 
-3.16919e-05 -0.000868548 -8.10412e-05 0.000189199 8.89338e-05 -0.000222103 0.000391334 -0.000108575 -0.000175751 
-0.000169438 -0.00026307 -0.00022382 -0.00018207 7.02631e-05 -0.000296629 -2.52031e-05 -0.000163405 -0.000178998 
-4.40774e-05 -7.05899e-05 -9.16503e-05 -8.52541e-05 -2.04825e-05 -1.48139e-05 -6.62048e-05 -0.000113855 -5.82754e-05 
-0.000211771 -6.42755e-05 -0.000126113 -0.000160939 -0.000149801 -0.00015074 -7.56334e-05 -0.000167623 -0.000162167 
-0.000283318 -0.000245931 -0.000125834 -2.48997e-05 -1.46171e-05 -0.000194658 -0.000228325 0.000238462 6.89541e-05 
-0.000102455 -2.97983e-05 -7.66415e-05 -4.7109e-05 -0.000225031 -4.53173e-05 -0.000219476 -0.00013142 -0.000122975 
-0.000197804 -1.30756e-05 -8.9452e-06 -6.32404e-05 -8.50826e-05 -5.03902e-06 3.7563e-07 -0.000242712 0.000105431 
0.000150399 0.000154507 -0.00291907 -0.00319087 -0.00203003 3.76797e-07 5.78857e-07 3.05749e-07 -1.6846e-06 
-2.83065e-06 -3.0975e-06 0.000130474 3.22984e-05 1.28908e-05 0.000193107 0.000147281 2.69737e-05 0.000212715 
0.000241418 6.00012e-05 6.04811e-05 0.00014689 9.45143e-05 -7.38051e-06 -6.1084e-05 -7.49997e-05 -5.35738e-06 
-5.74544e-05 -6.62496e-05 -8.32904e-05 -8.09082e-05 -0.00117229 -7.99087e-06 -3.35829e-05 -0.00125344 -9.24374e-06 
-1.04446e-05 -8.28869e-06 -1.86927e-05 -1.08471e-05 -1.71684e-05 -1.87977e-05 -2.75358e-05 -1.6417e-05 -1.69637e-05 
-3.37745e-05 -2.66524e-05 -2.69329e-05 -4.21357e-05 -2.64581e-05 -2.59802e-05 -5.16361e-05 -1.60201e-05 -1.53034e-05 
-4.06022e-05 -1.70054e-05 -1.48782e-05 -3.13533e-05 -7.43775e-06 -5.41874e-06 -2.31688e-05 -3.05239e-06 -1.20528e-05 
-4.18568e-06 -0.000356556 -0.000736824 -0.00170058 -2.36811e-05 5.3903e-05 -0.000494901 0.000121444 9.65874e-05 
0.000111381 0.000218995 0.000107665 0.000126619 0.000273937 5.22627e-05 0.000153207 0.000251441 -2.6578e-05 
-0.000153945 3.35851e-05 7.51729e-05 8.89388e-05 -8.92316e-07 -6.54233e-05 -9.65542e-06 1.11082e-05 3.12051e-05 
3.63366e-05 2.20391e-05 2.5737e-05 5.50691e-05 -9.32209e-06 -6.09325e-06 -2.13341e-06 6.10972e-06 -1.66764e-05 
-1.36743e-05 -2.66587e-05 -2.33406e-05 -3.68973e-05 -3.54591e-05 -3.48561e-05 -4.98046e-05 -8.25226e-05 -7.2113e-05 
-3.20986e-05 -3.21085e-05 -6.6169e-05 -3.25395e-05 -3.30363e-05 -4.44041e-05 -7.56176e-05 -7.4609e-05 -4.1707e-05 
-4.2906e-05 -7.32476e-05 -2.20543e-05 -2.28034e-05 -6.3226e-05 -2.34359e-05 -2.46706e-05 -4.64715e-05 -1.8368e-05 
-1.97863e-05 -4.28988e-05 -1.21418e-05 -1.45842e-05 -2.6407e-05 -3.82552e-05 -4.51224e-05 -3.25601e-06 -4.61239e-06 
-1.73215e-05 -3.60705e-06 -1.83253e-05 -2.33102e-05 -1.36268e-05 -3.61826e-05 -3.69713e-05 -4.72904e-05 -6.81156e-05 
-8.94048e-05 -4.29931e-05 -4.26484e-05 -8.12822e-05 -5.5701e-05 -5.27691e-05 -9.66217e-05 -4.01353e-05 -3.89827e-05 
-9.45635e-05 -3.95871e-05 -3.77234e-05 -7.70662e-05 -2.52114e-05 -2.47972e-05 -6.32247e-05 -2.81619e-05 -2.67007e-05 
-5.2051e-05 -1.49623e-05 -1.46441e-05 -4.21516e-05 -1.74363e-05 -1.67416e-05 -3.20927e-05 -1.60206e-05 -1.52178e-05 
-3.31564e-05 -1.3906e-05 -1.30741e-05 -2.35799e-05 -3.61911e-05 -3.96119e-05 -6.60592e-06 -6.0462e-06 -1.93638e-05 
-8.91007e-06 -0.000287249 -0.000303488 -0.00028597 -0.000273209 -0.000291042 -0.000295201 -0.000282482 -0.000292969 
-0.000299613 -0.000306047 -0.000305144 -0.000300327 -0.000184395 -0.000194667 -0.000194826 -0.000172378 -0.000171771 
-0.000179169 -0.000188035 -0.000191982 -0.000172319 -0.000168557 -0.000167406 -0.000158069 -0.000157412 -0.000205809 
-0.000141405 -0.00018844 -0.000162597 -9.30749e-05 -0.000118732 -0.000144497 -0.000195758 -0.000112319 -7.60435e-05 
-4.75439e-05 -4.57477e-05 6.94077e-05 -2.46097e-05 -1.08916e-05 -0.000238927 -0.000254509 -0.000240459 -0.000225609 
-0.000238966 -0.000220798 -0.00019921 -0.000204443 -0.000239567 -0.000187071 -0.000206979 -0.000210666 -0.000226154 
-0.000248367 -0.000243051 -0.00019723 -0.000199649 -0.000238481 -0.000256557 -0.000236684 -0.000222067 -0.00020234 
-0.000175252 -0.000203094 -0.000103007 -0.000109737 -0.000118151 -9.78441e-05 -8.96659e-05 -0.000100812 -0.000116948 
-8.66007e-05 -9.24845e-05 -8.04865e-05 -6.25287e-05 -7.63036e-05 -7.62727e-05 -6.81415e-05 -0.000104404 -0.000118885 
-0.000115149 -9.26072e-05 -9.64354e-05 -8.32144e-05 -8.74119e-05 -7.06348e-05 -7.62774e-05 -0.000105652 -0.000121696 
-9.32501e-05 0.000111748 0.000185884 9.24301e-05 0.000100427 0.000100453 -2.77098e-05 6.51721e-05 0.000223215 
0.000234338 0.000105413 2.16537e-05 0.000213224 -0.000247673 -0.000201762 -0.000215814 -0.000276556 -0.000261754 
-0.000238213 -0.000207857 -0.000208854 -0.000261311 -0.000172683 -0.000164748 -0.000126537 -0.000129893 -0.000194333 
-0.000196398 -0.000181881 -0.000156666 -0.000175605 -0.00021202 -0.000194637 -9.15655e-05 -0.000127627 -0.00022589 
-0.000122369 -0.000126693 -0.000142676 -0.000134486 -0.000110849 -0.000118285 -0.000144827 -0.00012185 -0.000131411 
-0.000161405 -0.000150761 -0.000105499 -0.000159351 -0.000141571 -0.000145646 -0.000156885 -0.000138599 -0.000127112 
-0.000148107 -0.000165626 -0.000161844 -0.000132926 -0.000170007 -0.000158845 -0.000192054 -0.00014313 -0.000135757 
-0.000185438 -0.000218861 -0.000204302 -0.000235626 -0.000247538 -0.000219151 -0.000245466 -0.000195736 -0.000168704 
-0.000213719 -0.000139378 -0.00015384 -0.000213185 -0.000241779 -0.000262066 -0.000277435 -0.000229798 -0.000242161 
-0.000265743 -0.000222061 -7.04534e-05 -6.97665e-05 -7.04794e-05 -8.93426e-05 -9.8532e-05 -9.45656e-05 -8.56294e-05 
-0.000101759 -0.000111457 -6.57442e-05 -0.000101023 -0.000191213 -0.000167383 -0.000193601 -0.000215342 -0.000187942 
-0.00013051 -0.000157833 -0.000122359 -0.000111099 -0.000144908 -0.00014775 -0.000181599 -0.000241545 -0.000240987 
-0.000252554 -0.000230366 -0.000227853 -0.000218956 -0.000216832 -0.00022594 -0.000212318 -0.000211677 -0.000223772 
-0.000262157 -0.000262763 -0.000267365 -0.000270146 -0.000272139 -0.000278681 -0.000280939 -0.00027211 -0.000286582 
3.39312e-05 3.88464e-05 5.66246e-05 0.000114558 4.94008e-05 4.73905e-05 5.56414e-05 4.94609e-05 1.65814e-05 
3.90615e-05 7.61526e-05 8.67426e-05 6.55724e-05 -1.18571e-05 4.37007e-05 0.00014797 -3.67984e-05 -2.26895e-05 
-6.91496e-05 -7.18671e-05 -0.00011289 -8.84675e-05 -6.19024e-05 -7.79861e-05 -6.23718e-05 -5.43073e-05 -7.32612e-05 
-5.66207e-05 -5.10984e-05 -8.58407e-05 -8.99678e-05 -9.8134e-05 -0.000113232 -9.29555e-05 -9.05289e-05 -6.85548e-05 
-6.95456e-05 -0.000109455 -0.000111815 -0.000101454 -0.00012138 -8.2772e-05 -9.36171e-05 -6.33186e-05 -5.74684e-05 
-4.34775e-05 -3.11416e-05 -5.50746e-05 -6.33143e-05 -3.47995e-05 -4.93227e-05 -5.17675e-05 -2.55292e-05 -2.20863e-05 
-2.20401e-05 -9.39358e-06 -3.55865e-05 -5.11571e-05 -5.11404e-05 -2.84812e-05 -2.5118e-05 -1.48662e-05 -2.44157e-05 
-4.68983e-05 -3.11729e-05 -4.23278e-05 -0.000222658 -0.000240934 -0.00024755 -0.000270388 -0.000283587 -0.000246355 
-0.000279962 -0.000296745 -0.000258435 -0.000230888 3.28196e-06 2.83101e-05 -5.44746e-05 -4.01041e-05 4.53331e-05 
4.23377e-05 -3.68072e-05 -8.17771e-05 -0.00013049 -0.00015987 -0.000153835 -0.000103726 -0.000112083 -0.000108789 
-0.000113006 -0.00014034 -0.00010181 -0.000165206 -0.000166514 -8.64754e-05 -8.51063e-05 -0.000114186 -8.25003e-05 
-9.84253e-05 -0.000123512 -0.000144887 -0.000151676 -0.000138687 -0.0001684 -0.00012249 -0.000134249 -0.000125301 
-0.000145358 -0.000149259 -0.000134598 -0.000142127 -0.000145512 -0.000122527 -0.000146172 -0.00013904 -0.000132418 
-0.000150374 -0.00012934 -0.000122674 -0.000144848 -0.000157005 0.000203904 0.000199524 5.68868e-05 0.000295664 
0.000361526 0.000298693 0.000465862 0.000352708 0.00031295 -0.000235806 -0.000257015 -0.000234419 -0.000272753 
-0.00026669 -0.000261555 -0.000249045 -0.000226555 -5.68118e-05 -7.48454e-05 -4.7834e-05 -4.75612e-05 -6.43904e-05 
-7.35611e-05 -8.70582e-05 -4.57392e-05 -6.33504e-05 -4.58038e-05 -5.51317e-05 -7.03336e-05 -7.28552e-05 -8.29724e-05 
-0.000165933 -0.000155779 -0.000172944 -0.000154546 -0.000139358 -0.000129644 -0.000140084 -0.00026999 7.23645e-05 
-0.000482916 -0.000288379 -3.00758e-05 -0.000248939 -0.000311171 -0.000876583 -0.00167041 -0.000255986 -0.000272226 
-0.000272747 -0.000283114 -0.000293847 -0.000283956 -0.000290206 -0.000291259 -0.000102069 -0.00015022 -0.000105126 
-0.000152444 -0.00017202 -0.000127656 -0.000127834 -0.000138725 -0.000171749 -0.000119194 -0.000198702 -0.000233881 
-0.000195341 -0.000122222 -0.000162207 -0.000125686 -9.79254e-05 -0.000132905 -6.58659e-05 -4.49535e-05 -2.98031e-05 
-7.53403e-05 -0.000128665 -0.000281695 -0.000294306 -0.000295866 -0.000304268 -0.000306537 -0.000294367 -9.76867e-05 
-2.55784e-05 -0.000159758 -0.000194322 -0.000142549 -5.22668e-05 -0.000195483 -0.000206805 -0.000192648 -0.000181757 
-0.000213335 -0.000199426 -0.00021685 -0.000185129 -0.000172731 -0.000185947 -0.000178735 -0.000196754 -0.000205851 
-0.000185267 -9.14922e-05 -0.000118355 -6.77628e-05 -5.71685e-05 -9.03843e-05 -6.01642e-05 -6.08236e-05 0.000115813 
9.86602e-05 0.000171195 0.000281792 -0.000176003 -0.000146477 -9.37722e-05 -9.55116e-05 -0.000124992 -9.79027e-05 
-5.25423e-05 -7.48814e-05 -6.34619e-05 -0.000116317 -6.80385e-05 -0.000168825 -0.000111143 -0.000136289 -0.000160241 
-6.12435e-05 -8.82967e-05 -4.90107e-05 -8.60623e-05 -6.89324e-05 -0.000107 -0.00010285 -0.000289991 -0.000279096 
-0.000267412 -0.000253729 -0.000249341 -0.0002549 -0.000247065 -0.000233936 -5.50318e-05 -9.97097e-05 -0.000112408 
-0.000128889 -0.000120679 -0.000171025 -0.000162312 -0.000210947 -0.000152387 -0.000189126 -0.00020623 -0.000221975 
0.000252228 3.1674e-06 0.000396245 0.000339151 0.000149508 -9.55615e-05 -0.00129037 -0.00377962 -0.00326335 
-0.00189023 -0.00368167 -0.00438316 8.23273e-05 8.31596e-05 0.000212443 0.000208338 0.000293238 0.000378542 
0.000250456 0.000375178 0.000404053 0.00040282 0.000203574 0.000291218 0.000334315 8.27768e-05 -4.13974e-05 
0.00015015 -0.000129718 -5.87076e-05 -0.000107916 -0.000411331 -0.00219585 -0.000421059 -0.00304601 0.000375216 
0.000298254 0.000394118 0.000365871 0.00028634 0.000200569 -8.24078e-05 7.20148e-05 -0.000310627 -0.000158995 
-0.00238988 -0.00115237 -2.769e-07 -1.7227e-06 -7.46037e-07 -1.13661e-06 -1.59462e-06 -9.87001e-07 -3.57688e-07 
8.41357e-07 -1.98264e-06 -3.17884e-07 7.40298e-07 6.16115e-07 9.31211e-07 1.49182e-07 1.63147e-07 -4.84229e-07 
8.33101e-07 -5.80511e-07 -5.46468e-07 -8.69246e-07 -6.07002e-07 -6.45572e-07 -5.82979e-07 -9.09539e-07 -3.69001e-07 
-5.32552e-07 -7.93414e-07 -1.15931e-06 -9.75053e-07 -4.88033e-07 -4.94447e-07 -1.03776e-06 -1.22939e-06 -1.43213e-06 
-1.40807e-06 -9.33298e-07 -1.66751e-06 -1.22568e-06 -1.15904e-06 -1.57671e-06 -1.28806e-06 -1.80349e-06 -5.76778e-07 
-1.11292e-06 -1.30709e-06 -8.11316e-07 -1.20339e-06 -5.77227e-07 1.67336e-07 -8.38454e-07 -5.39677e-08 -4.22776e-07 
8.58654e-07 1.14875e-07 -2.02441e-07 -1.08549e-08 6.72366e-07 3.40963e-07 6.51926e-07 -9.27222e-07 -6.61607e-06 
-2.03712e-06 -5.03656e-07 -5.21754e-07 1.60357e-07 5.06064e-07 1.3382e-06 1.98192e-07 -5.82151e-07 -3.28946e-07 
-1.65041e-07 -9.81641e-07 -2.17744e-07 -5.28842e-07 2.02114e-07 2.37317e-07 -2.26635e-07 8.76291e-06 6.60027e-06 
-9.18265e-07 -3.73532e-07 -5.79487e-07 -1.33032e-06 -8.6718e-07 -2.11649e-06 -1.06317e-06 -1.04553e-06 -1.12469e-06 
-1.75741e-06 -1.53722e-06 -5.88466e-07 3.52853e-08 -1.06775e-06 -1.2246e-07 -6.33632e-07 9.33831e-07 -7.34984e-07 
-9.74047e-07 -1.28178e-07 -5.8244e-07 3.20675e-07 -3.53466e-07 6.25687e-07 -4.06569e-07 -8.28619e-08 -4.27608e-08 
7.358e-07 1.79389e-07 6.6109e-07 3.65864e-07 4.54042e-09 9.08196e-07 9.85874e-07 9.27089e-07 4.63388e-07 
1.46135e-06 6.3692e-07 -1.17079e-07 5.18817e-07 5.37189e-07 1.28773e-07 -3.49589e-07 -2.60532e-07 -1.96273e-07 
1.34614e-07 -2.12886e-07 -6.96717e-08 -5.37334e-08 -3.07191e-07 -5.03541e-07 -2.11777e-07 -1.01952e-07 -2.31507e-07 
-2.05484e-07 -2.82588e-07 -2.56004e-07 -9.10344e-08 -3.42634e-07 -1.55488e-07 -1.11462e-07 -1.09667e-07 -3.2545e-07 
-9.0036e-08 -2.69462e-07 -2.0616e-07 -1.75685e-07 -3.95391e-07 -3.92432e-07 0.000100489 -0.000258802 -0.000193852 
-6.67478e-05 -0.000143724 -0.00011178 -0.000263348 -8.0132e-05 -4.19552e-05 6.41186e-05 -0.000182678 -0.000216819 
-0.000193509 -0.00014868 -0.000214003 -0.000102384 -0.000155429 -0.000134857 -0.000137696 -0.000141269 -0.000140552 
-0.000137701 -0.000130811 -0.00013668 -0.000118551 -0.000134996 -0.00012334 -0.00012286 -0.000107429 7.19993e-05 
0.000105907 0.000145537 1.56361e-05 9.45518e-05 -0.000102804 -0.000107119 -0.000268654 -0.000291528 -0.000256986 
-0.000278544 -0.000272389 -0.000175932 -0.000182761 -0.000187832 -0.000188755 -0.000181674 -0.000249423 -0.000252575 
-2.5255e-05 -5.08039e-05 -6.81547e-05 -2.59977e-05 -4.45024e-05 -0.00016975 -0.000182842 8.89227e-05 6.19569e-05 
-2.5286e-05 -2.45194e-05 -2.86653e-05 -8.30146e-05 -3.36137e-05 -4.87879e-05 -3.45724e-05 -6.95737e-05 2.06248e-05 
-5.62785e-06 7.48971e-06 -1.36748e-06 -1.353e-05 -5.23513e-05 -9.95749e-05 -2.83809e-05 -2.04705e-05 -2.17405e-05 
-4.03625e-05 -4.77675e-05 -2.80122e-05 -1.98541e-05 -4.7287e-05 -3.97828e-05 -1.548e-05 -1.48714e-05 -1.45029e-05 
-3.11974e-05 -1.63132e-05 -1.5897e-05 -1.66776e-05 -1.71129e-05 -4.09162e-05 -2.65712e-05 -2.78164e-05 -5.21638e-05 
-5.2584e-05 -2.69896e-05 0.000162969 -0.000394015 -0.000324508 -0.000374865 0.000104384 -2.81208e-05 -2.78216e-05 
-2.72096e-05 -1.67335e-05 -1.83659e-05 -1.76008e-05 -4.25267e-05 -3.32719e-05 -2.74461e-05 -5.10989e-05 -0.000150161 
-0.000162422 -0.000200555 -0.000224403 -0.000231114 -0.000226561 -0.000220603 -2.4687e-05 -2.41496e-05 -2.47636e-05 
-3.40919e-05 -1.63702e-05 -1.81219e-05 -1.57928e-05 -1.76298e-05 -1.65724e-05 -1.68282e-05 -4.57918e-05 -4.55003e-05 
-8.70183e-05 -4.43867e-05 -4.51665e-05 -4.39426e-05 -0.000213491 1.23884e-07 -1.34742e-05 -0.000393516 -0.000530613 
0.000295944 7.12031e-06 1.88221e-05 -1.1496e-05 -5.03439e-05 -2.43275e-05 -2.50818e-05 -1.6401e-05 -3.14698e-05 
-0.000163633 -0.000197362 -0.000196909 -0.000164652 -0.000218245 -9.3221e-05 -9.68847e-05 -8.57769e-05 -2.01922e-05 
2.25247e-05 2.95404e-05 -3.117e-05 -3.5412e-05 -3.53796e-05 -3.62272e-05 -5.15521e-05 -1.78105e-05 -4.45613e-06 
2.61065e-07 -4.00723e-06 -4.90436e-06 -9.23733e-06 -0.000207772 -0.000214423 -2.4854e-06 -2.20921e-05 -0.000176745 
-0.000170043 -0.000194462 -0.000168019 -0.000123094 -0.000135195 -0.000131898 8.82978e-07 -3.86253e-07 -4.77399e-05 
-9.62046e-05 -0.000200788 -0.000210205 -0.00023908 -0.000181025 -0.000173904 -0.000136729 -0.000159761 -0.000186577 
-0.000104238 8.2556e-05 0.000170967 6.521e-05 0.000105253 8.007e-05 0.000124544 0.000281722 0.000278214 
-7.63681e-05 -3.25036e-05 -0.000247663 -0.000225548 -0.000234497 -3.62617e-05 -1.3397e-05 -2.27029e-05 -1.33714e-05 
-2.63098e-05 -6.22907e-05 0.00017459 0.00014247 0.000146146 0.000153461 -2.53079e-05 -2.55517e-05 -2.4177e-05 
-9.87291e-05 -0.000125692 -0.000127006 -0.000129289 -0.000121245 -9.2954e-06 -4.41994e-06 0.000240026 0.000231267 
7.58123e-05 0.00022285 -4.32923e-06 -5.91388e-09 -4.80636e-06 -0.000140062 -0.00023617 0.000209889 -6.66428e-05 
-0.000123112 -0.000127255 -2.47992e-05 -4.86641e-05 -2.6362e-05 -1.87969e-05 -3.51974e-05 -1.01484e-05 -4.32966e-06 
-5.44016e-06 -4.01223e-06 -1.0961e-05 -3.74748e-06 -9.25525e-06 -3.61836e-06 -8.34964e-05 -7.66062e-05 -3.81318e-05 
-3.90537e-05 -3.96061e-05 -0.000102084 -0.000123899 -0.00012978 -0.000150819 -5.99326e-07 -0.000148396 -0.000146994 
-0.000151117 -0.000143361 -0.000127076 -0.000134914 -0.000212501 -0.000194947 0.00037048 -0.000145597 -9.90624e-06 
-1.68756e-05 -9.06199e-06 -0.000284926 -0.000274004 -0.000270904 -0.000279936 -0.000161598 -2.43774e-05 -1.60565e-05 
-3.9547e-05 -3.18515e-05 -1.58647e-05 -2.37873e-05 -4.70096e-05 -3.89168e-05 -3.84799e-05 -7.9528e-05 -7.71878e-05 
-4.14142e-06 -0.00012589 -0.000114502 -0.000111991 0.000257906 0.000404649 0.000302245 -0.000113017 -1.44395e-05 
-3.39676e-05 -6.55679e-05 8.90013e-06 -0.000170504 -0.000182448 -0.000161717 -0.000173799 -0.000150847 -0.000162634 
-0.000157554 -0.000145149 -0.000226614 -7.83675e-05 -9.27022e-05 -7.94196e-05 -9.43083e-05 -7.97638e-05 -0.000230536 
1.9147e-05 3.45793e-05 -7.58427e-05 -9.01018e-06 -0.000292239 -0.000278974 -0.000283601 -4.3068e-05 -4.24326e-05 
-8.59378e-05 -9.68297e-05 -5.52132e-05 -0.000105942 -1.51393e-05 -1.52495e-05 -1.5035e-05 -0.00013083 -2.28579e-05 
-4.59535e-05 -0.000111731 -2.44351e-05 -2.36763e-05 -2.36729e-05 5.61792e-05 3.92551e-07 6.87934e-07 -6.637e-05 
-8.17269e-05 -8.61189e-05 -7.31829e-05 0.000224997 -2.66814e-06 -3.50167e-06 -3.88316e-05 -7.626e-05 -6.92363e-05 
-7.02048e-05 -4.26559e-05 -6.35986e-05 -9.62611e-05 -3.20572e-05 2.11627e-05 -4.96846e-05 -3.98549e-05 -3.78036e-05 
-3.70095e-05 -3.13381e-05 -0.000229223 -0.000201774 -0.000235809 -0.000122914 -9.52103e-05 -0.000283881 -0.000127375 
-0.000102223 -1.60744e-05 -0.000105111 -0.000100252 -0.00015794 0.000504585 0.000595671 0.000568286 0.00046168 
-0.00021584 -0.000235209 -0.000212563 -3.3252e-05 -4.39207e-05 -7.38074e-05 -3.19035e-05 -0.000249585 -7.25464e-05 
0.000112772 -6.14097e-06 -0.00010755 -9.4968e-05 -1.54546e-05 -2.99296e-05 -1.50787e-05 -8.36688e-05 -9.50534e-05 
-3.69785e-05 -9.83189e-05 -9.0123e-05 -8.57737e-05 -3.8023e-05 -2.44908e-05 -1.30775e-05 -2.60211e-05 -1.31211e-05 
-0.000165656 -0.000192516 -0.000108494 -2.29252e-05 -4.70762e-05 1.18887e-06 -0.000263691 -0.000257258 -0.000243989 
-0.000239347 0.000454077 0.000396239 -0.000263199 -0.000253801 -0.000264093 -0.000275738 -0.000274451 -0.000188442 
-9.66813e-05 -1.53349e-05 -6.84186e-06 2.43165e-05 1.67038e-05 -2.48256e-06 -0.000267514 -0.000232965 -0.000174822 
-0.000161426 -0.000212926 -0.00021848 -0.00016913 -0.0001628 -0.000119453 -1.988e-05 -0.000272698 -0.000249545 
-6.29561e-05 -1.82294e-05 0.0003983 0.000258671 -8.62869e-05 -0.000521872 -6.94776e-06 -1.33252e-05 0.00043028 
0.00040328 -3.31879e-05 -7.53903e-05 -0.000102291 -0.000138213 -0.000221916 -0.000240334 -0.000218587 -3.29829e-05 
-6.66312e-05 -0.000151156 -0.000145164 -0.000103057 -0.00011726 -0.000148098 -0.000181075 -0.000127792 -0.000139321 
-0.000153546 -0.000142024 -9.16712e-05 -9.11409e-05 -2.66257e-05 -2.48044e-05 -0.0010648 -0.0014813 -0.000102874 
-0.000208583 -0.000236995 -0.00021245 -0.000240328 -0.0002114 -0.000115496 -4.62516e-05 -3.20415e-05 -0.000200216 
-0.000183631 -2.78456e-06 1.32327e-05 -0.000111173 -0.000118682 -0.000103414 -0.000244314 -0.000256112 -0.000252325 
1.85843e-05 -0.000136348 -0.000122341 -8.09993e-05 -3.19804e-05 -6.4095e-05 -4.83463e-05 -3.29317e-05 -0.000139592 
-0.000147102 -0.000132811 -0.000126246 -0.00028413 -0.000166243 -0.00015751 -4.81981e-05 -6.19909e-05 -6.48754e-05 
-2.35388e-05 -2.45598e-05 -2.75909e-05 -5.20154e-05 -0.000239692 -0.000255758 -5.16816e-05 -6.72469e-05 -4.95876e-05 
-0.000165728 -0.000155786 -0.000154593 -0.000119414 -0.000155603 -0.000161865 -5.57551e-05 -8.71527e-05 6.98791e-05 
6.13466e-05 -8.68874e-05 -6.84353e-05 -0.000241323 -0.000224894 -0.000259328 1.7353e-05 -6.03179e-06 -5.13391e-06 
-8.65189e-05 -8.56708e-05 0.000239469 -0.000287575 -0.000292735 -9.89173e-05 -5.15185e-05 -3.59565e-05 -4.22512e-05 
-0.000141643 -0.000144016 -0.000155207 -1.92639e-05 -1.03987e-05 -0.000282054 -0.000291878 -0.000302248 -0.000298986 
1.62143e-05 6.74257e-06 -0.00030154 -0.000293922 -0.000139245 -0.000113719 -9.94106e-05 -9.99061e-05 -0.000199199 
-0.000226248 -0.000248699 -0.000148915 -0.000162529 -0.000507448 -0.00118337 -0.00138446 -0.000143018 -0.000146752 
-0.000152389 -0.000128657 -0.000252193 -3.22341e-05 -4.58757e-05 -0.00013924 -0.000117957 -0.000167007 -0.000175266 
-0.00022319 -6.38819e-05 -6.0428e-05 -6.98089e-06 -1.23278e-05 -0.000117576 -0.000110295 -5.13659e-05 -3.57267e-05 
-6.72741e-05 0.000546672 -0.000192358 -0.000180024 -0.000175274 -0.0001887 -0.000242195 -0.000264702 -0.000242011 
-7.07772e-05 -0.000119405 -0.000123028 -9.23937e-05 -8.7863e-05 -6.92453e-06 -7.09546e-06 -0.000130017 -0.000166746 
-0.000195455 -0.00016808 -0.000159447 -2.74474e-05 -0.000104674 -0.000112758 -7.64094e-05 -7.18251e-05 -7.09855e-05 
-5.93e-05 -5.53288e-05 -6.00948e-05 0.000217467 0.000205842 8.11709e-05 -0.000205315 -0.000268795 -0.000272994 
-0.000122841 -0.000101212 -0.000156183 -0.000257056 -0.000236546 -0.000158816 -0.000182267 -6.56446e-05 -0.000105115 
-3.25965e-05 3.37107e-07 1.20256e-06 6.73341e-07 -7.02684e-05 -7.10095e-05 -9.04765e-05 -4.90772e-06 -5.62847e-06 
-0.000201385 -0.000182843 -0.000296171 -0.000305664 0.000374929 -7.65964e-05 -7.40524e-05 -5.71692e-05 -0.000190555 
-0.000173175 -0.000168948 -0.000186733 -5.57843e-05 -0.000228339 -5.85962e-06 -0.00010224 -2.09636e-05 -1.08261e-05 
-7.53e-05 -0.000139417 -0.00014017 -0.000117034 -0.000117689 -0.000125306 -3.34534e-06 -2.26142e-06 -2.55649e-06 
2.65736e-05 0.000220962 0.000113485 0.0002197 -0.000241977 2.09732e-05 -0.000179305 -0.000207437 -0.000200389 
-0.00021122 -0.000217604 -0.00021937 -0.00024242 -0.000220444 -0.000361372 -0.000200538 -0.000258438 -8.96912e-05 
-0.000185999 -0.000167209 -0.000143866 -5.40675e-05 -0.000173345 -0.00017221 -0.000162084 -9.67099e-05 -0.000262552 
-0.000250839 -0.00028214 -0.000260334 -0.000156916 -0.000291918 -0.000268901 -0.000273322 -0.000176171 -0.000157238 
-0.000192299 -3.33938e-05 5.23682e-05 -0.000225434 -0.00022427 -0.000257374 -0.000283162 -0.000122405 -0.000232479 
-0.000217521 -0.000225774 -0.000208889 -0.000224635 -0.000197355 -0.000201638 -0.000196111 -0.000179542 -9.70473e-05 
-8.61311e-05 -0.0001076 -0.000245056 -0.000243097 -5.45263e-05 -0.000109067 -0.000121918 -1.80621e-05 -1.76805e-05 
-1.72976e-05 -9.15543e-05 -0.000308566 -0.000300414 -0.000248752 -0.000172667 -0.000124252 -0.000277121 -0.000195104 
-0.00020733 -0.000206343 0.000385079 7.79604e-05 0.000449176 -6.96882e-05 -0.000129492 -0.000247695 -7.40735e-06 
-2.35896e-05 -1.4938e-05 -2.53273e-05 -3.49662e-05 -0.000131789 -0.000255519 -0.00028112 -8.74798e-05 0.000174629 
0.000157267 0.000171007 -5.96058e-06 -6.96568e-06 -0.000274166 -0.000223201 -0.000288896 -3.61736e-05 -0.000288581 
-2.18041e-05 -0.000139119 -0.000146205 -0.000219268 -5.63438e-05 -0.000119302 -0.000175989 -0.000192276 -0.00022466 
-0.000243868 -0.000214319 -0.000250448 -0.000100025 -0.000156652 -0.000166437 -0.000155669 6.6718e-05 -0.000218961 
-0.000232985 -0.000217744 -0.000131036 -0.000236967 -4.35024e-05 -4.39074e-05 -4.40828e-05 -9.8628e-05 -7.3917e-05 
-0.000124252 -0.000264149 -7.66858e-05 -2.22814e-05 -5.69055e-05 -0.000305462 -0.000307573 -0.000227562 -0.000241081 
-0.000305538 -0.000307033 -0.000307286 -0.000307724 0.000152387 -0.000193234 -0.000210968 -5.51305e-05 -7.11184e-05 
-0.000202676 -0.000207892 -6.70584e-06 -2.76513e-05 -3.33316e-05 -3.46966e-05 -5.54732e-05 -5.78421e-05 -5.7651e-05 
-0.000250758 -9.52233e-05 -4.05699e-05 -0.000184508 -0.000185147 1.90373e-05 0.000139136 0.000141876 0.000187884 
-0.000185963 -0.00019605 -0.000150106 -0.000100618 -5.39034e-06 -3.27565e-05 -0.000202044 -0.000198162 -0.000201122 
-9.67518e-05 -0.000155077 -0.000160676 -0.00228298 -0.000112474 -0.000124469 -0.000274303 -0.000107513 -0.00018793 
-0.000113918 -0.000140907 -0.000207823 -0.000226523 -0.000101358 -8.89501e-05 -7.10843e-05 -0.000171463 -5.43496e-05 
-0.00233966 -9.47128e-05 -0.000192773 -0.000239325 -0.000205959 -0.000221643 -0.000248045 -0.000253439 -0.000114444 
-8.2592e-05 -0.000109179 -4.0918e-05 -9.47798e-05 -0.000121971 -0.00013111 -0.0001402 -0.000141374 -0.000129703 
0.00034922 2.07668e-05 1.86391e-06 -6.04896e-05 -5.24874e-05 -0.000148251 -0.00019588 -0.00021531 -7.49772e-05 
-5.86807e-05 -7.67329e-05 -0.00013053 -0.00010804 -0.0001072 -0.000168488 -1.95657e-05 -0.000207065 -8.09695e-05 
-2.17988e-05 -0.000110077 -0.000102062 0.0002756 -0.000183029 -0.000198978 -0.000847777 -0.000553872 -0.000134017 
-0.000239774 -0.000166459 -2.81571e-05 -1.12366e-05 -1.19292e-05 -0.000195649 -4.00388e-05 -0.000146614 -0.000152514 
-3.22379e-05 -0.000294902 -1.71403e-05 -1.79222e-05 0.00010832 0.000110363 0.000132866 0.000129204 0.000115982 
-8.25277e-05 -8.98052e-05 -0.000283088 -0.000115932 -0.000115426 -9.56466e-05 1.76932e-05 -6.73605e-06 4.9915e-05 
0.000109178 -1.63944e-06 4.81848e-05 6.6362e-05 1.95291e-05 1.69546e-05 -0.000270522 -0.000264986 -0.000276746 
-0.000131651 -8.34633e-05 -8.86672e-05 -9.74989e-05 -8.93938e-05 -9.0152e-05 -3.99172e-06 9.75588e-07 -0.000150996 
-5.10882e-05 -7.42171e-05 -0.00011993 -9.10719e-05 -9.46509e-05 -9.62953e-05 -6.02017e-05 -9.37962e-05 -6.57821e-05 
-0.000176669 -0.000144132 -0.000103718 -2.46195e-05 -2.53445e-05 -0.000131184 -0.000130998 -0.000143422 -9.01746e-05 
-8.67769e-05 -0.000272117 -0.000169573 -4.54822e-05 -4.46604e-05 -8.75677e-06 -8.58917e-06 -3.72745e-05 -0.00019922 
-1.62375e-05 -1.66608e-05 0.000150792 -0.000163218 -0.000271911 -2.65664e-05 0.000106167 9.85477e-05 6.28664e-05 
-0.000117566 -0.000138446 -0.000109699 -0.000261231 -0.000100814 -0.000101568 -0.000307075 -0.000303862 8.18835e-05 
-4.62576e-05 -4.20348e-05 -6.59849e-06 1.16511e-05 -6.02392e-05 -5.4445e-05 4.85276e-06 -0.000218109 -6.26274e-05 
-6.19949e-05 -1.73091e-05 -0.000289603 -0.000281463 3.23895e-05 1.64558e-05 -3.4834e-05 -0.000220079 -0.000120525 
-5.46969e-05 -0.000129734 -0.000123105 -0.000285776 -6.37797e-05 3.74902e-05 2.64211e-05 -8.79805e-05 -0.00020808 
-0.000209128 -0.000204748 -0.000188756 -0.000154648 -0.000164161 -5.62638e-05 -4.70268e-05 -6.29386e-05 -0.000183851 
-0.000167224 -8.08092e-05 -0.000145942 -0.000234531 -2.86468e-05 -7.71148e-05 -1.16824e-05 -0.000124413 -0.000336065 
-0.000222814 -8.11425e-05 -3.8816e-05 -2.36094e-05 -8.47539e-06 1.63462e-05 0.000107529 9.27317e-05 0.00013957 
-1.74848e-05 -9.15002e-05 -9.09729e-05 0.000101966 -6.85732e-05 -2.942e-05 -0.000123716 3.21352e-05 2.18288e-05 
-0.000195179 -1.65668e-05 -0.000298834 9.34967e-05 0.000102889 0.000103935 -3.70946e-05 0.000130509 0.000168918 
-4.3862e-05 -0.000219041 -0.00037012 -0.000152412 -0.000146604 -0.000159345 -0.000158306 -0.000169398 -0.000298632 
-0.000297373 -0.000282402 -0.000287425 -8.51718e-05 -0.00015335 -0.00281519 -0.00137031 -0.0016851 -0.00029654 
-4.97104e-05 -0.000105499 -5.99124e-05 -4.91634e-05 -3.15145e-05 -4.24035e-05 0.000240299 0.000150944 -7.89086e-05 
-7.92622e-05 -2.1362e-05 6.9679e-05 0.000248428 -8.39719e-05 -6.49855e-05 -0.000213782 -0.000114159 -0.000225028 
-0.0034418 -0.00238811 -0.000172743 -1.11913e-05 -4.59715e-05 -3.66468e-05 -9.67303e-05 -0.000287689 -0.000193099 
-2.44912e-05 -2.51287e-05 -7.2429e-05 -4.84514e-05 -0.000930456 -5.13854e-06 -2.83709e-05 -0.000192112 -6.8248e-05 
-7.45334e-05 -9.89311e-05 5.6757e-05 9.3837e-05 -4.93254e-05 -7.67501e-06 -3.85718e-05 -0.000198287 -0.00135431 
-3.10786e-05 0.000120729 -1.10382e-05 -1.31001e-05 7.93003e-06 -0.000196671 -0.000144911 -0.000203973 -6.87452e-05 
-0.00010587 0.000113942 -4.02166e-05 -0.000247363 -0.000168474 9.16354e-06 8.60882e-05 7.65854e-05 -5.78905e-05 
-2.22541e-05 -3.80319e-05 -0.000217588 -0.000286069 0.000325089 5.62378e-05 -0.000159663 -0.000223718 -8.82064e-05 
-8.61715e-05 -2.15193e-05 -2.19723e-05 -0.000149865 -8.82864e-05 -3.83941e-05 -0.000148507 -0.000149473 -5.2903e-05 
-0.000268042 -0.000262737 -6.33043e-05 -0.00207671 6.53964e-05 -8.87111e-05 -1.07337e-05 -2.21709e-05 -1.95831e-05 
-5.89119e-05 -5.95723e-05 -6.1529e-05 -4.58883e-07 6.62202e-07 -7.06363e-05 -7.13396e-05 -2.30905e-05 -0.000154235 
-5.14652e-05 -6.29206e-05 -0.000142479 -0.000149302 -0.000117531 0.000228783 0.000184173 -0.000250371 
Strain%20xz%20component 1 3545 double
0.00124655 -9.56539e-06 5.51519e-07 -0.000331218 -2.18283e-07 -1.66643e-07 -2.56817e-06 8.94064e-08 6.22018e-08 
-8.14155e-07 0.000173424 0.000165896 -0.000134981 -3.18482e-05 0.000828271 0.000510269 5.96107e-05 -4.28106e-05 
-1.51098e-05 -1.14904e-05 0.000368988 1.77475e-05 2.54033e-05 1.0961e-05 -4.63915e-07 1.02979e-07 1.27511e-07 
2.18377e-08 9.239e-09 0.000632491 6.89512e-05 -0.000147995 -0.000320481 5.89657e-05 0.000100871 3.85139e-05 
3.04898e-06 4.20907e-06 3.51484e-07 7.64694e-07 1.36079e-06 9.70381e-07 1.16195e-06 1.02479e-06 6.47121e-07 
5.97479e-07 3.41223e-07 -1.9618e-07 -8.93501e-07 2.76876e-05 5.5332e-06 -0.000221015 -0.000292316 0.000124313 
5.92052e-05 1.68371e-05 3.06074e-06 2.41336e-06 2.04497e-07 9.3247e-07 1.34198e-06 9.98841e-07 1.15515e-06 
1.36161e-06 8.06743e-07 8.83504e-07 6.33981e-08 -4.34888e-07 -6.97627e-07 -1.96816e-07 -1.13421e-07 2.5645e-08 
-3.40081e-07 -2.07769e-07 2.91311e-07 2.56694e-09 4.56621e-08 -5.33857e-08 -1.6616e-07 -9.66868e-08 -3.58916e-07 
-1.22182e-07 -4.7735e-07 1.11169e-07 -4.19694e-08 5.33063e-07 -2.73406e-07 -1.17215e-07 -9.38557e-07 2.51096e-07 
-1.21997e-07 -4.04055e-07 2.93433e-07 -9.37857e-08 -7.07595e-08 -1.03574e-08 6.0285e-08 6.34853e-08 2.75795e-08 
6.11341e-08 3.79984e-08 -8.9831e-08 -6.33414e-06 -1.4032e-06 -1.69036e-06 -3.40911e-07 -1.7002e-07 3.96722e-09 
1.21891e-08 3.6354e-07 5.97896e-08 -1.43889e-07 -1.85247e-08 -2.79351e-07 2.10382e-07 -1.8368e-07 -2.35746e-07 
-1.10807e-06 -1.93654e-06 -6.4148e-07 2.22955e-06 -3.60168e-05 -0.000111078 0.00104457 1.36403e-06 -1.15335e-05 
-1.41154e-06 1.91579e-06 -1.71143e-05 -9.95254e-05 4.70015e-05 0.0013374 3.98062e-05 -1.64115e-05 -0.000132751 
2.88803e-05 5.06833e-05 -7.24924e-06 1.03086e-05 2.66492e-06 -1.56053e-06 -6.16992e-08 2.15678e-07 4.12008e-07 
6.00223e-08 9.70276e-08 4.08536e-07 1.0505e-07 -8.47473e-09 1.80243e-07 -2.87384e-08 1.60382e-05 3.67673e-06 
-2.96571e-05 7.57413e-06 4.30821e-06 3.17077e-05 -1.36174e-06 5.77213e-06 8.51677e-07 1.68121e-07 9.5169e-08 
6.29176e-08 3.33169e-08 -7.31955e-08 -9.76192e-09 1.12179e-07 -3.97719e-07 3.21655e-07 -1.39438e-07 3.87632e-08 
-4.62556e-08 -7.91056e-09 1.14969e-07 8.43615e-08 -1.24561e-07 -1.82399e-07 1.57227e-07 -2.18539e-07 -1.50164e-07 
-6.84841e-08 6.16282e-08 2.91946e-07 3.6742e-07 -8.17173e-08 1.83488e-07 -2.15607e-08 -2.95602e-08 -3.96837e-07 
1.39646e-08 -1.29933e-08 -1.01881e-06 3.36418e-07 9.02221e-07 5.95546e-07 -5.36579e-07 3.89399e-07 1.76624e-07 
7.71583e-08 -6.96558e-08 -2.64221e-08 -1.66177e-08 -6.19674e-09 -5.67905e-09 -1.29896e-07 3.0701e-06 3.14563e-06 
1.38957e-06 6.0714e-07 2.64917e-07 9.99984e-08 8.22479e-08 -1.75432e-07 -8.96495e-09 1.76861e-07 1.14412e-07 
2.55154e-07 -1.85984e-07 3.20262e-07 3.59353e-08 4.40265e-06 -2.20095e-06 1.55484e-06 5.9049e-06 -6.87521e-06 
-2.79469e-05 0.000347721 4.19075e-06 7.54433e-06 3.47475e-07 -4.90841e-07 3.49015e-06 -3.01611e-05 0.00054138 
-0.000311465 -5.10837e-07 -2.76785e-08 -1.51918e-05 0.000644113 0.000351075 -2.70297e-05 -4.75339e-05 0.000989764 
0.000394721 0.000503231 -8.46962e-06 -1.3066e-05 -3.84861e-06 -1.33917e-05 0.00048827 0.00037446 0.000192015 
0.000272173 0.000417393 -9.60624e-05 2.18038e-07 -5.48569e-05 0.000221235 1.25697e-05 -4.81426e-05 -5.57294e-05 
-2.22009e-05 -3.27124e-05 -2.33153e-05 2.10616e-06 -1.64152e-05 -2.43013e-08 -1.77458e-07 -8.81188e-06 2.51955e-08 
-1.63358e-08 1.16692e-07 8.40031e-08 0.000176746 1.29362e-07 -7.67163e-08 -9.62872e-08 6.17433e-08 -9.46228e-08 
5.8669e-07 3.0466e-08 -4.13001e-08 7.21318e-09 -1.51547e-08 1.66779e-06 -2.68643e-05 1.47611e-08 7.07449e-08 
1.86197e-08 -4.58943e-08 2.60245e-07 -1.30443e-05 -9.98409e-08 -9.38782e-08 -1.20355e-08 -1.15879e-09 -0.00019754 
1.24577e-07 8.9233e-09 -6.19785e-08 -1.69173e-09 0.000322549 -2.00387e-08 5.18971e-08 4.6365e-07 -1.53127e-06 
-8.23955e-09 -4.05738e-07 -1.28593e-08 9.3112e-08 -1.50195e-06 0.000120254 -3.12455e-09 -1.12606e-08 -6.12366e-08 
5.13603e-09 1.06087e-08 3.00936e-08 -1.82302e-07 -1.46396e-06 -4.92226e-08 -1.19008e-05 -7.06379e-06 6.4793e-06 
-6.57374e-08 1.34322e-07 8.36499e-08 3.61211e-08 -2.85835e-08 -2.60414e-06 3.61161e-08 -1.9605e-05 1.05247e-07 
-0.000146496 -2.04948e-08 1.08173e-08 1.2025e-07 1.60443e-08 -1.15132e-08 -9.3288e-08 3.25887e-08 -9.92741e-08 
1.10491e-08 -1.25367e-05 -3.11923e-07 2.97882e-08 -8.13301e-08 -1.12913e-07 -1.47786e-07 -7.29073e-08 3.41682e-08 
-1.19986e-07 1.64965e-07 1.7906e-08 -1.46746e-07 7.12318e-08 -1.79153e-08 -9.15579e-08 -9.02288e-09 2.48161e-08 
8.21693e-09 -6.51168e-09 7.6136e-08 1.95728e-08 4.12718e-08 0.00015749 -7.48567e-05 -2.09773e-06 -3.11481e-08 
-6.27625e-08 -3.00514e-07 6.53821e-09 4.29353e-06 5.57072e-08 2.88182e-07 -7.61958e-08 1.79419e-07 -9.35737e-09 
-6.29531e-08 4.05103e-05 5.77601e-06 4.34383e-08 -3.7592e-05 -7.488e-08 -1.25952e-05 -1.38614e-06 -4.20221e-08 
7.51021e-08 -2.89652e-08 0.000215634 0.000202158 -5.34171e-06 -3.27215e-09 5.75575e-09 -4.1438e-09 0.000460419 
2.05079e-08 -1.09794e-07 3.05449e-07 -3.26081e-06 6.4512e-07 2.55422e-08 3.22522e-08 1.49348e-07 4.68561e-07 
4.60208e-05 -1.32949e-08 1.40431e-08 1.38132e-07 -3.10157e-07 -1.25321e-07 8.86943e-09 -0.000128756 -9.20465e-08 
-0.000144909 -3.45886e-06 -2.44257e-09 0.000159297 -5.22338e-08 -2.52364e-07 -1.02259e-08 1.76736e-07 -1.61021e-07 
-3.06748e-09 -7.99714e-06 1.37262e-08 -2.17451e-06 3.60543e-07 -1.88665e-08 -3.5392e-07 -1.38854e-05 -2.05211e-06 
5.00518e-08 -9.54228e-08 2.59006e-07 -5.6064e-05 4.24079e-08 -5.88423e-08 -9.41072e-08 6.6156e-08 -7.08197e-06 
8.87288e-09 2.53109e-08 1.2406e-07 -4.80249e-08 9.43554e-08 1.0161e-07 -2.54821e-07 -2.88267e-07 -5.3781e-08 
-6.03838e-05 5.6062e-07 -5.60279e-07 -3.23706e-08 -4.74843e-05 8.75583e-05 4.86968e-08 -3.75629e-08 3.27047e-07 
-1.38659e-06 1.61464e-07 4.96274e-08 -7.42758e-08 1.37843e-07 -7.93926e-08 5.74088e-07 4.31487e-08 -1.02363e-07 
1.35393e-07 -1.19755e-08 -1.48781e-07 6.72442e-08 9.15745e-08 0.000137138 6.59051e-05 0.00020527 -2.79546e-05 
-1.25263e-05 3.54985e-05 -2.70908e-07 2.94351e-07 -7.23097e-07 -1.63717e-07 4.13415e-08 -8.9274e-08 7.54886e-07 
-5.63068e-06 1.63377e-06 -2.95948e-05 -4.94501e-05 -4.61443e-06 0.00012474 -0.000122034 -0.000126389 -0.00010165 
4.64435e-06 -0.000254516 -9.95448e-05 5.54433e-07 -2.67989e-06 -5.88388e-07 4.498e-07 -1.23609e-06 -1.60967e-06 
-6.173e-07 -1.67581e-07 -1.939e-07 -9.66253e-08 9.03421e-07 4.67547e-08 3.72458e-07 1.61546e-06 2.64251e-07 
-1.44813e-07 -1.14664e-06 -8.47025e-09 1.16354e-08 8.74568e-07 -3.73376e-08 -2.402e-07 1.27201e-07 -1.08946e-07 
1.39364e-07 5.17115e-07 2.25381e-08 3.50053e-08 -3.91131e-07 -6.18693e-08 6.17389e-08 -1.20164e-08 -8.72778e-08 
1.26299e-07 -2.09323e-07 -2.58461e-07 1.38786e-07 9.55573e-09 -1.48156e-08 -4.50619e-08 -1.67734e-07 6.1445e-08 
-1.60579e-07 -1.65912e-07 4.02766e-07 -2.29249e-06 3.9775e-06 -5.53084e-06 -1.37382e-06 -4.65497e-07 -4.62441e-07 
-2.25384e-06 -1.03963e-06 4.72979e-06 8.00545e-07 8.34021e-06 -1.0792e-05 4.95146e-06 -4.46767e-05 -8.62732e-05 
-2.74629e-05 0.000137762 0.000646463 -1.65674e-05 0.000581016 1.29114e-07 -2.82053e-07 -3.26676e-07 1.15057e-07 
-8.53853e-08 3.05736e-07 -9.98716e-08 2.72628e-07 -6.52855e-10 -1.09691e-07 -1.59408e-08 -2.94692e-08 -2.44252e-07 
3.04223e-07 3.02257e-07 -2.26387e-07 -1.35304e-07 9.6533e-08 9.46978e-08 4.44387e-08 8.95063e-08 -3.04376e-07 
4.75142e-09 2.36165e-08 -8.08125e-08 -3.75458e-08 2.82501e-07 -5.10445e-07 2.90907e-08 4.36213e-05 -8.07392e-05 
-4.29843e-05 -7.87857e-05 -0.000121773 -0.000100259 -0.000196481 1.90477e-05 -7.70942e-05 6.27104e-05 8.58536e-05 
0.000191755 0.00012734 9.86696e-05 2.25723e-05 -5.658e-06 2.60742e-05 2.72557e-05 5.26625e-06 -1.52895e-05 
1.5281e-06 2.46947e-06 -1.2677e-05 -9.52595e-06 -2.79843e-06 -1.08383e-06 -3.48585e-07 -2.00594e-07 -4.79444e-06 
4.99311e-07 3.45453e-07 -7.67746e-07 -2.35656e-07 -8.82929e-07 6.73062e-07 3.49679e-07 -3.85223e-07 4.24878e-07 
7.6919e-07 -3.15082e-07 -6.93582e-08 -1.16834e-08 -9.56847e-08 1.0545e-07 -6.33445e-07 4.58847e-07 3.98712e-07 
-8.31208e-08 3.48611e-07 1.78555e-07 8.41359e-08 4.97426e-08 9.70047e-08 -3.05261e-07 -1.49993e-07 2.89172e-07 
-5.63486e-07 1.75292e-07 5.64543e-08 -3.27686e-07 -1.28332e-07 2.97569e-07 7.00198e-07 5.20868e-07 1.54211e-07 
6.51694e-07 4.92994e-07 2.45503e-07 -5.00167e-08 1.69086e-07 -2.27805e-08 2.12719e-07 -6.95563e-07 -4.58866e-07 
-4.60562e-07 4.00958e-08 -4.63242e-08 1.88961e-07 1.13439e-07 2.28448e-08 -3.20343e-07 6.93505e-08 -5.40179e-07 
9.55807e-08 -3.36765e-07 2.42197e-07 -3.64791e-07 2.11255e-07 -3.47131e-07 -7.33697e-07 2.66526e-07 -3.75438e-06 
-5.57781e-06 -1.34177e-05 -3.61619e-08 -5.05485e-06 -1.08579e-05 -1.10734e-05 -1.70173e-05 -1.89846e-05 -2.35409e-05 
-1.94571e-05 -1.14147e-05 -1.76541e-07 -1.7656e-07 -6.54933e-07 -1.87375e-07 -2.09655e-08 3.20772e-07 2.06908e-07 
2.35914e-07 -4.50851e-07 1.26175e-07 3.60669e-08 2.77108e-07 -7.87067e-08 -5.58847e-07 -4.01565e-08 2.88111e-08 
4.86469e-07 -1.08857e-07 -5.25385e-07 -4.00166e-07 1.50656e-07 2.5588e-07 -7.97051e-08 -1.86092e-07 -8.92525e-09 
9.52576e-08 1.92542e-07 5.99874e-09 9.8914e-08 9.17205e-08 1.58405e-07 4.1572e-08 -5.81397e-08 1.36542e-07 
1.08989e-07 9.66742e-08 -5.35252e-08 2.76433e-08 4.98746e-08 3.22129e-09 -1.69833e-07 6.63802e-08 1.21347e-07 
4.38443e-09 -1.27663e-07 6.44155e-08 1.13751e-07 -2.23818e-07 6.06149e-08 1.24082e-08 8.5858e-05 1.78441e-05 
7.75951e-05 -1.21806e-05 8.63037e-05 6.95131e-05 3.70543e-05 7.11879e-05 0.000215192 0.000147152 0.000228924 
0.000118952 -1.59273e-06 -8.04405e-07 6.17088e-07 -2.39968e-07 -2.90673e-07 -6.56422e-07 -1.37102e-06 -6.51899e-07 
4.49296e-07 -4.32699e-08 -1.47049e-06 -2.41916e-06 -1.81932e-07 -1.25587e-07 -3.62162e-07 5.66169e-08 -2.88286e-07 
-1.72365e-07 -7.49857e-07 1.67199e-07 -5.87911e-07 -4.3178e-06 -3.25826e-07 -7.52737e-07 -1.025e-07 -1.60269e-07 
-6.61717e-08 1.52609e-08 1.41526e-07 -1.61098e-07 -3.06172e-07 -2.45067e-07 1.27834e-08 -7.72503e-08 2.10541e-08 
4.67012e-08 -8.02955e-08 1.77587e-09 9.22509e-10 -2.47787e-07 -1.45206e-07 -3.95451e-07 -1.77015e-07 -2.95811e-08 
-1.22493e-07 9.16364e-08 -6.71782e-07 -2.68772e-07 -5.58033e-07 -2.39725e-07 4.00096e-09 -6.05818e-07 -3.98653e-08 
-7.56581e-08 8.41698e-08 3.78588e-07 1.9668e-07 -1.43423e-07 1.47099e-07 1.09332e-07 8.44424e-07 6.58199e-07 
-5.96671e-07 1.42517e-06 -6.93663e-08 2.40078e-07 2.7299e-07 1.59224e-07 -2.70945e-07 -3.7483e-07 -1.18565e-07 
-7.65085e-08 -1.25738e-07 5.37266e-08 -9.35395e-08 6.53063e-09 -2.73029e-08 2.68548e-07 -9.83291e-09 -5.14434e-08 
-9.75837e-08 5.01842e-07 -1.00983e-07 3.88495e-07 -2.01733e-07 1.33088e-07 5.9661e-08 1.37394e-08 2.73827e-07 
-1.66117e-07 3.23115e-08 -1.36829e-07 2.27987e-07 -5.28965e-07 5.94909e-08 -7.11937e-08 -4.55956e-07 1.45974e-08 
-2.88229e-07 -7.70926e-08 -2.62383e-07 -1.24801e-07 -1.18705e-08 -1.14135e-07 -1.05377e-07 -1.7421e-08 -7.53049e-07 
-5.99178e-07 -1.1803e-07 -3.75799e-07 -1.44774e-07 -8.51467e-08 2.43755e-07 -1.51977e-05 -2.35804e-06 -7.95618e-06 
-1.0387e-05 -1.61393e-05 -6.25141e-06 -1.70255e-05 0.000107693 5.75574e-05 9.03208e-05 -1.99043e-05 -2.86388e-05 
-1.62164e-05 -2.70155e-05 1.21348e-05 -3.57464e-05 -1.36243e-05 -3.94187e-05 -2.30773e-05 -7.08127e-06 -2.27779e-05 
-1.23731e-05 1.64094e-07 9.35355e-08 9.86506e-08 -1.1437e-07 4.42938e-08 -3.30021e-07 1.18525e-07 8.82017e-08 
1.18638e-07 2.668e-07 -7.01372e-08 -2.99319e-08 -2.27098e-07 -5.58191e-08 -2.20075e-07 -2.7267e-07 -2.87345e-08 
2.02799e-08 3.57122e-07 -5.61307e-09 8.74367e-08 5.58516e-08 -3.99926e-07 1.39265e-07 -6.89465e-09 1.54739e-07 
-1.15124e-07 3.30191e-08 1.80754e-07 9.56318e-08 1.39927e-07 -3.91709e-08 -2.60123e-07 -1.00312e-07 -1.18741e-07 
9.63237e-08 -7.48212e-09 1.78302e-08 -7.35276e-08 5.19922e-08 3.5049e-08 1.37066e-07 2.43169e-08 9.81949e-08 
-5.48188e-07 6.05126e-07 1.33477e-07 -1.17855e-07 -1.65653e-07 -5.61325e-07 -1.48529e-07 8.64273e-07 2.92497e-07 
-6.10939e-07 -1.02995e-05 -1.42869e-05 -1.01015e-05 -7.1858e-06 7.74548e-07 -6.24687e-07 -2.11078e-05 -7.1264e-06 
-3.52207e-07 -1.49012e-07 -2.68414e-07 2.28671e-07 -7.25642e-08 9.72695e-08 -1.7577e-07 -8.445e-09 -2.96199e-07 
-6.02903e-07 -1.20633e-07 -2.52492e-07 1.15079e-07 -8.35549e-08 -5.95782e-08 2.70152e-07 -1.70063e-07 -5.32769e-07 
5.76076e-08 1.91667e-07 2.49845e-07 1.85937e-07 1.48351e-07 1.01521e-07 5.28661e-08 -2.72149e-07 1.36178e-08 
5.35739e-08 8.1378e-08 1.54131e-07 -1.35704e-08 7.9346e-08 6.82343e-08 -7.41308e-09 -4.86792e-08 -1.70464e-07 
1.34306e-07 2.72226e-07 -3.77713e-05 -1.42548e-05 -0.00017096 -0.000214606 -0.000138411 2.33718e-06 -0.000136812 
-0.000155044 -0.00015645 -3.43335e-08 -3.7135e-08 3.76354e-07 -4.25288e-07 -6.98695e-08 2.1399e-07 -2.77859e-07 
2.97103e-07 1.32381e-07 1.86033e-07 -6.21582e-08 -1.04781e-07 -1.96311e-07 5.22188e-08 5.35874e-08 -6.98599e-08 
1.1697e-07 1.62288e-07 1.62897e-07 6.03284e-08 7.66661e-08 -1.08924e-07 -2.84712e-07 1.44322e-07 -1.56913e-07 
3.3851e-07 1.57733e-07 3.47728e-07 -2.29981e-07 0.000261403 3.49486e-05 0.000109945 2.11807e-06 0.000144024 
0.000124923 -8.84473e-05 9.3492e-05 0.000620439 -4.374e-08 -3.09403e-07 -5.19547e-07 -6.00422e-07 6.78509e-08 
-1.00344e-07 -1.64564e-07 -2.8614e-07 -3.10416e-07 -1.05417e-07 -2.69725e-08 1.46967e-07 2.99911e-07 -3.44071e-07 
-6.81228e-07 1.59961e-07 -8.9711e-07 -4.6873e-07 -3.74603e-07 -8.24173e-07 -2.70841e-07 7.01757e-07 -2.00514e-07 
-3.68675e-07 -1.21989e-06 -1.56014e-06 -1.55521e-06 6.29715e-07 -1.97784e-06 4.84627e-07 -2.96169e-06 -9.73114e-08 
2.10989e-07 -6.11144e-07 -7.33293e-07 -4.71557e-07 8.15238e-07 -4.3258e-07 -1.58569e-06 -6.7944e-07 -8.26701e-07 
-1.1406e-06 -1.47092e-06 -3.6899e-07 1.63905e-07 4.06904e-07 3.46627e-07 -2.04602e-07 -8.38894e-08 2.70111e-07 
1.81513e-07 6.47486e-08 -1.01478e-07 1.82293e-07 1.38927e-07 3.1879e-07 2.01311e-07 -2.54387e-07 -5.45721e-07 
-1.56555e-06 -3.01925e-06 -1.49262e-06 -3.23887e-06 1.31969e-05 0.000144152 1.41736e-05 0.000137943 -1.06677e-05 
-1.99052e-07 -7.82385e-08 4.77329e-07 -3.38236e-07 1.24162e-09 1.01477e-08 -3.03718e-08 -1.02045e-07 -9.70334e-08 
1.13584e-06 -1.38508e-06 8.48762e-08 -2.30612e-06 -1.51527e-07 -4.80318e-07 6.98301e-08 -1.29038e-07 2.09615e-08 
-4.0759e-08 2.30715e-07 2.3385e-07 -1.76952e-08 3.33386e-07 -9.08289e-07 -8.73713e-08 4.12144e-07 3.85486e-07 
-3.91271e-08 4.06567e-07 2.69711e-07 -5.9163e-06 1.53648e-07 1.69011e-08 2.26159e-08 1.99514e-07 3.4696e-08 
1.24042e-07 -4.7568e-08 -4.12502e-06 7.5322e-07 -7.88978e-08 3.64067e-07 3.70749e-05 -5.77536e-07 3.29295e-05 
-0.00021739 -0.000141921 0.000130926 4.00372e-05 9.89405e-06 2.42948e-05 1.71128e-06 6.25415e-09 1.01909e-06 
1.19183e-06 9.88058e-07 6.59579e-07 7.02899e-07 6.61042e-07 2.82074e-07 1.61373e-07 -3.89013e-07 1.89512e-05 
1.8822e-05 5.25616e-05 3.598e-05 -3.30057e-07 -3.54287e-07 -7.50997e-07 -3.59103e-07 -5.07553e-05 4.39705e-05 
5.85871e-05 5.43838e-05 -0.000222489 -0.000177734 -5.3189e-07 -0.000113031 -0.000160911 -7.40261e-05 -0.000230277 
-0.000221968 -0.000302009 -0.00014961 0.000143904 0.000132055 -3.53462e-05 5.44514e-05 5.90745e-05 3.73293e-05 
5.02776e-05 8.92478e-05 7.35693e-05 9.13431e-05 1.80352e-05 3.03168e-05 1.82966e-05 2.14073e-05 1.28822e-05 
5.78614e-06 2.41342e-06 1.33948e-05 8.32151e-06 1.38852e-05 1.80194e-06 3.75145e-06 6.69716e-06 3.48519e-06 
2.38425e-06 8.80768e-07 -2.61024e-07 -8.67704e-07 -2.184e-07 2.76106e-07 1.40945e-06 6.70589e-07 -2.60329e-07 
4.53709e-07 4.80404e-07 1.26645e-06 1.31107e-06 2.66019e-07 8.73808e-07 7.13389e-07 1.03234e-06 1.27753e-06 
8.17158e-07 1.10281e-06 6.24024e-07 8.56849e-07 1.18579e-06 8.95739e-07 7.33168e-07 1.59613e-07 5.96032e-07 
9.91616e-07 3.82621e-07 6.66465e-07 4.5444e-07 4.11724e-07 6.69201e-07 6.13929e-07 5.02311e-07 5.77561e-07 
3.49883e-07 9.23992e-07 7.32688e-07 5.2452e-07 -3.11544e-07 -4.89162e-07 2.77114e-07 1.70389e-07 1.16866e-07 
-1.07162e-07 -7.51298e-07 -3.57721e-08 5.67558e-07 -1.95156e-08 -3.04791e-07 -5.3029e-07 -1.54735e-07 -1.1207e-07 
1.06245e-07 -1.79201e-06 -4.36322e-08 -9.39925e-08 -2.06977e-08 -1.11055e-07 2.17608e-05 -1.59022e-08 4.01697e-07 
7.90704e-08 4.28009e-09 1.76068e-07 -2.95166e-07 -2.01489e-08 -9.77159e-09 -2.31228e-08 -1.14933e-07 1.29325e-05 
-5.96553e-06 3.09816e-09 -1.91664e-07 1.57678e-08 -1.87488e-08 5.71899e-07 -5.49089e-07 1.3556e-07 9.91416e-08 
-5.4111e-08 -3.16556e-08 -1.07104e-05 6.62148e-08 -4.45106e-08 1.50776e-07 2.30447e-08 3.468e-05 1.08438e-07 
-1.70692e-07 -6.10526e-07 5.55505e-07 7.9998e-09 -1.873e-06 -1.1555e-07 -1.19413e-07 -1.65349e-07 -2.98913e-05 
8.76679e-08 6.43257e-09 -4.02354e-08 -1.12006e-06 -6.26395e-08 -1.03378e-07 1.76947e-07 -1.24179e-06 3.87008e-07 
-2.6687e-05 -4.2584e-06 -6.67482e-05 1.03035e-09 -1.61239e-07 -1.66897e-07 9.68113e-08 -7.30292e-08 -7.34475e-07 
1.21126e-07 -3.06919e-05 1.81886e-07 -8.61029e-05 -1.57758e-07 4.7031e-08 -4.45586e-08 -1.24796e-09 4.54261e-08 
-1.20904e-06 1.16756e-08 -5.08477e-09 8.86401e-08 1.47993e-06 3.42843e-07 -1.98372e-07 -1.47768e-07 -3.89695e-08 
9.21756e-08 6.28618e-08 1.85736e-08 6.92379e-07 -1.13037e-07 -9.85817e-08 1.0982e-07 -2.4476e-07 1.59456e-08 
1.31575e-07 3.08289e-08 4.64362e-09 -4.4671e-08 4.63188e-08 -5.74074e-08 5.37553e-09 -9.85188e-09 -5.94547e-06 
4.63978e-05 -4.59953e-06 1.20863e-07 6.42132e-08 3.39165e-07 -1.12341e-08 -5.92333e-06 -4.20903e-08 -2.49483e-07 
2.74864e-07 -6.69621e-07 8.19601e-08 9.52797e-08 -8.18729e-06 2.02607e-06 -6.92997e-08 -2.4128e-05 -1.08315e-07 
-4.09029e-06 -4.58644e-07 2.93297e-09 -5.86278e-09 4.0877e-08 -6.41229e-05 -0.000117679 1.95562e-06 -1.44418e-07 
1.30243e-08 -8.17255e-08 -6.93089e-05 1.81722e-08 2.79522e-07 -4.2683e-07 -1.24579e-06 5.76885e-07 -4.84024e-08 
2.70817e-08 -2.3684e-08 -1.18068e-06 1.82737e-05 5.16072e-08 -4.26643e-08 4.25996e-08 2.5355e-07 -7.54863e-09 
-4.38176e-08 0.000245385 7.3491e-08 -2.32784e-05 -9.38641e-07 8.92301e-09 3.61791e-05 5.23922e-09 9.74394e-08 
-1.77697e-08 -2.35535e-07 1.45832e-07 1.13025e-07 -4.89991e-06 1.67286e-07 -2.36654e-06 -1.8215e-07 7.39584e-08 
-1.76764e-07 -4.36967e-07 -3.71249e-07 -1.36759e-08 -6.50188e-08 4.70721e-08 -6.93097e-06 -1.02552e-08 -5.7478e-09 
1.82798e-07 -1.93287e-07 -1.3061e-06 8.92368e-08 -2.52145e-08 -7.29664e-08 -6.38333e-10 2.57469e-08 -1.08145e-07 
1.13874e-07 1.14697e-06 2.22191e-08 9.32095e-05 1.16733e-06 -3.48222e-07 -1.48626e-07 -1.37626e-05 -4.40542e-06 
2.9533e-08 -1.10545e-08 -3.95352e-07 -6.41552e-07 4.56573e-08 -8.03252e-08 8.60148e-09 2.96961e-08 6.18083e-08 
-3.51658e-07 -2.98472e-08 5.68399e-08 -2.06376e-07 -6.41101e-08 -2.41315e-08 -9.20892e-08 -1.47676e-07 -1.5142e-05 
1.69811e-06 1.71144e-06 -0.000443052 -0.000121539 0.000216591 -2.4413e-07 1.56386e-07 8.86878e-08 8.16767e-08 
7.26442e-09 -2.20398e-07 4.44202e-07 9.27884e-07 -1.66321e-06 -6.33544e-07 -2.08913e-06 -5.35088e-06 4.96833e-06 
-7.59496e-06 1.79166e-07 5.50621e-06 -1.7251e-06 -1.64526e-06 2.21374e-06 -2.27595e-06 -1.5244e-06 -4.54631e-06 
-7.8047e-06 -2.73234e-06 -1.87522e-06 1.21172e-06 0.000372178 -8.74652e-06 -3.23641e-05 -8.64903e-05 3.85853e-08 
-1.45685e-07 -1.80907e-07 -1.03727e-08 6.98053e-08 1.76033e-08 -2.35796e-07 -1.35163e-07 -2.22386e-08 -1.39415e-07 
-2.48275e-08 2.92321e-07 -4.89463e-08 1.36202e-07 1.89646e-07 -1.32371e-07 -1.89541e-07 1.65493e-07 -1.52562e-07 
3.14803e-07 2.23626e-07 -2.77999e-08 2.51701e-07 8.41584e-08 1.23357e-07 1.89998e-07 4.44702e-07 -1.46075e-07 
-9.94837e-08 0.000161556 0.000158912 6.1707e-05 -3.96891e-05 -8.14622e-05 0.000150923 -1.56691e-05 1.27862e-05 
-5.75954e-05 -2.59962e-05 -1.32908e-05 -2.87684e-05 -5.1632e-05 2.96475e-05 3.10293e-05 -2.17466e-06 0.00012086 
1.79636e-05 8.62448e-05 1.95055e-05 -2.26063e-05 1.14553e-05 -5.44974e-06 -2.81525e-05 -3.76071e-05 -9.48347e-06 
-1.72934e-05 2.1953e-06 -4.91301e-06 6.05481e-06 -1.46222e-06 1.3019e-07 1.99476e-06 -4.58413e-06 -6.7384e-06 
-1.43503e-06 -2.12063e-07 -1.02224e-06 1.06217e-06 1.13848e-07 -4.30635e-07 5.68638e-07 7.06594e-07 2.56111e-07 
-2.79911e-07 1.62743e-07 3.94769e-07 -4.88486e-10 -1.01099e-07 8.22763e-08 2.89316e-08 -3.77608e-07 -8.98215e-08 
1.35275e-07 5.55798e-07 -1.30133e-07 2.19666e-07 5.5895e-08 -8.18772e-09 2.9269e-07 3.30087e-08 -5.83557e-08 
1.75615e-07 2.08732e-07 -6.60938e-07 -6.76575e-08 1.01633e-07 2.72301e-07 -1.44542e-07 -1.38811e-07 3.70975e-07 
-7.10082e-07 -5.82819e-07 1.61692e-06 -6.53692e-07 1.30668e-06 5.89629e-07 3.6374e-07 5.7829e-07 -3.10591e-07 
-6.23628e-07 2.43172e-07 2.95313e-07 -1.66276e-06 -1.30964e-07 3.93184e-07 -9.35097e-07 -4.29592e-07 2.57529e-07 
7.64526e-07 -6.57654e-08 5.67174e-08 -4.47072e-07 -6.15092e-08 2.34359e-07 -5.35993e-07 -8.95488e-08 2.49334e-07 
-2.26002e-07 -1.90877e-07 1.06555e-07 1.8864e-07 -1.99571e-08 1.20696e-07 1.25868e-07 -7.33985e-08 -1.68996e-09 
1.535e-07 9.77193e-08 2.99297e-07 -6.67423e-08 -1.41657e-08 -1.31794e-08 -1.44702e-07 2.51111e-07 2.20388e-07 
1.19731e-07 8.6771e-07 2.682e-07 7.83932e-07 7.12874e-08 6.59978e-07 1.07575e-07 1.3034e-08 3.05595e-07 
-2.15907e-07 -1.20312e-06 -5.79008e-07 -1.54287e-07 3.82211e-07 3.13519e-08 -1.71053e-08 -1.42691e-07 8.8436e-09 
-3.05731e-07 -2.15144e-07 -9.46033e-08 -3.21096e-07 -9.6077e-08 2.12838e-08 -1.03112e-07 -2.16654e-07 -5.62963e-07 
-1.48596e-06 -1.16928e-06 -1.15793e-07 -3.52987e-07 9.86231e-07 -2.38356e-06 3.80713e-07 -3.29313e-06 -2.33203e-06 
-2.33818e-06 -4.74955e-06 -2.69574e-06 -9.69869e-07 -6.83083e-06 -6.0978e-07 -3.29436e-07 -2.07993e-07 -1.1086e-07 
-2.10579e-07 -6.41771e-08 5.71872e-08 4.80698e-07 -5.47375e-07 -7.06564e-08 1.65366e-07 7.96912e-07 2.27044e-07 
-1.68879e-07 6.08796e-07 -4.57843e-07 -1.59849e-07 -5.67704e-07 -2.57955e-07 3.58099e-08 -1.65259e-07 3.11563e-08 
3.85655e-07 2.72196e-07 2.16859e-07 6.81315e-08 4.19341e-08 5.59378e-08 -3.9038e-08 5.4137e-08 1.23242e-07 
-1.39371e-07 -1.31248e-07 -1.19329e-07 -2.25845e-08 3.47399e-08 -1.37438e-07 8.55617e-08 -1.93956e-07 -4.67121e-08 
-8.40127e-08 -9.78518e-08 8.20946e-08 -3.71705e-08 -1.29049e-07 -5.73005e-08 1.48794e-07 3.14824e-08 1.85198e-07 
-2.55066e-08 -1.94328e-05 -8.68587e-07 -2.27062e-06 1.83485e-05 -2.71231e-05 -2.38518e-05 3.48067e-05 -4.9237e-05 
-2.32673e-05 -6.89697e-05 -4.52926e-05 -5.19452e-06 -2.37614e-07 -8.01019e-08 1.9946e-06 -5.63047e-07 -7.95683e-07 
-5.12034e-07 -1.56707e-06 -1.04666e-06 6.07592e-07 -7.89361e-07 3.06191e-07 8.95474e-07 1.58493e-06 1.85252e-07 
-4.89536e-07 1.00533e-07 -7.31212e-09 1.28219e-07 8.52428e-08 -2.96738e-08 -4.10829e-08 -2.16413e-07 5.34528e-08 
-2.0097e-07 2.47157e-08 -1.74489e-07 -6.78212e-08 -2.81136e-08 3.35518e-08 -4.78289e-08 -2.02375e-08 1.20255e-08 
-1.7352e-07 1.29308e-09 9.93306e-08 -1.36956e-07 -1.02179e-07 -1.03934e-07 -7.53806e-08 -1.93717e-07 -3.55811e-08 
-2.22031e-07 2.95731e-08 -4.02625e-07 -4.91657e-08 5.72924e-08 -4.34172e-07 4.91972e-07 -4.95598e-07 4.15673e-07 
-7.23177e-07 2.98685e-07 3.9028e-07 -2.34381e-07 -5.47653e-07 -1.63249e-07 5.23008e-07 -9.58128e-07 4.79019e-07 
6.44992e-07 -4.9993e-07 2.03153e-06 -5.60796e-07 -1.20116e-07 -1.15338e-07 -1.83995e-06 -6.50352e-07 1.36533e-06 
1.17785e-06 8.41938e-07 7.98316e-08 -2.51919e-08 6.41544e-08 -1.81717e-07 -5.4854e-08 7.53961e-08 -1.37979e-07 
7.88421e-10 1.85502e-07 6.40431e-08 -8.85722e-08 2.90396e-07 -3.00499e-08 3.07322e-07 2.18294e-07 -1.38212e-08 
2.29571e-07 4.20584e-08 4.12164e-08 -4.90756e-08 -7.91548e-08 -1.28897e-07 3.02346e-07 2.34954e-08 -1.91515e-07 
-3.59189e-07 -5.26463e-07 -3.64491e-07 -7.77834e-08 2.80837e-07 -1.46867e-07 8.99127e-08 1.56411e-07 -2.61122e-07 
-2.09123e-07 -1.02114e-07 -3.18031e-07 -5.63093e-07 -1.02134e-07 -2.12587e-07 -8.24277e-08 3.46812e-08 5.76949e-07 
-4.89806e-06 -3.24621e-07 8.59455e-06 2.14723e-06 -1.8832e-06 5.84478e-06 1.18693e-05 2.0742e-05 -2.23735e-06 
2.62915e-05 -7.43072e-06 -1.14889e-06 -5.57265e-06 -1.9231e-06 -4.21146e-06 -1.48639e-05 -1.13192e-05 6.25251e-06 
-1.01895e-05 -4.99806e-06 -3.28292e-06 -4.85763e-06 1.51602e-07 2.41321e-08 1.37483e-07 3.44092e-08 -7.29799e-08 
1.31621e-07 -8.05935e-08 8.85499e-08 7.03006e-08 1.55527e-07 1.77152e-07 -2.90294e-07 -1.81539e-07 -2.50433e-08 
-3.76393e-07 9.92711e-08 -3.89222e-07 1.16295e-07 1.87782e-08 -1.55135e-07 -1.93558e-08 -2.90957e-07 5.34871e-07 
-1.03522e-07 -8.71178e-08 -9.52968e-08 -1.98244e-07 -1.0706e-07 -8.07653e-09 1.0586e-08 8.52357e-08 7.57137e-09 
-6.69017e-08 3.50776e-07 2.40786e-07 1.8822e-07 3.6501e-08 1.31223e-07 3.63427e-08 -2.34729e-08 8.49662e-08 
8.77641e-08 6.66869e-08 1.27937e-07 1.03921e-06 8.70962e-07 2.58882e-07 -1.52542e-07 -1.9036e-07 5.39692e-08 
9.29572e-07 -2.28641e-07 1.23193e-06 -5.77737e-08 -4.68409e-07 -5.34302e-06 -2.46318e-08 8.82269e-06 4.83466e-06 
4.36368e-06 1.62507e-06 1.33581e-06 1.55988e-08 -9.31148e-08 -3.58828e-07 1.78539e-07 3.60404e-07 -2.28051e-07 
-4.41342e-07 -9.67323e-08 -2.92309e-07 -3.22956e-07 -1.89085e-08 2.21929e-07 -3.13043e-08 -6.43842e-08 -1.95025e-07 
-1.59534e-07 -1.24559e-07 2.61429e-07 3.69643e-07 3.14866e-07 1.83595e-07 7.8504e-08 2.9369e-07 1.78294e-08 
1.34868e-07 -6.09595e-09 2.23947e-07 7.79938e-09 4.18966e-08 3.45665e-08 -2.45953e-07 -1.8562e-07 9.44758e-08 
-3.09522e-08 -1.5707e-07 2.07775e-08 -4.69773e-08 1.95686e-07 -1.1759e-05 -9.05998e-05 -9.90615e-05 -1.47099e-06 
3.13904e-05 5.3392e-05 7.05726e-05 -4.56401e-05 -2.7949e-05 1.34177e-07 -2.09211e-07 4.54797e-07 -4.08989e-07 
-1.43095e-07 -3.58683e-07 -6.48348e-08 2.53513e-07 2.20607e-07 1.15236e-07 6.92765e-08 -7.96542e-08 -1.41667e-07 
-3.98732e-08 1.19916e-07 6.70472e-08 6.89288e-08 1.56884e-07 1.98498e-07 2.17767e-07 1.24577e-07 1.23104e-08 
-1.84055e-07 2.66039e-07 1.50544e-07 1.54416e-07 -1.04664e-07 1.27978e-07 -3.01257e-07 1.52097e-05 -0.000123312 
3.62811e-05 4.92898e-05 -3.46333e-05 -8.99875e-05 -0.00011687 2.01631e-05 -9.22777e-05 2.76658e-07 -3.63866e-07 
-6.03994e-07 -2.50931e-07 -7.89847e-08 -5.67647e-07 -6.4263e-08 4.22283e-08 2.11138e-07 -3.77846e-07 -3.12828e-07 
-3.37636e-07 1.58665e-07 -3.68853e-07 -7.11333e-07 1.00746e-07 -1.29581e-06 -5.50054e-07 -8.04068e-07 -5.07601e-07 
-1.6376e-06 -8.67255e-07 -6.74513e-07 -1.103e-07 -6.15279e-07 -1.23834e-06 4.80891e-07 2.01227e-06 1.30542e-06 
1.66316e-09 8.16908e-07 3.96021e-07 -3.99438e-07 -4.22967e-07 -1.03873e-06 -3.01616e-07 2.24175e-07 -1.14262e-06 
-1.47701e-06 -1.70868e-06 -1.61894e-07 -4.24655e-07 -8.7462e-07 -1.17565e-07 -1.62071e-07 2.2616e-07 2.46683e-07 
-1.26568e-07 4.18331e-07 1.16696e-07 1.76939e-07 -2.16177e-07 2.10065e-08 7.44794e-08 1.61997e-07 -7.83905e-08 
2.4909e-07 -1.47164e-07 6.35976e-08 -1.67955e-07 -5.21227e-07 -2.39112e-07 3.58604e-07 -2.76978e-05 -1.81189e-05 
1.05975e-05 6.30529e-05 -1.9405e-05 -6.95783e-08 -2.49782e-07 3.63396e-07 -8.13045e-08 1.16388e-08 -4.24861e-08 
7.80697e-08 -8.44043e-08 4.49649e-08 -1.804e-06 -9.67978e-07 -4.03507e-07 -1.41318e-06 1.83006e-06 -1.07292e-06 
-4.92361e-08 7.95628e-08 1.26611e-08 -1.32919e-07 -2.89287e-07 -6.76912e-08 2.9714e-08 -7.99668e-07 4.17808e-07 
-3.65204e-08 6.88117e-07 3.93815e-07 1.55829e-07 4.03811e-07 9.50016e-08 2.9097e-07 5.77765e-09 9.14474e-08 
9.31554e-08 1.36163e-08 -1.35479e-07 -8.46382e-08 4.89728e-07 -1.44156e-06 -1.38763e-06 1.8242e-07 2.22365e-07 
-6.37375e-08 -1.32788e-05 2.97758e-06 -6.4167e-07 -3.21064e-06 -0.000136961 0.000334804 0.00174143 0.000738932 
0.00133852 0.0016116 0.000958044 -1.80953e-06 -3.50833e-06 2.35332e-06 -5.94313e-08 4.97795e-06 -1.0493e-06 
-9.92673e-07 -1.77497e-06 1.00708e-06 1.71699e-06 -1.3853e-07 8.09359e-07 -2.07721e-06 3.85428e-06 -1.92886e-05 
-1.80664e-06 -4.68202e-05 -6.54679e-05 -5.58345e-05 -2.4207e-05 0.000464701 -6.81135e-05 0.00117461 1.4434e-07 
-5.69461e-06 3.31609e-06 1.85539e-06 -3.35187e-06 8.20441e-06 -2.00465e-05 -8.52578e-06 -0.000162933 -6.38842e-05 
0.000727286 0.000113124 -8.2628e-08 -1.72372e-07 -1.60479e-07 7.05653e-08 -6.20206e-09 -2.29305e-08 1.80123e-07 
1.33993e-08 -1.99339e-07 7.66481e-08 -6.03513e-08 7.82328e-08 -1.12514e-08 -6.41401e-08 -9.56224e-08 -3.54329e-08 
-2.09944e-07 -1.39416e-07 -5.27013e-08 3.6268e-08 -5.92657e-08 -3.93933e-07 8.08888e-08 2.37158e-07 -6.85054e-09 
3.65047e-08 -5.80794e-07 -1.26323e-07 1.60281e-07 -8.19069e-08 3.23657e-08 1.65148e-08 -3.20005e-07 -1.45122e-07 
-1.58772e-08 -1.46333e-07 -3.05458e-07 -5.4086e-08 -4.09761e-08 -2.40386e-07 -3.93481e-08 2.08515e-07 -8.8844e-08 
1.09855e-07 4.36894e-07 6.33367e-08 -6.9572e-08 -1.79578e-07 -1.60988e-07 -3.27237e-08 -1.07448e-07 2.60099e-07 
-5.31332e-08 -2.29606e-08 4.66852e-07 -1.18896e-07 4.70086e-08 -9.92859e-08 8.64484e-08 -3.45839e-06 -2.02821e-06 
8.22837e-08 -1.83146e-07 -7.91911e-08 7.55775e-08 -5.70798e-08 -1.18492e-07 -3.11244e-08 2.6248e-08 -2.62728e-08 
9.51198e-10 -1.01989e-07 -1.18126e-07 1.02197e-08 -3.95705e-08 -1.30397e-07 3.03916e-08 -4.31852e-06 -8.59078e-07 
8.87012e-08 -2.3443e-07 -2.86548e-06 -1.74503e-06 9.52609e-07 -1.57081e-06 -2.35585e-06 -1.7178e-07 1.78885e-06 
3.2915e-07 -3.17883e-06 3.98972e-07 -1.22425e-06 7.0234e-07 5.54828e-07 2.28056e-07 6.67321e-07 -1.1681e-06 
6.27431e-07 2.29262e-07 7.49472e-08 7.86832e-07 -8.3723e-08 1.81096e-07 4.34805e-08 -1.0504e-06 1.45992e-07 
-4.56146e-07 2.66872e-07 3.8483e-08 5.18483e-09 4.70434e-07 -2.25158e-07 1.44937e-07 1.9411e-07 1.49486e-07 
5.36172e-08 -2.57108e-07 2.01121e-07 -8.85942e-08 -3.58669e-07 1.78259e-07 -2.36489e-08 7.22957e-08 6.19086e-08 
-2.23531e-07 6.09613e-08 -5.05151e-09 5.20754e-08 -2.94847e-08 -3.53141e-08 -7.4953e-08 -6.55117e-08 -4.63401e-08 
-2.01229e-08 -9.14731e-08 6.96516e-08 1.39964e-07 1.5265e-07 4.96239e-08 -9.18903e-08 4.85257e-08 -1.08864e-08 
-1.42882e-07 3.8605e-08 -9.29882e-08 -1.55727e-07 -1.5742e-07 -1.60731e-07 4.39671e-05 -4.63317e-08 -1.09322e-07 
1.90874e-08 -1.71612e-08 -2.76355e-09 1.29884e-07 -5.78218e-08 2.27939e-08 0.00013386 9.96523e-05 9.55828e-08 
-8.4788e-07 -9.55868e-09 5.96697e-09 1.58602e-08 2.4489e-08 -1.11681e-07 -1.44354e-07 -8.82323e-09 -6.60152e-08 
-7.01766e-08 -8.13451e-08 8.94656e-08 4.23962e-08 4.79638e-08 -1.00605e-08 2.9216e-08 3.87708e-08 1.75188e-05 
-7.17719e-07 -8.97525e-06 4.34492e-05 1.81172e-05 -3.52197e-08 1.94005e-08 -3.11276e-07 -2.68274e-07 -2.47991e-07 
-5.33526e-07 8.54444e-07 -3.47756e-08 -1.27497e-07 -1.93167e-07 1.35564e-07 1.47068e-07 1.6385e-07 9.31636e-08 
-7.64906e-07 2.96502e-07 4.66968e-07 -3.5748e-07 1.91092e-07 -3.49778e-08 -1.83489e-07 -2.29152e-05 2.75826e-05 
6.41108e-07 -1.80292e-06 -1.01046e-07 1.18265e-07 -2.22821e-07 -4.94005e-08 2.50473e-07 8.26902e-08 8.86116e-06 
-4.11771e-06 -2.17686e-06 1.45957e-07 1.18643e-06 8.78184e-08 9.5362e-07 2.62272e-07 1.37443e-07 1.92156e-07 
-1.72896e-07 -1.81533e-07 -2.53575e-08 5.28402e-08 8.23559e-08 2.59877e-07 7.29454e-08 3.588e-07 4.08256e-08 
3.00564e-08 1.20192e-07 -7.60152e-08 -1.49457e-07 -1.80214e-08 6.91452e-08 -4.51519e-08 5.54021e-08 -3.23399e-08 
3.23065e-08 1.36555e-07 -6.23471e-05 0.000292052 0.000100421 0.000117267 -0.000223482 2.46744e-08 -1.31265e-07 
-3.01342e-08 1.64575e-07 -1.56905e-08 -1.07403e-07 -8.17899e-08 -4.62898e-08 5.70727e-08 2.53062e-08 -1.04042e-07 
3.72664e-07 -6.76363e-07 1.01625e-07 2.11731e-08 1.8969e-07 7.98296e-08 1.75406e-07 7.57611e-09 -2.81883e-09 
2.46439e-08 -2.7304e-07 2.57639e-08 -5.9896e-08 -3.54698e-08 -3.18931e-08 7.37003e-09 6.42514e-07 2.84902e-07 
1.30921e-09 3.1417e-07 4.26514e-07 9.61044e-08 8.02957e-08 -9.47489e-07 -9.59761e-07 0.000153623 0.000246874 
8.57101e-05 4.88921e-06 2.23588e-06 2.43123e-05 6.87376e-08 8.3423e-08 -2.0071e-07 1.46051e-07 5.02291e-08 
4.26805e-07 3.22486e-07 4.3144e-07 2.61643e-07 2.76487e-07 -6.41903e-09 -3.46796e-08 -1.29158e-08 2.56767e-05 
2.2602e-06 -1.30057e-05 7.55814e-06 4.98592e-07 2.52764e-07 8.24848e-07 -3.04574e-08 -1.13314e-07 -3.47758e-07 
-2.93012e-07 -1.92005e-08 8.58586e-10 -3.66794e-09 -6.05181e-08 -6.3956e-08 2.0168e-06 -3.6624e-06 -1.34104e-07 
3.5613e-08 1.8388e-08 -5.7005e-08 -6.24624e-08 -1.68174e-08 -3.15262e-08 -6.29925e-08 -2.35691e-07 -1.69634e-08 
-2.09166e-07 8.80377e-07 7.89226e-07 3.5452e-07 5.6887e-07 1.21345e-07 -6.71885e-08 9.63471e-09 3.27851e-07 
-7.31573e-05 -6.2703e-05 -3.73493e-05 -0.000191842 -1.06013e-05 -8.80318e-05 -0.000110195 -3.78588e-05 -2.69031e-05 
2.48583e-08 6.81297e-08 2.58255e-07 1.46678e-07 7.55667e-09 -2.27721e-08 -9.95526e-08 -6.15296e-08 1.33107e-07 
3.96086e-08 -8.70455e-05 -7.6093e-05 -5.33667e-05 1.27292e-05 -8.96139e-07 2.17121e-07 3.4944e-07 2.4268e-07 
2.35663e-09 1.29639e-07 1.26902e-07 5.77086e-08 -4.73072e-08 6.59985e-09 6.25518e-09 5.83079e-08 -6.53014e-07 
-2.38831e-06 -1.0768e-06 -6.82542e-08 2.88068e-07 4.42113e-08 7.69777e-07 7.92975e-08 -1.2392e-06 -5.07532e-08 
3.36088e-07 -4.36551e-09 2.7657e-07 2.12247e-08 4.71642e-07 -2.1063e-07 -1.2266e-07 -1.47606e-07 -3.44417e-07 
-1.71151e-07 -8.24561e-08 -1.38483e-07 -7.64367e-08 -6.57645e-09 -1.07604e-07 -5.95622e-08 -2.44216e-08 -2.97334e-08 
4.03856e-08 9.80409e-08 -3.42832e-08 -9.5854e-08 7.70824e-08 -1.50296e-07 -1.2088e-07 7.26393e-08 9.50982e-08 
4.06503e-08 -1.17304e-07 5.91814e-08 5.26191e-08 3.17424e-07 2.53862e-07 -5.31347e-05 9.26212e-08 -9.99892e-08 
-1.09608e-07 -8.23076e-08 5.84494e-10 2.78549e-07 1.16222e-07 6.22568e-08 8.14075e-07 -2.37954e-08 4.64649e-08 
4.43256e-08 -2.92152e-08 -6.47105e-08 4.62242e-07 2.19749e-09 -1.40228e-07 2.12902e-07 1.29786e-07 -2.69508e-07 
-3.96465e-07 -8.92682e-08 -8.09829e-08 4.44233e-09 5.39559e-05 9.73614e-05 1.22126e-05 1.18827e-08 -7.67349e-07 
8.05236e-07 1.19228e-07 2.16874e-06 -9.06003e-08 -6.23536e-08 7.94743e-09 -3.11447e-08 -5.88973e-08 -7.39562e-08 
1.15243e-07 1.00959e-07 1.43287e-07 -1.39885e-08 5.32217e-09 7.30189e-08 2.1068e-08 -1.09238e-08 7.78949e-08 
4.20432e-05 3.73723e-05 -6.40863e-05 -2.14759e-08 -8.11371e-08 9.06486e-08 -2.27231e-07 -1.49381e-08 1.72923e-07 
5.23184e-09 -1.73941e-07 1.20433e-07 -2.09669e-08 -2.37952e-08 -5.32092e-08 -6.90043e-09 -6.79413e-08 1.80549e-07 
1.0245e-07 2.92952e-09 4.30469e-07 4.17605e-07 5.15795e-07 -9.80994e-07 -3.23415e-07 -1.37714e-07 1.21128e-07 
4.35712e-08 1.0948e-07 -5.62063e-08 -2.37068e-05 -6.70134e-08 -1.18585e-07 -9.33661e-08 4.76845e-08 1.13403e-07 
5.58358e-08 8.6994e-08 -1.70628e-09 -1.03559e-06 -1.89162e-06 -2.71417e-06 -2.07062e-06 -4.25429e-08 -1.31299e-08 
1.90746e-07 -1.29972e-06 -9.8868e-09 6.50292e-07 1.73117e-07 -9.70411e-08 -1.78525e-05 8.45299e-05 -1.38644e-07 
2.6e-07 5.29257e-08 -4.60773e-09 1.15189e-07 1.18048e-08 -3.41822e-05 0.000132728 -5.09704e-05 -0.00011367 
1.18795e-08 -3.29318e-08 -1.29172e-07 4.88722e-07 3.50671e-07 2.69905e-07 1.28486e-07 1.58367e-07 1.62781e-06 
-7.95127e-05 8.29929e-05 -7.52734e-08 3.3279e-08 5.53514e-08 -5.54303e-09 7.91817e-08 -8.93159e-08 -4.00926e-09 
-1.46405e-08 -1.44832e-07 2.07305e-08 -7.13334e-08 2.06822e-08 1.05713e-07 1.89754e-07 -5.83588e-09 -2.67046e-07 
-8.38627e-08 -5.18582e-08 1.09692e-08 -9.2534e-08 -4.24297e-08 -5.11246e-07 4.7067e-07 3.82447e-07 -5.03497e-08 
-1.69403e-08 7.07159e-05 -0.00012312 3.06574e-07 -9.86563e-08 2.73495e-07 2.53035e-07 3.2156e-07 -1.53769e-08 
3.71346e-08 -2.56425e-09 -1.73589e-07 -1.47649e-06 -9.51291e-06 -1.55626e-07 2.14607e-07 -3.39322e-08 3.24131e-07 
2.74626e-07 -7.83899e-07 8.21095e-07 5.87242e-09 5.98201e-08 6.53802e-08 -0.000225587 2.44634e-07 -2.22486e-07 
1.2544e-07 0.000147539 4.05441e-05 0.000197105 1.01518e-05 0.000114451 1.45454e-07 -4.81964e-08 -5.58283e-05 
-0.000113432 7.02504e-07 -5.89081e-08 -2.8617e-07 -1.10071e-06 1.54067e-07 -5.28358e-08 -3.0158e-09 7.86248e-07 
-4.15058e-08 3.83588e-08 5.9636e-08 -1.15846e-07 -4.20901e-06 -2.95159e-06 -1.87898e-06 1.70804e-07 8.79974e-08 
1.20478e-07 1.17557e-07 1.57891e-07 1.60431e-07 8.06263e-08 8.23715e-08 0.000134482 0.000296603 -9.89395e-07 
2.12612e-07 -1.02358e-07 2.77347e-07 -2.23821e-07 1.16884e-07 3.22788e-09 1.02314e-07 -1.57286e-08 -1.31844e-07 
-2.31956e-08 -9.74313e-07 -3.51362e-06 -1.3708e-07 -1.00178e-07 -7.28664e-08 -3.10376e-08 1.63959e-07 3.44228e-07 
-4.11502e-07 -4.37501e-06 -6.45585e-06 -7.43252e-06 3.06313e-07 3.12659e-08 -7.25297e-09 1.23311e-07 -1.2836e-07 
-1.68649e-07 1.52606e-07 -7.88212e-08 1.63471e-07 3.02735e-08 7.9776e-08 -7.18392e-08 -1.16967e-08 -5.93872e-09 
1.60859e-08 8.2895e-09 -3.94718e-08 -1.31614e-07 5.6117e-08 2.46938e-07 -5.87378e-08 -1.47642e-08 6.07694e-08 
-1.31899e-07 -1.83666e-07 1.03689e-07 -1.4304e-07 3.51112e-09 4.22849e-08 -1.05203e-05 -9.44425e-06 3.052e-06 
-1.04615e-05 -2.76353e-08 2.77472e-09 2.43378e-07 1.38445e-08 2.87265e-07 -2.48844e-05 -9.38373e-06 -8.37712e-06 
3.61819e-08 1.16467e-07 -0.000165424 5.51606e-08 9.83825e-08 1.22955e-07 -1.33073e-07 -1.46249e-07 3.42778e-08 
1.0168e-08 1.4517e-07 -8.60197e-08 -2.21663e-07 3.96872e-09 -6.599e-08 1.79298e-07 4.01446e-07 1.86052e-07 
-3.28662e-06 -2.42962e-06 -4.43126e-08 -8.35307e-08 1.80149e-07 3.33556e-08 1.12606e-07 -9.00066e-08 -1.12795e-06 
1.57443e-07 4.95701e-07 1.39145e-07 -1.25681e-07 0.000290766 0.000526748 0.000211635 -4.34216e-08 5.82178e-08 
2.41161e-07 -2.0835e-08 2.92826e-07 1.92252e-07 6.94011e-08 -7.13004e-07 -1.44532e-06 -6.97996e-07 -7.54948e-07 
9.38376e-08 -2.26109e-08 -5.39371e-08 3.6974e-07 7.12113e-08 8.22576e-09 -1.37517e-07 -9.19174e-08 -1.56395e-07 
5.66796e-08 -0.000111061 9.49843e-08 7.28913e-08 1.02286e-07 4.31656e-09 1.49082e-07 1.88883e-07 3.74259e-07 
-3.69032e-08 -6.36731e-07 -2.40652e-07 -2.62121e-07 -8.47077e-07 -5.51844e-08 -1.02899e-07 -9.17974e-08 -7.71535e-07 
-2.38008e-08 4.47341e-08 3.1019e-08 2.82768e-08 -8.82088e-08 6.47419e-08 -3.70754e-08 9.2335e-08 -1.94042e-07 
3.7843e-08 -1.01492e-07 -5.29009e-08 6.32158e-05 0.000161897 5.97391e-05 4.54139e-08 3.36872e-08 3.47427e-07 
-7.2158e-09 -9.57085e-09 9.26254e-07 1.34973e-07 -1.49679e-07 -6.71399e-08 7.47503e-08 0.00013406 9.64152e-05 
-4.48663e-06 -4.52553e-08 3.80334e-08 -5.07552e-09 9.10375e-08 -3.65008e-09 3.31256e-08 -2.71849e-07 -1.92384e-07 
1.14082e-07 2.31566e-07 -2.20361e-07 -2.06509e-07 -0.000145601 3.16196e-08 -3.72457e-08 -1.00096e-07 -1.2743e-07 
-7.29034e-08 7.34894e-09 -7.70376e-08 -9.56995e-08 7.1683e-08 -5.11831e-06 -4.51351e-08 -1.13069e-07 -1.37773e-07 
-1.01152e-07 9.68328e-08 -1.25772e-07 -2.25329e-08 5.35512e-08 6.53229e-08 -2.08824e-07 -1.4644e-08 -1.4292e-07 
-6.22997e-05 -0.000146589 -8.66222e-05 -8.31929e-05 -1.37276e-09 0.000112571 -6.81243e-08 -8.22364e-08 -1.53493e-07 
1.62245e-08 4.37047e-09 -1.94749e-09 -2.33813e-07 1.32327e-07 0.000195886 0.000120929 1.84544e-07 1.25384e-07 
1.82075e-07 -2.87923e-08 1.14343e-07 -1.39414e-06 -6.85842e-08 9.66577e-08 3.9181e-09 -6.30252e-06 -6.60479e-08 
2.0877e-07 -3.56613e-07 3.21161e-07 -2.8277e-06 -4.09252e-07 1.44589e-07 -3.30813e-08 -4.64731e-08 1.32254e-08 
-8.60571e-08 -1.43897e-05 -3.51506e-06 3.55731e-07 -7.7849e-08 3.79358e-07 2.26445e-07 5.14171e-08 1.0477e-07 
2.31969e-07 -1.40972e-07 -1.40184e-07 -3.51138e-08 -7.35537e-08 -9.50953e-08 -7.88047e-07 -1.21024e-08 -1.07121e-05 
-9.14749e-06 -3.40625e-06 -4.12082e-07 -4.97956e-07 4.66102e-08 3.0052e-07 -4.6297e-06 1.01131e-08 2.16754e-09 
2.67264e-08 -4.65145e-05 2.55475e-05 -7.66563e-05 -6.64115e-05 1.73049e-08 7.72741e-09 2.4275e-07 1.03984e-07 
1.91004e-07 3.91767e-08 0.000173797 0.000101672 0.000192091 2.54894e-08 8.83197e-07 3.20625e-07 4.36574e-08 
1.03181e-07 1.79737e-07 5.06452e-08 9.95432e-08 -6.98782e-08 -1.67125e-07 3.07781e-07 -7.63989e-08 3.60291e-07 
-6.90644e-08 -2.23121e-06 7.98367e-05 -1.11452e-07 8.33881e-08 -3.74809e-08 -1.929e-07 5.11303e-08 -8.30779e-08 
3.24574e-08 4.91094e-08 6.59632e-08 2.77603e-07 -2.75097e-05 -2.60555e-05 5.93768e-08 -1.33121e-06 -8.5829e-08 
-4.3474e-07 -3.1971e-07 4.31219e-08 -7.24282e-08 -4.32738e-09 1.24861e-07 -3.00632e-08 6.38281e-06 -1.33863e-07 
1.80189e-07 1.22141e-07 -7.62507e-08 2.88107e-07 -2.73034e-07 -3.01443e-07 -2.09575e-07 -7.31624e-06 -7.19606e-06 
-6.1733e-06 1.87191e-08 6.75639e-07 1.77266e-06 -1.5606e-06 1.13004e-07 1.63723e-07 -2.12004e-07 3.01208e-07 
4.42478e-07 -1.54131e-07 3.4173e-07 1.92165e-07 -3.66347e-06 -9.01075e-08 9.85881e-07 -9.61726e-09 5.42352e-08 
3.48125e-09 9.33779e-08 -1.13927e-06 -1.19309e-05 9.544e-09 -3.65049e-08 -6.68166e-08 -4.71652e-08 -1.5427e-08 
-1.192e-07 3.93911e-07 -1.00945e-07 -2.18464e-07 1.59753e-07 -3.34841e-06 1.38428e-05 -9.79753e-06 9.54417e-06 
1.27312e-08 -4.80237e-08 -0.000106881 -3.00774e-05 2.3771e-07 5.11123e-07 -5.98619e-08 5.62111e-08 -2.87048e-08 
-3.18377e-05 4.62676e-08 2.11717e-07 0.000429269 2.76873e-08 1.45155e-07 9.48683e-08 -1.23009e-09 -7.71454e-08 
-2.2894e-07 2.45547e-07 -1.83025e-07 1.09107e-07 2.4955e-08 6.23449e-09 6.10393e-08 8.79698e-08 6.50417e-08 
0.000261008 2.17982e-07 2.40371e-07 6.14008e-07 1.06007e-06 5.47751e-07 -6.12314e-07 8.18958e-07 7.51353e-08 
3.15375e-08 8.78882e-08 -2.12096e-07 3.64805e-08 -5.10742e-08 1.55077e-07 -1.31006e-08 -5.14433e-08 2.05739e-07 
-9.25398e-05 -1.85899e-05 -8.65964e-06 -4.9383e-06 -1.30626e-05 1.33753e-08 -8.6877e-07 -3.00381e-07 4.98686e-08 
-9.15512e-08 -5.7542e-08 -2.09615e-07 1.15366e-07 -5.78577e-08 -2.86691e-06 -3.63482e-08 -1.4945e-08 -1.31917e-06 
1.17947e-08 1.41267e-07 -3.90065e-08 -2.51803e-05 -2.29724e-08 -1.08526e-06 0.000305292 9.64448e-05 5.72642e-08 
2.43528e-07 -2.56958e-09 -1.39687e-07 -8.33032e-08 -2.60614e-07 -1.11414e-08 1.45799e-07 -2.30624e-06 -1.52083e-08 
-4.96614e-08 8.55898e-08 -6.02145e-09 -1.09143e-09 0.00010667 4.72319e-05 0.000125021 0.000144985 8.36772e-05 
2.30266e-08 -3.97096e-08 5.495e-08 -1.33207e-08 1.73288e-08 -6.84316e-08 -1.74887e-05 6.43483e-05 5.74151e-05 
2.22452e-05 4.18575e-06 5.08568e-05 -2.06383e-05 -2.98541e-05 -9.59382e-06 -1.90372e-08 -2.43282e-07 -8.23992e-08 
-5.03497e-09 -6.5049e-08 7.72793e-08 -3.59151e-08 -7.54353e-08 8.59313e-05 3.0949e-05 7.54092e-05 -1.42292e-07 
-1.59931e-08 -1.52452e-07 8.78057e-08 -1.4563e-06 -1.61132e-06 -1.77933e-06 -5.17702e-06 -3.82213e-06 7.09936e-08 
3.72633e-08 2.46572e-08 7.90453e-08 -1.63207e-08 -1.27947e-07 -4.06759e-06 -2.77534e-06 -3.47266e-06 8.0011e-08 
1.21383e-07 -1.35027e-07 -2.22523e-06 3.56964e-09 7.54194e-09 2.55136e-07 1.38727e-07 -4.45175e-07 -7.73497e-08 
3.28808e-08 4.51214e-08 0.000100751 -1.06524e-07 -2.90004e-07 -6.78483e-06 1.86005e-06 1.49835e-07 2.30561e-07 
-3.81405e-06 1.72314e-07 9.63342e-08 1.89638e-07 -1.50445e-07 8.12929e-08 3.2208e-07 3.46473e-07 4.29287e-05 
4.15996e-05 4.71355e-05 1.70344e-05 -5.43477e-07 -1.94608e-06 -3.9516e-06 -6.50793e-06 1.02978e-07 3.93775e-09 
2.3261e-09 -3.03237e-08 1.15589e-07 -1.38164e-07 -1.07712e-05 -3.00984e-05 -5.67407e-06 1.1932e-09 -1.08883e-07 
-2.04783e-08 -9.28186e-07 -4.86081e-07 2.34625e-07 -5.34105e-06 5.53586e-06 -9.40957e-06 -3.33722e-08 -3.13701e-07 
1.86202e-07 -8.81455e-08 -1.55692e-06 -1.7191e-06 -2.97314e-06 6.91407e-05 -1.31912e-07 -4.05417e-08 -1.44039e-06 
7.47638e-07 5.90319e-08 -1.19762e-07 -3.57811e-07 -9.89717e-08 4.4076e-07 -3.23152e-05 5.01854e-05 8.77342e-05 
1.52559e-05 5.50242e-07 1.91447e-07 -4.18602e-06 5.13341e-06 1.09929e-05 2.05828e-05 -1.76462e-05 -1.79226e-05 
-7.32094e-06 -3.99937e-08 -1.80932e-08 3.81792e-05 3.54728e-05 0.000105301 6.92306e-05 7.46861e-05 0.000137156 
8.12411e-05 -1.1914e-08 -1.58714e-07 -6.34858e-05 -5.38412e-05 -4.74969e-05 1.41932e-07 -1.19016e-05 -2.96682e-05 
9.53187e-08 -9.89478e-08 0.000272836 -3.38997e-10 -4.13885e-08 1.21293e-07 -4.32898e-08 -1.42249e-07 2.56265e-07 
8.30649e-07 7.71862e-07 -2.86991e-07 -4.84731e-06 1.59405e-08 0.000979421 0.000511077 0.000178502 2.51961e-07 
-6.5774e-06 -2.39287e-05 -1.71831e-05 -8.45264e-06 -1.90123e-08 -1.55006e-08 -8.10138e-05 -2.5258e-05 -7.60096e-08 
-2.1919e-08 -2.73462e-05 -2.32885e-06 -2.54357e-05 9.64499e-08 -2.47894e-07 -7.30152e-07 -2.13586e-05 -5.39939e-07 
0.000638665 0.00109928 -5.36612e-08 -1.4354e-07 -5.56831e-06 0.000133367 1.17937e-07 -9.12601e-08 -5.53169e-08 
-5.28287e-07 -3.83361e-07 -6.41842e-07 -7.94708e-07 0.000481257 1.90989e-07 -2.45172e-06 1.75116e-07 -8.89397e-08 
6.34815e-08 -5.32173e-08 6.82019e-05 7.30099e-05 -3.77201e-08 1.91813e-07 9.69907e-08 -3.59273e-08 0.000404006 
5.78938e-08 -4.02868e-06 4.03128e-07 3.61947e-07 -1.26601e-05 -4.24512e-08 -1.5205e-08 -5.34061e-08 -5.88529e-07 
1.74122e-09 1.74153e-06 2.77367e-05 -2.32262e-07 9.83963e-08 4.53955e-05 2.01304e-07 -6.111e-06 -8.40954e-07 
2.98109e-07 -1.17209e-07 -2.63278e-07 8.26786e-08 -7.71089e-05 -6.10963e-09 1.17841e-07 -1.246e-08 -6.01143e-08 
4.37688e-08 7.01814e-08 2.76188e-07 2.178e-08 6.22214e-08 -6.89421e-07 4.85724e-08 -1.33653e-08 -1.01048e-07 
1.29689e-07 -2.7552e-08 -3.12437e-06 0.00101184 -3.53311e-06 6.40919e-08 5.68516e-07 -1.40058e-08 -2.30009e-07 
-1.25993e-07 6.21541e-08 5.76587e-08 -1.07907e-07 -2.69983e-07 -7.72611e-09 7.3861e-08 -9.35019e-07 8.37583e-08 
6.12975e-08 1.17567e-07 -5.32451e-08 -1.85947e-07 -1.74733e-07 -4.19925e-06 1.63261e-06 2.03278e-07 
Strain%20yy%20component 1 3545 double
-0.0115995 -0.000148316 -0.00019386 -0.0151635 -0.000173398 7.74413e-05 -0.00110813 -0.000173811 7.92637e-05 
-0.00114442 -0.00561316 -0.00186052 -0.000314655 -0.000243437 -0.00812087 -0.00365207 -0.000800322 -0.000327458 
-0.000232401 -0.000214134 -0.00590591 -0.00209273 -0.000861048 -0.000451765 -0.0107001 -0.0042864 -0.00127387 
-0.000665446 -0.000317507 -0.0140333 -0.000145159 -0.000622468 -0.00231453 -0.00324923 -0.00188636 -0.00092289 
-0.000478525 -0.000383177 -0.000338032 -0.000319966 -0.000297868 -0.000273011 -0.000249048 -0.000229181 -0.000210028 
-0.000194651 -0.000183106 -0.000174322 -0.000171187 -0.000143411 -0.000325612 -0.001526 -0.00291939 -0.00259716 
-0.0013738 -0.000701406 -0.000425824 -0.000359495 -0.000329281 -0.000309306 -0.000285311 -0.000260928 -0.000239583 
-0.000219032 -0.000202375 -0.000188394 -0.00017869 -0.000173028 -0.000172451 7.05867e-05 5.09576e-05 2.0357e-05 
-1.93842e-05 -6.29038e-05 -0.000105434 -0.000142833 -0.000167864 -0.000177022 7.58991e-05 6.22331e-05 3.59908e-05 
1.36963e-06 -4.09282e-05 -8.4251e-05 -0.000125463 -0.000155971 -0.000173841 -0.000175288 -0.000511775 -0.00023614 
-9.46012e-05 -2.39128e-05 7.14827e-06 1.95527e-05 1.89777e-05 1.15091e-05 1.89371e-06 -6.59814e-06 -1.16537e-05 
-9.30842e-06 2.11716e-06 2.80187e-05 -0.000781668 -0.000365807 -0.000156828 -5.68873e-05 -4.80889e-06 1.34123e-05 
2.01559e-05 1.54724e-05 7.43126e-06 -2.40858e-06 -9.27691e-06 -1.12294e-05 -4.58487e-06 1.44231e-05 5.18289e-05 
-0.000995137 -0.000692444 -0.000352198 -7.44949e-05 -1.32642e-05 -0.000126745 -0.0049827 -0.00108962 -0.000861697 
-0.000528076 -0.000200889 -1.93696e-05 2.5777e-05 -0.00214224 -0.00864965 -0.000162564 -0.000313174 -0.00262389 
-0.00359301 -0.00182329 -0.000846871 -0.000451262 -0.00037968 -0.000337256 -0.000320844 -0.000297566 -0.000272808 
-0.000249446 -0.000228077 -0.000209013 -0.000193865 -0.00018207 -0.000173545 -0.000171338 -0.00017494 -0.0002018 
-0.00148232 -0.00327035 -0.00275316 -0.00125992 -0.000657378 -0.000410058 -0.00035546 -0.000329656 -0.000309469 
-0.000285038 -0.000261195 -0.000238907 -0.000218305 -0.000201374 -0.00018744 -0.000177792 -0.000172387 -0.000172709 
-0.000173233 7.22216e-05 5.25598e-05 2.13387e-05 -1.89606e-05 -6.28625e-05 -0.00010619 -0.000144132 -0.000169375 
-0.000177655 7.75298e-05 6.35869e-05 3.72803e-05 2.07684e-06 -4.07158e-05 -8.46715e-05 -0.000126258 -0.000157351 
-0.000174868 -0.000175793 -0.000547375 -0.000246243 -0.000107738 -3.29401e-05 3.88834e-06 1.69238e-05 1.56527e-05 
9.99989e-06 1.01497e-06 -7.18852e-06 -1.16341e-05 -9.44953e-06 2.47088e-06 3.02584e-05 -0.000815575 -0.000384206 
-0.000168402 -6.57244e-05 -1.08084e-05 9.64803e-06 1.70014e-05 1.29334e-05 5.99197e-06 -3.37078e-06 -9.59474e-06 
-1.10604e-05 -4.15432e-06 1.53295e-05 5.37288e-05 -0.00102636 -0.000727864 -0.000341726 -8.88214e-05 -7.75731e-06 
-2.51314e-05 -0.00394388 -0.00112028 -0.000884982 -0.000554298 -0.00020281 -3.51534e-05 -6.56423e-05 -0.0011392 
-0.0097484 -0.00116429 7.95437e-05 -0.000279319 -0.0106061 -0.00369743 -0.000993259 -0.00052916 -0.0108577 
-0.0131357 -0.00773192 -0.000246658 -0.000224986 -0.000307031 -0.000370344 -0.00814977 -0.0029648 -0.00452865 
-0.0056623 -0.00486195 -0.000599291 -0.00130998 -0.00205098 -0.00308033 -0.00151248 -0.000351928 -0.000602696 
-0.000799581 -0.000961923 -0.000818654 -0.000420135 -0.000488101 -0.000228393 -9.96371e-05 -0.00037257 -0.000196872 
-6.01408e-05 -4.34194e-05 -0.000139985 -0.00223968 -0.000214776 -0.000343878 -3.03682e-05 -0.000184545 -5.50765e-05 
-0.000341619 -8.18433e-05 -0.000278692 -0.000118202 -0.000153501 -0.000630502 -0.000316275 -2.33428e-05 -0.000185209 
-0.000162165 -1.52843e-06 -0.000335831 -0.000324122 -0.000230665 -3.49927e-06 -0.000103573 -5.66365e-05 -0.00262891 
-0.000239723 -3.61644e-05 -0.000119563 -0.000148175 -0.00370031 -0.000122995 -1.20469e-06 -0.000102265 -0.000315528 
-0.000254291 -0.000360616 -0.000157561 -5.2657e-05 -0.000325942 -0.0031807 -0.000260346 -1.65702e-05 -0.000177883 
-0.000327174 -9.39122e-06 -0.00020354 -0.000140326 -0.000375765 -0.000297536 -0.000278903 -0.000327231 -0.000170138 
-6.57804e-05 -0.000141148 -6.83546e-05 -1.58517e-05 -5.88768e-05 -0.000379622 -5.43612e-05 -0.000611721 -0.000301445 
-0.0025759 -0.000226122 3.1004e-06 -0.000154413 -0.000236626 -0.000108246 -0.000345408 -0.000110078 -1.87964e-06 
-0.000141152 -0.000295464 -0.000302083 -0.000288484 -8.48194e-05 2.12756e-05 -0.000168006 -0.000122057 -9.11912e-05 
-0.000192738 -0.000102331 -0.00022975 -0.000198443 1.29683e-05 -1.85409e-05 -3.57224e-05 -2.78876e-05 -4.10282e-05 
-0.000197808 -0.000195804 -0.000118722 -0.000140736 -2.82435e-05 -0.0021512 -0.00267871 -0.000247847 -0.000159355 
-1.05956e-05 -0.000310479 -0.000201391 -0.000407261 -0.000178813 -0.000182429 -5.74047e-06 -0.000175242 -8.19255e-05 
-0.000129859 -0.00047078 -0.00146795 -0.000374027 -0.000582712 -0.000257443 -0.00034957 -0.000495968 -6.01583e-05 
-0.000277706 -6.21664e-05 -0.000850012 -0.00408714 -0.000362671 -0.000208058 -2.92816e-05 -0.00015917 -0.00559178 
8.92853e-06 -0.000147351 -4.81013e-05 -0.000572602 -0.00030046 -0.000289827 -0.000253752 1.2185e-05 -0.000198805 
-0.00203243 -0.000162354 -1.94316e-05 -0.000117878 -0.000190276 -0.000202356 -1.39629e-05 -0.00344308 -0.000105218 
-0.000983165 -0.00043349 -7.35057e-05 -0.003841 -1.27331e-05 -2.35925e-05 -0.000255157 -0.000101888 -0.000339819 
-3.40441e-05 -0.000258046 -0.000174425 -0.000324916 -5.61328e-05 -0.000177519 -0.00034614 -0.000364515 -0.000340175 
-0.000123133 2.02251e-05 -0.00015751 -0.000159261 -8.41941e-05 -2.07397e-05 -0.000271679 -0.000248486 -0.000367719 
-0.000164524 -0.00031135 -5.03554e-05 -0.000175905 -4.8367e-05 -7.43709e-05 -0.000143161 -0.00035748 -0.000277821 
-0.00323337 -0.000264793 -0.000335275 -9.20155e-05 -0.000996311 -0.00155969 -2.16809e-05 -3.64787e-06 -0.000108724 
-0.00032437 -0.000314081 -0.00021534 -0.000137345 -8.09499e-05 -0.000201926 -0.000360596 8.59386e-06 -0.000174397 
-0.000275975 -4.62054e-05 4.53964e-05 -0.000172168 -0.000279389 -0.00841562 -0.00596944 -0.00529882 -0.000378418 
-0.000347225 -0.000416707 -0.00017282 -0.000173842 -0.000171708 6.07329e-05 3.66485e-05 5.82512e-05 -0.000555235 
-0.000817475 -0.000771949 -0.00454663 -0.0026576 -0.00476996 -0.00196128 -0.00104182 -0.00302101 -0.000589251 
-0.000442868 -0.00169707 -0.000790522 -0.000288529 -0.000419985 -0.000463529 -0.000102102 -0.000164236 -0.000265055 
-0.000216014 -0.000148673 -3.59308e-05 -6.8791e-05 -7.79947e-05 -2.72e-06 -1.88078e-05 -3.15988e-05 1.53592e-05 
9.22328e-06 -3.13882e-06 1.62089e-05 1.71378e-05 1.07488e-05 1.24013e-05 1.58723e-05 1.22938e-05 2.82192e-06 
7.57702e-06 7.6731e-06 -5.15878e-06 -7.36052e-07 -4.04721e-07 -1.12305e-05 -8.43076e-06 -7.35128e-06 -1.21566e-05 
-1.25113e-05 -1.2037e-05 -1.46995e-06 -7.98165e-06 -1.11993e-05 -1.2384e-05 -1.55752e-05 1.77469e-05 5.2531e-06 
1.37655e-06 2.61517e-05 -0.000714745 -0.00059179 -0.000549657 -0.000549459 -0.000401572 -0.00048084 -0.000282651 
-0.000172616 -0.000381814 -0.000345167 -0.000310662 -0.00016617 -0.000121059 -0.000256542 -0.000101051 -6.16905e-05 
-0.00021549 -0.000450477 -0.00253696 -0.000341117 -0.00313665 3.5039e-05 4.42724e-05 2.16063e-05 4.42997e-05 
3.24791e-05 8.39691e-06 2.27089e-05 1.00179e-05 -1.93475e-05 -5.93161e-07 -1.00182e-05 -5.80288e-05 -3.79185e-05 
-3.76905e-05 -9.7338e-05 -7.75121e-05 -7.29242e-05 -0.000129517 -0.00011182 -0.000104259 -0.000152802 -0.000140574 
-0.000130071 -0.000167091 -0.000161739 -0.000150095 -0.000163034 -0.000171431 -0.000170364 -0.000449143 -0.000825412 
-0.0008013 -0.00166669 -0.0024769 -0.00188683 -0.00278746 -0.00331707 -0.00297542 -0.00241872 -0.0017452 
-0.00267498 -0.00267927 -0.00184294 -0.00117989 -0.000753786 -0.00104661 -0.000652966 -0.000445511 -0.000514056 
-0.000388885 -0.000346044 -0.000368004 -0.0003878 -0.000329179 -0.000329992 -0.000330781 -0.000321355 -0.000330978 
-0.000304975 -0.000293414 -0.000295719 -0.000309452 -0.000313357 -0.000286936 -0.000274389 -0.00028287 -0.000260846 
-0.000249104 -0.00025288 -0.000265315 -0.000266291 -0.000237878 -0.000227914 -0.000237114 -0.000222215 -0.000212406 
-0.000220674 -0.000205939 -0.000198088 -0.000208381 -0.000192794 -0.000186616 -0.000196014 -0.000179383 -0.000175998 
-0.000176664 -0.000181486 -0.000183978 -0.000174535 -0.000173194 -0.000175055 -0.00017288 -0.000286226 -0.000252367 
-0.000263998 -0.000240975 -0.000275983 -0.0002253 -0.000213442 -0.000200908 -0.000185826 -0.000231085 -0.000205353 
-0.000177915 -0.000131399 -0.000110552 -0.000120418 -0.00010913 -0.000129956 -9.10975e-05 -7.50777e-05 -8.40391e-05 
-7.12304e-05 -8.72098e-05 -0.000101762 -9.20552e-05 -7.9554e-05 -0.00010156 -0.000378012 -0.000374607 -0.000375687 
-0.000372899 -0.000365405 -0.000378921 -0.000376884 -0.000370028 -0.000374814 -0.000269846 -0.000322683 -0.00032681 
-0.000317137 -0.000310667 -0.000196171 -0.000174059 -0.00017649 -0.000158568 -0.000179528 -0.000213483 -0.000233065 
-0.000216345 -0.000217038 -0.000197554 -0.000213258 -0.000180462 -7.9666e-05 -8.06725e-05 -5.91756e-05 -3.72853e-05 
-3.95149e-05 -0.000105071 -8.42975e-05 -6.69439e-05 -9.04402e-05 -2.66148e-05 -4.65822e-05 -5.37435e-05 -6.43397e-05 
-5.28262e-05 -5.43123e-05 -4.49552e-05 -5.60848e-05 -5.14277e-05 -4.25527e-05 -3.52143e-05 -3.61588e-05 -3.20764e-05 
-2.47275e-05 -3.57737e-05 -3.71851e-05 -2.48442e-05 -0.000135046 -0.0001198 -0.000125259 -0.000116565 -0.000131514 
-0.000149744 -0.00014947 -0.000140265 -0.000131906 -0.000144714 -0.000149658 -0.00015932 -0.00131491 -0.000357828 
-0.00107574 -0.000818579 -0.00182305 -0.0022083 -0.00120724 -0.00277743 -0.00321299 -0.00329997 -0.00333635 
-0.00399325 -0.000290272 -0.000257097 -0.000253112 -0.000205919 -0.000245473 -0.000207157 -0.000169516 -0.000179067 
-0.000176023 -0.000248196 -0.000355288 -0.000369057 -0.000360942 -0.000359483 -0.000341546 -0.000306256 -0.000327219 
-0.000322215 -0.000330455 -0.000308093 -0.000340907 -0.000352499 -0.000327204 -0.00032659 -4.28645e-05 -4.02491e-05 
-3.30942e-05 -2.57228e-05 -2.86244e-05 -1.99571e-05 -2.14356e-05 -2.87751e-05 -3.91887e-05 -3.82146e-05 -1.73505e-05 
-4.94615e-05 -0.000175142 -0.000171777 -0.000181827 -0.000190543 -0.00019305 -0.000193574 -0.000181068 -0.000196242 
-0.000205098 -0.00017104 -1.83829e-05 -3.77919e-05 -3.4849e-05 -5.48378e-05 -3.47422e-05 -4.10148e-05 -5.52148e-05 
-8.01588e-05 -7.87091e-05 -9.62131e-05 -7.35743e-05 -7.43123e-05 -0.000347841 -0.000337056 -0.000343222 -0.000352152 
-0.000345551 -0.000298122 -0.000328304 -0.000319033 -0.00031383 -0.000336091 -0.000347741 -0.000361599 -8.65002e-05 
-6.83353e-05 -7.07509e-05 -5.75242e-05 -9.33015e-05 -0.000107604 -9.60849e-05 -9.69873e-05 -8.31693e-05 -9.81665e-05 
-7.23366e-05 -0.000246177 -0.000267141 -0.000258567 -0.000275077 -0.00025344 -0.00030603 -0.000294752 -0.000290883 
-0.00027777 -0.00028986 -0.000267145 -0.000292144 -0.000131698 -0.000113047 -0.000135206 -0.00014074 -9.60293e-05 
-9.96423e-05 -0.000120438 -0.000129758 -0.000127957 -7.75237e-05 -0.000149917 -0.000129779 -0.000154056 -0.000175153 
-0.000128163 -0.000148021 -0.000122354 -0.000196858 -0.000175057 -0.000170935 -0.000995509 -0.000440534 -0.00030414 
-0.000397598 -0.000438266 -0.000461984 -0.000628342 -0.00110311 -0.00177914 -0.00133097 -0.0003404 -0.000342954 
-0.000336433 -0.000335294 -0.000298703 -0.000299643 -0.000232076 -0.00023513 -0.000297331 -0.000311695 -0.000356753 
-0.000368897 -2.31814e-05 -2.67625e-05 -2.0561e-05 -1.85273e-05 -1.02271e-05 -1.66726e-05 -1.64673e-05 -2.25431e-05 
-1.53868e-05 -3.13968e-05 -3.8218e-05 -2.93092e-05 -0.000193656 -0.000202529 -0.000194043 -0.000191967 -0.00018178 
-0.000168843 -0.000172781 -0.000167634 -0.000180786 -0.000187552 -0.00018334 -0.000168609 -0.000169402 -0.000168373 
-0.000160426 -0.000151893 -0.000140331 -0.000151425 -0.000160178 -0.000164718 -0.000170912 -0.000168877 -1.53623e-05 
-1.53731e-05 -1.62479e-06 9.7013e-06 9.60239e-06 4.77097e-06 1.51107e-05 -1.13674e-05 -1.29695e-05 -3.68645e-06 
-0.000356031 -0.000358563 -0.000338963 -0.000307527 -0.00031657 -0.000320529 -0.000295224 -0.000321826 -0.000346722 
-0.000364199 -0.000378452 -0.000329409 -0.000341328 -0.000345807 -0.00030525 -0.000455884 -0.000337893 -0.000365632 
-0.000245731 -0.000229791 -0.0002448 -0.00024427 -0.000258657 -0.000219176 -0.00021725 -0.000228533 -0.000239254 
-0.000214949 -0.000203248 4.27519e-06 4.95686e-07 -4.33494e-06 -8.26168e-06 -1.07756e-05 -2.2499e-06 5.04587e-06 
-1.87311e-05 -1.55878e-05 -3.08905e-05 -0.000116711 -0.000107099 -9.3812e-05 -0.000111075 -9.42222e-05 -8.31295e-05 
-9.24312e-05 -0.000124529 -8.29471e-05 -5.9371e-05 -7.36513e-05 -7.06873e-05 -6.5407e-05 -4.89479e-05 -4.60107e-05 
-5.34648e-05 -6.21831e-05 -0.00344814 -0.00332408 -0.00262808 -0.00168326 -0.00330553 -0.00324634 -0.00273992 
-0.00175444 -0.00143276 -0.000217333 -0.000237704 -0.000256477 -0.000219584 -0.000247126 -0.0002593 -0.00026722 
-0.00027567 -4.87202e-05 -4.4763e-05 -2.75581e-05 -3.21053e-05 -1.9715e-05 -4.13387e-05 -5.27557e-05 -0.000130071 
-0.000129919 -0.000119309 -0.000105909 -0.000112173 -0.000121193 -0.000114432 -0.000133337 -0.000144745 -0.000156317 
-0.000152832 -0.000139025 -0.000163781 -0.000153629 -0.00246449 -0.000424942 -0.00170634 -0.000979462 -0.00286688 
-0.0039116 -0.00339773 -0.00377581 -0.00450382 -0.000112746 -9.07539e-05 -0.000111983 -0.000132407 -0.000142546 
-0.000151144 -0.000149149 -0.000158992 -1.00021e-05 6.3358e-06 3.0505e-06 -2.13039e-05 -1.20173e-05 -7.76456e-06 
-0.000149268 -0.000196844 -0.000142687 -0.000105428 -0.000125828 -9.55079e-05 -0.000119106 -5.2039e-05 -7.88076e-05 
-7.44363e-05 -0.000257854 -0.000251389 -0.000335983 -0.000438444 -0.000403076 -0.000315151 -0.000392824 -0.000282139 
-0.000270907 -0.000230325 -0.00026447 -0.000217794 -0.000189971 -0.000407 -0.00035445 -0.000344663 -0.000328397 
-0.000320513 -0.000419701 -0.000140024 -0.000149061 -0.000159292 -0.000167319 -0.00014746 -0.000160051 -0.000178046 
-0.000188033 -4.33189e-05 -4.05837e-05 -5.04113e-05 -6.29909e-05 -6.71597e-05 -6.48823e-05 -0.000318678 -0.000313882 
-0.00032499 -0.000339147 -0.000333703 -0.000332845 -0.00228324 -0.00266245 -0.0032269 -0.00348495 -0.00309526 
-0.000257287 -0.000242054 -0.00026843 -0.000283861 -0.000269338 -0.000275569 -1.92497e-05 -0.000176504 -0.000167319 
-0.000295285 -0.000332364 -0.000343978 -0.000348656 -0.000288591 -0.000365694 -1.08731e-05 -3.27648e-06 -6.47647e-06 
-0.000209958 -0.000214452 -0.000214585 -0.000202574 -0.000170166 -0.000161204 -0.000121676 -0.000142911 -0.000116692 
-0.000288117 -0.000305424 -0.000296149 -0.000338505 -7.47427e-05 -6.32372e-05 -7.32422e-05 -7.15423e-05 -5.84453e-05 
-5.94588e-05 -0.000370719 -0.000374017 -0.000369921 -0.000286442 -0.00029128 -0.000183373 -0.000172523 -0.000146638 
-0.00144773 -0.00364678 -0.00276446 -0.00118605 -0.000412113 -0.000671336 -0.000343291 -0.000329313 -0.000308701 
-0.000285031 -0.000261929 -0.000238909 -0.000218107 -0.000201446 -0.000188962 -0.000178569 -0.00017328 -0.000171771 
-0.000202622 -0.000159499 -0.000172643 -0.000173322 -0.000173066 -0.000171486 -0.000171603 -0.000350427 -0.000154522 
-0.000183261 -0.000165769 -0.00199513 -0.000958316 -0.000206645 -0.000445908 -0.000751426 -0.00349006 -0.00274153 
-0.0021412 -0.00247917 -0.0030637 -0.00233374 -0.00298681 -0.00368175 -0.00334418 -0.00315735 -0.00103535 
-0.0015714 -0.00232247 -0.00189086 -0.00150037 -0.000581075 -0.000800011 -0.000979906 -0.000886275 -0.000756975 
-0.000395824 -0.000446272 -0.000430348 -0.000472885 -0.000561474 -0.000340455 -0.000366412 -0.000392693 -0.000383167 
-0.000362701 -0.000324305 -0.000334425 -0.000339419 -0.000338863 -0.000334769 -0.000303172 -0.000315364 -0.000324854 
-0.000321619 -0.000315436 -0.000278838 -0.000291615 -0.000302971 -0.00029776 -0.0002914 -0.000255056 -0.000267684 
-0.0002788 -0.000272884 -0.000267505 -0.000233503 -0.000244565 -0.00025515 -0.000248927 -0.000244817 -0.000213896 
-0.000223762 -0.000232911 -0.000228377 -0.000223172 -0.000197971 -0.000205957 -0.000213329 -0.000209464 -0.00020532 
-0.000186043 -0.00019126 -0.000197491 -0.000193822 -0.000190934 -0.000176139 -0.00018117 -0.000185338 -0.000182816 
-0.000180608 -0.00017218 -0.000172913 -0.000175402 -0.000173403 -0.000172951 -0.000171131 -0.000172326 -0.00022838 
-0.000100072 -0.000381385 -0.000197105 -6.16776e-05 -4.33699e-05 -0.000139983 -0.00209419 -0.000221719 -0.000341611 
-3.13274e-05 -0.000184335 -5.83702e-05 -0.00034089 -8.16454e-05 -0.000278185 -0.000118572 -0.000153941 -0.000763246 
-0.000385468 -2.31596e-05 -0.000184365 -0.000162089 -6.1148e-07 -0.000334767 -0.000362167 -0.000230455 -5.51799e-06 
-0.000103646 -5.69387e-05 -0.00251596 -0.00023904 -3.53399e-05 -0.000119646 -0.000147925 -0.00346421 -0.000124068 
-3.96965e-06 -0.000107745 -0.000338531 -0.000256351 -0.000359162 -0.000157899 -5.37609e-05 -0.000326109 -0.00307917 
-0.000259968 -1.66341e-05 -0.000177025 -0.00031894 -1.03483e-05 -0.000203045 -0.000142509 -0.00037579 -0.000295028 
-0.000424106 -0.000339246 -0.000240491 -6.55966e-05 -0.000141354 -6.90138e-05 -2.03331e-05 -6.04079e-05 -0.000377864 
-5.46307e-05 -0.000647017 -0.000299481 -0.00252555 -0.000225229 1.90248e-06 -0.000154867 -0.000236946 -0.000108989 
-0.000343688 -0.000110027 -6.57251e-07 -0.000141369 -0.000384371 -0.000302378 -0.000289885 -8.49247e-05 2.21715e-05 
-0.000168251 -0.000121947 -9.134e-05 -0.000205055 -0.000103177 -0.000229986 -0.000197796 1.10719e-05 -2.12963e-05 
-3.63185e-05 -2.88404e-05 -4.12022e-05 -0.000198474 -0.000195677 -0.000118684 -0.000140789 -2.84324e-05 -0.00234375 
-0.00252346 -0.000262689 -0.000158906 -1.10798e-05 -0.000309458 -0.000200707 -0.000409723 -0.000178354 -0.00018434 
-4.70207e-06 -0.000175177 -8.26428e-05 -0.00012975 -0.000568986 -0.00151413 -0.000369409 -0.000700277 -0.000257259 
-0.00039136 -0.000502618 -6.001e-05 -0.000275861 -6.23271e-05 -0.000385235 -0.00381706 -0.000376063 -0.000208249 
-2.93821e-05 -0.000158559 -0.00490297 5.23341e-06 -0.000153859 -5.5247e-05 -0.000593829 -0.000305796 -0.000290278 
-0.000253356 1.03074e-05 -0.000203625 -0.00194518 -0.000162897 -1.93913e-05 -0.000119315 -0.000189329 -0.000202005 
-1.41335e-05 -0.0035453 -0.000104885 -0.00114442 -0.000441591 -7.47579e-05 -0.00373714 -1.41079e-05 -2.73784e-05 
-0.000255118 -0.000105294 -0.000336415 -3.56142e-05 -0.000377494 -0.000175589 -0.000331231 -6.05964e-05 -0.000177282 
-0.000361357 -0.000387728 -0.000344001 -0.000123227 2.27295e-05 -0.000159016 -0.000236528 -8.42079e-05 -2.03939e-05 
-0.000271569 -0.000247711 -0.000369597 -0.00016431 -0.000310662 -5.06868e-05 -0.000174896 -4.90436e-05 -7.48286e-05 
-0.000144726 -0.000354137 -0.000278096 -0.003509 -0.000260586 -0.000335846 -9.77268e-05 -0.000837946 -0.00156322 
-2.23093e-05 -4.7065e-06 -0.00011544 -0.000323433 -0.000312765 -0.000215184 -0.000137567 -8.12601e-05 -0.000201345 
-0.000354314 1.00393e-05 -0.00017359 -0.000276453 -4.58062e-05 4.65102e-05 -0.000171932 -0.000278336 -0.000385348 
-0.00056665 -0.000418254 -0.00988389 -0.0043057 -0.00590983 -0.000174244 -0.000173001 -0.000171684 6.24774e-05 
5.98161e-05 3.81321e-05 -0.00080011 -0.00084647 -0.000575272 -0.000607924 -0.000729825 -0.000569164 -0.000403283 
-0.000567321 -0.000480477 -0.000174121 -0.000282913 -0.000341352 -0.000390286 -0.000309866 -0.000138618 -0.00016975 
-0.000257396 -0.000156251 -0.000125702 -0.000248677 -0.00147381 -0.000219595 -0.000313823 -0.0022709 4.61072e-05 
3.6579e-05 4.56127e-05 2.26343e-05 3.41458e-05 2.383e-05 9.36568e-06 1.11138e-05 4.33659e-07 -1.8716e-05 
-9.0135e-06 -3.75793e-05 -5.80704e-05 -3.74757e-05 -7.72808e-05 -9.77333e-05 -7.28416e-05 -0.000112659 -0.000130996 
-0.000104888 -0.000141236 -0.000153634 -0.000131105 -0.0001632 -0.000168222 -0.000151225 -0.000172033 -0.000163553 
-0.000170367 -0.00289602 -0.00490109 -0.0041932 -0.00150691 -0.00207661 -0.00304995 -0.000677328 -0.000945833 
-0.00190797 -0.000995474 -0.000578778 -0.000403303 -0.000726428 -0.0024896 -0.0013801 -0.00171241 -0.00366692 
-0.0031198 -0.00296321 -0.00170473 -0.0025758 -0.00298041 -0.00299802 -0.00194033 -0.000745568 -0.00115263 
-0.00106052 -0.000426719 -0.000619618 -0.000529517 -0.000347935 -0.000379289 -0.000385597 -0.000378837 -0.000332028 
-0.000330913 -0.000321408 -0.000330575 -0.000331435 -0.000293412 -0.000305364 -0.000309865 -0.000295955 -0.000313326 
-0.000274712 -0.000287219 -0.000283295 -0.00024876 -0.000260608 -0.000265098 -0.000252441 -0.000266605 -0.000227309 
-0.000237684 -0.000236403 -0.000211971 -0.000221711 -0.000220267 -0.000197434 -0.000205254 -0.00020773 -0.000185602 
-0.000191974 -0.000195238 -0.000175397 -0.00017864 -0.000180732 -0.000175901 -0.000183186 -0.000172734 -0.000173833 
-0.000174647 -0.000172454 -0.000440749 -0.000304408 -0.00047364 -0.000174475 -0.000111394 -0.000229495 -0.0002772 
-0.000159082 -7.74913e-05 -4.30878e-05 -8.54617e-05 -2.46085e-05 -7.39118e-06 -3.72122e-05 4.74461e-06 1.12647e-05 
-7.40329e-06 1.43453e-05 1.37296e-05 8.00292e-06 1.3484e-05 1.04702e-05 1.05468e-05 6.04458e-06 1.64203e-06 
6.18292e-06 -1.69194e-06 -5.88069e-06 -1.50395e-06 -9.01516e-06 -1.15167e-05 -8.05194e-06 -1.26618e-05 -1.21173e-05 
-1.256e-05 -7.58569e-06 -8.99786e-07 -1.20867e-05 -1.06275e-05 -1.54871e-05 6.16783e-06 1.91616e-05 2.40286e-06 
2.70029e-05 -0.000262828 -0.000252519 -0.000284284 -0.000274227 -0.000241049 -0.000213731 -0.000225827 -0.000186265 
-0.000200354 -0.000205793 -0.000231654 -0.000179556 -0.000120542 -0.000110823 -0.000131341 -0.000129645 -0.000109392 
-8.4494e-05 -7.56289e-05 -9.13731e-05 -8.74612e-05 -7.18341e-05 -9.19565e-05 -0.000101957 -7.98502e-05 -0.000102055 
-0.000382506 -0.000371827 -0.000376886 -0.000384274 -0.000383138 -0.000377288 -0.000375078 -0.000385248 -0.000386334 
-0.000379567 -0.000374966 -0.000377193 -0.000382383 -0.000381675 -0.000176599 -0.000174543 -0.000196286 -0.000179183 
-0.000158921 -0.000216165 -0.000233293 -0.000214002 -0.000217314 -0.000213598 -0.000197659 -0.000180448 -6.08416e-05 
-8.21362e-05 -8.14883e-05 -4.14894e-05 -3.97999e-05 -8.53829e-05 -0.000106059 -9.17225e-05 -6.80599e-05 -4.83243e-05 
-2.84029e-05 -5.51324e-05 -5.40726e-05 -5.2818e-05 -6.42323e-05 -5.5719e-05 -4.48313e-05 -4.25951e-05 -5.1481e-05 
-3.59177e-05 -3.54802e-05 -3.56614e-05 -2.41758e-05 -3.17584e-05 -3.71551e-05 -2.46958e-05 -0.000125132 -0.000119784 
-0.000134751 -0.000131511 -0.00011652 -0.000140326 -0.000149137 -0.000149427 -0.000131964 -0.000149561 -0.000144476 
-0.000158886 -0.00113579 -0.000489075 -0.00133023 -0.00179336 -0.00093778 -0.00124997 -0.0020401 -0.00298572 
-0.0026999 -0.00309318 -0.00296159 -0.00371091 -0.000256635 -0.000263402 -0.000294097 -0.000246782 -0.000208223 
-0.000186154 -0.000176732 -0.000214642 -0.000179238 -0.000252325 -0.000357849 -0.000371428 -0.000356598 -0.000338408 
-0.000355331 -0.000319987 -0.000326067 -0.000305409 -0.00030612 -0.000327895 -0.0003601 -0.000341677 -0.00032521 
-0.000327409 -3.39375e-05 -4.10866e-05 -4.34031e-05 -2.9203e-05 -2.66494e-05 -2.98885e-05 -2.26094e-05 -2.12294e-05 
-3.89547e-05 -4.00721e-05 -1.81264e-05 -4.99646e-05 -0.000181177 -0.000171365 -0.000174753 -0.000192419 -0.000189654 
-0.000195984 -0.000180726 -0.000193322 -0.000204937 -0.000170762 -3.93313e-05 -4.18696e-05 -2.23483e-05 -3.95664e-05 
-5.93283e-05 -5.80627e-05 -4.44118e-05 -8.25812e-05 -8.24114e-05 -7.76053e-05 -0.000101155 -7.92662e-05 -0.000338822 
-0.000337874 -0.000348216 -0.000337367 -0.000350104 -0.000319092 -0.000326276 -0.000297499 -0.000314289 -0.000342955 
-0.000333725 -0.000355721 -6.85254e-05 -8.67516e-05 -5.75981e-05 -7.05626e-05 -9.6174e-05 -0.00010759 -9.33484e-05 
-8.29288e-05 -9.70303e-05 -9.82973e-05 -7.23593e-05 -0.000257856 -0.000266762 -0.000246132 -0.000253885 -0.000274374 
-0.000291131 -0.000293719 -0.000305884 -0.000289933 -0.000278137 -0.000267329 -0.000291871 -0.000136054 -0.000113653 
-0.000132557 -0.000141285 -9.67669e-05 -0.000120591 -0.0001002 -0.00012836 -0.000129624 -7.88446e-05 -0.000150311 
-0.000154332 -0.000130834 -0.000175424 -0.000129613 -0.000123219 -0.000149494 -0.000175533 -0.000196694 -0.000172133 
-0.000573515 -0.00110232 -0.000525294 -0.000423212 -0.000711092 -0.000528587 -0.000531813 -0.00117202 -0.00143788 
-0.00182246 -0.000423256 -0.000441773 -0.000414914 -0.00039528 -0.000377034 -0.000400136 -0.000315125 -0.00033228 
-0.000323983 -0.000380643 -0.000316809 -0.000380268 -2.05352e-05 -2.66675e-05 -2.325e-05 -1.85713e-05 -1.69249e-05 
-1.69179e-05 -1.09174e-05 -1.61864e-05 -2.30952e-05 -2.96673e-05 -3.86858e-05 -3.18815e-05 -0.000193258 -0.000201965 
-0.000192924 -0.000181131 -0.000191241 -0.000171937 -0.000168439 -0.000179851 -0.000166859 -0.00018669 -0.000182403 
-0.000168762 -0.000168398 -0.000160329 -0.000167632 -0.000151571 -0.000140889 -0.000151698 -0.000160448 -0.000164759 
-0.000168575 -0.000170524 -5.48051e-07 -1.44456e-05 -1.5103e-05 1.15627e-05 1.01259e-05 1.63e-05 5.47285e-06 
-1.06848e-05 -3.12684e-06 -1.23606e-05 -0.000355439 -0.000351146 -0.000335143 -0.0003152 -0.000305367 -0.000316658 
-0.000319825 -0.000293142 -0.000344671 -0.000359913 -0.000348237 -0.000391129 -0.000362616 -0.000378526 -0.000487262 
-0.000383873 -0.000388562 -0.000380377 -0.000244462 -0.000229368 -0.000245633 -0.000258742 -0.000244624 -0.000228113 
-0.000216474 -0.000219399 -0.00023909 -0.00021469 -0.0002029 -1.08439e-06 2.56924e-06 -9.91543e-06 -5.69573e-06 
2.97452e-06 -4.90481e-06 -1.33754e-05 -2.05546e-05 -1.7286e-05 -3.21479e-05 -0.000107035 -0.000116733 -9.37853e-05 
-9.42315e-05 -0.000111151 -9.24042e-05 -8.3434e-05 -0.0001244 -8.30171e-05 -7.09134e-05 -7.35451e-05 -5.96367e-05 
-6.58047e-05 -4.65188e-05 -4.90652e-05 -5.37562e-05 -6.25925e-05 -0.00257684 -0.00322889 -0.00326139 -0.00183422 
-0.0025615 -0.00312858 -0.00319135 -0.00172285 -0.00155936 -0.000237931 -0.000216396 -0.000256058 -0.000219239 
-0.000246227 -0.000266421 -0.000258083 -0.000274707 -4.44038e-05 -4.82794e-05 -2.70831e-05 -1.84775e-05 -3.1658e-05 
-4.06646e-05 -5.24184e-05 -0.000130409 -0.000130211 -0.000119865 -0.000106013 -0.00011213 -0.000121541 -0.000114344 
-0.00014475 -0.00013312 -0.000152919 -0.000156127 -0.000138849 -0.000153105 -0.000163365 -0.00160034 -0.000314362 
-0.0018539 -0.00258582 -0.00102665 -0.00316518 -0.0036554 -0.00351913 -0.004083 -9.26935e-05 -0.00011404 
-0.000113664 -0.000133772 -0.000153769 -0.000144817 -0.000150949 -0.000160815 3.82691e-06 -1.28964e-05 4.60625e-07 
-1.53827e-05 -2.45722e-05 -1.09523e-05 -0.000154486 -0.000207145 -0.000153866 -0.000114324 -0.000131887 -0.000125207 
-0.000100673 -8.20816e-05 -8.435e-05 -5.80583e-05 -0.000267479 -0.000268774 -0.000355255 -0.000418839 -0.000461094 
-0.000401911 -0.000323368 -0.000272053 -0.000281984 -0.000231159 -0.000265066 -0.000219361 -0.000192572 -0.000358274 
-0.000410935 -0.000346753 -0.000324619 -0.000333306 -0.000425489 -0.000149586 -0.0001401 -0.000167399 -0.000159447 
-0.000147743 -0.000177888 -0.0001605 -0.0001875 -4.16936e-05 -4.49503e-05 -5.13513e-05 -6.8067e-05 -6.3883e-05 
-6.57293e-05 -0.000314576 -0.000318649 -0.000325131 -0.000334745 -0.000335054 -0.000342852 -0.00268185 -0.00225757 
-0.00318208 -0.00293974 -0.00342012 -0.000242275 -0.000257455 -0.000267994 -0.000275228 -0.000269308 -0.000284162 
-1.90756e-05 -0.000166581 -0.000175551 -0.000325381 -0.000292419 -0.000337539 -0.000288239 -0.00034574 -0.000362971 
-4.2242e-06 -1.20744e-05 -7.41156e-06 -0.000213653 -0.000209365 -0.000202096 -0.000213598 -0.000163538 -0.000172311 
-0.000123947 -0.000146838 -0.000121176 -0.000286898 -0.000303459 -0.000295336 -0.000346402 -6.28811e-05 -7.4785e-05 
-7.14607e-05 -7.32355e-05 -5.91336e-05 -5.98138e-05 -0.000366977 -0.000373641 -0.00036517 -0.000285688 -0.000289612 
-0.00021672 -1.64047e-05 -0.000535762 -0.000876057 -0.00110957 4.2938e-06 -0.000446306 -0.00967194 -0.0125928 
-0.0109674 -0.00733018 -0.00672622 -0.00112471 -0.00114298 -0.00107149 -0.00108115 -0.000957808 -0.000791532 
-0.00101961 -0.000447906 -0.00063817 -0.000707402 -0.000153879 -0.000279413 -0.000361295 -5.2404e-05 -4.05523e-06 
-9.88827e-05 -3.48812e-05 1.06967e-05 -2.13427e-05 -0.000276848 -0.00208719 -0.00019188 -0.00490248 -0.000790643 
-0.000938411 -0.000616138 -0.000449802 -0.000276001 -0.000138859 -1.49023e-05 -4.55055e-05 -1.41638e-05 -4.20385e-05 
-0.00278469 -0.00044007 7.75117e-05 6.30971e-05 3.61954e-05 2.02269e-06 -8.44527e-05 -0.000126411 -0.000156215 
-0.000175381 -3.9205e-05 -0.000173386 -0.000174092 -0.000174273 -0.00017699 7.89078e-05 7.80022e-05 7.49876e-05 
-0.000177166 7.56131e-05 5.9334e-05 6.73513e-05 7.21022e-05 6.65875e-05 2.83705e-05 4.4686e-05 5.8734e-05 
5.25338e-05 4.38262e-05 -8.28503e-06 1.21108e-05 2.7997e-05 2.129e-05 1.16549e-05 -5.17424e-05 -2.93483e-05 
-8.29928e-06 -1.91108e-05 -2.93494e-05 -9.61725e-05 -7.28959e-05 -7.31874e-05 -6.27664e-05 -5.15206e-05 -0.000135811 
-0.000116579 -9.55714e-05 -0.000106006 -0.000116351 -0.000162998 -0.000150203 -0.000135325 -0.000144113 -0.000149378 
-0.000175404 -0.000173529 -0.000162033 -0.000169508 -0.000172839 -0.000177939 -0.000174914 -0.000782201 -0.00036277 
-0.000158838 -5.96404e-05 -6.58514e-06 1.02022e-05 1.92824e-05 1.45089e-05 6.16356e-06 -3.23135e-06 -9.88717e-06 
-5.17184e-06 1.36372e-05 5.11259e-05 -1.10342e-05 6.36877e-05 6.47041e-05 4.0019e-05 -0.000954381 -0.000934145 
-0.000652722 4.13545e-05 -0.000673713 -0.000430811 -0.000307696 -0.000541066 -0.000446532 -0.000191552 -0.000129435 
-0.000247828 -0.000311291 -0.000198639 -7.56141e-05 -4.34163e-05 -0.000104946 -0.00013679 -8.23465e-05 -1.43815e-05 
9.97502e-07 -3.1099e-05 -4.83197e-05 -1.86273e-05 7.9011e-06 1.43836e-05 3.64558e-06 -1.18715e-06 6.6711e-06 
2.01834e-05 1.86086e-05 1.70502e-05 1.34812e-05 1.86842e-05 1.70202e-05 1.24899e-05 1.68435e-05 1.67212e-05 
1.53866e-05 9.0893e-06 3.94509e-06 1.01493e-05 1.18798e-05 8.30614e-06 -7.62046e-07 -4.97472e-06 1.01483e-06 
3.42641e-06 -1.1172e-06 -8.18368e-06 -1.08807e-05 -6.88804e-06 -5.32541e-06 -8.38332e-06 -1.13734e-05 -1.00671e-05 
-1.15439e-05 -1.08754e-05 -1.14162e-05 -7.0812e-06 -2.15272e-06 -8.6825e-06 -7.17393e-06 -1.01886e-05 8.44652e-06 
1.9919e-05 2.4861e-06 -1.91499e-06 8.55559e-06 2.99536e-05 2.0639e-05 -0.00106137 -0.000338042 -3.94229e-05 
-0.000172035 -0.000116482 -2.83256e-05 -0.000290865 -2.26411e-05 -0.000191016 -0.00154925 -0.00224336 -4.82482e-05 
-0.000359179 -0.000147666 -6.67037e-05 -0.000158378 -9.20718e-05 -0.000116715 -0.000103635 -0.00010998 -0.000110064 
-0.000123221 -0.000129728 -0.000123238 -2.64504e-05 -3.09272e-05 -2.93644e-05 -3.00212e-05 -2.48774e-05 -0.000528437 
-0.00045604 -0.000689053 -0.000772118 -0.000833396 -2.20789e-05 -2.5299e-05 -0.000334488 -0.000309724 -0.00034627 
-0.000325533 -0.000326173 -2.81425e-05 -3.50827e-05 -3.7446e-05 -3.67986e-05 -3.06426e-05 -0.000355835 -0.000344798 
-0.000254754 -0.000186439 -0.000271957 -0.000245885 -0.000356761 -2.01943e-05 -2.93635e-05 -0.000390915 -0.000619787 
-0.000304811 -0.000363863 -0.000356552 -0.000296076 -0.000309562 -0.000315017 -0.000309677 -0.000290233 -0.000418552 
-0.000424308 -0.000410949 -0.000378623 -0.000363846 -0.00018065 -0.000199745 -0.000184261 -0.00018958 -0.000190101 
-0.000190607 -0.000184024 -0.000183905 -0.000189087 -0.000183687 -0.000190162 -0.000130239 -0.000136648 -0.000137337 
-0.000118549 -0.000121503 -0.000122023 -0.000103983 -0.000103259 -0.000104666 -8.75202e-05 -6.73749e-05 -7.3035e-05 
-5.43473e-05 -6.70703e-05 -0.00160162 -0.00243834 -0.00298964 -0.00339591 -0.00205648 -4.72096e-05 -5.75948e-05 
-4.72567e-05 -0.000112693 -2.81836e-05 -2.79419e-05 -3.74131e-05 -1.93005e-05 -8.75447e-05 -9.13667e-05 -0.000345035 
-0.000346437 -0.000334503 -0.000150112 -0.000140958 -0.000128188 -0.000137604 1.0788e-05 8.55456e-06 1.23162e-05 
-9.16647e-06 7.08109e-06 1.72357e-05 7.57053e-06 -9.33469e-06 -1.90179e-07 -9.14598e-06 -0.00027109 -0.000265086 
-0.00025735 -0.000270926 -0.000259924 -0.000259742 -0.000129892 -0.000481747 -0.000465104 -0.00283933 -0.00356398 
-0.00361022 -0.000440384 -0.000526185 -0.000536545 1.10677e-05 9.63975e-06 1.34002e-05 -0.000148379 -0.000130976 
-8.20767e-05 -9.92819e-05 -7.80207e-05 -5.90187e-05 -0.000336815 -0.000131582 -0.000116501 -0.000123201 -0.000755856 
-0.000738668 -0.000527355 -0.000900377 -0.000305591 -0.00029919 -0.000299082 -0.000177482 -1.86295e-05 -0.000171535 
-0.000173235 -0.000170334 -0.00017132 -0.00016824 -0.000140079 -0.000147735 -0.000369531 -0.000338988 -0.000242182 
-0.000255157 -0.000246097 -0.000266918 -8.27869e-05 -9.23826e-05 -8.10629e-05 -0.000172011 -0.000172756 -0.000315076 
-0.00030235 -0.000130626 -0.000174733 -0.00015147 -0.000202069 -0.000152144 -3.81385e-05 -3.7753e-05 -5.7478e-05 
-0.00265031 -0.00193031 -0.00292463 -0.00251582 -0.00335755 -0.00101319 -0.00120261 -0.00178753 -0.000931709 
-0.000252633 -0.000254969 -0.000303987 -0.000313174 -0.000295659 -1.09614e-05 -5.00052e-06 -1.01917e-05 -4.76253e-06 
-5.19181e-06 -0.00169962 -0.00257862 -0.000721088 -0.000504762 -0.000442799 -0.000205508 -0.000209211 -0.000201135 
-0.000284133 -0.000268905 -0.000277823 -7.14736e-05 -7.339e-05 -0.000171051 -0.000173229 -0.000487216 -0.000550232 
-0.000438407 -0.000478953 -0.000169419 -0.000172144 -0.00016998 -0.000205341 -0.000122742 -0.000413046 -0.000351574 
-7.96578e-05 -5.66367e-05 -0.000201408 -0.000200823 -0.000209729 1.68617e-05 -1.14696e-06 4.13594e-05 5.54662e-05 
4.64202e-05 5.60888e-05 3.3469e-05 2.87588e-05 1.84787e-05 2.93988e-05 -0.00014031 -0.000131966 1.27e-05 
1.19613e-05 8.26185e-06 4.61683e-06 -3.99691e-06 -3.0387e-06 -1.17357e-05 -0.000172605 -0.000267386 -0.000257384 
-5.05481e-05 -4.0685e-05 -3.36197e-05 -4.3245e-05 -0.000306617 -0.000328509 -0.00173619 -0.000277689 4.19077e-05 
2.20268e-05 1.92892e-05 -0.000144114 -0.000123312 -0.000128891 -0.000148622 -0.000105747 -1.32842e-05 -1.27005e-05 
-1.57227e-05 -1.4072e-05 -1.27612e-05 -0.000216802 -0.000207587 1.57913e-05 1.49163e-05 6.86039e-06 8.84686e-06 
-0.000173499 -9.39284e-05 -8.41745e-05 -9.69979e-05 -0.00314143 -0.00345528 -0.00299325 -7.4781e-05 -0.000386676 
-0.000255278 -0.000248155 -0.000648931 -0.000170772 -0.000159606 -0.000164322 -0.000152808 -6.55383e-05 -7.46397e-05 
-6.23024e-05 -5.37567e-05 -0.000325736 -2.92073e-05 -3.54079e-05 -2.64819e-05 -3.1763e-05 -2.64742e-05 -9.55611e-05 
-0.0028371 -0.00259746 -0.00320743 -0.000174072 -0.00024096 -0.000253447 -0.000225771 -2.70479e-05 -2.99131e-05 
-5.27967e-05 -3.55111e-05 -1.20899e-05 1.20763e-06 -1.52212e-06 5.28632e-07 -3.80424e-06 -0.000148761 -0.000216604 
-0.000215077 -0.000290177 -0.00022669 -0.00022623 -0.000222071 -0.00047679 -0.000171747 -0.000172634 -9.81787e-05 
-0.000105113 -9.32183e-05 -0.000121276 -0.00316212 4.8235e-05 3.85206e-05 1.4787e-05 1.17413e-05 -0.000201938 
-0.000193168 -0.000232579 -0.000220126 -0.000327975 -0.000449302 -0.000565573 -0.000416008 1.05394e-05 1.42364e-05 
1.39487e-05 -0.000409799 -0.000314248 -0.000322473 -0.000314458 -0.000106982 -0.00323084 -0.00355256 -0.000361558 
-0.000359535 -0.000148186 -0.000125157 -0.000139996 -7.97311e-05 -0.00308966 -0.00371026 -0.00320952 -0.00262379 
-0.000253931 -0.000256291 -0.000271617 -0.000244153 -0.000232576 -0.000236477 -0.000243954 -0.000318908 -0.00361244 
-0.00335543 -0.00284425 -4.12204e-05 -3.13956e-05 1.19448e-06 -4.3185e-06 -3.41221e-06 -0.000114459 -0.000107579 
1.31127e-05 -5.59152e-05 -4.482e-05 -4.59527e-05 -0.000175645 -0.000178906 -0.000177404 -0.000174783 -0.000177245 
-0.000278466 -0.000258524 -0.000109994 -1.04258e-05 -1.66082e-05 -0.000172598 -0.000102952 -0.000105242 -8.11276e-05 
-8.47642e-05 -0.00386406 -0.00321539 -0.00015399 -0.000132052 -0.000130668 -0.000153616 -0.000274396 -0.000274351 
-0.00027583 1.62528e-05 1.19126e-05 -0.000901767 -0.000649283 4.89153e-05 -0.000246336 -0.000340027 -0.000342361 
-0.000344249 -0.000351306 -0.00035295 -7.15623e-05 -5.98005e-05 -3.60622e-05 -0.00294909 -0.000113035 -8.16705e-05 
1.10676e-05 -0.00380004 -0.00388901 -0.00328827 -0.0031716 -0.0028133 1.12006e-05 9.64014e-06 -0.00260104 
-0.00204117 -0.000280612 -0.00026648 -0.000261319 -0.000261982 -0.000216297 -0.000217133 -0.000236944 -0.000292157 
-0.000283228 -3.99012e-05 -2.95993e-05 -0.000238868 -0.000385242 -0.000377535 -0.000378934 -0.000189936 -0.000192602 
-0.000184554 -0.000181481 -0.000203222 -0.000193578 -0.000181004 -0.000179307 -0.00421706 -0.00458945 -0.000344032 
-5.74824e-05 -8.18472e-05 -5.03793e-05 -7.53767e-05 -5.23467e-05 -0.000134957 -0.000119188 -0.00014166 -0.000232799 
-0.000229915 -0.000476377 -0.000586268 -6.56511e-05 -6.41451e-05 -5.41597e-05 -0.000278854 -0.000286827 -0.000154802 
-0.000505536 -0.000368333 -0.000316276 -0.000380483 -0.000292408 -0.000276081 -2.71689e-05 -0.000248741 -7.35955e-05 
-7.07653e-05 -5.96223e-05 -6.22811e-05 -0.000133519 -0.000180773 -0.00017497 -1.90542e-05 -3.56961e-05 -3.14839e-05 
-1.20905e-05 -1.34279e-05 4.5706e-06 6.5403e-06 -0.00017635 -0.000174791 -0.000151827 -0.000140864 -0.000140646 
-0.000144539 -0.000156004 -0.000156037 -0.000119787 -2.85293e-05 -3.87342e-05 -0.000374649 -0.000374421 -0.000420683 
-0.000399563 -3.60653e-05 -2.4814e-05 -0.000195894 -0.000197103 -0.000195851 -0.000477728 -0.000344274 -0.000339903 
-5.83301e-07 3.0612e-06 -0.00327862 -0.000171878 -0.000159981 -9.60853e-05 -1.5477e-05 -5.69251e-07 -1.24893e-06 
-7.69368e-05 -8.63573e-05 -8.83553e-05 2.28902e-05 4.14372e-05 -0.000175268 -0.000150741 -0.000178787 -0.000175384 
-0.000680954 -0.000577735 -0.000201406 -0.00018613 -5.68093e-05 -3.85929e-05 -2.92754e-05 -2.90943e-05 -0.000356632 
-0.000337931 -0.000335597 -0.000196233 -0.000193342 -0.00493625 -0.00596232 -0.00797466 -8.67598e-05 -9.79178e-05 
-1.43948e-05 -1.01212e-05 -0.00010907 -0.000280834 -0.000130359 -0.00032216 -0.000329484 -0.000338769 -0.00034279 
-6.13067e-05 -0.000130201 -0.000119632 -0.000165147 -0.000163591 -5.12427e-05 -5.28958e-05 -1.46134e-05 -1.03947e-06 
-2.83445e-05 -0.00254095 -9.13189e-05 -8.43387e-05 -6.87947e-05 -7.54614e-05 -0.000135958 -0.000103797 -7.38811e-05 
-0.000112147 -0.000318665 -0.00030571 -0.000314073 -0.000326146 6.34423e-06 1.87291e-06 -4.62803e-05 -0.000359105 
-0.000339389 -4.87779e-05 -4.97289e-05 3.93608e-06 -0.000258287 -0.000244294 -0.000175354 -0.000174013 -0.00017348 
-0.000183183 -0.000181874 -0.000183682 -0.00272684 -0.00226112 -0.00226551 -0.00021383 -0.000175456 -0.000196387 
-4.88796e-05 -4.26945e-05 -0.00033846 -0.000239316 -0.000237484 -0.000294431 -0.00029182 -0.00246657 -0.00227048 
-0.00301333 -0.000174244 -0.000173579 -0.000173462 -8.65899e-05 -6.85271e-05 -0.000184769 -0.000174101 -0.000176115 
-0.000300512 -0.000321034 -0.000212728 -0.000228207 -0.00258613 -3.70653e-05 -4.09796e-05 -4.42893e-05 -5.33881e-05 
-4.13367e-05 -3.17376e-05 -4.45148e-05 -0.00010623 -0.000162689 -0.00039451 -8.31113e-05 2.17361e-05 4.07413e-05 
-4.8244e-05 -0.000138599 -0.00013868 -0.000144284 -0.000144507 -0.000153009 5.94694e-05 6.19936e-05 6.12279e-05 
-0.00115331 -0.00182305 -0.000997029 -0.00109669 -0.000113679 -0.00270127 -5.10112e-05 -0.000157715 -0.000178399 
-0.000180622 -0.000160215 -5.50073e-05 -7.56714e-05 -5.42513e-05 -0.00357088 -0.00297863 -0.000216995 -8.1834e-05 
-0.000187502 -0.000203032 -0.000208126 -0.00042298 -0.000129933 -0.000109198 -0.000118597 -0.000379092 -0.000266688 
-0.000339182 -0.000299347 -0.000316617 -0.000373981 -0.00016281 -0.000123211 -0.000141665 -0.000305261 -0.000326272 
-0.000198097 -0.000367307 -0.000394391 -5.34348e-05 -5.42212e-05 -9.20669e-05 -0.000123999 -2.2084e-05 -0.000118466 
-9.99825e-05 -9.25499e-05 -7.4391e-05 -9.26334e-05 -6.78513e-05 -0.000359951 -0.000356018 -0.0001773 -0.000235694 
-0.000319194 -0.000254263 -0.000337433 -0.000319118 -1.43511e-05 -1.87583e-05 -0.000377039 -7.00517e-06 -8.73206e-06 
-1.01801e-05 -0.000213977 -0.000625306 -0.000338298 -0.000397363 -8.74647e-05 -0.000201478 -0.000298526 -0.000110705 
-0.000122028 -0.0001019 -0.00303611 -0.00181186 -0.00274781 -0.000209673 -0.000323029 -0.000317949 1.48016e-06 
-0.000150905 -0.000158129 -0.000160056 -0.000151355 -2.0803e-05 -0.000146058 -0.000171227 -5.2422e-05 -0.0006761 
-0.000752851 -0.000676598 -0.00184642 -0.000165736 -0.000219314 -0.000290243 -0.000263971 -0.00016212 -0.000198017 
-0.000165013 -1.68232e-05 -0.000171326 -0.000120193 -0.000292843 -0.000205184 -0.000252614 -0.00037102 -0.000356097 
-0.000354142 -0.000371799 -0.000258733 -6.29424e-05 -0.000133102 -0.000144581 -0.000132904 -0.000396521 -6.35746e-05 
-8.71981e-05 -6.40153e-05 -0.000291042 -9.09833e-05 -4.19395e-05 -5.74716e-05 -5.37202e-05 -0.000377146 -0.000379681 
-0.00037773 -0.000179656 -0.000290761 -0.000263767 -0.000315676 -0.000252376 -0.000205541 -0.000274721 -0.000183647 
-0.000255699 -0.000263663 -0.000231738 -0.000219176 -0.000737223 -0.000167445 -0.000212611 -0.000160334 -0.000149483 
-8.24597e-05 -7.48644e-05 -0.000344593 -0.000358098 -1.25107e-05 -1.09047e-05 -1.81601e-05 -1.61757e-05 -1.64697e-05 
-0.000120117 -5.71416e-06 -6.44202e-07 -0.000141135 -0.000120666 -0.000687717 -0.000429978 -0.000415499 -0.000418728 
-6.548e-05 -0.000149144 -9.92357e-05 -0.000126262 -0.00017604 -0.000287166 -5.96778e-05 -5.13587e-05 -6.00249e-05 
-0.000280164 -0.000245881 -0.000229564 -0.00533978 -0.000191473 -0.000260075 -0.000112553 -0.000202306 -0.000213447 
-0.000216556 -0.000219239 -0.000197564 -0.000179305 -7.2299e-05 -6.00217e-05 -5.7724e-05 -5.88715e-05 -1.85108e-05 
-0.00806752 -0.000268148 -4.05912e-05 -0.000218446 -0.000260091 -0.000292438 -0.000256751 -0.000256313 -9.18292e-06 
-5.25107e-06 -1.35444e-05 2.22241e-06 -4.33684e-05 -0.000168309 -0.000178497 -0.000163262 -0.000163432 -0.000153117 
-0.00178517 -0.00050978 -0.000350527 -0.000356394 -0.000359596 -0.00033428 -0.000322962 -0.000294241 -0.000158823 
-2.05188e-05 -3.17973e-05 -0.000153409 -0.000158796 -0.000158781 -0.000376859 1.81044e-06 -0.000286207 -0.000396462 
-0.000168784 -0.000181339 -0.0001723 -0.000805952 -9.99211e-05 -0.000375986 -0.000654444 -0.000193976 -0.000204829 
-0.000158559 -0.000214853 1.07533e-05 3.0079e-05 2.94947e-05 -0.000131456 5.42303e-06 -0.000379907 -2.02313e-05 
-8.06732e-06 -0.000153335 -1.04534e-05 -7.21796e-06 -0.00155965 -0.00153637 -0.00218097 -0.00185693 -0.0013117 
-0.000225542 -7.05304e-05 -0.000320082 -3.19953e-05 -3.23698e-05 -2.53518e-05 -0.000544735 -0.00109029 -0.000891279 
-0.000940885 -0.000722377 -0.0011271 -0.000371887 -0.000484044 -0.0003241 -0.000296102 -0.000206806 -0.000248451 
-0.000244692 -0.000180105 -0.000166384 -0.000171956 -0.000166788 -0.00131742 -0.00134519 -0.00160659 -0.000311034 
-1.05943e-05 -1.65814e-05 -0.000111452 -0.000334591 -0.000342567 -0.000356581 -0.000346252 -0.000369922 -0.000187897 
-2.5878e-05 -2.07968e-05 -0.000214263 5.41165e-06 1.00298e-05 -0.000367643 -0.000354735 -0.000345401 -0.000155707 
-0.000213788 -0.000335644 -0.00037518 -0.000196227 -0.00019593 -0.000156867 -0.000157668 -0.000137878 -5.04013e-05 
-1.25385e-05 -1.18399e-05 -0.00317927 -0.000342714 -0.000315686 -0.000372395 -0.000232512 -0.000232138 -0.000292704 
-0.000283536 -0.000230662 -0.000228501 -0.000345853 -0.000149177 -0.000149212 -0.000183641 -0.000276874 -0.00138195 
-0.00140988 -0.00157081 -0.00106675 -0.000147869 -0.000252482 -0.000138458 -0.000145149 -7.06574e-05 -2.31698e-05 
-2.05088e-05 -0.000174347 -0.000202291 -0.000247295 -0.000699331 -0.000507092 -0.000375427 -7.68529e-05 -4.76375e-06 
2.35386e-06 -0.000340965 -0.000327135 -0.000144462 -0.000305722 -0.00029228 -0.000355152 -0.000149184 -5.06412e-05 
-4.99546e-05 -4.393e-05 -0.000368764 -0.000364533 -0.000364934 -0.00118151 -1.11437e-05 -2.41729e-05 -0.000366724 
-0.000303811 -3.58338e-05 -9.7945e-05 -0.000360835 1.05894e-05 -0.00011381 -0.00038671 -0.00110444 -0.00170232 
-0.00140937 -8.29776e-05 -8.38168e-05 -0.000334581 -0.000361249 -0.000247523 -0.000404531 -0.000397579 -0.000448459 
-0.000366089 -2.23457e-05 -2.2654e-05 -0.00218565 -0.00187745 -0.00216892 -0.00208026 -0.00216696 -0.00226338 
-0.00213508 -1.19094e-05 -0.000231241 -0.000862609 -0.000777988 -0.000692154 -0.000134478 -0.000504352 -0.000503076 
-0.000168854 -7.03263e-05 -0.00198494 -0.000117561 -0.000131987 -0.000105555 -0.000105726 -9.57569e-05 -0.000293858 
-0.00028262 -0.00027175 -0.000271842 -0.000375929 -0.000117599 -0.0048211 -0.00278162 -0.00224571 -0.000191331 
-0.00037577 -0.000103053 -0.000113242 -0.000145008 -3.39728e-06 -1.24052e-05 -0.000971256 -0.000627263 -2.29159e-05 
-2.29921e-05 -0.0011364 -0.000297541 -0.000669494 -0.000165153 -0.000187471 -0.000368451 -0.000125782 -0.000351698 
-0.007133 -0.0072401 -2.34103e-05 3.60537e-05 -0.00037764 -0.00181712 -0.000171526 -0.000284971 -3.37836e-05 
-0.000326349 -0.000326516 -0.00031371 -0.000324097 -0.0027467 -0.000361428 -0.000330444 -3.49753e-05 -9.92381e-06 
-1.61706e-05 3.67016e-06 -0.00150901 -0.00152826 -7.1362e-06 -0.000162469 -8.76203e-05 -3.74133e-05 -0.00413877 
-0.000168585 -0.000791636 -0.000347478 -0.000333229 -0.000337928 -3.95543e-05 -1.22805e-05 -5.29308e-05 -0.000324936 
-1.80475e-05 -0.000431471 -0.00140357 -9.92856e-05 -9.58906e-05 -0.00174896 -0.000828808 -0.000822823 -0.000334149 
-0.000196318 -0.00011007 -0.000358097 -0.000306774 -0.00149146 -0.000183568 -8.32784e-05 -0.000361473 -0.000158502 
-1.59947e-05 -0.000192789 -0.000193168 -0.000104362 -1.16492e-05 -0.000332437 -0.000147818 -0.000147929 -1.89511e-05 
-0.000289665 -0.000290185 -0.000341182 -0.0106789 -0.000938538 -0.000158766 -0.000335405 -0.000333187 -0.00033235 
-0.000173913 -0.000174494 -3.93211e-06 6.39418e-05 -0.000173709 -0.000165305 -0.000165593 -0.000330594 -8.84873e-05 
-0.000166589 -2.04149e-05 -8.30334e-05 -7.41242e-05 -0.000167976 -0.000630921 -0.000347538 -8.58239e-05 
Strain%20yz%20component 1 3545 double
-0.00118383 -3.56208e-05 1.39703e-05 -3.90334e-05 -2.28373e-07 3.38211e-08 2.51915e-06 9.81165e-08 1.19521e-07 
-7.21837e-06 0.000498646 0.000540042 -1.62404e-05 -7.9907e-05 0.000119266 0.000540195 0.000197576 -2.89615e-05 
-2.78541e-05 -6.77888e-06 -0.000120291 0.000118158 7.67053e-05 -1.27279e-05 -7.23289e-05 -0.000137535 8.80039e-05 
2.0708e-05 -8.30121e-06 -0.00114709 -3.86693e-05 3.51106e-05 -3.03492e-05 5.07339e-05 -6.06369e-05 -1.40008e-06 
-5.94782e-06 -4.00169e-06 1.45673e-07 1.82915e-07 1.32105e-07 -6.2351e-08 -1.04945e-07 2.74532e-07 1.93494e-07 
2.02073e-07 9.30511e-08 7.45134e-08 -4.69153e-08 -1.28296e-05 -5.48498e-05 -3.4165e-05 -7.87056e-05 -1.17458e-05 
-2.66237e-05 -6.81225e-06 -8.08306e-06 -1.44798e-06 3.43375e-08 7.63167e-07 2.89707e-07 -3.64792e-07 4.95325e-07 
7.72824e-07 5.15592e-07 4.19474e-07 4.69062e-07 -2.53236e-07 -6.00315e-08 1.26675e-07 3.52718e-07 6.67249e-07 
8.07678e-07 7.98357e-07 7.91919e-07 4.68513e-07 -1.74036e-07 -8.42032e-07 2.16202e-07 5.61406e-07 6.27913e-07 
5.87595e-07 7.6081e-07 7.51113e-07 3.96157e-07 2.58577e-07 -2.31581e-07 -6.6091e-07 3.97061e-07 6.50972e-07 
-1.40696e-07 -3.06429e-07 7.24285e-08 -1.16099e-07 6.02089e-08 -2.7281e-08 -5.09133e-10 6.17371e-09 3.04936e-08 
-1.71213e-07 -1.01734e-08 -1.73735e-07 -4.34019e-06 -1.88875e-06 -9.5945e-07 -7.15315e-07 -5.75661e-08 -4.44998e-07 
-6.88659e-08 1.66799e-08 1.01614e-07 6.13691e-08 7.92575e-08 1.42981e-07 1.25431e-07 7.86487e-08 1.06141e-07 
2.30306e-06 -4.25363e-06 -2.77637e-06 -5.2407e-06 1.12485e-05 5.36456e-05 0.000127024 -2.8501e-06 -4.78742e-06 
-6.26256e-06 -7.06389e-06 3.27741e-06 4.19771e-05 0.000179448 -0.000592004 -2.81174e-06 1.08143e-05 -3.18726e-05 
6.366e-05 -3.09114e-05 -9.20391e-06 -6.29554e-06 -1.44675e-07 -2.38883e-07 1.73705e-07 1.5319e-08 -1.01031e-07 
-6.80033e-08 6.11037e-08 8.38315e-08 1.54067e-07 2.27369e-07 -1.24212e-07 -1.15313e-07 1.09937e-06 9.54474e-07 
4.77949e-05 6.8206e-05 -1.75766e-05 -7.39418e-06 -6.20146e-06 3.30759e-06 1.10845e-06 -3.00216e-07 -6.30228e-08 
-8.46169e-08 2.40121e-07 -2.59016e-07 -1.24444e-07 -1.15147e-07 6.77232e-08 -2.12507e-07 -9.80655e-08 -1.06335e-08 
-4.93467e-08 1.33091e-07 4.29232e-07 -3.67256e-09 4.72241e-08 1.28376e-07 1.89903e-07 -6.18847e-08 2.93277e-07 
-4.76211e-08 -7.53968e-08 -3.19279e-07 1.27026e-07 8.97187e-09 -3.93178e-08 -1.76423e-07 -6.29501e-08 3.38145e-08 
-2.44987e-07 -2.67807e-08 -3.61317e-06 -1.51023e-06 -1.20744e-06 -7.18587e-07 -2.90989e-07 -4.72845e-08 -6.78503e-08 
-5.67667e-08 -3.66035e-08 2.27804e-08 2.90891e-08 3.49813e-07 -3.94386e-08 1.67112e-07 -3.63894e-10 -2.57206e-11 
6.35276e-12 2.87401e-11 3.74641e-11 2.27326e-11 1.73017e-11 1.21582e-11 8.89668e-12 1.94248e-12 2.69926e-12 
1.03049e-12 8.49511e-12 1.03129e-12 3.51467e-12 -5.02269e-06 4.30562e-06 2.87933e-06 -1.1489e-07 -2.88691e-06 
4.55697e-05 -2.9882e-05 -1.80792e-06 3.17472e-06 -9.58284e-07 8.05953e-06 2.34321e-06 -9.27347e-06 -6.93874e-05 
-0.000448306 -4.0114e-07 1.42736e-08 -9.58023e-05 -0.000226953 0.000942591 0.000372341 -2.81722e-05 -0.000775872 
-0.000249927 0.000409875 -2.77285e-05 -7.35793e-05 -6.55174e-05 -7.56917e-05 -0.000350327 0.000849292 0.000761602 
0.000302497 0.000476809 0.000123214 0.000466879 0.000354491 0.000511571 0.000255439 -8.81756e-05 2.71246e-05 
4.69651e-05 0.00018577 -4.97761e-08 -6.13983e-05 4.27285e-06 -1.01157e-07 6.77664e-08 1.18818e-05 5.1595e-08 
6.70963e-08 2.77761e-08 2.36992e-08 -0.000218958 -2.03943e-09 2.67901e-07 -2.28906e-08 8.05073e-08 1.36733e-07 
-1.42602e-07 -3.15977e-08 5.07351e-09 -6.7858e-08 -1.83238e-07 -3.52515e-05 3.64163e-05 -4.56884e-08 5.42213e-08 
4.05238e-08 -8.04692e-08 -3.96279e-07 1.87303e-05 1.09815e-07 -7.57017e-08 -6.99461e-08 1.74272e-08 0.000169585 
2.88909e-08 8.03755e-09 -5.19886e-08 -3.35839e-08 -0.000680125 -1.40607e-07 1.26581e-07 9.81237e-08 5.32345e-07 
-2.35491e-07 2.07068e-07 2.52368e-08 1.90379e-08 1.02348e-06 -0.000160733 -1.23051e-07 -9.55468e-08 9.54378e-08 
-4.95439e-07 4.4306e-09 -4.01439e-08 5.12396e-08 2.56329e-06 -1.88285e-07 3.38415e-05 9.74585e-06 6.68457e-05 
3.05961e-08 5.90811e-08 -3.45786e-08 -3.36044e-07 2.71653e-07 3.27244e-06 -1.16445e-07 6.73713e-06 -5.19121e-08 
0.000112158 -4.95755e-08 -6.11142e-08 9.61372e-08 -3.05576e-08 1.56738e-08 -1.06619e-06 2.54851e-08 -4.586e-08 
-2.33947e-08 2.15043e-05 8.65631e-08 -1.8203e-07 -2.55701e-08 1.28367e-07 3.82165e-07 -5.13732e-09 1.10782e-07 
4.23389e-07 7.49112e-08 9.16871e-08 -2.76845e-08 -2.01979e-07 -1.37142e-07 -2.77201e-08 1.02278e-08 -9.63626e-08 
1.69829e-07 1.80497e-08 -4.98778e-08 -3.61802e-08 1.62184e-08 -0.000130635 0.000107225 3.22481e-06 -1.07867e-07 
1.07197e-08 9.87942e-08 3.3197e-08 -1.94222e-05 4.95201e-09 -2.07251e-07 1.38931e-08 8.40496e-08 6.16852e-09 
-4.92343e-09 -1.67943e-05 -2.80226e-05 -1.41742e-07 -2.5415e-05 1.65474e-07 2.36482e-05 -1.34007e-06 -1.64705e-08 
-2.58836e-07 -8.84323e-09 -0.0001049 -0.000121744 4.8529e-06 2.91324e-09 4.02355e-08 5.61065e-08 5.2398e-05 
3.94725e-07 -3.8229e-07 1.28546e-07 -3.79575e-07 1.03551e-08 -3.54423e-07 -1.12142e-07 8.27361e-08 -3.32029e-07 
-0.00016637 6.02735e-08 1.67598e-08 7.18837e-08 8.78641e-08 1.46966e-07 6.09451e-08 0.000568602 -2.48591e-08 
9.21249e-05 -8.63391e-07 3.26981e-08 -4.96103e-05 7.89741e-08 -7.81019e-08 4.02473e-08 2.68693e-08 2.6405e-07 
-1.34817e-07 1.88862e-05 -7.28232e-08 3.4986e-06 -1.55701e-07 -3.03125e-08 5.98731e-07 2.00791e-05 2.86148e-06 
-2.08845e-08 1.34617e-08 -3.42311e-09 4.65674e-05 8.49663e-08 -3.41407e-08 -3.93358e-08 2.57447e-07 8.15389e-06 
2.33115e-08 1.70108e-07 1.4335e-08 -1.82528e-08 2.10777e-08 7.39862e-08 -2.15394e-08 -4.77305e-07 -1.36839e-07 
1.21446e-05 -8.17883e-07 -2.80399e-07 1.79506e-08 0.000108993 -9.18851e-05 2.39061e-08 4.48245e-08 1.20846e-07 
1.72323e-07 -2.15622e-07 5.20865e-08 -5.63393e-08 -5.94129e-08 -6.45992e-08 -5.8007e-07 5.48616e-08 2.29364e-07 
-1.21655e-07 5.78998e-08 -4.06493e-08 -2.24315e-07 -6.82932e-08 -8.09392e-05 0.00049265 0.000159167 -4.45938e-05 
-2.55714e-05 -4.91531e-05 -2.98644e-07 -8.86586e-07 3.53652e-08 1.7267e-07 -9.32382e-08 -5.14447e-08 8.24249e-07 
-3.09243e-06 4.43028e-06 0.000646863 0.000674111 0.000473056 0.000220352 -4.34738e-05 0.000281786 5.04454e-05 
-1.62277e-05 0.000113241 3.61367e-05 1.18077e-06 -1.06195e-06 3.24089e-06 -2.00855e-08 -8.7186e-07 2.94949e-06 
1.28118e-06 -9.64291e-07 -1.16817e-07 -1.92683e-07 -8.46056e-08 -5.39815e-07 -7.70938e-07 -5.4395e-08 4.78518e-07 
6.31122e-07 -1.02886e-07 -3.17579e-07 -3.65395e-07 1.77563e-07 1.10235e-07 4.61377e-08 -6.92808e-08 -2.0156e-07 
-2.85174e-07 7.14353e-08 4.84465e-08 1.14053e-08 -1.6914e-07 5.36947e-08 -9.25294e-08 4.37392e-10 1.97206e-08 
-5.52642e-08 4.23372e-08 -1.2342e-07 5.37499e-08 1.03018e-07 -3.39084e-07 5.29002e-08 1.15805e-07 -7.75794e-08 
-3.50346e-07 -6.84551e-08 -3.70447e-07 3.79326e-07 -8.65825e-06 -6.16055e-07 -3.40831e-06 1.38273e-06 1.5975e-06 
4.05309e-07 -2.62188e-06 -1.02107e-06 -4.29572e-06 2.20748e-07 4.26755e-06 2.34373e-06 3.56965e-05 3.77905e-05 
2.08584e-05 -6.72778e-05 -3.26222e-05 9.49353e-05 -0.000361971 -1.11093e-07 5.49477e-08 3.0096e-07 -1.56371e-07 
-2.35227e-08 -2.06842e-07 3.4245e-08 3.32568e-07 3.1705e-07 4.0657e-07 -3.39946e-07 1.89636e-08 -1.48293e-07 
-3.09341e-07 1.6569e-07 2.19482e-07 -1.85751e-07 3.10511e-07 2.39567e-07 -1.33067e-07 1.6118e-07 -1.45502e-07 
-4.6453e-07 -2.13774e-07 -2.49273e-07 4.24748e-07 3.30557e-07 3.63073e-07 2.12891e-07 2.88844e-05 5.69909e-05 
6.29172e-05 0.00014952 -3.88953e-05 0.000146517 5.33413e-05 -3.90297e-05 4.59203e-05 -2.24686e-05 -8.59017e-05 
-0.000104719 -6.95734e-06 -0.000111009 -1.23257e-05 2.93226e-05 -2.08097e-05 -2.20192e-05 -7.13103e-06 -2.94365e-05 
-4.48131e-07 1.88924e-06 9.00629e-06 -4.26736e-06 8.94091e-06 2.40009e-06 -1.20135e-07 -5.21505e-08 1.24353e-06 
-2.73866e-07 1.89541e-07 -1.13086e-08 5.0761e-07 -2.88279e-08 -1.39631e-07 1.91585e-07 5.5468e-08 -2.67858e-07 
2.04309e-07 2.37235e-08 -7.28111e-08 -2.64297e-07 -3.68519e-07 2.7051e-07 2.68196e-07 6.32891e-08 4.10636e-07 
7.86079e-08 7.39013e-08 2.51246e-07 -1.40813e-07 -4.47732e-08 5.5002e-08 -2.26898e-07 -2.46967e-08 -3.21149e-07 
2.09975e-07 -1.03298e-07 3.22237e-07 7.08992e-08 9.02124e-09 -1.69223e-07 1.59874e-07 8.64064e-08 -8.19601e-07 
-4.50765e-07 -1.28935e-07 3.33809e-07 -9.82822e-08 4.55651e-07 -2.12317e-07 9.53296e-08 1.93442e-07 -3.13815e-07 
-2.66207e-07 2.13419e-07 2.62432e-07 6.25325e-08 -3.21558e-08 -1.62915e-08 -2.57978e-07 -9.09611e-08 4.89003e-08 
8.42268e-08 1.19266e-07 -1.89795e-08 -1.31582e-07 2.42416e-08 4.68045e-08 3.30866e-06 2.31066e-06 7.5667e-06 
9.78852e-06 1.86558e-05 -5.59767e-07 4.44333e-06 1.43365e-05 1.07695e-05 2.13294e-05 2.18723e-05 2.9152e-05 
3.14531e-05 2.62935e-05 -2.35849e-07 4.81716e-07 2.90614e-08 -1.98136e-07 3.23602e-07 2.43162e-07 3.17414e-07 
4.46931e-07 2.02854e-07 1.67269e-07 -2.83865e-07 2.38832e-07 6.60352e-07 1.85288e-07 3.44458e-07 3.43633e-07 
7.96624e-08 -6.31241e-08 2.95337e-07 -1.06616e-07 5.39631e-07 -1.61106e-07 -2.68702e-08 8.59401e-08 1.31574e-07 
-6.59207e-08 -9.13882e-08 -1.0882e-08 1.35783e-08 -1.15683e-07 -2.27595e-07 -7.83353e-09 -2.22739e-08 -1.47155e-08 
-7.31311e-09 9.44167e-08 7.05479e-08 -1.61933e-08 -1.66688e-07 -1.39444e-07 -4.6628e-08 7.47266e-08 1.1954e-07 
7.01771e-08 -6.25576e-09 6.75554e-08 8.41692e-08 4.54029e-08 2.03748e-08 -2.43693e-08 -0.000106251 1.17306e-05 
-5.93477e-05 2.42513e-05 -9.15666e-05 -0.000128255 -2.01808e-05 -2.10434e-05 -0.000152429 -9.93755e-05 -0.000194671 
-7.48191e-05 1.73673e-07 -4.47135e-07 2.34089e-07 3.18878e-07 1.36191e-06 5.7788e-08 -1.05529e-07 -1.08982e-06 
-5.04234e-07 -1.09247e-06 2.24092e-06 4.23448e-06 -3.8059e-08 3.83392e-07 1.3845e-07 1.95389e-07 7.96285e-07 
5.39158e-07 -1.16251e-07 -2.15122e-07 1.47916e-06 4.0155e-06 4.28411e-07 1.79668e-06 2.01594e-08 -6.72451e-08 
-8.06598e-08 5.98506e-08 -1.50499e-07 -7.46558e-08 -5.18446e-09 -1.8675e-07 -5.76795e-08 -2.33115e-08 1.28403e-07 
-8.50265e-08 2.52027e-07 8.77939e-08 1.13474e-07 1.3887e-07 -6.59917e-08 8.72107e-08 -2.07943e-07 1.18152e-07 
-1.06663e-07 -3.82432e-08 3.12678e-07 3.44314e-07 8.60782e-07 1.73778e-07 3.51407e-07 -3.41277e-08 1.26251e-07 
7.60218e-08 4.04816e-07 7.90928e-08 3.35828e-07 3.43013e-07 -6.5303e-07 3.87358e-08 -1.33898e-06 -6.05348e-07 
-7.42521e-07 -2.20893e-07 1.80757e-08 -4.25454e-07 -1.26511e-06 -8.05929e-07 -1.57354e-07 2.99417e-07 -4.88208e-08 
-3.92001e-08 -1.01146e-07 -3.25716e-07 3.80509e-09 2.80528e-07 1.08433e-07 1.20552e-07 2.78902e-07 1.70528e-07 
1.60408e-07 1.39818e-07 2.42027e-07 -3.09308e-08 -1.83993e-07 -4.60519e-07 1.71215e-07 -2.90478e-07 -3.03317e-07 
-2.71556e-07 -1.30109e-07 -1.27819e-07 -2.04572e-07 4.51172e-08 1.49904e-07 5.22183e-07 1.80497e-07 3.90354e-07 
2.33578e-07 -1.79954e-07 -3.67787e-09 -2.50783e-07 1.74474e-07 2.11298e-07 2.9996e-07 -2.20596e-07 -1.62315e-07 
-1.06056e-07 -2.48075e-07 3.8001e-07 -3.28278e-07 -2.89423e-07 -5.01627e-07 -2.25216e-05 -3.95788e-06 1.47428e-05 
-1.86973e-05 -5.24285e-06 9.80444e-07 -3.11024e-06 -8.9646e-05 -5.31469e-05 -8.61314e-05 4.47923e-05 3.69257e-05 
2.58575e-05 3.79707e-05 2.13126e-05 3.5638e-05 3.32317e-05 4.22819e-05 2.40084e-05 9.07011e-06 2.53203e-05 
1.2278e-05 -3.56761e-08 -2.05506e-09 -2.9544e-08 3.12829e-08 1.01389e-07 1.38051e-08 -9.66062e-08 2.21617e-08 
6.89659e-10 -1.33844e-07 -1.08655e-07 -1.37083e-07 -1.24777e-07 -3.5387e-08 1.66996e-07 1.28794e-07 -6.72397e-08 
-1.88244e-08 -5.32249e-08 -5.42687e-08 -9.15561e-11 -2.99207e-08 -5.89305e-08 1.94403e-07 8.9076e-08 -1.82258e-08 
7.32642e-08 6.70661e-08 1.16103e-07 1.02864e-07 -1.19577e-08 -7.55446e-08 3.42234e-07 1.27988e-07 1.38919e-07 
7.57894e-08 2.04786e-08 -9.48434e-08 -3.44279e-08 -3.15885e-08 4.12403e-07 -1.82072e-07 2.25948e-08 -1.78455e-07 
-7.55103e-07 5.24039e-07 -6.75503e-07 1.69739e-07 6.88006e-07 3.66839e-08 8.47363e-07 -3.36697e-07 -1.46986e-06 
-1.21099e-06 4.98269e-06 1.89087e-05 1.06251e-05 6.91663e-06 1.35716e-05 -1.24803e-06 2.08188e-05 9.58998e-06 
-9.79786e-08 -2.18285e-07 -5.20477e-07 4.14293e-08 2.22836e-08 4.33879e-07 1.99854e-07 3.20288e-07 -1.32741e-07 
-1.12501e-07 1.28594e-07 1.31061e-07 3.84942e-07 2.08882e-07 -6.405e-08 7.60431e-08 3.33064e-07 7.74019e-08 
-2.02081e-07 -3.33371e-07 1.24983e-08 1.40611e-08 6.38942e-08 -1.09828e-07 -4.06229e-08 1.09938e-07 4.12915e-08 
-8.29894e-09 -5.56596e-08 1.12843e-07 -6.42332e-08 1.22857e-08 -2.44431e-08 4.39095e-08 -1.71138e-07 -1.27016e-07 
-1.59127e-07 -2.14783e-08 6.38286e-05 0.000114223 0.00012892 0.000126952 0.000170346 6.26469e-05 0.000168932 
0.000154811 8.19271e-05 3.90009e-07 2.26797e-07 2.0129e-07 -2.53915e-09 -3.72833e-07 2.27674e-07 -6.37397e-08 
2.56608e-07 -9.12355e-08 8.15917e-08 2.26662e-07 -1.14117e-07 1.58153e-07 -1.86359e-07 2.43359e-08 3.8472e-10 
4.42504e-09 1.64349e-07 1.91054e-07 4.59442e-08 8.20774e-08 1.33138e-08 -8.2042e-08 -9.49746e-08 -2.21581e-07 
-1.36666e-07 1.46241e-07 8.8141e-09 1.02356e-07 -0.000579811 8.4708e-06 -0.000171375 3.1986e-05 -0.000362842 
-0.000281416 2.72728e-05 0.00022291 -0.000596549 -2.83798e-07 5.73002e-07 1.46367e-07 -2.94085e-07 4.57347e-07 
5.22203e-07 8.75387e-08 -5.28948e-07 1.78369e-07 1.47188e-07 2.79905e-08 -5.93848e-08 3.67636e-07 3.24705e-07 
-1.02376e-06 -9.54351e-07 7.8839e-07 1.11845e-07 4.06135e-07 2.48026e-07 -7.57524e-07 -6.90459e-07 -1.53894e-07 
-8.07594e-07 3.87172e-08 -1.13913e-06 1.06398e-06 -2.22768e-06 -1.24122e-06 -2.33662e-07 -2.01013e-06 4.11732e-08 
1.45724e-07 6.20881e-08 1.87381e-07 4.6181e-07 4.85895e-07 1.92899e-06 6.86909e-09 -6.78691e-07 -7.39929e-07 
-1.07445e-06 -3.16643e-07 1.06561e-07 3.35612e-07 -2.76707e-08 9.77426e-08 8.70235e-08 1.93138e-07 -1.74257e-07 
3.332e-07 4.73158e-08 1.26709e-07 -3.66141e-08 1.78901e-07 2.20823e-07 -1.56524e-07 6.84546e-07 5.05087e-07 
9.54198e-07 1.91493e-06 2.33779e-06 1.43884e-06 -8.54596e-05 -0.000174189 -0.000106854 -6.07454e-05 -5.27795e-05 
-3.50184e-08 -1.17302e-07 9.94119e-08 5.60389e-08 -3.15459e-07 2.10426e-07 1.46911e-07 -7.7462e-08 8.63114e-08 
-2.07651e-06 4.88043e-07 -7.08138e-07 3.20198e-06 1.99421e-06 1.54186e-06 1.13308e-07 -6.13566e-08 -1.36886e-08 
1.30679e-07 2.3787e-07 -7.21752e-08 2.1371e-07 6.60404e-07 4.82858e-07 -4.40541e-07 -4.52564e-07 -3.69924e-07 
3.767e-07 2.5182e-07 -2.83198e-07 6.56143e-06 3.36797e-08 1.93367e-07 -1.31478e-07 6.47054e-09 -1.1121e-07 
5.27211e-08 1.59177e-07 5.6429e-06 9.32213e-07 -2.76712e-07 1.68044e-07 -2.96917e-05 6.52767e-09 -3.05217e-05 
9.7097e-05 0.00014859 -6.34497e-05 -2.83951e-05 -4.69539e-06 -1.87596e-05 -2.44912e-07 -7.54645e-08 -3.8491e-08 
1.02272e-07 -2.83296e-08 1.50955e-08 7.3804e-08 2.00671e-07 9.34778e-08 2.74688e-07 7.22958e-08 -3.62964e-05 
-3.32591e-06 -2.08531e-05 -2.1783e-05 6.6393e-08 -6.23984e-08 3.6665e-08 -2.19433e-07 -5.48425e-05 -4.91687e-05 
-1.74193e-05 6.56717e-06 -5.36983e-07 8.26845e-05 -6.70795e-07 1.10645e-05 -1.51717e-05 0.000105362 0.000218125 
0.000113467 4.51352e-05 9.39257e-06 -5.70712e-05 1.54205e-05 0.000100843 6.61612e-05 -2.01373e-05 -1.26212e-05 
-7.7001e-05 -7.60643e-05 -6.40227e-05 9.09349e-07 -1.13509e-05 -1.59208e-05 -1.1102e-05 -3.75828e-06 -7.7958e-06 
-5.8151e-06 -8.54972e-06 -1.12562e-06 -9.99683e-06 -2.11074e-05 -1.09427e-07 -3.10706e-06 -1.41959e-06 -2.07195e-06 
2.83665e-07 -1.88735e-07 -3.15766e-07 8.41047e-08 -2.25829e-07 2.58839e-08 1.32455e-07 -3.92913e-08 1.41088e-07 
1.8988e-07 2.87558e-07 3.72587e-07 -6.88382e-08 -9.25845e-08 9.36514e-08 2.43822e-07 8.23073e-09 -3.01368e-07 
-2.78429e-07 -4.49336e-08 1.2855e-07 4.02409e-07 -1.68741e-07 -4.53844e-07 -1.75593e-07 1.98265e-07 2.57936e-07 
-5.3334e-08 -2.70959e-07 2.01242e-07 3.62007e-07 4.46619e-07 1.00878e-08 -7.90509e-08 1.75424e-07 3.12524e-07 
2.71661e-07 2.41961e-07 -3.39394e-08 1.81791e-07 5.95488e-08 6.88049e-07 1.1114e-07 -1.8218e-07 -3.56573e-08 
9.51163e-08 3.70593e-08 1.78525e-07 -1.86332e-07 -1.83456e-08 -5.14217e-08 -7.30692e-08 -6.44463e-08 3.99696e-08 
-5.19588e-08 1.42403e-06 -6.9547e-08 2.43354e-08 2.73587e-08 5.03016e-08 -2.38826e-05 5.84221e-07 -4.78922e-07 
-6.03002e-08 3.62504e-08 -7.41134e-08 -1.96192e-07 4.67728e-08 8.88831e-08 5.67837e-08 4.07481e-08 1.93556e-05 
5.61953e-06 -4.82495e-08 -1.43631e-07 4.17747e-08 3.70493e-08 -2.50359e-07 1.36932e-05 3.84011e-09 9.08356e-08 
9.50226e-08 -1.55354e-08 9.02178e-06 3.73691e-08 -8.50085e-09 6.09483e-08 1.72529e-08 -8.19046e-05 2.04792e-07 
1.3017e-07 -1.64369e-07 -1.37971e-06 3.16834e-07 -1.89516e-07 -7.52819e-08 -3.65216e-09 3.36219e-07 -1.06791e-05 
8.7106e-08 -1.35512e-09 4.96466e-08 -5.34398e-07 7.98785e-08 1.58282e-07 -8.3006e-08 -4.03227e-08 1.31833e-08 
3.80361e-06 1.80242e-06 8.05119e-06 -9.97967e-09 -5.7402e-09 6.30876e-08 2.97808e-07 1.23203e-08 9.44976e-07 
-4.31034e-08 -1.40053e-05 -8.85916e-08 -1.89334e-05 8.9067e-08 -2.6425e-08 -1.1897e-08 -8.50003e-08 -1.30924e-07 
4.75882e-07 -6.85571e-08 -1.8268e-07 -9.88632e-08 -3.07175e-06 -2.20493e-07 2.71887e-07 4.74004e-08 -2.22865e-07 
-3.1508e-07 -8.8549e-08 -1.72131e-07 -4.29993e-07 -2.50609e-07 -1.86361e-07 -4.0909e-08 7.74507e-08 1.03161e-07 
-4.04318e-08 3.69189e-08 -5.75396e-09 -1.24941e-07 5.17691e-08 -2.66024e-08 1.60157e-08 5.68683e-08 -7.39336e-05 
6.52915e-05 2.96205e-06 -2.83765e-08 6.38221e-08 5.64434e-08 6.96381e-08 -6.55746e-06 -9.53881e-09 5.02303e-07 
-6.54196e-08 4.63336e-08 -7.64139e-09 1.21998e-08 1.38682e-05 1.75047e-05 -2.79661e-07 -7.39426e-06 -1.19504e-07 
2.65919e-06 6.4971e-07 4.44503e-08 2.77809e-07 6.79879e-08 0.000121792 -5.30491e-05 -1.55944e-07 1.14584e-07 
3.65045e-08 -3.22363e-08 -0.000279355 -2.44443e-07 1.13841e-07 1.3858e-07 1.92826e-06 2.64028e-09 -5.63853e-08 
1.93953e-07 -7.3052e-08 -8.65007e-08 1.34352e-05 -1.65927e-08 2.02148e-08 1.10471e-08 -1.3812e-07 -2.66815e-07 
-6.26526e-08 -5.17597e-05 5.06661e-08 -1.81867e-05 -1.77343e-06 5.77967e-08 -2.3348e-06 3.31631e-11 2.79939e-07 
7.54603e-09 -3.12694e-07 -1.44764e-07 1.07787e-07 1.65791e-05 -2.60444e-07 -6.06308e-07 -1.08412e-07 5.22955e-09 
2.21242e-07 2.17384e-06 -3.23434e-07 9.17431e-08 -7.41762e-08 1.34046e-08 1.3301e-05 -5.74589e-08 -5.86033e-08 
-7.92077e-08 -1.44957e-08 1.66216e-06 -1.35687e-07 1.07483e-07 -9.98301e-08 1.666e-08 8.26483e-08 1.81407e-08 
1.61388e-07 2.98691e-07 -6.06751e-08 3.03715e-05 -1.39205e-06 -9.38987e-07 2.31766e-07 1.68965e-05 -3.31302e-05 
5.57362e-08 -5.04183e-08 1.76534e-07 2.34844e-07 4.21732e-08 6.97047e-08 1.72946e-07 1.36941e-07 -7.61185e-08 
-1.87212e-07 3.15258e-08 -3.70972e-08 1.21478e-08 -1.2329e-07 1.41853e-07 1.84253e-07 3.63562e-08 -1.01593e-05 
-2.64795e-06 -9.21727e-06 1.80526e-05 -8.75156e-05 -0.000263868 2.10572e-07 1.47749e-07 -4.02303e-08 -5.86412e-08 
2.4728e-07 1.80932e-07 -7.7287e-07 2.71033e-06 -3.70726e-06 -1.73921e-06 1.98175e-06 9.77514e-06 2.1659e-06 
4.01388e-06 -9.29981e-06 -1.4526e-06 -1.18238e-06 -2.49149e-06 -3.67621e-06 3.84369e-06 4.65377e-06 -3.84033e-06 
-7.91358e-07 8.79239e-06 -8.07072e-06 7.83697e-06 -3.87039e-05 9.74739e-05 2.6181e-05 0.000145276 -1.10937e-07 
3.23737e-07 2.25749e-08 -3.74852e-07 6.97804e-08 -3.89844e-07 7.38172e-08 -5.79911e-07 -1.22734e-07 -2.45418e-08 
5.45123e-07 -8.07739e-08 -6.40465e-08 2.96478e-07 4.03643e-08 1.23668e-07 7.50849e-08 -3.22316e-08 -2.07787e-07 
-4.4831e-09 2.48617e-07 -3.44874e-07 5.75585e-07 3.63063e-07 -1.63721e-08 -7.36105e-07 -4.14349e-07 -9.73321e-08 
-1.72143e-07 7.17138e-05 -3.08704e-05 -0.000237583 -3.12687e-06 2.03125e-06 -2.08344e-05 -2.47554e-06 1.78407e-05 
-6.05408e-05 -6.44602e-06 9.00833e-06 -2.03897e-05 -1.4791e-05 1.59487e-05 -5.38219e-06 7.49302e-05 0.000109429 
1.20016e-05 -5.48825e-05 -3.53596e-05 -1.98238e-05 -2.21178e-05 -8.87422e-07 -6.98839e-06 -2.02867e-05 -9.86687e-06 
-4.15948e-06 -7.98598e-06 -5.7697e-06 -4.03735e-06 -1.01821e-06 1.89789e-09 2.23132e-06 3.39065e-06 7.13315e-07 
-1.11572e-06 8.96221e-08 -5.98329e-08 6.52237e-07 -3.94335e-07 2.65547e-07 -6.45917e-07 -5.6071e-07 1.73998e-07 
-2.46881e-07 1.14393e-07 2.19626e-07 4.42934e-08 2.71364e-07 -6.03902e-08 -3.99096e-07 -1.65043e-07 -1.09094e-07 
6.74707e-08 1.30626e-07 -2.64916e-07 1.85573e-07 4.36507e-07 -9.02458e-08 1.97077e-07 1.62966e-08 6.78427e-08 
1.1796e-07 1.38862e-07 1.627e-07 1.05394e-07 5.39612e-07 -2.47527e-08 -2.41617e-07 5.93595e-08 1.8622e-08 
2.97129e-07 1.68501e-07 1.94793e-07 -1.61693e-07 -1.04423e-06 2.96523e-07 -9.29761e-07 -2.66237e-06 -1.87216e-06 
7.45471e-07 2.17898e-07 -5.79326e-07 7.02345e-08 2.75538e-07 3.61266e-07 -1.57444e-07 -1.41885e-07 4.82709e-08 
-3.93949e-07 4.58334e-08 -1.11147e-08 -4.22248e-08 2.05738e-07 1.32541e-07 -9.46751e-08 4.52058e-08 1.0325e-07 
6.74311e-09 2.31143e-08 8.30418e-08 -2.40409e-08 6.80436e-08 8.72724e-08 4.29578e-08 5.25199e-08 -2.52233e-08 
5.21537e-08 -1.1368e-07 7.96127e-08 3.92636e-07 -1.1461e-07 -1.77166e-07 9.83504e-08 -1.21479e-08 3.91199e-07 
-5.83739e-09 2.83364e-08 -1.81676e-07 2.24578e-07 5.47589e-07 3.65214e-07 3.17287e-07 -2.28351e-07 -1.18121e-07 
-2.18927e-07 1.62847e-07 7.30275e-07 2.55499e-07 -5.12795e-08 1.76601e-07 9.23043e-08 -2.54082e-07 -1.67164e-07 
-5.94041e-08 -1.69025e-07 -1.70942e-07 1.39135e-07 1.43738e-07 6.80439e-08 5.53034e-08 -7.79784e-08 1.73082e-08 
1.73669e-06 4.4292e-07 6.53835e-07 1.61823e-06 -1.03151e-07 4.99939e-07 -8.11125e-07 2.51889e-06 1.9795e-06 
5.72914e-06 6.41518e-06 2.86773e-06 6.74501e-06 6.50072e-06 -1.58747e-07 3.43262e-07 -2.64526e-07 2.11989e-07 
-2.08205e-07 1.87634e-07 1.74231e-07 -4.11953e-08 -3.28302e-08 -5.29233e-07 1.55645e-07 7.75718e-08 1.41182e-07 
-1.20015e-07 4.12772e-07 -6.49227e-08 -2.35346e-07 2.89265e-08 -2.56529e-07 -5.06825e-08 1.45084e-07 1.03031e-08 
1.89579e-07 -1.36383e-07 -3.76077e-08 -3.65999e-08 1.36158e-07 -1.08789e-07 -7.6067e-08 -9.76625e-08 -8.87653e-08 
-8.52182e-09 1.30651e-07 9.76286e-08 1.08814e-07 1.91142e-08 -6.20094e-08 -1.09093e-07 -1.18989e-08 -8.72144e-08 
-4.51986e-08 1.0705e-07 1.73888e-07 1.38153e-07 1.485e-08 4.26155e-08 1.47583e-07 4.63572e-08 -3.74316e-08 
4.71494e-09 -2.42349e-05 -8.39603e-06 9.50034e-08 9.39754e-06 2.35031e-06 1.44508e-05 9.0665e-07 -1.27998e-05 
1.56964e-05 -6.68235e-05 -2.426e-05 -4.77184e-05 9.71669e-07 -4.11825e-07 -1.18324e-06 -1.40728e-06 5.48475e-08 
-2.00725e-07 5.16291e-07 -3.1748e-09 -4.33837e-07 -1.00218e-06 -1.14162e-06 3.14904e-07 -3.50622e-07 -8.56653e-07 
-5.09689e-07 2.66316e-07 5.27355e-07 1.33987e-07 -1.81953e-07 -9.97773e-09 5.93216e-07 -2.07755e-07 3.15887e-07 
4.88317e-07 -9.83719e-08 -1.10057e-07 -1.20024e-07 5.0887e-08 7.61644e-08 -1.45281e-07 -3.29745e-09 -1.40536e-07 
3.89768e-08 -1.25848e-07 1.44788e-07 -1.671e-07 1.60837e-07 -1.33796e-07 -6.38054e-09 5.7839e-08 2.01564e-07 
1.94317e-07 -8.21261e-08 -7.35848e-09 -1.31519e-07 -2.71401e-07 4.35948e-07 5.45551e-07 3.73783e-07 3.9895e-07 
1.84446e-07 -8.2151e-08 1.48615e-07 -3.44209e-08 9.83306e-08 5.35594e-07 -1.71958e-07 4.58169e-07 -1.60061e-06 
-1.12723e-06 -2.11851e-06 -4.72627e-07 -2.79056e-07 2.38718e-07 1.2189e-07 4.22617e-07 2.00092e-06 -2.08973e-08 
-3.17626e-07 -1.28526e-06 -1.87324e-07 -2.47777e-07 -3.3303e-07 4.51603e-08 1.04101e-07 1.76832e-07 7.47788e-08 
1.23526e-07 6.65596e-08 6.16774e-08 1.1659e-07 -1.01065e-07 2.69359e-07 9.56484e-08 -3.18213e-07 -1.77546e-07 
-8.26249e-08 -2.22432e-07 5.69636e-08 -2.47633e-07 -4.211e-08 4.66495e-08 6.8512e-08 3.91735e-07 1.59355e-08 
1.74973e-07 5.73054e-08 -1.0248e-08 -1.79435e-07 3.25465e-07 1.6801e-08 1.0799e-07 -7.49233e-08 2.62997e-07 
-2.71259e-08 3.12181e-07 -1.6787e-07 -1.62814e-08 1.50048e-07 -1.85357e-07 -6.12255e-07 -3.60395e-07 -2.60953e-07 
3.31873e-06 1.19214e-05 -8.24767e-06 3.11472e-06 1.38912e-05 -1.23127e-05 -1.6199e-05 -2.58421e-06 -1.1106e-06 
-1.69736e-05 1.46655e-05 1.85838e-05 1.87966e-05 1.16727e-06 2.20144e-05 2.83837e-05 1.11576e-05 2.27375e-05 
8.02147e-06 4.98395e-06 4.44182e-06 2.31242e-06 -1.36321e-07 -4.04807e-08 -4.95938e-08 4.27798e-08 8.97002e-08 
1.36196e-08 1.29971e-07 6.57022e-08 -1.90369e-08 1.66146e-08 -1.79987e-07 2.82694e-08 1.63176e-07 -1.40016e-07 
-1.66837e-08 -1.7369e-07 -5.32937e-09 -1.78785e-07 -2.69862e-07 -1.89062e-07 8.38689e-08 -2.81299e-08 1.08798e-07 
-5.35487e-08 -3.03381e-08 3.08293e-08 2.17245e-08 1.31455e-07 1.04963e-07 2.03224e-08 1.26168e-07 6.95134e-08 
6.10314e-08 -4.98599e-07 2.03997e-07 1.82287e-08 1.7808e-07 1.98985e-08 1.73643e-07 -1.15864e-07 8.44603e-08 
-3.06957e-08 -8.04935e-08 -4.41687e-08 -7.91167e-08 -6.80075e-07 -2.49861e-07 9.12414e-07 8.22733e-07 5.66273e-08 
3.52894e-07 1.09679e-06 -1.17531e-06 -3.53435e-07 6.07165e-06 3.78848e-06 5.19772e-07 2.57094e-06 -1.02303e-05 
6.6447e-06 6.79262e-06 4.71893e-08 -3.03771e-07 -3.06356e-07 -1.58371e-07 1.44176e-07 -3.37777e-07 2.73665e-07 
-6.56002e-09 3.53546e-07 6.77231e-08 -4.80727e-08 2.54501e-07 1.4932e-07 1.98899e-07 -8.84408e-08 2.54884e-08 
1.95357e-07 4.90193e-07 3.47411e-07 -5.42823e-08 -6.22622e-08 2.48768e-07 1.22089e-07 2.10791e-08 -1.2199e-08 
-5.3726e-08 1.13298e-07 5.43103e-08 2.53322e-07 7.5388e-08 1.0769e-07 -9.67223e-08 1.25858e-07 -1.11212e-07 
-1.41053e-07 -1.18406e-07 -1.0009e-07 -1.11311e-07 -2.48578e-08 2.13852e-05 5.39437e-05 8.17325e-05 3.42054e-05 
7.15715e-05 -3.51587e-06 7.37024e-05 2.79922e-05 8.38882e-06 2.49127e-07 3.80017e-07 3.88871e-08 -2.72673e-07 
-2.23823e-07 1.31974e-07 2.19248e-07 1.17754e-07 -3.81401e-08 -3.53419e-08 1.87155e-07 5.26701e-09 -8.59232e-08 
-9.41198e-08 1.02084e-08 6.28382e-09 1.51962e-07 1.51358e-07 -5.75232e-08 8.56556e-08 2.28902e-07 1.27613e-07 
1.22492e-07 5.24343e-08 -2.69533e-08 8.01632e-08 -1.20568e-07 -1.36283e-07 -1.42386e-08 -5.36036e-06 -1.98348e-05 
0.000116067 6.36799e-05 -1.70746e-05 2.91327e-05 -5.43273e-05 2.26232e-05 -0.000198195 9.7784e-08 -3.66437e-07 
1.33674e-07 4.63377e-08 8.40593e-07 5.82203e-07 2.3269e-07 -2.61954e-07 3.00851e-07 1.9823e-07 3.48592e-07 
3.02283e-07 2.60308e-07 4.92912e-07 -2.98908e-07 -1.50566e-06 -8.44182e-07 -4.71117e-08 4.20771e-07 -1.59228e-07 
3.78915e-07 -3.33842e-07 -5.44436e-07 -6.10112e-07 -1.24762e-06 -3.99522e-07 3.0489e-07 -3.69144e-06 -1.48703e-06 
1.24269e-07 -8.57509e-07 -4.96078e-07 5.94655e-07 7.84776e-08 3.87939e-07 1.34686e-06 4.6489e-07 7.89393e-08 
-3.006e-07 -2.974e-07 2.60892e-07 -1.03459e-06 1.58856e-06 1.93483e-07 1.59528e-07 8.37829e-08 -1.17359e-07 
8.37309e-09 -3.78361e-08 1.88112e-07 3.95215e-07 1.43124e-07 8.97703e-08 1.62947e-07 -6.88059e-08 -1.89618e-07 
-7.93028e-08 3.39182e-07 1.90873e-07 2.14189e-07 7.61886e-07 5.47923e-07 3.09143e-07 -2.00195e-05 -3.61343e-07 
-1.87207e-05 -3.04067e-05 -1.74371e-05 -3.09903e-07 -1.0444e-07 -2.36955e-08 2.18272e-07 -9.96785e-08 -1.19798e-07 
-2.045e-08 -1.05046e-07 8.49665e-08 1.0565e-07 -1.60433e-06 9.63112e-07 1.10715e-06 1.05564e-06 1.3895e-06 
-8.47134e-08 1.38767e-07 -6.17024e-08 4.23079e-07 4.53566e-08 1.22693e-07 6.08296e-08 2.45326e-07 6.4725e-07 
-6.4236e-07 -2.31374e-08 -5.16502e-07 3.01082e-07 2.69805e-07 -1.49052e-07 2.65828e-07 1.88497e-07 3.65694e-08 
6.7968e-08 -8.67431e-08 -4.36978e-08 2.60721e-08 2.23402e-07 2.60708e-06 3.41495e-07 -1.88969e-07 -8.43953e-08 
-3.0101e-06 3.52853e-06 -5.88962e-06 -4.68501e-06 -8.92938e-07 6.60331e-05 5.71565e-05 -0.000278609 -0.000217928 
-0.000936916 -0.000399395 -5.5918e-05 6.12858e-06 -9.13862e-06 -5.71059e-06 2.38623e-07 -9.42649e-06 6.77535e-06 
-6.37846e-06 2.81352e-07 -7.0928e-06 -5.2003e-06 1.7934e-06 5.02811e-07 -6.69623e-06 -4.91396e-07 1.20809e-05 
-4.04957e-06 1.94968e-05 2.55341e-05 2.62306e-05 0.00011148 -6.2063e-05 8.41393e-05 -0.00020256 -9.54948e-06 
9.58066e-07 -2.16934e-06 -7.63781e-06 -1.94552e-06 -9.91501e-06 8.67555e-06 -2.17135e-06 5.84842e-05 2.80008e-05 
0.000204166 0.000180015 1.12087e-07 2.58691e-07 4.87271e-07 6.57752e-07 6.06716e-07 6.53376e-07 2.35214e-07 
-5.54851e-07 7.0561e-07 -4.94187e-07 -3.53574e-07 -3.07411e-07 -6.4934e-07 2.07549e-07 -2.2909e-08 2.53093e-07 
-4.5648e-07 5.67342e-08 1.98346e-07 2.79364e-07 1.72067e-07 1.51569e-07 -7.68109e-09 7.42054e-07 7.07627e-07 
5.33857e-07 2.92148e-07 2.76697e-07 4.59993e-07 8.36583e-07 4.08175e-07 5.81996e-07 3.28786e-07 3.02504e-07 
8.42502e-07 6.28829e-07 1.14376e-06 5.9547e-07 4.41064e-07 8.46197e-07 7.30908e-07 9.14712e-07 3.03341e-07 
3.13378e-07 8.64929e-07 7.58941e-07 8.64821e-07 5.8624e-07 -9.90839e-08 4.3523e-07 2.66764e-07 7.19738e-07 
4.63294e-09 -2.71345e-07 -2.69185e-07 6.81313e-08 1.34464e-08 -4.90618e-07 -9.12466e-07 -8.54929e-07 -9.91249e-07 
-1.53379e-09 -2.17776e-07 -4.66636e-08 -4.62619e-08 -3.51813e-08 -4.70622e-08 1.54145e-08 -2.25743e-08 -3.39753e-08 
7.04922e-08 -3.31397e-09 -9.27486e-09 3.30172e-08 2.4998e-08 8.64111e-08 -1.75691e-07 -3.15444e-06 -7.27496e-07 
-4.55908e-07 5.89252e-08 -1.46001e-06 -1.03423e-06 -5.32677e-07 -1.30213e-08 -1.72044e-06 -2.25642e-07 1.61939e-07 
-1.84029e-07 -1.65651e-06 4.73434e-08 -2.45299e-08 -1.72148e-07 -4.21565e-07 -5.49597e-07 -8.20823e-07 -1.2842e-07 
1.60504e-07 -2.90263e-07 -3.14011e-07 -6.09262e-07 -1.97773e-07 -7.71182e-08 -2.5697e-07 -3.83097e-07 -1.21427e-08 
-1.41117e-07 2.36198e-07 -1.46052e-07 -6.83145e-09 -7.03123e-09 5.61373e-08 -4.07362e-08 1.72689e-07 -4.67292e-08 
-6.2355e-08 3.50529e-08 1.24381e-07 -8.92976e-08 -2.64002e-07 -8.4802e-08 -3.79623e-08 6.632e-08 -1.43076e-08 
-1.57626e-07 -4.41497e-08 6.82522e-09 5.02154e-08 -1.35243e-10 -3.67652e-08 -9.32058e-09 6.75173e-08 -7.82867e-08 
6.74848e-09 -2.09995e-08 1.12729e-08 -7.15849e-08 2.03249e-07 5.95913e-08 2.3546e-07 1.81142e-07 -3.00535e-08 
-1.79429e-08 -2.75263e-08 -2.68443e-07 1.00154e-07 -5.22189e-08 4.35847e-08 -2.3413e-05 -2.73255e-07 3.0936e-08 
3.77657e-08 -2.90551e-08 8.56906e-08 -2.1341e-08 1.47667e-11 1.36267e-07 -0.000154634 -0.000354651 -2.22285e-07 
3.93566e-07 9.82815e-09 -6.71331e-08 3.48547e-08 -5.28423e-08 5.48024e-08 -3.87634e-09 -8.34169e-08 3.77685e-08 
8.96476e-09 9.78293e-08 4.14878e-08 -4.31281e-08 2.45357e-09 1.48584e-07 1.61037e-08 6.89957e-08 -1.03066e-05 
6.10798e-06 -1.37079e-05 -3.67924e-05 -1.70657e-05 4.44326e-09 3.6077e-08 2.13027e-07 -2.49981e-07 -7.79912e-07 
9.22243e-08 -5.08511e-07 -3.32086e-08 -3.77804e-08 -9.60766e-08 -1.36485e-07 1.90154e-07 8.45067e-07 3.23185e-07 
-3.17723e-07 4.74946e-07 6.20711e-07 -2.71823e-08 -5.99261e-07 -1.62043e-07 -5.14013e-08 1.00537e-05 1.41304e-05 
-3.41871e-07 1.69345e-06 -2.10089e-06 -1.13675e-08 -5.05427e-09 3.87122e-08 -4.48974e-07 -2.51176e-07 -7.59663e-06 
-3.08807e-06 -1.46808e-05 4.32566e-06 1.00236e-06 -6.01201e-07 6.18414e-07 8.89586e-08 1.15177e-07 1.55339e-07 
2.34011e-07 3.00262e-07 1.33121e-07 -8.24198e-08 -1.31454e-07 -9.97882e-08 2.64002e-07 2.55709e-07 1.41408e-08 
6.62863e-08 6.02071e-07 1.66122e-07 1.13763e-07 2.81408e-07 -6.14006e-08 3.99554e-09 1.70122e-07 3.19112e-08 
1.27408e-07 8.22952e-08 0.000292656 0.000257488 9.57403e-05 0.000233279 0.000484732 4.46457e-07 2.91446e-07 
2.62837e-08 2.86032e-07 4.32707e-07 1.1009e-07 6.64257e-08 1.02678e-07 4.02283e-07 2.29157e-08 -4.98557e-07 
-7.02911e-07 -6.13234e-07 -5.20794e-08 -1.35671e-07 -1.51501e-07 -5.25627e-08 -8.72322e-08 -1.00448e-07 -1.63602e-08 
-9.35709e-08 2.54987e-07 -1.26563e-08 3.92007e-08 6.28264e-07 1.56135e-07 1.52518e-07 1.12412e-07 8.2732e-08 
1.24593e-07 6.71351e-08 1.90019e-07 -2.56959e-08 5.6515e-08 -2.04351e-06 -1.00651e-06 0.000212863 0.000287831 
0.000886627 -7.2833e-06 -1.27276e-05 -2.24194e-05 -1.05475e-07 2.30819e-07 -6.32693e-08 7.09214e-08 1.32074e-07 
8.42658e-08 1.05402e-07 -2.17642e-07 -1.56862e-07 -3.54524e-07 -2.81366e-08 -1.31374e-07 -8.86372e-08 -1.50943e-05 
-7.69273e-06 -5.16342e-06 -1.73886e-05 -8.60746e-08 4.1549e-08 -2.48592e-07 6.58999e-08 2.28796e-07 1.15196e-07 
-5.1285e-08 -2.9409e-08 -6.53547e-08 -1.47392e-08 -7.22187e-08 -9.21983e-08 2.46537e-07 3.184e-06 -1.05314e-07 
2.21775e-08 -7.04588e-08 1.3745e-07 8.90726e-08 -5.4887e-08 3.40463e-08 -9.58807e-08 2.26633e-07 -1.21922e-07 
1.21772e-08 9.08334e-08 4.79212e-07 1.17982e-07 4.22726e-07 -3.36262e-07 -5.26536e-08 -1.18581e-07 -2.00142e-07 
0.000152131 7.07881e-05 6.51693e-05 0.000133915 2.18751e-05 -2.82261e-05 8.60077e-05 0.000118381 5.84661e-05 
1.41807e-07 -5.82272e-08 -2.18063e-07 -1.12046e-07 -1.5667e-07 -3.69132e-08 1.53624e-07 8.71255e-08 -1.96505e-07 
6.37754e-08 0.000127864 4.95283e-05 -9.60108e-06 2.12086e-05 -1.3717e-05 -8.32866e-08 8.79122e-08 -5.16484e-09 
4.27706e-08 -2.53829e-08 5.24464e-08 -1.88507e-08 -7.42171e-08 1.2133e-07 -9.14087e-08 -1.46983e-06 -3.51788e-06 
-2.30485e-06 -2.45778e-06 -1.82868e-07 -4.82142e-07 -2.57443e-07 3.19727e-07 5.74657e-08 -9.8536e-07 -4.7941e-07 
3.02813e-07 1.13544e-07 2.63389e-07 2.3603e-07 1.40986e-07 2.00487e-07 -4.51824e-08 8.45404e-08 1.70952e-07 
5.15454e-08 9.84774e-08 2.22233e-08 -1.57624e-07 8.56706e-09 2.01053e-07 -4.75908e-08 -3.42968e-08 -1.99736e-07 
-2.89414e-07 -9.04312e-08 -2.98479e-07 -1.0474e-07 -9.10898e-08 2.77149e-08 -4.30139e-08 -7.15036e-08 1.45515e-07 
-3.00549e-09 -2.7773e-08 -1.49808e-08 1.05441e-07 -1.38007e-07 -1.84239e-07 4.60866e-05 -1.38546e-08 -1.25414e-07 
6.24693e-09 7.00321e-08 2.01303e-07 2.02881e-07 -1.1075e-09 6.24294e-08 -1.92107e-08 4.99687e-08 9.24832e-08 
1.12151e-08 1.42768e-08 -8.79643e-08 4.39164e-08 1.67905e-07 -9.69951e-08 3.23514e-07 -2.10502e-08 -1.50907e-07 
2.57149e-07 -1.09511e-07 -3.37101e-08 -1.70772e-08 -8.55605e-05 -5.62934e-05 1.41989e-05 -1.663e-08 -1.20282e-06 
1.86442e-07 7.30949e-08 -1.458e-05 1.50064e-08 4.80187e-08 -1.71286e-08 -5.10449e-09 8.1652e-08 5.32222e-08 
-2.68671e-08 6.31138e-08 3.25922e-08 7.30135e-08 8.66644e-08 4.0798e-09 2.62751e-09 -3.19988e-08 8.64035e-08 
-1.94567e-05 -6.33141e-05 2.69877e-05 1.00609e-07 -2.33881e-07 9.35038e-08 -9.67679e-08 3.50767e-07 -1.31602e-07 
5.59011e-07 -7.91466e-08 -4.08176e-07 -1.9001e-07 -4.42684e-08 -3.70678e-08 -4.8524e-08 4.07299e-07 -2.37319e-08 
8.35766e-08 5.78769e-08 7.57896e-08 -1.08443e-07 -8.55541e-08 -1.31825e-06 -3.22658e-08 -2.31188e-08 7.78307e-08 
-7.92964e-08 -7.06308e-09 -1.71412e-08 -4.14079e-05 1.38589e-07 2.02232e-08 1.46268e-07 -1.73108e-07 2.36283e-08 
2.65286e-08 8.34363e-08 2.48119e-08 7.11536e-07 -6.15717e-07 9.94518e-07 -6.19865e-07 2.71751e-07 -5.40871e-08 
3.12773e-08 -1.61948e-06 -5.92666e-07 3.72578e-07 4.52789e-07 8.09086e-08 -1.05596e-05 0.00013329 -6.7399e-07 
-1.14098e-06 -2.54636e-09 3.94858e-08 3.40703e-08 8.24435e-09 8.94568e-05 -5.01394e-05 7.5667e-05 0.000135142 
-1.05686e-07 1.60284e-07 4.65908e-08 1.80532e-07 5.86034e-08 -1.0432e-07 4.22199e-08 3.33233e-08 7.57283e-05 
8.69724e-05 -5.47083e-05 4.74387e-08 -3.76989e-08 1.73702e-07 1.40497e-08 4.4491e-08 -8.08879e-08 -6.53807e-08 
1.35003e-07 -1.14496e-08 -2.0839e-08 5.93507e-08 9.20588e-08 1.36131e-07 2.86921e-07 1.02721e-07 -3.75706e-08 
1.94215e-07 -7.89941e-08 -1.20765e-07 -8.61845e-08 -1.73262e-08 2.73705e-08 -1.78806e-07 -1.27168e-07 -6.04006e-09 
-1.14388e-09 -9.9498e-05 3.66632e-05 -1.15467e-07 -1.01876e-07 1.97649e-07 3.07625e-08 9.40415e-09 1.64505e-07 
-1.07035e-07 -1.11222e-08 -1.24296e-07 -9.59731e-06 -4.47478e-06 -1.23514e-07 -3.26591e-08 2.39414e-07 -5.70995e-07 
4.52969e-07 4.87894e-07 -5.97406e-08 4.15223e-08 3.02373e-08 8.17183e-08 2.02572e-05 -1.33579e-07 -2.99139e-08 
-1.43427e-07 -0.000245394 -0.000118868 -0.000379382 -0.000209394 -0.000176452 1.54565e-07 -1.64067e-08 0.000134163 
0.000112698 -2.94068e-08 -9.60823e-08 2.99079e-07 1.28857e-06 1.52012e-08 -3.74104e-09 -2.02228e-07 -1.61135e-07 
-2.44936e-08 1.07162e-07 4.64975e-08 1.14221e-07 4.70037e-06 3.8154e-06 2.86313e-06 -3.96437e-08 1.24641e-08 
-3.83415e-08 -1.43297e-07 -4.92288e-08 1.75116e-07 1.01905e-07 2.36222e-08 4.50106e-05 9.79335e-05 9.96633e-07 
-2.84121e-07 -2.77159e-07 6.70853e-08 -1.4341e-07 -8.12455e-08 2.33555e-08 7.75338e-08 -3.49283e-08 -1.76484e-08 
1.17112e-07 1.77818e-06 -3.95309e-07 6.52185e-09 8.95192e-08 -2.57963e-08 -2.45303e-07 -3.17735e-07 -2.37634e-08 
-5.17366e-08 4.06832e-06 6.54667e-06 8.65011e-06 -7.44274e-08 -6.09807e-08 -4.63666e-09 4.98899e-08 1.56654e-08 
7.19559e-08 3.76228e-08 2.55461e-09 1.16876e-08 1.65008e-08 3.0363e-09 4.4729e-08 1.13687e-08 3.9685e-08 
7.68044e-08 -4.80687e-08 -1.02066e-08 -6.04658e-08 -9.20616e-08 1.82264e-07 -6.30806e-08 -1.21844e-07 -2.41398e-09 
-4.41348e-08 5.29673e-08 -9.92005e-08 -3.58185e-08 6.85594e-08 6.19687e-08 1.07818e-05 9.61312e-06 2.05755e-05 
2.8461e-05 5.56697e-08 -9.84925e-09 -1.10989e-07 -2.14288e-07 -4.61149e-08 1.17287e-05 2.16241e-05 2.46183e-05 
1.14087e-07 6.3312e-08 1.52537e-05 2.05388e-07 -5.66319e-09 -1.24362e-07 5.16757e-08 -9.74568e-08 -5.51979e-08 
-3.37557e-08 -1.50831e-07 -2.65828e-08 6.06806e-08 1.35887e-07 1.36978e-07 -3.6954e-07 -1.08437e-07 6.45476e-08 
-3.83455e-06 1.94383e-07 4.09164e-09 -1.97864e-08 1.01307e-07 2.90368e-10 -3.21267e-08 6.31302e-08 1.0359e-06 
3.32747e-07 -1.24979e-08 1.31421e-07 -4.83938e-08 0.000894536 0.000356111 0.000295089 8.08318e-08 -3.33614e-08 
-1.49204e-07 -8.47509e-08 -3.37473e-07 6.19193e-08 -1.66097e-08 -2.7417e-07 -3.62243e-07 -6.40737e-07 4.59482e-07 
-1.89922e-07 -8.41658e-08 -8.12217e-08 -3.82161e-07 5.84318e-08 -6.17597e-08 1.02787e-08 4.13416e-09 2.54919e-08 
-2.93288e-08 6.47702e-05 -8.37309e-08 -1.02281e-07 1.90758e-08 8.69664e-08 -2.8725e-08 -3.57113e-07 -7.17235e-08 
-8.85065e-08 4.98408e-07 4.7216e-08 1.05261e-07 4.87264e-07 4.10914e-08 7.76906e-08 4.46311e-08 8.61239e-07 
3.18063e-07 1.48038e-07 4.8802e-09 -3.42642e-08 1.58876e-07 6.02022e-08 5.06382e-08 -3.98968e-08 1.19983e-07 
7.35066e-09 7.52973e-08 1.20796e-07 -6.55868e-05 -0.000214305 -8.3956e-05 6.7087e-08 -1.38034e-07 1.37906e-07 
3.18892e-08 5.34858e-09 -3.48704e-07 -1.91742e-07 -6.03311e-08 3.36155e-08 6.20815e-08 -0.000102373 -0.000141649 
-7.21921e-06 -2.23171e-07 -5.28126e-07 -1.46176e-07 -5.54267e-08 8.60594e-08 4.37176e-09 1.28411e-07 5.71648e-07 
-1.035e-07 9.14558e-08 -1.46716e-08 4.28692e-08 3.98951e-07 -6.07672e-08 9.2414e-08 -1.02532e-07 -1.2245e-07 
-1.43059e-08 1.14622e-07 3.35349e-08 -1.06784e-08 -1.64635e-07 4.60953e-06 -6.31346e-08 1.50941e-07 2.35398e-08 
5.74251e-08 2.99377e-09 3.3322e-08 8.93142e-09 -6.44163e-08 9.14314e-08 1.59142e-08 9.08686e-08 4.55889e-08 
7.04442e-05 8.89095e-05 0.000208631 6.47677e-05 -1.24271e-07 -0.000175913 -6.40783e-08 -9.57935e-08 -7.19793e-08 
4.89647e-08 -7.42702e-08 -1.15632e-07 -2.11354e-07 -1.02808e-07 -0.000403723 -0.000654513 1.88358e-08 4.74115e-08 
-1.04104e-08 -2.24263e-07 -1.07609e-07 -5.42088e-07 -1.93667e-08 1.32708e-08 8.85329e-08 7.12017e-06 -2.00192e-08 
-3.23213e-07 6.27998e-08 -2.40641e-07 3.23726e-06 1.50299e-07 -2.14035e-07 -2.24333e-08 6.44061e-08 9.70997e-08 
-6.13439e-08 1.51688e-05 2.28229e-05 -1.52955e-07 2.69873e-08 3.17496e-07 -2.31336e-07 4.74511e-08 -2.59043e-07 
1.2418e-07 5.21341e-09 -1.18106e-07 1.2e-07 -6.15475e-09 -7.80207e-08 1.37478e-07 1.4681e-08 6.7067e-06 
8.46452e-06 4.16063e-06 5.63263e-07 -2.21972e-07 5.62172e-07 -4.23317e-07 5.90936e-06 -6.47351e-09 -1.6216e-10 
1.68355e-08 4.539e-05 1.754e-05 7.87536e-05 8.29281e-05 -1.24243e-08 -8.26942e-08 -7.73845e-08 -1.66081e-08 
-1.38707e-07 -7.15741e-08 -0.000141246 -6.44848e-05 -0.000175968 -5.57697e-08 9.44352e-07 -4.85779e-07 1.50262e-07 
-1.23618e-07 -7.09557e-09 4.51721e-08 -1.63238e-09 1.12371e-07 -3.4897e-07 4.29734e-08 -6.5853e-08 -4.08389e-07 
-4.84049e-07 -3.65467e-06 -0.000118081 5.19705e-08 -4.08335e-08 -3.37325e-08 -4.91532e-08 -5.32043e-08 2.48804e-07 
3.71352e-08 -1.29287e-07 9.76094e-08 -1.41974e-07 2.09345e-05 3.15242e-05 2.1853e-07 1.37815e-06 7.3579e-07 
6.54643e-08 3.80593e-07 4.65142e-09 3.26872e-09 -1.35889e-09 1.90502e-07 -5.93876e-08 -2.5322e-06 -2.68104e-07 
6.91168e-08 1.64178e-08 9.05644e-08 3.71661e-08 1.00089e-07 3.02877e-07 -4.00619e-07 9.6041e-06 1.13292e-05 
8.55562e-06 1.18332e-07 -1.15304e-06 -1.89173e-06 -2.05371e-06 -1.24757e-07 -8.20958e-08 -4.72409e-08 7.89516e-08 
-3.30233e-07 1.22805e-07 -3.24506e-07 -1.33501e-07 -1.84798e-06 -2.22038e-07 9.54583e-09 1.44805e-08 -5.69715e-08 
4.49674e-09 2.49334e-08 7.8546e-06 1.40029e-05 9.8667e-10 4.10249e-09 5.79476e-08 1.25907e-08 8.92762e-08 
3.89939e-07 -2.71301e-07 -1.30592e-07 -2.20352e-08 7.2738e-08 4.40697e-06 -1.71366e-05 -1.82073e-05 -1.9312e-05 
2.01775e-08 -7.38017e-08 5.28205e-05 3.64465e-05 1.18484e-07 -9.62021e-08 -1.30591e-07 1.15298e-07 2.76169e-08 
1.42738e-05 1.61513e-08 1.59216e-07 -0.00019295 1.08082e-07 4.75825e-08 1.50007e-07 -2.10147e-07 -1.35404e-08 
2.99784e-08 -8.90615e-08 -5.42311e-08 9.96644e-09 -7.95215e-08 2.19588e-08 -5.02738e-08 9.65671e-08 -6.47918e-09 
-0.000186566 1.32534e-07 -1.26416e-07 3.22123e-07 3.23968e-07 -3.10418e-07 1.06544e-06 -6.52372e-07 -1.49388e-08 
-4.89655e-08 -6.75076e-09 3.86409e-07 1.2779e-07 -1.1413e-07 1.33356e-07 -9.09458e-08 -6.00026e-08 2.25627e-09 
4.14058e-05 1.60645e-06 1.75007e-05 4.6814e-06 1.41436e-05 7.29059e-07 -7.98775e-07 -3.14095e-07 -8.90064e-09 
-4.90016e-08 4.28089e-09 6.67216e-08 -1.65392e-07 1.65931e-07 4.1396e-06 3.84886e-08 -1.7091e-07 1.27935e-08 
2.82275e-08 6.66367e-08 -2.22471e-08 2.45792e-05 3.18281e-08 1.48135e-06 -1.53137e-05 0.000202267 -6.51654e-09 
-1.38776e-07 -4.67087e-08 1.9573e-08 1.587e-07 2.17293e-07 -8.48289e-08 -2.80939e-07 2.68917e-06 -9.12236e-08 
-5.07799e-08 -3.7555e-08 -7.18887e-08 4.37782e-08 -0.000134187 -1.86896e-05 -0.00015879 -0.000185333 -5.27104e-05 
-1.39961e-07 5.18729e-08 -3.4149e-07 1.63078e-08 -1.0136e-08 5.39398e-08 -3.1767e-06 -0.000104377 -5.34337e-05 
-3.73437e-05 -6.96515e-06 -5.20507e-05 2.52402e-05 7.10669e-06 2.57547e-05 -5.19879e-07 4.78571e-07 -2.85393e-08 
3.22046e-08 3.90266e-08 2.87073e-08 7.09945e-08 6.17555e-08 -0.000173966 -9.25173e-05 -0.000130591 1.04341e-07 
-2.69823e-08 1.0905e-08 -4.7766e-08 5.89486e-07 1.32795e-06 2.18837e-06 4.9996e-06 3.78443e-06 1.31922e-07 
-2.11688e-07 1.00456e-07 1.10013e-08 -3.2639e-08 -2.08132e-09 3.54273e-06 2.70321e-06 3.7415e-06 -1.48297e-07 
-8.79942e-08 -2.40275e-07 1.36266e-06 5.11143e-09 1.56119e-07 -1.27851e-08 8.71847e-08 3.9311e-07 -9.94834e-08 
1.97269e-08 -1.68965e-08 -0.000177681 2.33526e-07 -1.08443e-07 1.66914e-05 -1.82069e-06 -1.80872e-06 -3.94551e-06 
2.25575e-06 1.32163e-07 -1.76925e-07 -3.43437e-07 3.20502e-08 8.25572e-08 -5.14136e-07 -3.16451e-07 -3.8627e-05 
-7.1774e-05 -6.81402e-05 -1.72522e-05 -5.8993e-07 6.68558e-07 4.54839e-07 -1.22707e-06 1.98521e-07 4.0879e-08 
3.99482e-08 1.20727e-07 -1.32296e-07 -3.84253e-07 1.26014e-05 1.55839e-06 2.06798e-05 -1.30293e-07 -8.34646e-08 
-1.18026e-07 1.11864e-06 4.66943e-08 -2.0115e-08 2.67659e-05 2.17682e-05 2.48104e-05 1.58246e-08 -4.77815e-08 
3.7568e-08 8.68661e-09 1.22363e-06 6.28656e-07 3.08786e-06 -2.69011e-05 2.40406e-08 -7.99447e-08 1.33097e-06 
1.20563e-06 -1.36335e-08 7.88212e-09 3.53599e-07 8.78506e-09 2.38166e-07 -7.87051e-06 -0.000135459 -0.000372549 
-0.00013301 2.55794e-07 5.73234e-07 1.64955e-06 1.99116e-07 -5.96636e-05 -4.03215e-05 -8.33997e-05 -4.07761e-05 
2.25941e-05 7.47676e-08 -5.07828e-08 -4.99367e-05 -8.43176e-05 -8.64359e-05 -0.000107831 -0.000124165 -0.000314075 
-0.000355888 2.15909e-08 -3.70854e-07 8.70962e-05 -8.08546e-06 8.15303e-06 1.62464e-07 -5.99201e-05 -3.24686e-05 
1.87084e-08 -3.85617e-07 -0.0005171 1.39527e-07 -2.27715e-08 5.23917e-08 -9.56438e-08 1.19753e-07 -2.37767e-07 
-2.8016e-07 2.77372e-07 -5.64828e-07 1.01466e-05 -1.32461e-07 -0.00011274 -0.000233757 -0.000149199 -5.76297e-07 
1.2647e-05 2.86443e-05 1.01006e-05 5.20093e-06 -1.14932e-09 -1.373e-08 1.55042e-06 -1.25979e-05 -6.32528e-08 
-2.90093e-08 -0.000111104 2.3029e-07 -1.95714e-05 4.79905e-08 -1.23044e-08 1.81418e-06 2.11287e-05 4.94268e-07 
-0.000268458 -0.000125042 -1.92072e-07 2.41158e-08 1.56856e-05 -0.000160828 -3.24898e-08 -2.45414e-07 -1.68002e-07 
3.31894e-07 -3.6746e-07 2.77744e-08 8.26345e-08 -0.000309509 -2.49587e-06 5.32743e-07 -1.61011e-07 4.02531e-08 
-3.12826e-08 -2.32288e-08 -0.000128282 -6.29333e-05 1.08605e-08 -1.92745e-07 -9.8256e-08 -1.52944e-07 -0.0004496 
1.47435e-07 -1.86211e-06 4.96024e-07 1.09186e-06 2.61403e-05 1.79438e-07 -1.36118e-07 -3.10382e-08 2.90432e-07 
1.28884e-08 -4.15516e-05 -9.28776e-05 1.32553e-07 -8.67015e-08 -4.6063e-05 9.39532e-07 1.25619e-06 6.32153e-07 
1.84902e-07 2.00665e-07 8.36556e-07 -4.41793e-07 1.90762e-05 3.27324e-08 7.80174e-08 -2.57835e-07 -6.83514e-08 
3.79788e-08 2.6843e-07 3.03038e-08 -4.36194e-08 -8.12171e-08 2.95421e-07 -2.22631e-08 -1.5874e-08 -4.78578e-08 
-7.8781e-08 4.59596e-08 1.44872e-07 -0.000244446 9.99454e-08 4.42199e-08 -2.03001e-07 3.18448e-07 -1.67932e-07 
9.98001e-08 -8.43735e-08 -5.11598e-08 3.41804e-08 -2.65186e-07 5.24588e-08 -1.18867e-08 -3.46791e-08 -4.217e-08 
8.44561e-08 -4.16235e-08 -1.14433e-08 -1.24013e-08 -1.85421e-07 -2.13998e-06 -2.4382e-06 -1.10242e-07 
Strain%20zz%20component 1 3545 double
-0.0101172 -0.000136453 5.34343e-05 -0.0157805 -0.000172318 -0.000248294 0.000340307 -0.000170739 -0.000248348 
0.000339934 -0.00574661 -0.00452163 -0.00223109 -0.000834793 -0.00745139 -0.00502366 -0.00334606 -0.00147001 
-0.000447249 -4.58934e-05 -0.011327 -0.00458444 -0.00169254 -0.000501215 -0.0133126 -0.00710984 -0.00319665 
-0.001074 -0.000283658 -0.0136225 -0.000112723 -0.000790132 -0.00235929 -0.0030171 -0.00195982 -0.000892709 
-0.000515473 -0.000377276 -0.000338666 -0.000320623 -0.000297255 -0.000273037 -0.000250001 -0.0002282 -0.000209551 
-0.000193902 -0.000182389 -0.000174528 -0.00017207 -0.000180401 -0.000322953 -0.00160688 -0.00296529 -0.00261406 
-0.00137731 -0.000698826 -0.000441236 -0.000352992 -0.000330842 -0.000309085 -0.000285032 -0.000261456 -0.000238877 
-0.000218443 -0.0002012 -0.000187576 -0.000177864 -0.000172652 -0.000172333 -0.000246267 -0.000240118 -0.000230677 
-0.000219074 -0.000206064 -0.000193271 -0.000182059 -0.000174614 -0.000172027 -0.000247801 -0.000243463 -0.000235796 
-0.000225259 -0.000212831 -0.000199567 -0.000187261 -0.000177932 -0.000172694 -0.000172306 0.000193892 9.54055e-05 
1.99468e-05 -3.38146e-05 -7.35267e-05 -0.000105128 -0.000130445 -0.000149388 -0.00016559 -0.0001795 -0.000191972 
-0.000204323 -0.000217107 -0.000231267 0.000263769 0.000144348 5.6973e-05 -7.3676e-06 -5.46709e-05 -9.04634e-05 
-0.00011821 -0.000140078 -0.000158065 -0.000172739 -0.000185822 -0.000198106 -0.000210795 -0.000224342 -0.000239699 
0.000319005 0.000256978 0.000168554 6.23755e-05 -4.80746e-05 -0.000351701 -0.00632607 0.000335792 0.000293811 
0.000215069 0.000120556 -4.39957e-06 -0.000286098 -0.00293679 -0.00877546 4.4907e-06 -0.000655696 -0.00293091 
-0.00346271 -0.00156164 -0.000769821 -0.000441073 -0.000366263 -0.000338562 -0.000320057 -0.00029754 -0.000273205 
-0.000249171 -0.000228616 -0.000209739 -0.000194114 -0.000182025 -0.000174698 -0.000171716 2.6853e-05 -0.000201289 
-0.00166257 -0.00353093 -0.00249449 -0.00115522 -0.000566501 -0.000407041 -0.000351966 -0.000329795 -0.000308919 
-0.000285523 -0.00026106 -0.000238861 -0.00021899 -0.000201603 -0.000188234 -0.000178344 -0.00017298 -0.000171418 
-0.000171475 -0.000246125 -0.000240186 -0.000231101 -0.000219224 -0.000206263 -0.000193169 -0.000182291 -0.000174859 
-0.000171671 -0.000247548 -0.000243317 -0.000235523 -0.00022528 -0.000212683 -0.000199656 -0.000187364 -0.000178512 
-0.000173072 -0.000171341 0.000201932 9.39749e-05 2.11896e-05 -3.28948e-05 -7.45697e-05 -0.000105988 -0.000129589 
-0.000149725 -0.00016576 -0.000179421 -0.000191954 -0.00020413 -0.000216972 -0.000231755 0.000268503 0.000145503 
5.72463e-05 -7.23217e-06 -5.35948e-05 -9.10558e-05 -0.000117829 -0.000139868 -0.000157698 -0.000172679 -0.00018576 
-0.000197957 -0.000210654 -0.000224296 -0.000239924 0.000316861 0.000259246 0.000165674 6.67888e-05 2.10982e-05 
0.000216855 -0.00410779 0.000332827 0.000284907 0.000215024 0.000115384 3.40549e-05 -9.35053e-06 -0.00150262 
-0.0105895 0.000342611 -0.000248323 -0.000254842 -0.0121195 -0.00792181 -0.00306224 -0.000974645 -0.0111413 
-0.0140945 -0.00852814 -0.000126418 -0.000205892 -0.000543613 -0.000379543 -0.0118861 -0.00604788 -0.00652967 
-0.00900702 -0.00956151 -0.00265927 -0.00391284 -0.00484345 -0.0061263 -0.00380024 -0.000923695 -0.00151722 
-0.00183565 -0.0022085 -0.00130691 -0.00066236 -0.000734195 -0.000155725 -0.000190928 -0.000269075 -0.000213169 
-0.000147925 -0.000200854 -0.00019466 -0.00171796 -5.70169e-06 -0.000264533 -0.000172593 -0.000211426 -8.17497e-05 
-7.1377e-05 -0.000200306 -0.00025778 -0.000184958 -0.000173434 -0.000820212 -0.000265059 -0.000188271 -0.000201244 
-0.000183738 -0.00021948 -0.000181541 -0.00037159 -0.000238389 -0.000145127 -0.000196197 -0.000188946 -0.00224285 
-0.000207948 -0.000211658 -0.000191906 -0.000200004 -0.00348618 -0.00012866 -0.00011254 -7.87804e-06 0.000103252 
-9.64787e-05 6.42195e-05 -0.000203152 -0.000166603 -0.000298836 -0.00231819 -0.000258613 -0.000202575 -0.000189742 
-8.97896e-05 -0.000172753 -0.000213372 -7.12777e-05 -0.000258409 -0.000197867 -0.000490112 -0.000324309 -0.000543373 
-0.000199391 -0.000199515 -0.000182515 -6.24219e-05 -0.000121097 -0.000197794 -0.000208223 -0.000725057 -0.000244119 
-0.00311162 -0.000229639 -0.000158497 -0.000190059 -0.000228808 -0.000167562 1.77326e-05 -0.000196721 -0.0002229 
-0.000184438 -0.000447803 -0.000289664 -3.30013e-05 -0.000192894 -0.000229109 -0.00017703 -0.000192129 -0.000197955 
6.0755e-05 -0.000148274 -0.000235072 -0.000219304 -0.000125611 -0.000132143 -0.000183288 -0.000160466 -0.000192952 
-0.000176207 -0.000199076 -0.000196216 -0.000190219 -0.000209915 -0.00195911 -0.00197379 -0.000105722 -0.000198098 
-0.00018365 -0.000114469 -0.000204004 -0.000510871 -0.000205886 -0.000112745 -0.000212977 -0.000182121 -0.000179654 
-0.000196858 -0.000644872 -0.00144867 -0.00020543 -0.0009192 -0.000258623 -0.000270025 0.000167244 -0.000203807 
-0.000150094 -0.000194458 -0.00193214 -0.0026386 -0.000297712 -0.000223753 -0.000198353 -0.000191708 -0.00688524 
-9.11103e-05 -3.04969e-05 -2.11829e-05 0.000210813 6.04644e-05 -0.000287833 -0.000191731 -0.000141122 3.06343e-05 
-0.00198979 -0.000200588 -0.000218836 -0.000190012 -0.000193336 -5.92947e-05 -0.000194023 -0.00562016 -0.000196144 
-0.00167698 0.000133902 -0.000164381 -0.00252448 -0.000163565 -0.000102259 -0.000248928 -9.5874e-05 -0.000226842 
-0.000150191 -0.000384962 -0.000146637 -0.000325587 -4.60891e-05 -0.000210407 0.000132257 -0.000304317 -0.000298898 
-0.000193998 -0.000230403 -0.000178742 -0.00014441 -0.000198653 -0.000207372 -0.000237323 -0.000249457 -0.000183065 
-0.00020516 -0.000269654 -0.000181038 -0.000194952 -0.00017358 -0.000188287 -0.000153803 -0.000141562 -0.000269795 
-0.00277002 8.2981e-06 -6.57989e-06 -6.01063e-05 -0.00106183 -0.00177748 -0.000176167 -0.000172866 2.21962e-05 
-0.000314009 -0.000230556 -0.00021708 -0.000194621 -0.000196183 -0.000217013 -0.000109905 -0.000222125 -0.000176946 
-0.000275986 -0.000205069 -0.000238201 -0.000173329 -0.000219938 -0.00841418 -0.00646747 -0.00696718 -0.000855204 
-0.000495358 -0.000534516 -0.000172929 -0.000172826 -0.000172789 -0.000243088 -0.000234679 -0.000242333 0.000205134 
0.000271308 0.000264341 -0.00555844 -0.00487231 -0.00652656 -0.00351272 -0.00264837 -0.00432866 -0.00192794 
-0.00126732 -0.00229049 -0.00133317 0.000113322 0.000163178 0.000172506 2.137e-05 5.78935e-05 9.60935e-05 
8.07459e-05 4.17845e-05 -2.7329e-05 -1.67684e-07 9.38832e-08 -6.71542e-05 -4.68763e-05 -4.20302e-05 -9.82181e-05 
-8.23488e-05 -7.69678e-05 -0.000127645 -0.000115248 -0.000108842 -0.000145356 -0.000135709 -0.000133375 -0.000161942 
-0.000153775 -0.000149857 -0.000176081 -0.000169195 -0.000165739 -0.00018766 -0.000181558 -0.000178375 -0.00019902 
-0.000193031 -0.000188886 -0.000215254 -0.000208612 -0.000207687 -0.000203451 -0.000198366 -0.000226818 -0.000219562 
-0.00021755 -0.000230026 0.000236464 0.000209484 0.000189663 0.000192165 0.000151707 0.00015517 8.49164e-05 
3.70355e-05 7.53441e-05 9.21769e-05 1.46633e-05 -1.9329e-05 -9.39808e-05 -4.52595e-05 -0.000113356 -0.000360489 
-0.000155933 -0.000948891 -0.00414344 -0.000878208 -0.00434824 -0.000235382 -0.000238037 -0.000229805 -0.000237403 
-0.000233627 -0.000227046 -0.000231171 -0.000226661 -0.000219077 -0.000224589 -0.000220767 -0.000207541 -0.00021319 
-0.000213475 -0.000195996 -0.000201626 -0.00020318 -0.000186134 -0.000191313 -0.000194031 -0.000179779 -0.000183204 
-0.000187276 -0.000174972 -0.000176605 -0.000181622 -0.000177878 -0.00017451 -0.000175117 -0.000524418 -0.000915123 
-0.000991763 -0.00156999 -0.0019594 -0.00164926 -0.00255049 -0.00279966 -0.00224227 -0.00238128 -0.00190151 
-0.00239939 -0.00246558 -0.00190236 -0.00131369 -0.000876508 -0.00123933 -0.000697606 -0.000515512 -0.000634079 
-0.000402145 -0.00034939 -0.00041489 -0.000421153 -0.000320538 -0.000332835 -0.000327026 -0.000318033 -0.000322305 
-0.000304187 -0.000293088 -0.000288716 -0.000304956 -0.000301986 -0.00028652 -0.000275294 -0.000281798 -0.000260624 
-0.000249808 -0.000254276 -0.000265885 -0.000267157 -0.00023926 -0.000229558 -0.00023936 -0.000222539 -0.000213704 
-0.000223543 -0.000206759 -0.000199273 -0.00021022 -0.00019393 -0.000188135 -0.000198265 -0.000182173 -0.000178303 
-0.000186061 -0.000186339 -0.000191207 -0.000175586 -0.00017402 -0.000179545 -0.000175077 -0.000174029 -0.000153042 
-0.000176239 -0.000174019 -0.000194477 -0.000184145 -0.000166181 -0.000150821 -0.000161398 -0.000129957 -0.000134326 
-0.000130764 -0.000196105 -0.000191069 -0.000195151 -0.000193857 -0.000197653 -0.00018539 -0.000181144 -0.000186819 
-0.000185439 -0.000189608 -0.000194557 -0.000191874 -0.000190798 -0.000185911 -0.000238552 -0.000232755 -0.000266164 
-0.000281762 -0.000288002 -0.000201197 -0.000236058 -0.000271146 -0.000238554 -0.000416554 -0.000324512 -0.000356284 
-0.000377844 -0.000328535 -0.000206505 -0.000194536 -0.000201704 -0.000195549 -0.000206712 -0.000223999 -0.000232362 
-0.000220416 -0.000213966 -0.000217065 -0.000227223 -0.000210201 -0.000148109 -0.000134628 -0.000135004 -0.000126653 
-0.000140176 -0.000158129 -0.000157437 -0.000156015 -0.000165653 -0.000141368 -0.000149119 -0.000157403 -0.000197032 
-0.000197545 -0.000200178 -0.00020312 -0.000201922 -0.000193838 -0.000197013 -0.000195643 -0.000199578 -0.000203931 
-0.000208612 -0.00020536 -0.000207518 -0.000202884 -0.000196004 -0.000196745 -0.000195466 -0.000195306 -0.000194221 
-0.000190821 -0.000193228 -0.000192513 -0.000192136 -0.000197655 -0.000195989 -0.000194953 -0.00118383 -0.000598891 
-0.00104221 -0.000937526 -0.00153969 -0.00195881 -0.00122882 -0.0019 -0.00210725 -0.00224017 -0.00223961 
-0.00244485 1.40407e-05 2.66866e-05 -1.73152e-05 -3.23595e-05 -4.7051e-05 1.16726e-05 -1.44177e-06 -1.86645e-05 
-4.40845e-05 4.56098e-05 -0.000279256 -0.000276815 -0.000260959 -0.000241092 -0.000246222 -0.000256891 -0.000267414 
-0.000254196 -0.000247593 -0.000237254 -0.000281263 -0.000298496 -0.000228843 -0.000284351 -0.000182262 -0.000176823 
-0.000177998 -0.000174341 -0.000179549 -0.000161862 -0.000168055 -0.000166657 -0.000172984 -0.000167051 -0.000169983 
-0.000177302 -0.000208195 -0.000205472 -0.000208652 -0.000211064 -0.000214273 -0.000217217 -0.000211027 -0.000217566 
-0.000220403 -0.000207765 -8.2266e-05 -9.2449e-05 -7.05808e-05 -6.41182e-05 -5.40131e-05 -0.00011204 -0.000102703 
-0.000108668 -8.91362e-05 -7.84611e-05 -7.10052e-05 -5.26525e-05 6.25997e-06 -3.90962e-05 -2.85549e-05 -8.92937e-05 
-4.81368e-05 -7.4354e-05 -9.27651e-05 -5.02596e-05 -2.00327e-05 -0.000126378 -0.000105667 -0.000125556 -0.000199382 
-0.000204092 -0.000202045 -0.000206134 -0.000198293 -0.000196495 -0.000198416 -0.000197792 -0.000199566 -0.00019692 
-0.000201041 -0.000238721 -0.000253308 -0.000242551 -0.000247447 -0.000232975 -0.000279737 -0.000263525 -0.000273688 
-0.000264267 -0.000279511 -0.00025934 -0.000253236 -0.000178711 -0.00017657 -0.000187283 -0.000192263 -0.000174565 
-0.00018227 -0.00018877 -0.000193404 -0.000189657 -0.000172966 -0.000197505 -0.000170489 -0.000181828 -0.000186166 
-0.000160543 -0.000163738 -0.000150781 -0.000187578 -0.000174493 -0.000164482 -0.00122958 -0.000650787 -0.000462966 
-0.000569109 -0.000618334 -0.000590363 -0.000776885 -0.00126974 -0.00169899 -0.00143335 -0.000438055 -0.000384968 
-0.000270632 -0.000385781 -0.000580889 -0.000366996 -0.000259824 -0.000257212 -0.000201936 -0.00014487 -0.000230919 
-0.000231273 -0.000200465 -0.000193325 -0.000195289 -0.000191099 -0.000178223 -0.000185856 -0.000180864 -0.000182261 
-0.000174511 -0.000190753 -0.00018814 -0.000185602 -0.000202715 -0.000209177 -0.000207301 -0.000209736 -0.000203569 
-0.000201802 -0.000199487 -0.0001965 -0.000198207 -0.00019792 -0.000193981 -0.000182816 -0.000186547 -0.000190549 
-0.000187743 -0.000187039 -0.000187512 -0.000184178 -0.000181245 -0.000180443 -0.000177179 -0.000180434 -0.000216386 
-0.000214435 -0.000221311 -0.000224806 -0.000224385 -0.000221077 -0.000225631 -0.000213281 -0.00021019 -0.000216304 
-0.000192131 -0.000219482 -0.000204872 -0.000165632 -0.000189957 -0.000211322 -0.000133231 -0.000148069 -0.000161651 
-0.000174436 -0.000448009 -0.000347358 -0.000326585 -0.000318219 -0.000409988 -0.000546349 -0.000335453 -0.000301834 
-0.000246818 -0.000237174 -0.000248281 -0.000248408 -0.000258688 -0.000230552 -0.000226664 -0.000234564 -0.000244205 
-0.000228613 -0.000221572 -0.000142882 -0.000151792 -0.000160706 -0.000154726 -0.00013825 -0.000127839 -0.000134966 
-0.000147455 -0.000152872 -0.000155264 -0.000196464 -0.000196551 -0.000197287 -0.000196283 -0.000194853 -0.000194508 
-0.000196222 -0.000196619 -0.000197396 -0.000191709 -0.000193576 -0.000190987 -0.000188612 -0.000190599 -0.000186084 
-0.00018528 -0.000184673 -0.00311299 -0.00251271 -0.0028581 -0.002048 -0.00235462 -0.00223099 -0.00202793 
-0.00164846 -0.00161749 -0.000202867 -0.000219163 -0.000222453 -0.000192209 -0.000200024 -0.000213464 -0.000205969 
-0.000228908 -0.000207451 -0.000210146 -0.000215187 -0.000210991 -0.00021697 -0.000208367 -0.000204423 -0.000191082 
-0.000188348 -0.000190931 -0.000194816 -0.000194134 -0.000193035 -0.000195107 -0.000198151 -0.000200115 -0.000202311 
-0.000202423 -0.000198104 -0.000202674 -0.000199356 -0.00283267 -0.00131296 -0.00219535 -0.00130021 -0.0027918 
-0.00310393 -0.00358693 -0.00452469 -0.00488156 -0.000138721 -0.000124638 -0.000111995 -0.000141494 -0.000102828 
-0.000120941 -0.000137303 -0.000150082 -0.000122549 -0.000118875 -0.000101681 -0.000117536 -0.000107137 -9.58627e-05 
1.1157e-05 4.55178e-05 2.43736e-05 7.18347e-06 -1.87467e-05 -3.46116e-05 -4.54885e-05 -3.34731e-05 -2.7025e-05 
-1.41954e-05 6.79983e-05 8.24959e-05 0.00011781 0.000155043 0.000134695 8.29855e-05 0.000111882 -0.00010526 
-6.60256e-05 -7.83709e-05 -0.000123437 -0.000103855 -8.67804e-05 9.81137e-05 4.10688e-05 2.75743e-05 6.19338e-05 
1.27116e-05 0.000115951 -0.000197487 -0.000201194 -0.000204793 -0.000207041 -0.000198909 -0.000202061 -0.000210917 
-0.000214669 -0.000158461 -0.000163536 -0.000170037 -0.00016545 -0.00017343 -0.000176578 -0.000284395 -0.000294324 
-0.000306343 -0.000314901 -0.000299228 -0.000315569 -0.00175402 -0.00204259 -0.00257336 -0.00243049 -0.00215655 
-0.000254226 -0.000242148 -0.000267283 -0.000278846 -0.000264191 -0.000272943 -0.000205029 -0.00019219 -0.000193375 
-4.0601e-05 -3.49797e-05 -0.000100905 -0.000136486 -9.42444e-05 -0.000144099 -0.00016802 -0.000165509 -0.000172781 
-0.000215171 -0.000221008 -0.000222982 -0.000215372 -6.48147e-05 -9.24194e-05 -8.34151e-05 -5.10656e-05 -6.52078e-05 
-0.000209448 -0.000214011 -0.000225255 -0.00031578 -0.00019906 -0.000201501 -0.000197765 -0.000195321 -0.000178135 
-0.000181607 -0.000168801 -0.000190884 -0.000153759 -0.000241043 -0.000231973 -1.14111e-05 -0.000171658 -0.000156738 
-0.00166735 -0.00355321 -0.00261718 -0.0011045 -0.000393998 -0.000605963 -0.000348215 -0.000329943 -0.000308943 
-0.000285189 -0.000261357 -0.000238633 -0.000218303 -0.000201288 -0.00018746 -0.000177809 -0.000172844 -9.38438e-05 
2.39436e-05 -8.37748e-05 -7.05976e-06 -0.000171232 -0.000172049 -0.000171971 -0.000171757 -0.000404913 -0.000120849 
-7.92911e-05 -7.0111e-05 -0.00202397 -0.00113726 -0.000339687 -0.000644809 -0.00111541 -0.00333082 -0.00303102 
-0.00233988 -0.00270626 -0.00330697 -0.00230094 -0.00286206 -0.00354707 -0.00326474 -0.00299171 -0.000974818 
-0.00152427 -0.00204836 -0.0017671 -0.00132338 -0.000561853 -0.000745815 -0.000936093 -0.000822302 -0.000667411 
-0.000383714 -0.000451385 -0.000419808 -0.00047756 -0.000509814 -0.0003426 -0.000361959 -0.000379318 -0.000372654 
-0.000356934 -0.000325392 -0.000335177 -0.0003438 -0.000339164 -0.000334376 -0.000303151 -0.000314789 -0.000325053 
-0.000320179 -0.000314533 -0.000279358 -0.000291222 -0.000303356 -0.000297276 -0.000291358 -0.000255567 -0.000266767 
-0.00027924 -0.000273083 -0.000267285 -0.000233188 -0.000244602 -0.00025533 -0.000249809 -0.000243825 -0.000213815 
-0.000223156 -0.00023354 -0.000228302 -0.000223549 -0.000197372 -0.000205381 -0.000214277 -0.000209677 -0.000205434 
-0.000184866 -0.00019042 -0.000197563 -0.000193755 -0.000190655 -0.000176072 -0.000180133 -0.000184696 -0.000182234 
-0.000179791 -0.000172396 -0.000173456 -0.000176095 -0.000174605 -0.000173592 -0.000172055 -0.000172194 -0.000157043 
-0.00019087 -0.000255793 -0.000214101 -0.000148501 -0.000200751 -0.000194633 -0.00157591 -5.47158e-06 -0.00026223 
-0.000172226 -0.000211779 -8.17972e-05 -7.2252e-05 -0.000200502 -0.000257969 -0.000184269 -0.000172445 -0.000793186 
-0.000231779 -0.000188247 -0.000201852 -0.000183613 -0.000219625 -0.000178773 -0.000286831 -0.00023785 -0.000144315 
-0.000196584 -0.000188852 -0.00199374 -0.000208987 -0.000211765 -0.000192144 -0.000199977 -0.00327228 -0.000127842 
-0.000112564 -9.16372e-06 0.000112253 -9.63276e-05 6.15041e-05 -0.00020271 -0.000166219 -0.0002974 -0.00256662 
-0.000259908 -0.000202612 -0.000189413 -8.32891e-05 -0.000172977 -0.000212678 -7.14803e-05 -0.000250146 -0.000198624 
-0.000375446 -0.000323878 -0.000338767 -0.000199353 -0.000199581 -0.000182557 -6.15185e-05 -0.000122006 -0.000190219 
-0.000207994 -0.000718926 -0.000245582 -0.00335619 -0.000229992 -0.000158225 -0.000190255 -0.000227593 -0.000168337 
1.94398e-05 -0.000196295 -0.000223367 -0.000184369 -0.000279739 -0.000288826 -3.34451e-05 -0.000193016 -0.000229175 
-0.000176849 -0.000192779 -0.000198158 6.27297e-05 -0.000148235 -0.000234508 -0.000219304 -0.00012534 -0.000131528 
-0.000183091 -0.000160417 -0.000192666 -0.000174837 -0.000199119 -0.000196248 -0.000190171 -0.000209605 -0.00224331 
-0.00237224 -8.7986e-05 -0.000197819 -0.000183613 -0.000113683 -0.000203804 -0.000394571 -0.000206272 -0.000111382 
-0.000213116 -0.000181935 -0.000179959 -0.000196948 -0.00048455 -0.00130867 -0.000205177 -0.00077329 -0.000258369 
-0.000242068 0.000168393 -0.000203862 -0.000150736 -0.000195205 -0.000458148 -0.00317738 -0.000275195 -0.000222906 
-0.000198583 -0.000191738 -0.00665118 -9.20076e-05 -2.96777e-05 -2.24171e-05 0.000213471 5.99498e-05 -0.000288163 
-0.000192024 -0.000141886 2.92386e-05 -0.00143231 -0.000201356 -0.000218478 -0.000189401 -0.000193015 -6.27922e-05 
-0.000194054 -0.00606657 -0.000196294 -0.00160646 0.000141866 -0.000164757 -0.00278686 -0.000163586 -0.000102172 
-0.000248974 -9.55145e-05 -0.000225383 -0.000150579 -0.000265324 -0.00014662 -0.000323413 -4.77239e-05 -0.000210576 
0.000135193 -0.000284322 -0.000291374 -0.000193951 -0.000230707 -0.000178407 -0.000120976 -0.000198241 -0.000207348 
-0.000236642 -0.000249369 -0.00016477 -0.000204932 -0.000269471 -0.000181513 -0.00019491 -0.000173409 -0.000188184 
-0.000152497 -0.000139855 -0.000269457 -0.00312104 1.76728e-05 -4.87729e-06 -6.0166e-05 -0.000903091 -0.00144473 
-0.000176291 -0.00017288 2.1359e-05 -0.000313333 -0.000230766 -0.000216621 -0.000194649 -0.000196273 -0.000216987 
-0.000109811 -0.000222271 -0.000176544 -0.000275882 -0.000205139 -0.000238312 -0.000173525 -0.000219259 -0.000329859 
-0.000621563 -0.000416268 -0.0111031 -0.00518751 -0.00941636 -0.000172663 -0.000172132 -0.000172665 -0.000243341 
-0.000242409 -0.000234958 0.000265942 0.000276219 0.000208404 0.000214082 0.000240895 0.000197061 0.000156621 
0.000202178 0.000158901 4.17979e-05 9.02566e-05 8.90733e-05 8.14477e-05 1.75748e-05 -4.18896e-05 -1.0982e-05 
-3.44131e-05 -0.000110698 -4.96418e-05 -0.000103791 -0.00216268 -0.00012022 -0.000267059 -0.00323793 -0.000238158 
-0.000235554 -0.000237522 -0.000229915 -0.000233874 -0.000231485 -0.000227214 -0.000227068 -0.000224623 -0.000219128 
-0.000220982 -0.000213079 -0.000207484 -0.000213328 -0.00020148 -0.000195881 -0.000203269 -0.000191098 -0.000185979 
-0.000193635 -0.000183219 -0.000179628 -0.000186867 -0.000176545 -0.000174932 -0.000181331 -0.00017446 -0.000177688 
-0.000175309 -0.00554398 -0.00792389 -0.00693179 -0.00252345 -0.00395482 -0.00459369 -0.00101887 -0.00161938 
-0.00242829 -0.00117001 -0.000718672 -0.000471926 -0.000900506 -0.00235854 -0.00149693 -0.00145238 -0.00323473 
-0.00310295 -0.00284885 -0.00153371 -0.00241177 -0.00291633 -0.00282788 -0.00178011 -0.000777979 -0.0011177 
-0.00103942 -0.000436893 -0.000558313 -0.000527753 -0.000344253 -0.000374718 -0.000382242 -0.000364348 -0.000320794 
-0.0003346 -0.00031729 -0.000325647 -0.000320019 -0.000293165 -0.000303978 -0.000304774 -0.000288687 -0.000301195 
-0.000275248 -0.000286456 -0.000281932 -0.000249615 -0.000260578 -0.0002659 -0.000254279 -0.000266878 -0.000229497 
-0.000239317 -0.000239504 -0.000213515 -0.000222286 -0.000223146 -0.000199016 -0.000206457 -0.000210029 -0.000187614 
-0.000193614 -0.000198056 -0.000178334 -0.000181843 -0.000186021 -0.00018583 -0.000191014 -0.000174015 -0.000175559 
-0.000179136 -0.000175073 0.00016735 0.000114265 0.000171913 5.78465e-05 2.12745e-05 8.1336e-05 9.72382e-05 
4.24818e-05 -4.56268e-07 -2.76144e-05 -8.58884e-07 -4.68729e-05 -6.71833e-05 -4.27405e-05 -8.29057e-05 -9.85298e-05 
-7.71747e-05 -0.000115303 -0.000127335 -0.00010951 -0.000135825 -0.000145689 -0.000133577 -0.000153852 -0.000161867 
-0.000150242 -0.000169389 -0.000176129 -0.000165722 -0.000181526 -0.000187771 -0.000178304 -0.000193001 -0.000199033 
-0.000188886 -0.000208643 -0.000215131 -0.00020348 -0.000207863 -0.000198455 -0.00021957 -0.000226996 -0.00021757 
-0.000230018 -0.000176862 -0.000153233 -0.000175705 -0.000194776 -0.000175127 -0.000166383 -0.000182828 -0.000161107 
-0.000152181 -0.000134703 -0.000128851 -0.000129741 -0.000194901 -0.000191819 -0.000196484 -0.000197885 -0.000193531 
-0.000186908 -0.000180966 -0.000186191 -0.000189066 -0.000185527 -0.000191793 -0.000194678 -0.000190833 -0.000186164 
-0.000252472 -0.000229803 -0.000230355 -0.000270938 -0.00026554 -0.000225922 -0.000196771 -0.000216836 -0.000248237 
-0.000285347 -0.000277183 -0.000264007 -0.000297362 -0.00027265 -0.00020201 -0.000194448 -0.000206813 -0.000207656 
-0.000195651 -0.000220982 -0.000231735 -0.000224167 -0.000212959 -0.000226313 -0.000216572 -0.000210445 -0.00013586 
-0.000134728 -0.000147883 -0.000140016 -0.000126505 -0.000157948 -0.000158253 -0.000165705 -0.000156987 -0.000149201 
-0.000141574 -0.00015751 -0.000200075 -0.000197804 -0.000197219 -0.000202196 -0.000202857 -0.000196791 -0.000193987 
-0.000199917 -0.00019556 -0.000205009 -0.000208758 -0.000204004 -0.000207382 -0.000202786 -0.000195482 -0.000196371 
-0.000196055 -0.000194174 -0.000195358 -0.00019256 -0.000193213 -0.000190874 -0.00019203 -0.000196139 -0.000197612 
-0.000195052 -0.000846157 -0.000450437 -0.000971967 -0.00138218 -0.000751688 -0.000869411 -0.00154899 -0.00222374 
-0.00204486 -0.00235428 -0.00225833 -0.00304456 -1.68101e-05 2.71277e-05 1.45708e-05 -4.73408e-05 -3.37238e-05 
-1.80572e-05 -1.63241e-06 1.19044e-05 -4.60375e-05 4.54536e-05 -0.000255713 -0.000262761 -0.000269383 -0.000244191 
-0.000237339 -0.000254353 -0.000266485 -0.000257357 -0.000238423 -0.000246993 -0.000286062 -0.000277322 -0.000228195 
-0.000281371 -0.00017782 -0.000176804 -0.000182219 -0.000179724 -0.000174132 -0.000166607 -0.000167991 -0.000161723 
-0.000167315 -0.000172939 -0.000170242 -0.000177486 -0.000209078 -0.000205681 -0.000208276 -0.000214382 -0.000211183 
-0.000217264 -0.000211404 -0.000216734 -0.000219979 -0.000207838 -7.02839e-05 -9.19714e-05 -8.25294e-05 -5.41954e-05 
-6.42521e-05 -0.00010309 -0.000112177 -8.8518e-05 -0.000109205 -7.11159e-05 -7.76926e-05 -5.39293e-05 -2.92724e-05 
-3.86826e-05 1.00815e-05 -4.89499e-05 -8.92313e-05 -4.9294e-05 -9.21938e-05 -7.46556e-05 -1.93893e-05 -0.000106448 
-0.000125556 -0.000125189 -0.000203965 -0.000199903 -0.000206087 -0.000202231 -0.000198028 -0.000196253 -0.000198365 
-0.000199462 -0.000197295 -0.000197265 -0.00020077 -0.000242751 -0.000253403 -0.00023878 -0.000231925 -0.000247508 
-0.000273016 -0.000263708 -0.000279641 -0.00027902 -0.000263658 -0.000259015 -0.000252641 -0.000186603 -0.000176638 
-0.000179432 -0.000192538 -0.000174576 -0.00018862 -0.000181906 -0.000189648 -0.000193763 -0.000172753 -0.000197625 
-0.000181899 -0.00017029 -0.000185934 -0.000159988 -0.00015064 -0.000162399 -0.000173552 -0.000188283 -0.000163316 
-0.000570792 -0.00102905 -0.00049456 -0.000322074 -0.000777787 -0.000478834 -0.000524718 -0.00107733 -0.00137538 
-0.00171772 -0.000317285 -0.000338885 -0.000304649 -0.000234218 -0.000297969 -0.00040491 -0.000191996 -0.000243836 
-0.000160951 -0.000192856 -0.000129067 -0.000207005 -0.000195325 -0.000193562 -0.000200494 -0.000191032 -0.00018089 
-0.000185844 -0.000178243 -0.000174624 -0.000182291 -0.000185554 -0.000188001 -0.000190673 -0.000207146 -0.000208615 
-0.000202994 -0.000204361 -0.000209445 -0.000199533 -0.000201749 -0.000198217 -0.000196639 -0.000197736 -0.000193837 
-0.000186349 -0.000182916 -0.000187848 -0.000190477 -0.000183887 -0.000187429 -0.000187001 -0.00018103 -0.000180034 
-0.00018008 -0.000176873 -0.000221822 -0.00021464 -0.000216224 -0.000225209 -0.000224216 -0.000225843 -0.000221081 
-0.000213329 -0.000216336 -0.000210266 -0.000215658 -0.000192922 -0.000202567 -0.00018904 -0.000164506 -0.00021202 
-0.000146751 -0.000133403 -0.000161295 -0.000172696 -0.000327497 -0.000333792 -0.000302 -0.000290109 -0.0004473 
-0.000273195 -0.000298976 -0.000279582 -0.000248672 -0.000237122 -0.000246887 -0.000259261 -0.000247412 -0.000234519 
-0.000226929 -0.000229966 -0.000243581 -0.000228719 -0.000221669 -0.000151105 -0.000143122 -0.000154007 -0.000160732 
-0.00013541 -0.000127442 -0.000137851 -0.000147289 -0.000152659 -0.000155503 -0.000196504 -0.000196831 -0.000197307 
-0.000195006 -0.000196322 -0.000196324 -0.000194577 -0.000196563 -0.000197297 -0.000190864 -0.000193961 -0.000192099 
-0.000188291 -0.000186007 -0.00019066 -0.000185242 -0.000184917 -0.00262648 -0.0026682 -0.00328077 -0.00183402 
-0.00204775 -0.0026558 -0.00261366 -0.0015027 -0.0013697 -0.000218195 -0.000203916 -0.000222819 -0.000191708 
-0.000201141 -0.000205623 -0.00021432 -0.000228552 -0.000210087 -0.000207453 -0.000215078 -0.000217441 -0.000210835 
-0.000208462 -0.000204602 -0.000188372 -0.000191069 -0.000190755 -0.000194919 -0.000194413 -0.000193104 -0.000195132 
-0.000200368 -0.000198027 -0.00020231 -0.000202298 -0.000198127 -0.000199315 -0.000202823 -0.00119164 -0.000466522 
-0.00169489 -0.00180876 -0.000815158 -0.00396968 -0.00325521 -0.00494334 -0.00481015 -0.000123657 -0.000138177 
-0.000111855 -0.000140946 -0.000119903 -0.000102761 -0.000136976 -0.000149501 -0.0001188 -0.00012166 -0.000102722 
-0.000107018 -0.000117288 -9.65303e-05 2.57124e-05 4.65903e-05 9.81983e-06 6.45809e-06 -1.91149e-05 -4.49606e-05 
-3.53358e-05 -1.46898e-05 -2.90792e-05 -3.47003e-05 8.73037e-05 7.00021e-05 0.000125372 0.000138803 0.000162441 
0.000110001 8.46598e-05 -6.68889e-05 -0.000104967 -7.95943e-05 -0.000123013 -0.000103742 -8.755e-05 4.70674e-05 
0.000100437 2.75283e-05 1.14061e-05 6.09575e-05 0.000115465 -0.000201009 -0.0001976 -0.000207119 -0.000204392 
-0.000198727 -0.000210821 -0.000201972 -0.000214871 -0.000163057 -0.000158385 -0.000169885 -0.000173321 -0.000165367 
-0.000176141 -0.000293164 -0.000283395 -0.000305636 -0.000311017 -0.00029541 -0.000307957 -0.00247966 -0.00196525 
-0.00283644 -0.00267712 -0.00259721 -0.0002415 -0.000254774 -0.000267984 -0.000273801 -0.000264702 -0.000278893 
-0.000204982 -0.000193439 -0.000192116 -3.17619e-05 -3.25112e-05 -9.74153e-05 -8.53288e-05 -0.000123915 -0.000137769 
-0.000165845 -0.00016824 -0.000172905 -0.000220795 -0.000214928 -0.00021494 -0.000223416 -9.1298e-05 -6.63118e-05 
-8.41657e-05 -5.15164e-05 -6.482e-05 -0.000208945 -0.000215216 -0.00022459 -0.000307014 -0.000201728 -0.000198783 
-0.000195759 -0.000197731 -0.000177897 -0.000182071 -0.000164378 -0.000178744 -0.000151322 -0.00024098 -0.000232558 
0.000117168 1.80729e-05 0.00021717 0.000291976 0.000334168 0.000116489 -0.000774297 -0.0105304 -0.0135436 
-0.0108192 -0.00822242 -0.00733688 0.000339335 0.000338448 0.000326083 0.000326845 0.000303078 0.000272756 
0.000311942 0.000192129 0.000240247 0.000256141 9.25603e-05 0.000142424 0.000167797 4.1205e-05 1.54525e-05 
6.58692e-05 -7.1701e-06 0.00016157 -1.67072e-05 -0.000210152 -0.00231807 -0.000285112 -0.00509438 0.000279545 
0.00030638 0.000236815 0.000193389 0.000141671 8.87437e-05 -2.73354e-05 3.84728e-05 -0.000190418 7.46721e-06 
-0.00316584 -0.000518648 -0.000247777 -0.000243889 -0.000235757 -0.000225268 -0.000199625 -0.000187268 -0.000178 
-0.000171644 -0.000213086 -0.000172916 -0.000172032 -0.000171233 -0.000171916 -0.000248125 -0.000248144 -0.000247171 
-0.000171759 -0.00024699 -0.000242025 -0.000245037 -0.000246138 -0.000245037 -0.000233435 -0.000238075 -0.000242148 
-0.000240164 -0.000237989 -0.000222328 -0.000228156 -0.000233107 -0.000230676 -0.000227972 -0.000209649 -0.000216139 
-0.000222308 -0.000219118 -0.000216017 -0.000196248 -0.000203134 -0.000202782 -0.00020616 -0.000209567 -0.000184772 
-0.000190061 -0.000196316 -0.000193207 -0.000190112 -0.000176384 -0.000180186 -0.000184628 -0.00018231 -0.000179992 
-0.00017218 -0.000173654 -0.000176232 -0.000174745 -0.000173568 -0.000172028 -0.000172473 0.000265659 0.000142176 
5.4542e-05 -8.14574e-06 -5.47903e-05 -9.08255e-05 -0.000118497 -0.000140121 -0.000158005 -0.000172763 -0.000185789 
-0.000210455 -0.00022401 -0.000239787 -0.000198159 -0.000243891 -0.000244042 -0.000235317 0.000303362 0.000301443 
0.000226921 -0.000235753 0.000233458 0.000166066 0.000118675 0.000197589 0.000171015 7.41545e-05 3.61015e-05 
9.52474e-05 0.000116308 7.33616e-05 5.23311e-06 -2.17554e-05 2.09012e-05 3.74617e-05 6.34841e-06 -4.48669e-05 
-6.46743e-05 -3.31754e-05 -2.0541e-05 -4.39982e-05 -8.22063e-05 -9.79608e-05 -7.39637e-05 -6.47153e-05 -8.32513e-05 
-0.000112021 -0.000124995 -0.000105331 -9.88692e-05 -0.000112236 -0.000135439 -0.000144784 -0.000130078 -0.000123928 
-0.000135012 -0.000153821 -0.000161922 -0.000149492 -0.000145282 -0.000153855 -0.00016914 -0.000176114 -0.000165577 
-0.000161822 -0.000169362 -0.000182669 -0.000188873 -0.000179452 -0.000176152 -0.000182608 -0.000195133 -0.000201261 
-0.000191994 -0.000188915 -0.000195012 -0.000207416 -0.000213724 -0.00020429 -0.000207287 -0.000201099 -0.000220577 
-0.000227479 -0.000217043 -0.000213644 -0.000220351 -0.000231447 -0.000227748 -0.000747493 -0.000109553 -0.000144191 
-0.000192086 -0.000196573 -0.000179074 -3.41293e-05 -0.000186314 -0.000194727 -0.00132571 -0.0016976 -0.00012039 
-0.000126614 -0.000200037 -0.000163882 -0.000196157 -0.000193616 -0.000196643 -0.000196318 -0.000196314 -0.00019646 
-0.000196708 -0.000196827 -0.000196863 -0.000174167 -0.000172372 -0.000175805 -0.000175561 -0.000177591 -0.000591178 
-0.000528993 -0.000550764 -0.000716198 -0.000641283 -0.000176213 -0.000177697 -0.000126706 -0.000113816 -0.000124883 
-0.00011173 -0.000110689 -0.00014123 -0.000150343 -0.00014744 -0.000147317 -0.000138156 -0.000141099 -0.000124904 
9.4042e-05 5.98282e-05 9.61657e-05 9.36604e-05 0.000133821 -0.000131781 -0.000138062 -0.000460541 -0.000603397 
0.000116221 0.000139331 0.000138119 -0.000289062 -0.00030879 -0.000309624 -0.000308674 -0.000287964 -0.000406157 
-0.000453045 -0.000456683 -0.000357385 -0.000359276 5.97772e-05 6.10682e-05 -0.00018861 -0.000190545 -0.000191105 
-0.000193965 -0.000191957 -0.000188503 -0.000190372 -0.00019174 -0.000193883 -0.000186269 -0.000184087 -0.000183884 
-0.000189858 -0.000188621 -0.000188449 -0.000193802 -0.000194253 -0.000194162 -0.000198838 -0.000204569 -0.00020305 
-0.000208047 -0.00020482 -0.00304505 -0.00473773 -0.00434655 -0.00577607 -0.00448986 -0.000210492 -0.00020758 
-0.000210256 -0.000191337 -0.000216378 -0.000216105 -0.000213115 -0.000218714 -0.000198761 -0.000198099 6.36413e-06 
3.02096e-05 -5.74534e-06 -0.000197826 -0.000192863 -0.00018996 -0.000194668 -0.00014546 -0.00014994 -0.000140882 
-0.000221212 -0.000226947 -0.000229381 -0.000226814 -0.000222039 -0.000224447 -0.000221846 -0.000271466 -0.000265981 
-0.000258524 -0.000271431 -0.000260296 -0.000260591 -0.000193372 0.000178009 0.000171028 -0.00552329 -0.00690883 
-0.00669534 -0.000467642 -0.000506974 -0.000565108 -0.000141537 -0.000149731 -0.000140515 -0.000181193 -0.000186804 
-2.8435e-05 -3.4383e-05 -5.2833e-05 -4.68588e-05 -3.92414e-05 -0.000194157 -0.000195402 -0.000193976 -0.000755623 
-0.000705834 -0.000551504 -0.000922474 -0.000303704 -0.000298654 -0.00029862 -0.000189682 -0.000219196 -0.000175072 
-0.00017305 -0.00017497 -0.000175017 -0.000176859 -0.000197337 -0.00019889 -0.000360867 -0.000323176 -0.0002416 
-0.000248866 -0.000238473 -0.000253376 -0.000197526 -0.000196184 -0.000196246 -0.000173349 -0.000173242 -0.000309329 
-0.000289321 -1.76267e-05 -1.99804e-07 -2.98969e-05 3.02506e-05 1.0585e-05 -5.4832e-05 -7.14236e-05 -6.45344e-05 
-0.00268953 -0.00197283 -0.0026408 -0.00236724 -0.00296513 -0.0010674 -0.00124963 -0.00164172 -0.000977147 
-0.000254029 -0.000255321 -0.000214803 -0.000230648 -0.000224723 -0.000207756 -0.000211754 -0.000206583 -0.000211816 
-0.000213015 -0.00314627 -0.00317753 -0.000780645 -0.000582875 -0.000540806 -0.000206599 -0.000210635 -0.000202714 
-0.000278871 -0.000264795 -0.000269645 -0.000195662 -0.000197631 -0.00017685 -0.000174697 0.000179623 0.000195859 
0.000137033 0.000173982 -0.000175083 -0.000173335 -0.000174952 4.74889e-05 -4.56085e-05 0.000156398 0.000123264 
-1.44664e-05 -3.38571e-05 -0.000202923 -0.000204027 -0.000210636 -0.00022936 -0.000223107 -0.000236476 -0.000241364 
-0.00023828 -0.000241347 -0.000233601 -0.000230989 -0.000226683 -0.000231083 -0.000192479 -0.000192144 -0.000105321 
-9.81286e-05 -9.09514e-05 -0.00011926 -0.000128026 -0.000112565 -0.000122201 -0.00017333 -0.000259076 -0.00025448 
-0.000181223 -0.000177037 -0.000177901 -0.000181935 -0.000238125 -0.000246771 -0.00152079 -0.000264033 -0.000236456 
-0.00022912 -0.000226903 -0.000153067 -0.000150186 -0.000160284 -0.000163491 -8.47501e-06 -0.000200469 -0.000196059 
-0.000198311 -0.000193988 -0.000196027 -0.000217645 -0.000210213 -0.000122013 -0.000105031 -9.15336e-05 -0.000109753 
-0.000174788 -0.000197068 -0.00019849 -0.00019756 -0.00248265 -0.002544 -0.00251766 -0.000198981 7.8731e-05 
-0.000255045 -0.000249394 -0.000632928 -0.0002077 -0.000204605 -0.000205162 -0.000202543 -0.000188461 -0.000188261 
-0.000184947 -0.000185118 -0.000227977 -0.000198425 -0.000195361 -0.000192562 -0.000189535 -0.000192419 -6.00993e-05 
-0.0026669 -0.00242771 -0.00300594 -0.000176795 -0.000174424 -0.000191761 -0.00018299 -3.83012e-05 -3.84756e-05 
-2.20477e-05 -4.31035e-05 -5.83003e-05 -0.000102081 -0.00016917 -0.000165476 -0.000172801 2.46319e-05 -0.000217809 
-0.000216904 -0.000279405 -0.000227387 -0.000226802 -0.000222269 0.00015563 -0.000172879 -0.000172547 -0.000196989 
-0.000196192 -0.000198389 -0.000192987 -0.00272363 -0.000238993 -0.000235067 -0.000121506 -0.00012573 -0.000208911 
-0.000202668 -0.00023422 -0.000223805 0.000107485 0.000156501 0.000193146 0.000139167 -9.06719e-05 -0.000127269 
-0.000132732 0.000100656 -2.00887e-05 1.31976e-05 -2.04713e-05 -0.000196775 -0.00353266 -0.00455088 6.41616e-05 
4.6106e-05 -0.000181374 -0.000195498 -0.000194692 -0.000190686 -0.00250349 -0.00268312 -0.00259951 -0.00222794 
-0.000232248 -0.000223003 -0.000237051 -0.000244812 -0.000234308 -0.000239328 -0.000244472 -5.12325e-05 -0.00324928 
-0.00314178 -0.00262815 -0.00019272 -0.000189685 -0.00016558 -0.000172832 -0.000172699 -0.000194961 -0.000196372 
-0.00013253 -0.000202126 -0.000203138 -0.00020514 -0.00018563 -0.000183985 -0.000180016 -0.000182068 -0.000179974 
-0.000257922 -0.000242221 -0.000196536 -0.00020652 -0.000202584 -0.000172558 -0.000148261 -0.00015881 -0.000147885 
-0.000157905 -0.00280095 -0.00279392 -0.000182327 -0.000179078 -0.000169915 -0.000172987 -0.000194881 -0.000247906 
-0.000273093 -0.00022567 -0.000223182 -0.000914407 -0.000696584 -0.000239173 -0.000200533 -7.27194e-05 -3.05217e-05 
-5.56518e-05 -9.90561e-05 -9.76386e-05 -0.00018551 -0.000181652 -0.000183239 -0.00292252 -0.000138898 -0.000134853 
-0.000134022 -0.00298872 -0.00293168 -0.00236713 -0.00251676 -0.00224373 -0.000223085 -0.000222202 -0.002194 
-0.00179915 -0.000280766 -0.000267015 8.36218e-05 6.60095e-05 -0.00022013 -0.000213358 -0.000227957 -0.000292238 
-0.000282069 -0.000172737 -0.000166444 -0.00024403 -0.000221695 -0.000228657 -0.00019266 -0.000211361 -0.000214311 
-0.000211618 -0.00020899 -0.000213115 -0.000206746 -0.000186164 -0.000184234 -0.00617706 -0.00791432 1.81384e-05 
-8.15347e-05 -8.78296e-05 -0.000101735 -0.000108265 -0.000101939 -0.000195936 -0.00019109 -0.000184295 -0.00023174 
-0.000234819 0.000177911 0.000210888 -0.000199415 -0.000197339 -0.000200113 -0.000219327 -0.000209569 -0.000190077 
0.000169387 -0.000172477 -0.000136708 -0.000206459 -0.000291946 -0.000275984 -0.000215172 -0.000249895 -0.000193496 
-0.00019096 -0.000192113 -0.000194857 -0.000140785 -0.000211179 -0.000208364 -0.000217201 -0.000211713 -0.00021105 
-0.000203515 -0.000200447 -0.000158231 -0.000150422 -0.000202057 -0.000194129 -0.000187089 -0.000190187 -0.000187374 
-0.000200154 -0.000202495 -0.000202219 -0.000196401 -0.000160433 -0.000167196 -0.000258164 -0.000263738 -0.000367431 
-0.000329549 -0.000199716 -0.000202781 -0.000207178 -0.000213727 -0.000199001 -0.000476459 -0.000337201 -0.000367234 
-0.000151339 -0.000142508 -0.0032357 -0.000164033 -0.000149635 -0.000198131 -0.000216159 -0.000221509 -0.000165751 
-0.000193883 -0.000194946 -0.000193224 -0.000230119 -0.000237123 -0.000174087 -0.000137307 -0.000130297 -0.000146544 
0.000237313 0.000208731 -0.000150831 -0.000161569 -0.000188913 -0.000188052 -0.000184483 -0.000184636 -0.000240916 
-0.00022579 -0.000204282 -0.000217053 -0.000216694 -0.00768339 -0.00934294 -0.00934158 -0.000195001 -0.000195146 
-0.000107454 -9.58933e-05 -0.00016804 -0.000280905 -0.000188348 -8.65677e-05 -3.09221e-05 -0.000105492 -0.000108982 
-0.000148033 -0.000190892 -0.000192012 -0.000175757 -0.000177735 -0.000193799 -0.000197572 -0.000214595 -0.000219495 
-0.000209845 -0.00215526 -0.000185703 -0.000186798 -0.000182493 -0.000180913 -0.000187371 -9.57788e-05 -0.000108235 
-0.000194173 -0.000283889 -0.000279839 -0.000293618 -0.000297925 -0.000219741 -0.000216314 -0.000186124 -0.000259651 
-0.000245208 -0.000173511 -0.000177525 -0.000157877 -0.0002595 -0.000247806 -0.000194867 -0.000193434 -0.00019349 
-0.0001949 -0.000193234 -0.000194868 -0.002059 -0.00183277 -0.00199611 -0.000224304 -0.000186 -0.00018805 
-0.000190624 -0.000196958 -5.62624e-05 -0.000208563 -0.00021934 -0.000263752 -0.000252931 -0.00236727 -0.00209244 
-0.00278769 -0.000172818 -0.000172524 -0.000172551 -0.000199517 -0.000203737 -0.000201375 -0.000175777 -0.000176999 
-0.000244713 -0.000253125 -0.000167082 -0.000156595 -0.00255311 -0.000207499 -0.000208402 -0.000210132 -0.000166344 
-0.000163225 -0.000155575 -0.000158828 -0.000194749 -0.000201131 -0.00038918 -0.00019939 -0.000230502 -0.000236917 
-0.000207715 -0.000198316 -0.000198292 -0.000196692 -0.000196699 -0.000198333 -0.00024222 -0.000243016 -0.000242899 
-0.00216119 -0.00247146 -0.00223629 -0.00168045 -0.000177116 -0.00230474 -0.000169943 -0.000202933 -0.000210516 
-0.000210341 -0.000202359 -0.00013495 -0.00013425 -0.000134608 -0.0033171 -0.00269402 -0.000203686 -0.000200361 
-0.000214937 -0.000222131 -0.000223428 0.000115775 -0.000197611 -0.000194036 -0.000196243 -0.000214061 -0.000205512 
-9.12789e-05 -7.44705e-05 -7.06751e-05 -0.0001816 -9.12731e-05 -8.38398e-05 -7.14326e-05 -0.000257544 -0.000266313 
-0.000219257 -0.000257068 -0.000324321 -0.00012042 -0.000121066 -0.000124166 -0.000128481 -0.000167948 -0.000184795 
-0.000181525 -0.000174129 -0.000172043 -0.000174119 -0.000173034 -0.000117762 -0.000118519 -0.000210488 -0.000120793 
-0.000172191 -9.43144e-05 -9.14768e-05 -5.06277e-05 -5.71665e-05 -6.27593e-05 -0.000263282 -0.000178263 -0.000181515 
-0.000184637 -9.88877e-05 -0.00127262 -0.000695417 -0.000834647 -0.000189372 -0.000217059 -7.46888e-05 -0.0001914 
-0.000192445 -0.000186089 -0.00218701 -0.00144843 -0.00195343 -0.000215106 8.68166e-05 -0.00021157 -0.000216271 
-0.000181412 -0.000178717 -0.000181177 -0.00018395 -0.000161872 -5.076e-05 -6.67308e-05 -0.000204535 0.000226659 
0.000255921 0.000229109 -0.0017576 -0.000175468 -0.0001924 -0.000231956 -0.000176765 -0.00018376 -0.000175765 
-0.00018025 -0.000152493 -0.000205943 -0.000189141 -0.0002032 -0.000158198 4.54001e-05 -0.000232821 -0.000218944 
-0.000191307 -0.000205619 -0.000213361 -0.000201577 -0.000198167 -0.000200008 -0.000198132 -0.000526065 -0.000156043 
-0.00016583 -0.000156403 -0.000273688 -0.00016608 -2.66566e-05 -1.48462e-05 -1.45188e-05 -0.000279728 -0.000292813 
-0.000276215 -4.36825e-05 -3.88505e-05 1.29156e-05 1.92608e-05 -0.000153429 -0.000134481 -0.00022853 -1.79162e-05 
-9.58402e-05 -0.00012423 -0.00013022 -0.000104295 0.000254774 -0.000206658 1.2917e-05 -0.000187776 -0.00019085 
-0.00017951 -0.000172363 -0.000319033 -0.000253891 -0.000188846 -0.000183663 -0.000190147 -0.000184976 -0.000184889 
-6.54592e-05 -7.77277e-05 -7.33588e-05 -0.000199505 -0.000194931 0.000241059 -0.000473332 -0.000382522 -0.000499257 
-0.00017615 -0.000201083 -4.17987e-06 -8.87926e-05 -0.000177021 -0.000286447 -0.000165002 -0.000157049 -0.000165021 
-0.000233463 -0.000246999 -0.000236735 -0.00659446 -0.000209442 -0.000259382 -0.000112428 -0.000215244 -0.000226707 
-0.00022707 -0.000230693 -0.000216973 -0.000206959 -0.00020092 -0.000203874 -0.000206007 -0.000178163 -0.000191048 
-0.00968663 -0.000267951 -9.21244e-05 -6.38794e-06 2.59411e-05 1.39583e-05 -1.80003e-05 -1.79716e-05 -0.00015468 
-0.000160944 -0.000163571 -7.35205e-05 -0.000200814 -0.000201649 -0.000206168 -0.000202918 -0.000202909 -0.000199119 
-0.00184039 -0.000491307 -0.000369542 -0.000301951 -0.000315611 6.38784e-05 1.05586e-05 1.33677e-05 -0.000191705 
-0.000207396 -0.000203945 -0.000199344 -0.000197105 -0.000196893 -0.00023704 -0.000217565 -0.000240548 0.000111919 
-0.000180348 -0.000204128 -0.000199327 -0.000895273 -0.000190897 -0.000200683 -0.00139683 -0.000685664 -0.000220362 
-0.000196119 -0.000228466 -0.000226796 -0.000233442 -0.000233559 -0.000196337 -8.23815e-05 -0.000257343 -0.000146871 
-0.000178287 -0.000120422 -0.000184701 -0.000178245 -0.00120176 -0.00112277 -0.00162503 -0.00147603 -0.000993977 
-0.000229745 -0.000202233 -0.000148058 -0.000181201 -0.000181171 -0.000182569 -0.000600589 -0.00107136 -0.000840988 
-0.000790767 -0.000809008 -0.00104351 -0.000392205 -0.000507627 -0.000333433 -0.000198226 -3.49724e-05 -4.76992e-05 
-0.000248002 -0.000197939 -0.000195604 -0.000198592 -0.00019578 -0.00110975 -0.000955592 -0.00114257 -0.000269486 
-0.00017821 -0.00017975 7.49621e-06 -0.00029554 -0.000294953 -0.000289603 -0.000308003 -0.000288027 -0.000198358 
-0.0001021 -8.26384e-05 -0.000223036 -0.000221043 -0.000224216 -0.000274401 -0.000278616 -0.00013334 4.08366e-05 
-0.000221233 -0.000179533 -0.000254571 -0.000199276 -0.000199316 -0.000178166 -0.000178172 3.83735e-05 -0.000156892 
-0.000192971 -0.000189946 -0.00244563 -0.000263209 -0.000188528 -0.000304794 6.72202e-05 6.05364e-05 6.8063e-05 
-9.26355e-05 -0.00023796 -0.000234561 -0.00016136 -0.000195281 -0.000195257 -0.000112303 -0.000150377 -0.0013052 
-0.00149225 -0.0016089 -0.00103672 1.73259e-05 -4.23859e-05 -4.3506e-05 1.357e-05 -0.000164249 -0.000200462 
-0.000195368 -0.000179363 -6.1012e-05 -4.75136e-05 -0.00075873 -0.000526342 -0.000302358 -7.10113e-05 -0.000144699 
-0.000158539 -0.000280095 -0.000281094 -0.000102817 -0.000281519 -0.000459482 -0.000318302 -0.000193335 -0.000146039 
-0.000145937 -0.000132533 -0.000161801 -0.000145489 -0.000152781 -0.0012414 -0.000213352 -0.000208729 -0.000160075 
6.0283e-05 -0.000205188 -0.000195317 -0.000174356 -0.000225022 2.19024e-05 -0.000493591 -0.00109858 -0.00185743 
-0.0010653 -5.5253e-07 7.2527e-06 -0.000326969 -0.000353196 -0.000139468 -0.000454477 -0.00055807 -0.000485474 
-0.00027763 -0.000181256 -0.000181279 -0.00198276 -0.00192197 -0.00222441 -0.00149387 -0.00158636 -0.00181694 
-0.00195014 -0.000189961 -7.71506e-05 -0.00167798 -0.00128544 -0.00133428 3.79686e-05 -0.000681728 -0.00094664 
-0.00018631 -0.000164112 -0.00194251 -0.000196451 -0.000198233 -0.000194775 -0.000194889 -0.000192184 -0.000133048 
-0.000104436 -6.69618e-05 -6.68019e-05 -0.00028815 -0.000196431 -0.00565963 -0.00387328 -0.0036967 -8.88844e-05 
-0.00028604 -8.60593e-05 -4.86524e-05 -3.82903e-05 -0.00021639 -0.000210252 -0.00122794 -0.000856859 -0.000187305 
-0.000187312 -0.000847209 6.82252e-05 -0.000852993 -0.000194198 -0.000198685 -0.00016678 -9.6657e-05 -0.000117297 
-0.0083352 -0.00872262 -0.0001179 -0.000235343 -0.000276478 -0.00164327 -0.000198509 -0.000175251 -0.000126 
-0.000322054 -0.000322286 -0.000301325 -0.000313658 -0.00322139 -0.000353324 -0.000328957 -0.000125751 -0.000172773 
-0.000179811 -0.000135251 -0.00138318 -0.00132706 -0.000172684 -0.00017684 7.10246e-06 -0.000111302 -0.0047338 
-0.000182967 0.000263881 -0.000348228 -0.000339369 -0.000361347 -0.000111122 -0.000138228 -0.000154209 -0.000305769 
-0.000170029 -0.000570654 -0.00143581 -7.84068e-05 -0.000192045 -0.00171137 0.000272895 0.000270399 -0.000311734 
-0.000197931 2.26241e-05 -0.000133875 -0.00016325 -0.00146429 3.78045e-05 -0.000190907 -0.000134008 -0.000193987 
-0.000174448 -0.000194393 -0.000194382 -0.000195179 -0.000168034 -0.000319417 -0.000199931 -0.000200015 -0.000205046 
-3.34143e-05 -3.40511e-05 -0.000310515 -0.0117605 0.000302129 -0.000194076 -0.000338234 -0.000330808 -0.000330712 
-0.000190842 -0.000190998 -0.000165904 -0.000243864 -0.000171669 -0.000191857 -0.000191817 -0.000326631 -0.000193356 
-0.000187864 -0.000194381 -0.000194547 -0.000191385 -0.000200847 0.000216095 0.000133651 -0.00012345 
Stress%20xx%20component 1 3545 double
227800000 147033000 115239000 247190000 120969000 121227000 -4215350 120991000 121218000 
-3498320 241263000 258146000 276318000 268383000 217236000 208044000 266139000 269608000 
217605000 118450000 295342000 255580000 224051000 229031000 257215000 256780000 215832000 
219254000 182727000 233178000 187520000 240323000 239531000 235715000 242358000 242109000 
241571000 241308000 237806000 224586000 208288000 191218000 174702000 159852000 146686000 
135840000 127564000 121963000 120161000 160800000 217737000 239708000 216621000 234434000 
244874000 242143000 242011000 240110000 231621000 216734000 199686000 182771000 167219000 
153021000 140992000 131244000 124538000 120674000 120597000 121244000 121151000 121067000 
121157000 121138000 120981000 121005000 121021000 121085000 121233000 121253000 121206000 
121188000 121133000 121019000 120947000 120865000 120959000 121013000 -22444400 -12322000 
4336640 22092200 38806100 53787300 67162400 78776500 88925400 97714900 105267000 
111522000 116543000 119977000 -15326400 -17630000 -3976020 13686000 30605700 46770500 
60707200 73147400 83960200 93419000 101582000 108487000 114143000 118395000 120797000 
-10990500 -28595200 -33264500 -23132600 35388100 219317000 242227000 -8383370 -21595500 
-31880900 -34598300 2445330 101945000 272078000 192368000 136890000 222197000 233994000 
240964000 249908000 243719000 242539000 242421000 237232000 224868000 208370000 191126000 
174543000 159586000 146391000 135501000 127227000 121488000 120000000 120760000 184796000 
234817000 223363000 244178000 247193000 247620000 241597000 239600000 231789000 216876000 
199635000 182698000 166982000 152773000 140618000 130876000 124053000 120415000 120545000 
121142000 121216000 121170000 121141000 121178000 121146000 120957000 121054000 120983000 
121016000 121213000 121209000 121291000 121170000 121142000 121019000 120959000 120845000 
120901000 120986000 -19709500 -10606700 6046710 23303300 39475400 54341900 67585900 
79049400 89095200 97813000 105294000 111503000 116450000 119789000 -14037300 -15667200 
-1953800 15002900 31457200 47566800 61059300 73574100 84134700 93615600 101654000 
108478000 114054000 118292000 120720000 -11804600 -26480900 -39073200 -23513100 16279600 
97416900 233849000 -8131600 -20921600 -33770500 -35170600 -4478690 59384200 157072000 
219936000 -2869630 121205000 232823000 272614000 272360000 244245000 244996000 281190000 
283719000 237255000 169206000 190021000 246015000 229727000 293839000 262226000 259423000 
296528000 292328000 255717000 252339000 278300000 276384000 237766000 259851000 255086000 
247861000 232154000 223748000 237028000 233119000 121084000 118894000 210505000 146812000 
89415300 115163000 127438000 227850000 37979800 197952000 97798500 143764000 52993500 
93977800 121126000 184019000 118735000 118179000 250078000 220902000 105178000 138406000 
125169000 118408000 151739000 243145000 165584000 78557100 122415000 110848000 227104000 
150966000 119806000 122712000 131627000 234521000 89164400 60704700 20952400 -5750140 
92830100 24339900 134859000 98176200 213961000 226506000 181615000 111785000 130940000 
101629000 94550500 147786000 61163400 200001000 154820000 252398000 236441000 257578000 
117985000 130295000 109333000 36095500 74920400 167821000 120926000 247037000 180414000 
245471000 160282000 84832600 127433000 161322000 107897000 45452500 123669000 120327000 
122179000 248564000 204765000 64545500 117617000 119895000 122462000 123276000 121373000 
-1475580 96338700 163656000 150202000 65435600 74120100 104424000 90911400 110470000 
126780000 138916000 124871000 125174000 117552000 235735000 226488000 97420900 132419000 
100580000 111796000 142468000 243939000 139815000 90244700 115593000 126489000 110026000 
127095000 249599000 240078000 171699000 261551000 180932000 212924000 -9230940 119445000 
126046000 114887000 269315000 219583000 218924000 154029000 111514000 128962000 241206000 
47699400 40196600 19170900 -18918000 16078200 201702000 144400000 74128300 15865100 
237942000 134431000 120873000 121400000 134967000 65167400 106718000 236306000 122636000 
255129000 -1297250 100508000 219674000 90129500 58895400 175294000 68118400 176813000 
86464500 247053000 107180000 233089000 34064500 142088000 -15974700 226978000 215692000 
124348000 120586000 121841000 152951000 120535000 115013000 171690000 174602000 158728000 
137033000 195580000 105689000 133389000 101283000 113433000 105820000 133813000 190192000 
237793000 38666500 58069800 47258200 239749000 243590000 98382500 93638000 5629890 
221891000 175027000 151690000 127010000 118713000 149525000 117529000 118193000 123578000 
193218000 117900000 120816000 121303000 163484000 238543000 249029000 216985000 269430000 
224288000 232751000 121110000 121233000 120836000 120936000 120416000 120989000 -20994900 
-12045200 -13948600 245431000 228509000 206559000 261263000 267028000 248260000 275186000 
267239000 243737000 246804000 -14495900 -19354300 -17559600 4601290 -4218960 -9556490 
-7908140 2132360 20325800 11274600 13223400 36671600 28330100 28379700 50485000 
42849200 42155900 66004200 59272000 57264900 76275700 70410900 69997000 86654600 
81563700 79715800 95585300 91213800 89310500 102815000 99109000 97252500 109075000 
105927000 103791000 116037000 113528000 113728000 111604000 109325000 119090000 117310000 
116905000 119709000 -9859880 -15293400 -16179100 -15766000 -15586100 -7316490 1847860 
11065700 21648600 6259730 40719000 37822900 69917500 66125600 93403500 192624000 
120416000 251737000 281089000 229088000 289497000 120896000 120854000 120329000 120715000 
120285000 120757000 120689000 120509000 121047000 120915000 120580000 121128000 120976000 
120789000 121210000 121209000 121150000 121256000 121138000 121433000 121663000 121545000 
121795000 121426000 121398000 121936000 122093000 121478000 121868000 230361000 242142000 
252884000 236152000 233868000 235803000 239557000 229082000 218239000 240040000 244268000 
217177000 241579000 239791000 244835000 243658000 248224000 242666000 242286000 250661000 
239138000 237718000 243147000 239387000 236238000 234730000 229573000 223069000 227897000 
212915000 205129000 203495000 214409000 213222000 200705000 192589000 197793000 182665000 
174875000 177713000 186108000 186896000 167483000 160531000 167064000 155752000 149385000 
156252000 144674000 139507000 146864000 135611000 131555000 138355000 127265000 124599000 
128690000 129629000 132701000 122976000 121848000 124935000 121989000 140468000 123461000 
137970000 132876000 149286000 135406000 124240000 113999000 117062000 107471000 105679000 
99099500 126985000 120700000 124565000 122137000 127277000 114798000 109545000 114210000 
111503000 116185000 121216000 118103000 115643000 116578000 191332000 186914000 204651000 
214396000 219851000 170214000 188656000 210980000 190429000 247759000 227994000 231556000 
240131000 228445000 143299000 132796000 137291000 131355000 140460000 155107000 162665000 
153590000 150227000 149054000 156551000 142350000 92402100 85433600 82789400 74133600 
81596100 102617000 98599800 95352000 103815000 80425800 87473600 93480600 116676000 
114918000 116584000 116571000 117805000 112698000 113025000 110861000 113246000 115078000 
116215000 116353000 117712000 113327000 127496000 125153000 125524000 124048000 125818000 
127001000 128173000 126393000 124707000 129797000 129710000 130753000 239232000 255841000 
242907000 248704000 237037000 231208000 252364000 219600000 215972000 208785000 207131000 
215050000 39777400 27355100 50312800 51494400 64972100 27074800 27947100 39043300 
52574400 15702300 208483000 209734000 199076000 187935000 187535000 188040000 196741000 
188935000 186623000 177876000 206886000 216823000 175961000 205600000 104960000 101626000 
101212000 98022400 101271000 90398600 93848400 94362600 99503400 96057100 94415900 
103533000 140609000 138626000 141999000 144401000 146549000 148283000 143154000 148701000 
151848000 139481000 47408600 55808500 43834200 43529500 34709300 66761400 64189200 
71710500 60560600 57668300 50088500 40447000 52065100 76000600 71814700 104715000 
81530700 88473000 103864000 78567200 61580900 122098000 113895000 126655000 121408000 
120866000 120264000 120335000 121837000 123097000 122245000 122081000 120904000 121931000 
119853000 168227000 179609000 172537000 177835000 166243000 200303000 189584000 194452000 
187131000 197280000 182855000 183666000 117615000 113853000 122577000 126495000 109600000 
113871000 121311000 125134000 123120000 105782000 130696000 112573000 123153000 128558000 
106999000 112153000 100710000 133183000 121951000 116117000 247027000 250320000 255443000 
252537000 255366000 250032000 255060000 246840000 239649000 251334000 250376000 242172000 
218642000 238177000 252824000 245785000 212692000 186725000 160049000 131300000 186638000 
185177000 111724000 108437000 108499000 105907000 97524100 102796000 100055000 101782000 
96490400 107765000 107572000 104670000 140626000 145460000 142773000 143879000 139288000 
135792000 135439000 132967000 135765000 136866000 134189000 125727000 127841000 129808000 
127113000 125183000 123631000 123708000 123415000 123889000 122971000 124374000 119030000 
117986000 119404000 119595000 119075000 118314000 119044000 116745000 115334000 117011000 
160710000 176100000 164652000 138377000 153323000 165660000 119590000 131694000 143310000 
152993000 243733000 239905000 234561000 228463000 247805000 252661000 234483000 223897000 
172681000 164814000 173280000 173146000 181409000 159526000 157341000 163387000 170019000 
157855000 152397000 76324200 81470400 87257600 84628800 75948600 69258500 71864300 
82381000 84702200 88590500 124812000 123246000 121327000 123449000 120235000 118213000 
120656000 126262000 119712000 113064000 116150000 114227000 111889000 110428000 107551000 
108549000 109504000 218074000 218434000 242831000 240628000 209004000 216987000 225181000 
228844000 244110000 144590000 156517000 161372000 138996000 148025000 156893000 154201000 
167711000 119542000 120387000 120357000 118742000 119996000 118908000 118644000 123938000 
122448000 122004000 122012000 122668000 123476000 123587000 128297000 131211000 134137000 
133753000 129099000 135725000 132208000 221404000 267674000 251001000 246358000 235706000 
230157000 221884000 220480000 261193000 92942800 81825600 78428100 97466700 78612200 
89465800 98141300 106274000 67565600 63006600 54294500 66931500 59623900 53091100 
18090200 7001350 9856690 13072400 30225000 34089000 43862700 26793900 27718000 
19878100 4969550 -3298820 -11638400 -13410500 -6553290 4945830 3257690 101681000 
79494300 79296700 109753000 91323100 78157900 12520800 33957000 41386500 19558500 
45012800 7689620 129052000 132384000 136074000 138477000 130954000 134909000 142313000 
145842000 92522700 94684400 99603600 99219900 104170000 105556000 204662000 209370000 
218211000 224194000 214731000 223725000 230323000 219150000 236435000 222257000 217912000 
178698000 169328000 187385000 196171000 185994000 191782000 113379000 132296000 131065000 
67086700 71100000 110589000 131208000 97505800 136376000 92110800 89781600 94178500 
149812000 153580000 154864000 148786000 62821000 75864700 64851300 50659300 54184800 
159325000 164748000 169092000 226456000 119239000 118755000 118282000 116721000 105342000 
107424000 150189000 163495000 142559000 175953000 172001000 141364000 120595000 202747000 
237848000 242152000 243961000 241480000 241148000 242193000 240892000 231331000 216460000 
199626000 183014000 167116000 152724000 140736000 131354000 124402000 120803000 135424000 
117456000 163398000 127447000 120861000 120847000 120277000 120237000 224560000 195877000 
148754000 161291000 237201000 242176000 206666000 231759000 224993000 240396000 240130000 
240635000 242836000 221643000 239704000 238202000 239171000 240571000 245598000 241876000 
244202000 249133000 245870000 246073000 241600000 242615000 243051000 244121000 245896000 
241048000 240715000 240685000 242197000 245320000 239300000 241266000 242292000 241421000 
242391000 227876000 235251000 238956000 237780000 235159000 212481000 220952000 228054000 
224896000 221131000 195631000 203870000 212473000 208322000 203859000 178544000 186872000 
195495000 191131000 186931000 163351000 171058000 178519000 174542000 171031000 149754000 
156206000 163154000 159656000 156048000 138262000 143546000 149637000 146472000 143355000 
129394000 132908000 138050000 135392000 132765000 123008000 125967000 129280000 127353000 
125790000 120438000 120825000 122778000 121565000 120585000 120045000 120354000 121432000 
118947000 206638000 147078000 89817200 115122000 127452000 227686000 39074000 197549000 
97834200 143824000 53472100 94203000 121139000 183955000 118542000 117977000 226114000 
200093000 105142000 138374000 125132000 118305000 150866000 230321000 165383000 78672200 
122520000 110883000 241178000 151168000 119708000 122764000 131593000 248185000 89238400 
61150400 22132300 -4305670 93088600 24503000 134810000 98231100 213447000 248273000 
181921000 111793000 130751000 99255500 94748100 147476000 61530700 198606000 154692000 
223817000 231991000 224338000 117933000 130329000 109458000 36671000 75453400 166653000 
120863000 228189000 180591000 245340000 160257000 84968400 127528000 161066000 108194000 
45001600 123552000 120273000 122157000 235057000 204673000 64943000 117655000 119762000 
122437000 123455000 121480000 199036 96485000 163527000 150103000 65718200 74401300 
104488000 91072700 110407000 126536000 138927000 124881000 125159000 117506000 245403000 
247300000 98013300 132188000 100660000 111373000 142258000 233393000 139905000 90101900 
115472000 126441000 110234000 127079000 218705000 226449000 171687000 247867000 180742000 
202692000 -9322510 119432000 125920000 115122000 191263000 252953000 215360000 153817000 
111591000 128890000 260889000 48412200 41061500 20883800 -17381400 17068900 202103000 
144366000 74567700 17107400 225306000 134691000 120748000 121433000 134684000 66081600 
106708000 260883000 122637000 234504000 -3718070 100820000 247268000 90357100 59477900 
175305000 68531700 176170000 86812700 228191000 107423000 230231000 35172200 142049000 
-14073300 223075000 214543000 124349000 120456000 121897000 127649000 120412000 114933000 
171464000 174408000 154675000 136959000 195571000 105868000 133197000 101365000 113504000 
105772000 133190000 190158000 253441000 35377800 57841200 48154400 229594000 233169000 
98510700 93840900 7120090 221130000 175007000 151492000 127021000 118796000 149469000 
117427000 118025000 123224000 193258000 117854000 120714000 121349000 163156000 208124000 
243079000 210648000 258020000 238473000 253274000 121238000 121140000 120746000 120895000 
120945000 120287000 -13910900 -10487800 -18502800 -14590500 -10009300 -15593000 -19241600 
-16247700 -8707070 7832600 -1974100 3436770 22111700 41116400 64838700 38692700 
64544500 116295000 70140800 108891000 203628000 121183000 167988000 243100000 120760000 
120841000 120678000 120147000 120245000 120606000 120723000 120387000 120901000 121015000 
120577000 120977000 121068000 120750000 121222000 121213000 121107000 121178000 121277000 
121489000 121580000 121687000 121738000 121394000 121421000 121947000 121493000 122143000 
121841000 255814000 268381000 206234000 237279000 250738000 256366000 236728000 241498000 
237964000 224374000 229267000 197374000 244558000 262794000 224590000 240386000 243997000 
243594000 238098000 241021000 244718000 247447000 235864000 233329000 229045000 235039000 
230533000 237429000 239654000 238581000 236008000 238152000 237981000 235834000 232123000 
232936000 223034000 229063000 226283000 205207000 213152000 214514000 203673000 213010000 
192650000 200820000 197830000 174621000 182612000 185986000 177717000 186834000 160280000 
167414000 166862000 149205000 155538000 156074000 139261000 144374000 146674000 131235000 
135316000 138106000 124347000 127033000 129300000 128465000 132460000 121623000 122536000 
124677000 121895000 -16690900 -12270900 -15031900 -2341940 6188430 -5916010 -6986490 
3819330 12747300 21519100 14560500 29146500 37307600 29427400 43631800 51123500 
42916700 59716500 66366200 57783100 70742500 76613600 70440200 81810900 86852000 
80018800 91408700 95707700 89469700 99172000 102881000 97358100 105927000 109050000 
103827000 113441000 115932000 111575000 113657000 109323000 117204000 118903000 116767000 
119555000 137839000 123468000 140317000 149239000 133173000 124254000 135266000 116954000 
114220000 105767000 107613000 99214800 124568000 120915000 127002000 127308000 122057000 
114358000 109573000 114962000 115983000 111605000 118018000 121352000 115748000 116671000 
202242000 186174000 189986000 216009000 211442000 186702000 169359000 185081000 204477000 
224712000 219102000 231555000 231297000 212382000 137223000 132826000 143366000 140495000 
131418000 153732000 162606000 155303000 150010000 156508000 148816000 142299000 83077700 
85854800 92486200 81929300 74440500 98667900 102788000 104072000 95640300 87771200 
80809700 93735800 116474000 114927000 116603000 117838000 116552000 112987000 112701000 
113329000 110840000 116279000 116161000 114972000 117732000 113244000 125537000 125076000 
127441000 125811000 124019000 126381000 128104000 127006000 124695000 129682000 129721000 
130699000 219804000 225923000 219964000 231223000 224774000 223791000 230421000 234658000 
230214000 231487000 234763000 254512000 51088300 28360100 40463500 65507500 52057800 
39785500 28894000 28202400 53416500 17090600 198274000 207413000 207799000 186931000 
187177000 188934000 196588000 188031000 177954000 186444000 215147000 206378000 175667000 
205254000 101289000 101751000 105081000 101427000 98119900 94556200 94010700 90604000 
96243000 99682600 94609300 103702000 141859000 138558000 140501000 146446000 144403000 
148659000 143071000 148006000 151793000 139469000 44667900 56280200 47925100 35461900 
44119300 64672500 67408500 61061200 72077200 50799000 58293200 41560500 71544300 
76438000 50688300 80824300 105129000 78534800 103415000 88385600 61755300 113695000 
121935000 126171000 120885000 121451000 120246000 120293000 122242000 123141000 121870000 
120871000 121928000 121999000 119854000 172526000 179532000 168393000 166009000 177833000 
194397000 189661000 200275000 197309000 187091000 182839000 183473000 122587000 114075000 
117981000 126581000 109657000 121383000 113984000 122997000 125191000 105847000 130664000 
123306000 112665000 128544000 107235000 101102000 112134000 122072000 133361000 116301000 
224186000 233580000 234841000 232417000 230774000 232791000 235525000 226417000 235966000 
236630000 219381000 222590000 224227000 201465000 219028000 224318000 167734000 178432000 
150273000 175152000 128241000 179876000 108499000 108464000 111796000 105888000 100151000 
102857000 97544000 96700100 101886000 104694000 107670000 107757000 142640000 145205000 
140513000 139282000 143676000 135255000 135719000 135609000 132849000 136617000 133963000 
127711000 125771000 127110000 129671000 123657000 123664000 125190000 123409000 123770000 
124183000 122927000 119279000 117843000 118948000 119501000 118876000 118874000 118209000 
116704000 116880000 115285000 175452000 160949000 164240000 152783000 137843000 165542000 
131490000 119480000 143158000 152095000 233561000 230038000 224050000 227460000 234127000 
233675000 227850000 219005000 173257000 164797000 172704000 181460000 172952000 163310000 
157194000 159440000 169928000 157920000 152360000 81570700 76633800 84772000 87487300 
72260400 69714700 76434500 82722100 84925400 88900600 123209000 124858000 121321000 
120238000 123447000 120699000 118202000 126246000 119742000 114109000 116211000 113203000 
112016000 107587000 110516000 108503000 109579000 250144000 237578000 242568000 243983000 
249323000 254266000 243137000 223957000 233620000 156393000 144681000 161528000 138797000 
148083000 153831000 156932000 167596000 120344000 119470000 120295000 119919000 118648000 
118864000 118594000 122536000 123985000 122057000 122089000 122731000 123513000 123591000 
131244000 128234000 133721000 134137000 129095000 132071000 135748000 216158000 225442000 
184529000 241893000 212036000 232554000 257718000 246646000 285132000 82185400 93297800 
78709100 97543200 89763400 79059300 98547900 106541000 63379000 67756500 55002600 
60227300 67348100 53749800 11127500 8317970 19457900 14658800 31313700 44661400 
34783800 20870600 29043100 27841300 -1631840 6274940 -9887350 -5149900 -11703600 
4220520 6925350 79796900 101755000 79651100 109526000 91459600 78535700 32730900 
12081400 41564300 44999200 20619300 8166680 132345000 129176000 138481000 136023000 
130905000 142379000 134867000 145977000 94765500 92686200 99798600 104309000 99245700 
105678000 209085000 204489000 217679000 222083000 214049000 222093000 249535000 229431000 
264478000 240531000 243632000 169276000 178820000 187580000 191880000 185986000 196146000 
113283000 130984000 132202000 70817500 65634900 109380000 97888000 128072000 135217000 
89986700 92361100 94333800 153542000 149625000 148729000 154778000 75791100 63489300 
65331300 51359200 54779800 159063000 164950000 168840000 222939000 118765000 119127000 
116830000 118281000 105349000 107660000 149418000 161212000 142110000 175846000 172018000 
-30091200 -2986420 -34254700 -18445000 -5676750 58708900 210856000 238444000 238390000 
231480000 261281000 246932000 -3877010 -4122400 -9310550 -10901300 -13124000 -24121400 
-9831050 -35715800 -32604700 -29693600 -30975700 -34657300 -31777900 -12140500 7697810 
-20041600 40813600 83687500 30508600 159304000 217921000 161814000 208913000 -26403900 
-13423100 -32912300 -31530300 -32425100 -30704500 14727300 -13032100 129241000 53342500 
222068000 199432000 121110000 121278000 121181000 121107000 121045000 121054000 120958000 
121052000 121034000 120878000 121011000 121013000 121113000 121128000 121123000 121186000 
121093000 121219000 121351000 121191000 121127000 121229000 121223000 121103000 121268000 
121155000 121103000 121167000 121097000 121165000 121096000 121093000 121061000 121019000 
121188000 121169000 121051000 121087000 121044000 121030000 121171000 121126000 121061000 
120971000 121092000 120989000 120966000 121017000 120981000 121058000 121067000 120932000 
120906000 120794000 121031000 121006000 120858000 121121000 120952000 -15390500 -17196400 
-3698720 13806600 30447400 47411100 60608700 73059700 83987400 93510900 101593000 
114109000 118369000 120822000 108438000 121038000 121048000 120430000 -9909710 -9907590 
-19016300 120329000 -17734000 -19644200 -13809200 -20871900 -18481300 -7967750 1325250 
-10991600 -13281700 -7200590 8934030 18788100 5429250 2335590 9821510 26187500 
34783400 23049100 19427800 26846200 43377800 50767000 39406200 34932800 43838000 
57130100 64412200 54216900 51152600 57299900 70023300 76415000 67416600 64620800 
70297800 81341800 86509800 78984700 76574500 81440000 91368300 95577000 89060000 
86535800 91490600 99765600 103404000 97771000 95658200 99814300 107042000 109981000 
105300000 103438000 107049000 112815000 115336000 111502000 112804000 109957000 117516000 
119105000 116518000 115261000 117505000 119860000 118988000 221317000 113366000 84072500 
131298000 124671000 100939000 65463500 103958000 135771000 230026000 228703000 72706700 
126944000 131521000 99095600 131295000 119209000 124761000 122468000 123444000 123455000 
126026000 127015000 126023000 98039200 97819100 99405000 99418600 99595700 226996000 
232778000 222909000 233968000 216994000 98456400 99700200 121756000 111368000 123108000 
112689000 112390000 80735500 86744000 85320400 85262100 79502700 133394000 123182000 
-8918210 -2578010 -7758660 -10167200 -14974400 74352000 79131900 230636000 239540000 
-13299100 -15228700 -16679700 203593000 216537000 217778000 216439000 201870000 238502000 
241689000 236529000 236489000 238879000 -3419540 -346173 131450000 133382000 133851000 
135305000 132905000 131315000 133244000 132805000 135146000 121280000 121235000 121204000 
121424000 121240000 121277000 121176000 121177000 121490000 121179000 121080000 121155000 
120898000 121061000 254756000 244603000 254080000 258263000 241145000 121010000 121147000 
120983000 121050000 120980000 120966000 120744000 120827000 121191000 121452000 51845500 
40731800 57817900 130691000 126520000 123126000 127035000 76461100 79257800 73641000 
120550000 120970000 120755000 120937000 120969000 120862000 120921000 190010000 186123000 
180885000 189939000 182275000 182364000 125124000 -17600200 -15085500 275688000 280319000 
231636000 238113000 235809000 240479000 74348800 79057400 73392100 121499000 121835000 
28798000 34708500 41106500 34755800 76102600 125761000 124145000 124356000 241922000 
238145000 241769000 239629000 213048000 209102000 209018000 130942000 121131000 121974000 
121190000 121914000 121889000 122472000 129007000 130969000 237718000 232575000 169253000 
175264000 168321000 179553000 119777000 120590000 118766000 121379000 121074000 217688000 
204722000 30813900 28845200 40607800 16686700 19189600 35271900 44348000 44089400 
235514000 243530000 234742000 233827000 262029000 233931000 233757000 237924000 225554000 
177644000 178814000 164957000 175006000 168874000 113728000 114844000 112838000 114777000 
115500000 252764000 241436000 223446000 236338000 215026000 144431000 147236000 141684000 
196105000 186061000 190204000 116866000 118226000 122923000 122088000 -19325100 -15691500 
-2280330 -16969600 121591000 121041000 121604000 7627930 44429500 -18838700 -10545800 
20596900 27310500 141850000 142301000 147347000 120814000 120262000 120657000 121051000 
120757000 121066000 120186000 119709000 119138000 119659000 126394000 124792000 54494700 
50815600 47329100 63377200 69573500 61020100 67651000 121091000 182823000 178760000 
105800000 101807000 101286000 104980000 177932000 186447000 233825000 187236000 120649000 
119814000 119086000 105734000 100801000 107216000 112268000 21752300 110038000 107526000 
109307000 106693000 107504000 152224000 146681000 62899000 54167100 48031300 57766300 
122150000 121297000 120483000 122087000 239601000 237874000 239438000 119219000 22013500 
178814000 174591000 235265000 139470000 136029000 137029000 133738000 111944000 113509000 
109581000 108525000 175618000 111543000 110840000 107963000 107213000 107921000 47856700 
250067000 241729000 252975000 123493000 132944000 144297000 135182000 24918900 25550700 
20117300 29082100 33121000 54706700 91376000 88997600 93612500 10857900 152200000 
151503000 197274000 158943000 158830000 155460000 -6868690 120861000 120989000 121919000 
122628000 121894000 123542000 254936000 120781000 120361000 62979000 65618000 145311000 
140450000 163699000 156194000 -4819110 -12147500 -13723400 -5786540 46823800 66083900 
69129200 12714900 62111000 45437100 62050200 123263000 250019000 276165000 23975100 
32845100 121518000 125508000 127449000 115694000 237773000 244160000 242266000 234813000 
166043000 161499000 171592000 171333000 163779000 166980000 171186000 78999000 253319000 
240495000 245066000 110422000 107200000 88899900 93747900 93490700 123517000 123158000 
69231500 117781000 116598000 117871000 128401000 128053000 125619000 126374000 125579000 
183953000 172418000 123604000 112836000 111765000 120963000 96428300 102761000 92552200 
98598100 244568000 246544000 123301000 117763000 112605000 118093000 149257000 177987000 
191740000 118966000 118134000 232057000 233877000 120747000 148129000 94033900 72204100 
85908300 109342000 109215000 111583000 107512000 104515000 237532000 93273400 85764300 
70405900 247391000 243949000 241538000 238911000 218656000 118270000 118071000 240133000 
236850000 196552000 186779000 -2232870 6168350 153584000 150058000 161108000 204528000 
197840000 99507900 94511900 170010000 186332000 187192000 167159000 144375000 146492000 
143780000 141871000 147616000 142626000 129635000 128310000 272083000 272349000 45370300 
53347400 60648000 63132300 70442800 63418700 127483000 122048000 122208000 162734000 
163628000 -18500000 -17642100 117959000 116664000 116504000 163244000 159271000 127455000 
-9192230 156511000 130381000 176726000 204615000 193160000 120281000 174859000 116160000 
114213000 113156000 115009000 97557700 143075000 140505000 119937000 119743000 118688000 
111501000 110025000 84409700 79956100 137228000 132703000 125271000 125175000 123643000 
131195000 134061000 134073000 125077000 91023200 96251700 205632000 207832000 224279000 
223843000 113336000 113252000 143442000 147013000 138881000 236879000 234117000 235561000 
81534300 76366100 249967000 116190000 106476000 122194000 118971000 119327000 89400200 
116806000 118907000 118381000 120252000 120751000 121899000 98311800 99335800 107315000 
-18460000 -18956600 113987000 117097000 110967000 107626000 104049000 104037000 187235000 
176508000 164533000 148627000 148045000 238521000 268757000 253712000 118933000 121000000 
60129800 53337900 108122000 196589000 122551000 100433000 70094700 114640000 115837000 
89592300 123900000 122751000 121439000 122086000 112685000 114901000 117914000 118325000 
117507000 235255000 114957000 114291000 109389000 109582000 122536000 68346700 70319900 
122756000 204655000 200288000 209116000 213615000 117296000 116129000 107654000 198583000 
187332000 101325000 103678000 84420100 181515000 172879000 133191000 132342000 132281000 
134579000 133402000 134675000 228966000 232591000 237437000 155206000 128536000 133328000 
110434000 113013000 85919700 151134000 156547000 189588000 183506000 241834000 240279000 
239655000 121258000 121139000 121149000 121461000 120840000 138318000 122654000 123728000 
180473000 188793000 124437000 121288000 242765000 117716000 118862000 120328000 98215700 
94685900 88838500 92768000 122061000 134628000 235493000 120908000 120501000 120835000 
119492000 129080000 129083000 129306000 129357000 131693000 120973000 120853000 120887000 
236386000 241315000 248363000 239667000 114023000 239223000 99785700 134804000 142293000 
142418000 134873000 81725400 84249300 81547500 246832000 237306000 144545000 121131000 
145958000 152519000 153911000 7691650 127255000 122195000 124860000 180232000 153880000 
103964000 88765000 88826000 161779000 75573600 65245200 61394800 188105000 196573000 
150118000 207634000 225987000 73698900 74002800 81927300 89224400 93970600 118675000 
113849000 108689000 104943000 108652000 104248000 122169000 122357000 142051000 110440000 
151253000 97153700 103650000 78591600 33275900 36630300 207678000 97080300 99133900 
101017000 119726000 219998000 158126000 172613000 116075000 149469000 88686400 120755000 
123364000 116618000 236018000 229521000 225622000 149679000 5688090 165425000 116225000 
122072000 121892000 123399000 123629000 90512500 51125400 63349500 118607000 -14425600 
-16245500 -14343900 237383000 121451000 138962000 172008000 137969000 125191000 126713000 
123785000 84827100 138627000 121422000 171462000 138451000 16666900 186413000 175743000 
160583000 171567000 156817000 118769000 128213000 131196000 128175000 225588000 94613000 
103035000 94819400 194362000 103894000 21003200 17010900 16294800 216824000 223806000 
212190000 52910800 66649800 36929300 39895100 123428000 105586000 167687000 39591900 
92859800 109620000 107413000 91415000 -15399000 138485000 27681100 127077000 126935000 
110066000 105001000 233865000 205024000 103808000 100635000 105247000 102189000 102219000 
54685000 42753700 39611900 130276000 124539000 -17496800 231039000 214581000 222774000 
105537000 132384000 102687000 99219200 123595000 200624000 98388300 92943500 98417400 
178024000 172728000 164835000 244997000 143760000 181805000 78743200 148759000 156435000 
157260000 159460000 149039000 140357000 119813000 119441000 120290000 105405000 105866000 
257675000 187537000 56114800 38735200 28390300 40278400 50968600 50892600 84804900 
87431400 90288700 39209100 115121000 135738000 139875000 135671000 135661000 132088000 
247378000 238947000 237808000 224856000 226979000 20132300 45904500 40690500 128941000 
114972000 114956000 132178000 131805000 131735000 190055000 116769000 175867000 4275990 
124301000 139347000 135284000 235634000 118943000 169635000 241640000 192771000 151833000 
131491000 157845000 120314000 120880000 120915000 127122000 43416500 202736000 82538100 
97335900 89590000 101073000 97110800 229004000 218155000 233562000 231558000 223353000 
160222000 120304000 131611000 102648000 102750000 102410000 228018000 242574000 235306000 
223194000 232457000 231801000 239986000 238621000 234624000 154782000 52125300 65688900 
173212000 135664000 132241000 134747000 132348000 227568000 221773000 223643000 195572000 
97565600 99448200 13955400 214241000 215001000 215739000 224575000 216139000 137388000 
59245400 47710100 154817000 118198000 118950000 208312000 207574000 130961000 3106030 
153557000 151110000 199157000 138963000 138849000 121369000 121385000 1507700 92727500 
105901000 104136000 236039000 197611000 152887000 231946000 5307670 4563080 10960800 
97040300 165440000 163375000 143162000 129224000 129250000 90217700 125922000 237498000 
243470000 237503000 234981000 15693400 65519200 49230800 18154000 99933900 111734000 
108508000 124803000 65694800 65617900 233554000 240383000 229052000 50625000 78633600 
84966900 206489000 205279000 78771600 193131000 233461000 222371000 128173000 86803800 
86676600 78678600 147189000 139884000 140576000 228704000 116662000 116217000 147067000 
16646100 116284000 121010000 152782000 119516000 6435900 231245000 237563000 233943000 
217098000 14157500 9648700 231044000 238853000 189815000 218254000 255879000 248258000 
217995000 101146000 101228000 241970000 239950000 245059000 225714000 232495000 236756000 
234511000 104152000 79167100 250434000 237979000 255312000 806831 243458000 253977000 
127647000 99891100 211978000 124788000 127933000 122041000 122135000 118968000 119553000 
101582000 80324300 80223700 219862000 124790000 244852000 225693000 223291000 78797000 
224917000 70744200 63713600 50096200 116962000 115251000 229358000 239304000 104584000 
104578000 223752000 10270600 240381000 131422000 137312000 149489000 87897100 120164000 
266856000 250292000 67368000 120890000 220660000 239823000 134606000 140637000 73299200 
226268000 226343000 213162000 221411000 226453000 237809000 230121000 73419300 94654600 
99424500 72141200 235845000 227698000 94243700 121414000 10290400 65969500 261548000 
125844000 -13883800 237567000 236133000 236122000 66326700 76296200 91653000 217744000 
94561500 235721000 239589000 58179800 118842000 237409000 -11193800 -12055900 222074000 
138307000 5429690 130901000 137760000 241354000 8341970 116454000 131169000 130187000 
96583900 135942000 136092000 122012000 92241400 226273000 131547000 131574000 113366000 
65000200 65297300 223327000 233740000 -8969510 130188000 235004000 231257000 231178000 
131011000 131054000 89966600 120953000 120912000 130041000 130073000 229170000 118436000 
128042000 107973000 118265000 114997000 135239000 -14742400 -17574000 80223700 
Stress%20xy%20component 1 3545 double
-1864110 -10524900 -8034920 -11620300 155996 121894 3450380 110750 134447 
4037280 5280080 6607280 -1195340 -1102630 6284460 6990450 3550580 -3082310 
-7628360 -6509180 -4030760 6413810 -668479 3529290 -4945140 -2428440 3380800 
-2284340 -4972800 -11394100 -824310 3154520 7670810 1630890 -3048900 -4341880 
-2467610 155456 29266.7 -505374 -377538 -392557 -358319 -279410 -310994 
-258685 -249712 121368 161965 -7378070 -2649020 10234500 4397890 -1983390 
-5550290 -3867540 -373474 -535279 -359529 -428256 -386309 -450716 -460657 
-303653 -253512 -152915 -117832 230545 233361 -5313.61 -69500.1 -190267 
-270795 -363732 -215701 -192402 147757 294365 9504.31 49073.1 -216699 
-287667 -389180 -361068 -239338 -63356.1 378358 256075 -136745 -314040 
-94647.5 -247924 -48254.2 45220.5 58641.8 75554.8 -6836.76 -11400.7 9701.03 
-34104.4 -48257.2 -10291.9 706861 -158730 -367713 -299266 -114743 13050.3 
-161230 16129.7 13221.6 -1932.47 21583.8 37310.7 -36006.9 10954.6 12555.7 
42915100 61503300 52289600 19892300 -23644600 -97126700 -31988400 24649100 54640200 
59880200 39400900 -1297390 -56067600 -53772300 -17358500 9321890 564466 -7644630 
3539930 5014680 -144815 1227970 1456920 -60950.4 -166741 -117650 -212230 
-214793 -66297 -62110.5 -124841 -137192 7925.98 119047 -2158750 10714500 
-4743240 1335960 5533730 1126110 -598073 1949620 188905 -352931 -171186 
-144910 -250009 -232413 -97632.6 -50566.9 -64083.1 -95627.6 134497 159617 
72212.9 -29108.8 -62983.3 -149490 -154778 -161534 -122293 -40248.7 35499.9 
278918 12807.5 53266.9 -130759 -191802 -247869 -224318 -141079 -19617.3 
262586 172239 -94745.1 -76931 50314.3 -57402.3 107638 -57902.2 156555 
-29757.1 57880.9 -47375.3 -21930.5 -16760.8 6334.77 -66502.6 1020160 -111375 
-143486 -193887 -73761.8 30443.4 -95954 7781.63 9950.34 5302.09 -1224.22 
25213 -18891 8946.85 -1535.74 42408400 64327900 53763400 22543800 -12184400 
-13321500 -56552200 24703200 56024200 62661100 40882600 5162250 -19131600 -34362500 
-37102700 1482620 23918 -747919 -3938240 -1036920 -1672370 2748000 -3254750 
-7003450 1144580 -4622250 -6474070 -3140620 256837 -2543200 2379960 2239440 
692923 -3160910 -1676830 3462970 3199490 1407110 3393640 1613920 -1230830 
-324004 838332 -1695900 1626300 4481060 -49807100 -29687200 -21415400 -36590200 
-36342100 -15422000 -16324600 4554410 -39503200 -26584900 -21919100 -25032300 -34003400 
-38968300 -14609400 -26910200 -37745800 -44845900 -9568000 -8350050 -12629500 -14764700 
-5844350 -5825050 -44536300 -7239470 -22688100 -19537000 -22372400 -22665900 19908200 
-41814700 -10191800 -9869210 -24254700 5309040 -46098700 -21121100 -26577000 -16456500 
-50012300 -21971700 -33720200 -30939200 -14357500 10513200 -20362800 -7662930 -8448290 
-24217800 -11073900 -14981200 -44672300 -28161200 -44137600 736472 -5422590 -10799100 
-18088700 -29962700 -28552900 -17843500 -37830700 -30092100 -8668660 -5447490 -32712300 
12760900 -13625700 -8873630 -40995500 -35498500 -41078800 -18140200 -17681200 -5815550 
-5214080 -9808960 -15672000 -44011900 -24971500 -2791300 -1368240 -33671100 -8455780 
-16629700 -42878100 -29893400 -31326300 -12385000 -27624900 -19426800 -25248300 -17510900 
-46881200 -42150000 -26369300 -10941800 -10961500 -3908180 26074800 -19353200 -18294800 
-5631210 -48182300 -7991920 -4291400 -21357400 -50119300 -4296960 -4178790 -32910200 
-21268900 -6638520 -265771 -35296800 15424500 -14281900 -11332700 1545770 -14500100 
-49588900 -20519700 -16919600 21603200 -16458100 -23414000 -12721900 -12227100 -7813550 
-13012300 -39421800 -14072100 1026470 -28258500 -11432200 -45299800 -8211210 -30031200 
-7559770 -37133900 -5524120 -5140480 -6289030 -47636600 -5153350 15104500 -13335200 
10138300 9749800 -36146900 20588000 -17775100 -28852500 -27622400 -43175700 -36896000 
-29717900 -7627440 -48761800 -5015460 -26949900 -29186400 -7308050 -13937400 -15841900 
-13956600 -3484260 -2383180 -32773700 -18635100 -9541660 -34479300 -10832200 -24030800 
-26297300 -24531600 -24491100 -12446800 -27247700 -26400200 -46364200 -41124800 -20731500 
8850570 -5642290 -33822200 -37820900 15809400 -9609360 -16679500 -4856370 -12564700 
-8017540 -36542400 -7525620 -35863500 -21426000 -20339500 -33693700 -2153990 -1355530 
-10535000 -14013900 -922655 259056 -39712300 -1643040 -2481250 -12879300 9340830 
4182520 5174150 224487 230814 204152 -309808 -519415 -522670 1511880 
3984160 19356600 13430400 10804500 8229180 16705200 7148840 11898800 6899140 
4736220 12877200 10447800 -4043200 -3530270 -3227230 -6112030 -6133830 -11515000 
-8359000 -14891000 -7027650 -7118880 -13454700 -8702520 -9159880 -15834700 -6345220 
-6543060 -15528600 -6120200 -6443010 -12631200 -4020640 -4135180 -10320500 -4366680 
-4583620 -8503240 -2377820 -2444260 -6853040 -2736970 -2843790 -5244610 -2499080 
-2610390 -5411750 -2141980 -2282340 -5928030 -3849860 -6466550 -981493 -1112400 
-3197470 -1503370 22405900 29169000 1683410 35224100 31584600 6819170 21059000 
6963110 -4580760 13716000 -11322700 -1651130 -18943600 -11262000 -27414000 -62902100 
-23378100 -65917200 -11629500 -27689900 -1379560 -1825520 -1582080 -3158960 -1419450 
-1822740 -3210640 -2941550 -4666880 -2922990 -2799690 -5671830 -4606450 -4544100 
-7075880 -4392300 -4502740 -8662500 -2577040 -2730570 -6837050 -2424460 -2855150 
-5188410 -793472 -1152110 -3785480 -1857650 -339254 -489659 4728980 9603650 
12591800 17540700 19785900 20755500 8926020 5036560 17682900 -3801850 -6542560 
4034410 -1601070 -8243650 -9337970 -9693290 -13028000 -4555440 -2018320 -4168910 
-3611860 -2470980 -6120260 -5177990 -4856890 -2510790 -3914290 -4480930 -6559950 
-5851530 -5991480 -13609600 -8286820 -11849100 -5449550 -5442980 -11037500 -5635590 
-5580610 -12647500 -7511900 -12431200 -7306360 -7020210 -12286800 -3914810 -3820320 
-10565800 -4200810 -3981360 -7777920 -3350470 -3087130 -7149650 -2421160 -1920320 
-6239790 -4372570 -7429210 -690301 -392836 -2744710 -382080 -46997400 -49869300 
-47166600 -47720900 -44832100 -46097400 -48306700 -49202400 -47902600 -50197600 -50085400 
-49400700 -31808500 -31735800 -30016600 -27983800 -28158000 -31262200 -30677000 -29272800 
-27525000 -28080000 -25791900 -27308500 -25629600 -33541200 -28205100 -31715000 -25049400 
-21628800 -17879900 -32878800 -25599600 -15795400 -21346000 -9078980 -14899400 -15721600 
-11898600 -10641500 -39266800 -41564600 -39021800 -39018100 -36858800 -33410700 -32667600 
-36111500 -39021000 -33837400 -30603100 -34320600 -39569700 -40579900 -36975900 -32611800 
-32221100 -41871200 -38927800 -36246300 -38513400 -28635900 -33028200 -33132600 -19305300 
-17958700 -16832300 -14695800 -16031200 -19093800 -16480500 -15099300 -14114200 -12522500 
-10243700 -13173000 -12528300 -11142800 -18792200 -19430500 -17095400 -15825300 -15158400 
-11573100 -14312400 -13622100 -12503200 -19885000 -17316500 -15248800 -7610790 -667491 
-1672690 -5574210 2601190 -784456 -15499500 14159300 14326500 13135600 15682600 
20895000 -36674400 -34384100 -41578300 -43620800 -46190000 -35033500 -34818700 -39821400 
-43499100 -29498400 -21434600 -22031600 -27168300 -32445500 -31822000 -28600600 -25568400 
-29655500 -31701800 -34540500 -21153900 -16094600 -36913300 -20111700 -21943000 -23242300 
-20655500 -19255800 -18037200 -21453600 -19907600 -23591500 -24569700 -26274600 -17211000 
-25896100 -25634900 -23781400 -23152800 -20917200 -22765100 -26455500 -27077100 -24244800 
-21912000 -27773800 -23503400 -31451100 -26126000 -30467900 -22426400 -33478000 -35808700 
-40574900 -38664700 -40501400 -36064200 -32289600 -25485400 -36553000 -29388200 -36194100 
-26963700 -46394800 -44081000 -41109100 -38966300 -44342800 -40729700 -37572100 -11504800 
-11625200 -14656000 -11649600 -14037200 -15543000 -16141200 -18244700 -16669700 -10877200 
-16534900 -31730200 -27326700 -31338900 -30689500 -35059600 -20020100 -25849900 -21299700 
-23709800 -18242400 -24156700 -29545400 -41266700 -39326100 -39318200 -37630200 -37135400 
-35308900 -35651800 -34737000 -36848600 -34518200 -36531500 -42910500 -42831900 -43732200 
-44088500 -45569700 -44668800 -44438400 -45907700 -46808200 -8241260 -6506240 -746940 
-10700600 -11744000 -9164800 -7555980 -11580000 -2078490 -9090430 -5487380 -5246130 
-8678240 -3778520 -8538010 -9170560 -27896000 -20532400 -19279300 -22518600 -17965500 
-19217200 -10202500 -12688300 -10096500 -8839860 -8324940 -9239290 -11922200 -14684200 
-13955900 -15163400 -18485500 -15998300 -11519000 -11425300 -14895500 -18340300 -17962200 
-19857700 -16637400 -15343400 -13617100 -10468300 -9481240 -5057070 -7114400 -10394600 
-8969130 -8430010 -8103290 -5642600 -4086660 -3490890 -1375610 -3504760 -8439310 
-8411950 -5909870 -4730940 -4187030 -4014940 -2475820 -7695870 -6919460 -5159950 
-39948600 -36549300 -40627200 -46885700 -44412300 -40496700 -48917100 -46491000 -42986600 
-38606300 -9174690 -5083100 -11843800 -11653300 -9755550 -7743560 -10807600 -16038400 
-25311100 -26238900 -21589000 -18491900 -17187400 -23008300 -18631600 -18009200 -16936300 
-27132100 -27301800 -13932200 -14040300 -13434900 -18623800 -23584300 -20141400 -16101900 
-24708400 -22549700 -27499600 -21933600 -19990300 -20474400 -24350800 -23732300 -23224800 
-21978800 -23790900 -20027800 -21634100 -22680800 -23894600 -24582000 -19941500 -21068800 
-23581200 -25563300 16968800 20229300 17226600 15043000 22210700 22707600 23390000 
17934700 13287500 -42119000 -38531500 -38279700 -44638400 -43518300 -40760600 -42688800 
-37096900 -12344200 -9407820 -7991560 -10630100 -7951250 -12133100 -14294700 -10414500 
-7510940 -7616770 -9159960 -11588900 -11959400 -13634200 -25431200 -27017600 -25307500 
-28244400 -22746900 -22939700 -21193000 -6854740 -14569400 -9546290 -18402400 4083140 
18073300 18446800 13939200 -521007 -44434700 -41873200 -44734700 -46338400 -46653900 
-48105200 -47581400 -47703900 -24514000 -16696200 -17216600 -28115300 -24867000 -20942800 
-28800600 -23459900 -21533800 -19714000 -33046900 -32441300 -38744300 -20852400 -26884400 
-20189300 -23088300 -17408500 -11605400 -6315050 -8766540 -22220100 -14273800 -48960200 
-47024900 -49116000 -50189900 -50497300 -48553400 -6904870 -18682400 -27977900 -25316800 
-33577700 -10511600 -33785700 -31868200 -29641700 -31451700 -34854600 -35410000 -32582100 
-30333900 -30336000 -28131900 -29147400 -33540900 -32087900 -30180100 -19477500 -15086100 
-11284200 -11057000 -15134900 -9876170 9222590 5046640 10333300 16766200 18513300 
-23978100 -28783500 -15589600 -16215900 -20549000 -15894900 -8623080 -10453700 -12306200 
-13861900 -20518600 -29344600 -24894100 -20747200 -28245900 -14359300 -9981800 -8011560 
-11435800 -14283700 -17012400 -17636500 -46166700 -47744100 -43965800 -42070900 -41136500 
-41717000 -40338600 -38109900 -10858200 -18402100 -16287300 -19714200 -20991700 -27877200 
-26442100 -35421500 -27068400 -32168400 -33619300 -36373500 7365750 141714 17368700 
-3989760 -226274 5754030 2836740 1687590 193026 940155 109435 -106452 
-217032 -128201 -218152 -236414 -153908 -390109 10774 -82890.7 -532671 
-785788 4862680 5605350 110848 133587 145718 130709 7257200 6839010 
5464600 12695000 2234480 239204 10912500 863188 -3351650 1347690 2914380 
-5848650 -3730800 -5702810 1576120 3153330 1446760 2269340 4430350 -1915810 
1720230 6367930 1225940 3988610 -1067450 -1116750 -368108 -721861 -204106 
1353520 -443696 1561060 -765601 -498051 488529 289491 1789020 904922 
1038140 -212795 32727.2 392669 22369.7 -71414.5 -198936 -178327 -51486.7 
-14029.8 -26998.6 -265662 -285147 -98293.1 -171138 -152046 -216275 -227856 
-210653 -216408 -178833 -251262 -186073 -181998 -171932 -187824 -275857 
-244087 -165033 -167036 -133747 -177685 -231764 -133194 -184703 -118069 
-267342 -319133 -113346 -206372 -256161 -8485.09 -98202.7 -177863 -183897 
-74100.7 -12938.3 29447.7 -63085.3 -42369.7 -40612.4 45597.7 15410.6 -48926000 
-29438400 -17922200 -36064600 -35894700 -15209800 -16085000 1715700 -38022400 -26064600 
-21684000 -24609700 -33473300 -36979200 -14410100 -26489400 -37433300 -44266300 3552290 
-1245580 -12526400 -14450000 -5803930 -5732430 -43347400 4594660 -22123000 -19426800 
-22138800 -22387800 9764670 -41169700 -9883310 -9661240 -23950400 -12430200 -45437400 
-20890200 -25866200 -15010300 -48807500 -19775000 -33319800 -30644000 -13939700 2496920 
-19846900 -7541910 -8270790 -20955000 -10994800 -14721100 -43884800 -26385300 -43181400 
21071600 -2110540 12486300 -17840700 -29678000 -28122400 -17507300 -37291300 -28428800 
-8369540 4890340 -32208800 1939470 -13185300 -8827990 -40544300 -35027000 -40508600 
-15777600 -17374300 -5613530 -5112200 8442010 -15346400 -42191200 -24670700 -2653810 
-1494070 -33311600 -8119680 -15731700 -42477000 -29446800 -30791800 -12328000 -27353900 
-19179600 -25056700 -17283700 -46365700 -41614600 -26020200 -10764300 -10807700 145277 
1817740 -15519700 -18054000 -5580310 -46394700 -7707060 6628270 -21072900 -49228200 
-4232050 -4196940 -32603100 -21031300 16959200 2793940 -33777500 25237300 -13870400 
-5800330 3323810 -14292500 -48673800 -20285400 -12970300 -240119 -13979200 -23096800 
-12612000 -12028100 -30429900 -12771800 -38096800 -13738100 3706780 -26362100 -10990500 
-44794700 -8061390 -28804800 -5202170 -36659400 -5233480 -4931460 -6092100 -46184200 
-5114860 -9705130 -13068100 7230410 14481800 -35846000 6549160 -17526400 -28374400 
-27296900 -42459900 -35989900 -29389400 11275400 -47848000 -3938100 -26384300 -28875900 
-7108810 -11176800 -14660700 -13748400 -3299620 -2373420 -10352000 -18369000 -9402650 
-34108800 -10353500 -20064800 -25965000 -24080600 -24329400 -12197100 -27055100 -26171300 
-45710100 -39525700 -20250400 1193560 -2221370 -31321700 -36858700 16490300 5385080 
-16537500 -4810060 -12376800 -7506600 -36212000 -7305330 -35412200 -21206100 -19834900 
-31727700 -2108950 -1429210 -10168000 -13726300 -811251 77612.4 -39092800 13084100 
15820300 20239600 -22289700 -41788400 -19427900 78358.4 110416 65830.5 -270811 
-453671 -498936 21166800 5248910 2104330 31323200 23906000 4419010 34475100 
39146300 9791080 9848600 23836000 15384900 -1063610 -9721170 -11955300 -734747 
-9090830 -10394100 -13268000 -12777700 -26231600 -16213700 -4916790 -20627700 -1486490 
-1678210 -1333950 -3012200 -1748060 -2762300 -3023240 -4437060 -2636770 -2722960 
-5440910 -4286170 -4329870 -6787900 -4251950 -4173890 -8319660 -2564800 -2449080 
-6536100 -2724850 -2382160 -5042520 -1181240 -856515 -3722130 -475233 -1928270 
-658887 -2425190 -7136620 -17620800 -286677 3760800 -5767570 8517940 4427250 
2518890 11999700 9392370 14699700 20761600 1176100 4043890 9154830 1727280 
-2218220 336584 5203240 4818940 2017510 -25220.2 2509940 1441720 3303100 
3691750 3404170 3704460 7488130 -1357240 -865787 -169084 1182550 -2557280 
-2100080 -4222140 -3671080 -5844050 -5676000 -5566280 -7966680 -13252600 -11551200 
-5150120 -5143180 -10632700 -5235390 -5310560 -7140250 -12179200 -12007400 -6720620 
-6911400 -11805000 -3552190 -3672220 -10193200 -3774950 -3974500 -7491980 -2955240 
-3185300 -6915220 -1946940 -2342670 -4251820 -6162470 -7272830 -510292 -730747 
-2781940 -566323 -2953110 -3760210 -2176440 -5842840 -5970420 -7634480 -10993000 
-14436100 -6943090 -6887360 -13126200 -8994760 -8521130 -15602700 -6480790 -6294400 
-15269500 -6391530 -6090490 -12443000 -4070220 -4003290 -10207400 -4546250 -4310300 
-8402910 -2415250 -2363840 -6804370 -2814380 -2702200 -5180220 -2585600 -2455950 
-5351470 -2243690 -2109340 -3805120 -5839670 -6392630 -1065470 -975087 -3123690 
-1436320 -46287800 -48917000 -46066700 -44014800 -46914300 -47600200 -45540600 -47252300 
-48318000 -49357200 -49198100 -48445600 -29754600 -31413300 -31436600 -27814300 -27718300 
-28914900 -30347000 -30982100 -27809000 -27203200 -27015200 -25507100 -25403100 -33212500 
-22604900 -30220800 -26015900 -14787100 -18961500 -23072500 -31373300 -17843000 -11985000 
-7416120 -7100570 11121400 -3736330 -1375300 -38539000 -41051500 -38778300 -36390400 
-38550700 -35599000 -32110500 -32964700 -38624700 -30164500 -33380700 -33981300 -36503500 
-40085600 -39226500 -31836500 -32228400 -38487600 -41401000 -38196400 -35841300 -32660100 
-28290100 -32780500 -16620700 -17708100 -19065100 -15786200 -14467200 -16268500 -18873000 
-13974600 -14925400 -12985900 -10088000 -12312000 -12304700 -10995600 -16841000 -19179400 
-18575700 -14935900 -15554200 -13419200 -14097600 -11388400 -12298900 -17042400 -19632700 
-15040200 8220440 24406400 3898090 2783740 7446930 -1237000 1536810 3739770 
4836640 2096150 377833 2685090 -39939200 -32545500 -34790900 -44596200 -42231000 
-38442700 -33549900 -33703500 -42165800 -27859600 -26431700 -20243000 -20810800 -31231200 
-31539200 -29242600 -25171000 -28247100 -34119000 -31293400 -14626300 -20466400 -36337300 
-19636100 -20449200 -23028600 -21706100 -17891700 -19092600 -23377200 -19668600 -21212400 
-26052600 -24333900 -17029300 -25719600 -22837900 -23496800 -25309500 -22356900 -20504200 
-23889400 -26718400 -26105600 -21438900 -27426700 -25646800 -31006100 -23109900 -21920900 
-29939700 -35330200 -32980500 -38034700 -39954700 -35379000 -39621800 -31600900 -27096000 
-34378900 -22380100 -24670000 -34242300 -38926300 -42178600 -44696100 -37010800 -38934500 
-42755900 -35656700 -11359600 -11247500 -11364900 -14410900 -15893400 -15252300 -13809600 
-16415400 -17980900 -10597400 -16297600 -30803600 -26956400 -31197800 -34697100 -30264100 
-20990700 -25391800 -19660800 -17862800 -23324200 -23791900 -29225800 -38972000 -38886700 
-40748700 -37168000 -36770400 -35331200 -34991400 -36456700 -34258600 -34162500 -36102400 
-42292100 -42396100 -43125000 -43588300 -43911500 -44959900 -45314600 -43881800 -46226600 
4545090 1195870 7975720 17215800 5522160 6987440 7246140 4554290 2346440 
1452120 12378900 12975100 10672100 -1502810 7713990 18359900 -5549250 -3184720 
-10828500 -11250200 -17951100 -13968400 -9990270 -12586100 -10065200 -8765050 -11825000 
-9138730 -8248030 -13856000 -14521400 -15838900 -18275100 -15002300 -14601400 -11055400 
-11215600 -17656100 -18036300 -16365000 -19580900 -13349600 -15100000 -10210400 -9265730 
-7004880 -5012830 -8876380 -10207800 -5601100 -7945710 -8341800 -4104600 -3549490 
-3543000 -1500690 -5737490 -8252000 -8247270 -4591730 -4050260 -2397030 -3937930 
-7565800 -5028460 -6829390 -35775200 -38720500 -39818900 -43525500 -45663900 -39646200 
-45066500 -47802100 -41559400 -37082200 696356 4869140 -8627030 -6281630 6846180 
7023560 -5730970 -13003500 -21027700 -25772300 -24789800 -16705400 -18062400 -17538800 
-18223200 -22629500 -16408800 -26639900 -26855300 -13960000 -13739300 -18432800 -13317700 
-15890000 -19939900 -23389800 -24484400 -22387700 -27182900 -19762000 -21660300 -20216800 
-23455600 -24084000 -21718300 -22934700 -23478200 -19769700 -23589400 -22437400 -21369800 
-24268400 -20874800 -19798100 -23377700 -25339300 5151790 4318640 1978270 8880170 
8190340 4459640 9432390 12079300 11841100 -38006700 -41437500 -37771300 -43975100 
-42981900 -42140800 -40127700 -36489600 -9158320 -12071600 -7709830 -7667690 -10385400 
-11865300 -14044200 -7366530 -10211000 -7376260 -8883110 -11338600 -11745800 -13379900 
-26772700 -25135000 -27903300 -24934100 -22483900 -20915400 -22599900 -7023260 6104850 
-18894500 -7514910 -2900570 -994804 -4870080 -10585600 -20736300 -41313900 -43929500 
-44017200 -45681200 -47409900 -45818600 -46820700 -46986600 -16479100 -24251900 -16973500 
-24611900 -27770700 -20610800 -20640000 -22393600 -27727200 -19246900 -32077200 -37753000 
-31537400 -19736000 -26190800 -20295300 -15801300 -21444300 -10619800 -7210710 -4779410 
-12107900 -20746800 -45405700 -47421100 -47713600 -49040000 -49434600 -47486600 -15664400 
-4028720 -25701600 -31297600 -22959000 -8360300 -31539800 -33367600 -31079400 -29324000 
-34419700 -32169300 -34983800 -29861600 -27880600 -30013900 -28848600 -31755200 -33224200 
-29901300 -14674300 -19000000 -10834600 -9109640 -14468600 -9581440 -1352970 2047170 
2211150 2628340 5367470 -28364000 -23595000 -15094100 -15367100 -20123100 -15744300 
-8478160 -12075200 -10232200 -18606900 -10806500 -27041300 -17712600 -21742900 -25620300 
-9886190 -14253000 -7911250 -13878300 -11115900 -17258000 -16586100 -46789900 -45033500 
-43158300 -40950600 -40245200 -41052000 -39773800 -37663100 -8737460 -16086400 -18136300 
-20798400 -19472200 -27603200 -26196400 -33841300 -24327500 -30303400 -33203300 -35739100 
40804600 516336 64165100 54968800 24241800 -23329600 -67753400 -27995800 -20174900 
-13651500 -35823800 -48169600 13349300 13483500 34441600 33776200 47536600 61337500 
40603100 60737900 65448200 65254600 32915300 47120800 54110700 13381600 -6674300 
24274400 -20865200 -16910700 -17367500 -45152800 -61960000 -50483800 -45154100 60798000 
48348200 63835400 59236600 46332100 32424000 -13277400 11637900 -57135700 -25573400 
-49449200 -93228900 -42524.5 -271574 -109208 -167910 -234924 -135928 -35552.9 
153023 -300535 -31986.4 136546 116502 167923 25189.2 27452.4 -74928.9 
152167 -90517.1 -80573.7 -134891 -93707.8 -98734.1 -81828.9 -136868 -51836.6 
-77160.4 -118001 -170553 -142955 -66421.1 -66404.7 -153015 -178154 -212542 
-210623 -132906 -250451 -174983 -165315 -232636 -186711 -270776 -69763.6 
-156406 -188035 -107753 -170911 -71599 49714.3 -112005 14525.6 -45643.2 
157426 38891.8 -11014.5 19236.2 128924 73088.2 123951 -150605 -1071260 
-329952 -81496.1 -84471 25903.1 81713.8 216053 31983.9 -94004.3 -53120.6 
-26704.6 -158521 -35173.2 -85350.8 32622.3 38300 -36571.5 1417160 1068020 
-148051 -60281.7 -92973.7 -215556 -140302 -342303 -172566 -169346 -181653 
-284200 -248488 -95454.3 5611.14 -172433 -19786 -102323 150784 -118798 
-157465 -20671.8 -94055.7 51754.9 -57122.6 101078 -65734 -13508.7 -6939.22 
118842 28971.3 106795 59119 702.693 146610 159177 149700 74817.7 
235954 102855 -18933.2 83779.7 86741.9 20795.3 -56436.6 -42060.4 -31696.9 
21706 -34370.2 -11248.8 -8671.76 -49591.9 -81293.9 -34181.1 -16453.3 -37343.4 
-33168.2 -45617 -41316.1 -14720.2 -55333.8 -25096.2 -18023.8 -17669.4 -52527.1 
-14550.2 -43486.2 -33329.5 -28351.8 -63802.2 -63332 5642200 -41632400 -31291400 
-10762400 -23190100 -18042100 -42443400 -12933500 -6762710 1873650 -6783600 -35000000 
-31017500 -23988400 -34539800 -16515000 -25081700 -21758400 -22217600 -22794200 -22678300 
-22217400 -21104500 -22052600 -19135600 -21790000 -19908300 -19830900 -17340200 8172510 
14346200 15423700 -532380 7515290 -16593800 -17290100 -43226000 -46949500 -41325200 
-44836200 -43842400 -28399900 -29501100 -30319500 -30468700 -29326800 -40089200 -40613100 
-4075300 -8202890 -10999500 -4195680 -7177660 -27403300 -29515600 12744300 4952650 
-4079710 -3955670 -4626670 -13332200 -5358630 -7795500 -5513530 -11174400 3384110 
-505018 1386220 -75207 -2004760 -8453230 -16076500 -4570950 -3295210 -3500320 
-6505580 -7699870 -4511420 -3195670 -7622290 -6411980 -2477640 -2379750 -2320250 
-5016690 -2612030 -2544820 -2671160 -2741440 -6586780 -4269650 -4471910 -8404830 
-8473900 -4338440 4173650 -5296580 -2822670 -531172 5393720 -4522420 -4473370 
-4375300 -2679980 -2948430 -2824920 -6851020 -5357740 -4410900 -8231810 -24121400 
-26132600 -32274500 -36204300 -37288800 -36556800 -35594100 -3985490 -3898690 -3997900 
-5492140 -2630240 -2915160 -2537060 -2831470 -2661830 -2702070 -7360570 -7317170 
-14014600 -7133700 -7266460 -7068800 -34447900 36567.4 -2151810 -4115440 -6013650 
8155080 1287990 2831370 -1565660 -8127620 -3927430 -4049320 -2627540 -5061290 
-26421400 -31863800 -31790600 -26586000 -35110400 -15035000 -15626700 -13832800 -2460380 
3456050 4579750 -3509680 -5656130 -5657450 -5794350 -8309630 -2859670 -703674 
58044.1 -630072 -776077 -1474530 -33523800 -34595400 -207027 -3421620 -28483800 
-27394700 -31336800 -27059100 -19861300 -21814600 -21283200 159526 -46482.4 -7626250 
-15449200 -32414400 -33929400 -38589900 -29219400 -28075500 -22078000 -25794800 -30123500 
-1960220 761013 3196920 1796510 4004800 4394520 6384250 9847440 16285300 
-12300400 -5227350 -39870300 -36295400 -37753700 -5851060 -2161470 -3663480 -2157350 
-4244710 -1846100 5300160 11407500 16351700 18884300 -4077430 -4116600 -3894830 
-15877700 -20236300 -20439500 -20863100 -19563600 -1484860 -698820 38908500 37500100 
12360100 36130200 -680947 17069.5 -757965 -22609900 -38123000 34021800 -10745700 
-19880000 -20549000 -3995330 -7846110 -4247470 -3024120 -5672650 -1633140 -694579 
-876019 -643322 -1766440 -603921 -1492220 -583083 -13464800 -12352000 -6156950 
-6305850 -6395200 -16481600 -20002400 -20953200 -24348500 -78737.4 -23896300 -23678500 
-24390300 -23139300 -20511000 -21775300 -34196700 -31343300 12773700 -23435500 -1594040 
-2720450 -1461020 -45969600 -44212800 -43710700 -45162400 -26093000 -3933910 -2591390 
-6382140 -5140640 -2560420 -3831730 -7578880 -6283250 -6213180 -12841400 -12462600 
-653818 -20311900 -18473400 -18067200 5159030 8298870 5620650 -18234700 -2204690 
-5463810 -10562200 1779180 -27507000 -29435600 -26090600 -28041300 -24344900 -26246800 
-25428100 -23426300 -36454300 -12646700 -14960500 -12817600 -15220800 -12873100 -37216000 
2642810 3331020 283487 -1439690 -47107700 -44959600 -45721400 -6955190 -6852470 
-13878300 -15636400 -8915980 -17105500 -2443830 -2461640 -2426990 -21124200 -3681610 
-7408130 -17964800 -3934880 -3812250 -3812580 9173510 79871 127932 -10698400 
-13178800 -13888600 -11798700 5187010 -429644 -564216 -6269510 -12312300 -11165400 
-11322100 -6872690 -10253500 -15523800 -5144460 3480300 -7976270 -6435440 -6103450 
-5975170 -4959410 -36917500 -32501500 -37981300 -19830400 2097940 697872 -20487700 
-16397000 -2574830 -16955100 -16170500 -25488400 10495900 12081800 12168200 11203100 
-34777400 -37898700 -34236500 -5352230 -7076930 -11895500 -5134470 -40186300 516483 
4398230 1162220 -17357200 -15327300 -2494760 -4831270 -2434030 -13492400 -15331000 
-5970130 -15862900 -14541000 -13837900 -6125060 -3941840 -2098750 -4186870 -2105820 
-26668400 -31013800 -17501700 -3699380 -7596730 208845 -42553700 -41514100 -39377900 
-38627500 9561590 9159810 -42460200 -40950100 -42610800 -44483500 -44215200 -30344700 
-15555900 -2472710 -1103590 2569280 2317190 -399692 -43115100 -37466900 -28082700 
-25884900 -34192800 -35089500 -27295700 -26275300 -19280000 -171366 -44005600 -40275800 
-10164000 2602930 9368970 6448030 -2816590 -13644100 -1120680 -2149270 11258100 
13354400 -5322160 -12133500 -16507600 -22302500 -35779600 -38748500 -35231900 -5279110 
-10707500 -24397800 -23431700 -16610100 -18639200 -23653500 -28980400 -20614000 -22473400 
-24769500 -22911000 -14785200 -14700300 -4287100 -3992450 -7035070 -15608000 -16473600 
-33674100 -38256000 -34296600 -38792200 -34126800 -18631700 -7448600 -5154420 -32272800 
-29602200 -433824 2176330 -17937800 -19150900 -16686500 -39351400 -41247700 -40706500 
3081380 -21715400 -19475000 -12721400 -5117130 -10306100 -7792530 -5298770 -22526500 
-23739500 -21433300 -20372900 -45845300 -26818000 -25410400 -7770530 -9996350 -10463700 
-3798480 -3963360 -4454050 -8397190 -38662400 -41253400 -8327900 -10840800 -7988500 
-26739600 -25134400 -24941700 -19264700 -25117300 -26126900 -8642520 -13778300 9841680 
9734660 -14020900 -11043000 -38917800 -36269400 -41821400 3110380 -746832 -404876 
-13967100 -13830500 6068030 -46387100 -47225000 -15955600 -8308310 -5797230 -6820450 
-22857500 -23239500 -25046300 -3104440 -1671880 -45494700 -47090900 -48755700 -48228700 
2642530 1109230 -48629300 -47406100 -22472700 -18353700 -16045100 -16125100 -31990900 
-36381400 -40004000 -24019900 -26216200 -2801730 -10073200 -10678600 -23078300 -23680200 
-24603100 -20772600 -40696100 -5168070 -7388540 -22257700 -18871100 -26739200 -28069900 
-36024100 -10296900 -9738620 -1108210 -1972710 -18974400 -17798100 -8285700 -5762180 
-10852700 13728500 -31042900 -29052900 -28287900 -30454300 -39077000 -42723500 -39064100 
-11410200 -19169400 -19768800 -14819900 -14073600 -1116920 -1144570 -20984100 -26754000 
-31411800 -27128900 -25735000 -4430880 -16858400 -18171400 -12322400 -11582200 -11446600 
-9561470 -8920230 -9689790 4249930 4668620 814773 -33105500 -43356000 -44024800 
-19825100 -16333000 -25039600 -41432700 -38126200 -25550400 -29333600 -1467860 -2102660 
86620.6 71873.7 211219 125783 -11328600 -11449400 -14593400 -778405 -895620 
-32409900 -29398000 -47756900 -49282300 9262520 -12357000 -11944600 -9216020 -30756500 
-27952300 -27271400 -30140800 -8988480 -36836300 -666905 -16493000 -3377260 -1740890 
-12145000 -22493600 -22615100 -18880100 -18985900 -20215200 -536774 -362840 -410463 
465710 7699600 5031450 7628280 -39046600 249953 -28940700 -33466800 -32324900 
-34070700 -35105600 -35409300 -39126800 -35582700 -3319470 -2043860 -41667400 -14466200 
-30002100 -26967500 -23202500 -8651540 -27970400 -27789100 -26153900 -15299300 -42301800 
-40349600 -45455300 -41918400 -25057700 -47101400 -43398700 -44110400 -28338400 -25263200 
-31014600 -4975000 8207980 -36390100 -36201900 -41538200 -45693400 -19758200 -37513400 
-35102700 -36435500 -33713100 -36251700 -31852400 -32337300 -31446100 -28963800 -15385200 
-13570700 -17132900 -39416100 -39138800 -8804980 -17612000 -19425400 -2915460 -2853830 
-2791980 -18077500 -14217800 -25734100 -15832900 -27865100 -20041200 -44644900 -31483900 
-33455400 -33298800 8454220 1709020 11177400 -11237900 -20880500 -39862600 -1194940 
-3790110 -2393480 -4072040 -5628050 -21273400 -41240000 -45360500 -14112300 28335600 
25510600 27750300 -40782.4 -1105740 -44203100 -35937000 -46553500 -5824360 -46538900 
-3503880 -22457400 -23587000 -35381600 -8723870 -18925100 -28394000 -30840200 -36097800 
-39194200 -34391700 -40354300 -16137300 -25276100 -26854200 -25117300 7893160 -35340600 
-37600000 -35144100 -21075700 -38242100 -7025360 -7090780 -7119280 -15684600 -11715800 
-19853400 -42624600 -12202000 -3455150 -9044870 -49235800 -49603900 -36652300 -38906300 
-49256900 -49486200 -49544200 -49626500 24720900 -31174000 -34045400 -8885440 -11466500 
-32709400 -33552000 -923138 -3769050 -5379750 -5600330 -8953350 -9335990 -9305140 
-40474000 -15376100 -6551040 -29770800 -29875900 3099590 16698700 18697800 24366600 
-30013600 -31631400 -27917100 -16011200 -857221 -5247840 -32610300 -31985000 -32461400 
-18244700 -24990100 -25902400 -21972100 -18142700 -20047400 -44268500 -17340700 -30303200 
-18370400 -22721100 -33516900 -36538100 -16351700 -14348600 -11462500 -27673800 -8771880 
-20832000 -15246000 -31122300 -38615300 -33223700 -35732500 -39999200 -40870600 -18474600 
-13332500 -17624000 -6607330 -15293700 -19676500 -21150800 -22618700 -22808400 -20925000 
10292400 3619190 528944 -9598900 -8286180 -23880100 -31548600 -34709000 -12090100 
-9468090 -12381300 -21058400 -17428100 -17292400 -26966600 -3156300 -33338100 -13018600 
-3504030 -17756500 -16463200 18450100 -29536400 -31892600 -43436700 -42404700 -21614900 
-38681000 -26842100 -4537400 -1804920 -1916730 -31569400 -6465210 -23445900 -24619900 
-5203660 -47580300 -2766600 -2892870 3633710 3533070 3143600 3546200 5069290 
-13305800 -14485600 -45570800 -18712000 -18630200 -15437900 2423890 -2771880 1227710 
8355060 -930448 2166820 10080500 3643000 2746290 -43565900 -42752700 -44626500 
-21215300 -13461200 -14300900 -15726700 -14418200 -7347830 1041210 -482367 -24273500 
-8246360 -11979400 -19366000 -14579500 -15145100 -15390000 -9572030 -14964900 -10608000 
-28522700 -23271800 -16726300 -3970800 -4086820 -20993900 -20989700 -22890600 -14560800 
-13993700 -43784300 -27183700 -7332300 -7199590 -1393660 -1366570 -6019570 -32155800 
-2620640 -2689010 3389590 -26209800 -43771400 -4079320 17248600 16017900 10266400 
-18753400 -22319700 -17685700 -42010800 -16261300 -16383000 -49536600 -48962500 6812030 
-1260860 -1265090 -929937 1964350 -9542340 -8661030 866913 -35201900 -10106500 
-10005200 -2779920 -46721000 -45388300 2818530 2859230 -5452080 -35528900 -19457100 
-8829790 -20806400 -19754900 -46112700 -9735850 4794730 4859690 -14189300 -33586500 
-33755800 -33050600 -30234900 -24709000 -26243500 -2326490 -7586550 -10154100 -29443600 
-26964500 -13038000 -23549600 -37669600 -4618450 -12453400 -1036210 -8689890 -11888300 
-13786600 -13103800 -6268660 -3681010 -1233650 5029230 13111700 9757740 17196900 
-2339810 -14768900 -14683700 5875230 -1555750 -473350 -6003980 302194 12689.9 
-6533990 -2673840 -48193200 3351990 5551730 3256460 -5990550 12077000 13960700 
-7066970 -35352400 -14308000 -24592400 -23654200 -25712800 -25545000 -27336300 -48106800 
-47916600 -45519600 -46330900 -13553200 -24744000 -36873800 -29674000 -38221100 -47837400 
-7792410 -16865700 -9512210 -7803370 -5083630 -6841600 11637400 13297300 -12735900 
-12793000 474952 11368300 19624200 -13542800 -10479500 -34298800 -18221100 -36143100 
-30280700 -16047100 -27887500 -1798730 -7155890 -2743810 -15602600 -46343900 -31171800 
-3864690 -3967540 -11602400 -7723200 -15423600 -684082 -4459500 -31012300 -11016500 
-12030500 -15971700 877607 2648060 -7962070 -1219590 -6229060 -32010500 -14829300 
-5002620 19589200 -1651570 -2002280 1564980 -31749300 -23393700 -32922800 -10993300 
-17089200 13932300 -2429750 -39928300 -27187200 1394030 13971800 12434000 -9226290 
-3584130 -6141900 -34926500 -46064800 11635200 9169830 -25766200 -35915300 -14225900 
-13909400 -3465130 -3538330 -24182500 -14251300 -6085630 -23960400 -24116400 -8536400 
-43202100 -42344800 -10088400 -14699200 10603800 -14307400 -1617110 -3474800 -3056880 
-9497600 -9604200 -9932290 -73012.8 123884 -11389800 -11503300 -3630820 -24889300 
-8294300 -10154700 -22991600 -24094400 -18959700 37103800 29850000 -40409000 
Stress%20xz%20component 1 3545 double
12115100 -1623150 1625.68 -3088990 -35072.8 -29029.2 -414445 14444.1 10035.6 
-131524 4591290 2591240 -6843130 -2984650 10199500 10324300 -1428550 -2538130 
-2343750 -1859620 3737740 1477670 1055400 924396 -56786.3 48084.6 -580551 
-311550 70177.3 4147530 11248500 -14733100 -8639540 1965220 5391640 4497840 
270268 666226 61045.2 127885 224284 161075 191229 168400 106868 
98293.7 56259.8 -31029.6 -144052 4741140 2082010 -10278900 -7710400 4842550 
4675010 2029750 436395 390590 37359.9 155261 221204 165343 189905 
222483 132390 144053 11173.9 -69857.6 -112495 -33810.6 -20076 2833.87 
-55863.4 -33950.7 47260.8 985.587 8185.33 -8079.27 -28946.6 -17545 -59507.9 
-20878.4 -77739.3 17863.4 -6333.26 86784.1 -43387.3 -18612.3 -149029 41634 
-20023.1 -66309.2 45964.1 -16611.3 -12867.9 -3052.89 8416.33 8973.52 3155.66 
8493.86 4545.51 -16390.1 -1021780 -224953 -272762 -55789.2 -28705.8 -820.088 
469.287 57264.2 8301.08 -24516.2 -4262.31 -46408.9 32489.6 -31339.7 -40069.7 
-180983 -316549 -108766 359222 -5821810 -11439100 19950800 220603 -1866300 
-232618 306742 -2765020 -16042300 -8182110 19070900 6148710 -4430540 -2018000 
280006 3745970 -798226 1619680 419897 -251002 -9911.92 34801.9 66510.1 
9717.29 15683.2 65923.6 16935.6 -1363.75 29098.2 -4644.27 2422980 331197 
-1609310 -5546.38 135392 2546640 -101692 844998 130676 27120.7 15344.1 
10143 5369.59 -11804.2 -1574.41 18097.4 -64169.3 51901.4 -22497.4 6254.81 
-7340.36 -1276.03 18548.7 13613.8 -20097.1 -29431.1 25365.5 -35258 -24254.4 
-11052.8 9942.47 47104.2 59274.9 -13183.7 29606.3 -3472.72 -4767.19 -64031.8 
2259.23 -2095.91 -164589 54344.3 145726 96162.9 -86661.8 62872.1 28503.8 
12452 -11245.3 -4263.51 -2676.63 -1001.3 -907.814 -20946.4 496386 508405 
224518 98077 42785.2 16146 13278.9 -28317.9 -1447.12 28542 18462.3 
41170.9 -30008.6 51670.4 5796.56 712061 -356596 250261 953587 -1109810 
-1623130 16716700 677469 1218860 56161.5 -82058.3 562691 -4865230 32985100 
-3451970 -82503.2 -5509.84 -2583830 5109310 5150810 -4124900 -5498440 9136950 
2383580 6232590 -1431630 -2309920 -524538 -2072300 4030300 5992480 4383810 
4512650 4628600 -6713050 -1623300 -2594230 3345280 -669591 -4856630 -4156640 
-1379520 -3517760 -3124470 234460 -2392370 -2985.91 -28784.1 -1422530 5390.38 
-3375.82 17853.6 13939.7 8386650 21116.5 -8784.93 -16525.8 11301.5 -16215.7 
96649.9 4558.63 -3829.36 1236.67 -2144.33 342456 -4359610 1238.9 12654.3 
3642.96 -8954.41 45173 -2115200 -13559.5 -16398.2 -2122.04 -935.596 -7378040 
21733.2 419.997 -9777.44 260.646 8406230 -3459.37 7069.21 74386.6 -246335 
-347.268 -65131.7 -1362.52 14229 -238793 4046480 2689.03 -3120.16 -8938.59 
3970.08 494.882 6761.85 -29710.8 -231993 -5706.17 -993382 -1129510 1284740 
-11312.2 22060.6 12918.1 4639.22 -5414.23 -416466 5179.18 -2107740 19770.2 
-5873550 -723.614 440.36 19952.3 4480.55 -2012.19 -14349.7 5222.05 -17453.9 
2355.29 -1960160 -46785.2 5729.21 -13565.1 -20013.6 -23328.2 -11618.2 5410.98 
-19021.7 26299.7 5008.15 -22223.2 10070.1 -4065.73 -15744.2 -2477.04 3044.24 
2072.67 47.4554 12342.1 3587.44 5497.23 7312040 -3095340 -337085 -4321.88 
-11377.6 -46621.2 2911.78 620631 10131.4 46871.9 -13748.8 29665.9 -1931.03 
-9941.52 4325280 374134 11443.9 -3540070 -8528.93 -2075550 -223184 -7486.66 
13713.8 -5380.09 12688900 5998770 -857800 1388.93 -198.473 -26.4313 7400860 
1903.44 -17966.5 48471.6 -524645 104855 8252.7 6797.03 22715.9 75891.2 
3096380 -1383.34 1127.77 22657.9 -48651.3 -20001.7 170.449 -5777600 -14877.1 
-9452460 -559908 -918.326 4580260 -9591.77 -41925.1 970.301 27989.3 -22590.7 
-1492.92 -1391820 2536.21 -341002 57327.8 -1932.98 -55632.2 -2239730 -327585 
8262.9 -17144.2 42525 -9220360 6421.2 -10786.6 -12839.1 14075.5 -1140070 
2300.5 7165.8 19238.8 -6771.41 14421.6 15872.9 -41073.8 -43181.8 -5406.99 
-1571180 90749.5 -89375.2 -5888.34 -4299250 5921550 6754.26 -7341.41 52547.6 
-219907 28881.5 10438.9 -11587.3 21777.9 -11057.2 95900 5308.32 -15989.7 
25858 -2863.86 -26004.9 11194.7 16976.5 1589590 2306950 3501040 -2852410 
-1951200 5273000 -43494.1 47963.6 -116503 -28480 4717.2 -16430.1 124555 
-908242 264355 -1139280 -2278610 -1393570 3117370 -4750240 -5845950 -5923240 
-329490 -10951200 -7695680 90930.6 -430839 -93207.7 72385.7 -199317 -259138 
-98965.1 -27005 -32271.6 -16207.6 145329 6272.89 58982.4 259824 41236.3 
-24824 -186474 -2801.51 381.257 139766 -7416.29 -40211.3 19119.7 -18873.1 
21113.5 82108.8 2373.96 4342.76 -64410 -11247.3 8696.49 -3187.73 -15413.7 
19095.5 -35013.8 -43230.8 20976.5 163.945 -3742.31 -8550.32 -28822.1 8290.03 
-27468.6 -28600.1 64619.5 -372219 645601 -896694 -224714 -75730.4 -78194 
-365465 -167973 761854 130661 1346610 -1741710 800049 -7224840 -12963400 
-4435190 13628600 22526700 -1749060 16039600 19058.8 -47418.9 -54476.4 16633.9 
-15682.6 47917.3 -17737.5 42381 -1149.87 -18926.8 -3867.48 -5292.32 -40183.5 
48200.4 48827 -36765.9 -22170.2 16076.6 15611 7279.52 15164.9 -48498.6 
1266.85 4511.07 -12232.6 -5404.12 46211 -81818.2 5123.25 5312680 -8542130 
-4323930 -5344040 -3799860 -5570050 -5622510 259546 -3188010 2970460 4892570 
7005230 5205120 5960790 1518180 -346379 2476940 3577070 677406 -1551260 
266677 405028 -1972480 -1463260 -453257 -168470 -52297.9 -28233.6 -768247 
84929.5 60242.9 -119904 -33953 -138838 113064 60736.3 -58050.7 72503.8 
127715 -47390.2 -7036.7 1824.9 -12199.9 19877 -99130.2 76844.8 66772.1 
-10855.8 58449.3 30669.7 15679.3 9657.85 16968 -47645.1 -23236.7 47340 
-90071.5 29385.8 10230.1 -52315.6 -20412.5 48637.8 113360 85879.7 26167 
106794 80871.1 41570.8 -6934.39 28112.3 -3050.6 34774.7 -111363 -73406.7 
-74092.9 6788.02 -7528.16 30595.3 18238.8 3921.73 -51967.7 10676.1 -87569 
14875.7 -54667.9 38883.6 -59151.1 33616.9 -56141.8 -113534 47227.6 -601103 
-895503 -2167340 -1036.1 -811237 -1747120 -1782110 -2695850 -3069260 -3722070 
-3064470 -1881820 -27261.7 -27735.8 -104772 -29582 -2374.5 53420.9 35406.7 
39648 -71272.9 21801.7 7654.35 45801.8 -13283.9 -90812.1 -7259.5 3627.57 
77528.4 -17806 -85278.8 -65215.1 23915.3 40258.1 -13732 -30791.9 -2143.3 
14538.9 30230.3 10.8589 15167.2 13944.9 24608.2 5660.05 -10448 20908.7 
16338.3 14543.5 -9656.43 3276.52 8331.98 593.17 -27205.5 10813.8 19865.7 
1242.51 -20080.5 10811.3 18659.4 -35637.1 10297.1 2676.64 5848480 2657130 
5948670 -190418 4617130 3477130 3722250 2426440 7699580 5588580 8226660 
3899910 -256561 -129448 100156 -38567.7 -46421.6 -105801 -221490 -105192 
72558.4 -6463.28 -233560 -386292 -25210.5 -16249.6 -54929.7 12045.4 -43250.4 
-24692.9 -117780 29824.1 -91314.2 -693081 -49511.7 -118107 -17422.8 -26766.7 
-11668.8 1419.5 21792.3 -27091.4 -50494.1 -40568.6 1165.5 -13382.9 2275.77 
6732.47 -11890.4 1271.6 1372.3 -38547.8 -21890.4 -62295.4 -27312 -3146.91 
-17939.1 15736.2 -109653 -44475.8 -91217 -39629.8 -430.02 -98823.3 -7355.38 
-12919.4 12803.9 60490.4 30975.9 -23967.5 24780.3 19010.9 137934 108841 
-94339.4 231461 -9174.75 40260.7 45335.5 28352.9 -40989.4 -57224.6 -19366.8 
-12851.6 -20828.2 7973.44 -15257.7 1014.1 -4641.51 43090.9 -1983.47 -8380.94 
-16328.5 83220 -13585.2 65043.3 -29985.2 23642.3 12840.9 5229.52 47427.5 
-23741.1 8685.79 -19075.1 39585.1 -85218 9585.89 -11248.8 -73183.8 2061.32 
-46705.7 -12346.6 -42102.6 -19852 -2374.25 -17870.7 -16965.9 -2373.08 -120886 
-96746 -18887 -60839.3 -22386.4 -13212.5 39784.6 -52681.2 -37788 -1002770 
-1007920 -1551090 -837096 -1398130 8617950 2894150 6050290 -2790280 -4255400 
-2691420 -3930170 1596900 -5438980 -2308440 -6360690 -3721290 -1141590 -3671700 
-1991800 25281.5 13948.9 14717.1 -19662.3 5918.56 -54459.7 17955.4 13118.5 
17989 42002.8 -12272.2 -5882.17 -35060.5 -7176.69 -33960.8 -42466.7 -3461.23 
4175.86 58557.2 -54.4883 15189.9 10311.3 -63342.7 23156.2 -343.115 25751.1 
-17926.7 5887.66 29671.5 16031.9 23211.8 -5714.88 -41460.3 -15571 -20465.5 
14193.4 -2726.22 1247.49 -13534.5 6783.44 3944.89 20733.9 2556.27 14350.3 
-84693.8 101389 24945.3 -16727.2 -24122.5 -87721.7 -22225.7 141908 50455.9 
-94562.6 -1646310 -2277420 -1621810 -1154190 122977 23680.8 -3399980 -1144990 
-54117.9 -21733.1 -40479.7 39939 -8463.55 17894.1 -26184.5 1279.35 -44805 
-95204.2 -17693.3 -42089.7 17278 -14719.6 -10841.4 42397.2 -28763.1 -87318.1 
8148.7 29795 39318.7 30012.2 23829.7 16090.7 8479.62 -44201.2 1757.64 
8327.69 13299 24431.7 -2899.98 12238.1 10415.2 -1823.1 -8707.22 -28379.8 
20888.9 43270.7 -1211230 -252656 -6892860 -10979300 -4780500 -852428 -5686770 
-7458470 -8513430 -4255.31 -4233.44 62668.3 -67379.8 -9648.85 36413.7 -42880.6 
50219.8 20502.6 29149.6 -11118.6 -18006.3 -32888.4 7458.83 7797.66 -10949.6 
19297.9 26464.3 26334.1 9853.28 12585.4 -17513 -45645.3 23747.9 -24631.4 
55267.4 25835.5 56897.9 -36475.8 9695010 3706310 5527030 1507190 5598730 
4285100 -2875290 92064.6 13135300 -7388.69 -50530.5 -84253 -97014.4 10731.3 
-16275 -26483 -45980 -51390.2 -18431.2 -5673.96 22578.3 47176.3 -56881.9 
-110142 26183.1 -145039 -76114.6 -60897.6 -133694 -44180.5 112479 -33114.4 
-60188.7 -196480 -251187 -249982 103590 -318338 79172.8 -477534 -14336.7 
34952.2 -98111.1 -117122 -75559.1 131914 -70522.1 -255768 -108778 -132907 
-183374 -237204 -59130.4 27011.9 66360.8 56853.5 -32476.8 -12797.2 44612.8 
30609.9 9570.93 -17297.6 28636 21762.5 50808.3 31847.5 -37751 -84548.3 
-248832 -482935 -237300 -517883 686449 6306120 1096230 3936570 -1033050 
-29236.6 -10260.3 80640.7 -50962 3467.82 5229.18 -6183.97 -15536 -14862.2 
185600 -222381 17042 -369022 -22113.1 -73719.3 10079.3 -22077.7 2124.72 
-4407 39422.4 39827.1 -1034.12 53782.8 -146756 -14494.1 66280.3 61786 
-4080.72 68218.7 46020.3 -950728 24244.5 2031.31 3074.4 31641.9 4916.61 
19322.5 -3662.57 -662085 125118 -10169.6 61173 5937620 -93145.5 4633850 
-8843470 -2152200 4759540 3799370 1534880 3071920 278909 3144.7 166810 
194616 161517 108141 114815 107759 46277.7 26495.1 -62628.1 3090360 
2928280 8630930 5722150 -53216 -57082.7 -121112 -57917.3 -6355270 7202430 
9441250 8350690 -6492010 -12649300 -429041 -13112600 -10036900 -963342 -4831250 
-5785860 -7464310 -2530550 6274700 4314070 -424495 1525430 2186460 4237240 
3170070 3571020 3844810 7532490 2278920 3657460 1703270 2523560 1577340 
901951 326125 2028360 1162220 1919690 294285 597448 1037070 543450 
380977 145365 -38911.3 -137544 -33101.9 45574.9 230969 111752 -40886.1 
75478.6 78623.9 207804 215072 44116 143326 116232 169561 209403 
132971 180149 101725 140667 194067 145544 120187 26624.2 98132.2 
162230 62547.9 109060 74019.8 67966.2 109769 99729.7 82277.7 93745.6 
57476 150339 118737 85568.4 -49859 -78354.5 45522.7 27867.8 19461.4 
-17051.1 -121099 -5415.09 91798.1 -2834.17 -49080.6 -85503 -24896 -18195.5 
17190.8 -289386 -7016.66 -15165.1 -3338.67 -17901.5 1017430 -2667.65 64639.4 
12772 730.564 28447 -47552.1 -3252.22 -1597.92 -3713.34 -18547.2 1366250 
-969707 502.019 -30898.7 2553.19 -3050.28 92340.9 -147732 21894.4 16007.8 
-8752.57 -5115.63 87783.7 10729.1 -7186.85 24323 3717.6 2341640 17522.7 
-27546.5 -98696.1 89912.9 1267.67 -302591 -18650.6 -19277 -26690.3 -1012280 
14152.4 1035.1 -6502.74 -180734 -10107.4 -16652.4 28569.1 -200510 62491.7 
-2767420 -663056 -5423540 146.874 -26065.8 -26948.3 15622 -11790.9 -118665 
19546.4 -2912190 29354.6 -3501460 -25412.4 7589.12 -7126.88 -256.087 7356.11 
-195388 1879.08 -821.019 14304.6 25471.3 55262.9 -32057.1 -23825.5 -6295.46 
14870.9 10151.9 3008.17 111796 -18213.1 -15934.5 17689.5 -39511.7 2566.4 
21237.8 4975.36 747.054 -7248.53 7544.65 -9271.7 859.816 -1575.21 -857200 
1728130 -743681 19471.5 10360.8 54653.9 -1853.46 -815258 -6774.04 -40274.1 
44348.5 -108046 13234.6 15368.2 6468.97 -48788.6 -11410.3 -3433220 -17542.9 
-663897 -74056.7 472.515 -899.042 6599.11 -1778100 -2481940 314519 -23269 
2102.54 -13177.1 -2333360 2925.73 45091.8 -68970.4 -201388 93178 -7787.76 
4359.06 -3827.48 -190796 1215370 8371.93 -6889.34 6855.24 40905.8 -1186.94 
-7069.63 4672900 11851.1 -2316650 -151225 1439.45 906736 830.8 15728.2 
-2866.08 -37998 23457.8 18238.2 -957550 27032.5 -372811 -29409.1 11930.7 
-28534.8 -70744 -60122.5 -2216.1 -10495.8 7596.43 -1130080 -1664.48 -949.926 
29463.9 -31167 -211336 14403.8 -4111.62 -11777.5 -117.346 4145.18 -17450.6 
18354.9 185003 3591.61 2563610 188903 -56132.1 -24065.2 -1935260 272554 
4768.91 -1782.88 -63904.6 -103580 7361.07 -13021.1 1393.12 4774.52 9986.78 
-56703.1 -4827.87 9159.17 -33375.9 -10357 -3899.77 -14858 -23884.7 -2169840 
689.762 139153 -4888080 -1006240 2321510 -39394.9 25230.5 14309.7 13176.6 
1171.92 -35561.4 72046.2 149802 -268756 -102319 -337861 -866035 802315 
-1228270 30745.7 889766 -278329 -264816 358637 -368599 -247987 -732175 
-1260090 -445176 -299366 193044 17994700 2669310 -5225730 -2245060 6226.63 
-23508.8 -29187 -1680.72 11260.1 2845.28 -38043.4 -21803.3 -3590.9 -22481.8 
-4003.59 47163.6 -7885.03 21951.8 30595.9 -21362.4 -30593.5 26697.3 -24605.9 
50810.8 36076.3 -4478.13 40586.2 13570.8 19905.3 30677 71764 -23573.1 
-16047 3721300 1983470 1305770 -1715700 -2925490 1788570 -762701 249492 
-3326890 -3153200 -2553960 -3029660 -5784050 1894310 399832 -120384 2889580 
1208390 2521110 1905460 -636564 42078.4 -211041 -2183590 -3893460 -1715200 
-1676400 425193 -659821 839273 -228748 -35152.9 257330 -703716 -1068510 
-229863 -34196 -164888 171158 18365.3 -69453.7 91708.5 113914 41273.2 
-45129.5 26191.5 63638.5 -95.9381 -16307 13220.8 4677.12 -60889.3 -14489.2 
21822.2 89635.7 -20991.4 35406.6 9026.93 -1305.42 47166.4 5325.17 -9416.47 
28330.1 33674.8 -106644 -10917 16375.9 43939.3 -23324.3 -22398.9 59863.2 
-114576 -94045.1 261281 -105614 211240 95275.5 58747.1 93460.5 -50175 
-100779 39294.8 47683 -268595 -21134.6 63478.6 -150986 -69369.9 41571 
123430 -10612.8 9155.37 -72158.3 -9925 37826 -86525.3 -14450.9 40239.6 
-36469.6 -30803.6 17194.8 30439.2 -3219.39 19476.2 20313.7 -11840.5 -273.295 
24771.5 15767.5 48289.6 -10766.6 -2285.32 -2130.63 -23346.9 40513.6 35555.3 
19315.9 139926 43281.3 126469 11462.4 106478 17331 2112.06 49322.1 
-34850 -194187 -93511.4 -24875.7 61668.2 5059.82 -2759.18 -23026.9 1410.72 
-49294.7 -34718.4 -15269.4 -51810.6 -15501.5 3432.37 -16636.4 -34959.8 -90838.7 
-239931 -188641 -18666.9 -57197.9 159013 -384470 61542.5 -531666 -376791 
-377737 -766949 -609730 -157442 -1111890 -98378.2 -53161.2 -33506.1 -17892.4 
-33924.4 -10363.7 9183.04 77540 -88302.5 -11396.2 26624 128558 36641.3 
-27263.1 98252.1 -73896.8 -25806.7 -91619.5 -41592.7 5778.38 -26668.6 5023.7 
62240.9 43932.2 34991.3 10987.5 6760.79 9010.67 -6295.15 8732.35 19868.3 
-22489.7 -21174.7 -19253.5 -3642.99 5612.01 -22175.4 13804.6 -31292.7 -7536.45 
-13561.1 -15800.3 13259.6 -5999.06 -20817.4 -9256.52 24015 5078.68 29874.5 
-4114.93 -2363970 10391.7 -133736 855652 -2254450 -1947070 1375620 -1786300 
-1254580 -1984580 -885996 493577 -38440.9 -12948.9 322281 -90797.1 -128535 
-82762.5 -253163 -169079 98123.9 -127450 49406.1 144017 255472 29851.5 
-78890.4 16186.1 -1213.6 20672.9 13753.7 -4795.87 -6841.38 -35002.3 8596.32 
-32431.3 3986.86 -28168.5 -10939.1 -4530.73 5412.22 -7723.59 -3271.02 1937.57 
-28007.1 226.384 16035 -22103.8 -16480.8 -16748 -12135.2 -31215.3 -5737.86 
-35801.2 4769.01 -64947.6 -7928.06 9240.6 -70122.6 79416.1 -80044.6 67127.2 
-116745 48231.8 63005.3 -37854 -88404.6 -26382.4 84461.5 -154765 77605.8 
104457 -80397.1 328045 -90461.2 -19448.8 -18667.3 -297058 -105274 220333 
190131 136082 12898.7 -4059.17 10356.8 -29320.3 -8852.14 12166.2 -22263.3 
132.252 29937.1 10337.8 -14292.5 46818.5 -4853.03 49567.3 35215.9 -2278.88 
37023.8 6795.35 6647.47 -7905.84 -12777.2 -20788.1 48758.2 3789.05 -30881.7 
-57950.4 -84943.3 -58819.1 -12533.7 45320.9 -23698.8 14505.9 25237.2 -42130.2 
-33718.3 -16493.5 -51269.1 -90876.8 -16487.7 -34321.4 -13288.4 5594.5 93110.1 
-151137 130261 810069 35649.8 -104326 747157 1432480 1702550 28437.9 
1368370 -1159400 -167753 -868342 -315856 -688923 -1244570 -1829790 970839 
-1645920 -807558 -531157 -783913 24460.9 3892.33 22182 5553.45 -11775.8 
21240.9 -13002.8 14287.2 11345.4 25096.8 28583.9 -46844.2 -29278.1 -4024.13 
-60711 16013.7 -62787.4 18776.4 3029.84 -25027 -3122.82 -46939.5 86291 
-16707.1 -14056.7 -15376.2 -31982.2 -17276.1 -1305.8 1710.78 13749.9 1210.37 
-10798.1 56601 38847.3 30362.2 5887.3 21176.3 5862 -3793.31 13695.9 
14156.6 10744.6 20642.5 167653 140567 41759.4 -24686.4 -30830.1 8660.72 
149960 -36927.3 198897 -9452.1 -77784.9 -901391 -4021.83 1421610 662921 
558744 261043 215344 2514.51 -15020.8 -57822.8 28747.6 58123.4 -36729.1 
-71190.6 -15600 -47193.6 -52097.3 -2999.68 35825.9 -5043.39 -10390.6 -31478.3 
-25760.3 -20109.6 42195.1 59645.2 50824.6 29634.8 12655.4 47382 2868.88 
21760.5 -982.993 36130.6 1255 6750.05 5567.51 -39679.7 -29954.6 15242.7 
-4995.07 -25351.2 3361.14 -7588.96 31578.2 -319156 -1539690 -2001280 566136 
1527200 1561550 2391490 -2338540 -1493680 21641.5 -33776.6 73360.8 -65958.8 
-23082.4 -57873.8 -10475.8 40865.2 35569.9 18593.7 11175.3 -12867.7 -22830.2 
-6435.96 19348.4 10816.7 11101.7 25307.7 32001.2 35133.6 20096.1 1963.73 
-29694.1 42922.4 24251 24912.4 -16886.7 20647.1 -48601.1 -4525530 -10409600 
3237700 2179600 -2729210 -1490490 -2181420 998158 -1761700 44650.1 -58717 
-97492 -40507.3 -12778.1 -91660.6 -10387.3 6811.03 34089.6 -60968.5 -50507.2 
-54527.7 25623.6 -59560.8 -114960 16309.9 -209305 -88919.5 -129917 -82001.4 
-264502 -140122 -108951 -17811.1 -99435.2 -200063 77669.7 325512 211121 
267 132094 63956.7 -64558.3 -68298 -167582 -48760.7 36240.5 -184646 
-238698 -275967 -26186 -68517.5 -141540 -18967.6 -26167.3 36485.9 39795 
-20382.4 67447.7 18825.9 28543.8 -34889.8 3400.47 12018 26142.8 -12652 
40195.2 -23748.8 10195.3 -27086.3 -84146 -38590.8 57617.6 -989624 -882970 
658218 1929390 -872039 -11219.8 -40283.7 58600.1 -13131 1866.93 -6820.97 
12584.1 -13612.2 7245.54 -291396 -155905 -65380.7 -228519 294959 -173457 
-7951.46 12837.9 2048.75 -21435.8 -46665.3 -10883.2 4824.51 -129128 67419.2 
-5892.52 111131 63605.6 25152.9 65124 15331.9 46901.9 930.866 14765 
15031.4 2189.04 -21895.8 -13661.3 79059.3 -233175 -223919 29427.9 35830.4 
-11883.1 -2147150 479387 -104463 -519190 -21851100 22421800 18512700 7420360 
13269200 23047300 10400900 -292705 -566813 379975 -9915.68 805130 -171672 
-161006 -288829 163029 276433 -24455.8 129489 -336878 622219 -3120160 
-292399 -7566570 -10993100 -9025630 -467968 27659200 -13952700 22122500 22428 
-922351 532284 296890 -545287 1325550 -3240850 -1377920 -24656800 -10330800 
24555300 8637780 -14357.1 -28785.1 -26682.6 10796.8 -1058.66 -3512.34 29425 
2369.9 -32543.9 12734.3 -9553.58 12750.1 -1491.15 -10856.5 -17021.2 -7253.64 
-33760 -23003.1 -8975.84 5368.66 -10551.3 -65082.2 12688.6 37858.9 -2499.15 
5024.83 -94991.2 -20661 25558.3 -14272.3 4565.91 1735.1 -51789.8 -23619.3 
-3374.68 -24093.7 -49959.6 -8736.83 -6673.52 -39007.4 -6548.95 33229.5 -14224.8 
17802.7 70579.8 10309.2 -10994.4 -28821 -25808.5 -4911.54 -17071.6 42443.1 
-8407.03 -3528.03 75942.9 -18828.3 8155.67 -15751.1 14434.3 -557869 -326848 
13379.1 -29987.8 -13444.4 11455.7 -9952.95 -19874.6 -5695.66 3600.25 -4875.85 
-575.131 -17321.5 -20069.3 979.211 -7949.25 -21546.9 3431.39 -697523 -137804 
16171.9 -38311.2 -462620 -280273 154882 -252620 -380198 -27205.7 288874 
53689 -513317 64544.1 -198141 112705 89450.7 36835.6 107601 -189510 
100272 36483.7 11884.4 126745 -14620.1 28140 6294.18 -169959 23197.5 
-74754.1 41979.2 5489.84 469.476 75587.3 -37443.5 22336.4 30603.8 23775 
8264.01 -42523.3 31464.9 -14989.6 -58257.7 28441.4 -4801.84 10711.5 9329.42 
-36417.3 9515.7 -1768.31 7439.81 -5392.51 -6010.95 -12419.8 -11547.7 -8503.79 
-3890.46 -15075.9 10915.4 21538.7 23484.3 7321.63 -15185.8 7493.59 -2986.72 
-24413.3 5443.63 -15369.5 -25555.3 -26342.6 -26375.9 4041420 -6403.9 -18074.2 
3549.51 -2757.86 -975.297 21328.1 -9900.42 4397.31 7559360 6236920 14984.2 
-135464 -1283.03 668.703 2882.02 3793.59 -17995.1 -23392.5 -1492.1 -10678.1 
-11214.2 -13011.6 14442.1 6304.27 7251.07 -2388.62 4448.49 5446.36 2451030 
-43231.4 -874711 4552810 2063130 -6238.65 2872.89 -48952.1 -42411.5 -37860 
-84582.7 138450 -6140.48 -21092.7 -31385.9 21189.4 23502.1 27874.2 15472.1 
-123448 47941.4 76009.4 -57015.3 31672.2 -6250.13 -30410.5 -2795150 3343020 
104176 -290967 -14975.6 20938.3 -34894 -5023.52 43544.2 15387 1373450 
-666070 -325769 6948.28 187018 14431.6 154193 43202.2 23251.7 31750.6 
-26815.6 -28446.3 -3760.77 8913.76 13599 42263 11979.1 58317.9 6750.01 
5018.28 19683 -12176.3 -24139.3 -2789.31 11279.2 -7305.35 8632.03 -5448.66 
4888.7 21995.4 -3151220 4249110 -287724 -195699 -7495410 3469.8 -21502.8 
-5030.77 26725.8 -3261.4 -17544.2 -13605.9 -8029.87 9128.36 4044.76 -16432 
60540.7 -108672 16661.5 3554.19 30712.2 13083.6 27622.8 884.631 -824.583 
3370.92 -45075.7 3777.57 -10039.5 -6591.48 -5789.91 895.705 106748 47930.8 
1920.18 51797.7 71681.6 16485.2 13038.2 -152485 -154197 2013770 3583620 
337061 665278 201558 3367690 10397.7 12455.8 -33485.8 24051.4 8347.23 
68605.3 51797.8 69254.7 41815.9 45483.1 -915.171 -5519.62 -1991.04 3120380 
165340 -1869110 899300 82583.1 41975.7 136393 -4433.48 -18841.1 -55817.2 
-47085.9 -2894.53 228.083 -335.127 -9633.85 -10068.3 311571 -585577 -20407.8 
7061.8 4173.78 -7871.5 -10293.1 -2838.16 -5329.46 -9987.8 -37964.6 -1684.1 
-32007.2 141969 127446 57112.6 91931.1 19602.1 -11414.9 995.364 52514.2 
-2020390 -2799890 -757219 -5505340 -105801 -5465440 -7195960 -3037510 -2487490 
5763.69 12014.7 43067.6 25063 2526.94 -4368.94 -17160.7 -10281.7 21111.2 
5666.09 -5034870 -4098870 -6401670 1127850 258898 36123.5 57008 39671.7 
2105.48 22506.7 22090.9 9065 -7899.33 1310.46 1091.55 8556.24 -106716 
-385981 -175743 -10547.2 46920.1 7300.2 124454 12577.1 -202373 -7495.03 
53960 -1185.39 46091.8 4326.71 77811.8 -35119.9 -20507.8 -25215.7 -57078.2 
-28615.4 -13799.8 -23270.9 -13752.4 -2382.47 -17817.2 -9406.05 -3752.11 -5170.09 
5770.33 15457.4 -6246.17 -16156.9 11795.7 -24900.7 -19337.3 13132.1 16724 
6175.69 -19415.7 9062.74 8088.99 52637.8 42416.9 -3213860 16420.4 -16603.3 
-18591 -13725.9 103.71 44811.8 18662.5 10087.7 131210 -4174.21 6518.88 
6517.65 -5346.45 -10770.5 76496 1459.74 -23753 33311.2 20244.3 -44228.2 
-63664 -14519.5 -13280.9 644.761 1856380 2850340 269328 1678.14 -123819 
132728 20956.4 -24195.3 -14108.8 -9644.35 1724.32 -4691.85 -9810.01 -12206.3 
18299.4 15907.3 24491.9 -2817.18 318.387 11497.5 3127.23 -2620.69 12213.7 
993014 1071330 -1503830 -3213.75 -12394.1 15415.2 -36010.3 -3177.38 27639.1 
388.46 -28671.6 18511.5 -4045.95 -4491.26 -8924.6 -1429.6 -10961.1 29761.6 
17704.2 2199.49 71609.3 68130.4 84626.9 -158290 -52102.1 -22187 19498.1 
7013.54 17536.7 -8962.92 -359784 -12320.7 -20114.1 -15443.5 6983.73 19221.2 
9724.79 14866.7 1010.29 -166806 -304938 -438190 -334065 -7956.64 -2840.76 
29722 -209733 -1357.7 105435 28592.5 -15692.4 -1496020 -280922 -22115.4 
42331.4 8709.15 -672.149 18796.1 1686.92 -1225200 3875580 -1828500 -4034120 
3056.9 -4236.98 -19676.5 81431.9 58816 44982.6 21597.2 26544 889363 
-1128460 2548310 -12619.4 4586.78 7936.21 -1535.79 11827.3 -14415.9 -663.818 
-2735.1 -23762.7 2862.17 -11982.3 3718.75 17297.1 31209.8 -570.238 -42889.7 
-12115.8 -7103.4 1742.71 -15981.2 -7495.79 -82342.2 75824.5 61597.2 -8435.93 
-3046.61 2254670 -3543130 49665.9 -15911.5 44091 40976.6 52823.5 -1292.21 
7678.57 -1281.77 -28439.6 -215597 -1276380 -25611 35444.9 -4469.28 52898.5 
45478 -125942 134474 669.403 9278.86 10066.7 -5478090 39321.8 -36253.7 
19523.6 3765170 1675260 6757860 1755830 6333610 22214 -8612.44 -1979190 
-4051240 116536 -7594.4 -45833.4 -177556 25547.8 -7895 424.037 130139 
-4688.4 5773.2 9127.71 -17302.9 -677517 -474897 -301677 28238 14916.3 
20113.7 19573.8 26440.3 26584.6 13562.7 14016.9 -61613 3834780 -159716 
33865.5 -16959.3 44081.9 -36353.3 18653.9 650.483 16673.4 -2255.04 -20281.3 
-2709.03 -155975 -566690 -22481 -16506.8 -12144.9 -3935.97 27655.1 55847.4 
-66194 -704857 -1041740 -1198430 50542.7 7028.66 -1718.01 21703.2 -21036 
-27542 24253.7 -13062.9 26299.4 5478.28 13388.2 -12244.3 -2394.74 -1508.88 
1920.6 350.397 -7366.77 -21909 9425.8 40167 -9166.79 -2164.16 10072 
-21172.9 -29115.4 16876.7 -23015.6 55.0694 6343.67 -1698590 -1521920 178257 
-1652770 -5007.38 -126.15 39859.7 2931.63 46932.2 -3599510 -1527330 -1361180 
5181.84 18145.2 -4905750 9154.25 16015.2 19698.9 -22153.9 -24347.9 4891.49 
1236.51 23134.3 -14183.2 -36671 178.715 -10347.6 28940.2 64979.7 30194 
-529234 -391589 -6769.02 -13173.4 28682.9 4912.87 17903.2 -15301 -180196 
27003.3 81604.4 23189 -19622 4385150 6578930 2811070 -7101.55 9209.66 
38303.2 -4040.71 47176.4 32098.6 11451.3 -113532 -232999 -112034 -119660 
14779.7 -3515.36 -8590.05 60235.4 11826.5 919.972 -22588.5 -15485.3 -26008.3 
8573.47 -4150450 15169 11579.4 16201 450.111 24170.6 30267.1 59860.3 
-5879.45 -101081 -37183 -40559.2 -134915 -9709.9 -16986.3 -15275 -122600 
-2279.48 6809.84 4598.43 4228.36 -12582.1 12076.2 -5508.11 15597.1 -31082.8 
6429.64 -15793.2 -7644.51 3046310 6570240 3082950 8263.16 5706.38 56519.2 
-1570.68 -2029.92 150156 22638.2 -23215.6 -9321.81 13526.8 5548550 4165120 
2175130 -7050.42 6420.82 -711.459 14551.1 -808.685 5987.14 -43613.7 -30532.9 
19845.6 38748.8 -35139.5 -32927.5 -5501800 4564.67 -6489.92 -16560.5 -20967.4 
-12250.1 685.861 -12841.7 -15395.4 11987.5 -860898 -7490.08 -19111.2 -23594.5 
-16738.7 15715.6 -20009.3 -3492.61 8949.67 10824.2 -34696.8 -2867.58 -24573.1 
-4930080 -7823870 -7409100 -5699630 -210.315 4024580 -11395.5 -12921.3 -24197 
3229.5 1099.01 -514.814 -37911.2 20751.3 4904480 5142700 30399.1 20047.2 
30032.3 -3680.65 19407.3 -225020 -10928.1 15528.2 659.345 -1016300 -9810.31 
35297.7 -56539.2 52560.3 -455036 -66192.3 23196 -5480.01 -6012.28 3633.08 
-13204.6 -2323270 -602266 56787.1 -12781.2 60901.2 36444.5 7744.5 16957.4 
37293.8 -22970.3 -23000.3 -5790 -12155.1 -13006.7 -126475 -1399.2 -1730600 
-1476490 -550253 -66102.3 -80101.3 7205.13 47936.7 -744633 682.937 -284.577 
3370.14 -8070280 4042190 -11847300 -6299090 2592.74 2123.02 39402.2 16724.4 
30897.5 6189.45 5199450 5426850 7309240 5144.26 143004 53025.6 5861.79 
16962 29367 8481.11 16359 -11827.8 -27097.2 49677.8 -12722.8 57889.9 
-11354.4 -360531 4341200 -17810.2 13998.1 -4755.85 -30288.6 8584.18 -13082.2 
5529.79 7377.7 11119.5 44829.7 -4446830 -4211660 9815.15 -212844 -11898.7 
-68173.9 -49597 7791.58 -12048.5 -516.515 20474.6 -4736.83 1499140 -22095.1 
28970.6 19551.2 -10651.7 46263.4 -44554.6 -48907.5 -34483.8 -1178190 -1158740 
-994063 3043.19 109862 286814 -251583 18900.8 26688.2 -33087.2 48684.9 
71919.4 -24281.7 55538.3 31246.8 -591643 -14043.7 159350 -1236.79 8999.69 
363.497 14930.1 -183360 -1928210 914.867 -6516.95 -11688.4 -8516.2 -2782.59 
-19506.7 62960.5 -16650.2 -35075.8 25882.3 -540842 2656580 -1149070 1217080 
1772.25 -7494.29 -17247800 -4868420 38555.2 84692 -10196.1 8896.83 -4806.48 
-5830450 8739.22 35294 5903550 5141.27 25008.4 15086.1 739.776 -11481.2 
-35932.9 40700.6 -28819.9 18042.3 3716.88 660.528 9508.76 13808.4 9877.14 
1958840 37080 38246.3 99225.3 171429 89017.3 -98873.2 132654 11503.4 
4445.98 13591.9 -35325.3 5413.62 -7747.66 25596.7 -1933.44 -7656.63 33322.6 
-5809880 -2475170 -1412380 -794572 -2104290 2295.83 -140059 -48331.2 8374.73 
-15427.4 -9823.4 -33341.3 19121.8 -9187.06 -460603 -6633.45 -1041.83 -212803 
2225.1 23375.8 -5780.75 -2664810 -3743.44 -173370 15471400 11420200 10162.3 
39614.7 521.054 -23300.9 -13860.2 -43346.9 -1625.92 22848.1 -369892 -3021.13 
-8645.09 13733.5 -1288.52 -490.859 6618160 3271080 5683910 7621820 6150620 
4994.29 -6714.14 10150 -2917.1 2539.13 -11584.8 -1750430 5312350 4826060 
987865 425292 3679030 -2992670 -3599700 -1641660 -1889.68 -39275.4 -13170.9 
699.399 -9915.79 12634.2 -5078.59 -11535.1 6675350 1926910 5232650 -21430.5 
-3198.45 -24891.6 13997.2 -233406 -258339 -285700 -833226 -615445 12454 
5411.73 3393.81 13906 -3424.99 -21453.1 -654671 -446436 -559345 12992.5 
20654.7 -20106 -356974 1818.04 1614.27 41757.5 22571.9 -71922.1 -13102.6 
4668.34 6334.24 4586330 -15566.9 -45649.1 -1101990 300071 23242.7 37137.7 
-615306 29031.6 16890.1 32221.5 -24127.3 13485 52170.7 56734.7 3625570 
3144280 3198340 1985210 -88041.4 -313584 -637875 -1051150 16475.3 54.059 
-211.372 -4558.47 18767.4 -21876.5 -678714 -3441070 -925962 -251.324 -18185.1 
-3959.35 -148245 -76930.6 37711.1 -809166 761696 -1539390 -5144.69 -50831.4 
29428.6 -14674.9 -248694 -277017 -477690 5045070 -21964.5 -7155.66 -231852 
120966 8985.12 -19385.7 -56104.6 -16772.1 71042.2 -4110220 5370690 6567350 
1931120 88634.4 30552.3 -669818 815677 1610400 2958110 -2403170 -2702390 
-1237120 -7286.19 -3199.32 1503200 1937440 5078160 4461040 3822600 6361010 
4432500 -2238.29 -25441.4 -5227830 -5664120 -4285210 22863.9 -1400150 -3137590 
15714.8 -16363.4 8461600 -52.0996 -6545.82 19490.6 -7043.52 -23132.5 42235 
134765 124821 -45597.3 -779962 2614 17661300 17752400 11080400 40936 
-1070350 -3870460 -2778850 -1366950 -3818.84 -3166.83 -6356830 -3099160 -12546.2 
-4395.27 -2294480 -377125 -2709290 15958.2 -39645 -116060 -3454910 -85909.6 
5920810 14393400 -9237.69 -24038.9 -908606 6768210 19250 -13723.6 -9725.6 
-84216.9 -58874.6 -101734 -126349 10517700 16397.9 -390194 28021.2 -14953.1 
9362.02 -9264.34 3733380 3968650 -6704.68 31331.8 15493.4 -6611.75 7840760 
9703.06 -650310 69815.4 64612 -2053130 -7110.8 -3077.5 -8991.54 -93062.8 
-285.648 658015 2587460 -37855.8 15789.7 2799940 32590.9 -986860 -133906 
48989.9 -19069.7 -41849.4 14277.7 -5428350 -1476.43 18695.1 546.457 -9527.4 
6495.25 11674.2 45864.2 3443.27 9429.57 -109327 7972.75 -1758.08 -16958.7 
21580.8 -4266.57 -501780 9665220 -570581 10829.3 93669.8 1067.16 -35597.5 
-20075.7 10716.7 8673.65 -18432.4 -43436.9 -1007.48 12478.6 -148793 13456 
10451.1 18674 -8823.7 -30429.5 -27503.4 -678854 263484 32630.6 
Stress%20yy%20component 1 3545 double
-16769100 4151520 -1508580 5880920 -111182 52621900 -234248000 -87505.8 53034800 
-242361000 384150 54212100 102365000 64537800 -25982800 -16059400 87775300 81611700 
25987500 -1826220 80668700 40518200 2926390 -10704200 26253100 31132500 9087820 
-7764180 -12460500 -8787540 4460880 2958330 162752 -7413280 3657450 220258 
4363900 39635.5 160843 179914 -82174 19661.3 70612.7 -196539 -124934 
-139146 -223367 -51678.6 70205 8311270 5416840 3461940 -22106600 -4565700 
4868960 2039950 3046920 -580448 335615 76135.6 -22464.9 -8184.08 -180511 
-105007 -219971 -226633 -187352 -175156 -53118.5 51188200 47045400 40602800 
32275300 23125600 14129100 6284280 1029630 -877899 52302600 49458800 43915000 
36648700 27725900 18598000 9908100 3477630 -243785 -527802 -114359000 -53181600 
-18592600 1609290 13190200 20284000 24129400 26070800 27078800 27922100 29127700 
31493500 35396000 41863000 -168842000 -82013400 -33956500 -7772660 8222250 16875500 
22482400 25217900 26750100 27516300 28523200 30180600 33258400 38527800 47123900 
-212441000 -154200000 -83673300 -22669200 8608810 39056500 18489300 -232047000 -187828000 
-120500000 -52658900 -3739440 29343800 57612200 -40448900 2227240 -6272190 5492.9 
-556908 1280230 -1081960 1817960 -440812 85176.7 137656 2645.86 15650 
-31861.3 -84653.7 -30099.7 -117815 -103558 -87768.3 -9293.41 5366760 2837040 
-599858 -11114800 -1537390 2455890 1829500 1374040 -699903 394077 111082 
-15445.1 -73559.6 -124926 -81347.9 -177639 -209544 -221707 -161302 -71526.6 
59710.2 51563300 47418600 40832000 32371700 23124400 13951300 5989360 647460 
-1028910 52688000 49762400 44267900 36803100 27788800 18494700 9722690 3110410 
-532039 -589082 -120855000 -54878000 -20805700 108921 12652500 19855400 23603000 
25816100 26936900 27833400 29145200 31466300 35447100 42265400 -175800000 -85341400 
-35742500 -9238440 7277180 16307100 21931700 24829400 26518200 27382700 28485000 
30225800 33329200 38696100 47513400 -220160000 -161320000 -83935600 -25822000 6560550 
11597400 15306300 -239238000 -193538000 -127367000 -53698800 -7644160 9498800 22778800 
-7077770 -246507000 53095400 -3467340 33780000 62907900 42261000 24800000 42044400 
43354000 -1768730 -3689650 2484.49 17876800 -10877400 67400500 50722600 34831000 
72834900 79702900 74122200 54373200 67687100 57605800 29884100 53382600 48384500 
36190600 19439100 -4328510 12104100 5019690 -11709100 14714300 -14725700 2674140 
14162200 25416000 8817000 -19692900 -33771700 -12923200 22940300 4358710 4304150 
-43666300 19140500 -3356440 10759400 3146600 19796700 -4426950 26644700 2624650 
3487980 35188000 -25190500 5921020 1194760 22799700 14957100 21336100 -17022400 
-5103990 28332900 11699200 8345120 -12696200 848578 17933100 -15194400 -68175400 
-25717800 -68435700 7331300 18361500 -4264900 -23641100 -190619 30050300 1916370 
-38305100 26386300 1572780 -11185300 -19004500 -16131600 23750700 21106.3 29329800 
21563600 9423350 18421400 7480620 10094500 -29528800 24851600 14047700 -9230340 
7163260 588784 26093100 5763960 -1374450 9608470 -59102600 13960200 35691500 
7007970 18422300 -2058190 -41338400 17456100 40421100 1446390 11327600 17255100 
-40926100 7349090 795425 3351820 22334100 18316200 23805200 21397500 24503200 
-3603090 495846 12508400 7984250 29316300 -7324630 -22333200 -22889400 6241280 
27939500 -31826700 442941 11658100 4377460 -11334300 33461400 1148130 15777900 
10851000 19014700 279066 -27101900 28936100 195907 -10563600 -106884000 23182500 
-20597500 21410500 41689600 -37065400 -10556400 2476660 27290400 5249140 4699010 
16190000 -18957300 -4356730 -125725000 -58341500 -405424 -10051900 24806000 -37012400 
-3510380 6210950 32156200 11659600 533788 -22984000 29074000 13329400 14681900 
34522300 -91331600 14693000 -32317800 24352600 12691700 -1043840 -1021820 -18467300 
18776100 16435500 -4563300 -802236 -1570330 5327100 -77601200 -8326670 -6820700 
11429000 40384500 3483480 8381470 18456900 30137600 -5621320 190407 -29652000 
6528440 -6768220 21121100 3059480 20205100 18392700 1589880 -35120900 -1328830 
-8328060 -44003100 -53078400 -5194560 879775 10937500 24952300 27314900 -21148500 
-1543650 -13533900 269447 9221110 18594100 2433360 -40623900 37249500 455263 
-19334.4 25654000 45751500 246026 -9733280 -2069000 9399620 -11749500 55317700 
18544100 7924410 40521.3 -135756 189361 49002700 43805700 48505100 -122999000 
-175188000 -165938000 13308900 14727700 -24211100 40712600 69883500 15929700 80790500 
66624200 11079400 24325500 -64972500 -93962400 -102606000 -20114600 -35709400 -58635300 
-47664300 -30517200 -1474940 -11057600 -12332500 10435900 4552470 1953060 18377800 
14788600 12006400 23186700 21374500 19481200 25483700 24439600 23596200 26571900 
26053300 25554100 27578300 27202600 26701900 28472900 27953800 27627500 30155000 
29139200 28619900 34479700 32361800 31768400 30878800 29517700 39420700 36278000 
35349200 41403200 -152884000 -128623000 -120716000 -120219000 -88759700 -103391000 -58480800 
-32491800 -73669200 -70558300 -53296700 -23489900 -4607700 -34072400 8663930 31263300 
-9083300 38240700 64699500 37313000 57229500 43590800 45519400 40634800 45510500 
42860100 37960600 40948500 38254700 32235000 36124300 34069600 24141200 28325700 
28277200 15904400 20089500 21013000 9181370 12856500 14537300 4421940 6956460 
9204150 1356170 2466320 5035820 2376710 409076 780406 17099300 1483510 
17515400 -2369460 -13994700 -5377480 -3934110 -17315000 -31484500 987183 8873250 
-26582400 -1314420 2747360 12148700 10587700 17308000 6021000 7543000 18783800 
412964 -397424 6932970 2149390 85089.6 442411 -628568 -616000 -1069080 
-226069 -123938 -1062820 -676829 -1887130 -67720.4 129269 -54722.2 20765.3 
142687 173064 98116.6 118103 296950 290413 284222 45998.1 193880 
543626 148737 265790 282696 188564 277648 319533 522164 429017 
1489260 760290 1163290 259666 194432 704505 254132 -18031000 -16050200 
-14113300 -10821300 -13287200 -6807670 -7617530 -8052030 -3979540 -16389200 -11508800 
-7738960 10488700 12955800 12054900 13712000 10844700 15311100 17052300 16592500 
18486400 16515000 14971800 16062800 17970300 13619600 -21880500 -22587300 -17530300 
-13773600 -10504300 -28576700 -22594600 -13837900 -21521200 18346700 114730 1633790 
7092160 696794 1783470 3212380 4088830 6111010 4404610 1648780 -215031 
578258 -585280 3213940 2102580 4763030 10914200 8625510 12437600 14366500 
16115400 8728450 11858100 14576700 12107500 18514900 16383000 16731100 21497700 
23367300 23556300 25508100 23550100 22995000 24965500 25827700 26359600 27785800 
29646000 27379100 27486600 28778200 9886690 12349300 11339100 12725000 10108900 
6645980 7043300 8454630 9688120 8526110 7465350 5755310 -620972 29750400 
6714270 15349000 -6700770 -12204900 14188100 -30208300 -36156300 -44867500 -45561300 
-40389200 -49078700 -45845700 -38162300 -27791200 -32187200 -35467000 -27303500 -25962800 
-21230300 -47457600 -12055700 -14539100 -16143700 -19222200 -15597000 -7948680 -9787510 
-11071100 -13516000 -11385600 -9553860 -9158290 -16052100 -7006530 22455300 22005600 
23400800 23989500 24352200 22915200 23625000 22244700 21605300 20762000 24679800 
20660800 5400290 5518270 4424150 3276860 3394100 3806990 4924520 3349150 
2459740 5890730 10363200 8764900 5834670 1530240 3101630 11355900 7616720 
4657400 1568400 -2979140 -473299 -3498020 -57643800 -48069600 -50540900 -42737700 
-48271100 -36183300 -37839500 -43584900 -47559200 -34149800 -38923400 -38030500 18252200 
21885900 21210600 24012000 16940200 14303000 16463000 16226600 18789500 15954500 
20737100 -1299730 -2267610 -2581110 -4464630 -3440100 -4204050 -5079700 -2793880 
-2252340 -1742480 -1288340 -6309640 7586200 10434000 8314670 8376030 12683400 
13150400 11088000 10255500 10063300 15434900 7696890 6431940 4575780 1715460 
5100440 2497300 4419770 -1417490 -294152 -1153440 17338100 22629600 24830500 
24810500 27837800 19538700 24009000 13867800 -1525210 16542800 16852100 7138650 
-6502390 9802450 28963200 11558300 13618900 7805620 -14137000 -25828900 -18447900 
-21902200 28643100 26901900 28225000 27874300 27089700 27332100 26549700 25789100 
25710400 25720900 24242700 25233100 1526410 1102050 2037290 2818850 3630670 
5239250 4341990 4678210 2724970 1656500 1755170 2304190 2767260 3569020 
4443580 5634680 7605170 5309990 3368210 2579180 983384 1827970 32474700 
32160500 35465300 37919200 37702800 36491200 38874800 32633900 31874000 34312100 
-26739500 -22603800 -21976900 -23277100 -20633700 -17722800 -26252000 -28238300 -29949400 
-30717600 9549830 1847440 -917478 -3982860 15579900 19346600 -777857 -9396020 
165658 1143720 543265 603880 111014 1794200 1577480 1016070 715211 
2181740 3032650 23796300 24512400 25260800 23638600 20474100 20298800 22610100 
20755900 22103800 20066900 12933800 14476700 16670000 13661200 16273200 17991400 
16773600 11738700 18478200 21464300 19360200 19398700 19779200 22818600 22575700 
21336100 19773300 -28061400 -31128800 5184980 8786670 -40321600 -33426100 -22922800 
-11766200 10087000 -2310780 -3024420 -5510680 -4499770 -7533770 -7468430 -9941640 
-7674900 25612500 26702400 30311800 28860200 31843800 26981400 24505500 9856370 
9443620 11523000 14349100 13230600 11571000 13034300 10470200 8947580 7380370 
8008920 9506730 6315450 7382950 -17074200 61067700 27092500 20568000 -9732570 
-21568600 -20392700 -18721300 19316200 4144040 5437810 -53636.4 1344520 -6408340 
-4999100 -1948410 -1620210 18145900 20225300 16923900 15607700 15343400 14310200 
-25963100 -39311700 -27041400 -18247900 -17430200 -9868070 -11897800 -2859030 -8205310 
-9658090 -52717200 -53750400 -74405600 -96249000 -86553200 -64926000 -81577600 -28970900 
-33160500 -24719600 -22681700 -18435500 -16458200 -81821800 -64492200 -60007100 -63202400 
-53913100 -85601700 9283930 8372180 7345800 6363460 8281320 6849470 5259630 
4210270 18658400 19867800 19256300 16498800 17108700 18013000 -5581040 -3133570 
-2738340 -4039160 -5757530 -2827820 -17318800 -29899400 -10904600 -28452300 -33621700 
-437116 -105304 -179326 -782259 -778795 -337018 29944000 2645360 4154350 
-42289700 -48766100 -39128600 -33824400 -31464000 -36076200 25324500 26256000 26898600 
836845 1007980 1388270 2083100 -16928200 -11180000 -6133700 -14878700 -8287340 
-12815500 -14805400 -11569200 -2982900 20054800 22335200 20080000 19972300 19302600 
19722100 -33033500 -29607500 -35077500 -7463340 -9655580 -1435800 -23692.1 -6573020 
2236420 2208310 801995 -2634770 -1278570 -2168140 -189399 267120 108605 
5949.21 -127767 -51928.4 -8898.01 -121403 -302420 -214109 -191434 2012960 
-567044 2591900 4024780 -64546.9 -67843 57502.9 28341 -3731780 -1958300 
2645090 804893 -2102230 7161920 -169279 2217830 -2251940 -970331 5337110 
5271900 8731570 -13153300 -1220800 -4094420 -1644510 -332487 2884490 -1486960 
1782040 2310780 1944870 -821681 383827 -805385 652972 476689 305082 
32076.3 1055390 -170349 2762680 1883520 -13596.6 -609784 363929 166465 
-636462 257677 403820 -27117.5 185989 340358 81162.7 89674.6 231023 
-37828.7 167918 127729 -114079 110080 -44707.1 -78237.2 -55537.2 -178040 
86358.3 8668.56 -147587 -40182.1 -81811.6 -72064.9 43022.7 -98060.7 1404.7 
-158834 -12629.1 -101827 -117519 -108303 -242150 50089.5 -95564.1 -180781 
-288933 -372142 -101651 -130027 -374464 -129899 -304649 -163205 -236143 
-227082 -63039.3 -140093 -60079.4 -15388.4 -260932 34517.3 -118775 -11646200 
14640800 -17258200 2670210 13940300 25416900 8825350 -21033500 -34885800 -12411300 
22759800 4409010 3746720 -43454400 19178300 -3279230 10639900 3028400 -12957400 
-21043400 26673400 2764020 3498060 35345300 -25123500 -13248300 1194850 22439700 
14958800 21288200 -8928810 -4930350 28474000 11686100 8390370 2419420 690719 
17484700 -16041500 -72243500 -26068300 -68210100 7263640 18157100 -4423550 3510830 
-61120.9 30036400 2056250 -36953600 26234600 1602460 -11544300 -19029300 -15657400 
-22097500 -4344680 -17659500 21586300 9385950 18320500 6755960 9907260 -29090300 
24778600 -7507720 -8801620 8300830 759822 25893700 5687110 -1472960 9511490 
-58771300 13951800 35918200 6953390 -12136200 -2107470 -41516600 17440300 40566200 
1391520 11385300 17252600 -42913900 7220000 725394 3459610 22036300 17843900 
23708800 21250200 24456100 -3765310 527487 12519400 7969090 29274500 2793410 
7208260 -24809800 6265330 27864500 -31711600 525120 -7902380 4495550 -11739500 
33639400 1155360 15680800 10863400 -27533600 -17652000 -26017400 -4112050 174635 
-20586300 -108374000 23207500 -20267700 21422500 -50933700 7889250 -13607200 2400920 
27284400 5357260 31909100 15580700 -20029400 -5357210 -129785000 -59180100 -360176 
-9994390 24508100 -37687200 -25856400 6144500 32137000 11384600 653242 -22749900 
29028000 35022400 14748800 4249030 -93671000 14512100 388597 24131700 12074500 
-1032950 -1604450 -17853500 18536400 -15480500 -4724650 -2289710 -2238390 5353750 
-80096500 -13624800 -7671780 11411300 40885600 3183280 -8528100 18429600 30184800 
-5645030 292092 -30534500 6562340 -6599950 21088400 3212820 20096100 18324900 
1299880 -34491900 -1383090 9108980 -43773700 -53181200 -6131030 -13147100 -11048700 
24853600 27156600 -22117900 -1605840 -13252700 252488 9173520 18551900 2545470 
-39201300 37500900 517465 -104663 25721900 45957100 306549 -9582400 3799720 
1657760 -3867220 23862400 12286600 31623200 -214875 66719.7 164848 49370400 
48842400 44073500 -172320000 -180882000 -126333000 -131726000 -156125000 -124455000 -90371700 
-123847000 -103632000 -33881000 -59796600 -71096000 -74993700 -52732800 -7181630 -23360600 
-34183300 6033540 -2483270 -17998500 -15166100 -44521900 -19105300 10038600 45894100 
43910800 45789200 40786400 43210500 41149900 38158300 38427400 36352800 32363700 
34285200 28412600 24110200 28320600 20158600 15822400 21007800 12695400 8860080 
14444000 6817530 4250850 8969900 2131290 1095740 4799790 279971 2291550 
754666 34834900 43107200 -16680700 13688900 29390200 24150600 9546000 17457200 
-1137850 -12385300 -11428500 -175723 8494320 21156800 -9629740 -5625800 -563865 
4651980 -1884490 -4516580 1508450 6194570 -6114770 -11102000 -9341370 -5671310 
-10062100 -1706400 -4113760 -1298040 -1474490 -1712130 -2411620 -4765480 -2942340 
-438014 -591515 -703438 -1707190 -95325.4 -199350 -714368 -1038800 -1915350 
84663.6 -79094.6 -145901 126712 56191.4 94909.1 276263 39094.4 327041 
308656 351933 230547 88119.4 588911 329203 199368 365075 410923 
273197 406200 457534 616794 815159 1584810 1256380 204445 235041 
716074 312308 -97327300 -67619800 -103898000 -37271600 -21585700 -49881600 -60258100 
-32148300 -12454400 -2635030 -13548600 3564000 9628560 1057500 14052000 17685100 
11334200 20916900 22791100 19023500 24022500 25159800 23369100 25800200 26389400 
25313400 27052100 27460800 26517800 27848100 28427700 27516000 29106300 30152600 
28514500 32414100 34574500 30933200 31857800 29531000 36443200 39654900 35525200 
41534200 -13940700 -16092600 -17761400 -12920400 -10786200 -7690900 -6896690 -4105810 
-7921740 -11597200 -16380700 -7995090 12045000 12933900 10483000 10914100 13640400 
16544900 16949900 15262500 16408500 18384800 16054900 14977200 17944600 13527700 
-19178800 -22052600 -21619800 -14943000 -16270400 -22811800 -27742900 -24701100 -18786800 
-11103800 -11879900 -14247300 -9750080 -16683900 4014340 3120210 1765100 4434210 
6050100 642006 -248716 1601720 -671697 2069720 3122900 4728140 12117900 
8462130 10545800 15814000 13928400 11601900 8566140 11918800 14375700 16103200 
18252900 16513000 23571700 23355300 21478500 23629900 25546600 24954700 22974100 
26427400 25763100 27397900 29739800 27808700 27511400 28783700 11372900 12346400 
9927870 10109800 12719500 8432290 7091880 6717990 9677260 7465590 8551730 
5825950 -27535100 -16833200 -30425500 -16049800 -22339500 -28902100 -18061500 -12992600 
-16923800 -16781700 -14520800 10348600 -38603500 -46835600 -49625600 -32275500 -28172900 
-27235500 -28574400 -36692800 -21743900 -47823200 -15406300 -15100600 -11964200 -14988800 
-18325300 -10567100 -9521470 -7788580 -10977000 -12958800 -10765100 -9674340 -15671300 
-7135870 23251400 21867600 22385900 24273600 23832000 22074300 23428300 22719400 
20652800 21481400 24565700 20604500 4484770 5569780 5438370 3488250 3474740 
3412140 4941970 3780210 2503070 5944740 5178540 8059880 9651310 2298520 
738233 7140430 10840300 933132 4258350 -1105680 -3797150 -4251670 -49681100 
-48034400 -58043500 -46730500 -42074600 -43537500 -37517000 -36092100 -47539200 -37951300 
-33610600 -36847000 21858900 18176400 23959900 21253600 16468300 14342300 16939000 
18838100 16185500 15929700 20751400 -2434490 -2219320 -1221690 -3569810 -4306990 
-2827610 -4819810 -4174890 -1712470 -2311490 -1314890 -6287580 8170920 10384900 
7495540 8268540 12537600 11094200 13095700 9918780 10286600 15173300 7584740 
4573570 6242430 1664430 4906150 4399200 2243000 -285755 -1351020 -1268820 
-16425900 -8544980 -7246860 -14354700 -5602050 -10141800 -5196470 -17855500 -6672060 
-5271980 -21825700 -16013300 -17371400 -21622100 -15170100 -19226800 -14185400 -18319300 
-21589900 -26214100 -27200000 -25092400 28228300 26918800 28656300 27860500 26483500 
27302700 26937600 25608000 25704400 25164000 24186400 25611200 2172470 1162240 
1627610 3723200 2919690 4454930 5304900 2873200 4797140 1761870 1884410 
2873430 2364630 4456960 3686470 5274750 7496200 5685240 3318340 2547090 
1840260 1075100 35625000 32299400 32510600 38280300 37749900 39061900 36607900 
32770300 34382500 31988600 -21892500 -25559600 -21109400 -20482600 -22924900 -16925600 
-27767500 -25827300 -29511600 -29986500 -4401700 -13289400 -8623840 -10004800 -8295720 
-13748100 -12772600 -13345600 584804 1238450 194200 73789 508614 1083720 
1675490 1746720 758094 2262890 3090990 24238400 23518800 23368400 25043400 
22271000 19909300 20110300 20493000 21822500 19893300 14479100 12923500 16672100 
16261900 13640100 16791300 17911700 11765400 18481800 19304400 19384100 21435500 
19764500 22479200 22824900 21251800 19694200 6689270 -8854940 1432450 1949450 
2616000 12286400 -1669720 -21509100 -11247200 -3062250 -2126500 -5371500 -4469350 
-7377660 -9890520 -7228920 -7476070 26771000 25683600 30402300 32063800 28934000 
27111600 24549500 9366570 9845290 11429700 14351100 13248100 11501800 13054900 
8943350 10502300 7983070 7425630 9544090 7448400 6411340 -31670100 -13974400 
-61346600 -11525900 -36332600 -3390900 12738100 14726100 48130000 5213350 4036350 
-310090 1101530 -5404200 -6734480 -2165360 -1884710 19811100 17621800 16557500 
14834100 15049500 13810900 -29126400 -41049700 -26529300 -19671200 -18386000 -12925000 
-10811200 -11031200 -9058350 -3883780 -56415500 -54537700 -77581000 -89305300 -100235000 
-83388900 -65856300 -33350500 -28878500 -24841300 -22883700 -18728000 -16947800 -65474300 
-82749100 -60409000 -54950400 -63941400 -86761200 8247130 9311900 6341980 7316270 
8208300 5331730 6734530 4378190 19679800 18357500 19133800 16966300 16310100 
17900300 -3335040 -5578040 -2949200 -3653020 -6095860 -5310880 7538890 -14310700 
21519800 213116 -3522750 -133042 -461215 -43149.3 -275319 -810263 -865089 
29946600 4285670 2829890 -47042400 -41673800 -37906600 -30583700 -33607900 -35492300 
26101800 25139400 26740900 1191130 910824 2199250 1549200 -11670600 -17238100 
-6502610 -15514100 -9038900 -12610000 -14347000 -11442200 -5702160 22405900 20016400 
20007300 20083600 19163500 19709400 -32186900 -29644500 -33994900 -7329790 -9302240 
-54608900 -3808530 -123132000 -189924000 -235616000 15528300 14243500 4811450 1680600 
-7468680 32884300 22062300 -238000000 -242395000 -228913000 -231775000 -205808000 -174115000 
-218097000 -105190000 -144506000 -158178000 -42210100 -69277800 -85191700 -14362900 3387880 
-26718500 8784840 28267000 6862860 2452880 11508400 24208100 -13768500 -174418000 
-201218000 -139786000 -103752000 -67588600 -38891800 887324 -13350900 19450300 13489700 
9316280 15169100 52623900 49639300 43954300 36764500 18558500 9734480 3456660 
-486500 28063300 -188889 -233535 -219162 -850469 52929400 52717000 52115900 
-889004 52286900 48931900 50504400 51496700 50344400 42327600 45719300 48749300 
47407500 45527000 34615300 38887900 42239700 40830900 38793400 25419900 30119900 
34622400 32340500 30142000 16105600 20982300 20933300 23164700 25504600 7741110 
11774700 16242100 14004800 11822100 2028040 4702680 7861940 5998040 4885730 
-591750 -309369 2267320 634292 -116398 -1074180 -479087 -168854000 -81273700 
-34467500 -8409320 7737110 16384400 22219200 24955400 26473600 27364200 28389400 
33132200 38358200 46966200 30200900 49672800 49901000 44545300 -203701000 -199153000 
-143171000 44780200 -147020000 -96384900 -68731700 -120198000 -99175300 -42492500 -26805700 
-55321800 -69499800 -43854900 -13258500 -3473150 -20446400 -27975900 -14354700 4798840 
10660000 404962 -4246220 4161600 14721800 18293300 12608400 10217000 14562600 
21384800 23243100 19876400 18187200 21096500 24557800 25604100 23771300 22971100 
24328200 26304700 26771100 25839000 25497000 26163700 27266800 27615100 26934400 
26669500 27221800 28215500 28722600 27882500 27566400 28194500 29733900 30870400 
29165700 28735100 29735400 32347300 34127900 31631700 32330300 30843500 37033100 
39882900 35474800 34156200 37068900 42246600 39980100 -30571600 -37176300 16922000 
3255720 12918000 24311900 -41568500 26419600 611303 -14676000 -22693100 11654000 
-37409500 8415300 15695500 6121200 16414400 12898800 14957500 13910900 13886100 
11934900 10849000 11918500 23841000 22835400 23639600 23510800 24635300 -9491700 
-1052990 -21951700 -8151910 -31863400 24888900 24575500 -33945100 -31786500 -35964200 
-34729500 -34929600 18305000 18645800 17689700 17822500 17410700 -34884900 -35590800 
-56118900 -39999400 -59453100 -54632200 -79517200 18059300 17553400 -5549610 362437 
-68018700 -80882000 -79899900 -1127350 -51450 -841523 -112399 -435878 -2491380 
3816290 63940.7 -4427850 -1316920 -39027500 -42037900 742765 209624 251434 
558722 1187690 774623 276449 1237920 598592 9015800 7668800 7510530 
11525400 10852200 10760100 14509600 14645300 14458800 17960100 22169900 20998500 
24855200 22214900 35717200 29070300 21945900 35369100 32039100 26383000 24247100 
26377200 12616000 30354100 30422900 28346900 32175200 17964800 17238200 -57077800 
-60508600 -52944600 7627910 8295050 9991670 9169200 25183600 25556500 24645000 
34222300 37755300 39837600 37863100 34306900 36204500 34343200 50373.3 150767 
204182 60070 87821.3 147618 10223000 -106448000 -102010000 59273500 62372500 
16468500 336535 -5340520 2901390 24613800 25735500 24813800 5274410 9045430 
-8594360 -10456800 -4083060 -1993190 -47975000 10073200 12774700 11418600 2639560 
-3589920 3353530 1046870 -277541 -140419 -149664 2014050 32428100 558629 
-29753.2 817208 575373 1408290 9262350 8225890 -2657880 -3113700 -128843 
-1052340 -1223480 -2244510 18533900 16759500 18586800 313404 17896.8 -873053 
-2114620 -18206600 -28035100 -19688900 -37439200 -26194200 2502410 5326580 1132390 
-3487430 5396970 -7209530 -7977270 17186700 -5573520 -4780350 -2722520 -12449600 
217687 95060.7 -14437600 -13339600 -11511600 31818400 33396100 31696600 33418200 
33545400 31331100 4320800 -14756800 3191450 -9570580 155280 223287 256561 
-874372 -691956 -1313580 20026700 20031600 953551 242427 -108203000 -120102000 
-92663600 -105686000 881900 138817 767035 -40867300 -12501200 -92473100 -77159400 
-10573700 -3725130 250259 500777 150836 39778200 35818700 44871200 47956600 
45957100 48107900 43048100 41938100 39619500 42057600 8447380 9710030 18990700 
17741700 15890900 19960700 20017700 17643400 17806700 54225.3 -1339240 -450068 
21111300 21968000 23318200 22398700 -11080500 -13084100 -10723600 -2172300 44995800 
40559000 39769200 1384910 4279270 5043930 2425570 -15696300 30206700 29570800 
29479900 29040600 29549600 122762 388017 22149600 19381800 15825500 19194000 
200148 16645200 18450600 16242700 -7151530 -10161800 -4496290 20043000 -74394100 
42541.5 266390 -5583040 5952780 7267320 6573610 7999840 19783100 18365200 
19759700 21269800 -15799100 27315300 25793600 26816200 25484500 26809900 -5754920 
7422880 -1697280 10593300 504006 -10815500 -10027300 -6931590 1783770 1381380 
-5095040 1276640 7364960 16647400 27092400 26802300 27272700 -27996000 146802 
261966 -1810870 44539.7 142534 -27632.2 -102221000 184931 57935.2 15942000 
14699200 16977400 11583500 10449100 46336800 44187100 21987300 22120700 1193180 
1567080 248240 627115 -70357000 -98113600 -123097000 -88900700 16219200 22791700 
23651900 -82202700 -47425500 -54146800 -47530400 14495600 9425910 40517500 -68808700 
-65785600 5314890 11353300 8816890 17959300 -6414440 -4055530 -2413200 -8468400 
-3588380 -5450460 -5629910 114205 276770 397450 121160 -43435500 10159800 
-1599340 1639460 24454800 25553300 26906900 27209600 27318000 13008500 14343700 
23516900 23564900 25549500 25695200 1630380 843714 422614 1208410 445181 
-3341790 -2598850 13964900 31646100 30032400 54385 7245540 8704070 10656900 
11717600 -4793360 2572380 4620220 7542960 6280660 3114960 -12959600 -4263210 
-425492 39102500 37917100 -7046740 -3031140 46466600 -7341120 -43361500 -50306300 
-46611800 -41228700 -41568400 18439300 19677700 23769200 -1526310 4207600 8521800 
23443600 -3436180 -5887640 -8864490 -8540480 -30758800 37817800 37433500 -3781300 
-6237920 11802.2 34159.9 -55506900 -53292900 607111 -637179 -1480440 -31302.4 
-135830 21460000 22133400 813072 -24504000 -22851500 -29292600 3385530 3470590 
4350340 4425920 1591150 2120170 886369 843798 44899200 54222900 -58785100 
3915800 972798 8350300 5249760 8004930 9906530 11559300 6912840 -80321.8 
763203 -105601000 -128331000 21580700 21516300 23562100 -9669660 -12548200 5683050 
-108927000 -29998100 -26697400 -26453000 -31308.2 -68135.8 30370000 213800 19383100 
19376400 21417500 21408600 1176920 4948480 5384220 31954900 28410300 28976500 
30898200 30169300 26270400 25356500 4070310 3032050 5684100 7957440 7547680 
8986060 7407420 7424060 12344000 21299700 20715600 -16674000 -15680900 -13962800 
-17276700 26410100 28760200 1862850 2668710 475493 -2809850 -5066720 -1174840 
24322200 23560100 9117560 -1307520 -1729930 16460900 32438700 35662400 26544700 
18861500 17513300 16944900 40876100 44884300 -336044 -2242090 -7805120 -4718870 
-148733000 -127076000 -8171520 -4045620 21349700 24185700 25052000 25077900 -18851100 
-18088000 -21208300 3355540 3795340 15662200 44697900 17195900 17428000 15727900 
14989900 13870200 9482250 -33228.9 9386240 -37426200 -48242900 -36495000 -37159600 
13961800 9823380 11692700 1755940 2255180 23035000 23342500 32294000 35264200 
29278800 -10496400 15307000 16559600 18345700 16996000 8117700 -1357310 5543940 
13271800 -5545150 -4143130 -3237670 -4396440 36511400 35217000 22554500 -15838600 
-15114600 20133200 20645800 26153000 185702 525999 3107460 3152880 3245930 
1894540 1808200 1822610 -17741100 -12917700 -5604170 1590190 1648420 -1278330 
22835400 24931300 -45308900 -4979560 -2972500 -5019110 -6281960 402444 -2930720 
-3072010 -217210 -94222.8 -64859.7 18244700 21855100 2679400 208943 119229 
-9030140 -10784400 -7429260 -11637700 343068 27517100 27042400 26787800 18227700 
19716300 19956300 18462200 14300700 6180790 -5297290 18816800 40689800 44774300 
25682900 9582450 9566600 8482630 8452410 7377320 48787500 49263200 49109000 
15438200 8697850 36220800 14258100 10323400 -6032440 19202600 7287770 5197640 
4746120 6776090 12950400 9301660 13072100 399421 -10160400 -2307740 19140700 
4364450 3096640 2433410 -86364400 10843800 13709000 12531000 -25164500 -9923620 
-40203100 -36346200 -40043600 -29681300 -11594500 -6347650 -11404900 -7735570 -9563580 
3399330 -14244900 -12067900 10877000 10781200 5211710 655557 23535300 10684600 
13114100 13127700 15863700 13093700 17009900 -39025600 -38085100 5356160 -15532200 
-20860400 -23681600 -39944100 -43612800 6988150 7015310 -16334000 27641600 27897900 
28154500 -20996500 -12879900 14408900 3151780 16425800 2509530 -36202800 12921400 
11350200 13545800 -12830600 -16469800 -23043700 850134 -66159500 -17243100 35170400 
4921470 3364450 3394400 5308310 22768200 -15382500 -17077700 24559100 -146564000 
-163070000 -146477000 -4615970 1645160 -4464100 -9410760 -14142800 3506140 -3649000 
2479890 21898600 5590170 11166300 -8479760 890428 -48076200 -21975300 -22148700 
-26298200 -26653800 -7362240 22404200 10487300 8986640 10519600 -7371530 15037400 
12511200 14999400 -2868680 11986900 -2524850 -7002760 -6421210 -13560800 -12044200 
-15445000 -21895000 -41302400 -44180300 -54478500 -16091200 -11601600 -7438680 -26731200 
-25983600 -22605100 -16581500 -18743200 -159175000 6364970 -36377800 4446740 6676020 
15681900 15757300 -3140240 -15161500 28520600 27890400 27742000 27247600 27198800 
-8879880 11615400 11746900 9418840 12001800 -149622000 2472300 -1724960 -5959350 
17896500 8360880 8244460 7114500 78324.5 -150059 16939800 17077900 16870900 
-19472100 139238 1235900 11564800 2902520 -99514.6 -79308.1 2143020 2045340 
1675040 1741970 3212190 4395230 20737400 23207900 23955500 19229300 27864200 
25098600 -94901.4 8273140 -34340700 -46142300 -49367300 -38764500 -38696500 23504700 
25107400 24233300 12224500 25412700 5350210 4457070 6395510 6352290 7466440 
8303030 -2066210 -1180540 -6839860 -7617060 -64176500 -54239300 -49645300 5320710 
30169400 27797200 7422170 6176820 6165040 -22052200 35390100 -7411070 -81975200 
1823860 3719150 4397840 128053 14672000 -28107600 28866000 -14063100 2518040 
6132090 2210050 38331800 42573800 42446000 10517900 14152500 -18707900 20517600 
27504100 -5414630 28110700 27606900 -19597200 -32175000 -14411800 -14350900 -25730800 
689542 21265900 -27867100 24049300 24008900 25388100 -8819290 4069440 -3530800 
-21918900 -3324320 -10389000 1723600 87293.3 -2373080 -15840500 -27904600 -32608100 
558369 2857250 4718510 4298480 4658700 -16084100 -30456600 -28174000 -6687010 
27023700 26340500 -19238100 -5915590 -7393740 -9946350 -5036130 -12749100 1770320 
12325700 9909590 1439020 36591700 37759500 -14651500 -12272600 -32950300 -31789400 
1135860 -25275500 -18961800 460831 477791 3470220 3291590 -28520900 17216900 
29125900 28740300 -11812600 -12708000 -20515200 -8190010 -46655000 -47355400 -58105600 
-30373800 1163740 1019040 -29788700 7417730 7422460 -11593500 -20476600 -5583460 
6379420 -1102220 -5816370 -26191500 -33185900 -13920700 -24773400 15115400 28650300 
28235300 823674 -22859800 -32360900 -3019620 1374180 -10254500 -999588 22570400 
25975300 -9655940 -7042830 -6780400 -5543360 -4693180 -10997100 7102130 15371100 
15481900 14373300 -33375700 -34384700 -34693800 -9500310 32645100 29766500 -32833100 
-58881700 27348000 15714200 -30022000 38075200 -21997600 -10121000 2832000 -3520860 
-32887800 -13126800 -14708400 -2049440 -940462 -1153350 7576010 18715000 2656900 
-13186600 25631900 25594200 -2802880 1514760 6971440 -26058800 -17255200 -9915440 
-8892240 28730100 -24899400 31951300 14348300 38285600 -28064800 13723500 36612600 
2826990 15182800 -28176200 12726000 10621600 14435100 14427900 15557500 -25937500 
-29063900 -33060000 -33115600 -12547500 12719700 20131000 11473000 19707300 -16642500 
-10638300 456898 -2263010 -14696000 34351800 31964500 -3932350 10555200 26555800 
26535100 -24260800 -59502500 7189250 4749360 1813190 -32665200 1816650 -37947400 
36471900 18121700 15283500 43825400 -12146900 -3045980 4343190 -17751800 14865000 
-676833 -699067 -1948130 -1661680 -13204500 -1394040 -1579260 14658900 26306600 
26420900 22391500 -6593040 -15997100 26781100 2288140 -15321700 11901800 23519200 
2349490 -170495000 -653891 -105403 -1393690 11573500 20277400 16356800 -2885570 
24578200 5709790 966592 -3464380 15482300 -3857270 -177323000 -176486000 -3569570 
252786 -21512000 -35968400 -23199700 1946740 -36125600 17450700 -36646500 5769110 
25614600 299293 276627 14671200 25200500 -1900980 8398760 8378600 30006400 
-41442600 -41476800 -4574470 -3336840 -199713000 5702600 -525989 -724355 -557830 
2786310 2659900 26156500 49697000 -162592 4285780 4236140 -730406 16928900 
3411220 28095900 18033500 18907700 5269250 -136958000 -78381600 5975080 
Stress%20yz%20component 1 3545 double
-8930280 -6062950 2007930 301936 -36882 5478.94 410004 15845.4 19287.1 
-1168720 10542800 16399600 -1156100 -7558430 3224100 15640900 6007600 -3146060 
-4146150 -1101970 -3127160 3152290 5165860 -2099590 -1783210 -2170000 4827960 
2336440 -1242870 -7815140 -6528890 1183150 -1223600 1609900 -3574890 -323113 
-811374 -642224 22856.6 29548.7 21344.2 -10068.7 -16953.9 44316.9 31230.8 
32623.7 15022.5 12029.3 -7594.15 -2269290 -6843800 702531 -1879900 -521374 
-1429310 -720202 -1158270 -221857 5536.85 123219 46792 -58894.4 79969.8 
124784 83251.2 67740.2 75739.6 -40899.7 -9708.87 20642.6 57301.2 108118 
130769 129180 128041 75704.6 -28093.2 -135970 35007.9 90905.5 101761 
95270.3 123166 121511 64072.3 41796.7 -37400.8 -106724 64582.7 105403 
-22682.2 -49487.4 11724.6 -18748.4 9724.58 -4406.76 -81.1118 999.695 4928.34 
-27622.3 -1636.45 -28050.5 -700890 -305015 -154928 -115514 -9286.76 -71873.9 
-11113.2 2696.44 16412.8 9911.8 12800.4 23090.7 20258 12701.5 17141.5 
381992 -675653 -438511 -842636 1804530 4206740 1490840 -455053 -764365 
-1000180 -1134090 523275 6705330 9851780 -7105340 -741319 1694540 -681631 
1737040 -1419210 -961814 -852100 -17967.8 -38310.6 28051.5 2484.24 -16282.7 
-10975.4 9869.96 13542.5 24882.8 36715.2 -20052.9 -18621 38380.5 -47274.8 
2024250 1810250 -882955 -947929 -961943 482054 174332 -48450.7 -10168.2 
-13656.4 38769 -41818.1 -20092.2 -18590.8 10930.6 -34309 -15838.1 -1716.2 
-7969.54 21491.5 69297.4 -588.571 7625.2 20725.4 30673.4 -10001.9 47351.2 
-7691.45 -12169 -51528.9 20512.6 1445.46 -6341.17 -28484 -10164.9 5447.46 
-39559.1 -4324.93 -584393 -244088 -195124 -116112 -47010.8 -7636.76 -10969.2 
-9167.59 -5911.25 3673.6 4691.17 56470 -6368.84 26972.7 84.2625 18.082 
8.41606 3.00632 1.16772 -0.0373355 0.0803473 -0.155289 -0.064343 -0.0727654 -0.0450461 
0.168515 0.222985 0.271972 0.733043 -811765 696284 466108 -16633.8 -468482 
9080930 -8468280 -292509 514402 -154936 1302450 379556 -1512760 -2752150 
-3774190 -64797.3 2305.25 -15689700 216762 14414200 14418200 -4496280 -4419170 
-668024 5777620 -4756310 -12224100 -9746370 -11457900 -3378060 16771400 14398000 
3820480 5565110 3474510 17232200 9690040 9181220 9009150 -9892360 1254800 
2088490 10439400 -1614750 -7414960 -429210 -15398.8 10919.9 1924850 8140.05 
11145.8 4651.38 3793.95 -10424400 3352.4 43427.2 -3576.95 12772.4 23077.8 
-18129.8 -4976.34 610.006 -10959.5 -29362.5 -3319150 5975890 -7264.81 8625.62 
6527.89 -12809.2 -62545.2 2973070 17409.5 -12044.8 -11268.2 2918.3 7093390 
4780.05 1547.91 -8349 -5536.75 -18550300 -21906.9 20803.6 17635.6 90485 
-35504.7 41018.4 3908.75 3240.97 165041 -5965270 -20165.5 -15320.1 15355.1 
-75073.5 800.252 -6669.25 10129 414197 -29673.3 2656650 1545830 2191020 
5073.93 9433.58 -5502.18 -53666.9 44460 530006 -18543.2 400102 -8315.83 
4058050 -8223.2 -9792.8 15508.9 -5102.16 2710.4 -164751 4145.19 -7119.89 
-3760.49 3265990 13781.8 -24767.6 -4074.44 20863.7 61706.1 -895.793 18025.7 
70544 12523.3 14512.5 -4736.3 -32452.8 -21802.8 -4361.91 1813.7 -15428.1 
27816.8 2903.32 -8090.81 -5850.86 2824.59 -4585400 2529110 523711 -17518.9 
1778.72 18779.1 5257.45 -2639270 624.701 -31933.5 2336.92 13557.3 1056.63 
-836.992 -3220620 -1968760 -21339.5 -1836470 26456.9 3870440 -208175 -2487.37 
-40268.8 -1317.32 -6385970 -2021540 782902 192.647 6635.48 9009.65 -1736330 
64039.6 -59328.6 21453.1 -56908.9 7291.52 -57403.3 -17665 13443.2 -50272.2 
-7718700 9589.4 3053.16 11699.2 14117.7 26490.7 9896.3 11430400 -3951.93 
5531780 -129927 5443.66 -1724000 12878 -12021.8 6224.83 5552.08 43128 
-21530.4 2975390 -10996.3 551875 -23959.4 -5116.64 99253.8 3249160 461770 
-3354.66 2446.54 -544.287 8062060 13812.8 -5355.54 -6430.33 41367.7 1317750 
3587.52 27417 2420.65 -3037 3525.42 12014.2 -3006.3 -74351.1 -22351 
1325960 -125640 -39110.9 4460.09 9394190 -5586530 3973.62 7274.87 20542.4 
27643.5 -34496.2 8290.24 -9199.25 -9508.49 -10670.3 -89247.7 8934.3 37031 
-19842.3 9535.77 -6453.73 -36219 -10801.4 554713 8649500 2151730 -4063380 
-3443800 -6101970 -48229.6 -143155 5695.71 27927.3 -15007.7 -8144.36 135588 
-497300 724441 14907500 16224700 7719680 8247640 -2142020 6296070 2917800 
-2235870 5971610 3544950 192037 -170210 527445 -2753.95 -140206 478908 
208311 -154252 -18555 -30688.9 -12773.5 -86934.7 -124168 -8088.92 77406.5 
102085 -16219.8 -51214.6 -58911.9 28907.9 17836.3 7490.03 -11071.3 -32512.5 
-46006.2 11621.5 7840.82 1859.62 -27260.3 8693.28 -14916.2 111.754 3219.52 
-8891.14 6884.6 -19874.2 8723.52 16728.4 -54679.2 8619.21 18733.3 -12482.3 
-56472.9 -10952.6 -50319.8 72052.9 -1393030 -88941.1 -540558 233430 266046 
69939.9 -414618 -154524 -686877 42284.2 685893 385355 5748090 6356940 
3358710 -7012020 -7671650 10001700 -12073400 -17605.6 9095.95 48779 -25063.2 
-3665.73 -33017.4 5853.1 53966.8 51562.7 66004.7 -54555 3343.43 -23628.8 
-49629.2 26922.9 35640.8 -29798 50209 38815.5 -21364 26038.8 -23466.5 
-74956.9 -34517.7 -40248.5 68588 53383.7 58614 34377.5 1894410 4708370 
6740680 6866200 -2384310 7128280 2342890 -470000 1568250 -1395770 -5030920 
-2861290 -386326 -5015220 -211219 2414520 -1649720 -2859490 -934940 -3654620 
69321.1 292293 1414590 -542513 1414560 384859 -19458.9 -8491.32 200263 
-44284.5 30491.6 -2065.32 81804.5 -4831.76 -22632.8 30823.4 8736.38 -43343.5 
32887.2 3592.46 -11903.7 -42905 -59632.5 43558.1 43075.6 10154.2 66245.5 
12522 11875.4 40517.3 -22844.5 -7267.96 8851.26 -36726.5 -4004.73 -51859.6 
33858.6 -16709.2 51973.1 11440.4 1453.23 -27329.2 25830.6 15140.1 -131152 
-71877.3 -20066.6 54486.1 -15450.5 74275.1 -33435.7 16033 32594.4 -49564.4 
-41935.4 34359.5 42343.3 10045.7 -5209.84 -2708.46 -41652.9 -14610.1 7907.96 
13672.2 19263.6 -3043.85 -21242.6 3982.75 7531.2 535159 374144 1221550 
1579730 3021730 -88582.2 717742 2313050 1737700 3236680 3547010 4613950 
4965760 4304380 -38206.5 77753.3 4535.21 -32089.7 52084.5 39045.8 51022.7 
71999.5 32627.4 26772.5 -46116.6 38378.3 106991 30393.9 56061.8 55948.5 
13240 -9917.14 47906.4 -17009.6 87331.2 -25728.2 -4074.81 14068.5 21367.2 
-10502.8 -14598.9 -1581.18 2354.38 -18547.7 -36597.2 -1125.82 -3442.73 -2208.45 
-989.379 15428.5 11583.3 -2471.29 -26948.3 -22516.8 -7542.85 12085.8 19294.9 
11302.2 -1058.71 10885.3 13598.3 7246.58 3227.5 -4008.59 -8166820 692886 
-3181650 1558970 -4608880 -5684530 -2755370 -1082190 -5647750 -2956280 -5904580 
-1790410 33122.4 -67614 42147.8 54673.9 223612 12814.2 -14262.6 -173096 
-78746 -172155 361763 683613 -5848.72 62371.6 22631.5 31553.2 128594 
87151.2 -18622.3 -34552 238826 647830 69545.5 289972 3363.92 -10749.3 
-12904.7 9782.07 -24180.2 -11917.7 -720.107 -30020.7 -9191.66 -3626.03 20851.2 
-13613.8 40490.7 13999.3 18119.4 22204.8 -10895.1 13805.1 -33811.6 18820 
-17483.2 -6363.73 51085.9 56370.7 139831 29142.7 57664.6 -4949.29 21154.5 
13144 66496.8 14205.5 55537.2 56787.7 -98585.1 11892 -210112 -93052.9 
-114360 -31669.3 6680.79 -63976.2 -198857 -127202 -21699.8 51940.9 -7760.18 
-6140.98 -16182.9 -52371.1 700.746 45344.3 17583.5 19539.6 45137.6 27632.2 
26026.8 22381.5 38830.3 -5153.35 -29867.4 -74473.1 27525.7 -47036.8 -49148 
-44086.6 -21225.3 -20916.7 -33091.6 7331.97 24282.3 84307.6 29044.6 63131.1 
37725.8 -29094.8 -681.541 -40566.9 28270 33995.6 48631.1 -35524.2 -26146.8 
-16839.7 -39700.3 61801.2 -52851 -46454.9 -80545.2 -2101360 -1258580 1966470 
-2413900 -798410 56243.8 144118 -6949160 -2266200 -4870700 6631410 5559510 
4269680 5699950 -676654 5551170 5863930 6810120 3870860 1465850 4083450 
1981110 -5634.45 -204.296 -4661.3 5132.48 16439.8 2307.55 -15500.8 3690.7 
213.721 -21479.9 -17424.2 -22020.9 -20276 -5855.41 26799.5 20593 -11010.1 
-3177.36 -8697.25 -8857.81 -119.899 -4925.61 -9604.42 31376.6 14349.7 -2991.88 
11794.8 10814.9 18756.3 16609.2 -1931.98 -12205.2 55255.4 20655.7 22670.1 
12438.4 3549.67 -15075.2 -5395.95 -4965.86 66675.6 -29217.2 3778.23 -28668.5 
-120525 85669.8 -108131 28938.9 112115 6479.11 138972 -52076.5 -235219 
-193604 781291 3028040 1713510 1115630 2060870 -178818 3359270 1547240 
-16150.5 -35557.7 -84357.6 6401.33 3310.98 69759.2 32013.1 51436.6 -21712.8 
-18502.3 20470.1 21296.7 62290.3 33830.9 -10192.6 12549.7 54044.5 12668.7 
-32405.8 -53653.4 2227.96 2271.71 10350.9 -17671.7 -6567.52 17773.9 6733.55 
-1286.29 -9030.34 18311.7 -10266.6 2069.77 -3860.09 7173.94 -27518.8 -20401.6 
-25581.5 -3371.78 2087160 4069520 5163440 5823240 5629310 1663920 5863540 
8475500 4794530 63034.1 36563 32566.9 -235.01 -59943.6 36944.4 -10001.6 
41522.7 -14512.9 13433.1 36880.6 -18198.7 25804.1 -29868.8 4115.72 76.6282 
749.046 26609.5 30947.6 7475.86 13285.4 2187.46 -13338.3 -15441 -35927.7 
-22201.2 23539.2 1294.38 16407.3 -22008200 -1513790 -3055500 361543 -12670700 
-6346510 865449 3740820 -13814700 -45223.8 93202.5 24598.5 -46897.2 75264 
85473.2 14883.1 -84811.3 29158.6 24036.5 4847.58 -9135.42 59850.1 52894.1 
-162900 -151359 129358 19512.9 67699.9 41699.5 -120417 -110521 -23432.6 
-129282 10042.1 -180898 175606 -355115 -194438 -32496.2 -318308 9388.08 
27106.8 12648.6 32153.3 76574 80689.9 321059 8649.02 -102859 -113148 
-167743 -42963.8 17072.9 54053.9 -4608.27 15599.5 13910.2 31022.5 -28324.1 
53555.5 7838.51 20624.3 -5768.52 29052.9 35796.5 -25164.2 110437 81382.6 
153839 308817 377237 231912 -3741330 -6436150 -3102970 -2585060 -2107540 
-5957.28 -19227 15809.2 8795.34 -51204.1 33726 23849.5 -12579 13865.6 
-329480 84632.7 -109742 520407 326255 252443 18401.6 -9830.78 -2148.23 
20939.2 38206.1 -11874.5 34286.2 109035 79643 -69636.8 -70887.1 -58009.8 
61239.9 41180.1 -45434.3 1058530 5557.78 31372 -21123 1141.53 -17860.4 
8612.03 28186.5 912695 153972 -44689.2 27303.3 -5269940 1040.94 -4930910 
3371900 4436030 -3005410 -2480610 -719401 -2515620 -39768.3 -12182.5 -6177.62 
16535.6 -4560.62 2438.23 11917.4 32404.6 15093.2 44357.7 11666.3 -5981050 
-691038 -3893420 -3679020 10713.3 -10084.1 5904.46 -35441.3 -6991500 -8056890 
-2980270 690747 505359 4251990 -491828 1557890 -494720 2890120 6311080 
4317850 1789890 662550 -2832270 104620 2756060 1588200 -1206040 -1219820 
-6158660 -3709430 -3756050 784424 -1541310 -1918810 -1189480 -390142 -1110850 
-923870 -1232380 -155161 -1407030 -2901810 -18524.6 -492846 -213582 -323560 
45847.2 -30421.2 -50991.5 14090.8 -36470.3 4195.59 21424.1 -6313.21 22760.8 
30683 46447.3 60174.7 -11088.3 -14944.8 15134.6 39376.3 1328.98 -48629.2 
-44925.7 -7224.02 20767.2 64972.5 -27234.9 -73261.2 -28351.6 32001.7 41643.6 
-8612.37 -43751.2 32489.8 58450.5 72113.2 1625.2 -12762.5 28320.5 50464.2 
43864.1 39076.2 -5472.83 29356.2 9609.98 111094 17948.4 -29415.8 -5760.17 
15354.8 5968.85 28827.9 -30077.7 -2961.88 -8308.93 -11810 -10409.5 6463.01 
-8395.81 229603 -11242.1 3921.14 4418.35 8113.77 -1143810 94292.7 -77252 
-9736.68 5847.7 -11929.6 -31831.7 7550.27 14340.5 9164.77 6560.98 1779960 
945762 -7787.68 -23198.5 6743.76 5977.9 -40335.4 2230030 617.545 14677.5 
15342.6 -2507.26 705278 6023.24 -1370.82 9845.07 2786.71 -1459470 33080.8 
21030.9 -26639.3 -222952 51172.1 -30938.8 -12161.9 -594.283 54269.5 -474072 
14060.5 -214.187 8011.39 -86664.9 12895.9 25553.5 -13386.6 -6667.92 2201.49 
481887 298097 1439190 -1607.85 -928.345 10181.8 48122.4 1985.44 152411 
-6953.44 -1352510 -14298.8 -1679530 14369.8 -4263.84 -1947.34 -13714.5 -21139 
76721.1 -11071 -29489.1 -15961.5 -253015 -35580.1 43896.9 7642.11 -35967.8 
-50875.6 -14296.1 -27790.2 -69551.9 -40492.9 -30094.7 -6597.07 12511.5 16669 
-6525 5962.72 -928.595 -20179.4 8333.3 -4296.64 2583.25 9179.77 -2098290 
2348730 477205 -4573.2 10305.9 9215.98 11244 -1043050 -1542.91 81121.7 
-10559.6 7467.64 -1232.76 1974.59 361879 1001050 -45133.9 -654299 -19306.9 
436788 105190 7176.28 44846.8 10977.1 5562660 -1224110 -24716.6 18494.1 
5893.81 -5209.64 -4759940 -39454.8 18378.8 22351.5 311833 327.814 -9103.41 
31322.3 -11793.5 -14241.2 510258 -2687.37 3257.28 1784.59 -22298.3 -43124.7 
-10112.4 -2480510 8179.91 -1039730 -286649 9334.78 -241774 8.78973 45242.8 
1215.73 -50527.2 -23363.7 17413.5 2711160 -42071.7 -96225.9 -17539.2 848.254 
35963.2 350939 -52211.4 14810.7 -11974.1 2165.34 2155300 -9277.89 -9463.18 
-12782.6 -2350.82 268161 -21904.8 17354.7 -16123 2691.29 13348.4 2923.69 
26054.2 48500.2 -9795.41 441179 -224403 -151801 37416.5 1405350 -2289670 
9000.21 -8141.19 28530.5 37858.4 6815.1 11249.9 27924 22115.1 -12291.5 
-30313.9 5087.83 -5988.5 1939.76 -19906 22893.3 29750.6 5868.99 -1003440 
-242402 -1186470 -238020 -4450570 -4208090 33996.5 23861.6 -6494.34 -9465.54 
39911.8 29205.9 -125147 438248 -599489 -281244 319868 1580980 351420 
648016 -1504300 -232881 -191538 -402976 -593722 620574 751119 -621916 
-130265 1418450 -1303530 1266270 1927360 15026300 4222890 5004760 -17905.4 
52252.4 3639.01 -60504.1 11262.5 -62929.3 11909.8 -93609 -19815 -3969.48 
87992.2 -13028.7 -10345.3 47867.3 6524.25 19960.9 12114 -5199.28 -33556.3 
-714.015 40151 -55686 92946.6 58627 -2641.51 -118854 -66895.7 -15720.6 
-27798.6 1143530 -1279590 -4355150 1017330 -1618850 -717355 597266 1817890 
-3691090 -929299 1051540 -2361290 -1822290 477676 79073 4257620 3023640 
177458 -1137570 -2129820 -1106280 -450447 -439564 -450495 -2107470 -1424700 
-560984 -1132360 -914077 -764788 -159825 -41500.9 321843 547499 116015 
-179297 14449.7 -9734.25 105374 -63657.3 42844.5 -104229 -90478.5 28097.6 
-39871.3 18465.1 35466.5 7142.68 43803.3 -9746.12 -64438.1 -26668.4 -17620.9 
10892.6 21098.2 -42778.3 29961.3 70473.1 -14573.1 31820.8 2634.22 10953.6 
19050.1 22425.9 26257.9 17016.2 87131.9 -3994.31 -39017.3 9582.25 3014.36 
47964.3 27196.7 31425.7 -26054.8 -168694 47875 -150205 -430219 -302562 
120500 35188 -93565.3 11326.9 44494.9 58383.9 -25429.4 -22909.2 7815.8 
-63593.9 7401.31 -1793.75 -6816.58 33221.3 21408.4 -15291.9 7299.69 16676.3 
1088.99 3731.93 13408.6 -3878.07 10985.4 14091.5 6936.85 8478.6 -4072.06 
8421.93 -18348.4 12854.7 63388.3 -18501.5 -28598.1 15876.8 -1959.96 63151.3 
-943.13 4745 -29289.3 36400.2 88446.4 59071.5 51260 -36883.5 -19035.3 
-35398.9 26128 117871 41245.2 -8259.26 28515.2 14901.9 -41032.2 -26985.7 
-9618.98 -27304.1 -27605.8 22448.6 23202.7 10988.1 8923.53 -12600.6 2759.64 
280171 71330.1 105542 261226 -16463.7 80186.6 -130911 405935 319107 
924487 1034730 676104 1088750 1066950 -25682.9 55388.4 -42737.8 34218.1 
-33643.6 30289.4 28138.3 -6616.33 -5352.89 -85455.4 25146.5 12580.4 22814.1 
-19389.9 66710.2 -10525.1 -38014.3 4632.28 -41452.1 -8177.33 23416.6 1668.36 
30637 -22006.1 -6064.16 -5907.91 21986.4 -17562.4 -12282.9 -15764.2 -14325.5 
-1378.93 21091.4 15758.7 17565.1 3085.39 -10014.4 -17610.7 -1929.32 -14083 
-7299.89 17279.4 28074.9 22304.1 2392.41 6877.9 23832.1 7486.15 -6035.38 
760.424 -2632830 -1051480 -182363 577987 -351891 797391 -181915 -598344 
1020190 -1843260 -319611 -1741570 156948 -66592.4 -190877 -227464 8713.89 
-32515.7 83234.7 -731.034 -70038 -162103 -184286 51035.1 -56339.4 -138289 
-82388.8 43014 85150.1 21646.8 -29375.4 -1613.48 95798.9 -33538.1 51023.4 
78816.9 -15881.9 -17776.9 -19383.5 8214.78 12300.4 -23460.5 -533.389 -22694.9 
6285.7 -20326.4 23380.3 -26986.8 25964.4 -21608.9 -1036.88 9326.64 32543.2 
31363.9 -13257.2 -1207.03 -21234.2 -43816.3 70404.4 88171.8 60350.1 64479 
29752.3 -13239.7 24023 -5544.74 15841.4 86529.3 -27729.5 73905.8 -258479 
-182044 -342388 -75803.4 -45197.2 38544.3 19682 67905.9 323188 -3039.66 
-51100.2 -207402 -30235.7 -40005.5 -53763.2 7283.09 16804.2 28548.8 12066.8 
19938.6 10752.6 9962.94 18819.5 -16292.5 43488.2 15466.8 -51362.2 -28667.9 
-13323.5 -35915.2 9201.89 -39985.5 -6804.38 7524.72 11088.6 63256.9 2555.78 
28224 9214.45 -1679.04 -28979.8 52570.7 2702.52 17441 -12087.1 42447.1 
-4403.18 50401.7 -27165.6 -2679.69 24199.6 -29953.8 -98880.6 -58196.1 -42078.3 
35551.3 732404 -1073630 630241 1586220 -1653380 -2196440 -75884.7 454935 
-677359 2296470 2677520 2947130 197317 3576290 2469800 1797820 3727440 
1292110 803352 716393 372164 -22000.9 -6534.49 -8006.24 6911.26 14480.4 
2202.9 20981.5 10608.8 -3070.94 2688.71 -29051.8 4555.93 26343.3 -22604.4 
-2703.95 -28038.5 -872.357 -28863.2 -43570 -30532 13540.8 -4552.44 17580.9 
-8650.3 -4900.76 4973.93 3500.62 21221.4 16946.6 3280.1 20372.6 11224.2 
9852.99 -80503.4 32935 2945.74 28749.5 3207.66 28029.1 -18700.4 13633.7 
-4959.57 -12990.8 -7130.14 -12572.2 -109705 -40293.1 147338 132902 9179.44 
57188.2 177135 -189596 -57065.3 984961 699408 83935.9 416373 -1501470 
1115390 1096890 7858.8 -49048.1 -49465.5 -25596.8 23279.8 -54523.5 44170.8 
-1070.84 57077.3 10928 -7777.98 41081.5 24123.2 32122.3 -14282.4 4114.84 
31543.5 79161.5 56119.3 -8748.3 -10043.8 40180.8 19718.2 3417.18 -1969 
-8667.82 18292.8 8778.59 40902.5 12175.6 17391.7 -15629.6 20312.5 -17951.5 
-22776.1 -19123.7 -16159.5 -17971.8 -4005.14 723909 1374060 1743690 1425970 
2724490 -167733 1883540 1994660 594532 40240.4 61328.9 6327.94 -44096.6 
-36167 21261.2 35389.1 19044.3 -6144.6 -5701.51 30213.8 846.905 -13881.9 
-15190.6 1652.56 1017.55 24537.6 24444.6 -9277.58 13838.2 36962.2 20604.8 
19766.9 8478.87 -4338.07 12950.8 -19471.3 -21998.2 -2312.14 -2272140 -1425700 
2497270 3125440 -2533970 297493 -1169000 -461255 -3525190 15828.7 -59197.2 
21531.4 7454.14 135787 93930 37573.8 -42299.3 48595.3 32000.2 56300.7 
48831.1 42047.1 79583.5 -48430.7 -243415 -136547 -7662.34 67825.7 -25760.1 
61073 -53999 -88001.8 -98587.1 -201725 -64782.3 49350.3 -596636 -240469 
20038 -138638 -80083.3 95919.6 12615.6 62467 217525 75137.7 12444.9 
-48688.2 -48374 42161.2 -167415 256596 31230.2 25752.9 13539.8 -18935.8 
1336.12 -6074.82 30379.1 63821.5 23100.7 14494.9 26316 -11103.2 -30621 
-12793.7 54743.5 30829.6 34562.7 122952 88435.4 49959.1 -644131 184121 
-800901 -776402 -318557 -50043.6 -16876.6 -3813.37 35236.1 -16087.9 -19343.1 
-3299.39 -16963.7 13720 16632.9 -259491 155483 178544 171093 224132 
-13677.2 22410.8 -9963.59 68306.3 7320.26 19804.1 9820.64 39523.9 104634 
-103771 -3652.5 -83403.1 48644.8 43627.5 -24062.9 42941.7 30432.4 5906.46 
10976.9 -14004.6 -7056.04 4205.73 36156.1 420664 54804.3 -30503.1 -13601.8 
-482877 565973 -945071 -752291 -141810 11259500 682942 -1934180 -852565 
-8041080 -5543420 680131 994405 -1478200 -917306 40368.5 -1521290 1098400 
-1027010 48508.1 -1143620 -835392 291411 83565.1 -1077740 -77753.6 1944410 
-653271 3127710 5720220 4212870 16779200 -10773600 12560500 -5694240 -1536100 
162429 -340377 -1225390 -308604 -1596130 1393860 -352185 9768270 4500910 
6751810 9223400 18149.5 41893.3 78852.8 106396 98074 105548 37997.8 
-89595.5 114085 -79797.8 -57095.6 -49638 -104854 33522 -3655.41 40982.8 
-73716 9191.63 32095 45159.4 27872.7 24637.1 -1139.49 119885 114481 
86359.7 47441.7 44763.9 74367.3 135350 66092.9 94264.1 53148.3 48927.2 
136318 101705 184917 96197 71274.1 136813 118149 147928 48997.6 
50631.8 139814 122628 139740 94660 -15996.4 70327.6 43096.4 116254 
746.295 -43816.6 -43440.3 11000.6 2173.25 -79226.5 -147340 -137633 -160138 
-270.851 -35184.5 -7540.34 -7465.65 -5689.34 -7605.62 2487.33 -3644.5 -5485.02 
11381.7 -534.794 -1493.57 5331.58 4042.03 13952.3 -28373.7 -510381 -116290 
-73581.5 9513.41 -235807 -167268 -85967.4 -2107.98 -278068 -36486.2 26165.4 
-29688.4 -267552 7775.22 -3989.93 -27810.7 -68122.8 -88794.3 -132608 -20779.2 
25941.6 -46914.9 -50741.9 -98415.5 -31927.8 -12454 -41483.7 -61873.9 -1953.69 
-22798.4 38145.2 -23581.2 -1099.16 -1131.82 9064.2 -6579.93 27879 -7554.5 
-10078.4 5655.44 20084 -14418.5 -42638.6 -13691.4 -6129.05 10710 -2307.31 
-25450 -7129.06 1101.39 8108.93 -24.502 -5938.35 -1505.93 10902.9 -12630.1 
1087.4 -3392.17 1818.24 -11548.6 32809.7 9627.92 38016 29244.4 -4849.66 
-2910.85 -4443.73 -43327.7 16174.9 -8434.1 7042.82 -2838990 -42700.6 5115.15 
6063.13 -4702.05 13895.3 -1136.01 55.0372 21966.7 -8946960 -15553500 -35628.5 
65294.9 1530.48 -10761.9 5588.24 -8514.05 8837.24 -617.723 -13464.9 6095.99 
1419.17 15771.8 6698.63 -6904.87 458.038 24083.3 2633.9 11227.7 -2080380 
573671 -1434460 -4496390 -2188120 773.277 5854.17 35778.1 -38977 -123792 
16976.5 -81281.9 -5232.27 -5981.58 -15467.2 -21851.9 30782.9 137905 52951 
-51239.2 76916.7 101497 -3410.02 -95571.2 -25987.2 -8078.07 965216 274708 
-54974.7 274082 -338532 -1920.88 -838.946 6157.21 -72545.4 -40637.6 -1154640 
-399365 -2181040 698391 154701 -96237.8 101003 14338.6 18569.1 25065.5 
37731 48431.9 21486.7 -13313.2 -21241 -16125 42668 41342.4 2293.74 
10746.6 97290.8 26846.4 18408.7 45543.3 -9860.19 696.974 27652.9 5259.4 
20694.5 13345.1 10466000 7227440 2155320 4025980 13065800 72301.9 47190.6 
4323.97 46245.5 70124.6 17857.7 10857.5 16745 65088.9 3771.38 -76988.8 
-109904 -96058.7 -8461.94 -21928.7 -24471.5 -8531.01 -14075.1 -16216.2 -2640.05 
-14943.2 41422.9 -1952.35 6422.29 101716 25398 24724.4 18040.6 13260.5 
19987 10826.4 30563.4 -4165.16 9099.5 -330057 -161316 5343180 3952580 
15921900 -1141850 -1817800 -3132650 -16990 37307.8 -10183 11471.4 21343.6 
14425.5 17909.6 -34500.1 -24754.2 -54646 -4542.99 -21205.5 -14304.6 -2111830 
-970685 -634178 -1984250 -13944.2 6703.17 -40189.9 10610.9 37121.4 18594 
-8286.95 -4748.99 -10553 -2380.63 -11705.2 -14951.2 44219.4 516285 -17149.3 
3446.96 -11499.6 22060.3 14424.2 -8843.86 5537.69 -15483.2 36590.4 -19696.9 
1866.23 15697.2 79025.4 20313.5 69986.4 -52835.1 -8131.74 -18790 -31752.1 
5120670 2393940 2389780 4812700 761367 -964001 5178820 6325870 5290560 
22771.9 -9416.5 -34993.7 -17922.2 -25155 -5911.47 24838.5 14073.3 -31712.9 
10343.5 4334500 2076220 -243167 1810240 -2147780 -13463.5 14188.9 -839.882 
6783.2 -4216.74 8348.99 -3000.97 -11938.7 19591.3 -14759.8 -234379 -562967 
-367957 -389225 -29530.9 -77847.2 -41569.9 53274.8 10390.6 -154052 -75921.8 
49645.3 18890.3 42483.8 38059.7 22715.1 32609.3 -7156.68 13791.4 27730.4 
8370.7 15951.8 3652.11 -25400 1444.45 32460.2 -7694.34 -5540.36 -32244.6 
-46706 -14573.8 -48096.6 -16808.2 -14521.3 4651.16 -6948.95 -11672.8 23355.4 
-436.627 -4428.1 -2358.42 17076.7 -22135.9 -29573.3 3234480 -2341.3 -20189.2 
1088.82 11316.3 32749 33005.5 20.7689 10301.5 -2171.4 8074.93 14959.2 
1847.53 2333.72 -14197.5 7039.64 27056.1 -15587.8 52363.8 -3241.64 -24281.2 
41514.2 -17665.7 -5398.78 -2733.01 -3284220 -2561550 -147665 -2633.25 -190115 
30023.2 11701.5 -1871320 2315.03 7660.4 -2855.18 -900.766 13221.8 8623.19 
-4295.65 10244.6 5476.61 11856.4 14063 689.823 454.106 -5071.08 14738.5 
-535711 -2475050 978747 16243.9 -37477.7 15326.8 -15430.1 56933 -21229.8 
90638.1 -12471 -65656.1 -30528.3 -7142.49 -5982.33 -7831.66 66833.2 -3840.24 
13436 9247.52 12177.2 -17515.1 -13828.2 -208145 -5216.79 -3736.29 12630.5 
-12769.2 -1084.3 -2750.04 -1173360 22414.3 3305.37 23626.5 -27868.3 3737.77 
4219.91 13452.3 3929.99 117316 -97635.8 164296 -96673.7 44019.2 -8683.06 
5115.46 -257606 -94543.2 65031.4 77334.9 13073.2 385186 2560090 -105161 
-180380 -403.205 6376.55 5484.54 1355 2368080 -1787430 2682150 5226830 
-17118 25859.2 7471.25 29063.3 9358.43 -16943.4 6804.64 9013.67 2028660 
3369140 -853252 7717.84 -5992.4 28067.1 2288.5 7199.93 -13035.9 -10528.8 
21803.8 -1778.07 -3280.55 9673.46 14852.4 21979.6 46325.2 16577.2 -6074.09 
31240.4 -12849.2 -19483.5 -13864 -2742.13 4408.51 -28637.7 -20335.5 -821.951 
-40.6446 -2760020 1967770 -18539.4 -16394.1 32037.9 5105.29 1793.99 26502.8 
-17410.2 -1735.18 -20058.7 -984976 -270343 -19926.1 -5086.3 40994.9 -88864.8 
77619.8 79584.3 -6139.58 6740.03 4934.98 13254.7 1631340 -21196.9 -4573.4 
-23089.9 -5737580 -2525200 -11152600 -6884090 -5671220 24982.5 -2610.08 3684330 
3908220 -4826.1 -15625.9 50227 210207 2381.95 -631.115 -32726 -26079.2 
-4058.75 17360.8 7582.39 18287.2 758978 616347 462997 -6496.09 1900.1 
-6299.96 -23228.9 -8037.59 28208.3 16445.9 3790.9 1797770 1843240 164648 
-45359.8 -44225 11431.4 -23011.3 -12952.1 3752.37 12559.9 -5632.08 -2983.95 
18765.1 289474 -61994.3 1118.81 14513.3 -4096.72 -39493.2 -51140.4 -3831.01 
-4067.49 657329 1057000 1396220 -12020 -9951.22 -593.534 8021.63 2573.43 
11655.5 6133.54 462.102 2254.82 2552.9 394.956 7360.68 1961.3 6512.22 
12418.2 -7712.39 -1616.32 -9728 -14894.4 29440.7 -10196.1 -19680.1 -382.939 
-7158.23 8434.66 -16043.2 -5797.82 11151.6 10083.5 1750830 1550480 3384910 
4581850 9062.85 -1520.86 -17935.6 -34704.8 -7437.12 1730100 3463850 3868490 
18477.2 10284.2 920709 33387.5 -562.433 -20026.4 8469.44 -15607.5 -8883.26 
-5390.99 -24305 -4258.19 9880.7 22000.8 22281.5 -59266.8 -16841.4 10815.4 
-618374 33300.2 1097.59 -2953.41 16418.4 105.37 -5155.9 10275.3 167366 
54010.5 -1374.14 21105.2 -7938.84 12517400 3936140 5021530 13060.7 -5360.79 
-23877.8 -13497.7 -54376 9981.83 -2667.51 -42063.8 -55432.3 -102677 77359.1 
-30504.7 -13575.8 -13092.1 -61699.2 9437.06 -9910.05 1718.55 769.219 4200.21 
-4629.93 3568440 -13498.7 -16498.1 3127.25 14078.7 -4640.63 -57066 -10865.3 
-14265.4 80383.3 7532.98 16907.7 78566.6 6642.18 12546.6 7260.43 139158 
51562.3 23966.4 846.94 -5527.97 25509.3 9581.14 8132.86 -6498.26 19350.3 
1169.37 12119.1 19439.7 -3488670 -9083240 -4116640 10701.5 -22207.8 22422.5 
5203.65 933.781 -54913.2 -30908.7 -9822.28 5369.67 9990.88 -4105030 -4847430 
160127 -36038.2 -85278.7 -23604.2 -8881.34 13977.7 639.3 20728.8 92300.2 
-16683.9 14848.5 -2141.45 7382.72 1088660 -9712.69 15025.4 -16430 -19697.2 
-2230.24 18597.4 5495.69 -1689.73 -26658.3 728621 -10137 24500.2 4008.94 
9371.33 467.169 5317.22 1421.94 -10444.6 14719 2643.5 14691.9 7443.44 
2962100 4406610 10433700 3721080 -20047.4 -5662320 -10288.2 -15553.1 -11735.9 
7796.2 -12080.7 -18563.6 -34024.5 -16295.4 -10828900 -21315800 3061.37 7723.06 
-1798.75 -36358.8 -17504.9 -83397.4 -3174.61 2141.24 14274.2 1149420 -3042.55 
-49203.7 12771.2 -36927.7 523285 25130.5 -33727.8 -2696.51 10377.7 15694.6 
-10030.7 2461260 3685600 -24249.7 4491.74 51612.7 -36935.5 7725.93 -41823 
20085.6 902.726 -19003.2 19409.5 -946.803 -9539.17 23000.3 2259.79 1080900 
1365450 672757 91684.8 -34789.9 90840 -68051.8 953487 -1022.55 -8.00183 
2738.35 8595070 -468916 8906140 7134820 -1987.19 -13470.8 -11424.8 -2684.74 
-22416.7 -11541.7 -5026700 -3766920 -7442050 -9091.36 155495 -78046.2 24289.9 
-19952.9 -1140.51 7294.6 -258.79 18221.9 -55353.9 7985.73 -10546.3 -63454.2 
-75626.7 -583994 -5695740 8388.61 -6446.01 -5405.45 -7548.5 -8598.14 40374.1 
5995.51 -20793.5 15673.1 -22914.9 3382170 5079790 37810.4 222665 119153 
11226.4 62191.1 828.526 606.981 -272.39 30681.5 -9616.49 -1604060 -43124.8 
11210.5 2707.26 14522.5 6113.37 16418 48970.1 -64391.1 1549450 1828030 
1380430 20493.9 -183083 -301882 -328376 -19466.3 -12600.8 -7644.53 14448.1 
-52003.2 20907.3 -51621.8 -20655.7 -292550 -35958.9 3365.2 2326.65 -9208.19 
753.023 4064.05 1272480 2321030 187.824 687.445 9411.34 2088.96 14438.4 
63858.4 -43550.2 -21067.6 -3622.39 11713.4 713845 -2698550 -2854150 -2613580 
3302.94 -11987.5 9083100 5872320 19136.2 -15545.9 -20973.4 18665.9 4499.12 
3908330 2451.8 25561.9 -4594180 17358.4 7539.65 24775.6 -34033.8 -2333.74 
4703.13 -14520.2 -8892.99 1540.57 -12764.4 3630.89 -8017.23 15653 -1009.9 
-1625280 21285.1 -20044 53930.1 54961.8 -46072.5 173103 -102225 -2326.85 
-7860.12 -1020.76 62558 20713.8 -18505.9 21450 -14718.7 -9802.54 348.705 
2572340 93183.4 2707500 755251 2281390 121225 -127916 -49606.4 -1460.89 
-7834.17 772.753 10683.6 -26769.2 26770.6 668270 6257.36 -27593.7 5835.98 
4554.46 10682.7 -3652.18 2430250 5122.35 239987 -784559 10784800 -1181.79 
-22420.8 -7693.05 3297.59 25707.2 35325.8 -13750 -45323.9 434134 -14609.5 
-8177.39 -5541.65 -11603.5 7071.56 -8611840 -1390790 -7363490 -10166000 -4131970 
-22703.9 8453.18 -54229.6 2721.18 -1607.27 8761.67 -495691 -7676050 -4384480 
-2850410 -134014 -3403960 3641970 1023940 4030780 -83592.4 78989.3 -3611.35 
5041.26 6239.86 4618.92 11380 9904.67 -11000300 -5570090 -7808590 16809.4 
-4327.55 1781.42 -7062.12 95029.4 214257 353187 806551 610662 21222.3 
-33864.5 16523 1668.51 -5191.4 -253.105 571497 436155 604956 -23031.9 
-14307.1 -38135.7 219957 758.173 25190 -2049.05 14085.7 63577.3 -15914.7 
3206.72 -2701.4 -6025960 37794.6 -17093.9 2709650 -292118 -287310 -631716 
365135 21189.9 -28686.7 -54248.7 5152.77 13293.1 -82222.4 -50289.2 -2850490 
-5901640 -4547740 -1699200 -94780.7 109492 74336.2 -197024 32101.4 6664.38 
6504.24 19486.9 -19989.1 -59502.1 1259320 12290.1 3359640 -20459.7 -13389.5 
-19020.2 180545 7498.07 -2591.01 4231060 2512820 4015150 2532.32 -7676.11 
6305.19 1584.92 199400 102087 500421 -1509370 3960.66 -12809.7 215433 
197623 -2104.87 1272.81 58236.8 1514.76 39003.5 -1950180 -9821390 -20248500 
-8995240 41825.1 93038.1 264613 31633.2 -10037000 -4967520 -11364000 -6422450 
3706820 12151.3 -8173.23 -2708390 -4088550 -4473680 -5314900 -5921920 -13034200 
-14719800 3489.54 -58538.8 4514210 -1500520 -1051090 26696.2 -6771510 -4283540 
3011.86 -62156.4 -17635400 22523.1 -3711.46 8458.9 -15440.6 19336.5 -37423.2 
-43820.2 45909.6 -88786.8 1637450 -21413.4 -2405750 -10369800 -8198850 -92184.7 
2055160 4616400 1625400 837692 -124.366 -2143.66 316127 -2036000 -10187.7 
-4601.16 -7377920 38651.5 -1546760 7714.16 -2015.19 293978 3403850 81432.2 
-3103270 -1927930 -30827.6 4041.4 2544380 -7951710 -5268.17 -39181.1 -26828.4 
53532.2 -59382.1 4391.61 13244.5 -8322350 -388844 84644 -25871.6 6539.64 
-4981.38 -3664.51 -7510610 -3612840 1789.31 -31116.1 -15815 -24261.4 -9868390 
23799 -297960 79933.1 174732 4060060 29122.3 -21869.1 -4910.99 46805.9 
2140.7 -4506700 -5519260 22052.6 -13983.4 -3073090 153169 206818 101965 
29837.7 32801.9 135944 -70517.2 1926820 8168.85 12639.8 -39142.1 -11057.5 
6186.96 43329.7 4869.95 -7039.11 -13063.6 47617.3 -3620.89 -2649.24 -7654.41 
-9236.37 8572.3 23099.3 -606146 17665.6 7095.25 -32414.8 51369.8 -27139 
16092.8 -13666.3 -8223.54 5548.16 -42827.6 8451.54 -1959.88 -5675.56 -6801.18 
13611.8 -6691.04 -1813.39 -1953.68 -30047.4 -344240 -391797 -17643.3 
Stress%20zz%20component 1 3545 double
-5554910 2939410 38161600 7273340 63203.1 32126.3 -95465 408438 142189 
-2394980 2252390 -4149900 597043 -567994 -18242900 -41302400 -6826360 -1016390 
-1887640 25338500 34498900 -3242660 -31183600 -18507700 9319710 4412510 -47375100 
-32331300 -6821860 -1501030 6508190 -7646550 234208 -1232190 1251960 4194180 
-1189330 978197 59363.1 73977 16857.5 15264.5 -83338.7 -38185.7 -47941.6 
-18281.4 -107612 -85103.7 -72529.2 1202810 6066960 -982603 -23913400 -6002250 
5064220 2411290 700336 452016 83646.5 111831 22607.4 -93469.7 -66595.3 
-9893.65 -30259.5 -94484.5 -54031.2 -114522 -34092.9 32232.5 50489.5 72083.9 
33593.6 10538.4 -53732.1 -49640.8 -60401.2 -71374.2 41404 103943 34151.1 
58067 -29584.2 -21457.1 -70362.1 -68382.7 -58614.3 -46393.7 -318974 385382 
-88515.4 9343.32 159752 147642 -1247.89 88299.3 33662.8 2980.3 11758.9 
5286.52 -40.4432 -236.884 137217 422983 584777 226408 168291 98800.8 
136795 98302.5 25382.1 11899.9 16072.8 6158.34 -36811.6 -22661.2 56079.2 
-58091.9 -884203 310626 -640137 3103360 -4924620 -904937 -1633810 -1141240 
-558838 -861523 -1311060 -20722400 45421200 -44463300 27414300 -37728600 -11567300 
2585830 19981500 8682930 3163310 1679870 -124784 264697 6718.23 -48587.6 
12451.1 -171798 -147447 -158033 -96263.2 -273941 -70431.1 38213100 1134190 
-9516760 -21650100 10787800 12227900 13807700 1816890 -150513 371886 199916 
-93816 -51824.5 -117620 -191951 -214519 -337721 -310763 -257055 136840 
343547 166331 154156 74244.6 37384.2 -29606.6 -93156 -172289 -238047 
-62634.8 204415 212508 222945 94694.8 22674.9 -71356 -144043 -306532 
-242102 129752 239564 90207.5 21351.3 115596 -19856.5 4769.17 147440 
22924.9 6153.36 22322.8 28978.6 32115.8 15763 -38032.1 -570923 255296 
712658 210000 366072 42672.5 157042 153862 85293.2 43340 39313.7 
47954.6 -12813.9 6621.72 102513 -3068310 -1913280 -2114760 -773971 11283700 
39482600 6741500 -4340070 -4524730 -3196700 -2432350 3516130 18699700 15869900 
-12201000 -2891020 161599 -3496920 30292700 11129300 -20796900 -10795000 41765500 
43443000 -4011630 15275600 -711316 -13171800 -14609900 41314100 3557160 9391800 
43657100 31950800 -16794100 -13289900 17996000 20454400 -24300500 -3012330 -7610210 
-12703400 -27502800 -27095600 -14777600 -16809400 83427.2 -16607.8 2016460 64355.8 
3379.29 -955.522 -6611.92 -1791760 49846 -77931.1 -20640.4 26425.1 15312.4 
72831.7 17306 41546.5 -2021.93 -39517 2173320 3715920 15264.6 38850.2 
6083.58 -1468.81 -198095 -1654620 -43256.8 -67207 7986.35 -22240 -2618030 
65412.6 74.2999 21452 -16230.8 7374300 -29592.8 -41614.1 67535 -496739 
-155280 244928 -15622.5 -27419.8 125427 269726 99699.6 17689 3329.54 
115289 8427.43 -11560.6 9515.58 -7710.48 21246.6 -560928 478664 -7443720 
-5247.81 9474.45 -3467 -36796.7 66943.6 -90122 11594.9 922822 60980.2 
4324700 23920.6 -1351.02 32766.6 -86012 53264.4 -386684 -24473 7290.26 
20187.7 -5030380 -41166.3 6840.19 12673.6 -4831.58 -10320.5 26350.9 19386 
35949.5 -42563 -47163.1 -2013.29 -44098.7 -20069.8 -18617.8 -4348.86 -24277.9 
-72011 -1107.48 3940.86 -2543.54 -14633.7 -336842 3583740 141911 -9526.18 
-3663.67 -82393.9 22357.8 -3046890 12091.6 -25218.8 782.063 38245.9 9426.16 
39143 1132950 -1121200 196686 -399143 10512.4 2301330 286299 -7610.09 
82186.3 54753.5 -15806500 4915140 -44788.9 -49548.3 -6996.89 -1426.14 -815142 
34995.2 -45187 -5656.37 882559 8202.59 -77096.5 13261.9 49303.2 80748.6 
-274619 56342.9 -37857.7 13969.7 40690.4 182104 86.8774 -16068700 4677.28 
1762390 328226 34509.1 -80159.6 -435.938 -1233.01 -19863.8 -17089.9 -170272 
30576.3 -3989210 -29377.9 -906323 64915.4 27755.3 -296898 1397570 -138201 
-9075.37 -80251.6 55853.1 6403040 -18999.5 4691.57 -42397.5 36303.9 242324 
-24422.3 -11522.1 25755.9 -13074.3 -5731.51 6297.83 -91965.4 -159468 -19172.7 
5201010 134089 92958.3 -13084.5 -1618020 -2154650 9386.16 -9588.22 4068.72 
135919 -1551.52 -10375.5 -11025.8 -6418.03 3115.86 -43338.4 -1979.86 43931.3 
-16698.5 6567.22 -36139.5 58483.1 -90427.5 -785249 9294250 -27502100 5858910 
245781 -5554980 22924.4 28199.7 14745 -49455 -1310.82 -24665.4 -116296 
798467 1539340 2714420 -27356300 -40706400 8581080 4339260 2261610 8219590 
2505590 -1887640 -6129090 -41090.5 275714 178928 -167227 179087 -277801 
284907 257398 -84508.8 28918.3 285259 30313.1 20377 272162 35410.4 
-455.01 85615.2 -44189 -4918.84 169339 8232.65 -38993.5 73142.8 -33982.3 
-2107.24 116115 -21290.9 296.839 4353.64 -15300.9 -1532.51 11781.6 -17181.6 
-9024.69 64233.7 -38020.6 -32661.3 43257.6 28383.5 3512.12 -65983.9 -20610.5 
1358.37 41891.3 826046 811570 -1236470 -446253 551243 -628227 838020 
1346750 207058 60535.4 -705266 235073 -149719 99196.8 6808660 -19973400 
638537 6828330 18377800 -8300420 45929900 -69467.2 -60020 43398.4 28905.6 
-103897 -52525.1 -40984.3 42304.2 -12319.5 -40614.2 43819.1 2076.13 27723.6 
-102918 -24039 51116.4 -15652.9 40476.6 21873.7 44690.7 66767.1 73876 
-30878.3 83894.2 66233.2 -53677.8 -19753 -88149.7 13127.9 10912500 -4875520 
6434500 353578 7544480 3074790 4431360 -3729790 -6761320 -281322 599968 
-18024100 4937810 -1771090 -771129 -1846540 1091460 -142715 -2634080 3395960 
-1540170 -936773 -168928 -3010230 1466730 -10702 -19054.4 -76290.3 337324 
-95526.4 -68306.1 76787.8 54839.4 -41696.8 1684.96 -14933.6 123743 57934.1 
30248.3 -48343.8 8592.38 -16965.5 75291.5 26368.3 -75495.3 -5803.85 -15224.3 
82295.7 16972.5 74959.7 -13025.4 5543.7 32934 -42749 72139.9 57179.9 
-26716.9 -22361.2 -2501.9 90215.6 61071.1 -19863.4 -100569 152359 54687.3 
116788 45146.4 -71199 -115519 64377.8 88225.3 9939.37 6410.6 18314.1 
-73573.1 52593.2 -33809.4 -1768 40144.8 -76808.8 96536.6 -64064.9 5888.54 
53275.8 -10534.6 -3744.68 -46409.1 15189.6 12154.2 698367 378007 201471 
978093 2005610 197911 205984 2164970 536813 -4652950 -191205 -2925660 
-2476610 -2379530 141262 -66067.8 40858.3 161473 35467.6 -29902.3 -80222.8 
-55094.8 -60168.4 81531.1 -136643 -21985.6 -116193 -63490.1 211095 -50967 
-126842 185814 67558.6 210004 -18513.1 -6417.84 -161440 5263.56 77279.2 
4263.12 8001.54 -26655.2 6587.61 4629.36 28654.9 -73711.9 -24383.7 39592.3 
-42656.4 -131.372 -13123.3 32607.7 49353.7 -69061.9 8011.96 15585.8 -11809 
16508 -18298.1 22288.9 -33392.4 -16492.7 -10890.6 5880.24 1388040 3141720 
633627 2245670 1377600 -5070400 12614500 -5575730 -5458140 -10491900 -12865000 
667227 140538 43885 -10859.8 297460 -68470.5 -78279.8 -120143 -9387.52 
128740 42251.3 249386 389244 40317.9 -54606.5 -161109 51665.5 -102003 
-53653.1 -96381.7 92806.9 102224 -418391 -119306 -165273 -48455.9 -41985 
7086.52 -4814.7 -14708.6 5382.05 -46619.5 -14195.6 6993.62 -34827.2 36229.4 
24937.5 71592.5 84911.8 99768.5 -30608.5 -25830.3 -1018.39 96642.9 -85739.5 
-4642.07 -29279.9 53772.4 -47003.6 75069.7 47540.1 -2279.24 -98237 -32548.3 
80326.5 -89453.9 -81256 -34816.9 20539.3 -378735 142059 361207 -191299 
-156361 42558.2 292890 -87972.7 -24368.7 -191657 266247 183344 29376.7 
-30306.3 15531.5 20401.8 -8026.86 -45177.1 -55278.8 -44644.5 336.787 12779.7 
-39483.4 -73509.6 -14186.8 29048.6 23209.6 -106703 59048.3 -14726.6 -850.551 
-54640.5 -58557.9 -12152.4 941.857 18814.3 196831 -73298.1 75177.1 18748 
-176887 69850.6 -6631.29 117658 37216.6 30504.7 -114275 119740 -30474.6 
-97966.8 -5928.34 -138730 118136 -165322 -71325.9 -1591660 -411190 1104480 
2030600 4609340 1787270 7767060 2628330 654754 8156940 3915510 756267 
4235130 2489540 -104671 1465890 3017550 4325010 1340390 1191660 1928280 
377459 19161.8 9090.96 13239.2 10029.4 -36591.5 14743.2 5572.66 1331.86 
17843.1 -7634.87 38423.2 -960.165 66043.8 30780.5 -100130 -45555.1 117004 
-77182.5 34067.7 21105 -84838.6 -15477.9 38991.8 11384.5 729.588 -9074.76 
35054.4 -37941.9 -10555.1 22970 -32367.1 41046.3 -28255 -37113.4 19109.4 
21359.5 -3801.52 57057.3 -75854.7 26358 5322.17 33723.3 31068.2 -16725.8 
-196780 -82570.8 -258764 -288664 -120586 -32004.3 -11026.3 -94753.1 22163.4 
10264.2 -1072740 -1003720 1480450 487258 -635949 6455400 -387806 929280 
3909.72 -35504.3 -8954.45 -57039 113718 -34129.3 63025.6 48203.3 -78386.7 
-12754.6 85160.3 34619 -77416.6 11838 -9180.17 -104879 22259.7 2342.04 
-23956.7 -59652.6 -8649.05 62902.7 38970.1 -31859.7 -89687.8 31350.5 13924.6 
21038.8 105675 4134.83 101244 2143.59 -19590.6 -108181 -49162.4 -37262.4 
57675.8 1728.5 -11559400 -5141010 5086740 -2527160 -13680000 -4411640 2104940 
-5020990 1845950 60305.1 1516.63 18435.9 -38122.8 116256 -26391.1 -4097.85 
-86957.1 -13335 2023.32 19305.6 -20533.5 -2949.09 15745.1 20280.6 8269.51 
11652.9 -39154 -3466.34 151.335 -25340.8 12144.7 12581.4 15937.9 -38292.6 
11226.9 -25772.2 42112.8 5721.39 -13029200 2503820 3141170 -2655380 2811270 
7802420 -11710800 -18832200 27868900 -18481.5 -5895.16 -20348.2 -86049.9 50231.4 
-75879.9 6488.17 -139671 -22039.9 7833.35 13416.5 77248.3 -9874.27 88569.8 
-25871.6 -139481 -40872.3 -47593 -107276 -9871.57 25585.1 148015 173421 
81657.7 -49905.3 207113 -1072670 -338107 352183 -573297 -6249.86 -322807 
7808.05 -109805 169099 31358.4 264712 -194886 -549946 186767 -98310 
-19635.6 969135 19374.5 -33214.6 9678.11 -37535.5 -10854.3 82858.8 -33478.2 
-77861.5 75787.9 22374.4 -50981.9 -32867.2 -39758.1 -12921.1 -26429.7 37061.9 
282729 -112467 -175418 -28784.4 337437 -9232830 6289580 -855476 -4282420 
71471.2 -102966 13320.3 37624 64482 95593.5 -51825.7 114852 -49764.6 
-1103830 -666518 217484 521267 97.6482 -206706 -49138.3 59783 45096.8 
-2716.17 -47436 36833.6 21147.1 138539 -21590.6 84007.7 -3667.13 62971 
-62145.7 7412.93 -77515.5 698778 -13248 14868.4 -20954 -8369.47 -15850.6 
6071.44 -341737 41630.1 -83153 -99527.7 -39976 24855200 116043 -12836700 
-5972700 2095480 7759290 6050070 1540520 6702760 -981314 165219 69532 
-19717.3 -35713.5 -7592.38 -40678.9 -95994.6 -59930.2 -91541.8 -121028 13398400 
36070700 13096000 30590900 272982 96260.1 -20844.4 3417.31 -12732900 -844292 
18736400 13369700 -3233840 -1270000 -21748100 -20898600 -25544200 1766290 -4181010 
-2779000 -1910100 -23230400 1306680 589850 18393.6 1563410 8751240 5468430 
6824350 17434200 10636700 14253200 2888040 6174120 5651560 7950970 11898600 
1919290 326556 1398610 1668880 8933600 -358434 98722.6 2440160 1813520 
276296 82194.6 282381 -732277 137312 403834 84493.1 182628 198715 
194646 313616 43522 -50688.2 47795.3 33539.5 -71482.5 -138152 -30227.6 
15138.7 -23515 -112383 10601.6 -88038.8 -101108 -99441.5 62011.4 14560.6 
-61027.4 -114271 -89720.8 -178534 -11584.5 -149179 -102951 -130023 -199135 
-98922.8 -236471 -113426 -119273 -329423 -119138 -137242 -59557.9 -142182 
-95284.5 -97869.1 -227807 -171898 -209538 -364479 -114794 -97424.7 -69496.2 
-10549.5 3058910 -52932.8 -63548.5 8472.74 5671.83 -2879410 92348.2 439146 
13053.4 -14252.5 -18253.8 21099.4 -8548.75 6084.29 49281.4 72535.6 -15047300 
3913940 18326.7 -56354 24205.7 -15814 142043 -1346320 9735.43 29953.2 
-41130.8 -6182.65 12861200 -39636.5 -9319.06 -16932.5 -7151.93 15832200 117389 
-47423.7 -102679 606037 -150710 -208340 42418.1 8326.82 225214 13245200 
-41280 8058.82 57697.4 1175920 -24852.9 50333.4 -30286.5 1302390 -33228.1 
-13934800 -1850630 -20953300 -6205.98 -5435.75 -4944.9 108134 -20132.2 1283310 
18919.9 -15952000 -64153.2 1576100 -6202.78 36725.4 -2589.36 63016.7 -49175.7 
-63285.5 27619.5 -38762.3 11754.9 3160800 92257.3 -19895.1 -5962.78 -15104.1 
3574.88 -38692.6 8004.95 356461 -29131.5 11699.5 1039.22 8138.94 51721.7 
13088.7 10122 2943.05 94124.7 2797.09 3319.74 -1347.08 24125.3 8119050 
6382780 3468580 -12890.9 5415.95 -8708.21 26190.9 -5696920 -6313.52 96950.2 
-11338.5 65071.7 -21140.5 19285.8 -15456200 -9189230 573001 -12483100 439.276 
3562610 53325.5 -15432.5 9112.73 -27879.8 -60452500 17173400 2698040 42190.9 
-33929.6 3000.59 18091600 -122482 64928.4 -51257.2 681606 -54021 -12493 
-40976.1 -68690.9 -42052.5 -1807150 -46667.6 -5780.76 69715.3 59072.3 -207325 
-23246.9 8483250 -6654.16 -13453000 572726 -4889.64 15021100 -2843.15 6612.5 
-22975.5 7719.35 128098 -18347.7 1388140 -941.1 -1015570 -146513 -11248.6 
140873 3088790 841703 -4147.19 -32565 52854.3 10161800 22372.7 -169.96 
25880.3 27014.3 2605530 11718.8 74691.7 -30124.8 -16057.2 22106.6 28862.6 
81147.2 202111 25182 17802700 1185040 351982 -37574.8 -17164700 -2299380 
-7761.21 697.662 -15734 31144.9 33005.6 21524.6 -27620.4 -13101.3 25571.1 
374219 -7575.88 40943.4 -8304.17 -1258.33 -28279.5 49364.7 -681.415 13208900 
-4819300 -1840350 17663000 6940510 3441580 40360.2 207090 6439.2 -4257.66 
47731.6 -18042.5 -28598.2 586224 316658 1055520 738644 -629810 3120.96 
421747 -333224 960299 418508 -1598570 1230230 194704 8494250 2287580 
1870120 13448900 9867900 5457850 -65734800 -38054500 -11496700 -1217350 -996.562 
-25817.7 76328.8 11355.1 -62429.3 -71366.9 -38262.5 -27712.5 16570.3 6167.56 
62532.7 77736.4 -13006.4 -70537.8 106391 -23740.2 -48728.6 30848.8 -17229.6 
116642 39356 54242.7 -32301.1 -23225.4 12551 -60265.6 -111785 9721.41 
-43271.6 525365 16038900 -44356400 -15228200 -3765970 9172990 -12987500 -11333100 
-4064650 -17045600 -26629900 -6314090 -6894940 24180400 -20752400 7389630 8791320 
2711430 -2025020 7513340 8265570 8845550 -2050660 -1944990 -12653700 -3561080 
-8643010 -3329530 3832970 -1056800 -885380 -1001580 -1909590 -2491590 -1108050 
-1028820 76443.5 95089.3 141391 -52533.5 27608.2 113325 143539 52396.9 
11.7723 46156.9 79461.6 -10201.1 62289.9 -32305 -16632.3 -284.672 -25002.3 
46297 -145920 -18278.4 -4309.72 126043 74195.3 5710.54 -4994.75 86583.9 
8837.25 -47740.5 -16423.5 99996 -37905.9 -17042.6 -6230.19 -2170.23 -43572.3 
-8149.8 -110467 940112 29483.9 423915 263298 -152679 340873 246144 
420391 -9055.49 -134626 121419 -30649.4 -27312 168537 -103711 -46459.1 
68638.5 -20313 10754 47111.5 -89329.5 -57669.1 95650.5 -20186.7 -13794.9 
53813.6 -27105.7 -29925.3 520.769 -7613.39 -32132.9 24911.6 -12855.7 -28075.1 
43462.3 -49271 -15409.5 30176.5 11936.6 -11918.5 -4263.46 -88994.6 8442.7 
36752.3 -1145.29 4661.52 -163591 -37281.9 -87746.2 4423.16 92752.6 952.215 
-91602.5 -60962.1 284067 99324.2 48591 -133160 -23768.1 -95306.2 63467.4 
17358.7 -48926.6 -37143.6 11055.6 34801 -57260.2 13419.3 31619.9 -40777 
1859720 937519 2095800 3384210 2748800 1684580 1122390 2539370 3538870 
4123130 3922720 2603810 3981490 979064 -65691.6 -66260.5 91285.8 -143305 
140857 -112280 23824.8 -20371.4 60219.2 32160.1 86776.5 -98712.9 21803.9 
-6890.19 -154051 -83765.3 -59248.9 -96106.3 162688 -8738.48 31953.7 -173371 
-13011.8 -6001.31 1273.46 -50984 10485.8 -16924.7 34265.8 60538.3 -31828.1 
-50251.8 -81883 57024.6 -61632.8 -630.811 28719.5 30012.7 18726.1 -14272.3 
34748.6 -3887.55 -5599.32 2084.12 -21121.7 28674.5 -17937.7 -50557.8 -22358.5 
-9683.16 -10166300 -9830280 -8278620 -661525 -6711580 -1001460 -135162 3051380 
-1883430 233715 4783740 18435500 195943 141299 294014 5474.08 65927.1 
-40836.2 -257247 -58985.6 -182497 316413 1124060 2476740 2145370 267639 
776462 64738.6 127503 -645.701 -6319.73 143867 1207180 741314 43219.1 
318041 22479.8 -41668.3 -24079.7 -28225 21063.8 3108.88 -43575.4 37326.2 
-67201.3 32934.3 5419.48 20153.4 -13379.5 36171.5 33712.9 -51139.2 4288.93 
-15903.7 -2080.03 9483.01 80995.3 -32114.7 190651 -16656.1 -60244.1 -55752.9 
-41195.7 -111659 -87516.3 26.0511 -42202.8 -34517.2 22336.6 -139633 388353 
371434 -108100 -75429.1 145660 120257 376089 -18738.9 169786 335036 
94829.7 471826 -6196.76 -90058.1 -12228.1 -1986.31 27057 30849.5 -13368.2 
26899.6 1350.51 -46777 22132.1 27986.5 -42572 -12701.3 4687.34 57089.2 
113748 48355 79756.9 62398.2 43524 43217 74608.3 29531.5 234544 
-49930.3 11134.1 -9757.15 124811 -82833.2 39384.7 -55341.3 23225.6 -37625 
150351 -101541 -762.221 31141 2666.98 193230 71517.1 43749.7 194593 
-14853800 -4369500 -1930920 -34400.9 -12497900 -3599090 -3057600 -9154170 -1453030 
-1413640 -5089710 -557698 93744.1 4431220 -2306220 -15668300 5720520 -4149440 
4778900 4145280 3182760 2927140 6507.36 -27633.5 38721.9 14249.9 8994.91 
26846.2 -80530.1 26163.9 926.058 -4483.49 80159.9 -26272.7 -66722.6 90679.2 
3794.44 -23183.9 -14907.6 3300.07 -68191.9 -89326.2 -7561.6 -19687.3 40043.2 
35269 21751.3 15930.7 328.164 58211.4 -16079.1 -12663.6 -3948.12 81476.2 
-16515.6 50190.7 -100649 -22669.3 39286.5 52380.6 -85973.3 -33779 29110 
52272.5 -41927.1 35052 740254 64010.2 362984 -43955.5 -105617 26101.6 
263246 47907.4 183504 327222 -1027300 -4357530 1174080 4278130 -2023170 
3512280 1699640 2948060 -85411.6 -944.992 5270.86 -2535.17 65379.5 55079.4 
-7274.58 48912.5 38556.3 9274.2 71343 14678 -6160.51 103724 9967.87 
-73758.4 125541 15510.8 34474 -32381.5 -17875 38769.8 -3419.22 -37336.2 
-3110.83 -104900 17837.9 -27852.5 120547 34966.1 -57546.2 -53201.5 52307.5 
-6859.14 -39344.5 -33784.1 26527.2 -50675.8 13968800 4732680 3721590 7216140 
17404900 16246800 9615300 -8269460 389407 156272 -76878.5 30445.7 16812.3 
-53571.1 -26819 -122222 13265.5 22195.7 -13680.6 50707.8 -58887.4 6257.51 
21652.7 -18999.8 9746.24 21774.3 -14309.3 -1346.06 -34267.7 -49681.6 14435.8 
-28385.7 29593.3 17519.9 -21627.7 -20532.4 -6937.8 46878.6 -8879800 -22858500 
-45983900 18811100 -18376200 -11351500 23284200 558.877 46520700 240877 170098 
16701.5 -20663.9 110061 100792 132261 -16722.5 10942.7 64498.7 -102806 
43494.8 86841.6 -3855.72 -4067.49 -40740.1 -66172.7 -151204 -144704 68063.8 
-236316 -136511 -116365 -102959 916969 216311 87303.1 809602 530924 
-656208 92870.8 -139041 -210775 -296314 129827 8763.16 69878.3 47837.4 
-116941 110435 -608560 -206604 662232 -43733.6 41104.4 -58935.9 69946.9 
-8718.76 28594.2 54626.8 -28712.2 90980.4 50415.4 2676.11 -18294.5 -64148.7 
81647.8 134801 132520 208250 186931 320120 333440 11522100 -6774950 
27543400 1132620 11638200 9383.64 -14103 -34326.7 -36731.1 -54591.6 -4490.51 
-69585.9 -48046.6 157388 442757 345084 956028 2252370 2287140 951721 
4407.39 -75849.9 18258.9 41199.7 14753.9 129712 -31622.5 45020.8 -67955.3 
-40096.6 -78754.7 97610.3 26940.5 -46865.3 25138.5 667227 -8743.6 -72.2119 
-57337.9 -13009.7 -5494.52 -24402.3 611035 1896490 620380 -77950.8 -51217.7 
-805653 1759130 -1620210 -1212080 -2235010 27537200 -25838200 3826660 -53190.1 
-4501520 30754300 21465800 -1326320 -2905540 -3010960 -4185310 -2052370 -2207720 
-2892470 -1933220 -2693750 -2586400 -2518250 -1273830 139251 703123 6572180 
-195732 13370000 45006900 7700010 4695230 -9885350 4581940 -17795600 -1555500 
-71286.5 -2089150 18221.7 -255797 -2242870 -1056320 166037 -13124900 21616200 
-6337130 -1979270 106177 76191.2 46571.9 66876.2 -37833.7 -92109 -60984.6 
116800 -11694 -113040 98973.3 271680 -31187.1 130242 60824.3 103523 
-15897.7 202823 277286 69168.3 116754 32384.6 57842.4 66773.2 171554 
150868 27143.8 56397.6 95436.3 83266.5 149725 104231 -76035.6 -39426.8 
69063.5 47567.3 2712.71 -53268.5 -46432.2 8517.7 11963.9 -13960.7 -164711 
-90228 -24789.7 -75359.8 -88023.3 -133479 -138827 -98999 -169917 -57507.4 
-71319.7 -329427 -25394.7 -211311 -234255 -119683 -85003.8 513235 318683 
3969.97 -91947.9 -49870.8 67526.3 -31938.3 -15762.9 -36750.7 -11207.6 -13787.3 
-13521.9 -11989.9 -2504.76 -13683.8 14040.2 53678.6 91209.4 -388888 574196 
-1001290 40179 -399171 68707 161178 -823498 619123 434959 -63322.7 
108979 -408084 89701.5 -198921 25421.9 -116568 174279 -27441.9 -125782 
52475.3 69228.3 240433 63014.6 168429 149022 73372.5 -44198.7 39214.8 
33734.8 51952.2 111599 42060.4 -47105.6 -62987 206479 44609.3 256996 
40124.3 -2719.6 -13227.4 59391.8 117478 -22803.4 77619.8 -19627.4 33318.8 
-14930.9 54015.6 40898.1 -17974.2 17865 -17974.1 61869.6 62495.9 -961.85 
28493.2 -13143 90400 352.454 -32740 47818.5 19126.2 17889.5 55215.8 
-61284.1 29439.2 -29997.4 109864 42038.4 -123844 -5299470 -183946 15534.7 
20742.2 -7145.59 -26640.2 -23247 -7117.8 13165.4 -3870910 4276890 20768.5 
236665 -33620.3 17647.3 25520.5 25543.9 -534.156 -1236.51 -22563.1 -57340.8 
75595.4 20886.3 37110.2 -7754.18 398.516 -2847.42 13843.2 -20892.8 -15347700 
-10130600 -8340520 -3166510 -12693800 2933.95 -29717.3 -301024 -60870.5 -119037 
-110291 -40883.1 52663.5 43398 -61465.5 -13280.3 59312.3 -116630 11537 
238281 -210204 30977.1 229766 -243421 48446.1 10665.3 -13695100 -249654 
12435.1 428314 33520.4 14199.6 76351.1 35029.3 52742.1 -63256 -557308 
-327310 -6572560 -1164940 -663920 -181658 106856 41402.4 54274.8 89784.9 
17595.8 -91696.1 33088.3 69344.4 -60827.5 -1195.07 -30497.7 9659.13 -4659.78 
13076 15691.6 35258 7657.24 -46290.3 10464.6 -12397.2 19555.1 8612.46 
41328.3 -25221.2 217013 -12816900 7324150 4514560 -18996200 20568.4 31549.2 
60544.4 -81537.3 -30947.7 42932.6 -19964 -20395 8773.44 7499.04 -252356 
394035 233443 -59007.6 -67712.7 34255.2 -28996.8 -48062.4 -37732.5 -94490.1 
-12839.5 -29283 20576.9 20967 -35130.3 -2681.86 1841.05 -7799.86 8533.62 
19688.5 -19000.9 30007 12758.2 -12612.5 169627 788580 18747700 23435300 
-24569500 -4005170 -2877350 -1468000 -29443.6 -255.021 -41391.8 -23190.8 32569.9 
84564.9 47442.8 4996.62 -16207.6 171050 -26311.4 39414.3 -5027.34 1615040 
270263 327271 -923385 30316.2 -50796.7 -71928.3 45977.5 45666.6 -12255 
147.826 68753.3 -21277.7 16871.8 30843.9 -18824.5 -1287190 -537870 -17490.1 
-18493 29640.3 -38080.7 13009.7 5220.41 -5567.73 97422 -60676.7 60440.7 
733.925 71713.2 190697 -15174.4 118664 114540 -185278 -100246 8729.7 
-4790870 1934200 -2896100 -3550760 27316700 -5457430 -5546160 427358 -13122400 
-3802.07 39441.6 14623.4 31264 -13548.2 43759.7 13236.9 -13392.8 -12974.6 
-9857.52 -1365910 -1022340 -18514800 -5674980 -21607700 -20421.6 -6117.87 2174.08 
-14771.9 -16263.6 20559.2 -20146.1 -23938.8 17478 5408.17 -542798 385954 
290643 -265909 -32496.7 -53475.4 -35553.8 -4245.19 -10542.7 -552920 -426237 
-34399.4 -37544.7 6123.35 -15336.1 4890.09 24982.8 -17252.5 13940.3 32800.8 
-8612.04 86524.9 -71488.9 375.015 36526.3 1425.09 27610.8 -3177.11 -69188.3 
-37562.3 -132011 -41301.4 -6951.67 -39112.1 -25250.4 -62898.5 18415 32938.3 
17221.7 -43783.2 24936.4 9083.46 18514.3 153606 1131110 50006.3 53281.8 
10063.4 19766.5 -24517.4 -28776.4 4695.32 58823.1 31552.5 -17034.8 -35653.4 
-1610.38 -9904.18 -41998.7 -12828.7 -34826.9 -104582 10895.9 -63740.3 42226.5 
-7779.93 -2510.82 -2337.61 10510 7549880 7809860 4442350 -6031.14 810264 
81388 69067.9 -3693430 -131.648 12227.8 -12074.9 -21167.4 -58715.5 26372.8 
-36904.4 64720.7 35909.9 -5698.45 -31010.4 1296.99 11694.7 16885.7 -69.2264 
12879200 5554770 15512000 64782.9 -17478.8 -16636.4 22932.8 -32830.5 -671.92 
-124965 54452.5 -97373.2 -29993.3 20986.4 -3890.86 -16144.8 27254.1 -47265.2 
-32065.1 -58823.7 -67457 50678 -59126.4 -46785.4 2154.21 71873.5 -8996.21 
-2829.1 198.538 8214.89 20067400 -36888.6 15362.3 -22754.5 -78355.3 69327.4 
35432.8 -15365.7 35058.8 16681.8 -212929 -485273 816723 -126353 -59938.5 
-35213.5 282735 163710 139760 33259.7 2872.33 10967400 32288800 11804.8 
-213361 -43265.7 401.696 -10181.4 50843.8 4353570 15824100 9770000 1032250 
-58463.4 -40528.1 -17145.2 8968.3 -1555.73 -60043.8 38575.4 -117572 16583500 
3237480 9095380 -4166.98 -3092.83 -23556.5 -1150.16 -17679.7 14321.8 11265.6 
-2515.33 -39022.3 -10082.8 -4464.32 19469.1 24467.7 1443.3 33097.4 4908.12 
-3376.26 57352.9 -3641.95 -15902.2 4371.56 60842 -43849.3 78893.1 -101468 
-73301.8 17355300 12342200 72853.6 -26677.7 -29321.6 19260.2 -66079.2 32902.8 
24741.2 42482 -41003.9 -8426320 -9061840 -45978.2 98897.4 -100079 135804 
76460.4 -400484 -243396 48288.6 9592.53 8167.14 -2513940 62832 -42557.9 
14300.4 21286000 16781600 18979600 7889240 -7118500 -9517.7 673.122 6616380 
3780510 -11163.6 -47307.6 236171 -280757 12026.1 1295.83 -3404.13 -42079.1 
56629.5 16585.8 41762.7 -14562.2 1952720 1244750 861020 -68175.6 -27786.1 
-11425.9 -8812.98 -2849.82 -2676.9 54053.2 49019.2 24096000 19095100 -230832 
50129.1 32510.3 74418.3 -36814.4 13834.8 65818.8 -48113.1 30256.1 111705 
-11904.2 133788 497192 -12979.9 14791.8 -371.159 -14810.2 -23180.5 11627.7 
134277 1697950 2369970 1688340 45584.9 -48144.8 17005.5 28521.8 29133.4 
-24874.3 29656.8 6990.65 40141.9 48320.3 562.735 -35940.9 -7096.1 -14115.6 
-10042.7 -27797.7 -18801.7 10242.2 -57564.9 -62937.3 -7373.85 -3515.83 4954.56 
14842.9 -91368 -24867.4 -20998.9 6824.01 -20798.9 2191970 2223100 -6633740 
-6946330 -11327.7 26430.8 66923.4 5867.58 -1917.79 -2096620 -4040040 -5336760 
-20183.3 54877.8 11610500 -980.794 -17885.9 -11329.8 38359.1 -9198.87 -18410.2 
-15303.7 -13627 19164.6 26802.3 -89913.9 -107891 -31214.8 75717.2 -15675 
-320696 26081.3 46971.3 -34999.4 24492.3 56304 -6844.42 -34834.1 -115956 
73443.5 60553.3 1855.15 34314 -13577700 17497200 12034700 -42934.8 35701.1 
-30520.6 24147.5 -17187.8 -42690.1 25116.9 698031 42020.7 1260780 686507 
-26127.1 26924.2 8819.55 43000.9 -28053.8 21075.8 -13668.1 6201.07 -6788.71 
-24565.7 4078250 77590.5 24675.8 -4703.07 -21331.1 -163199 -29184.7 20807.9 
30966 88490.6 51724.2 77774.9 173621 7759.62 -11710.4 -21433.5 259309 
136099 -172.894 17170.4 23344.7 -2454.22 -34029.2 -40288.5 19678.4 17566.8 
4681.54 -24288.7 18507.2 -3101330 720161 1011820 -81774 -22153.3 104630 
-47530.6 26177.8 343199 24435.5 -10987.3 -42861 25189.5 3967000 4068030 
2795530 12967.7 76089.6 82226.6 14595.3 27221.5 1485.41 -61486.1 -23283.8 
14226.7 214901 -8821.89 -16266.3 7245860 1050.66 12953.8 13301 -1505.04 
42641.1 -32690.3 13336.9 10835.5 -7510.21 -4776930 46648.9 -34971.5 -54286.2 
-62415.8 -53098.8 -52107.9 25866.9 30409.1 64623 79428.6 19008 7353.08 
-18223700 -4224750 -10681700 -11080000 100221 5959680 7166.42 764.478 26271.5 
-35808 -12296 57730.6 -135583 112676 16518200 9194800 -123930 7112.88 
-52830 23684 -29456.3 704077 -74799.1 19390.7 1807.54 1529570 1447.8 
-73498.6 57143.4 -236778 1455480 7744.6 48928.8 -19286.9 -1559.53 146239 
-2784.65 3626040 -1307520 78318.6 5077.93 56102.5 -31811 -14405.5 -7921.26 
-37966 -29011.8 108536 -48151.3 36880.6 178381 358547 8460.27 3091580 
2930570 2219430 -130999 -165489 74159.8 -86903.9 2075700 -12106.2 -1838.28 
-15235.5 -10635200 -56265600 -11212900 -26224000 -20641.4 -583.213 31231.9 -96957.6 
-6908.96 -35551 8479230 -3504880 -727662 -24821.7 83814.2 -10038.7 12074.1 
-3279.02 40824.1 -14881.7 46790 -6599.65 49366 -149874 1969.57 -705086 
-57132.1 -139507 180759 73983 -77483 39692.2 -2660.48 13436.3 -13053.2 
20555.4 -4206.07 7735.8 48698.9 6017400 8568620 102023 398649 60388.1 
71169.2 252558 4590 23977.2 -10821.8 45826.3 -4976.46 -20735600 121158 
-167776 96172.2 -50229.1 -120451 -55153.2 -116313 -87825.8 2198370 2000230 
979039 114886 -570382 529096 -341964 -48284.7 -69746.5 56667.7 81920.9 
-91747.5 -13817.3 -123737 -125368 1124130 46060.2 91823.8 18033.8 -184.201 
22994.8 26779.8 1010310 1893620 47877.5 -5067.27 -27847.7 -7971.5 4823.44 
-17424.7 -12056.2 3277.46 4432.65 20643 487487 -3618540 3977160 -17031000 
36226.5 -13210.1 18464900 13247400 -79841.1 -31815.7 -55362.2 23114.5 -71225.3 
-21246100 -27746.1 90627.3 4092680 5708.16 22796.8 -24179.1 58381 -80204.8 
-17215 -99134.4 96118.5 -49958.2 -25798.5 -15164.6 16622.3 -24857.8 5601.04 
16954400 -55762.1 -34444.1 -38259.1 109063 187111 -138300 -135007 13162.4 
-32171.3 10227.6 -8182.14 -6107.56 -27845 -5014.87 -914.279 -15231.8 44620.7 
9003170 607366 -4484140 1962890 -503880 190128 -301809 103516 14489.8 
-3093.65 3679.74 11167 -4234.32 15789.5 581865 -30252.2 -5442.67 187505 
-42575.5 43921 37932.4 -4230460 -8159.03 273621 -20937800 -60724400 16802 
88896.7 23903.7 -21233.4 27432.5 -24808.6 53592.7 -28040.1 1126300 74313.4 
18224.4 -54284.3 -25267.9 -9483.68 -431018 -10093700 3820910 -303445 -5805630 
14001.8 4791.42 -4982.23 -39759.2 -14774.6 4386.7 -14487400 2882510 -4802740 
-10166100 -11442300 -5499710 -883914 -1494610 -4511530 21928.7 -95796.2 -115294 
33692.9 -19245.9 3943.36 1471.37 -18837.6 -5719710 -2967190 -1449180 45482.5 
-41165.7 -5367.36 -14145.4 404762 310984 887235 1150380 494613 83471.3 
27301.2 -70134 26778.1 29054 -60767.1 436615 45877.2 1371000 -31348.2 
-63076.7 9779.2 558251 -30369.1 -67876.5 31389.2 -18723.6 -46320.1 33063.3 
-8301.6 -18394.1 5457580 162734 85078.3 2703020 1708560 -128675 143211 
526460 -5702.99 46294.3 87642.7 -22109.1 -7927.95 -18133.3 22192 1200480 
1487940 -3171570 -3872380 486667 786869 1451230 861169 17423.8 25013 
2357.17 14526.2 17338.8 -23777.6 -9643550 139626 1509150 -32958.3 -23007.6 
-5223.59 197546 411782 -11149.3 -1443480 -23405200 -5118720 -22971.7 -19872.3 
-3332.83 79619.6 127995 1062450 -354778 -12323800 -2676.6 -30636.9 617454 
-21412.9 6117.49 -1358.23 173462 34655.9 -70688.6 -26101600 -2185020 -2354360 
-8210840 191390 4138.34 -810785 300866 14538600 4694900 -181581 -2468240 
1038750 -25485.4 -17279.3 7450780 -1061520 3958580 466638 4609210 6441550 
-161910 -19884.8 54091.4 -5652750 -14879700 -2085570 -204711 -3365360 -1604450 
10127.9 53572.1 -18364800 -4746.9 -67819.8 36831.4 38665.6 -4026.83 111106 
-206897 90976.9 77277.4 1645570 -1715.42 14537300 -15397100 -24646600 -40512.7 
3839710 3281060 8214550 2573140 -37595.9 20444.3 -14687000 -7956340 13483.9 
3989.95 -4460890 -448805 -8656960 62952.8 4649.25 -16007.1 6609630 -2321.57 
29267600 8423860 34446.8 7714.68 4175160 3951760 -9811 30452.6 -13955.6 
19621.4 -13084.9 60637.9 30307.6 -10081000 -119447 -1326780 12596.9 11563.5 
-1138.27 -39926.5 -1532060 -7791660 49747.3 -32017.6 -18959.8 -16367.2 25727500 
28396.7 94481.8 -784504 -1088760 -5240650 30036.4 -55055.4 15381.1 219053 
39781.9 -10176500 -591217 -61887.6 -35269.1 -1096640 744451 213883 58492.2 
-7059.16 -74642.6 329787 50278.4 3544330 -399201 79589.6 177931 43213.5 
30316.4 40807.6 81218.8 14458.9 -50072.2 206673 -8530.72 -24320.2 -40310.2 
25490.8 -29054.8 387849 -5158500 829934 4900.53 -978449 -337227 -290629 
55101.9 -2785.97 2458.48 1393.47 166790 1205.39 4592.79 -87499.2 3250.15 
-21977.6 7116.77 34180.4 -19627.3 -33258.4 -138161 -721771 -74876.6 
Equivalent%20Plastic%20Strain 1 3545 double
0.0213231 -0.000112872 -6.74553e-05 0.0308644 0 0 0 0 0 
0 0.0107325 0.00601286 0.00222504 0.000535445 0.014975 0.00801091 0.00385373 0.00134713 
0.000140015 0 0.0171579 0.00623119 0.00185857 0.000199406 0.0238304 0.0109805 0.00385014 
0.00099301 1.39867e-05 0.0275529 -0.000244269 0.000711674 0.00401896 0.00559107 0.00318286 0.0011416 
0.000315253 7.47903e-05 -1.75087e-06 0 0 0 0 0 0 
0 0 0 0 -0.000104349 6.43065e-05 0.0024756 0.00514574 0.0045297 
0.00209189 0.000725168 0.000188694 2.63536e-05 0 0 0 0 0 
0 0 0 0 0 0 0 0 0 
0 0 0 0 0 0 0 0 0 
0 0 0 0 0 0 0 0 0 
0 0 0 0 0 0 0 0 0 
0 0 0 0 0 0 0 0 0 
0 0 0 0 0 0 0 0 0 
0 0 0 0 0 4.65906e-05 0.0112971 0 0 
0 0 0 0 0.00501999 0.0170519 -0.000136776 0.000187658 0.00487639 
0.00640796 0.00275334 0.000947959 0.000216611 5.78017e-05 -1.85508e-06 0 0 0 
0 0 0 0 0 0 0 -5.24923e-05 -0.000113086 
0.00244879 0.00608984 0.00460341 0.00176316 0.000570021 0.000137951 2.03292e-05 0 0 
0 0 0 0 0 0 0 0 0 
0 0 0 0 0 0 0 0 0 
0 0 0 0 0 0 0 0 0 
0 0 0 0 0 0 0 0 0 
0 0 0 0 0 0 0 0 0 
0 0 0 0 0 0 0 0 0 
0 0 0 0 0 0 0 0 0 
-0.000320625 0.00831307 0 0 0 0 0 0 0.00262677 
0.0205106 0 0 -0.000156461 0.0224627 0.0114154 0.003569 0.000859111 0.0218165 
0.0271599 0.0157214 -7.24429e-05 -0.000115713 0.000165236 6.71062e-06 0.0198951 0.0086899 0.0106464 
0.0144796 0.0143235 0.00286028 0.00483384 0.00658807 0.00890389 0.00480809 0.000712139 0.00156645 
0.0020553 0.00254933 0.00139955 0.000399253 0.000520891 0 0 -1.56765e-06 0 
0 0 0 0.00326703 0 0 0 0 0 
0 0 0 0 0 0.000813334 -5.20851e-05 0 0 
0 0 0 1.56351e-05 0 0 0 0 0.00424792 
0 0 0 0 0.00657825 0 0 0 0 
0 0 0 0 0 0.0048383 0 0 0 
0 0 0 0 0 0 0.000124359 -2.20689e-05 5.33476e-05 
0 0 0 0 0 0 0 0.000683081 0 
0.00506623 0 0 0 0 0 0 0 0 
0 7.84172e-05 0 0 0 0 0 0 0 
0 0 0 0 0 0 0 0 0 
0 0 0 0 0 0.00342822 0.00403716 0 0 
0 0 0 0.000250665 0 0 0 0 0 
0 0.000469974 0.00223216 0 0.000866721 0 -1.59151e-05 0 0 
0 0 0.0021963 0.00609822 0 0 0 0 0.01203 
0 0 0 0 0 0 0 0 0 
0.00333932 0 0 0 0 0 0 0.00851548 0 
0.00209567 0 0 0.00576322 0 0 0 0 0 
0 -2.11058e-05 0 -2.08974e-05 0 0 0 -2.33283e-06 0 
0 0 0 -8.71969e-05 0 0 0 0 0 
0 0 0 0 0 0 0 0 0 
0.00535144 0 0 0 0.00139399 0.00268431 0 0 0 
0 0 0 0 0 0 0 0 0 
0 0 0 0 0 0.0163395 0.011916 0.0118585 0.000681125 
0.00026732 0.00029741 0 0 0 0 0 0 0 
0 0 0.00958579 0.00701043 0.0106383 0.00500639 0.00328798 0.00678584 0.00210882 
0.00121388 0.00336698 0.00151267 0 0 0 0 0 0 
0 0 0 0 0 0 0 0 0 
0 0 0 0 0 0 0 0 0 
0 0 0 0 0 0 0 0 0 
0 0 0 0 0 0 0 0 0 
0 0 0 0 0 0 0 0 0 
0 0 0 0 0 0 0 0 -9.31147e-05 
0 0.000937724 0.00643414 0.000701321 0.00717692 0 0 0 0 
0 0 0 0 0 0 0 0 0 
0 0 0 0 0 0 0 0 0 
0 0 0 0 0 0 0 0.000413931 0.00104694 
0.00117083 0.0026023 0.00380826 0.00291396 0.00468852 0.00542581 0.00453776 0.00413712 0.00299438 
0.00433088 0.00448909 0.00308091 0.00184004 0.000966933 0.00164668 0.000678701 0.000285979 0.000507406 
0.000104535 1.21034e-05 0.000111291 0.000122697 -1.98174e-05 -6.12806e-06 0 0 0 
0 0 0 0 0 0 0 0 0 
0 0 0 0 0 0 0 0 0 
0 0 0 0 0 0 0 0 0 
0 0 0 0 0 0 0 0 0 
0 0 0 0 0 0 0 0 0 
0 0 0 0 0 0 0 0 0 
0 0 0 0 0 0 0 0 0 
0 -2.56155e-06 0 0 0 0 2.46805e-05 -4.00698e-06 1.77844e-05 
2.47825e-05 -1.87283e-05 0 0 0 0 0 0 0 
0 0 0 0 0 0 0 0 0 
0 0 0 0 0 0 0 0 0 
0 0 0 0 0 0 0 0 0 
0 0 0 0 0 0 0 0 0 
0 0 0 0 0 0 0 0.00182915 0.000336065 
0.00145774 0.00110652 0.00268439 0.00346504 0.00181372 0.00400907 0.00465487 0.00483417 0.00487643 
0.00583413 0 0 0 0 0 0 0 0 
0 0 0 0 0 0 0 0 0 
0 0 0 0 0 0 0 0 0 
0 0 0 0 0 0 0 0 0 
0 0 0 0 0 0 0 0 0 
0 0 0 0 0 0 0 0 0 
0 0 0 0 0 0 0 0 0 
0 0 0 0 0 0 0 0 0 
0 0 0 0 0 0 0 0 0 
0 0 0 0 0 0 0 0 0 
0 0 0 0 0 0 0 0 0 
0 0 0 0 0 0 0 0 0 
0 0 0 0 0 0 0.00157855 0.000451874 0.000124338 
0.00033637 0.000437155 0.000410578 0.000785566 0.00173348 0.00280053 0.00213991 0.000132713 6.26897e-05 
-2.48881e-05 8.20488e-05 0.000255004 8.28161e-06 -6.31579e-05 0 0 0 0 
0 0 0 0 0 0 0 0 0 
0 0 0 0 0 0 0 0 0 
0 0 0 0 0 0 0 0 0 
0 0 0 0 0 0 0 0 0 
0 0 0 0 0 0 0 0 0 
0 0 0 0 0 0 0 0 0 
0 0.000159079 -5.55185e-06 0 0 5.76222e-05 0.0003675 -9.81766e-08 0 
0 0 0 0 0 0 0 0 0 
0 0 0 0 0 0 0 0 0 
0 0 0 0 0 0 0 0 0 
0 0 0 0 0 0 0 0 0 
0 0 0.0058765 0.00519129 0.00490739 0.00313319 0.0050046 0.00485301 0.00416017 
0.00275294 0.00244245 0 0 0 0 0 0 0 
0 0 0 0 0 0 0 0 0 
0 0 0 0 0 0 0 0 0 
0 0 0 0 0.00465514 0.00123274 0.00333455 0.00164805 0.00499671 
0.0063892 0.00631355 0.00759946 0.00894497 0 0 0 0 0 
0 0 0 0 0 0 0 0 0 
0 0 0 0 0 0 0 0 0 
0 0 0 0 0 0 0 0 0 
0 0 0 0 0 0 0 0 0 
0 0 0 0 0 0 0 0 0 
0 0 0 0 0 0 0 0 0 
0 0 0 0 0.00336221 0.00398593 0.00516487 0.00528598 0.00459504 
0 0 0 0 0 0 0 0 0 
0 0 0 0 0 0 0 0 0 
0 0 0 0 0 0 0 0 0 
0 0 0 0 0 0 0 0 0 
0 0 0 0 0 0 -0.000132891 0 -0.000346241 
0.0024329 0.00656015 0.00473578 0.00161665 0.000118455 0.000601931 -3.84916e-07 0 0 
0 0 0 0 0 0 0 0 -7.04879e-05 
-3.91195e-05 -0.000173391 -7.0169e-05 0 0 0 0 5.72512e-05 -0.000297427 
-9.2693e-05 -0.00018118 0.0033385 0.00142518 -0.00011849 0.000368978 0.00114092 0.00616932 0.00512445 
0.00382757 0.00454668 0.00565107 0.00396884 0.00518107 0.00657733 0.00595621 0.00551414 0.00133604 
0.00243476 0.00374362 0.00300972 0.00217374 0.00046474 0.000872765 0.00124594 0.00104183 0.00076445 
9.77572e-05 0.000215173 0.00016714 0.000274013 0.000407493 -1.63081e-06 3.76787e-05 8.9502e-05 7.3031e-05 
2.62087e-05 0 0 -1.77386e-06 0 0 0 0 0 
0 0 0 0 0 0 0 0 0 
0 0 0 0 0 0 0 0 0 
0 0 0 0 0 0 0 0 0 
0 0 0 0 0 0 0 0 0 
0 0 0 0 0 0 0 0 0 
0 0 0 0 0 0 0.0029596 0 0 
0 0 0 0 0 0 0 0 0.000818369 
-1.13494e-05 0 0 0 0 0 -5.75822e-05 0 0 
0 0 0.00387073 0 0 0 0 0.0061508 0 
0 0 0 0 0 0 0 0 0.00502403 
0 0 0 0 0 0 0 0 0 
4.11737e-05 -2.00887e-05 -0.000195052 0 0 0 0 0 0 
0 0.000637361 0 0.00525394 0 0 0 0 0 
0 0 0 0 -3.73461e-05 0 0 0 0 
0 0 0 0 0 0 0 0 0 
0 0 0 0 0 0 0 0 0.00393851 
0.00425217 0 0 0 0 0 9.24975e-05 0 0 
0 0 0 0 0.000286521 0.00209669 0 0.000721769 0 
-2.06535e-06 0 0 0 0 -7.64822e-05 0.00638658 0 0 
0 0 0.011443 0 0 0 0 0 0 
0 0 0 0.00265706 0 0 0 0 0 
0 0.00921 0 0.00207146 0 0 0.00593434 0 0 
0 0 0 0 -5.61113e-05 0 -1.39036e-05 0 0 
0 0 0 0 0 0 -1.37681e-06 0 0 
0 0 0 0 0 0 0 0 0 
0 0 0 0.00602708 0 0 0 0.00099798 0.00230427 
0 0 0 0 0 0 0 0 0 
0 0 0 0 0 0 0 0 0.000179981 
0.000487942 0.000217127 0.0209238 0.00952562 0.0151921 0 0 0 0 
0 0 0 0 0 0 0 0 0 
0 0 0 0 0 0 0 0 0 
0 0 0 0 0.00308015 -0.000310938 -6.18295e-07 0.00504411 0 
0 0 0 0 0 0 0 0 0 
0 0 0 0 0 0 0 0 0 
0 0 0 0 0 0 0 0 0 
0 0.00802155 0.0124939 0.0106883 0.00340119 0.00551614 0.00714033 0.0010213 0.00192481 
0.00366575 0.00144288 0.000521098 0.000294486 0.000952207 0.00426791 0.00214561 0.00250468 0.00626865 
0.00558162 0.00514444 0.00256954 0.00434038 0.00526507 0.00515063 0.00302163 0.000797666 0.0015734 
0.00138294 0.000169012 0.000493555 0.000368759 1.03147e-05 6.49361e-05 7.39162e-05 4.55565e-05 -2.36333e-05 
-4.63769e-06 0 0 0 0 0 0 0 0 
0 0 0 0 0 0 0 0 0 
0 0 0 0 0 0 0 0 0 
0 0 0 0 0 0 0 0 0 
0 0 0 0 0 0 0 0 0 
0 0 0 0 0 0 0 0 0 
0 0 0 0 0 0 0 0 0 
0 0 0 0 0 0 0 0 0 
0 0 0 0 0 0 0 0 0 
0 0 0 0 0 0 0 0 0 
0 0 0 0 0 0 0 0 0 
0 0 0 0 0 0 0 0 0 
0 0 0 0 0 0 0 0 0 
0 0 -5.9132e-05 0 -4.54477e-06 0 0 0 0 
0 0 0 0 0 0 0 0 0 
0 0 0 0 0 0 0 0 0 
0 0 0 0 0 0 0 0 0 
0 0 0 0 0 0 0 0 0 
0 0 0 0 0 0 0 0 0 
0 0.00123955 0.000207852 0.0015558 0.00247674 0.000956417 0.00138962 0.00288926 0.00454883 
0.00406288 0.00476585 0.00454675 0.00616923 0 0 0 0 0 
0 0 0 0 0 0 0 0 0 
0 0 0 0 0 0 0 0 0 
0 0 0 0 0 0 0 0 0 
0 0 0 0 0 0 0 0 0 
0 0 0 0 0 0 0 0 0 
0 0 0 0 0 0 0 0 0 
0 0 0 0 0 0 0 0 0 
0 0 0 0 0 0 0 0 0 
0 0 0 0 0 0 0 0 0 
0 0 0 0 0 0 0 0 0 
0 0 0 0 0 0 0 0 0 
0 0 0 0 0 0 0 0 0 
0.000400448 0.00142572 0.000319327 3.3902e-05 0.000771328 0.000297395 0.000357241 0.00151657 0.00211838 
0.00285235 2.43402e-05 9.03861e-05 2.16283e-05 -3.13406e-06 -9.02671e-06 4.69494e-05 0 -8.26087e-06 
0 0 0 0 0 0 0 0 0 
0 0 0 0 0 0 0 0 0 
0 0 0 0 0 0 0 0 0 
0 0 0 0 0 0 0 0 0 
0 0 0 0 0 0 0 0 0 
0 0 0 0 0 0 0 0 0 
0 0 0 0 -9.41688e-06 9.12162e-06 0 0 0.000231992 
-4.45706e-05 0 0 0 0 0 0 0 0 
0 0 0 0 0 0 0 0 0 
0 0 0 0 0 0 0 0 0 
0 0 0 0 0 0 0 0 0 
0 0 0 0 0 0.0045875 0.00523901 0.00589864 0.00302795 
0.00400484 0.00519557 0.00519423 0.0025191 0.00225106 0 0 0 0 
0 0 0 0 0 0 0 0 0 
0 0 0 0 0 0 0 0 0 
0 0 0 0 0 0 0 0.00208028 8.19154e-06 
0.00269712 0.00376807 0.00105698 0.00647815 0.00634077 0.00794451 0.00863644 0 0 
0 0 0 0 0 0 0 0 0 
0 0 0 0 0 0 0 0 0 
0 0 0 0 0 0 0 0 0 
0 0 0 0 0 0 0 0 0 
0 0 0 0 0 0 0 0 0 
0 0 0 0 0 0 0 0 0 
0 0 0 0 0 0 0 0.00453368 0.00351591 
0.00545658 0.00496669 0.00539972 0 0 0 0 0 0 
0 0 0 0 0 0 0 0 0 
0 0 0 0 0 0 0 0 0 
0 0 0 0 0 0 0 0 0 
0 0 0 0 0 0 0 0 0 
0 0 0 0 0 -0.000159585 0.000884372 0.0202829 0.0261261 
0.0215575 0.0157587 0.0144485 0 0 0 0 0 0 
0 0 0 0 0 0 0 0 0 
0 0 -0.000180075 0 0.000105665 0.00430505 0.000153414 0.00996535 0 
0 0 0 0 0 0 0 -0.000150868 0 
0.00585006 0.000678762 0 0 0 0 0 0 0 
0 0 0 0 0 0 0 0 0 
0 0 0 0 0 0 0 0 0 
0 0 0 0 0 0 0 0 0 
0 0 0 0 0 0 0 0 0 
0 0 0 0 0 0 0 0 0 
0 0 0 0 0 0 0 0 0 
0 0 0 0 0 0 0 0 0 
0 0 0 0 0 0 0 0 0 
0 0 0 0 0 0 0 0 0 
0 0 0 0 0 0 0 0 0 
0 0 0 0 0 0 0 0 0 
0 0 0 0 0 0 0 0 0 
0 0 0 0 0 0 0 0 0 
0 0 0 0 0 0 0 0 0 
0 0 0 0 0 0 0 0 0 
0 0 0 0 0 0 0.00106503 0 0 
0 0 0 0 0 0 0.00216812 0.00325565 0 
0 0 0 0 0 0 0 0 0 
0 0 0 0 0 0 0 0 0.00038922 
0.000284482 0.000507415 0.000785364 0.00071051 0 0 0 0 0 
0 0 0 0 0 0 0 0 0 
0 0 0 0 0 0 0 0.00012915 0.000541978 
0 0 0 0 0 0 0 0 0.000133602 
0.000199091 0.000170738 4.20449e-05 3.43626e-05 0 0 0 0 0 
0 0 0 0 0 0 0 0 0 
0 0 0 0 0 0 0 0 0 
0 0 0.00413655 0.00670826 0.00681137 0.00873851 0.00607664 0 0 
0 0 0 0 0 0 0 0 0 
0 0 0 0 0 0 0 0 0 
0 0 0 0 0 0 0 0 0 
0 0 0 0 0 0 0 0.00804466 0.0102156 
0.00985889 0.000216141 0.000332947 0.000420504 0 0 0 0 0 
0 0 0 0 0 0 0 0 0.000836746 
0.000755062 0.000401429 0.00114226 0 0 0 0 0 0 
0 0 0 0 0 0 3.84119e-05 -1.42291e-05 0 
0 0 0 0 0 0 0 0 0 
0 0 0 0 0 0 0 0 0 
0.00466676 0.00324848 0.00489123 0.00420231 0.00575422 0.00138522 0.00176362 0.00276816 0.00119909 
0 0 0 0 0 0 0 0 0 
0 0.00430884 0.00511315 0.000759973 0.000409068 0.000269732 0 0 0 
0 0 0 0 0 0 0 0 0 
0 0 0 0 0 0 0 0 0 
0 0 0 0 0 0 0 0 0 
0 0 0 0 0 0 0 0 0 
0 0 0 0 0 0 0 0 0 
0 0 0 0 0 0 0.00259188 0 0 
0 0 0 0 0 0 0 0 0 
0 0 0 0 0 0 0 0 0 
0 0 0 0 0.00498387 0.00537604 0.00486999 0 0 
0 0 0.000580313 0 0 0 0 0 0 
0 0 0 0 0 0 0 0 0 
0.00487966 0.00436727 0.00560739 0 0 0 0 0 0 
0 0 0 0 0 0 0 0 0 
0 0 0 0 0 0 0 0 0 
0 0 0 0.00529361 0 0 0 0 0 
0 0 0 0 0 0 0 0 0 
0 0 0 0 0 0 0.00616135 0.00763541 0 
0 0 0 0 0 0.00497278 0.00582414 0.00521262 0.00421255 
0 0 0 0 0 0 0 0 0.00626309 
0.00585138 0.0048345 0 0 0 0 0 0 0 
0 0 0 0 0 0 0 0 0 
0 0 0 0 0 0 0 0 0 
0 0.00608905 0.00540705 0 0 0 0 0 0 
0 0 0 0.00110482 0.000638993 0 0 0 0 
0 0 0 0 0 0 0.00521373 0 0 
0 0.00620603 0.00622348 0.00507674 0.00504065 0.00436289 0 0 0.00416771 
0.00320064 0 0 0 0 0 0 0 0 
0 0 0 0 0 0 0 0 0 
0 0 0 0 0 0 0.0101065 0.0123707 0 
0 0 0 0 0 0 0 0 0 
0 0 0 0 0 0 0 0 0 
0 0 0 0 0 0 0 0 0 
0 0 0 0 0 0 0 0 0 
0 0 0 0 0 0 0 0 0 
0 0 0 0 0 0 -2.56367e-06 0 7.96606e-05 
9.28254e-06 0 0 0 0 0 0.000261899 -1.75095e-05 1.27759e-05 
0 0 0.00590635 0 0 0 0 0 0 
0 0 0 0 0 0 0 0 0 
0 0 0 0 0 0 0 0 0 
0 0 0 0 0.0122073 0.0150964 0.0169752 0 0 
0 0 0 0 0 0 0 0 0 
0 0 0 0 0 0 0 0 0 
0 0.0040608 0 0 0 0 0 0 0 
0 0 0 0 0 0 0 0 0 
0 0 0 0 0 0 0 0 0 
0 0 0 0.00410242 0.00342237 0.00358702 0 0 0 
0 0 0 0 0 0 0 0.00417859 0.003698 
0.00514278 0 0 0 0 0 0 0 0 
0 0 0 0 0.00451286 0 0 0 0 
0 0 0 0 0 7.77449e-05 0 0 0 
0 0 0 0 0 0 0 0 0 
0.00268321 0.00365726 0.0026844 0.00213424 0 0.00435523 0 0 0 
0 0 0 0 0 0.00630771 0.00505424 0 0 
0 0 0 0 0 0 0 0 0 
0 0 0 0 0 0 0 0 0 
0 -3.92366e-06 2.8925e-05 0 0 0 0 0 0 
0 0 0 0 0 0 0 0 0 
0 0 0 0 0 0 0 0 0 
0 -0.000140748 0.0010858 0.000629361 0.000704797 0 0 0 0 
0 0 0.00459964 0.00255433 0.00404751 0 0 0 0 
0 0 0 0 0 0 0 0 0 
0 0 0.00292362 0 0 0 0 0 0 
0 0 0 0 -1.67342e-06 0 0 0 0 
0 0 0 0 0 0 0 0.000184549 0 
0 0 0 0 0 0 0 0 0 
0 0 0 0 0 0 0 0 0 
0 0 0 0 0 0 0 0 0 
0 0 -1.14009e-05 -1.78348e-05 0 0 0 0 0 
0 0 0 0 0 0 0.000243629 0.000195337 0.000209913 
0 0 -0.000106849 0 0 0 0 0 0 
-0.00013684 0 0 0.0116527 0 0 0 0 0 
0 0 0 0 0 0 0 0 0 
0.0176116 0 0 0 0 0 0 0 0 
0 0 0 0 0 0 0 0 0 
0.00301139 0.000314491 2.20714e-05 0 0 0 0 0 0 
0 0 0 0 0 0 0 0 0 
0 0 0 0.00103454 0 0 0.00157711 0.000194212 0 
0 0 0 0 0 0 0 0 0 
0 0 0 0 0.00205718 0.00191022 0.00313236 0.00264512 0.00157539 
0 0 0 0 0 0 0.000417516 0.00150036 0.0010387 
0.000993674 0.000820377 0.00146169 8.16624e-05 0.000306519 -3.5666e-05 0 0 0 
0 0 0 0 0 0.00171787 0.00156834 0.00202851 0 
0 0 0 0 0 0 0 0 0 
0 0 0 0 0 0 0 0 0 
0 0 0 0 0 0 0 0 0 
0 0 0.00496978 0 0 -3.48704e-06 0 0 0 
0 0 0 0 0 0 0 0 0.00200037 
0.00224183 0.00249659 0.0014039 0 0 0 0 0 0 
0 0 0 0 0.000750138 0.000352986 -5.46155e-06 0 0 
0 0 0 0 1.27347e-05 -9.8668e-06 -1.553e-05 0 0 
0 0 0 0 0 0.00170385 0 0 0 
0 0 0 0 0 0 9.54265e-05 0.00154216 0.00291905 
0.00173473 0 0 -7.82734e-06 3.02098e-05 -0.000112364 0.000279779 0.000290968 0.000229105 
-1.93861e-05 0 0 0.00350768 0.00312874 0.00374711 0.00286664 0.00307283 0.00342306 
0.00340676 0 0 0.00195286 0.00140106 0.00144444 0 0.000532557 0.000857281 
0 0 0.00324436 0 0 0 0 0 0 
0 0 0 0 0 0.0105248 0.00631012 0.00563117 0 
-3.09136e-06 0 0 0 0 0 0.00150433 0.000819446 0 
0 0.00125816 0 0.000846948 0 0 0 0 0 
0.015544 0.0157953 0 0 -2.53895e-06 0.00279242 0 0 0 
0 0 0 0 0.00541002 3.05866e-05 -7.48999e-06 0 0 
0 0 0.00219889 0.00213744 0 0 0 0 0.00853316 
0 0 1.24573e-05 -5.77422e-06 2.82675e-06 0 0 0 0 
0 0.000317312 0.00216542 0 0 0.00277512 0 0 0 
0 0 0 0 0.00231526 0 0 0 0 
0 0 0 0 0 0 0 0 0 
0 0 0 0.0222168 0 0 -2.53943e-06 0 0 
0 0 0 0 0 0 0 0 0 
0 0 0 0 0 0 0 0 
Major%20Principal%20Stress 1 3545 double
228449337.46 147813680.85 115789629.6 247788240.77 120969211.18 121227223.52 -54168.113889 120991103.04 121218265.95 
-2367778.7636 241476029 258397116.41 276495547.44 268421212.93 217845904.74 208730852.37 266215929.09 269681362.07 
217929781.96 118835805.15 295472873.09 255780638.58 224057258.62 229086169.5 257320833.61 256806152.3 215888225.96 
219277429.72 182853664.73 233799882.14 188224520.91 241235087.89 240090272.51 235742416.49 242519479.99 242272077.68 
241596987.11 241309944.74 237806019.28 224587210.89 208288925.49 191218941.7 174702944.51 159852664.99 146686736.52 
135840563.14 127564512.73 121963128.61 120161391.05 161302799.69 217792251.96 240584537.05 216950961.97 234548112.38 
245094584.78 242222653.75 242012379.46 240111828.6 231621564.91 216734957.44 199686992.13 182772261.18 167220482.73 
153021924.88 140992579.12 131244335.68 124538112.31 120674480.3 120597556.31 121244009.83 121151068.53 121067449.96 
121157851.15 121139359.61 120981453.68 121005322.69 121021182.5 121085711.05 121233008.22 121253036.07 121206637.05 
121188982.56 121134672.03 121020275.38 120947516.22 120865096.44 120960196.75 121013542.45 -317932.61613 385721.80338 
4337120.4252 22095395.892 38806245.514 53787366.195 67162482.372 78776608.428 88925401.553 97714902.686 105267001.33 
111522015.18 116543028.88 119977003.59 207730.94945 426899.40337 601542.43079 13690390.782 30606315.167 46770505.712 
60707880.051 73147450.32 83960203.877 93419006.491 101582006.56 108487037.62 114143025.27 118395009.8 120797015.44 
-52651.161933 -772335.10294 435001.00102 -573698.8393 49924776.431 262243885.88 248245232.83 -1625738.5009 -322488.4351 
-254968.59396 -758544.45629 4155068.5995 134366742.26 285241836.61 195249469.79 137867299.39 222273753.3 234259676.92 
241016264.27 250069138.66 243721792.74 242556163.5 242430471.65 237232281.08 224868124.15 208370072.24 191126258.83 
174543264.82 159586029.07 146391056 135501117.03 127227147.83 121488007.47 120000118.27 120871329.81 185425325.01 
234923664.26 223370611.61 244302618.51 247225684.47 247621497.48 241615826.87 239600219.88 231789541.5 216876136.28 
199635105.69 182698342.14 166982324.07 152773062.38 140618020.49 130876062.71 124053095.27 120415154.23 120545211.55 
121142043.51 121216012.18 121170056.61 121141279.8 121178273.1 121146273.36 120957145.06 121054024.33 120983015.32 
121016638.44 121213003.21 121209058.02 121291250.97 121170437.48 121142665.38 121019490.89 120959179.11 120845037.11 
120901567.85 120986244.05 243734.26239 91570.891799 6050309.7817 23303843.248 39476022.914 54342069.993 67586469.257 
79049418.598 89095255.319 97813032.259 105294006.38 111503003.52 116450000.5 119789060.72 -552642.36457 271512.9913 
731434.35594 15005100.759 31457483.887 47566835.134 61059538.205 73574112.164 84134701.743 93615609.131 101654003.37 
108478023.76 114054012.32 118292023.58 120720000.31 -2698425.9624 -710947.94251 -1946967.1231 -478358.24589 24570263.704 
99585696.909 248990365.48 -4057039.7325 -3110406.8145 -2360318.3978 -1716924.252 3623485.2104 66234800.886 172205541.36 
225879430.4 -2791528.0063 121205008.65 232852659.12 272786394.66 272464235.24 244327049.45 245150857.12 281587041.94 
283946874.68 237422894.72 169340532.77 190260159.95 246058815.29 229745096.53 293933080.12 262401120 259527564.31 
296611093.95 292454335.46 255899349.59 252406171.11 278371625.65 276438389.85 237822428.92 259956348.31 255159317.09 
247868833.85 232203935.86 223799220.64 237039888.26 233230040.31 137688950.39 126759826.99 212535250.68 155568644.04 
104100369.66 117739150.31 129643580.36 228226203.63 55466704.253 201251903.26 103744331.24 148122646.13 70468618.791 
104244419.09 123177525.32 187807162.96 130621534.81 133596112.49 250475785.63 221307374.14 107159066.02 139992949.12 
125449060.14 118813751.25 162317160.74 243385566.18 168657813.14 84721261.199 126886774.65 116260148.28 228915644.01 
161463089.67 120927798.17 123582561.79 136227255.32 234918423.75 108842304.03 69376400.037 35019174.179 -441669.24973 
111110205.32 29280476.127 143226145.14 108764699.57 214901842.48 227010560.17 183867783.05 112497221.84 131490831.55 
105701738.62 96304426.589 149305208.82 82471215.411 203564575.11 165543161.13 252404206.63 236571054.01 258093042.93 
121266753.67 137314735.94 117556786.71 44659310.515 92324734.015 172308873.34 121701895.45 247182488.13 185898055.95 
246284293.85 161436259.34 86143846.185 139956983.71 168730055.03 122804484.39 48510377.048 126448184.41 120724736.53 
122414572.62 248998631.97 205945813.3 80450465.237 123497495.5 119992919.6 122477472.48 132622961.65 122055253.1 
4599408.4161 113636447.57 168969629.24 156605359.54 68740901.321 85482051.139 108861091 99113991.822 113900006.72 
141886552.75 150740836.83 130751593.57 126186862.58 118893353.59 236028627.94 229226299.06 100459140.13 135018068.62 
101013949.52 126462435.87 142916299.9 244020069.89 143103063.77 110810098.27 115817197.96 126628170.59 120380270.76 
130864300.51 249868382.13 240078881.72 177779893.44 262620075.37 182053606.51 213521562.06 292088.23133 121581733.52 
141240569.42 119193065.28 271166344.55 221544546.37 220102121.24 157563884.32 113393681.45 130158880.04 241692987.03 
52378271.197 59903262.554 25748651.71 896506.32255 25592542.447 202346606.76 156705716.89 75459390.617 29437629.483 
238225175.69 144408908.23 121215646.44 121640269.28 135260589.11 85990962.374 107058542.06 237423215.38 124258857.09 
255926375.56 677807.30514 113704438.75 221433413.98 94625598.225 72755196.453 179519643.89 88858634.642 183551558.22 
97660098.95 247313821.95 125465982.51 233197031.42 48554398.149 148056268.13 -296488.52849 227826678.99 216814807.42 
126047436.48 120737087.43 121888981.77 160778570.41 123830576.07 116072446.27 178158723.4 175272182.2 161755567.23 
142132749.36 198511605.25 112269624.97 134567052.85 109589149.73 120274006.67 123458936.97 143292394.59 192410420.38 
238120811.33 39050067.24 67552850.241 67056200.034 240846497.59 244139701.69 101993623.66 93991711.776 10602289.148 
222178544.62 181861096.88 152063105.55 137070223.88 123105570.06 152285686.87 124408164.33 118250279.58 123592924.19 
193790658.56 119981984.56 120827344.66 121303555.38 172154548.12 238564725.35 249075219.7 217754353.96 269871432.06 
224391212.93 232980476.62 121110431.93 121233457.72 120836457.77 120937341.04 120419521.65 120992770.91 -115382.65529 
865816.86742 1551608.3425 246205809.42 229062011.52 206857131.02 262575907.31 267375391.81 248991269.4 275557103.92 
267351304.36 244903661.29 247516649.63 -40083.472528 285257.37278 182317.54144 6030955.8382 188787.63902 -256084.48636 
288527.22617 7903862.9982 22394882.333 13350869.054 19001932.329 39295815.262 31449819.247 35791504.262 51693507.128 
44299935.257 48723928.47 66861824.584 60337434.235 61098826.78 76592000.829 70779926.471 72188953.003 86970305.087 
81939641.494 81019487.179 95668337.568 91306998.282 90051886.344 102915629.06 99222474.869 97645341.891 109154058.85 
106015641.05 104178618.45 116093232.83 113592131.01 114154546.72 111787187.72 109845570.64 119102096.84 117325268.66 
117030173.09 119737858.86 826504.70557 824885.85349 -1194043.2587 -280530.83817 589022.12151 -627114.90983 8471687.734 
12163091.636 21869245.177 8696042.8412 42064453.125 37915341.043 74502375.839 67384239.817 102266815.77 215120114.9 
124704520.52 271302731.8 283691052.67 233046777.8 290568879.73 120939087.78 120887228.89 120454046.75 120741784.35 
120327889.28 120881334.03 120797366.34 120772951.62 121143097.84 121007345.61 120950274.01 121346295.2 121198347.62 
121327099.96 121392904.07 121409118.16 121893840.2 121315226.9 121206815.71 121868523.95 121713116.41 121616115.23 
122033586.84 121431243.55 121409160.78 122058454.21 122121835.27 121479005.92 121869980.27 230596273.1 242806111.72 
253619173.93 237533434.24 235506862.06 237680393.48 240013742.81 229185176.61 219526558.38 240137691.87 244553473.27 
217449324.9 241704090.96 240232744.94 245218601.28 244061254.57 248983254.61 242807947.01 242305270.28 250744850.01 
239192927.22 237744316.17 243322035.54 239508644.33 236338838.22 234757031.17 229639550.13 223158730.97 228087418.73 
213075560.56 205303763.95 204396568.13 214727808.21 213872818.37 200852871.96 192742829.32 198406871.1 182838753.84 
175053143.96 178609462.41 186410870.76 187719738.85 167801695.38 160837972.41 167964380.2 155850402.87 149482790.75 
156965686.2 144796022.18 139620753.37 147275559.6 135693843.61 131627559.26 138724348.29 127311238.61 124628709.73 
128995422.84 129777199.64 133119269.9 122979905.27 121849271.93 124995630.58 121990304.3 153355606.15 139453846.09 
151410406.37 147280007.45 160829510.15 149040844.69 140043354.36 131363469.87 133725577.93 125260116.11 124168144.37 
118440470.91 135104218.9 129352810.93 132072224.45 128933421.96 133729181.54 123806038.22 118794626.54 122315201.37 
119037717.11 123551544.69 127146258.09 124951780.24 121959767.64 126540830.99 195000215.04 191609866.51 207442722.67 
216433166.19 221256684.85 175510823.99 191718067.6 212101611.96 192577146.6 248149235.86 229011363.74 232694872.43 
240782088.94 228959853.83 153464304.57 144982090.15 147880693.77 142515975.83 149803738.1 162065602.51 168972627.59 
161684302.05 159725104.22 156522406.12 162393802.75 150435956.15 108454571.6 102900914.74 98648409.424 88483028.971 
94791946.109 118577116.96 113507709.98 109231831.31 117843204.08 91639730.775 100449743.41 105804880.69 120442685.49 
118314774.14 119535950.59 118883875.44 120457024.61 116593094.78 116008296.39 113462577.07 115481266.96 116838897.2 
117410625.14 118262351.21 119419318.15 114770867.31 130425730.68 128406099.76 128028539.6 126253958.71 127770860.28 
128103742.56 129841149.49 127945930.57 126050478.13 132974341.2 132115620.64 132586351.74 239629835.61 255870864.02 
243065936.11 248837286.7 237153280.34 231262255.49 253431336.25 220424673.38 217027608.22 209597349.98 208379064.32 
216812721.84 52960134.382 40973003.165 66785436.99 70795058.437 83426202.802 42763861.954 44769218.494 57942515.766 
72715634.38 27336458.655 210547295.35 211878755.37 202452622.1 192897809.51 192403466.8 192128396.31 199859323.84 
193239476.88 191524558.3 183982659.87 208934172.53 217966004.6 182812865.29 207485858.45 110432931.11 107914140.39 
106355184.86 102731282.89 105290613.64 96641393.214 99099380.052 101394339.57 106605394.13 104319164.96 98432286.949 
110959549.03 145306078.4 142747250.38 145790924.6 147436054.16 150082012.16 152975008.22 148268749.11 152638392.64 
154995690.6 145025164.86 58811058.795 71560755.081 57138965.1 59533658.096 46340943.425 82512382.426 81536003.399 
90818087.322 79695553.218 77939978.525 68850198.125 57531020.309 57696355.783 85968804.294 78507707.492 113120318.47 
86909070.644 103845266.48 116457472.76 91113478.58 74065174.341 133805233.08 124072611.77 134821902.54 122675539.57 
122213047.13 122387010.85 121723912.96 123682962.96 125274008.9 124653152.47 125137359.71 123556355.72 123035893.99 
122538649.39 173971313.96 183626075.18 177976435.19 182862806.25 173201589.78 202244426.34 192958189.97 196725860.39 
190054222.93 198938281.88 185971243.32 188154904.25 131372192.81 127108217.6 134799221.23 137464516.02 122192867.95 
125015832.35 131837357.13 134820961.22 134069599.97 117460502.51 140727881.85 127750497.61 137006108.7 142174223.21 
123426517.23 128618142.04 118240304.71 146530720.97 137271122.94 132509116.83 247322319.56 250505763.89 255449423.35 
253041885.99 255979613.67 250398662.67 255314778.19 247741325.1 239702425.94 251844962.5 250540070.35 242368422.66 
219013937.32 238308202.01 253159547.32 246274041.42 216571779.2 189322788.23 162262884.18 134476875.14 188286265.9 
186970400.65 112958548.49 110365892.92 109749416.63 106895887.09 98494685.418 103910758.21 101940368.1 104520744.35 
99142738.039 110477820.51 111488671.04 107770948.35 141573456.36 146358668.35 144332276.66 146224573.04 141626053.81 
138745628.69 137517509.07 134776553.59 137144455.06 137671685.17 134864368.71 125933863.17 128244377.84 130658177.69 
127765323.2 125774519.8 124194209.58 123976308.29 123553962.54 123989373.3 122986524.68 124474154.77 119845176.14 
118802703.9 119818053.7 119868118.87 119289878.88 118510536.31 119120386.59 117443351.53 115903785.23 117331710.59 
168868632.26 182609611.88 173112588.66 150991276.88 164005741.01 174204842.39 134477654.98 144226646.15 153388965.76 
160776277.92 244103342.06 240036236.41 235167654.76 229052148.04 248214105.81 252917725.02 235031994.1 225001393.99 
176317935.46 168917618.84 175937363.21 175105590.54 183024012.59 162813688.56 159538612.8 165360485.39 171696609.79 
162448341.39 157230961.68 79790753.579 84743304.99 90043777.554 89865997.678 84619801.284 76479450.507 76661188.32 
91064254.368 91979295.515 98261604.764 128958393.3 126803585.7 125189898.76 128607592.08 125396361.41 123333383.33 
125114764.28 131007637.4 123530233.06 117916499.83 121201195.75 119907610.92 118038779.38 114753489.8 112487976.31 
114516697.34 116275686.67 219243256.14 220063155.94 244250189.51 242058070.41 211048185.51 219031671.2 227483073.64 
230370860.65 245140488.59 155809382.66 165335470.08 169733687.4 151748709.2 159371790.75 166446124.09 164639338.66 
175234830.52 121137186.28 121322401.39 121060756.7 119982088.63 120707463.9 120482444.61 120766749.2 124880945.63 
122945038.39 122526647.11 122785772.95 123881748.6 124739840.48 125243650.64 133551631.98 136915188.73 139002957.04 
139805867.99 133279420.47 139671086.7 135708053.3 222057983.01 268750669.46 251535889.01 247856667.26 235898777.11 
231513347.45 223313879.54 221289949.35 261937067.9 111358606.32 100307506.19 98693939.193 116167288.45 99218567.905 
109650094.51 117150613.64 124340452.11 77662587.871 68751231.556 61016911.291 79335382.206 70778674.894 62241766.968 
32321645.018 16808715.192 19765548.401 22589527.302 47138835.884 51296213.536 63715347.325 37554105.208 42088875.404 
30124091.098 13074928.677 2142846.4681 -1063420.2187 -335518.68845 367400.98704 11414033.491 5626211.903 117991936.92 
96543449.789 98823453.414 126624655.45 111020792.7 98639933.747 13024147.724 37384761.622 48594307.82 26689041.166 
55333456.895 8866105.0439 137925327.86 140094051.08 142571540.21 145582440.29 140165452.14 144048076.17 149664522.06 
152065297.76 103384447.49 104081924.21 109063545.95 111110520.7 114718478.25 114952008.65 206451234.04 210435690.3 
218786105.64 224729516.69 215765367.99 224155960.18 230667288.49 219419082.27 236869999.02 223436182.49 219273580.09 
181852055.11 174084254.78 188671948.84 197497199.38 188228106.16 193088178.6 114260882.27 133133471.32 132247288.53 
68816876.102 74515786.76 116135096.61 134882803.2 100761254.94 140884609.41 95067230.361 91313125.293 95119344.289 
150684735.39 154905720.34 156727174.15 150876457.29 83949251.837 96946768.879 85862866.264 71217406.613 74600572.41 
168901999.71 173394175.09 176802131.44 226973134.7 122543158.08 121431941.2 122091848.84 121079277.76 113584693.18 
114779404.15 156798439.7 167221227.54 148205025.71 181921059.36 179013463.58 142016767.72 120595238.51 204260225.29 
238239896.02 242171588.79 244190021.87 241573322.08 241169513.99 242233170.75 240895987.55 231331051.87 216460180.97 
199626425.64 183014232.26 167116354.66 152724452.21 140736250.57 131355172.18 124402006.57 120803089.23 135505725.42 
117566780.25 164025013.24 128017582.43 120861125.09 120847174.58 120277298.54 120237170.06 224972431.83 196356404.46 
149622616.55 162758991.69 237396742.68 242831486.22 207241044.21 232440356.66 225443127.78 240407284.75 240258637.12 
240922705.78 243124514.23 221807881.33 239878385.39 238321354.38 239180387.35 240602301.53 245698607.75 241967339.01 
244255397.96 249349240.36 245938383.65 246382606.2 241626608.37 242676959.97 243063805.01 244150125.03 245906814.41 
241058963.75 240716270.1 240712291.39 242205107.31 245336706.43 239301358.53 241267823.62 242309698.66 241425621.28 
242396034.62 227876291.74 235251011.01 238956724.09 237780006.72 235159030.57 212481437.45 220952200.56 228054018.97 
224896026.23 221131031.29 195631581.61 203870625.47 212473054.66 208322239.17 203859179.57 178544422.8 186872512.31 
195495317.6 191131414.83 186931226.25 163351507.36 171058422.43 178519304.18 174542252.15 171031210.28 149754572.36 
156206549.47 163154190.92 159656249.06 156048149.57 138262261.49 143546457.41 149637185.03 146472278.9 143355158.29 
129394576.56 132908933.69 138050195.04 135392368.24 132765511.54 123008050.46 125967092.8 129280250.42 127353268.03 
125790045.88 120438123.06 120825007.41 122778100.96 121565014.83 120585033.56 120045078.17 120354007.12 137483491.18 
126681841.75 208063999.22 155583818.45 104106670.87 117630713.4 129594334.49 227702254.46 55133885.625 200736317.88 
103647172.14 148040602.51 70306127.976 103507861.27 123136448.03 187630498.01 130256525.34 133047864.54 226174810.1 
200104861.36 107093146.41 139896637.7 125408314.81 118699231.7 160963477.47 230407690.43 168311655.79 84730855.536 
126898488.06 116165742.3 241558710.92 161360640.51 120766374.06 123598049.07 136085131.57 248837061.22 108405321.51 
69534676.997 35191637.771 616802.49871 110528096.73 28547597.767 142989775.41 108612513.38 214335266.67 248302870.17 
184060346.41 112482906.82 131280359.54 102406689.93 96469268.987 148946780.48 82097192.518 201759368.3 165012677 
225640294.91 232011741.08 225096551.14 121130480.51 137219108.31 117437182.82 44740268.626 92326229.293 170698373.96 
121586592.35 228325799.2 185918682.01 245406543.98 161339656.74 86259421.668 139786383.38 168292955.61 122692437.39 
47348277.078 126240309.89 120644921.86 122383412.51 235344972.75 205805758.04 79636041.332 123399154.24 119850828.37 
122455440.53 132608855.24 122108758.74 5332323.3291 113467072.86 168689496.8 156306183.24 68957280.451 85466223.787 
108810559.95 99133924.897 113752340.03 141350249.7 150476121.26 130614117.33 126139534.14 118810573.46 245406192.95 
247326412.95 99950573.72 134725344.43 101085288.05 125099523.48 142675857.7 233577912.35 143108645.05 110007320.03 
115690299.57 126581528.35 120385957.34 130767900.62 219867547.13 226480980.7 177298559.12 250415908.32 181801251.44 
202844865.98 53968.509998 121510029.5 140643289.29 119325129.88 191972633.77 252979333.97 216210784.29 157261787.86 
113437282.34 130050252.4 264875605.35 52795390.213 59346291.116 26760411.378 684415.12593 25295955.373 202697860.2 
156423396.1 75833848.346 29464422.75 225420088.54 144410738.54 121056025.75 121653545.68 134960347.49 85741895.055 
107043342.02 261389416.86 124197325.65 234753038.4 591883.66635 113765953.03 247445097.62 94709391.642 72747502.152 
179433852.23 88532792.394 182630726.44 97720640.065 228714675.32 125062856.45 230298274.18 48809134.037 147898514.95 
140963.19085 223601623.68 215506085.95 125998559.63 120592594.77 121944432.83 128445506.63 123619717.32 115963671.37 
177805814.81 175021496.76 156824173.04 141939041.24 198399665.48 112353704.03 134331614.22 109547933.82 120225613.62 
122947893.43 142040061.44 192275534 253474763.34 35441204.647 66068078.855 66786052.924 230722723.78 233287894.38 
102053315.54 94186071.723 11656151.592 221382748.89 181732182.82 151844051.45 136843395.03 123097461.22 152099641.37 
123609929.51 118080196.4 123240644.99 193791220.94 119855530.74 120722802.68 121349051.58 171591263.97 208983830.77 
244111289.02 212540915.02 260219636.71 245946733.73 254992494.41 121238063.35 121140105.97 120746037.63 120896026.79 
120947854.4 120290276.8 -28222.634051 589698.59585 323629.42637 1059559.1643 751040.54404 -565550.74608 144583.58189 
653662.41203 -309648.94821 10113944.089 6602100.9788 6501727.6958 22129728.234 42117178.506 66773684.536 38715820.703 
65398923.378 117269460.18 72488942.945 110164959.68 207867121.77 122763694.25 168275513.36 244940691.34 120789503.54 
120877597.28 120701760.42 120261166.41 120284647.42 120701916.09 120833565.03 120626512.23 120983152.11 121098562.17 
120918710.35 121175065.04 121260976.52 121245837.82 121400580.53 121378048.34 121793777.76 121238610.36 121330334.29 
121886634.38 121644670.88 121735301.69 121963042.31 121405699.86 121427099.92 122065154.17 121494905.85 122174020.04 
121844587.28 255894470.07 268623062.28 207628994.11 237291042.53 250836120.93 256522345.6 237049112.14 241585774.3 
238037330.56 225022827.34 229657554.66 198511680.27 246508389.84 262814798.1 224660454.12 240726214.08 244045221.34 
243620635.29 238124905.91 241146021.47 244815277.04 247463876.7 235864189.75 233375116.5 229116832.65 235096925.11 
230601498.59 237478144.45 239712206.29 238817293.45 236015975.64 238155130.13 237981394.48 235841874.04 232155722.91 
232955119.25 223113692.64 229121757.96 226432826.98 205363806.76 213297147.39 214808526.28 204527448.77 213629045.64 
192787650.57 200951586.69 198399432.3 174777937.4 182766355.71 186259861.19 178549056.27 187602705.38 160561879.54 
167699367.72 167694815.65 149289654.02 155624708.88 156739392.41 139363494.49 144483497.77 147056638.17 131301723.84 
135391096.73 138452415.32 124377680.99 127076399.06 129440548.88 128763618.62 132861916.98 121625148.73 122540395.27 
124739508.25 121897710.52 943984.7314 30391.243283 427180.02792 267895.01119 7418484.1993 349500.32957 247661.36827 
8898858.4093 14533583.723 23345165.612 19740138.797 31992477.528 39720576.388 36329794.553 44989489.342 52269130.97 
49092205.336 60742271.89 67201458.443 61433894.817 71094446.338 76923224.233 72558457.607 82177511.032 87157747.159 
81280432.395 91499225.477 95789480.288 90196786.372 99282880.782 102978947.99 97740232.493 106013928.1 109126375.86 
104205363.45 113503084.07 115986671.55 111754150.02 114071792.49 109831907.31 117218058.94 118915009.69 116886936.03 
119581436.03 150841504.82 138906044.48 152761957.94 160415576.22 147112099.03 139633521.09 148603278.72 133213758.84 
131022622.44 123764541.48 124762110.07 117862661.61 131951580.67 129388639.04 134942418.42 133613146.45 128732556.64 
122266271.64 118630219.87 123805419.48 123223055.96 118962630.3 124733412.41 127151988.28 121952512.17 126440304.82 
204526527.3 190471586.44 193137594.23 216951945.3 213010237.65 189213562.99 174232329.16 186589539.86 205119289.55 
224945746.35 219323030.41 232058624.32 231355034.37 212396172.11 147569299.85 144726791.09 153290148.33 149616380.97 
142323686.7 161605162.52 168708630.32 162074716.32 159333893.33 162190564.83 156099914.98 150235010.31 98502902.453 
102874369.39 108237073.63 94766911.129 88389635.237 113241915.6 118394556.82 117845363.32 109189026.98 100421813.07 
91705582.474 105774214.15 119358010.36 118232096.04 120281804.52 120412876.62 118796505.14 115897235.52 116509099.09 
115520963.37 113382452.47 118137439.61 117322955.94 116677716.68 119380069.76 114652009.7 127969490.99 128249759.67 
130307407.21 127707980.1 126151841.6 127888456.68 129724633.48 128074714.96 125995427.7 132013972.58 132822641.36 
132484957.72 220102980.22 228352511.52 220024752.85 231257539.41 225020334.24 223813985.84 230438697.79 234728370.85 
230315182.03 231521993.34 234766989.65 254542477.88 66294958.201 40489588.555 52337420.274 82791522.94 70189537.564 
57273054.922 44334328.165 42539686.823 72318579.399 27407760.975 201495005.76 209239689.88 209752671.86 191651240.25 
191908522.24 193132004.52 199617466.39 192024232.33 183926725.94 191239710.33 216090019.63 208299672.18 182335456.16 
207054168 106322856.93 107914139.81 110432215.49 105374113.83 102739575.33 101441807.22 99121512.708 96687263.052 
104352238.25 106636268.41 98530068.212 111018335.9 145556205.53 142587406.92 145087986.65 149860793.55 147325625.89 
152487304.1 148059035.13 152585843.01 154810749.72 144883086.18 57290190.153 71446995.334 58793171.996 46366196.729 
59400134.569 81466431.093 82572139.136 79478974.617 90572315.706 68723790.723 77583896.853 57684471.254 77325287.267 
85302357.939 55114578.802 85430718.558 112704592.02 89891120.871 115073857.55 102772810.87 73109492.167 123107461.56 
132913127.88 133629176.92 122171387.51 122661755.85 121569245.97 122347280.73 124578507.18 125238747.23 123657004.39 
123446933.18 124901915.7 123047425.57 122465362.38 177790876.34 183445755.06 173949313.06 172833644.39 182729977.15 
196606308.17 192921540.3 202148501.05 198899531.18 189921002.58 185863152.69 187872209.94 134600176.81 127038017.19 
131383881.88 137288401.34 122007970.86 131730573.25 124932122.22 133731677.54 134629808.71 117277280.64 140472194.56 
136829909.27 127489523.61 141813886.92 123284755.37 118065823.01 128184282.46 137026350.47 146394323.76 132299617.02 
224271919.48 233585981.65 235106009.44 233612281.97 230902955.63 232993880.04 235750736.35 226514157.18 235988693.75 
236646535.16 220019439.29 223293505.96 224699924.52 201475633.67 219283278.92 225698928.78 167924994.51 178488075.94 
150972902.48 175782811.24 130290064.56 180827216.13 109723683.39 110362407.04 112997180.85 106860482.72 102002594.9 
103946670.98 98494711.537 99305203.571 104560138.48 107732346.15 111495272.42 110411138.12 144141746.68 146048570.78 
141412903.68 141543911.42 145950420.1 137271419.12 138595509.69 136938296.72 134605512.44 137385702.74 134609905.77 
128102829.72 125974290.37 127749054.44 130492727.53 123921420.75 124204956.1 125769473.49 123549129.72 123873842.56 
124285519.04 122945506.21 119670688.52 118631767.46 119727862.47 119759768.07 119077709.84 118945926.27 118398598.7 
117380531.46 117185369.9 115841224.62 181737409.63 168668320.24 172432279.9 163102328.32 149907826.04 173783963.31 
143358512.32 133795328.86 152640481.74 159357391.97 233563061.66 230138752.55 224369432.83 227634953.59 234321814.86 
233875728.13 227986662.41 219730688.01 175780825.79 168761887.02 176195659.23 182985712.99 174823636.45 165184525.91 
159300831.38 162623156.18 171504902.3 162353044.73 157044575.78 84789192.228 79977291.413 89880375.505 90209009.934 
76883734.951 76714128.155 84880964.401 91200530.586 92061226.132 98322023.848 126689399.92 128903278.98 125090819.57 
125284351.9 128497097.84 125055789.38 123197910.77 130873929.62 123464895.03 119654211.03 121157647.97 117935326.19 
118010687.95 112431328.13 114778630.76 114371943.54 116230207.42 250253359.74 237663518.25 242600755.85 244309985.27 
249605866.37 254358359.25 243525809.33 224571496.81 234200428.09 164988665.21 155569476.46 169678125.69 151218117.74 
159175235.42 164041056.57 166215836 174896929.12 121231942.07 120998861.36 120951455.97 120583188.87 119834537.27 
120373568.82 120646507.66 123013495.29 124891286.16 122546661.7 122816518.43 123892959.67 124731444.68 125187517.83 
136848006.56 133375634.6 139635038.05 138866942.28 133183705.1 135487567.91 139583323.94 216445139.35 226035700.12 
186012277.52 242135142.02 212101490.06 232567317.25 257834627.58 247132354.13 286941374.42 100161874.14 111290582.82 
98347907.355 115745424.5 109350439.09 98927894.285 116951496.72 124069170.54 68909907.49 77567953.238 61423955.528 
71010333.151 79343232.282 62478621.464 19829802.13 16962899.154 32485702.774 23283212.163 47040921.384 63348123.711 
50902095.427 30296040.538 42378994.269 37737649.429 2600147.0746 13078453.562 87924.600954 839289.23051 535620.01303 
5863075.5158 12426084.917 95764722.929 117154109.36 98159827.263 125710746.87 110386924.49 98130803.986 35169919.233 
12256763.078 47677296.66 53990689.755 26450756.956 8900586.6244 139900877.89 137838762.88 145425942.86 142389182.46 
139901061.29 149554486.41 143796304.91 152016850.2 103985829 103292375.5 109053942.66 114633763.67 110913819.17 
114895840.18 210093934.47 206193666.14 218209791.88 222450060.97 214995857.79 222496004.3 249546648.58 229451481.43 
264499909.9 240575151.05 243751837.45 173898811.79 181873318.91 188786565 193101182.59 188129221.51 197396283.94 
114136773.28 132124580.7 133006277.61 73686402.492 66712600.301 114187825.96 100285969.19 130945526.14 138979519.4 
91481607.693 95258294.28 95247404.977 154795919.03 150451301.02 150734176.44 156552789.4 96104812.561 83600759.495 
85562973.489 70790089.344 74230890.708 168374656.32 173377042.82 176391926.59 223272422.66 121379557.1 122341514.22 
121108614.77 122001320.57 113431655.03 114871403.01 155519238.72 164264589.79 147178960.87 181678856.9 178808083.59 
334102.04825 2604905.0682 -642182.85677 -1129270.1598 -1991294.6065 80315046.055 233676863.1 243198967.17 240329082 
233048804.33 269109090.7 257244617.2 -1291589.2196 -2439814.4218 -2955076.0442 -4185293.7969 -1598567.9005 -2009046.6943 
-2050508.4275 -448937.85262 -2218036.292 -2345551.5385 -2477841.4369 -1229746.4676 2211390.6696 929318.16069 14297873.64 
1389440.7116 52794782.259 91604389.245 42536739.253 171511877.97 238601801.37 180031717.8 219908375.29 -1466712.1116 
296915.38861 -1984834.2402 1800107.5958 278276.75242 -2078597.8907 23281534.019 821575.98652 157694459.73 68537540.927 
235105155.41 238453681.61 121110028.11 121279036.4 121181160.36 121107335.2 121045538.51 121054166.09 120958017.91 
121052192.71 121034980.44 120878009.8 121011154.54 121013113.29 121113231.22 121128010.28 121123013.41 121186081.72 
121093199.28 121219123.24 121351090.32 121191257.64 121127127.04 121229172.51 121223086.2 121103260.21 121268037.11 
121155080.93 121103258.88 121167339.63 121097253.93 121165057.61 121096055.11 121093284.51 121061354.08 121019501.62 
121188512.58 121169203.71 121051711.02 121087292.31 121044273.5 121030553.45 121171356.08 121126775.65 121061044.63 
120971226.62 121092378.05 120989109.38 120966268.67 121017049.97 120981026.76 121058111.03 121067004.24 120932032.81 
120906204.56 120794012.59 121031048.67 121006006 120858137.95 121121045.77 120952128.21 532883.12725 325021.00995 
4018.3748351 13806963.098 30447720.088 47411124.394 60608875.568 73060675.773 83987418.172 93511033.733 101593038.78 
114109008.81 118369316.6 120822020.08 108438093.12 121038015.43 121048024.45 120430017.72 -336213.11824 576092.47034 
-1001237.2618 120329060.31 -386462.68085 72970.524695 163006.05757 -820315.32483 627443.37096 435077.17219 1384010.7478 
109256.07504 -386689.52936 90273.984857 8938328.1447 18790115.048 5430709.262 2336573.2428 9823607.7319 26189522.87 
34784716.302 23049176.93 19428181.285 26846915.736 43377918.771 50767330.214 39406362.282 34933632.897 43838013.932 
57130593.178 64412247.804 54217232.659 51152706.026 57299999.643 70023792.733 76415505.189 67417127.442 64620943.171 
70299012.039 81342014.436 86509817.438 78984834.927 76574691.809 81440017.75 91368349.94 95577027.229 89060017.15 
86535823.201 91490619.372 99765601.8 103404001.54 97771035.487 95658297.432 99814317.859 107042004.75 109981018.28 
105300014.59 103438030.05 107049023.19 112815006.81 115336042.47 111502008.37 112804006.08 109957004.46 117516034.36 
119105007.67 116518023.59 115261015.74 117505015.56 119860058.24 118988056.61 221513059.18 124112306.25 96393322.373 
132196314.94 129292136.26 104974540.89 80251271.314 106058426.43 136108529.1 230280314.71 229083682.93 88622344.888 
132603070.96 136030216.88 111542497.95 133437268.7 125002382.38 128844200.51 126878454.07 127998193.03 127963394.25 
130199791.37 130730341.71 130136725.47 102683536.1 103691324.49 104317620.09 104287160.59 103412569.32 227301390.89 
233654892.23 223880701.74 234056958.7 217238080.99 102026069.85 103488517.44 132951502.45 125391915.03 133203163.7 
125254593.1 124450415.12 91721507.874 97746608.07 96922563.205 96988612.356 91164022.755 142456433.12 132967481.25 
239945.27621 -208537.95501 31719.482201 230085.87673 -243190.29909 85488698.302 90994134.787 231352298.33 239689226.81 
13363.403485 435222.89038 34955.413531 204457596.39 216669502.8 218055618.28 216579296.45 202485349.75 238557213.94 
241691900.63 236537597.6 236489023.67 238895875.25 -180525.54335 5135486.2693 131609669.08 133463490.53 133942653.03 
135618368.12 133353595.02 131470727.14 133320759.33 133245123.88 135450891.58 121334655.23 121284872.37 121251332.2 
121652528.59 121301774.58 121335568.67 121242854.78 121247500.49 121893832.85 121355313.35 121281772.23 121855410.08 
121639924.81 121251056.2 254869770.38 244797456.95 254114716.92 258264431.95 241481276.04 121225644.37 121353078.84 
121184916.81 121116201.52 121075823.38 121054053.81 121249225.61 121149625.72 121379137.1 122098220.62 56948212.321 
47079441.53 66536092.539 140551910.54 137298435.7 133910487.65 136949953.13 76769029.665 79539366.865 73965070.999 
120898005.42 121053071.16 120859886.79 121014410.03 121061413.55 120945611.95 121005248.9 190294840 186410465.42 
181965587.01 190206647.81 182564387.32 182637813.12 134660199.18 171959.002 790270.01476 275780460.95 280531742.04 
231948096.49 238121770.7 235842374.97 240536763.73 75643312.134 79345123.904 73727338.454 121558376.27 122061663.96 
42469118.748 51180683.412 57513956.473 48699111.04 85348851.061 127683043.42 126296081.63 126025587.17 241988367.04 
238194496.97 241871587.75 239684200.64 213197894.05 209254861.55 209178482.03 131475363.79 121223099.86 121978103.71 
121190046.09 121917278.27 121893964.58 122489956.8 137753480.79 140048204.4 237718584.37 232626171.25 173914635.02 
179422310.48 173927561.43 183495052.03 123533871.33 124987004.05 123100132.56 121379211.03 121074029.76 217953779.52 
205869581.51 46941941.058 44677611.753 59429914.113 29450690.44 32597002.817 46380754.314 57179825.593 59607598.679 
235547780.58 243564701.52 234786448.97 233966345.89 262094524.71 234137045.92 234135510.25 238358721.83 226681937.61 
178492688.02 178966765.02 173419005.27 181758287 176456877.43 114143848.5 114901323.66 113003068.93 114834169.38 
115719261.71 252880558.4 241622067.26 224160157.48 237485675.8 216602767.56 144546151.09 147351203.12 141791191.25 
197376627.18 188228621.82 192361089.59 121169509.29 121980190.89 122941074.06 122092007.82 -541059.98763 406528.0262 
463458.1134 -242492.1894 121594842.14 121041020.58 121608754.71 16534373.111 63541868.993 -540873.27954 -426160.73872 
30272581.231 37542716.195 141962655.45 142733820.99 147469502.8 120926709.25 120641370.75 120692182.28 121057626.8 
120767264.91 121071673.78 120226434.41 119713690.93 119165992.74 119663383.66 127911616.59 126102836.28 55532099.601 
51977084.832 48580236.085 68924982.852 76639601.183 69488363.68 77570829.936 121091054.31 185873189.41 181835782.07 
112322108.26 108028522.41 106352589.81 110369982.81 183928729.89 191254724.69 234530044.35 190092595.02 120682574.26 
119907273.33 119112904.58 123096405.03 117991519.7 123363948.97 128452215.67 35144497.509 110231386.11 107612048.45 
109814029.09 107031835.53 107588007.71 152320505.86 147072584.63 63845836.749 55243566.417 52524643.864 61442574.217 
122153538.67 125101067.05 123724696.19 125086023.79 239722578.77 238184503.05 239567741 122465401.97 22064562.69 
178980932.3 175228626.04 235278148.4 144914902.81 142439029.66 142053505.02 139708122.09 117979595.23 120269230.05 
116279991.21 114416680.67 182325479.66 113400906.83 113394944.39 109939473.74 109955626.61 109915060.36 66915714.533 
250099888.94 241779128.87 252984840.43 123509850.57 147005124.22 156439738.78 148620859.15 26848874.172 27358354.474 
26260119.539 36102644.617 35906290.811 61264659.346 91468771.889 89094878.431 93701171.037 20130115.482 152289095.16 
151865002.51 198882098.4 159040413.61 158921560.87 155553475.26 -41144.712209 120861075.33 120989139.41 122988220.86 
124213913.24 123701404.81 124771891.06 255046627.04 120783480.83 120365182.26 63916461.9 68861281.643 146170901.18 
141366953.87 163987471.32 156866903.26 42681.952421 -205130.78897 -470764.61895 834744.3722 48121965.678 66927925.586 
69901173.532 12976351.711 73391703.549 55106065.886 73927404.496 126765670.39 250046610.93 276167373.13 28297638.15 
35499740.061 121575025.76 127973065.99 129613671.7 121941769.81 238228703.17 244809236.36 242881952.86 235389133.67 
172896109.83 169699468.99 177975990.85 171500183.14 164084762.52 167825170.96 171339973.96 91010782.797 253323470.79 
240579676.79 245098976.66 113794223.98 109982521.8 89000134.106 94096862.88 93580111.529 125140488.6 125276751.43 
69998311.324 120380096.51 118863895.72 119903596.09 128696251.34 128175031.07 125654180.22 126513897.16 125614442.43 
187676229.04 177751269.62 126330019.64 113004214.1 112465090.52 120963416.81 113474698.07 118462922.14 108414136.41 
113288212.85 244954359.14 246938656.58 136927406.97 131311738.35 127574303.05 133293530.12 160525879.01 182906601.32 
192991113.4 119042486.07 118149186.56 232084817.59 233906394.54 120749156.01 159285181.5 103586713.71 78334700.915 
90784905.221 116743161.22 116981019.99 118992558.39 114772066.67 108882344.67 237657132.29 111347801.77 102943964.83 
72511303.132 247478745.97 244310814.64 241892078.89 238957624.85 219594336.67 118285611.82 118128245.5 240665489.72 
237644233.03 196696083.69 187564058.1 2468993.7728 13607699.031 161538805.92 159437652.61 168414214.74 204664232.15 
198417429.84 106507002.04 101435367.58 171625200.2 187970092.5 189824275.05 171345754.05 147327153.9 149940182.71 
148049533.81 145589483.97 149097984.71 144147533.36 129777596.17 128434929.13 272300697.78 273513813.83 47914411.541 
70402628.64 79326416.877 79633497.328 88515486.771 79669868.971 130364829.21 122547888.05 122437976.35 168897723.84 
168841581.25 135906.01835 515009.86629 121189294.47 120373953.3 119409041.95 171778307.26 168660055.74 139809206.68 
134753.00771 159009786.22 132769904.26 177528773.27 204742885.28 193708136.02 120951375.4 175019620.64 121146503.75 
119823558.22 117916532.47 119251075.78 115881262.36 148099114.3 145125597.08 120618018.89 120824297.44 119892290.49 
111679611.04 110221225.42 84748945.741 81218375.686 147639569.67 144714664.22 125848160.81 126169173.26 124190109.9 
136789576.65 138866590.62 138807895.82 128278204.57 99129116.707 104407941.1 205982777.45 208690769.68 224685300.8 
224244687.26 115541569.7 114671462.88 153434607.69 155613919.9 150536474.18 236972871.32 234129267.54 235569460.4 
84761973.936 79769161.652 250219631.5 132295631.01 124187599.77 124549309.13 119761496.89 119726791.82 90131772.635 
121877681.96 123979726.43 124228291.77 120373242.78 120787825.47 136972813.06 116921187.86 118200952.23 125216298.35 
-302004.56184 34156.712785 130981326.28 133442671.64 116286564.23 111484674.45 107183550.68 107203129.12 192086964.8 
183087367.1 172782502.19 152495552.57 152661818.2 238627278.02 269371420.39 254220699.37 123933744.5 126081414.65 
70947228.607 62255851.845 122744495.39 196724750.33 123031360.69 103937581.27 73031849.439 119231364.99 120824481.53 
104004720.29 124821977.8 123598505.36 121449291.09 122118467.98 116535543.01 118239084.16 118708461.94 118722840.23 
118822350.57 236086658.81 123836280.79 122275347.14 117462369.38 118701148.94 134608156.19 88630554.876 88676270.572 
123932503.29 206388925.78 202182130.27 210145281.88 214519849.18 117311440.3 116145190.23 112546993.47 201870857.13 
192093877.04 109555366.62 111007337.86 84755117.12 183069028.35 174773999.65 134347971.87 133372167 133288559.6 
135264474.94 134003916.44 135378019.9 229077595.41 232856259.85 237479577.72 162036772.88 141935279.84 146448099.93 
114711859.61 115944092.28 90535426.517 161448767.92 165191012.9 192886656 187936375.92 241973474.17 240372101.19 
239675004.95 121258042.94 121139368.32 121149130.53 122689754.99 122147071.38 139870342.7 122658963.85 123734496.83 
185862641.16 193033278.98 139915787.92 137566052.1 243244542.98 119378242.29 120390404.65 121227360.38 108674474.93 
103960499.2 98328239.439 103456567.19 122805602.1 144442120.42 235497946.13 123506340.55 120643659.21 120874829.57 
121038849.25 133173831.32 133219131.7 132187520.59 132268294.5 134897622.11 120977001.22 120854839.01 120889352.17 
236482181.08 241809025.02 248680317.29 240048465.69 127081125.33 239292511.5 109102346.62 143053690.19 149532416.81 
150388304.77 143862944.19 96696979.503 100952912.2 96689444.634 246987579.94 237447808.06 155543773.9 123143175.63 
152052773.64 157237074.56 157385345.02 8486844.9086 133626758.6 128899004.27 130650948.11 181372049.46 164159255.58 
114488751.82 103535930.82 101261228.79 165005784.02 96162114.008 85705622.114 82184778.539 192123163.03 199623990.44 
156404741.91 207773193.79 226270662.14 90359679.9 90452591.276 100109259.94 108571727.55 99134497.318 130427329.48 
124874386.93 120996091.32 116263476.86 120848120.43 114640032.46 128414235.09 128300306.47 147934783.24 112323044.25 
152333125.83 99540138.179 113758115.69 90052005.744 35952564.153 44832580.976 209353284.09 97202493.763 99248046.167 
101123827.9 122632232.84 220922383.08 163592917.98 174319378.63 123337654.02 152153043.58 103004405.95 129274227.7 
132595416.15 126439701.19 236415762.53 229657992.67 226337487.36 150522777.64 11316488.977 173745056.03 116242612.73 
122194493.91 121940320.01 123537015.77 123896103.41 96638853.923 70848452.473 83755295.721 120678966.17 -704805.72447 
-57052.922369 -112418.97617 237462511.53 121461207.12 151490720.21 178867362.96 151085568.59 125469143.76 141622153.38 
123886124.98 92019466.419 142685112.06 131799416.18 172011754.03 141184981.03 27355035.779 190881658.56 182122045.52 
168470267.73 177364486.14 166199645.2 121399553.48 133410405.55 136836583.2 133312736.4 225863586.87 108041993.08 
116615262.99 108087554.92 196588965.43 117724968.99 22941387.788 18948545.927 18341598.917 217894503.18 224393551.88 
213914338.72 72216219.534 68012070.379 37078670.511 40755322.076 139053214.2 123763166.94 175048567.2 57551687.688 
110620939.88 126089254.34 124777534.87 110474274.36 1156479.1914 145471161.44 42395861.964 127717468.72 128018550.13 
120293410.39 116207873.44 233868747.87 205107552.36 104190473.36 101063623.01 106267843.5 103334541.72 103355934.14 
74363914.711 49066685.861 41075204.078 137211467.57 131978525.28 506310.40359 232278068.45 216194456.1 225344547.63 
114830123.98 139985506.73 114115480.9 102299164.54 123600960.87 200761110.7 109835845.17 104628615.56 109761329.89 
179884181.07 176273617.67 168838140.41 247210696.4 146059280.66 183988192.13 98602065.351 150782021.52 162169813.85 
159399634.06 162667996.88 156373634.99 149554050.83 122441968.63 121534854.36 121635101.66 113526544.59 106840294.22 
259544292.6 188767745.05 71447068.116 55359008.238 41050341.614 52778502.703 66210171.719 66736358.439 89942222.151 
90163733.254 94696738.085 40740138.71 117656638.3 138642626.44 143101644.99 139514228.04 139566172.17 135507654.16 
247955984.37 239026996.88 237817334.76 225256040.38 227292242.16 26426384.521 55014779.198 52486235.792 130112317.45 
116016242.08 116680692.19 135636713.52 134177941.43 134072834.5 193431261.3 116891234.65 181742792.91 6205581.3962 
124401167.24 141633161.93 137323019.12 237095905.83 126728358.71 174651734.55 251030243.59 201445247.84 154899025.63 
142465708.93 162344338.29 120564367.65 120921582.18 120961807.42 135120448.14 44781220.994 205192006 91122989.656 
97721532.497 109321271.46 101177754.14 97230998.286 229240828.89 218251145.25 233737893.85 231850223.38 223616527.44 
161324155.73 122379222.67 143714285.7 106875398.83 106935443.46 105389074.83 228055509.37 242727965.09 235408397.18 
223481858.2 232461415.12 231876471.81 240445072.57 238730086.24 234666456.99 165262176.46 70667989.238 82926390.596 
175780673.86 137014681.89 133825085.72 136616206.34 133955805.87 227999686.15 221793434.47 223766326.01 198444322.63 
98516775.454 101361094.64 22863445.9 215202571.64 216027986.81 216784086.02 224976698.73 217115244.36 138212741.88 
72716693.47 58789777.137 156619859.8 118390756.01 119155200.17 210273900.11 209561160.77 134100751.02 8383671.5319 
154831106.54 161380574.25 202494521.5 139350089.88 139222593.07 121385486.28 121400815.89 2671958.9448 104565124.85 
105990349.1 104231783.05 236173311.43 200828040.32 163309625.97 232021023.85 10516647.217 9107544.9795 12454785.221 
99747580.574 168418508.15 165279201.11 152826630.57 131357539.33 131414674.77 110342114.37 140787845.58 237741865.41 
243518396.77 237552858.82 235001199.62 15785881.607 66434828.962 50405515.464 18235553.32 112640149.36 112945707.09 
109736255.87 124865301.5 85786219.769 83412173.845 233589385.98 240466458.68 229180562 68728276.834 84724565.592 
86260179.396 208473759.33 207101427.19 98893683.351 193612237.9 233560059.43 222481465.77 129813727.26 100115121.5 
100136624.3 92635984.282 152117722.89 143320260.94 144423189.05 228832875.99 117341557.35 117393641.95 151763786.35 
25284866.504 118155966.92 126036924.43 160240152.77 119777074.48 11119217.672 231314812.97 238021169.55 234779985.63 
217882008.43 19431653.948 11167351.434 231104074.29 238862134.25 189957711.13 219099530.41 256311914.19 249495486.66 
218026167.76 103931708.92 103978685.25 242119751.34 239976159.29 245167263.07 225950427.96 232559267.82 236932038.63 
234785758.22 104246673.58 98056650.562 250589280.44 238245080.87 255432670.36 2000591.7902 244103559.28 254915188.46 
128045840.12 112706382.12 213218524.19 129947351.52 132522950.85 127869466.1 127886415.26 125749559.27 134020931.47 
117272110.98 96337374.934 96752422.839 220653184.44 130010083.39 252084570.75 231191209.11 230829197.17 98646464.175 
225180347.08 74903879.62 65213393.523 51066496.47 117273658.53 115809263.81 230100938.04 240115969.21 106610163.61 
106621552.36 223776283.38 12086851.133 242052853.45 132853705.17 138117706.68 155733432.11 91789147.108 128034368.04 
270932164.77 252257196.13 79482157.788 120931965.31 220884235.62 240053389.16 136448779.78 153200488.32 86805864.472 
226333825.53 226412326.02 213786037.37 221678144.57 227953019.21 237810957.64 230207462.38 86758652.634 96386389.7 
101355946.15 76827361.669 235906083.28 227792318.62 95170662.979 121426492.89 11725029.352 80834351.347 262769071.82 
126046319.51 134813.25322 237578469.8 236149986.25 236149326.03 80872607.519 84780521.459 104017800.7 218290451.07 
98511554.211 236562439.15 239642842.49 77798495.554 125556936.28 237449507.55 744766.28936 296491.75593 222450708.68 
138400004.47 6763892.7128 137916372.47 150010799.28 242037210.5 10158693.887 122758358.85 138532381.13 131792858.41 
99212657.287 136030463.37 136184135.22 127208442.65 95145120.921 226435248.62 136044606.87 136126714.93 114231188.49 
80327613.26 80051715.163 223773835.98 235038346.19 864926.16838 131811218.1 235015139.64 231309036.63 231218322.35 
131710672.63 131768443.75 91476855.931 120953077.62 120912142.42 131064261.56 131115924.74 229227423.7 124210321.77 
128591571.08 109243744.96 123287277.98 120700180.3 137948325.05 -9904.7205049 -717427.02069 97972910.061 
Intermediate%20Principal%20Stress 1 3545 double
-1193143.7482 9324381.6747 38260901.787 7245613.3398 70647.414203 52621684.007 -4204164.9484 408941.06723 53034541.91 
-3451635.1303 11691888.12 58256134.626 102370971.06 65400962.695 -17660010.159 -9113306.7733 88088314.358 81683963.08 
26319855.772 25356271.048 80794541.584 40547463.689 3690414.618 -10217799.785 26334325.533 31281517.884 9444278.837 
-7567341.8863 -6566255.0308 3081682.8731 11633232.918 3079751.2235 864762.42756 -860298.44265 6093221.3415 4123762.0176 
4454061.2274 1303183.7587 165746.22284 186670.30843 21163.989815 26906.677174 71644.849819 -26680.115877 -36866.504639 
-10045.348761 -105698.74003 -47891.551726 70369.292132 8511709.9372 12539220.983 3297446.9847 -21177210.584 -4442520.7582 
6181997.7441 2904010.9607 3521229.842 496666.92695 335180.56575 218366.03693 52005.806969 20641.767012 -25383.481536 
76087.972151 1083.9711686 -65971.217137 -19806.941849 -94156.053306 -30322.774207 51188207.925 47045404.641 40602638.54 
32275003.984 23124970.712 14129822.166 6284862.1111 1030172.2522 -49093.792924 52302622.145 49458933.938 43914627.664 
36647968.835 27724822.206 18597520.947 9907995.3622 3478089.4932 -51453.689677 -23836.702511 -22445201.62 -12319717.649 
-88577.139495 1607871.267 13190119.807 20283956.379 24129324.021 26070692.437 27078799.244 27922098.174 29127699.598 
31493509.691 35395971.377 41863017.442 -15390791.087 -17632392.427 -3987551.0184 227879.15481 8221672.8657 16875802.213 
22481725.478 25217894.857 26750107.022 27516303.515 28523199.372 30180599.926 33258396.314 38527802.685 47123904.108 
-2233983.1298 -3605829.723 -545349.04701 -3056642.2439 2589101.1348 -3099839.1887 15030736.851 -5706201.6749 -6062413.3089 
-1998738.9831 -3295123.6913 -2758964.3697 -1005329.8398 52630364.838 -37841609.404 27131975.774 -6181633.5229 -194992.07322 
3344847.6079 20039846.079 8774172.1688 3572717.7371 1679335.1922 91947.524347 270606.5946 7892.4392285 19283.929638 
15001.066426 -83575.578857 -28577.196651 -106013.21913 -63082.693366 -85633.059688 -4180.3355215 38142354.703 2212409.225 
-267167.76564 -10819832.374 10850448.909 12293943.339 13884447.257 2113026.0694 -99996.031736 432316.2219 201059.54451 
-13238.287305 -22546.250608 -79427.038271 -77871.188592 -169914.48818 -208655.14444 -210115.02566 -158904.50701 136853.93195 
343769.86622 51563296.821 47418647.86 40831721.743 32371432.024 23124152.267 13951227.354 5989362.1969 649975.14141 
-62575.034666 52688000.429 49762413.947 44267687.663 36802664.009 27788143.282 18494252.93 9722521.557 3110415.3818 
-236810.22136 129777.93925 -19710759.853 -10606846.692 19678.879913 227903.93062 12652239.888 19855305.641 23602447.982 
25816086.619 26936847.395 27833368.412 29145194.44 31466397.935 35447100.649 42265360.127 -14049147.177 -15683238.949 
-1971967.0185 209349.95324 7276954.9923 16307070.352 21931464.69 24829398.758 26518198.282 27382699.576 28484999.98 
30225791.876 33329195.579 38696098.994 47513399.968 -3869584.5723 -1914343.2124 -3416520.414 -2380194.4382 11329511.213 
41705011.365 8125273.7364 -5803027.619 -5746902.3518 -3196969.6881 -3217417.9495 -769289.77894 18902801.032 17408063.262 
-8324582.9668 -2960083.0905 53095391.701 12199957.397 33740541.246 66649677.063 45369637.437 25306554.333 46007746.457 
43897831.43 2895585.9667 16400887.285 11823656.044 20646068.571 -1145001.2135 67790261.215 55997220.833 41255497.359 
73319718.518 80310801.271 74234286.362 58462988.858 69475875.619 59729950.847 31291833.277 55039273.384 48404141.109 
36278955.668 21655980.232 -4224036.9591 14003447.261 4938400.0792 83435.687731 6848481.879 2172379.4967 64369.411121 
3535.0292436 22839854.578 6611425.784 2853396.4183 49842.812906 -77822.750459 16994474.489 32855.583626 15316.590921 
72740.287336 17088975.98 41546.420634 -1931.7472773 -39451.179021 20011089.121 6597359.2897 24663636.013 1037800.5334 
3207933.9421 34782254.455 -198044.53925 6708450.0313 -43128.56903 16635556.647 10485337.896 15923952.169 286486.57953 
65416.433895 27211101.923 10828646.654 3744872.4172 18336806.732 -29568.46751 9261451.6836 67526.97708 -1732637.872 
-155255.71918 244755.7474 -15610.763822 7773009.3963 129304.10022 1665148.2319 99852.802805 29338086.426 1365698.6992 
115413.16503 24632373.443 54111.177376 9504.2021108 -1641.815763 21280.480954 24035905.735 1731440.6485 28958944.214 
18281848.006 2403701.2016 10197615.229 -34762.101571 67134.676206 -85202.660224 24075718.408 13929847.131 60979.502273 
9849171.6716 24036.193851 24781857.592 32827.932693 -86010.261104 53264.982745 -386247.69643 11181017.904 35293767.791 
6772399.401 18435499.887 -41144.628508 6845.7796443 11575610.052 40323194.045 1433536.5283 1980647.3247 16572867.49 
35637.490732 -42519.955773 -47111.697365 -1988.9583454 19028846.804 6954316.6829 19368114.007 13194908.333 21073203.634 
-71971.863844 -1106.7874525 6627811.9893 6971391.8835 27974947.062 1640735.5131 3826922.1952 148498.06822 3642299.6611 
27505551.818 -82413.295516 23377.126883 12036443.368 1089401.2397 -25242.245515 33237203.774 1009183.7938 5423629.3169 
7081701.1276 19347184.029 1667693.0067 196695.66375 28007629.671 11217.18317 3259244.2328 -9211876.4717 21045767.483 
82215.052414 17104435.264 40952115.233 4903638.0942 -4370.9889991 -49548.154564 25410720.245 4052279.7851 4820016.7458 
11511459.585 -45092.153448 -5557.3562177 -18922062.086 7858.4770808 -73786.850005 13271.51757 23474927.032 80477.723079 
5773480.601 56363.525278 31813553.871 11419348.967 240916.1767 182100.25256 28733461.346 16558810.141 13059047.059 
35110102.472 -603074.29284 1496577.0654 -40107.17977 19856508.585 -527.79492845 -19856.239527 -17082.277049 -170218.09077 
7580558.0564 16599656.12 -29374.333185 -363852.90467 64838.803956 27798.88712 -15120223.327 2222805.7672 -114350.24562 
9729564.6685 40233415.104 3435513.1054 9785714.7069 15161338.326 29078156.072 -42391.968995 39724.311721 273165.00325 
1428701.4493 -11440.82758 14540481.599 1881434.5338 11898956.58 11551715.713 -91957.667515 -159320.63201 -19025.416591 
5327632.9731 134156.00743 92934.737677 -13085.231702 8767106.4707 12468249.468 21341177.991 26961190.555 3964.3145732 
135897.83912 -1517.9933487 -9553.806783 -10852.867734 14201536.05 3554.8663438 -43340.683801 37192222.851 443737.92472 
-16113.717536 23572019.033 45740161.905 252250.57953 -90426.94804 -582242.35638 17996518.464 -12116282.379 55224436.195 
19073688.599 10238146.656 80417.436522 111142.19297 189214.4526 49001381.48 43802183.667 48501332.712 -20973264.044 
-12014028.11 -11531677.019 23358387.665 19825980.239 -21384920.881 41396305.84 69683815.631 18047026.669 80680472.288 
66589869.978 13146535.71 24331471.252 -14174491.721 -19196788.332 -17438039.24 -168033.97139 -3075252.3179 -7008056.5479 
-6225041.0023 257921.26755 -84328.847133 29002.476445 284346.02915 7812561.2514 1439880.0649 272401.50194 17169715.388 
13338579.729 5440366.2571 22329192.443 20309233.362 15647832.05 25167411.939 24070597.566 21404255.318 26256241.46 
25677441.838 24250514.471 27495264.757 27109402.069 25960599.734 28372274.654 27840333.611 27234658.214 30075943.597 
29050564.826 28232294.278 34423495.661 32297675.451 31341862.199 30695710.199 28997132.284 39408618.8 36262736.165 
35224126.235 41374351.072 -6432406.3215 -8239629.5312 -16177949.926 -5163184.3124 -3874808.607 -6835456.1346 839182.05998 
1335853.8812 208453.28267 868.44630127 -698065.09701 187323.57611 -188132.41286 97047.496836 7710597.8661 9745374.0889 
900277.74764 20170605.972 64927217.281 35521129.654 64496594.663 43547722.101 45486191.279 40509833.264 45483731.549 
42817213.119 37836311.548 40840136.984 37990844.6 32138984.707 36032076.439 33699414.864 23922905.446 28103388.197 
27739197.599 15721567.8 19889452.116 20269212.112 9122426.4611 12787806.404 14101807.611 4371986.5823 6885452.9747 
8966185.5406 1351864.6367 2455842.2191 4914307.383 2349126.8364 414900.77699 779968.90569 17466207.583 3905713.8083 
20317571.882 5796755.3318 7660691.7502 7019779.0164 5001419.8383 -3713580.2057 -6680207.4136 1789180.8979 10975357.747 
-17284244.148 4843351.0369 5548183.603 11776356.288 10645574.644 16720545.945 7012848.6143 7609894.7826 19547693.581 
361158.82668 -287766.60373 7031907.8239 2100846.4749 2313518.149 640692.38929 -18454.441589 -76163.592676 354403.26274 
-89638.211461 -63897.569837 76766.757234 60956.86177 -41724.322098 3368.3150269 13131.27656 123763.94165 65628.016868 
46772.660984 -48356.362167 9284.9767099 -14329.339061 104018.74868 54205.817427 -73207.510687 -2891.4133892 128270.85172 
82841.854551 36266.668534 170046.5562 -8995.3353644 106211.61739 205586.1801 -6988.7906445 475978.59001 406800.46397 
1184616.4949 612485.73248 748684.93985 256529.92984 193178.0604 644930.17667 254861.50124 152363.25824 55082.740044 
116746.38778 45100.046989 -71042.454085 -115505.17787 64645.699049 88266.310038 9967.8603701 6304.6668243 18464.886883 
-73435.843524 2370008.8575 4303340.0721 4547745.9634 6915580.9103 4392519.3059 6303550.7139 7802690.3349 8487389.0437 
10951710.733 9148484.7938 9041557.2621 9214173.7995 11653552.782 3656814.8501 708339.58864 383144.63529 262858.90579 
1104195.6042 2540947.9392 198135.34997 216531.7302 2422751.7945 616390.51501 18411467.729 2807056.5542 3484313.5194 
8566663.8562 3308996.8396 141485.43655 -65582.950664 40868.820655 161761.95682 35966.653775 -29457.530564 -79725.608362 
-54263.180897 -60183.486798 81748.931163 -136110.78489 -21300.365888 -114453.97609 -63571.279638 211738.34687 45756.464523 
2920169.6908 185845.39506 67541.092818 700032.88479 -14241.958086 7301004.9705 3406879.6314 4406831.4498 17731038.78 
19970530.995 20604362.204 23195224.666 20898078.255 19099920.202 21982257.319 23226123.222 24124334.921 26024906.6 
28450377.166 25469761.873 25779286.903 27334332.948 6957053.4725 9096253.7202 8834580.3531 10519059.196 8156099.5641 
5543260.8307 5375155.6464 6901721.2041 8344672.9176 5348779.1674 5059734.2787 3921961.7562 8227855.1912 29766849.743 
8011414.1287 15399506.043 3425069.0828 -1976743.157 15396031.738 -5542220.5686 -4564763.2441 -10327799.524 -11959626.331 
705503.84044 139379.13231 43867.669062 -10843.979325 297438.23806 -67943.806003 -78502.199743 -120703.84196 -8489.9551031 
128645.61662 42578.298003 256979.52898 412467.43636 40319.045233 -54464.643362 -161116.55971 51754.967378 -100849.88586 
-53213.800876 -96376.669964 92847.363668 106637.3719 -384902.84389 -119172.03882 -156547.27569 16982371.782 15717483.665 
18257628.673 19280622.136 20332610.525 16672433.798 18374053.814 15213076.448 14503310.986 12499940.799 20663434.136 
13234261.457 705454.51685 1397169.2234 632840.1883 242805.83463 -24095.643325 -1036.6204516 101663.83362 -85090.630683 
-4067.050323 346593.6311 53526.709452 -46928.716464 75620.249865 47504.076154 -1990.0019849 -97825.033042 -32525.531461 
80326.013733 -89214.163735 -81216.91463 -34606.512754 20573.44028 -378639.17584 142060.96883 361314.21827 -191355.95045 
-156098.64312 42085.41084 292889.3227 -87964.941543 -24000.83173 -191390.36694 266256.83592 183342.8333 16984668.896 
20538856.849 19087610.811 22623204.016 15094239.019 12126158.041 14054867.721 13170305.316 16137266.364 14849654.862 
18051483.395 -73349.681398 -13977.007119 29029.422163 23330.042986 -106256.02799 59179.960695 -14476.91958 -485.28010637 
-54217.115242 -58434.536924 -12031.439076 997.87611488 18826.241039 197056.19961 -71755.109479 75152.911735 124943.09642 
2005812.6963 563639.70872 568799.694 119629.79627 3756580.5811 30832.373003 -114095.97791 119866.33506 -30243.634311 
-97806.261231 -5791.3544512 -138686.92274 118354.46448 -165171.35192 -71130.769254 17276927.085 22512996.622 24989416.216 
24576826.91 27267171.026 19174896.902 23762768.031 16316763.833 2026247.7189 18278122.702 19484125.116 10165933.703 
5591467.0885 12798034.857 28651198.498 13531706.388 12842382.627 10854708.093 1888333.0137 1233587.4036 2467304.336 
485007.21842 27408557.633 24973008.958 26974585.767 26885417.007 26119125.811 26217370.896 24664342.226 23050358.659 
23058065.651 23008106.139 20326048.51 22132175.03 579998.06264 203618.95462 478945.5142 473726.19716 1292726.0728 
2285624.1703 2263507.2478 2868683.6336 1345518.0005 850835.24583 1080020.7047 2097830.5501 2363968.7887 2718847.7336 
3791288.6989 5043185.1001 7042028.0252 5041743.5706 3229252.2438 2478869.6478 970877.61547 1728048.5497 31659541.512 
31343803.544 35051246.695 37646087.133 37487923.571 36294664.7 38798528.343 31935576.323 31304215.32 33991414.221 
-196275.03815 -82250.936762 -258439.94758 -288652.061 -120258.54856 -32042.62906 -10665.679083 -94905.812841 23275.500331 
11374.275667 9240637.4085 3640146.0611 2186482.1864 693152.59317 15435919.51 19092383.947 2369281.2912 1107446.6239 
4056.2070636 -34999.336643 -5231.1856978 -56961.60409 113721.46065 -30626.286098 64225.791816 50810.341861 -77631.752906 
-12319.69798 85311.977748 20329778.373 21239690.778 22474667.91 18401411.804 11802972.13 13078006.156 17813320.281 
12072713.578 14826844.312 10395830.733 8787420.2378 10919136.964 12807120.26 8502611.1813 11111861.925 12871020.434 
12314836.299 6993069.95 14660005.101 16611807.047 14309006.869 13718090.227 13629423.818 18493154.804 17638767.624 
15368434.09 13001633.707 -11302760.831 -4551828.1177 10090695.286 10874900.118 -12539688.768 -4317357.3445 3409651.4329 
667107.0685 11993537.206 60565.699111 1617.3580105 18565.557727 -38130.008309 116448.07496 -26280.123895 -4087.78396 
-86796.733679 24017323.551 25767015.178 29608088.221 27620128.157 31132362.938 25406988.794 22382752.44 8913425.4176 
8946585.0725 11000430.671 13575412.065 12016858.015 10307180.955 11377651.845 5215676.7922 3243428.6199 2515039.6518 
1956129.3811 5326457.502 2369436.8979 3882934.7851 6403715.8761 60072494.98 27016802.676 19088674.892 10647457.246 
9113872.458 -11629404.967 -15436231.517 37529064.687 -18342.888668 -5642.5961246 -20417.165384 -85726.317148 50425.008759 
-75691.505114 6481.1899309 -139204.81525 8048963.1323 14480697.061 10201490.114 3203825.4538 4189930.8821 5159749.6719 
-24948.416343 -139540.27725 -42528.09547 -47846.421214 -107398.22829 -10216.256264 26091.375965 147566.4008 173470.97975 
82673.252292 -52568.041003 190260.95166 -9570371.3602 -12933193.158 -5618531.2833 -573899.97368 -35726.700982 -322808.89454 
7830.1202124 -109884.25851 168983.89567 31321.931533 265053.45944 -194340.64965 -551614.10339 186874.18459 -98364.000137 
-19207.810343 962432.13426 410635.28576 667082.46201 848402.52496 -36463.008865 -10834.160634 83159.590077 -33340.640788 
-76090.163318 7796667.4733 10470299.826 9796362.9069 4608439.1021 6560610.5857 8617028.401 -24895.981471 38358.647497 
287947.60829 -95410.772109 -156185.38939 -16524.670098 1091706.7069 -7488041.6983 6830337.2649 -639482.17475 -4155456.2591 
71492.613512 -102876.73598 13625.914858 37620.475167 65311.017781 96259.646967 29062136.697 1808002.3996 2972114.1557 
-1102400.9014 -667198.86643 217716.14649 525407.60272 2974.1641788 -205396.96249 22368087.982 24724486.158 25957755.906 
7100.2207773 -41161.182303 36931.899709 43693.043569 138925.5147 -21870.501257 84179.604906 -3748.79972 62903.54558 
-61992.855453 7520.3853111 -77466.770251 926202.00954 16750651.869 19658308.708 16270176.498 15614033.699 11059930.014 
12366712.855 -341718.89037 57832.464686 -82477.115149 -99370.534017 -39904.199869 25705757.322 115980.45232 -4625233.6898 
3254114.8114 6576411.1738 8852727.165 6671952.7339 1708483.2429 7330167.441 -190954.23696 268505.43056 109479.74342 
13987.887823 -35641.516463 -7513.5115237 -5155.7290913 -73892.878219 -58998.052578 -77179.539978 -119191.77127 15884990.057 
35977478.174 14091849.493 30844638.975 273301.24465 96842.333746 57791.217108 53284.14682 -311196.19479 6672985.127 
18749005.735 12899808.764 -1909592.9087 8845696.8519 -732973.1967 2322347.46 -2283938.64 3595608.7925 8481496.902 
6898751.8475 8924194.4201 -13255624.954 3063577.9209 512032.77145 2064540.522 2439951.1399 8982603.5308 5590571.4838 
10945949.228 18277253.919 11991885.099 14037410.711 3595127.5529 6605016.8919 5907373.4027 7943586.6268 11993275.595 
2295825.191 1974833.4052 1399364.4117 3718405.2612 9957771.9712 -13534.445763 350760.80258 2458908.0713 1874245.8633 
277824.26565 262560.65298 422382.7771 -27471.900403 205490.9433 404103.03215 104311.09361 182985.80131 242761.40787 
198603.73813 327142.45466 158967.88244 -49134.120118 113427.73518 36307.416313 -35340.421508 -55770.57778 -16042.118381 
107761.85459 9891.2585123 -102763.28098 54963.72666 -57932.751413 -12204.045244 48247.50394 68171.578612 50069.927455 
-60488.089424 3418.2437651 -62728.302007 -82130.415886 26879.221759 -149228.03776 51013.694731 -79742.939763 -138672.66887 
-89285.528805 -226050.53839 -99660.370739 -94837.783456 -327533.01385 -13326.115803 -135348.96636 -51831.838008 -141837.53796 
-93524.38759 -62053.629928 -131472.69497 -52559.218213 -15357.957007 -260280.57676 35422.997082 -93196.486585 -69498.901012 
6905963.0642 3060401.582 -52905.667943 -63537.287035 22908187.376 6683023.0725 -2811201.3461 92464.678334 439414.43883 
16946832.186 192575.05442 -18266.921767 21119.368941 17180854.998 6112.3191165 49332.994587 72532.694247 -11997734.651 
3944466.2308 24722255.97 1241921.1506 3221759.9414 34951069.348 141991.45903 -944158.48901 9739.6196161 16381067.435 
10580329.777 16005458.688 12883304.797 -39632.29215 27415626.513 10852068.383 3898241.5051 15934115.718 117463.68779 
9100448.4017 -102682.38565 -1147294.4267 -150657.80989 -211155.30849 42692.145774 7775695.4851 225706.79918 13262792.231 
-41169.648122 29346493.191 1526929.9327 1175955.3235 24513437.592 138118.85549 -30298.620115 1302233.2158 -33239.399269 
-13914403.538 -1818978.8751 -17481648.834 18388819.627 2495864.7905 10341324.767 109906.89402 -20132.306511 1283719.0728 
24055012.105 -7414507.5223 -64152.294527 8666507.7685 -5734.5132201 24602679.495 -2587.2929889 63037.408704 -49115.825857 
-64131.552095 11263500.309 35546302.571 6727014.244 3164928.7235 92537.23169 -19903.18975 11696151.159 40477404.129 
1374954.9411 2231500.3795 16623886.909 353196.43522 -28929.349888 11934.714486 1040.2180282 18797244.626 6779016.4419 
19386244.706 13188979.122 21110760.005 94149.284842 2806.0780147 6786288.8252 6988556.8679 27969929.455 8843318.055 
9153925.5549 3466821.8968 3727989.4016 27439217.314 -8714.9840486 108761.82945 -5322920.3643 1291910.2254 97022.269064 
33421119.84 1014939.8514 5528845.4318 7174504.012 -15446390.771 -9072749.8271 573067.75533 -6598425.1139 916.45890738 
3567561.1377 -9211636.5768 21129472.931 9163.3769031 17219378.747 -49022297.874 17307021.225 2697575.7878 42389.950653 
25438119.152 4197018.7462 30042423.423 11197631.213 64944.282257 -51447.775968 -17261325.956 -54320.713448 -12397.298016 
-40931.465106 23241958.136 -42872.899626 -1801676.3139 -46668.075856 31828974.916 11164055.092 378214.24258 -207289.71862 
28692662.236 34802555.967 13188482.169 4075433.8591 -1462544.7359 1566201.681 15022383.112 19779408.367 8498.2529928 
-22975.434274 7894.7791983 128108.48035 7628528.3986 1810431.0126 -913.26318081 -1008368.0594 -146465.89153 -11228.362942 
-13316635.063 3095745.8086 842019.47685 9761761.8542 40749009.832 3135849.3744 10364245.345 15221888.527 29154131.731 
25879.080963 27059.206136 2606849.4422 1582526.1053 74721.057358 14602720.113 2078209.1812 11913182.611 11603289.162 
81206.30144 202084.2336 25206.784851 17795901.979 1184994.0825 352398.35959 -37576.275708 -13604850.144 -1740790.4985 
21310989.035 26811430.83 -16150.784131 31719.573577 33008.636371 22446.065831 -26425.039576 14250474.662 26627.453918 
374234.85219 37445704.467 500895.90763 -8309.8802948 23720388.649 45948308.815 309898.63325 -684.91038223 13255929.559 
636200.76458 -1505149.6678 21871994.04 10557346.411 30520745.387 44803.931224 211020.13857 165078.56109 49369376.448 
48839578.265 44070252.866 -11131614.614 -10328703.313 -18465934.371 -6744051.7448 -6209028.0009 -15457149.701 -5416245.4139 
-3737555.866 -7709702.6389 892108.36654 401356.87055 -1611059.1628 1228412.4365 196526.79824 8519906.1628 2288649.7274 
1847417.2584 13664181.839 9988224.238 5523797.1864 -17937446.033 -26344362.887 -9874429.8085 10225964.42 45864603.712 
43874268.691 45765446.883 40672323.68 43170856.65 41054079.999 38047750.108 38188124.502 36270658.902 32280142.628 
33943716.729 28214557.939 23917228.71 27824852.241 19980030.103 15657378.964 20321034.859 12634797.225 8806882.058 
14046387.186 6753119.584 4203297.9196 8745889.3991 2121201.547 1089649.1533 4684571.1948 289173.61247 2260649.5353 
752058.5022 34849075.897 42936295.755 -17398553.293 13724108.822 29400450.848 24037856.849 9244666.8684 17483760.999 
1303387.822 -12852362.608 -11705962.481 -490391.48008 6806657.6452 24236446.346 -9699067.3785 8632263.4826 9638148.4806 
4649695.8375 -824133.36293 7875059.3842 8434031.979 8919653.5507 -2003841.7835 -1945383.1514 -8354806.2462 -2881398.1029 
-8480079.4406 -1158280.6329 3931900.4457 -470521.37701 -844865.63215 -999165.2453 -1752551.6966 -2367380.8609 -1107106.9366 
-404266.65181 76692.877444 95149.243544 147272.66816 -34246.476448 32053.647782 122260.09369 146842.99414 52743.589322 
22377.859719 47570.523052 81333.994613 -7917.958906 73232.763958 -31727.04617 -9146.9407951 970.39778212 49608.301765 
51258.981825 -143746.44471 156599.90031 29472.347269 148402.96385 228094.18456 101344.72825 -4357.0397284 344646.70197 
200137.22204 64939.048376 428303.30283 573992.16229 685229.44046 1286209.1347 856344.06533 202739.72682 230716.39878 
656769.93535 311367.24701 -16586749.949 -12017503.979 -14981637.234 -1394993.5233 -152890.39572 -4633423.8816 -4807175.6709 
418410.7917 -8979.2519169 -133421.17115 118540.79239 719789.0536 7216380.1214 169268.09575 12694504.159 16539512.661 
5159116.23 19891131.933 21955842.861 15372826.07 23670599.7 24850216.292 21250984.405 25433593.17 26083684.796 
24051784.546 26961585.216 27379029.776 25790724.078 27737223.595 28329763.204 27133874.108 29019375.531 30076224.688 
28136145.804 32352028.158 34519854.024 30754180.078 31443018.548 29022121.019 36429152.447 39642904.173 35405390.769 
41507767.103 -1196.5590405 4650.5020243 -163519.43279 -36956.733265 -87488.69856 4550.0215759 92811.154966 931.44892353 
-91524.181303 -61198.254522 284128.98688 99344.583321 4661458.4508 4460442.1881 2542655.7828 4609387.3712 6964941.054 
8636702.5373 7892849.6187 6419227.257 9168477.5141 11027204.054 9339501.6426 9177217.0636 11740131.716 3758595.3639 
1862148.2284 937385.7958 2096186.1722 3387613 2748679.0367 1683819.0432 1122778.3767 2542143.7315 3541981.8988 
4176017.6928 3983282.1026 2630779.2894 4066389.8578 1036555.1506 -65340.53783 -66121.849117 91582.189436 -143126.34672 
141199.58375 -112176.74358 23959.908589 -20392.091377 60241.117265 34192.068515 86989.096728 -98258.917241 22171.396684 
-6798.162232 -152170.78103 2976889.7979 9081.8463202 -95898.790059 163079.73686 -8721.249556 827178.79214 3452590.2331 
7357394.0251 4474615.1709 20687700.21 20050205.87 17799724.931 21055036.492 23302102.401 22044474.488 19166010.51 
24235441.785 23220665.536 25539470.735 28577854.464 26102984.103 25863340.227 27375701.549 8940420.9366 9172665.4324 
7061476.2123 8212850.3361 10586741.892 6924900.6212 5471249.9024 5649282.1675 8376917.8486 5133630.2137 5450095.93 
4039992.4273 -9829884.2693 -9715423.4193 -8277238.597 -643807.48009 -6728610.5773 -996153.99218 -141333.07495 3057733.8287 
-1818215.4423 410242.93052 4785569.4781 18794597.564 196143.11318 141371.70439 291525.74772 6684.0636657 65755.743313 
-40811.701471 -258798.32025 -59464.087164 -182675.69991 316924.45597 1125619.8654 2476856.3424 2145109.9631 268501.66041 
776803.65767 64873.897081 128064.10759 -597.05041143 -6279.9670378 143867.19528 1207880.3194 741418.10738 43338.683313 
318649.82855 18217555.126 15704502.91 17034711.775 20326488.972 19212333.84 15188732.923 18317487.482 16636164.915 
12543570.013 14527758.092 20644966.604 13288243.033 788227.08439 1540761.1884 851396.70071 73626.162281 553909.6209 
-14320.939728 1056.00893 9646.7190429 81816.315196 533655.75266 190632.09023 -14835.29663 -60042.587004 -54876.126347 
-41379.317411 -111680.70514 -86996.076559 39.853424262 -42249.603899 -34350.042493 22242.853818 -140140.33076 389136.19682 
371574.87024 -106121.86488 -76748.449645 145686.57752 120265.42786 376088.24644 -19621.675393 170571.82933 334709.88005 
94538.011239 472279.37355 20572554.371 16965738.944 22636776.599 19199327.144 14131810.511 12244626.692 15152005.6 
16262190.835 13211608.655 14881283.136 18140054.711 27981.693609 -42278.344822 -12628.94885 4858.6974162 57177.886658 
113757.63131 48502.95076 79772.379767 62886.122115 43536.525292 43219.849004 74627.611214 30508.558966 234556.01543 
-49948.399644 11170.205594 188734.13737 748201.87162 2149401.9173 39400.238565 848264.65692 3743029.1476 -37234.689634 
150367.05832 -101339.80905 -628.92834183 31186.20322 2684.072007 193338.98369 72142.665425 43949.975447 194519.59362 
-14853005.745 -4245213.7024 -1724404.0984 -9190.9345111 -5376767.311 -3208296.6168 -1712020.695 -9165125.8803 -1413893.8363 
-1303296.3635 -4781403.1362 -123974.00717 574335.35814 4432171.0971 -1386014.3715 -14587057.286 5848696.341 -3228919.7132 
4810555.6425 4159555.4597 3192932.8786 2926973.0441 27003636.408 25020394.55 27455124.858 26888019.57 24631913.316 
26213034.045 25986905.214 23002905.33 23030262.869 22125661.717 20361163.051 22957082.398 671460.08686 320935.84506 
727810.77355 1461738.692 645411.56595 2438799.5553 2429119.9101 1544567.699 3040683.9255 993247.16491 1238020.5756 
2481639.7604 2161355.1218 3817911.3969 2864750.6964 5010415.8412 6955284.5284 5105768.7781 3178347.9998 2443301.0833 
1737793.7921 1062908.7308 35233358.286 31510641.17 31730764.473 38021536.112 37548211.585 38989982.883 36418308.334 
32093770.766 34077135.678 31432380.187 740108.92245 64052.13908 363002.53614 -43359.949312 -105227.04628 26105.935482 
263346.14973 48481.631226 183643.01048 327310.94598 -760887.43645 -4304239.3096 1174772.6581 4283473.899 -1685402.1093 
3579691.0829 1782176.9391 2947870.75 -84149.128712 15.209049048 5592.4680414 -2079.9709387 66984.003056 56958.09105 
-7104.6127124 50895.039345 38590.078216 9379.5017687 72300.647167 21019965.434 20175355.191 18260039.988 22321701.413 
17647709.76 12910260.543 11664227.297 12014618.453 14686704.976 10472095.021 10998743.353 8878253.7688 12902280.66 
11215553.714 8590038.3709 12434539.586 12915914.738 7137495.5414 14758927.316 13759241.951 14437473.728 16703188.964 
13769851.493 17634909.131 18562281.876 15382880.74 13043002.462 14039944.237 4865055.3343 4659988.5856 7547447.8416 
17854081.878 16246152.747 9858861.5666 -7976731.8602 416481.18135 156435.13257 -76694.54105 30451.120947 17010.290922 
-53481.879441 -26839.402054 -122161.05472 13306.120729 25883068.898 24154742.127 29745877.11 31399612.511 27747476.122 
25602041.21 22496996.174 8889075.9815 8939076.9506 10940104.888 13623593.479 12086174.235 10283503.4 11458419.582 
3339403.6875 5360731.2446 2069036.5934 2695802.2171 5455476.0215 4031919.9732 2576075.1057 -8719475.8275 -13985695.631 
-45588381.695 19120948.442 -18048512.17 -3384462.8677 23400887.012 14256038.702 50086110.243 240945.37243 170508.92392 
16624.371833 -20674.178836 110603.50283 100735.25405 132303.23909 -16654.569143 14280423.657 7810413.3071 10136335.97 
4051265.2103 3055169.2996 5082689.1504 -4239.3566007 -40377.027309 -65558.474958 -151396.92406 -145158.50062 68114.540308 
-237508.77192 -136274.89241 -115708.1055 -102298.85274 916615.00162 214277.1712 -8260989.3444 -4562678.4321 -11450506.831 
-656204.21542 90851.586811 -139059.72537 -210730.26576 -296357.4054 129573.84464 9541.0465726 70067.492041 46873.452359 
-121416.54164 109227.90638 -608567.31615 -206166.56355 659664.60932 692172.03506 649697.80058 -58120.59511 950215.49263 
-8702.496577 28604.974787 55142.558458 -25869.196808 10459498.316 7751352.9673 9878541.0198 6641544.2286 4642213.4235 
8682475.333 135424.16373 132654.54294 208544.96528 190285.06198 321108.85937 333879.05999 11621207.364 -6773382.8029 
27647505.381 1574609.4757 11640745.791 9933.570623 -13973.753739 -34344.339412 -35936.960606 -54505.557514 -4304.5239731 
29092828.311 3145193.7532 2025721.292 441620.0957 346569.6336 956413.2919 2252337.7387 2287692.0697 952379.81613 
24606901.475 22242233.347 25827298.746 73301.45433 84748.434129 198971.26759 -31079.472943 44840.536671 -67553.560453 
-39765.545904 -78845.024943 97570.86053 27067.371837 -46743.667354 25158.552058 667515.88009 19791389.052 16801891.46 
15728698.551 16363290.489 11080863.235 12497998.782 611065.36933 1900353.7676 620026.77104 -77909.678391 -51222.885509 
-881809.36331 -3136024.8307 -1613171.1227 -2417872.7457 -3392485.6793 16316991.199 -4536865.2501 2446221.4495 102545.77041 
640825.89198 29949798.855 21823792.31 -3148753.4131 -3818863.806 -4087432.6099 -5851668.1815 -2475491.6515 -2425172.5863 
-3032775.3242 -1967232.1371 -2919687.6757 -2601576.9538 -3241300.3731 -1811886.7323 -209793.05632 -41873.746313 4840567.7155 
-460439.57205 11698326.959 42170352.257 4890741.747 15045284.593 -4650663.9018 13211013.887 -19409872.068 -4710802.1635 
-2074268.1628 -3202410.0111 -36725.415179 -985051.01887 -2215162.5038 -1516449.4416 -2187449.7903 -4852133.7899 18927707.897 
7293319.1547 3145852.8456 52623879.862 49638305.736 43954287.041 36764474.318 18558478.698 9735447.5159 3457059.8418 
129821.35771 28062791.25 -62619.589454 108495.68756 276649.48192 -17984.642763 52929411.984 52716989.236 52115850.995 
-9735.3724418 52286782.751 48931831.512 50504183.043 51496588.994 50344274.451 42327515.159 45719366.682 48749532.729 
47407577.107 45526864.916 34615021.798 38887794.15 42240078.584 40830952.453 38793345.194 25419678.538 30119482.229 
34622425.262 32340621.231 30142442.85 16105880.834 20982268.378 20933652.653 23164947.081 25504691.838 7741370.603 
11774692.255 16242966.592 14005759.581 11823471.322 2032133.0227 4702711.5239 7862450.3272 5998339.3025 4888445.3592 
-71319.182871 -274457.08767 2268141.4673 634432.08877 -116495.6089 -113155.50832 -36013.204444 -15409887.59 -17184497.483 
-3695230.5388 -91862.28253 7736803.213 16384381.799 22219027.513 24954431.914 26473582.447 27364066.89 28389362.513 
33132195.101 38357885.941 46966183.297 30200807.83 49672785.417 49900983.294 44545300.483 -9950766.3835 -9903392.4126 
-19016138.129 44780153.91 -17746261.142 -19647565.249 -13810563.364 -20873902.952 -18488471.986 -7967006.3024 -120881.10753 
-10990039.616 -13300942.42 -7200912.4709 -203216.53729 24949.758912 -117784.3188 173920.45834 -27359.617387 4798276.9457 
10659038.879 411365.99168 240998.05746 4163857.2591 14721756.305 18292994.056 12608375.942 10217366.775 14562598.617 
21384428.708 23243142.257 19876096.058 18187094.045 21096500.047 24557330.667 25603603.087 23770819.059 22970968.142 
24326993.138 26304509.032 26771109.074 25838875.967 25496923.994 26163699.346 27266751.695 27615078.125 26934384.025 
26669516.377 27221783.487 28215498.275 28722601.281 27882464.81 27566304.226 28194483.768 29733900.503 30870387.543 
29165685.591 28735072.547 29735378.033 32347301.427 34127893.839 31631695.051 32330340.683 30843523.801 37033066.355 
39882897.54 35474777.223 34156241.233 37068897.078 42246549.245 39980050.463 -5035064.0849 -183907.52646 4601182.0083 
2357422.3174 8296866.9574 20276368.04 -23251.615247 24319174.567 275644.61085 1038937.2702 11046490.978 20920.060029 
236542.99937 3906083.5485 3248632.5399 3978940.1733 10621023.1 8815605.6555 10547052.561 9356726.3996 9377708.4268 
7761109.6712 7133684.925 7804786.8003 19196665.911 16963176.29 18727008.312 18642240.241 20818437.824 -9034979.6622 
-1889728.3288 -8215583.4037 -592943.47151 -12453491.441 21319230.55 20787184.514 -301036.68504 -60823.903017 -118673.83228 
-110349.14187 -41039.260541 7318999.215 7643217.279 6087649.7286 6096022.2563 5749622.7961 -116178.69514 11603.84288 
-8570531.2036 -860377.33296 -5516059.1442 -9775081.2256 -14185949.312 6922703.4883 5691234.6508 -6073143.3497 327575.8054 
-12997498.55 -14997330.582 -16342904.461 14197.596431 76356.606816 35060.100158 68606.029174 -61662.402751 -18383.14796 
3853618.7898 707981.57738 -1021741.6884 -629394.74214 -1515599.6984 104743.61692 583572.41345 132801.43687 168320.87458 
251034.70334 741718.56666 619672.66833 200992.92012 798283.20612 294386.58843 8961350.6581 7619192.8147 7463198.9634 
11296882.234 10791314.259 10701598.812 14442772.153 14574940.964 14054974.27 17783787.096 21968163.973 20298091.337 
24113293.659 22024856.835 38525828.194 30187227.383 22222326.53 35884399.473 35131009.75 26167556.017 24041114.478 
26175284.058 12549977.945 30258438.558 30334858.778 27841679.56 31852583.221 17776904.094 16591980.492 -252255.92866 
394008.32829 233583.63618 -59003.388438 -67546.467163 34509.408558 -28967.505491 24875686.689 25274943.441 24320929.305 
33874301.112 37672288.985 39732713.413 37785691.824 34214787.74 36120905.996 34258968.967 -5712.7598467 10081.66584 
20138.03078 -18155.05989 34699.585119 12845.999673 687016.00983 -17601495.588 -15033689.751 59898479.897 62624618.429 
21629961.155 613515.00091 -1918726.2108 4499236.3292 23319299.9 25447834.378 24478582.691 5215065.9304 8818820.06 
84583.292163 47473.28683 4892.6044025 -16255.551154 171040.30667 8151159.1984 10623663.156 9749034.2034 4237643.6745 
498918.32751 3382152.592 2226804.3463 30585.498983 -50552.163804 -66576.661028 1480760.427 32336044.702 555139.20712 
2261.1097635 813960.25145 570596.52101 1390337.3445 516259.45413 -18477.873608 -1286153.4358 -444560.6131 -17406.175517 
-18489.388548 29656.416379 -38011.699033 14777040.177 12362502.849 14252669.1 314297.29071 32270.174078 60765.645888 
729.0127425 71579.036298 190903.08365 -15155.989438 118758.66447 114528.36163 -185260.67585 -100211.26417 8668.0172298 
989245.0345 6618521.2113 -1835281.5738 -523677.62552 27373446.749 -4754381.61 29502.857718 5315195.2518 -7898825.7532 
-2951.4615109 40278.775982 14637.241642 31268.155739 -13517.9096 31402552.863 33338796.929 31531537.987 33361063.871 
33326141.898 31868161.239 4976426.4346 -15300697.598 2418554.0565 -10718131.723 42592.98834 110244.54912 149381.28737 
-14749.380967 -16265.234224 20589.200086 15723191.526 16277420.068 935895.47711 239349.59757 -4700236.0349 -3637535.8472 
-792318.41105 -4139916.1429 879019.30488 166381.26012 764436.0127 -4623.5572643 -10536.333775 -5538177.9007 -8855273.8974 
-34192.640658 -37527.813494 150851.28954 82849.432446 44193.420179 39665526.332 35439334.604 44836027.023 47950015.789 
45946843.316 48102233.045 43007670.35 41933426.118 39591507.357 42053243.915 6929774.9394 8399197.9486 17953359.57 
16580340.261 14639779.24 14413075.031 12951634.81 9175149.0536 7886881.2711 54586.570939 18436.175829 33117.354091 
14589192.161 15746485.952 18251611.011 17008737.495 18506.90001 153623.53709 1956183.8382 50004.875369 44962237.294 
40465729.564 39742300.133 -24459.493105 -28612.447247 4696.625523 58835.23873 31273.240424 30013316.133 29484759.68 
28972871.465 28701764.887 29465600.448 28248.121392 12082.842029 21202787.114 18305523.264 11332165.033 15517829.196 
204622.36652 12841165.175 15208908.809 13243676.731 8247851.4645 8155838.4997 4444658.1717 16796598.377 810087.18875 
86786.934168 69445.713026 -2545740.4933 507879.03483 857326.11916 1549108.9424 2029719.7288 13747514.078 11604974.001 
13060711.84 15378133.254 35911.249882 25457398.385 23238663.967 24839727.65 22741873.514 24815840.849 -55.413341507 
12929049.4 6318946.318 15691062.149 487776.35333 -17416.182286 -16621.176061 22957.209518 -11228.617715 -283.21778507 
-124394.55264 54532.401544 4580405.9277 10089530.15 26999630.285 26705023.916 27184031.259 27272.853555 57805.275058 
-29187.092884 -58797.375082 -44414.254 66701.277891 -57016.719473 -5999441.9885 185024.97765 72789.088406 14872795.962 
13113298.026 15169997.768 10353610.837 20204455.721 46334331.219 44182921.337 21049864.702 18877454.562 333383.77039 
650167.27221 -9027.8486277 35255.010886 -1353910.7164 -11848397.413 -13627017.549 -5045839.6541 14921154.845 21947678.126 
22879941.788 280576.19645 163840.62143 139769.61091 33373.531683 10992941.453 11054373.212 41247465.391 11962.680829 
-213070.54945 5257864.8765 8888238.3782 6652230.2154 11711530.453 4847539.5977 15950597.97 10332230.852 3341931.5232 
-58438.341821 -40484.979163 -17146.445702 22210.342028 2863.0763917 -59571.965337 39341.745481 -117572.96454 17166307.309 
4962098.363 9167355.2209 21082578.971 22770779.618 26806696.398 26860637.327 27228592.034 11385031.609 12224957.635 
22750109.005 20965809.437 23283604.71 23662607.966 1335300.048 722410.70224 393044.04533 1068777.2826 409867.14764 
-3256.3999484 57376.838055 11238912.588 31477894.725 29332310.341 63074.240532 -43906.882183 78858.706566 -101465.51849 
-73301.437404 17689070.922 12711236.276 72833.784389 -26607.741018 -29096.927989 19276.866251 -66086.188249 32975.728993 
24905.441232 39026014.019 37901931.17 -6557706.441 -3042769.0471 46464458.033 98890.284586 -100052.77596 135841.05919 
76589.383874 -400596.91642 -243535.2101 11029745.681 12417638.047 19401867.599 -363240.32617 62815.828481 -42528.137925 
21338220.993 22509606.529 17057706.774 22814361.306 10362497.745 -6196057.1878 37802209.136 37376255.329 7779873.0595 
5123688.6838 -11209.638032 -46940.359802 234694.02599 -284391.3264 12030.82274 1296.0842566 -3288.146877 -38171.387797 
56653.474832 14460921.1 15209939.252 -14217.648043 1967044.0689 1254935.1115 865257.01617 433393.49978 22747.899616 
80893.559856 707986.22464 109426.14216 600213.48496 744187.38207 718897.0516 44836904.378 53241987.173 -231214.06807 
50140.563746 32635.58031 74508.286005 -36717.946683 13830.129061 7024702.8764 11059430.755 6682868.6117 111709.91739 
-11831.323433 -18499169.108 -17617124.024 18350410.096 17806356.623 20657060.925 -14724.843397 -23101.95199 11629.991442 
-9097595.1414 1703716.0031 2386681.9367 1738989.3832 46135.509845 -47984.140572 29699624.64 55927.986082 14396600.212 
13765850.849 16656979.369 17166525.899 40145.27497 48419.902698 763634.25837 31273883.732 27329002.724 27772210.982 
30719594.059 29973076.551 25931155.056 24094236.233 -57543.386011 -62768.714618 5106962.585 6963322.9832 7000570.9318 
3391524.1631 2601838.8862 2689225.5687 9142808.9505 13193791.976 12559369.535 2323289.9958 2322673.6282 -5368770.7122 
-5222450.1031 24204533.411 27340737.201 66918.094012 6051.2313928 -1929.9496977 -689559.05594 -1063193.2237 1132213.6263 
21094543.477 20157051.436 11883812.042 -912.30634827 -17886.420694 14105615.219 31648208.74 35262621.117 25813130.413 
13789819.897 12440608.217 11097614.461 40754870.36 44847485.303 -107872.13601 -31140.038476 75681.802509 -15660.952371 
-18422624.983 -18953285.726 46971.008624 -34997.922508 16030172.641 20327025.814 21917452.655 21911775.889 -115358.24223 
73577.680763 60523.821231 3018.1290107 34459.011101 20283157.462 44893830.472 20016695.233 12427266.432 10646487.196 
4172509.3845 4952287.9514 -16977.780172 -41774.658064 8905880.8222 698007.18554 41507.520989 1261047.5456 686434.61966 
-24908.556979 8901423.8085 10845212.629 1747871.8449 2222754.3434 19184461.8 20004420.43 31499540.101 34866365.734 
27963450.577 4901368.2242 6427734.1292 8575274.1187 10272337.865 7876874.6479 -163201.51697 -29146.150481 20787.926406 
12095315.005 89117.370079 51719.721844 77812.128133 174418.45631 36495961.684 35200816.609 17661509.689 259996.13165 
136226.61084 11902885.515 13316462.622 25817984.179 -2025.1410414 -33942.817774 1950517.3009 2122727.2695 2238501.7314 
1209067.5509 1206384.4337 1119912.8149 -2330259.3759 5196616.3206 2959783.5726 -81745.599023 -22121.786827 104712.05092 
18557541.664 22000207.775 342937.80575 24469.394546 -10971.185342 -42859.44819 25201.934503 6534185.2434 6454118.2325 
2779894.7918 18475.544344 111402.7282 85918.384937 17015950.046 20548037.945 1127058.9819 205560.84974 159197.97711 
14236.096725 214921.0414 -8822.3283647 -16274.102336 7348408.4739 25854861.139 25514003.706 25888453.915 7769009.7728 
10441705.379 10466591.007 7773634.7911 13556100.423 -7370.7844535 -4268365.1368 16218467.452 40547157.96 44734475.34 
24136055.498 5488622.3898 5430471.9788 5601109.6536 5541130.919 4172762.5518 48783508.867 49261365.433 49106653.927 
15696858.672 9950040.6665 38382970.863 14593012.885 100349.09733 8153183.2106 9885971.7905 1107.6504421 26404.037099 
-35786.265821 -12236.769889 57874.058833 -135294.13468 112690.89745 21804410.554 22789572.24 -123926.54348 17128533.573 
-52825.237939 24491.12334 -29253.268885 698175.48977 4472048.8528 7005002.0734 6740081.3484 1564043.6249 1448.7028677 
-73487.964251 57111.760481 -236806.52266 1460020.3067 7692.96891 48930.024659 -19286.367567 -1552.2476918 146259.08907 
-2731.6486642 3915794.1595 -181052.70251 78276.827034 5076.1696555 56484.854792 -31811.165959 18371407.832 -6783.412373 
2089152.7618 820662.35007 4543370.0256 897870.23308 6617871.9636 178383.14349 358417.86403 8467.2391905 3096972.7601 
2976224.9721 2227579.045 -130960.18868 -165481.99653 4313365.3351 -85459.811631 2111457.385 27519406.278 27783753.833 
28047672.499 -7657048.2728 -13743558.252 11822155.669 3121571.8168 9163146.2287 393.31715809 31215.594631 4402175.192 
2118877.836 3724122.5795 9560250.8279 -2588677.5203 1465224.8612 8610.507769 83454.279356 -9896.9645816 35152804.439 
4799056.9499 3316137.1688 3256402.3308 5041208.8075 16641861.038 49474.031151 -149874.55425 22487141.555 -8605925.4658 
-11939401.054 -8777889.5885 3905879.4092 1634998.8415 -77484.193281 39694.482989 -2656.5518386 3228017.6961 -12993.508785 
2378781.3025 14706256.467 1532255.4612 789021.02245 6537309.624 10088784.078 102048.00495 399682.7295 60847.042202 
71141.062148 252624.33874 4590.0651765 19773647.795 5289894.4744 3346413.2785 5381883.6222 -7433180.6859 1609965.1258 
-167319.86765 1731302.3417 -50194.667155 -120197.82581 -55246.965067 -116368.66599 -87230.080371 2317667.3355 2204120.6804 
1064487.4281 114895.16018 -569941.84878 528511.10242 -340899.19434 -48283.60399 -69753.241182 56675.443501 81920.677835 
-91799.434608 -13820.475627 -123748.4297 -125378.36258 -11299344.072 48235.197933 91413.12669 3806272.6096 5592483.0012 
5454489.7352 4550444.2801 1368582.5407 2175297.0132 28138126.651 27461777.412 26721160.426 26102059.057 26061873.575 
-17368.709846 5302578.5378 10283656.153 2483433.7514 4562346.848 -17439435.873 2592318.0427 4885580.515 -7727451.7022 
8603377.605 759605.99408 15799960.754 15167682.658 74809.816013 -31157.663847 5492351.6399 5392863.3935 5526971.7032 
-17927443.169 -27742.537285 90950.347163 11620447.964 603773.16815 22838.807797 -24137.639941 134864.08423 -80200.092872 
-17222.644738 -99090.195185 96166.35231 -49952.838563 18108439.592 21114046.285 22610401.309 11107788.209 26889906.698 
23562708.044 -55307.678631 -34470.002427 -38192.347958 108794.44457 186926.94491 -138360.26747 -135351.62478 18367379.411 
22375069.205 19825264.089 10693781.27 22877081.598 2445736.5053 1230936.7225 2552368.1501 2447166.8131 4046801.9651 
11227300.948 587975.17693 339029.96421 2016141.5824 83838.375399 190293.06661 -301571.46684 103562.55889 4149393.2021 
29125162.807 26072508.652 3963472.0055 3804032.9169 3827374.6174 594460.95523 35267866.773 -5386.4037705 180088.54226 
1723704.8596 1433124.187 2358829.1809 232211.58035 6886643.8042 274693.65695 20455393.16 -18573312.043 16801.441698 
88906.421986 23928.004022 38081437.014 42532234.703 42399236.389 2519528.3095 12787923.987 1132399.9256 11932728.831 
27118471.014 -54286.304206 28005950.709 27486703.525 2765338.8476 -10046924 6341846.1775 4915262.9624 -5093174.534 
15155.094597 19190680.701 -4924.0760146 19821901.48 19823456.671 22409028.619 -8804025.5367 11037565.448 242642.18656 
-9514736.3119 -3325834.2643 -3775510.8208 4114586.279 578733.68845 721995.78504 22180.284508 -95790.815742 -115294.12909 
33705.568996 1506586.7579 3134436.7978 2429321.125 3050919.2096 854249.58267 -1894223.2194 544993.41025 45500.692233 
26072525.452 24427611.648 -14156.118483 405362.90962 315051.36839 896122.90102 1236188.5249 515408.4636 946146.33865 
27978.961454 -69890.485566 26802.297349 36398944.863 37554303.722 449383.88908 55495.941023 1375262.5976 -31388.022927 
-61094.675637 9827.4201529 558868.88709 73748.1312 107823.69919 3453748.8073 3275840.7173 -48753.836306 5379346.4307 
29036551.489 28644517.557 7303209.6167 162810.84654 85092.130346 3322306.2135 1706390.3241 -127471.04621 149625.15237 
524283.28423 -5365.8782403 47057.426939 87682.963673 5284196.0026 5257828.6763 -18089.408115 22186.581299 2234399.2925 
10288566.367 2489228.8684 -2906858.4648 486415.59779 785463.07325 1442816.2222 798321.27287 2409686.217 27438594.512 
27007045.666 761875.24421 17334.222577 -23697.487465 -2817955.6182 1342261.518 2378004.5925 -32941.849778 16479456.608 
24682035.854 199733.30522 411753.11213 -11156.108772 1035534.5306 -4460606.4743 -3084930.8947 5461403.6426 2060119.8404 
2022020.5791 415971.55242 128127.90861 1061967.1337 -352081.35851 -8916566.9606 31965546.981 28589864.738 617810.83118 
-20781.306466 25476033.819 10687279.239 173491.26267 37814127.895 -70795.236464 -9887648.7614 10006895.5 16543963.055 
-5443792.414 191437.40634 4719.9585634 -764697.56114 299108.58946 19429015.49 10959562.588 23627525.268 6002695.4237 
1932422.4445 22846196.834 22843518.023 8122196.4355 4488826.5083 10138133.737 1356800.1651 6051902.3205 13512360.897 
10578018.235 28635426.879 54184.145064 32451947.471 14273650.723 38260827.465 -204812.91851 15464741.949 36158624.288 
2428158.0268 2369287.6268 -6046851.8381 7566712.7599 6031653.3186 8606654.5969 8676516.775 8775966.4102 111100.23844 
-207067.93696 91013.73621 77472.522262 1808900.3467 7499672.5332 14379030.979 9758106.1576 13716686.684 -40434.558873 
4105505.516 4612142.9021 8184870.4647 2554136.3559 34040141.601 31406236.452 -4473009.6398 9975884.6134 24529643.387 
24491548.878 -2038060.5556 -459358.474 5669866.9963 3317683.3945 1007519.9594 -14333.190538 7187615.3939 -2319.6786398 
33722118.335 17109162.055 3169668.1016 43783439.779 4544771.507 8917955.0762 2500416.602 30509.041325 1358926.5199 
23132.881945 -8299.7326298 60589.831037 30275.300134 -4558585.7195 -10356.484987 -1310659.9044 1319685.561 24574813.584 
24489455.322 17705341.248 3835579.3237 -6460423.0626 25854137.555 2276066.1958 -18980.899699 -16158.892776 33476938.349 
2147446.818 -11510790.84 -624843.57775 -91565.809862 1175261.3592 30216.267315 11793118.193 3992014.8678 219497.42586 
20628145.994 6131751.4739 5708326.0867 -61911.711224 8767377.3879 881209.73769 -10027129.2 -11203138.896 60726.745978 
165405.30919 -74703.972122 330114.56249 50388.715092 4817574.2148 -399199.16687 11146368.282 177963.5741 4163287.3829 
22985845.301 221365.20511 184861.64558 9474761.5391 22296785.887 207498.43963 3901154.772 3825887.3076 29141216.754 
25484.004536 -29054.589256 386719.65355 -4244676.4333 -8416814.9601 4079399.446 -534816.18737 -331295.90214 -288175.75973 
2086745.3325 1945541.8213 24646247.012 49696925.802 172238.90244 3262539.7251 3193216.6901 -87503.660711 11154581.105 
2861720.2666 26825159.169 13011223.602 13204532.745 2560364.9861 -4488060.86 -5372094.9036 -74889.755347 
Minor%20Principal%20Stress 1 3545 double
-21780203.708 -3014132.5274 -2158511.3834 5310405.8885 -118837.49594 32118.76987 -234300481.94 -88111.903379 142181.14331 
-242434886.11 -9268377.1162 -8445051.041 413524.49286 -1469369.6269 -27175594.576 -48935345.595 -7216303.4503 -1162015.1552 
-2544777.7316 -2229796.2019 34242185.327 -3472562.2719 -31953883.238 -19049269.717 9132650.8557 4237339.8202 -47787784.8 
-32551567.833 -12842769.7 -13992135.014 -1368683.8276 -8680059.1157 -1027074.9387 -7812588.0459 -1345291.3353 127598.3028 
-1305478.3326 -287295.99387 54440.597116 66009.800783 -87405.977178 7077.4235856 -85315.360605 -208709.57037 -136745.61642 
-147945.19385 -225792.99101 -89019.355792 -73084.544587 499570.36811 -1110672.9411 -1694647.0326 -25172751.389 -6239541.6232 
3530597.4803 1467575.2869 224646.69596 -626927.52262 83516.028756 -31356.875794 -52855.432531 -123556.72403 -223205.54417 
-191913.50527 -251893.59411 -255481.96482 -221688.56701 -196002.24971 -57444.931868 32214.74037 50416.332228 71795.398836 
33038.46169 9808.0811238 -54907.950173 -50545.60015 -61125.948142 -900890.45448 41373.632545 103772.99683 33886.381407 
57815.60316 -30178.430907 -22253.427468 -70773.685207 -68938.633158 -252142.35545 -550901.45204 -114359239.76 -53184222.155 
-18593018.686 7566.1608831 159686.67947 147619.42571 -1254.283409 88298.43514 33662.002897 2979.4400325 11757.971288 
5261.6466015 -40.695971216 -257.92019071 -168848122.86 -82014923.976 -33961734.412 -7778521.9363 168252.96752 98492.874553 
136789.47054 98257.32309 25371.200833 11889.893766 16066.872621 6120.7915807 -36833.182999 -22673.680939 56059.656518 
-221202957.61 -179301238.17 -116516825.95 -42811595.917 -5413607.5656 -5695166.6942 -3464606.681 -234732239.82 -204179838.26 
-150686030.42 -84065054.852 -4001274.2298 -22795012.418 37239198.554 -49952060.388 1532264.8363 -37895909.781 -11632491.945 
-1368189.8759 1060745.2585 -1175994.9063 1391388.7645 -449748.83958 -131835.90005 131622.251 1399.4100137 -52480.364482 
-34676.085053 -172905.18717 -149025.50208 -169951.80899 -136886.33912 -276083.71019 -75662.447855 5326175.4855 1129495.7601 
-9956114.4956 -21952679.233 -1724657.4221 2357162.1871 1751255.2657 1059077.064 -750639.84486 333105.28189 109802.17693 
-96128.507115 -103179.98496 -163443.02773 -195490.08816 -222264.00026 -338672.57035 -322450.24066 -259606.71852 -71752.084257 
59443.819752 166322.00019 154051.52748 74243.061125 37379.079789 -29632.229726 -93228.418825 -172315.52817 -240577.46148 
-1029608.2055 204411.36107 212436.03221 222906.36616 94693.309162 22666.242396 -71399.820297 -144053.67135 -306574.49398 
-537898.62922 -589351.99138 -120857910.41 -54879216.7 -20807627.362 -3930.1782388 -20219.302131 4693.5357853 147422.76048 
22919.682893 6150.6462526 22322.129413 28977.776284 32014.346227 15761.84813 -38052.94454 -175806433.46 -85341578.042 
-35743109.337 -9239990.7127 366013.12091 42667.0145 157039.1047 153851.0779 85293.175084 43331.29394 39310.345598 
47938.967404 -12821.794637 6599.1489113 102512.72143 -228464899.47 -187088888.85 -119760072.46 -47250518.316 -1775924.9169 
7206191.7262 -1218839.2134 -241849602.65 -210127020.83 -158776911.91 -86367407.798 -11460915.431 2445098.0828 6107095.3788 
-16897617.432 -246516038.9 161598.64871 -19193876.521 30159764.091 7283287.696 -23987586.891 -11456411.452 37405111.608 
42671293.886 -8843840.6895 -4949470.0568 -12771647.5 -15984883.864 -24360395.317 40830258.664 -1892580.8363 2862738.3331 
43089187.528 31216563.27 -17088535.954 -17446859.968 16135598.736 18275859.304 -25764662.197 -4774351.6914 -7703168.201 
-12799589.517 -29769616.089 -27251293.685 -16688835.521 -16839150.392 -28314058.88 -16616.672236 -16911870.181 -6082517.652 
-523025.39449 -960.41353231 -6618.0686321 -24714260.045 -51258601.066 -16223211.611 -20646.128223 -6366.6098113 -13170972.982 
-53932827.673 17304.69982 -7144602.8786 -1127224.9926 -12270578.312 1561145.2504 -7713763.4264 15262.568983 38750.54894 
6069.4936266 -1474.5169534 -35768711.201 -2682616.2075 -1879181.3706 -67224.845729 7973.8028958 -22240.452551 -21738560.593 
-15601083.503 74.207117342 21443.552845 -16238.539979 -24056130.484 -18829350.358 -41665.820314 -29261166.156 -72247971.878 
-43997929.597 -73376103.874 -1035856.8771 -27428.765314 -5209619.584 -25541082.405 -2443555.2514 17680.735043 3169.2924179 
-42377962.78 8427.3980428 -12100.592792 -32493104.033 -22574143.778 -26854795.008 -852340.36041 -1361724.3615 -7587907.1414 
-5249.487955 9387.3082334 -3468.9393863 -1085225.1137 -7310025.0912 -34021592.675 11581.043247 895186.73953 -14714395.256 
825494.47758 -565590.9324 -1354.7971359 -6760085.038 -8782506.7639 -5299014.9742 -62160913.351 -24475.30894 7285.9367944 
20185.674567 -5478211.8577 -3239024.9712 -57243370.827 12668.051427 -4845.2293636 -12939.508897 26341.926862 19365.414542 
-47000776.407 -9948700.619 -4518255.6447 -3051563.8675 -44146.824868 -20137.622275 -18622.803198 -4349.015564 -24288.252745 
-18709681.882 -11328991.519 3935.3033461 -2548.0041016 -14634.350432 -9595835.453 -25314681.258 -25934227.197 -9614.4607742 
-3665.0041693 -46493116.472 -6378.2238512 -3506303.2589 12086.585584 -31899674.822 780.32757955 38021.511548 9426.0873764 
39141.359415 531083.83933 -2510708.7223 -33182803.105 -539748.04149 -926404.29499 -12119076.29 -106908852.76 -7611.0974379 
-35792098.177 54752.95439 -16920359.786 -39015444.463 -11774939.154 -1058224.4676 -6998.5822752 -1445.9694238 -1423135.7749 
34664.418105 -38664057.4 -10934580.724 -125734885.24 -67855498.334 -1053340.4072 -22357626.51 49285.551107 -50584658.606 
-9841655.2914 -3766978.8514 -37858.01229 13951.448646 39973.118114 -43807558.627 83.473848867 -20415325.524 4673.1298779 
377211.97017 -92375357.012 34493.285055 -34117266.4 -442.74842396 -1168801.6682 -5269491.4467 -21762062.265 -25205912.125 
30519.293734 -4414188.065 -22849286.073 -1452737.5184 -16060151.553 -641211.71945 -78456086.145 -10000584.754 -7967358.1773 
-9076.5158694 -80254.130189 55838.22659 -2828775.1195 -19013.897473 4689.2268208 -12090048.935 -483195.61207 -32710408.233 
-24433.108426 -9699906.5262 25749.327215 -13081.686282 -5737.8203294 6275.4513982 -16049064.701 -44600441.953 -3547397.6632 
-8782494.3058 -44386734.247 -62561426.679 -24992559.303 -10602849.056 -4235101.1539 9384.5114222 -9590.5511482 -26120794.743 
-1831173.4551 -20368030.409 -104480.24518 -839286.80803 -6424.1367883 -327765.87555 -47503062.045 -1982.2901486 40532.187662 
-592577.73787 6563.6246315 -36146.062345 51703.13649 -18403828.671 -2293731.9909 651131.83165 -27904671.58 5510741.745 
-387020.53363 -8098193.2771 -17403.665983 -219156.20911 14433.773191 -49477.521609 -1316.1325587 -24669.021514 -123021549.3 
-175286521.76 -168367191.32 -8109877.0893 -33007591.755 -43830710.137 6584466.8547 4191552.558 -586986.07015 7958513.7952 
2427615.6624 -5121437.0026 -6847710.884 -65294915.307 -94129455.041 -102730950.3 -21543458.867 -36862808.321 -61205449.966 
-49351019.224 -36289226.266 -3544202.286 -13133953.23 -18110119.358 29436.586409 13247.68779 -5458983.7642 34987.884262 
-1169.9953331 83620.473124 -44306.026919 -5086.4368643 168780.17095 8219.8822349 -39017.537509 73134.47873 -34028.847507 
-2190.5723228 116013.3496 -21293.224989 296.48835321 4267.5619438 -15304.609769 -1540.9904191 11781.495368 -17184.050645 
-9030.5700598 64220.976019 -38049.095001 -32667.760066 43248.683125 28285.582169 3509.1915876 -65999.537046 -20615.325471 
1259.0466753 41881.369554 -156311932.38 -135690086.32 -120759576.82 -130987537.85 -100508770.51 -103873145.96 -65105789.794 
-33578295.517 -73891240.459 -72934945.888 -54649354.028 -23534591.619 -9154162.4256 -35328890.514 -1101323.6394 -20951588.986 
-13633561.264 5332692.2301 15548030.048 -10467327.45 37590925.612 -69477.076388 -60040.173024 43318.385046 28889.705787 
-103899.39773 -52570.673973 -40987.624155 42207.981051 -12402.050127 -40736.246178 43730.225087 2075.4867627 27687.782225 
-103015.56237 -24110.869081 51046.125447 -15705.213443 40193.235932 21751.585558 44659.140431 66604.108693 73767.799256 
-31500.681238 82956.010038 65550.200508 -54619.395533 -21005.103874 -94980.399019 11584.71959 10310319.322 -7961835.5281 
2897154.1915 -9194071.5733 -15749773.806 -11199862.491 -4960912.6486 -17434386.402 -32853170.963 -1181011.7648 -1787613.021 
-27594580.755 -1345052.0007 -5013658.5468 -782386.57244 -2307669.2118 919659.4403 -1276510.6267 -2720245.0622 2548216.4066 
-1543292.0429 -1072746.5613 -442901.36286 -3083330.8022 -862536.76651 -236014.5565 -695718.0917 -705857.67492 -1276577.9884 
-392517.74688 -303110.479 -1964367.0872 -1001754.6718 -2537920.8522 -217275.71766 -52625.193675 -668614.23803 -160682.45993 
-51981.323388 -723385.84625 -205446.75205 -708272.00797 -50472.628589 -44396.925483 -618445.98938 -55317.211579 -47405.897905 
-170606.35725 7420.6470588 56949.77011 -132893.66474 5052.4775454 32436.562569 -85575.504212 72086.702583 49686.703743 
-27496.235823 -22756.576822 -6166.7367405 89446.402779 61053.108881 -20919.161562 -102602.79691 -30918610.406 -32043441.528 
-27553664.762 -25225261.101 -24830866.698 -20442528.51 -23421152.256 -25416540.881 -20643146.425 -34178210.177 -29998095.158 
-27080068.162 52065.445555 -34160.406126 -1838.4109161 40141.929432 -76809.642825 96047.670479 -64081.77384 5798.1273183 
53247.954526 -10564.081392 -3760.0349637 -46563.136565 15169.174847 12108.364185 -25558687.627 -27288304.141 -20383410.573 
-15936868.796 -12445322.794 -33873748.341 -25667215.33 -15217293.753 -23748924.112 -5107953.5867 -3900895.2946 -5915055.9533 
-4602202.7931 -5506586.6677 -8382058.0061 -8974195.0025 -6500874.292 -5050254.7853 -4939627.1544 -5310267.2827 -6523155.7824 
-7516875.6701 -10083369.132 -4254683.949 -3740754.9633 -3323611.3814 -5140010.625 -8841723.5641 -3422052.7704 -79652.435893 
-127457.79944 -7231698.3502 -3049792.4714 206839.80273 -1924975.2227 -6453.5856669 -161463.03832 5251.4197255 77254.93339 
4257.9850365 7988.7412294 -26655.305387 6584.743218 4614.3744883 28601.188492 -73712.194082 -24385.577876 39588.499586 
-42658.703149 -144.45218129 -13128.35027 32607.438211 49259.543817 -69115.380152 7992.0092788 15567.895943 -11868.844094 
16484.612387 -18303.239495 22267.122114 -33423.446866 -16503.064678 -10895.518127 5876.7443753 -7858622.8026 3095406.2409 
-822453.23412 2061877.2539 -8864519.4186 -15352812.335 10339232.011 -31066482.815 -38105284.973 -45843950.46 -47714737.986 
-42190198.677 -62260275.514 -59463585.834 -54634952.811 -47091836.675 -50641829.496 -51155839.555 -44125057.653 -44862913.331 
-41371439.997 -59092085.653 -14127588.878 -16707078.808 -19520323.246 -24185151.371 -20465459.24 -12037165.772 -12906986.954 
-15376016.178 -18417563.328 -17492300.332 -11606445.903 -10334782.752 -22904099.249 -8901114.175 -48458.795034 -42009.05076 
7072.9903697 -4819.7286021 -14732.767277 5355.0379985 -46653.366088 -14311.619456 6988.5018291 -34832.962934 36208.315066 
24927.009771 69349.579983 84762.198717 99153.711141 -31608.491072 -140646.81234 -884999.98964 -195250.04187 -588891.50575 
-688525.622 -29308.386197 -1039013.1041 -6987429.9642 -7470645.6503 -14473882.073 -8530302.6634 -4395494.3932 -9730106.1674 
-14450186.836 -17566792.954 -23250857.61 -19235207.512 -20582074.449 -63275151.607 -58037806.263 -57234014.711 -51142961.522 
-53649733.001 -51555093.692 -50432972.087 -56131186.338 -60043842.209 -45857299.718 -49101021.604 -46197401.372 29368.235247 
-30310.282556 15509.833895 20284.822378 -8028.8434804 -45344.042381 -55298.993685 -44709.521427 214.70015683 12730.846617 
-39516.183817 -7044203.8741 -6284894.9773 -8020526.0103 -9492556.6958 -10399136.75 -6145607.9999 -8454139.6536 -5068105.6578 
-5175986.3181 -3400885.2446 -4404704.2773 -10798600.264 -6171004.7552 -2821442.8028 -3909094.2179 -2593461.8364 -15663.04226 
-177132.04391 67853.762796 -6892.2022638 -888271.7649 37033.508086 -2335319.5193 -8745736.6297 -9277455.0307 -11900994.179 
-11327237.772 -13967979.025 -13110577.785 -14765429.431 -15614425.589 -17545751.964 -1825806.6476 -480350.50962 939140.43303 
1759387.1026 4566355.3077 1784410.4259 7758513.7751 -721958.93324 -2950129.6541 5910654.7939 1119414.5374 -2467439.3651 
-8230664.4117 -637246.8644 -128216.82206 -996557.80769 -85711.821899 -1321866.3267 -16898827.195 -29047702.544 -20635190.233 
-23803148.872 19155.678862 9089.0852602 13236.806206 10025.299916 -36602.728534 14714.091112 5562.3318736 1328.8521007 
17839.41066 -7661.5145937 38403.65234 -983.54737414 64999.378799 30543.199987 -101062.17742 -46004.340969 116894.11743 
-77185.357942 34041.379437 21077.777853 -84841.660156 -15498.3173 38772.383466 10880.775084 642.96009192 -9080.1830682 
35022.505294 -37966.797639 -10622.706885 22908.13745 -32371.879142 40983.356957 -31273.292153 -37346.715695 19091.747614 
21352.05604 -3801.913726 57051.294253 -75857.153527 26356.993678 5207.2324243 33695.448406 31067.651476 -16750.608756 
-34898637.222 -29113731.741 -30437812.709 -35891388.815 -31316768.457 -26267604.056 -41140015.597 -40770793.433 -40029477.865 
-38501988 -1133889.4704 -2927662.4711 -2230164.9443 -4777902.6306 -901074.31964 6452891.0301 -4083938.3916 -10678580.612 
-3471423.944 -2960403.8079 -2117821.4749 -1355787.9359 -1504002.0515 -1496991.5771 -621332.99382 -960022.43675 -963153.73798 
-2412036.2892 -1801463.3538 34587.048286 -77612.368155 11792.53585 -9189.6513491 -104952.41375 22103.037135 2233.438428 
-24024.645729 -59792.427031 -8684.5468108 62889.158736 38947.434554 -31878.720438 -89691.060119 31327.163692 13920.838164 
21038.220938 105667.64528 4096.6679677 101237.12434 2140.9683637 -19591.745621 -108184.19587 -49207.005861 -37306.337225 
57644.36936 1708.1202917 -29487295.312 -33347137.822 -1238164.7995 -6045460.5245 -43506096.74 -35565053.857 -26529585.077 
-18981157.719 -1091075.8003 -13530423.256 -11842990.811 -13872497.058 -17252471.995 -18880752.822 -17021665.071 -20379988.727 
-15198890.883 -13344.826158 2006.7553251 19260.68224 -20550.281664 -2975.9242516 15711.700231 20278.964674 8268.4632683 
11649.441897 -39231.778135 -3551.3522863 144.71991174 -25362.236215 12142.212406 12472.625825 15900.54949 -38919.288696 
11149.524624 -25920.174517 42039.205677 5683.3068197 -37161098.889 2422355.5607 2681978.3166 -2674722.1513 -17761534.356 
-24236399.912 -21903974.57 -22927217.832 8911967.4131 -14271904.933 -13044348.754 -20319406.628 -17356392.032 -27014901.514 
-25183582.906 -20957716.664 -19687128.294 -22090.902964 7804.7321921 13415.095543 77240.639838 -11180.046175 88353.160486 
-40195468.202 -49119005.914 -36948602.606 -27764773.881 -34343913.655 -27074938.85 -31750953.601 -13618786.609 -22576235.384 
-19905096.651 -60819915.936 -59175214.42 -76482878.421 -96728895.154 -87503176.704 -71393600.517 -83916645.062 -45281835.027 
-50209671.859 -44246274.155 -39553240.346 -38133156.233 -36940575.206 -82325693.074 -67918293.519 -67215015.005 -70332887.165 
-64234184.685 -86771482.178 19341.355477 -38168.137554 9535.3769664 -743052.78256 -930152.27688 -2289906.9618 -2092029.6208 
-2014799.0989 75772.938136 22350.364699 -50990.759 -33127.002547 -40146.935393 -12958.150651 -7371807.7571 -4200557.0501 
-3318664.2532 -4591732.9146 -6811130.6017 -3271039.9095 -18417358.192 -31913270.576 -11880356.281 -29847476.315 -35110243.831 
-3591192.5225 -4861648.0488 -1466580.453 -2108454.8556 -3013730.1821 -1643862.7447 -51844.666654 114738.28103 -49817.288529 
-44021305.201 -52181205.894 -44674928.756 -37503343.806 -34722331.457 -40586118.448 -49156.642849 59771.549214 45096.604147 
-45706.783689 -324015.15376 -475002.44937 -29903.229822 -38056838.351 -32261788.978 -27145438.169 -35436724.943 -28703044.955 
-22392652.559 -23451682.549 -19279380.167 -3727458.7061 -13257.948143 14818.492314 -20979.341893 -8380.9272228 -15873.791238 
6054.4323518 -39642957.809 -33349929.904 -40724201.592 -13431556.528 -16668115.376 -2939125.0395 -23868.061954 -16297711.6 
-7382290.8297 -2292209.9634 -520464.03373 -3349974.8119 -1468047.2331 -2835718.1884 -983746.31609 163781.69692 68476.284507 
-28181.61758 -128071.24806 -52361.92418 -44873.387885 -143755.28778 -304524.32794 -228477.83192 -193359.45948 -555355.48014 
-584602.42124 969037.2694 3200458.5921 -64991.230583 -68599.816058 -21431.258347 -21695.899418 -16565915.633 -9954981.5865 
1763867.7104 -193207.4555 -3622219.7749 -3609263.0669 -21759450.012 -21684474.12 -25962329.135 -2810934.5459 -7454034.0226 
-4693557.623 -2391238.6543 -23292956.376 -3152083.3119 -4135957.1521 -3700044.2696 -1240329.667 2552518.7157 -1700440.4958 
-2392957.1844 1251485.7171 521301.25171 -915497.90642 -349868.92329 -1298241.8608 384353.58839 454947.34752 199591.99502 
-355422.6405 -594157.50343 -198394.80442 705047.42696 842641.60155 -359854.68785 -863645.82209 327482.27092 101117.85841 
-643024.88098 77019.210421 263807.21604 -732646.68742 117803.33876 340058.40151 60907.259785 89116.242139 186957.61803 
-41812.665658 154360.25583 11701.511371 -116258.54749 44392.904663 -47714.184334 -114558.85068 -138341.4217 -192737.78958 
-6582.4572735 -25152.529133 -157432.97193 -85051.583215 -112340.08161 -161273.03867 -104918.45666 -104431.16114 -34676.988028 
-159922.77921 -130509.26021 -129068.55333 -214072.15378 -147028.20807 -242558.37682 -104060.2291 -146123.05741 -241401.61639 
-299146.82624 -383496.1468 -115611.67302 -154830.453 -376865.53096 -235761.34115 -306634.83005 -171181.4782 -236755.48942 
-228887.99718 -98977.825193 -236434.71537 -179519.14239 -209583.27437 -365163.9861 -115777.87016 -123010.33099 -27697688.484 
-10554.312861 -18685690.804 -5835635.5813 -349182.08528 8471.9671389 5664.2674471 -21117963.11 -50945802.103 -15598886.321 
13049.074347 -14420.068943 -13087294.854 -52759281.24 -8551.7741375 -6954756.0395 -1074676.935 -12042461.636 -16067775.452 
-21085787.592 18324.324232 -56892.848578 24190.953508 -15815.047478 -35220925.933 -13737151.944 -1733809.9829 29930.229464 
-41148.640094 -6183.6330943 -9331625.7201 -15122994.716 -9319.6308753 -16949.954373 -7155.0048778 1665443.0634 -18476277.195 
-47449.098285 -29100834.385 -75412641.072 -43507848.917 -72251882.458 -916409.45656 8317.951798 -5312309.4653 3463367.5975 
-2200577.6577 8058.8097094 57657.92334 -40104825.254 -24859.478925 43894.06577 -32110780.398 -22182511.513 -25978065.705 
-23941191.371 -4397072.2006 -21889702.306 -6206.113255 -5458.8515621 -4952.4907963 -1315081.5204 -6965569.1866 -33136083.037 
18915.441602 -16182011.676 -14129302.92 1143878.2487 -323303.00365 36724.237668 -6571275.4431 -8699936.3158 -4987007.2626 
-61117131.026 27609.298894 -38786.731043 11718.143624 -12428301.478 -3240507.9682 -56209633.242 -5968.1751412 -15136.603994 
1699.4106183 -38748.214908 7959.302237 -48043922.764 -9762275.0131 -4437338.0153 -2743574.2351 8113.8629078 51681.470885 
13084.040906 10117.981041 2943.0146533 -18579584.287 -11021643.252 3313.5832308 -1348.0881829 24122.389995 2065948.995 
4410701.4981 -26745315.617 -12894.728825 5410.5865228 -45438116.703 24691.373495 -8461291.9843 -6318.7954062 -31644992.102 
-11357.914026 64963.500156 -21143.274345 19281.16841 -28705956.357 -17800460.876 -31629025.872 -12545633.205 -885093.61799 
-20744117.122 -108485516.43 -15434.933619 -34991039.94 -27888.421869 -63073535.898 7729294.8015 -14457520.073 -1044066.9101 
-33931.091468 2989.4442171 15971671.224 -122603.42644 -38314206.998 -11233630.802 -129907883.17 -67406855.659 -955131.89969 
-22051830.738 -68697.381939 -50043402.351 -25975962.226 -3575238.063 -5781.4273351 69714.529806 57752.565679 -42410230.336 
-23251.16009 8196677.17 -6661.9776466 -13528442.261 -95945682.93 -4944.3499276 210216.27142 -2843.1590313 -1196987.9054 
-5161802.2965 -21605717.823 -24314236.918 -18416.163249 -16426466.337 -22364534.283 -2364186.1228 -15875371.145 -495785.19007 
-80853255.128 -14158379.492 -8635182.4223 -4168.6695693 -32569.596713 52852.091289 -9527051.9793 22366.854546 -173.06240623 
-11986843.586 -321449.66507 -32684992.48 11491.454214 -9428644.8361 -30148.939585 -16060.602079 22090.171479 28859.817508 
-15876072.531 -43341934.671 -3500648.7895 9082014.685 -43837058.729 -61408495.215 -24762681.449 -17835673.633 -11726183.879 
-7765.7900758 695.10947372 -26653544.808 -1859163.5681 -19977885.855 -100484.91827 -650070.39408 -13137.18181 -86227.726978 
-45384245.366 -7576.7450785 40867.502666 -637878.22874 -1277.716277 -28290.998397 45963.486424 -18017660.473 2892859.6738 
-4830029.7809 -6095335.357 17453769.249 1196029.8624 2825540.1985 -219382.07703 62683.591732 6171.0040801 -4260.8994419 
47698.934307 -18072.163481 -175099660.95 -181044571.28 -126376837.06 -139576487.42 -159937668.54 -124655109.55 -104338517.21 
-136589059.55 -104652942.41 -36094153.455 -68355649.849 -74148468.533 -75009910.67 -53735401.304 -9142270.6984 -23384790.43 
-35015020.636 4843797.9816 -4951737.1832 -19338406.863 -67202575.74 -57812731.363 -21015083.555 -3245405.7571 -1003.8117081 
-25883.673098 76321.495763 11265.005663 -62433.372689 -71462.984656 -38277.634373 -27949.231166 16559.284889 6162.7630243 
62305.625439 77713.424884 -13011.625483 -70627.860475 106380.37011 -23767.502964 -48741.219713 30841.213745 -17365.948136 
116620.43617 39095.534481 53493.094374 -33332.808818 -24836.805254 12541.929122 -63200.960602 -122893.46242 9601.8359222 
-44251.379284 430719.02853 15967741.968 -45033540.813 -15275451.349 -3874341.778 9129387.5508 -13007279.008 -11447435.298 
-6579218.3868 -17227364.735 -26742992.177 -7137101.7857 -7157667.4849 21079955.553 -20753526.745 -7208647.5641 -1458914.8163 
2687078.8753 -3112282.5456 -5003320.8507 1242710.9842 6103589.7452 -6161777.9671 -11147723.344 -13712096.399 -6408917.0111 
-10293529.153 -3926793.8174 -4270896.7372 -2120612.0727 -1522980.0065 -1717674.8859 -2569052.7829 -4897563.1794 -2976005.9723 
-1081686.6014 -671457.0141 -762255.90403 -1862898.6517 -270419.18467 -348942.83403 -1017829.3787 -1896552.7673 -2534742.3252 
-75353.061532 -212094.91532 -717205.69236 -32508.537244 -109107.17095 -179530.04079 -563278.62658 -730866.04812 -29449.137134 
18326.296539 -483056.2072 -28985.316182 -32371.544545 -98841.37786 72809.628823 -5763.9559767 -18200.879656 86136.35984 
6800.3017435 -52894.867761 -17873.792904 99398.774621 -48525.218587 -17060.352039 -8111.2358295 -2613.6891013 -43642.964119 
-11353.985655 -112236.76429 -97435322.782 -67874103.364 -103951527.79 -38223143.488 -22815542.804 -51172813.448 -62438931.697 
-37225848.201 -14240759.961 -4462300.4407 -18725360.589 -32415.98205 -28108.509602 -5845625.6486 -103904.5018 -46502.730962 
68216.934043 -20316.823916 10752.695884 46990.612901 -89375.537942 -57709.625541 95508.488062 -20190.902812 -13826.854375 
53796.658596 -27116.39259 -29935.363803 510.31900637 -7617.7672853 -32144.097391 24904.998286 -12859.331659 -28075.652772 
43453.05085 -49283.225522 -15435.070101 30046.399466 11925.564797 -11946.824523 -4274.8446867 -89008.460496 8315.9046317 
36749.166081 -26943153.548 -31530633.461 -30206429.512 -24097301.386 -24725556.534 -23070547.948 -20234027.27 -20365548.073 
-24724440.76 -29594505.329 -33529872.057 -26642971.991 48551.874346 -133341.22805 -23842.304574 -95740.022901 63369.702841 
17284.52217 -49096.091482 -37290.334662 11022.123908 34766.64969 -57274.25714 13413.95243 31576.014722 -40977.187523 
-21465755.527 -26350053.231 -24771780.404 -15889348.302 -17838516.688 -25322602.033 -32616617.54 -26212413.587 -19432201.451 
-11390434.046 -12161492.508 -14777893.607 -9893014.226 -16755563.259 -6332310.9079 -8780719.7373 -8159344.7153 -4687349.6226 
-4855929.2796 -7231259.775 -6351481.4317 -5169975.6332 -9995612.2428 -3614876.8028 -4161227.5739 -3208324.2957 -3307669.9498 
-8557531.4191 -5206953.8464 -84266.227163 -89065.983029 -2972323.1062 -7040808.5553 -1854580.5468 31747.925212 -173374.29822 
-13388.298886 -6030.6282031 1262.8936474 -50985.90941 10456.349597 -16937.812135 34258.262999 60528.293257 -31837.697677 
-50256.957031 -81901.002916 57014.25853 -61643.199959 -631.59791003 28709.516236 30001.455464 18714.169513 -14297.405001 
34735.177926 -3917.9822134 -5682.8145225 2016.8206451 -21125.084217 28667.372282 -18023.252117 -50570.59533 -22365.78836 
-9683.3096011 -28170495.948 -19377568.099 -30487634.257 -16102056.931 -22568803.66 -28930391.849 -18073026.715 -13069324.676 
-17090196.589 -16993221.267 -14526619.124 9959024.559 -53810358.314 -58965161.26 -61497032.021 -49560732.924 -46304466.207 
-44723079.42 -44013176.845 -51029608.336 -40645800.699 -58140872.431 -18628865.626 -16927406.221 -13917611.824 -19709902.907 
-23057163.897 -14765239.812 -12551497.498 -11781860.976 -16949765.701 -17754510.527 -11708819.948 -11596116.284 -22339875.739 
-8936646.8297 22467.741681 -41711.017828 -24106.966428 -28227.802928 21054.62742 3068.7413019 -43575.59032 37298.23304 
-67209.566281 32907.799384 5384.6643535 20074.464299 -14042.110636 35783.393923 33699.546393 -51308.91365 2493.4233631 
-417746.85914 -49201.173738 -799796.72121 -515500.7313 -35116.631398 -7443731.2429 -7108736.1377 -1216963.509 -8606653.5026 
-14542417.951 -9653479.3875 -4323859.359 -17484656.419 -14236718.902 -19030637.88 -23087753.107 -20375133.923 -55462870.463 
-56898898.809 -62471756.937 -51335599.208 -49650218.597 -54893829.299 -49175856.794 -50478428.09 -58894177.996 -47363435.437 
-44588436.19 -44305630.292 -6238.639388 -90152.898551 -12350.669388 -1994.1844495 27039.313453 30775.573813 -13378.186557 
26875.581056 1326.1593275 -46785.70974 22115.011967 -7699361.5358 -6133368.716 -6778075.4082 -10394625.743 -9204055.8376 
-5036927.8032 -8080498.2459 -6048406.5339 -3303489.1018 -5141505.1068 -4339045.5421 -10686809.253 -3843233.8679 -2578129.2047 
-5907323.7805 -2438897.4428 -11862.149965 123235.88121 -84657.342161 -815913.07969 -55814.662698 23215.815106 -2223844.8722 
-8950355.3277 -8582294.797 -11605590.209 -11143650.575 -12564640.102 -13807391.447 -15240731.031 -14384544.038 -17267363.611 
-16512613.737 -8675247.9496 -7718385.3451 -15575191.93 -12852138.314 -10735473.418 -6767785.6574 -17941701.303 -6733889.9144 
-5398858.7936 -22772446.154 -17150529.956 -18324915.776 -21633684.763 -16345584.545 -21688971.492 -14504570.851 -19295896.227 
-22321458.125 -26859186.696 -29259237.436 -26043449.177 6487.5601898 -27635.091489 38716.194448 14247.605359 8986.692836 
26841.180109 -80546.8513 26154.999721 924.70519215 -4491.3528226 80124.42904 -26293.223021 -67459.362364 88412.579462 
3689.9816555 -23634.01449 -15049.263938 3011.3986351 -68921.499606 -89990.617401 -7617.9675813 -19767.200733 39526.854081 
35229.515259 21735.81229 15924.859132 319.9406723 58124.812522 -16119.724594 -12665.863658 -4085.8406363 81422.561293 
-16568.428737 43875.756255 -100695.80725 -22677.931516 39259.556568 52376.420728 -85994.72681 -33788.150321 29102.965777 
52270.275182 -41932.676006 35047.196749 -28177764.557 -33278962.18 -29301698.439 -30802523.87 -34990115.992 -25167567.65 
-39636112.466 -40143203.093 -38994220.75 -37248980.915 -4670174.2254 -13443443.24 -8943965.4845 -10185097.484 -8828302.7531 
-14016239.214 -12991799.352 -14071098.761 -1940284.2585 -2727397.2258 -3297780.8426 -1452379.1842 -1364626.9568 -792684.60292 
-431511.34653 -1438418.7236 -818842.08059 -2170260.0341 -1594543.4288 14620.33755 -6207.1136624 103708.50691 9956.5227357 
-73803.110587 125152.30189 15119.102704 34424.961578 -32412.608033 -18093.868639 38726.528136 -3451.9683441 -37336.434466 
-3116.4416057 -104936.21121 17808.932609 -27978.006212 120521.83653 34943.755565 -57599.181637 -53223.195637 52292.350194 
-6898.5812002 -39381.763416 -33796.734498 26502.919063 -50685.677053 6508766.0192 -9072833.5884 461295.56392 1291156.8834 
1883951.7547 12194688.004 -2302090.899 -22416324.946 -11854702.272 -11658078.342 -13015160.423 -13521631.115 -16890665.732 
-18469984.637 -20100556.165 -16512816.949 -14777039.741 22184.731225 -13684.090574 50674.719432 -58888.780088 6244.1161533 
21642.674322 -19003.635069 9744.9730215 21701.186922 -14375.886844 -1357.9712213 -34301.606743 -49829.67541 14398.383429 
-28445.950692 29527.458352 17515.25737 -21742.195121 -20623.519272 -7025.6841399 46819.554756 -32117563.519 -23440904.489 
-63225395.823 -12077890.466 -36725777.893 -11371254.378 12504785.404 -15733.952048 42755215.339 -12763192.507 -13956843.74 
-19948820.226 -17100684.222 -24991781.593 -26603017.539 -20568998.96 -19412948.466 10711.55374 64432.154468 -102997.4979 
43296.438668 86040.017987 -4466.33477 -37828530.264 -49694992.227 -39557716.999 -28295419.239 -34112766.884 -31611774.451 
-26928302.655 -20456876.645 -22394901.163 -13780789.576 -60647133.076 -61339179.733 -79207982.157 -89922208.798 -100492789.18 
-85031459.3 -71355015.704 -49318304.204 -44277654.098 -43349983.857 -39068193.716 -37656102.38 -36543093.178 -67912355.286 
-82919987.537 -66520789.567 -63941882.439 -69773294.392 -87492539.234 -44653.520339 40543.722084 -603778.16413 69818.951231 
-787777.55792 -1843767.1833 -2195290.6661 -1664503.2071 90953.084322 50386.932456 2592.4287581 -18302.403131 -64381.288883 
81632.286586 -4344597.637 -7282840.6823 -3480286.8468 -4023435.0347 -7043706.6446 -5714323.3552 7428134.0593 -14332748.623 
21393784.72 -273024.52851 -3645133.2438 -4756403.7198 -3514663.1553 -1249696.6634 -1497295.7267 -2953570.5482 -2115558.9262 
-69587.486317 -48151.055464 157279.09647 -49910165.588 -42752985.935 -42714811.25 -32981636.927 -36481978.206 -39255478.217 
4398.222109 -75877.527833 18255.17623 -94890.779985 14528.448709 124814.28962 -226132.42628 -31984132.297 -37349961.234 
-26734614.543 -34944899.019 -28489951.268 -21921783.189 -22774164.449 -18994146.638 -6035871.541 -8789.7538032 -77.895402415 
-57351.221737 -13020.7619 -5512.7806902 -24404.091399 -38288169.092 -32700953.562 -39063507.646 -13162688.017 -16092318.402 
-84958045.685 -4504700.2374 -156751556.02 -206033937.09 -238143979.71 5142362.7465 -29878697.852 1436921.3779 -414217.86572 
-14179830.217 25860710.444 11391690.49 -238762987.37 -243164261.77 -234192001.35 -236824648.02 -216910310.45 -196009900.72 
-225737236.25 -140422850.01 -174666726.03 -185510871.51 -69984908.19 -102167296.8 -118831946.61 -26687721.414 -1480571.3554 
-47884833.14 -1524669.2184 23186658.498 -2356010.9996 -20105052.558 -14407087.465 -2638691.6867 -23149603.22 -196199885.72 
-212935033.73 -169600205.75 -137027460.48 -99562722.734 -67545409.606 -7206780.5774 -24851089.196 -17275925.944 983151.17552 
-17351324.562 -28977704.459 106169.02777 76149.061785 46424.499318 66566.680912 -38350.912001 -93242.601599 -61402.348141 
-499714.06308 -12165.691269 -239319.20622 -243211.93097 -224244.77455 -863902.68035 130219.74004 60821.653615 103490.2804 
-895365.61083 202817.01146 277264.17098 69127.615789 116737.9684 32337.638492 57841.040973 66446.3126 171284.16259 
150709.96092 27020.000301 56336.168005 95288.219406 82830.309164 149617.44147 104001.29518 -76168.216791 -39510.648697 
68525.660365 47242.360648 1558.8402618 -53841.648634 -46674.079961 7611.5994712 11360.739878 -14828.188198 -165016.22804 
-90446.877626 -26034.345252 -76428.765003 -89663.293915 -137621.98926 -138885.28125 -99620.358375 -170220.53845 -60255.568522 
-591955.07951 -364351.50584 -26264.835484 -211457.08684 -234295.33654 -1080753.2663 -528205.80431 -168854260.54 -81291940.527 
-34471037.866 -8409768.7151 -49884.100835 67520.106485 -31941.381428 -15770.586259 -36751.319866 -11208.222829 -13788.594193 
-13525.811096 -11992.442595 -2508.1414355 -13684.749911 14039.348513 53670.853809 91191.193416 -203712618.5 -199159094.06 
-143171214.61 40164.783383 -147020447.18 -96385798.276 -68732164.693 -120199179.72 -99176448.385 -42493361.87 -26806902.34 
-55323637.459 -69501952.05 -43855150.014 -13258502.607 -3474692.9065 -20446642.943 -27976524.701 -14356880.015 -127241.81533 
52120.118987 62747.378121 -4247166.3428 60041.605171 168353.92384 148997.7305 73234.275628 -45398.371767 39202.251904 
33612.914672 51862.139429 111570.28234 42060.329039 -47205.289776 -63010.399097 206470.72431 44562.799428 256984.6869 
40119.122692 -2743.0682964 -13253.91263 59380.906672 117362.19707 -22820.495873 77618.16446 -19632.754591 33317.625008 
-14970.478252 54012.740862 40898.025605 -17977.023417 17864.702498 -17975.758252 61867.972589 62490.648488 -967.67710579 
28493.015732 -13145.598838 90398.774018 344.22070037 -32776.314246 47815.083082 19079.433032 17861.242667 55215.08767 
-61289.314049 29438.389019 -30054.373772 109851.36352 42030.917372 -123851.07253 -31032065.09 -47922644.724 15530.318648 
20724.942705 -7148.8090367 -26649.125866 -56356266.699 -7118.7985819 11294.684626 -19840161.975 -29843383.905 -4261796.448 
-43068448.961 -33620.725049 17616.814666 25511.623165 25538.421076 -540.31865414 -1243.1407692 -22582.531174 -57343.471856 
75594.362172 20859.66698 37097.931515 -7756.1862079 397.73943917 -2875.8253856 13842.366355 -20899.949148 -16109811.231 
-10170753.903 -23048338.333 -10814435.228 -32347789.55 2933.5511746 -29719.250197 -45140589.762 -45810461.624 -46059726.865 
-47295034.958 -46989858.961 52656.411028 43372.650741 -61578.433702 -13314.912422 59066.748746 -43947784.422 -45376348.094 
-56468243.073 -41718698.712 -61696443.238 -55024638.651 -80305881.389 48344.309923 10595.862246 -13887864.982 -364019.61788 
-68321229.754 -81120278.308 -80238130.552 -1991944.3887 -183958.30347 -1119172.0801 -268559.37582 -1052821.3463 -3085518.7949 
-367539.41712 -7225198.4746 -4571071.9796 -1368320.5087 -40932572.758 -47517446.886 40925.911032 49606.835908 81244.991807 
11914.974273 -94319.683041 32311.49116 68041.151736 -61314.584142 -1881.2398545 -30703.586858 9393.9493779 -4660.9417246 
13065.178812 14802.762673 35190.519133 7630.304712 -46431.750918 10457.482506 -12397.651206 19518.896028 8611.0472946 
41309.82927 -25234.240062 -2705385.5727 -14128284.335 7013006.5543 3997828.5767 -22424385.787 20368.009655 31455.877695 
60543.534863 -81716.769333 -31109.641262 42920.012119 -19969.168595 -20403.938295 8532.2490885 7497.9236591 -62180612.392 
-66856214.858 -61662933.175 -2233004.7558 -2483551.9292 -793071.85463 -745782.42139 -48078.753691 -37742.806329 -94490.40315 
-12846.030436 -29343.146101 20576.694658 20965.14538 -35431.591736 -2699.8032707 1823.1825627 -236553.80013 -138246.46774 
-876854.54149 -208423.65301 -206258.60624 -126282.92321 -12827.688869 -106449036.41 -102063500.26 18030259.158 22970439.531 
-30043057.645 -4290920.6969 -6332518.758 -3123610.0639 -29455.634128 -313.3023884 -41412.944426 -23222.99761 32515.880593 
-22265497.141 -26929013.898 -20490412.458 -15936453.089 -57221241.368 -26314.013683 39369.510942 -5048.7179868 -49410.717109 
-3868072.2969 196060.65369 -2158519.9855 -427704.34948 -293525.09045 -315497.67324 45903.286685 45622.04171 -12868.91507 
-31912.574587 68722.777038 -21465.798891 16867.659339 30453.658104 -853661.02479 -2659500.9372 -3258180.6354 -4790561.9462 
-5210654.0948 -6830057.5466 -6186631.029 12998.194357 5213.5068519 -5569.3901854 96317.679179 -75079.829331 -1139157.4638 
-3262196.6005 -34334506.894 -43867717.837 -38511032.524 -50203285.104 -39601591.179 -8606461.6384 -7505280.3287 -14385746.996 
-9301325.6108 677947.26904 -8314797.3982 -11143698.264 17064428.544 -6482614.3103 -10734523.106 -8045079.0842 -18801111.856 
-631851.62896 -58541.493351 -22899619.114 -20091891.16 -19094507.72 43758.335711 13216.309974 -13399.712316 -13007.853094 
-9861.1315038 -2019529.6367 -1864033.6959 -18685059.883 -6049759.8598 -22036915.841 -22885.679122 -8278.5418401 2162.5451337 
-2146021.7027 -2859576.1855 -3470699.5881 -20146.920197 -23949.759149 17059.458391 4477.7558299 -122829601.98 -132176538.18 
-94324426.702 -118539100.67 -33458.142724 -81060.241544 -37709.525998 -49773364.743 -31613575.359 -105785668.82 -78850002.364 
-20249587.99 -13957363.082 -7124.3897243 -30229.523596 -10970.126911 24947.21433 -17257.852116 13930.994778 32758.208895 
-8620.2703194 86518.075272 -71493.657411 357.96605721 36526.201764 1397.5154259 27599.27237 -3181.3389516 -69247.470249 
-37687.392419 -132026.32529 -41459.283119 -6987.6625799 -39124.833526 -25261.607293 -63314.076503 -4389450.5829 -3526029.129 
17221.27645 -43791.564331 24935.57462 9063.1562889 -17077222.492 -17891842.225 -12253718.192 -5028893.6003 53270.242063 
10060.504098 19761.789812 -15977552.932 -12911413.657 -11104020.274 -13758657.81 -29088218.249 -17037.046439 -35661.52934 
-1610.939165 -9904.5975398 -42006.853184 -14820.681405 -50477.371458 -104605.86392 10706.219749 -63749.196963 42123.087089 
-15792.964219 -2543.0484044 -2342.6128876 10509.483486 -7971080.2362 -10818281.545 -4628339.175 -6031.4908584 -74444985.879 
-129789.7373 -371613.85715 -6743877.9031 -133.48943915 12192.015896 -12078.867016 -21169.221966 -58724.811128 26368.745007 
-36907.455051 64706.775092 -22506581.008 -5703.6627821 -31018.759267 1295.5986228 11694.574172 16884.488776 -24813948.346 
7340141.6625 -2511585.1875 10404397.421 64161.974663 -24876686.833 -22170054.004 -20370473.562 -167806.05435 -426663.17666 
-11238429.986 -5743984.5185 -98109.939193 -30082.796049 20984.226084 -3893.20612 -16147.09601 -37268234.235 -47363.63767 
-102914.51986 -3418994.7228 -75916.654769 34949.847463 -123217.13735 -103095888.7 1984.9046261 56880.200993 -9013.028393 
-2840.3677715 195.96077282 8212.9951202 10201417.234 -36900.648221 15358.704765 -22781.101928 -78391.504825 69222.454019 
35391.656892 -46569.170529 -45984.470581 -73848199.436 -98420500.798 -123207890.83 -89659421.718 -126473.52292 -59942.212048 
-35228.820057 -82461992.908 -58706334.17 -63815775.497 -59407718.328 2860.4871467 9311325.8542 31556461.48 -73131396.031 
-68440530.511 -43266.33298 397.33255926 -10193.311093 50843.532781 -7364112.767 -4831264.3339 -3591383.7079 -11354215.193 
-10441514.893 -13650972.112 -12013899.6 -66220.183055 -33411.325016 -448192.79446 -33580.310236 -55447281.833 9572521.9026 
-3408635.1508 1534508.1148 -4169.9352881 -3094.2451412 -23587.003346 -1150.3662024 -17683.262783 14301.586722 11256.532978 
-2535.659047 -39028.246624 -10083.23021 -4468.3766394 19297.711026 23739.927232 -4166.9701304 32832.958453 4779.5468299 
-7065138.8961 -7932143.5624 -3674.1796633 -15911.026421 4370.6989857 51735.953715 -9800800.4869 -6997817.7424 -5205038.8918 
-2972513.2081 -5513490.0596 1808687.1403 -9006167.152 -6005848.3082 -8688867.7269 -12085586.783 -24228472.024 -9182884.245 
-1676769.6445 42481.906612 -41021.629563 -8943171.1524 -9079605.4894 -45992.239539 -18497294.386 -52914339.938 -56436937.974 
-51488534.205 -48629748.301 -49334280.781 48284.526029 9587.8123496 8154.8672851 -3802141.9603 -13866785.595 -8657894.5936 
14276.274843 -4747532.4989 -6525561.4179 -13053330.198 -11060362.595 -32619579.485 -9538.6552059 672.28905356 -5477282.7831 
-8375331.7123 -132235.44957 -751265.44019 -60207286.799 -60728614.705 -7347699.6445 -10016831.866 -8786770.7195 -171442.26413 
-713283.81074 16562.661157 41755.8628 -802472.7561 -26156416.564 -25493960.161 -33483591.063 -68193.003095 -28126.705152 
-11513.269808 -9363.1716605 -3110.6707123 -4253.7483541 53638.652659 48991.018704 23940597.84 18911199 -61328829.473 
-13139440.104 -17705744.157 -8150987.314 -12823023.224 -8246234.3004 65816.716495 -48131.904903 30251.137098 -6244050.5601 
-4450451.1235 -105603948.91 -128373793.84 -12984.464292 14781.874975 -374.03377595 -18204052.618 -21937334.29 -6671158.9696 
-109022110.87 -32502652.221 -29103016.192 -27306422.657 -159744.09158 -616432.47908 17005.458813 25773.169506 29129.437962 
-24883.37241 29644.95701 6988.973428 -17146645.74 -75733.89819 551.39651466 -35943.519506 -7096.260369 -14117.069016 
-10047.796322 -27799.673757 -18802.497072 10230.281034 -6341281.1823 -8979782.8095 -7397.2456092 -3572.0777388 4953.7292896 
14802.088096 -91377.501599 -24928.7847 -21012.420749 6815.3271525 -20809.530532 -17156097.45 -16639243.311 -15634070.092 
-19402267.155 -11330.809031 26430.714868 -8129752.3799 -5932393.5475 -11179969.022 -4310782.2648 -8055834.3208 -7652274.0255 
-20200.712754 54864.712454 8591616.4542 -17413219.501 -19441529.254 -11354.148255 38353.467621 -9211.8035737 -18413.248487 
-15305.55368 -13661.642558 19158.367409 26789.15697 -89924.670725 -15409875.925 -20851552.621 -26670236.837 -22620182.398 
-148789066.46 -127087389.69 -25165845.991 -20391293.117 24455.426307 56303.733217 -6847.7543502 -34839.112533 -23703662.556 
-24667501.285 -29457772.71 -514175.54979 -821623.21399 -18304935.483 16686849.133 8705205.3974 -42945.728201 35699.253922 
-30558.591054 24107.703419 -5140455.4138 -169894.67408 25115.391377 -40930757.452 -51179536.26 -41086632.54 -42147009.153 
-451838.82996 26902.589063 8801.561813 40777.968074 -28096.11986 21070.990763 -13672.693972 6199.033045 -6794.672374 
-24566.845954 -12151177.038 77575.581533 24654.544746 -4710.3203307 -21354.683242 -3954453.6775 -21641203.425 -12812410.598 
30947.705499 -7279702.5472 -6037255.7875 -4266989.1049 -5302086.6378 7757.6406164 -11717.235735 -21436.659507 -19127144.261 
-19876604.651 -225.03091284 17169.918312 23343.401026 -1368755.426 -1369087.0324 -40317.668872 19664.129796 17435.464099 
4679.0482043 -24389.576588 18184.48341 -18623766.034 -17659415.171 -7594711.2903 -5240611.2781 -11750891.348 -14398511.976 
-47531.875813 26177.745342 -49924365.322 -15294361.815 -11616529.015 -8317767.5548 -10712348.352 -2304215.4167 -5409909.42 
-3076379.7456 -222760.78258 -129904.24908 -68682.013644 14590.260141 27212.178621 1483.7315845 -63067.801841 -69749.60893 
-14419790.554 -15024699.024 -22908047.477 -27915744.295 -239023.45408 1047.2312218 12945.447334 13286.704647 -1589.7385384 
42636.519019 -32720.746219 13334.919923 10832.973023 -3633469.8478 -5810800.9982 46640.897707 -34988.665138 -54291.105528 
-62420.544192 -53102.50884 -52111.581362 25866.659751 30393.684983 64558.341158 79418.51468 19003.553691 7346.9813968 
-18578539.75 -5970965.6821 -13161188.15 -11796378.576 -2734853.4253 -8295454.7079 7148.0110284 -962263.36721 -2041909.3446 
-3224206.5069 -2213913.4185 -2021322.9615 -7402241.0624 -2069859.5319 -5042369.4912 -23896980.303 -13306517.354 7103.6811557 
-1730328.4004 -1622241.6854 -1041138.052 -87153693.398 -74806.54819 19384.358774 1778.0767615 -26339023.082 -20202876.485 
-50727862.452 -51117099.179 -52478800.266 -32912624.331 -32182962.377 -26808073.339 -32194879.072 -11753740.315 -12614590.528 
-2887464.9097 -14673847.953 -13478029.437 -5783738.1274 -5668589.5154 -12970632.293 -18691770.38 -14410.649292 -1068867.3231 
-38405.687502 -29065.474865 108389.11747 -48441.960933 36876.179081 -45270837.236 -44028277.33 -527630.20896 -17420637.012 
-21986180.805 -26076187.224 -50052254.497 -55073212.747 72280.311686 -1188415.0645 -18045041.473 -12106.241228 -1838.2808263 
-15235.897806 -26880884.568 -56326324.831 -14093073.645 -27900170.452 -20641.648808 -175490.11472 -50520789.646 -96960.495056 
-7002.9464143 -35574.768995 -14309383.356 -17522995.155 -25952074.217 -27075.848712 -71787539.056 -25563297.769 12056.933849 
-3359.8806352 40816.92538 -14899.801319 46787.787272 -6614.6108464 -35105660.505 -37483495.167 1961.8477203 -152383954.81 
-167376178.12 -152070098.44 -8420601.9358 73937.038452 -16992819.014 -16270125.247 -27259372.518 13414.846995 -18558213.071 
20539.116731 -4228.9555105 7538.2827826 48561.696868 -9549423.6545 -3363717.1055 -58764360.784 -26444992.286 -28528204.459 
-34185439.597 -32451352.482 -16744885.264 23975.924902 -10821.827469 45469.822333 -4996.4806403 -20949536.181 119599.79835 
-1069519.1217 96114.937738 -5095679.8628 -1844322.1674 -4462944.023 -8940350.2607 -8468604.6365 -14750600.511 -12835642.56 
-17254787.146 -41200428.694 -42665110.53 -44329085.614 -55339786.882 -31716415.292 -29778760.199 -14800254.944 -44690987.466 
-43744687.948 -39074351.168 -33946023.436 -37802463.996 -163307005.12 -623366.43494 -51092151.29 18032.469896 -197.33456607 
22994.6739 26762.08207 -3502260.4152 -15526729.377 47877.48997 -5067.6958297 -27851.62101 -7972.2747599 4815.7270412 
-28558850.701 -12220.599143 3217.2289396 4371.329623 20570.875125 -149698187.53 -4977626.4948 -4246836.6172 -17833445.925 
36224.915359 -13442.82444 -519081.65758 2114252.8031 -82287.284865 -287827.73364 -55459.006819 23035.547194 -71226.89558 
-24650937.901 -3406383.23 -2767563.4578 1823335.6338 5174.3274756 -2282748.7357 -19938214.911 43515.398538 -3689478.5581 
-464586.41102 -1466071.0849 -4122492.8415 -4801826.1943 -25806.722312 -15165.243935 16619.334925 -24890.602277 5600.1170778 
16620999.353 -1326100.8686 -7059102.2132 -50964574.99 -58802073.059 -61867218.647 -54006011.451 -54539913.814 13160.837718 
-32173.758497 10225.425413 -8502.119773 -6127.4565859 -27997.940859 -5526.5838961 -1000.4704294 -15280.778426 44604.572476 
5500914.6816 -2126816.0554 -6013044.7247 -7293151.9575 -8518020.539 -70470749.588 -63349816.731 -61441082.351 14489.146624 
-3098.5402598 3678.8974522 11151.475606 -4388.6663348 15620.38695 -25441057.259 -30253.622252 -13286919.177 -83897374.938 
-42587.599648 43784.882928 37924.099266 -5796524.4132 -8161.5408979 -33125407.212 -21917436.751 -64888435.802 -547985.06866 
-4842628.6516 -2289312.5989 -21238.065083 27415.617169 -24852.407563 53516.249453 -28185.080755 -21170005.93 74294.912559 
18220.888546 -25145899.454 -25272.743917 -9485.4914164 -23030385.739 -32317921.251 -17108630.024 -19861831.341 -26706782.906 
-413767.02922 4788.0508544 -39970443.856 -39759.514714 -14774.726453 4383.2549694 -14540173.831 -4239580.5391 -8678579.3705 
-22858121.885 -11445200.854 -12188670.988 -3733972.8473 -2095136.6249 -7649062.7742 -26320928.044 -46447294.622 -49845590.467 
-2010317.5285 -19264.552155 3930.8450241 1423.9051656 -18862.67675 -23089745.735 -31550001.252 -30291499.421 -9559350.8247 
-41166.606515 -5373.6494173 -28146135.181 -6877762.5484 -8424794.1828 -11000323.926 -5523637.2534 -13746139.823 82903.083039 
-1146271.2315 -1170330.6511 -363864.00112 29053.127757 -60770.993176 -16626169 -14269379.514 -36094313.615 -37067001.709 
-140228.55984 -35546122.474 -22299939.383 -30376.110389 -71502.267107 31374.109835 -18790.203156 -29682725.209 32992.015292 
-8302.1854606 -18394.709723 -13792541.052 -15925117.162 -30937839.8 -8884320.0644 -51861807.541 -51901068.933 -59605999.374 
-33078903.859 -1815105.2612 -885924.238 -39453370.83 -22114.435019 -7971.394702 -31717958.265 -35342440.162 -6861244.706 
-2469603.1386 -6812877.6864 -6802091.1535 -26283730.205 -34100123.035 -15087001.686 -24792105.593 16888.221529 25011.394861 
2355.6298079 14023.45143 -42951215.192 -50155253.957 -9880600.3607 88085.802297 -11251916.597 -19102881.285 -23029.800407 
-5238.8400561 -11642886.633 -8865228.3005 -26902476.542 -8503612.4354 -23736832.953 -13141354.88 -22972.600111 -20213.636741 
-3477.7073021 79563.765795 -38304555.797 -37820478.075 -38543685.694 -13036419.031 -2680.9346995 -30643.583672 -37530243.178 
-67521098.098 6116.749162 -1361.8968476 -37480182.032 34653.525802 -26680811.035 -26404764.212 -9818085.0534 -23256168.68 
-36438856.013 -18401001.355 -16227633.053 -2155601.7281 -947838.83767 -6186476.6217 465817.00379 -5527020.4584 -7051522.0861 
-14111440.203 -25491.155754 -17282.578088 -3624047.7778 -4061745.7952 683623.19619 -27185390.12 -18762160.144 -17162289.532 
-19906926.459 -19885.258786 -43789043.308 -6308677.9066 -15071131.589 -2181467.8238 -29258458.872 -5752161.2329 -2088662.7445 
10119.752429 51802.348871 -41734672.355 -4811.1816298 -67823.967696 36810.699085 38633.562953 -4052.5118174 -40405425.705 
-44753840.04 -49073111.77 -49644517.962 -13502014.788 -1771.3410466 13056698.273 -19180415.265 -26194183.854 -36492042.316 
-11167442.593 -5033864.5219 -3733123.988 -15647292.826 -37596.027112 20444.040579 -14889278.403 -8188993.8192 13476.902456 
3988.7075186 -26707912.827 -61308197.659 -8809430.4504 62924.237272 4612.6128469 -38911306.016 -2653382.5024 -45817769.933 
27941216.899 7471201.8104 34120.910838 7709.5897015 -12740747.131 -8242564.2338 -9817.3774466 -30315344.763 -14546.59168 
-746170.01636 -773178.18717 -2572119.2963 -1928792.2684 -20226933.492 -1505088.1515 -1681842.4795 12458.705279 11560.216706 
-1139.7447974 -39929.417085 -12021762.607 -17422655.553 49746.765405 -32436.686094 -16756308.252 -2963259.654 14548689.83 
28120.372694 -172908340.61 -825021.22404 -1119583.4449 -7836927.386 -2972587.3859 -55095.052945 15365.531445 -3432465.4966 
39781.695668 -11439900.624 -5386793.5781 -23083051.443 -35282.765633 -5875627.2905 -178489986.09 -177421369.86 -3948513.2267 
-12682.934985 -22846141.341 -42984100.036 -35450609.592 -9714.7181148 -37942325.721 79562.464278 -44009913.701 43177.7061 
30313.81161 30272.020162 80848.934958 14454.706188 -50079.008765 -2064054.0594 -8532.3664955 -24322.440018 -40315.448589 
-56770006.465 -56231215.374 -5020176.6325 -5549009.7544 -200300687.21 4882.9884316 -980761.45367 -782322.7252 -600605.58793 
54993.933278 -2871.5442003 2455.5368404 1390.0440665 -168183.31842 1184.1029707 4591.3647072 -787825.23555 3247.2712489 
-22048.950589 7112.6426656 34178.820754 -19640.347739 -33698.439333 -147340595.42 -90587849.076 -11774116.906 
von%20Mises%20Stress 1 3545 double
240597505.68 145052670.1 103817620.27 241516046.1 120993417.5 105263089.07 232199131.25 120831455.21 105133344.76 
239527018.33 240949000.12 240530874.41 241801543.01 243443822.99 240404988.95 240243357.89 240393014.77 240377425.24 
207553080.38 109900623.83 241345582.23 240286604.3 240180938.73 243839681.73 240050034.98 240191333.45 240228694.23 
240312927.2 192634881.43 239711583.47 183438158.67 244247659.38 240177016.97 240154345.45 240231902.49 240171333.08 
240074516.88 240805940.2 237695945.42 224460895.16 208322067.7 191201950.42 174709832.65 159970437.5 146773568.07 
135919610.88 127730300.94 122031589.26 120162812.9 156950613.33 212407176.03 239822108.19 240150872.87 239894191.61 
240249260.27 240040084.09 240156411.14 240178930.03 231412319.24 216641560.8 199687437.59 182823761.31 167344864.93 
153080013.6 141118154 131405164.76 124658982.67 120819591.65 120641442.45 105396988.31 105748631.93 106670716.57 
108652945.45 111385590.24 114604272.53 118015771.64 120540364.38 121562941.41 105285441.81 105516512.82 106260081.11 
107607578.55 109946944.23 112890235.19 116350284.74 119200108.32 121112119.47 121301770.33 104745468.11 48482341.197 
21068844.718 21332743.189 34055356.359 46931721.515 58928367.738 69443676.847 78924593.84 87172623.848 94137127.585 
99579259.325 103489153.24 105472441.75 161821426.69 75059651.718 32512548 18791698.846 27316711.126 40947821.604 
53053708.978 64282280.117 74270663.197 83140087.982 90735566.384 96980685.428 101705298.74 104612756.77 105407513.29 
220067748.7 177129154.11 116464746.53 41052778.828 51802732.774 266650861.67 242990660.49 231093289.92 201048849.64 
149566800.68 82067626.651 7611606.7305 147479160.06 240676435.57 239376173.24 125508762.13 245851492.45 240377585.19 
240062636.23 240082133.55 240077400.67 240081542.52 241822708 237252304.42 224667041.97 208365426.39 191142867.16 
174553107.63 159714288.19 146479894.49 135639110.84 127327148.39 121668977.65 120040055.63 103130178.97 183756765.72 
240181919.8 239950642.17 239986946.83 240054426.97 240033746.58 240031510.72 240026199.21 231406846.69 216720719.83 
199689801.99 182761218.59 167103774.94 152909776.94 140814117.03 131149774.91 124319415.96 120624441.36 120512796.04 
120940687.34 105228744.34 105636371.21 106695886.91 108644517.13 111418207.8 114674988.74 118265946.54 120780778.87 
121565614.81 105103002.88 105356551.28 106136977.84 107528443.08 109900051.64 112958203.98 116483767.72 119479768.1 
121289202.56 121217630.94 112460073.46 50479136.152 24407928.855 23192725.416 34928925.742 47623178.163 59299061.241 
69800654.097 79138482.025 87274368.044 94146486.608 99548380.53 103377418.92 105256923.95 168910429.81 78855689.937 
35200786.711 21166349.962 28276656.888 41834496.923 53452063.306 64712689.932 74440120.312 83336698.236 90797594.01 
96930897.777 101585995.11 104460112.58 105251073.33 225183178.37 185779166.44 117085245.61 45850833.708 22816568.952 
80852691.029 245670461.16 236924394.1 205711038.13 155999950.54 83910299.302 13437754.164 57359830.806 160746173.92 
238606068.4 243640277.08 105100935.94 237908221.51 240856205.92 241044534.77 241233518.03 240343840.57 239996275.89 
240664656.16 240611905.01 164656275.32 191919813.61 245784085.46 243329809.87 240757611 240629340.52 239784832.76 
239839821.95 240478997.96 240691128.55 241036222.87 240052445.65 240134213.95 240196258.52 240469354.45 239783672.43 
239923953.67 240421687.35 240365577.1 239859891.92 239922836.39 153783442.64 123487098.38 220525199.73 158667044.03 
104361111.14 108144146.48 126471110.37 240345330.8 92449650.461 209868718.19 96390410.581 148109405.53 77888148.442 
139263027.09 115573920.51 191459863.29 131189732.85 140151981.5 240221642.4 222211476.03 97192676.943 139457357.49 
123873097.92 105802311.24 182913199.27 241509626.94 169626420.88 77793744.734 121978071.27 109186142.07 240399588.83 
169773922.57 109878964.34 118527614.84 134402413.21 240595695.82 119387117.71 65265698.794 55739357.892 71169600.347 
138493170.21 91655543.877 143754594.3 105109218.21 217491152.79 240107336.24 185052743.68 101061306.05 130811719.68 
132063918.4 86649124.004 149284214.54 102647815.62 215739939.17 180467157.58 241775085.81 236401373.41 249423810.78 
113241351.72 136123985.39 112806177.86 45228454.205 96158651.052 191629404.33 111620978.7 240035551.25 193647987.68 
241073656.73 161707842.93 76813074.775 143441296.87 173328016.41 125512978.05 96060199.215 121258847.94 107508811.5 
119161844.93 243402637.14 207604371.15 119808922.25 118128558.53 105766439.59 121773617.33 131630348.25 114658863.56 
49476415.145 118941853.29 171296082.92 158154188.53 61507927.533 82237073.072 100597292.64 93222193.689 104977770.31 
152136020.59 156713247.36 127564765.98 122850990.3 107677023.8 240203373.89 241293620.73 115580744.01 133239266.63 
90456619.397 155050274.59 142907802.77 240132552.3 142555372.94 129743075.91 103289781.39 126107372.6 117757129.83 
127449895.7 240481970.97 240527611.03 196411866.25 250111020.46 182513006.39 218358000.44 102779050.08 112549309.07 
162100605.73 111594617.95 263952423.71 241612994.03 226221556.59 158120183.6 103069821.29 128181546.62 240055441.69 
47653259.538 86025421.451 32621943.368 117977252.41 83643731.317 202911943.68 168992101.1 66849940.46 70115493.971 
240639539.2 146301689.36 108879885.51 116343662.39 135120256.52 114337017.11 95973795.451 241483835.26 118268585.56 
240074545.87 92419380.875 112946001.29 240330942.24 86425699.049 73346839.649 182221040.65 101510284.69 197433733.8 
94082042.911 241906592.49 138324350.45 234107225.88 58250719.793 148364105.83 71903050.463 231957244.19 220960348.43 
121480313.02 106543097.4 120178952.62 157678995.65 117000357.4 104606398.53 184520160.06 175494502.15 180251904.21 
141436213.94 203540290.64 105736347.91 133642948.02 104154056.48 114930763.75 132253422.19 170083987.91 194217671.02 
240159324.11 72312715.543 112707884.07 82447672.031 242345634.25 240458630.93 93168254.892 83835430.004 32736924.226 
223032688.35 192854122.9 152120144.79 137497165.5 116658728.5 152448062.4 153775927.9 104731597.17 123351283.38 
194095646.32 110100667.05 105691860.55 121151703.02 182093666.95 240007289.3 240221518.65 238157657.35 243342720.08 
215707277.62 232453535.14 121078954.68 121287802.03 120734728.54 105400615.07 105570216.55 105486971.29 113918456.67 
170078575.95 163769578.04 240132977.2 240053723.23 240252618.52 240482741.4 237315116.52 240802590.61 239660583.16 
239380982.17 241410059.71 240296684.48 59461215.434 86338266.618 95332309.184 25056781.621 35532194.28 57869559.063 
46724517.87 40909556.075 24393869.828 22936666.535 32140385.609 36011253.845 30748087.429 38704380.891 45574629.418 
39364593.135 46195459.978 58992198.944 53179640.16 54853735.282 67611200.224 62363281.575 64166944.437 77288841.233 
72592501.242 71939427.591 85326532.394 81219298.068 80280750.642 92079703.103 88645319.66 87267008.394 97666025.11 
94892871.272 93276718.072 103305417.77 101401761.55 102124757.68 100015925.9 98596091.783 105143547.42 104061693.86 
103991938.14 105300378.52 153637645.99 132215963.49 112822318.17 128335361.32 98941427.255 100286089.95 70073674.283 
41403510.746 86977080.681 77649395.977 83943239.859 53676003.887 79553372.372 90367445.678 99255983.576 222318394.51 
131674120.23 258870209.04 247180703.52 224087526.78 240655810.62 106148378.02 105801742.82 106130484.79 105597159.27 
105721195.94 107137884.2 106457345.13 106931961.37 108706253.22 107644512.88 108082861.41 111328214.38 109857282.94 
110179755.99 114360065.63 112755457.95 113139250.86 116998600.89 115333155.47 115438993.87 119551978.28 118283697.38 
117824193.58 120718835.03 120166295.86 119705981.71 120975188.91 121319849.33 121476026.1 216796601.67 245049793.12 
242481586.57 239584093.14 240407803.83 240289051.15 240148518.46 240053431.87 240364361.64 239847400.91 240214029.85 
240054855.38 240014783.24 240139745.01 239968216.43 240154442.77 240552677.29 240047145.75 240027221.62 240148575.16 
239789665.95 238425541.91 240114807.63 240041876.11 235629401.87 234555921.09 229997384.27 223550406.75 228552870.71 
213316799.8 205487372.4 205347976.67 215200175.1 215173500.49 200959916.51 192762584.69 198680481.31 182886386.08 
175055769.18 178996288.14 186509044.35 188081999.66 167774975.67 160833090.63 168310869.31 155879513.8 149442435.71 
157009721.87 144774180.68 139507289.59 147346543.17 135638239.85 131508633.38 138770647.13 127037687.5 124400850.58 
128421153.01 129483503.75 132749620.42 122807002.35 121722210.13 124684958.51 121914567.99 170870749.29 157913979.97 
166858565.8 161361049.81 174602136.67 160289454.38 153078846.52 145711437.49 145148404.34 145392018.74 141565119.65 
134072986.79 133908228.89 127273666.61 129859057.08 125596781.07 131628246.16 120725990.21 115127078.8 118296868.86 
113926873.84 119246683.42 122877307.17 120634863.61 116561996.61 124746308.47 208669019.18 206457958.61 218236696.48 
224335459.31 226580879.89 194598729.68 205668626.48 219032281.3 205231051.87 242354914.63 229631776.56 234051838.69 
239072032.37 230185290.03 157757381.35 149700916.13 151216858.85 145030479.11 152316530.6 164798933.9 172364419.03 
165596033.48 165025331.45 158653327.35 164361883.54 152135294.89 111167033.44 107622392.08 100302945.88 88500043.599 
93432875.835 122268906.81 115030520 108779233.5 118824335.18 88219733.418 98875339.043 103668943.88 112581471.22 
109698724.81 110676563.57 109167962.15 111482614.71 108310718.67 106710235.55 103865270.7 105524417.79 106217927.3 
106115627.26 107808159.81 108852683.51 103815702.18 127063480.39 124146534.91 123843387.36 121328112.18 123900832.43 
125415235.49 127248478.35 124626424.13 122110604.2 130391017.7 129665581.05 130666451.93 239850149.43 240551266.08 
239593626.76 240384267.88 240109004.95 240206516.77 240603562.49 239750210.4 240125944.95 239665106.28 240220317.82 
240442179.95 99898678.524 87475252.399 105329121.04 102744775.71 117267275.31 81440999.776 76985974.74 89272601.094 
100017469.93 76523714.157 217839087.79 220525002.42 212867737.83 206079938.44 203477965.35 198397523.79 206661040.39 
201391753.17 201407476.32 193283289.69 214923591.24 223492022.67 195323773.11 212149897.51 103027165.7 101002760.66 
98499195.646 94579722.537 96749916.422 89474437.296 91339577.106 94717469.342 100140294.51 98685478.575 89875650.772 
104955249.3 144919723.39 142010833.02 145425662.1 147330647.15 150164417.31 153419936.47 148315765.11 152976005.9 
155343117.87 144866888.01 59311349.362 75318152.892 61186490.568 67921238.128 51143197.215 84840719.562 86824451.445 
98807607.691 89808236.954 91825172.217 80227233.764 70119812.363 104792132.14 125477150.72 118004016.55 145633146.68 
122879391.89 137088732.64 148188636.62 128723613.44 116354663.76 161739135.75 154522245.97 162859914.62 115108917.35 
113367036.74 114037922.09 112124073.18 116873972.55 119698625.39 118286252.92 119125581.51 116330101.82 116316583.77 
114608592.17 177632704.54 186854448.39 182105661.82 187778342.49 178676774.64 205357955.36 197327905.53 199308480.24 
192720375.29 200688818.42 188218059.02 193779540.66 134555104.17 128447014.13 136830008.04 138742920.11 122138288.62 
124115890.43 131522311.24 134540931.23 134456754.23 115608580.92 141894922.37 132391618.83 141818606 148496124.07 
129504697.05 136143051.32 125369274.43 154393257.98 145776207.58 142125557.32 240167218.65 240315860.44 243378013.35 
240686323.9 240866493.03 240391249.11 239954759.92 240397222.47 240203031.58 239989694.18 240764175.04 238769970.19 
220658459.09 232519106.55 240194655.34 240336029.57 210491414.39 184857389.5 170545995.08 150683472.48 198381685.85 
199740088.2 102039910.63 100234141.08 99046999.256 96303035.918 88404633.667 93587471.492 92114993.971 95113063.601 
89848413.802 100964642.89 102818710.31 98586676.357 141251661.76 146241664.08 144144210.19 146011405.86 140924922.8 
137656618.8 136382402.49 133354477.38 136519736.88 137256067.27 134307999.38 124892585.51 127078554.89 129324873.9 
125894202.57 123350425.75 120832971.27 121521736.34 121988229.25 122747605.18 122519796.46 123638257.05 107554903.93 
106628243.83 106704135.55 106132205.37 105713708.8 105150702.41 105225825.32 105153071.67 103830592.01 104577295.86 
188823061.27 198803820.2 190264387.1 171869576.28 181743567.51 188727314.62 159091637.17 168385407.39 176827532.27 
183085308.79 240218047.38 239747475.27 235220596.83 231143089.71 241361714.4 240394427.25 235955516.09 230013543.66 
178077057.38 170434151.29 177008344.94 175815563.47 183724494.58 163582426.8 159818269.2 165817402.24 172218710 
163673713.78 158097481.56 71793274.278 76425533.864 81166260.461 82230427.998 79442976.92 70837580.895 69487055.452 
85682755.458 85572502.561 93503203.008 124762236.27 121689887.62 119321461.51 124623482.5 120208395.89 117420033.33 
119422362.9 127597756.52 116889324.92 110489085.04 114716688.71 113682611.14 111912332.66 106746265.67 104811152.11 
107623587.55 110349821.41 240155189.89 240310047.55 240024523.65 240090939.95 240570507.91 240500207.38 240445094.79 
240131524.15 239956966.29 162969903.4 171563085.49 177069781.69 161085345.97 169554013.67 175588060.72 175719644.2 
183345371.66 111101737.03 110709768.42 109293488.01 108847076.65 108545194.09 109991574.65 111263653.34 120666799.63 
118718361.15 117435867.11 116594402.38 118331751.71 119933212.3 119953264.22 131015071.29 135314395.93 137782650.7 
138832447.03 130711366.23 138480017.91 133805882.1 240415461.69 242694138.64 237622886.81 240389701.18 240716411.49 
240812894.61 240245405.46 240559165.62 239999574.62 119144899.61 107427600.5 110274089.45 125780786.66 115112426.06 
124197976.82 128911124.93 135316758.42 73980091.844 62771069.205 56601371.229 77742017.181 68785586.152 59779271.529 
62923383.874 59298801.96 49854353.645 43682000.895 70865309.209 68945219.1 84201889.893 45866253.813 56815608.863 
43617183.304 68284148.237 60365457.206 71546301.422 90752697.209 85035771.78 77512079.007 86850415.219 146078776.2 
129184755.45 126895179.5 150306328.91 134205235.55 121334146.64 89475917.503 92374703.032 100742477.51 86786254.375 
103643382.95 91940893.665 137710756.47 139780928.27 142144427.74 145973480.8 140638198.88 145165998.01 150737751.2 
153119947.69 99672759.915 99248906.232 104539289.57 108897079.73 111604740.92 110902092.59 210245882.94 212548493.59 
220323604.64 227106473.31 219324762.89 225817332.38 239925730.77 240053521.43 239942779.94 240016272.61 240405764.31 
183639301.7 176614607.03 189402764.16 198541315.78 189721055.69 193867837.37 102892783.27 132180235.42 130812321.65 
98648854.029 110359191.27 143722045.83 156867905.2 121889048.28 165028206.13 86124401.989 81760533.199 85129030.867 
150704045.61 155088501.96 156946835.62 150869575.84 108093878.69 116484292.48 102152611.42 94082550.334 92344413.024 
181164473.8 186227760.96 187220544.99 228409321.32 115093783.83 112884579.69 114837212.84 114081546.78 108487532.25 
109119354.43 180037273.19 186129616.72 172242831.77 189039451.73 187920044.51 132968024.86 120549243.15 214959513.91 
240480466.12 240152336.09 240161113.53 240069275.12 241064993.01 240147378.2 241484313.86 231114926.1 216371205.87 
199633525.85 183096106.14 167146296.89 152749470.64 140845087.64 131537105.23 124554904.18 120959381.9 128631300.68 
104769626.27 156906681.01 113547558.44 120757325.47 120833138.27 120259138.13 120221393.48 233835093.87 198520372.83 
140140298.51 156816167.83 240167228.83 240455316.59 219244761.62 243012402.21 240442286.96 240079066.01 240141782.41 
240030145.5 240058132.28 240239485.36 239983016.27 240167051.41 240050056.57 240023652.87 239995659.61 240105312.16 
240256775.54 240038159.01 239887559.92 240171013.69 240028294.6 240121139.13 239965615.18 240038484.54 240027783.56 
240099741.16 240036242.87 240115793.5 240007568.95 240066320.13 239488240.9 241526555.92 240923574.78 240442842.89 
242579945.78 227706558.5 234907956.15 239337562.52 237618371.71 234786956.4 212398831.6 220816164.5 227839164.59 
224817727.1 220890330.62 195546288.5 203953330.09 212394152.75 208327955.26 203934140.75 178641493.11 186976964.88 
195444752.99 191139047.88 187061330.37 163366596.29 171143565.34 178606089.38 174570638.02 171049405.39 149746893.88 
156316778.62 163217777.63 159752157.81 156196292.65 138322417.97 143742373.35 149663768.56 146585223.17 143545223 
129588920.18 133213776.81 138157831.76 135517212.31 133117717.67 123132744.87 126188171.88 129391798.36 127542591.03 
125951306.63 120518643.02 121008995.26 122894189.33 121677601.71 120897789.97 120085327 120462113.29 153246474.77 
123379622.6 216696549.93 158607171.97 104313323.88 108008669.98 126382358.43 240190644.6 91889506.595 208778587.5 
96290532.821 147951633.62 77687782.116 137685686.01 115513536.82 191199875.64 130772820.24 139428144.07 240233424.57 
209798376.32 97108870.228 139308664.57 123816309.81 105663853.86 181111024.55 238006347.33 169180429.4 77824481.91 
121976229.48 109051298.65 240553430.16 169446199.99 109665988.17 118554754.66 134182220.3 240355139.18 118682196.31 
65489129.962 55767839.435 75162923.173 137580349.75 89937387.833 143429039.13 104936331.32 216931591.7 240089825.88 
185190662.68 101051962.96 130494269.37 127006488.88 86864510.945 148855796.38 102023387.49 213171951.45 179430700.18 
244722197.93 235130367.19 244811992.59 113067065.71 135991159.27 112625981.49 45359646.479 96007684.17 188990123.99 
111509737.6 240244074.77 193399378.74 240589572.27 161504409.66 76939565.781 143186361.57 172778150.93 125283502.99 
94181075.573 120986688.9 107407241.62 119156051.56 240356315.81 207399830.92 118229443.38 117990094.35 105611637.36 
121772920.91 131527174.74 114699068.13 51069053.733 118662447.12 170945630.12 157695364.54 61737542.072 82257454.601 
100520938.8 93235575.782 104802021.95 151458816.24 156277453.6 127354862.34 122795228.58 107571398.83 240023333.07 
240579170.75 114616176.85 132907287.85 90535902.034 152968932.45 142609149.68 240485377.6 142470285.59 128750158.38 
103132977.38 126044261.64 117730260.36 127321888.12 242216073.05 240036617.63 194832761.49 260038948.23 182244955.32 
212478864 104216060.31 112453994.53 161013026.2 111732259.48 248318890.78 240604191.1 222587122.44 157765432.08 
103122243.82 128001790.82 242175326.81 48264041.05 85219746.032 33819108.871 122608410.91 82984370.921 203183265.1 
168551137.77 67344227.757 69614034.843 240222918.21 146253619.45 108698848.82 116433757.82 134742649.9 113117898.24 
95986165.882 240993819.16 118160284.58 239964317.48 95526922.497 112993517.05 240171610.58 86533945.045 73349176.87 
182080636.27 101079911.9 195870941.78 94148785.064 236550522.98 137615249.11 231987522.75 58430019.834 148152616.04 
75174348.688 229619648.69 219556128.33 121414690.41 106274563.17 120379694.78 129180638.85 116742065.66 104483211.27 
184080504.44 175168952.01 174559761.71 141148589.93 203243332.13 105828885.75 133312877.92 104090953.38 114847804.53 
131573080.6 167899639.43 194037282.14 240154401.5 68867685.62 110415659.16 82030174.359 246470221.5 240177111.04 
93247726.301 84050707.769 34010485.453 222302502.35 192486334.06 151883108.19 137182705.94 116634764.42 152129472.9 
151393371.87 104521269.91 122970408.64 194115080.69 109932564.63 105560170.73 121171336.11 181273208.94 201109787.05 
246253709.09 216377676.29 240587183.66 240206895.14 239523238.23 121325568.14 121003322.3 120660491.33 105286982.43 
105349652.51 105421466.7 169792246.65 176428635.82 118428921.37 136901150.3 157324185.53 117354532.85 101816641.63 
135100646.85 100847100.66 42356900.833 72057753.26 76915366.542 88558614.37 83227732.652 68806567.438 54048821.531 
87978956.035 108285230.74 71156873.262 119035759.38 254045364.39 167079795.91 183973430.83 241732103.41 105611886.72 
106005631.21 105483277.78 105942777.88 105591367.9 106351533.07 107037467.76 106803687.05 107525538.42 108613283.3 
107978863.89 109767724 111256105.09 110052994.51 112679574.44 114370361.5 113042568.89 115423072.3 117185022.52 
115437198.54 118391432.62 119660886.11 117852267.69 120371866.01 120879603.55 119825034.37 121412290.23 121054592.47 
121492640.98 240111867.34 240308687.27 240041086.25 239387742.13 239810745.82 240285846.09 239706292.3 239879690.31 
240772040.68 240092588.6 249222491.05 202407293.44 246980152.47 240172154.36 240077704.5 240406147.99 240147976.76 
239958267.59 240101291.22 239969470.09 240057704.57 239964648.16 239974017.25 240053993.74 240195096.34 239761545.59 
239993441.52 240032656.38 239986867.42 240117112.51 237200625.44 239514358.48 240143237.78 239484370.66 234202871.99 
233698832.24 223412014.22 229456512.74 227297306.65 205516241.37 213455846.99 215258575.32 205409926.61 214881729.22 
192814156.75 201033974.66 198718571.48 174798151.94 182784361.12 186365533.69 178835912.93 187968721.7 160551814.55 
167664577.51 168008473.95 149225933.28 155626167.69 156714757.9 139213107.53 144435737.17 147067917.62 131086523.48 
135287731.57 138446430.84 124173067.44 126740370.03 129123760.38 128134015.23 132439916.49 121525215.84 122447089.08 
124418145.71 121798697.75 90890886.601 62754011.274 97590951.738 37687118.972 27249017.562 49220387.706 60318237.832 
42523504.011 24919797.094 25915616.926 33314369.051 31655494.477 36667174.295 39512837.721 40250338.512 46306733.099 
46687177.109 53653395.115 59343675.529 55339205.336 62772183.928 68037001.357 64540258.609 72884255.986 77491949.659 
72279969.253 81457253.455 85476901.924 80463172.321 88733196.682 92163397.478 87374021.534 94901821.478 97647041.906 
93341922.082 101315050.64 103164958.41 99968102.042 102041856.93 98587197.306 103911783.68 104939620.57 103809457.58 
105133903.35 165962005.22 157061663.96 169950299.92 173736751.32 160939325.35 152481677.24 159647385.24 144476735.81 
145008357.9 140932656.41 144385778.47 133163862.35 129658133.43 127287274.67 133701487.64 131419508.45 125360965.94 
118175268.55 114914358.79 120743988.5 118898089 113830414.81 120367706.47 122813352.32 116508741.63 124624943.91 
215278370.41 204547599.56 205795047.04 223826264.41 221274606.59 202388880.31 192213098.1 199981174.08 213991350.5 
228950188.55 223849218.56 238608952.63 234580065.05 220793982.01 150865781 149341032.09 157486217.28 152082545.47 
144745760.38 165391832.71 171961052.29 164730278.59 164532212.55 164011355.41 158179825.2 151912180.68 100187162.07 
107412099.4 111002987.58 93358246.926 88429668.155 114803055.85 121993051.17 118787770.85 108761745.17 98832103.884 
88264701.116 103612608.12 110475771 109623512.4 112437164.46 111398717.9 109006983.28 106559320.06 108226670.04 
105545129.17 103793826.74 107626033.74 106007211.96 106063702.3 108760181.22 103689792.29 123731397.92 123926234.1 
126905286.88 123808178.71 121208936.76 124569357.62 127088613.53 125330300.02 122032738.88 129550262.03 130195063.44 
130516931.63 239630151.67 243043093.95 240178638.8 240004127.12 240061311.28 239999626.12 240048717.44 240140650.43 
240133888.7 240286634.7 240220437.96 240287531.99 104189833.02 86639506.297 98703808.279 115817481.42 101583451.35 
88556749.535 76512333.03 81141408.231 99132859.453 75729109.72 210941519.45 217116270.8 216087142.83 202113856.67 
204095122.52 200893147.46 206121884.02 198178274.47 192963464.5 200644657.97 221622975.18 213993926.75 194452328.18 
211515090.57 98471767.917 101007490.11 102991980.68 96842827.848 94594396.676 94762901.192 91378700.656 89512335.428 
98720019.268 100145780.87 89997762.925 104994831.76 145170775.67 141805124.38 144647171.97 149849673.99 147048199.77 
152703737.68 148083114.11 152982524.08 155028454.96 144634655.38 61274479.246 75259948.224 59440119.852 51235062.037 
67864109.689 86743507.92 84856933.125 89511344.026 98482019.02 79966807.529 91336365.129 70165670.492 115480112.62 
123924054.34 101895398.75 119674605.43 144062874.98 126586016.02 145926252.27 135274383.34 114528816.7 152329557.77 
159912712.51 160306918.4 113298680.37 115175046.21 111988171.48 113968276.6 118132310.4 119569823.96 116828265.31 
116156500.19 118847367.49 116350647.74 114464794.55 181749810.03 186608150.89 177441423.4 178256188.41 187475058.42 
199117862.83 197063325.73 205201459.56 200541024.87 192522360.62 188049365.73 193402978.98 136547756.21 128232941.11 
134458238.39 138518516.89 121919658.64 131295969.93 123914855.04 134121979.39 134235867.1 115439115.97 141615395.78 
141449648.2 132035780.73 147958723.96 129203938.82 124822194.15 135534751.13 145217428.78 154072154.65 141645606.75 
239959033.59 240076869 239883575.19 241780572.14 240104700.56 240054290.09 240030576.45 240187863.44 240106792.46 
240023820.36 234314954.73 232399019.33 234147960.07 211285734.2 228516615.41 243914498.84 173152430.29 190259972 
161447380.32 189050897.4 146052737.06 194014502.06 99018471.206 100241269.66 102050765.66 96265031.143 92182446.809 
93615078.998 88470265.065 90017501.792 95158027.039 98553219.755 102786384.36 100927879.35 143841169.77 145844035.58 
141048547.38 140830734.16 145636362.15 136066866.13 137432438.66 136218363.61 133115159.03 136901773.73 133975152.6 
126862087.55 124896490.95 125875207.47 129084030.52 121462892.18 120886230.89 123302624.84 121993135.16 122628540.97 
123434257.19 122395295.59 106591140.86 106450266.02 107408571.37 105954365.8 105506826.93 105052320.37 105014950.83 
105039064.58 104434979.51 103734556.12 197054112.65 187512480.52 188658989.6 180501708.4 170158926.51 187627591.07 
166666172.45 157731105.94 175359419.31 180771416.77 236302846.29 239143604.96 228422182.61 230925961.87 239658514.55 
239579119.41 233941615.22 225773903.14 176800350.11 170141974.2 177864761.73 183717235.97 175476837.86 165554024.35 
159520562.79 163322010.93 171896632.16 163444385.47 157812299.38 76467204.891 72044871.676 82216101.738 81370663.8 
69804804.144 71064279.836 79682507.528 85805572.462 85687534.808 93537246.085 121541850.93 124703321.24 119186319.22 
120071851.41 124482506.11 119315165.97 117290840.8 127389946.01 116766296.46 113436253.2 114654374.48 110502505.92 
111767843.22 104757821.18 106736342.07 107493099.05 110318380.23 240067618.89 240071048.24 240067652.94 239951861.07 
240135463.49 240163570.22 239978632.15 240093903.09 240154786.5 171045781.6 162502175.74 176813663.66 160324994.13 
169190390.08 174970514.85 175109599.22 182728282.41 110571239.98 110920990.83 109126673.11 108392477.82 108647187.32 
109819363.87 111131594.22 118813189.91 120658293.67 117467510.63 116603955.61 118333489.12 119948896.33 119861551.89 
135223985.86 130762038.65 138603149.62 137550047.45 130552444.12 133520944.71 138289224.86 237728828.38 244885940.43 
240903868.2 240138464.2 240034240.33 240044848 240067318.9 240330230.33 240604487.15 107017218.9 118815341.55 
109685404.56 125183075.83 123716012.86 114538001.55 128427323.05 134834392.28 62988508.428 73935479.919 57100042.988 
69050347.186 77815123.235 60101199.897 50737311.117 59991527.297 62487876.929 44730426.514 70591237.677 83741737.462 
68502658.566 44243142.297 56999209.216 46222896.664 62422543.22 68892304.492 75468605.995 88184693.126 95600561.576 
87816573.431 78345206.475 127799096.98 144527875.53 125642870.26 149095934.32 133264033.55 120609887.97 90769048.788 
89631011.785 99356638.659 102225924.45 86050115.931 92548253.767 139578577.25 137494654.16 145757658.26 141881213.88 
140300923.62 150470804.79 144879488.16 152868623.38 99118178.209 99615009.08 104464088.66 111471452.12 108701350.49 
110764515.32 212233987.26 209867040.09 219868872.45 224396309.93 218450287.83 225247135.71 240049445.44 240093816.36 
240040370.2 239929694.19 240119218.39 176320370.3 183662660.81 189431509.57 193871929.74 189649878.89 198464638.12 
102776485.42 130605342.02 131924701.28 107648065.73 95511089.112 140262194.18 119608278.78 151802330.04 161919544.04 
81992650.129 86365639.989 85304890.982 154806782.21 150401674.87 150572297.36 156681486.41 115455946.41 107283366.32 
101614940.27 93321849.917 91827465.688 180326644.78 185832776.29 186604780.82 226031163.47 112799232.54 114865972.57 
114094954.81 114706312.95 108320319.78 109174564.24 177582380.79 182146672.88 169912567.44 188639817.17 187395484.14 
84690738.63 6533683.3438 155626150.88 204263414.11 235455216.52 70255091.14 251842731.25 241258979.16 240485334.46 
240161526.92 241229830.26 240806410.95 236548283.91 240037893.73 230672831.52 231810659.11 214874622.73 193793126.15 
223197215.45 139220974.39 172098936.8 183037441.56 67128593.444 100647742.86 119851088.74 27144477.215 13754213.19 
48375868.085 49063066.939 61176345.602 41743835.346 176683883.12 248274492.74 175283825.44 241209856.79 193131564.16 
212056300.41 167009912.4 137918325.66 99215368.104 65398636.348 28078970.593 24308234.457 169101125.87 60608325.435 
241080759.79 252904372.71 105096137.81 105543691.34 106220324.3 107497261.01 112939691.38 116544315.36 119299108.97 
121238364.9 109737055.63 121029075.94 121078895.78 120987688.59 121556382.45 105069664.57 105138267.06 105206882.83 
121548169.64 105141222.71 105524137.87 105382464.65 105194617.69 105462392.69 106518198.24 105869804.14 105553785.54 
105626615.03 105928001.1 108058969.17 107015721.98 106459597.18 106596197.18 107024651.36 110615703.25 109150498.92 
108068752.84 108636800.64 109146935.99 113924114.49 112066138.68 112035354.23 111402623.93 110612198.68 117472586.81 
115586749.75 113859012.15 114674778.59 115560831.72 120084496.99 118773146.68 117379402.04 118273651.87 118595399.73 
121238680.11 121113441.91 119926572.49 120796739.8 121033576.41 121720884.6 121234987.05 162005172.7 74423369.657 
32782344.806 19441554.552 27445601.705 41655225.354 53132827.568 64334628.015 74399933.317 83280359.781 90800508.207 
101685387.55 104614078.72 105497178.22 96942706.003 105370275.47 105323999.23 105394713.61 198743625.35 194707068.37 
134073342.11 105306035.61 138770860.03 88266499.924 63080058.211 110722559.24 91751797.162 39405044.817 27469401.245 
50800924.933 63648452.159 40791511.496 19322365.655 20737654.163 23597517.148 29291709.891 21060302.707 24232398.155 
30829436.212 22814118.026 21780882.733 24988988.279 38079152.186 44418479.797 34801988.501 31142822.512 38641395.474 
49968543.928 56457904.53 47420316.55 44879126.136 50231720.914 61585389.258 67211162.248 59190362.13 56539210.359 
61804493.385 71896342.353 76721435.25 69707612.969 67449180.03 72032628.762 81185779.506 85209228.29 79085443.961 
76769383.278 81330265.171 89045611.786 92464690.657 87225370.876 85297600.472 89082534.666 95659688.432 98253676.026 
94147504.744 92490912.122 95646149.585 100619395.11 102644237.88 99495843.188 100599374.02 98223672.055 104023828.25 
105053051.21 103426230.49 102563926.66 103965294.19 105264993.74 104971983.18 240602302.57 153825485.77 94168742.254 
131022869.73 125353733.47 96465649.05 118909686.45 96236619.145 135965252.19 240362017.35 241096894.3 90818549.465 
158519246.41 134137384.39 109944985.92 131479628.37 120030352.77 124670676.69 121948183.84 123598317.17 123573650.85 
126456720.99 127302188.8 126394923.34 94563123.975 96336171.388 96331010.722 96319765.582 94748485.801 239952022.92 
239792399.14 239856881.31 239924003.64 240257266.61 93211315.749 94839019.597 160442541.14 153527966.23 161276899.54 
154460573.39 153450450.41 88260301.195 94133683.881 94060401.452 94096123.272 88397158.205 168811568.94 160536371.24 
52856569.714 41188109.732 59149723.065 50993678.033 74081983.138 82218995.51 88280402.083 241427678.54 239708196.98 
62847491.538 75039015.513 73466327.463 205453815.74 216723420.9 218599959.71 216679469.86 203044406.01 240123856.72 
239976706.16 239894605.91 239305172.45 239895586.39 40101181.656 50326497.841 131298260.94 133372305.85 133817891.35 
135487051.54 133031865.87 131145721.54 133186292.06 132878724.87 135304882.18 117128491.28 117655296.12 117699881.2 
116408445.29 116273867.6 116334494.65 114700938.58 114684431.14 115503300.95 113520673.27 111913962.24 113075626.09 
111528308.86 111892769.61 239634800.55 239858244.3 239858978.77 239917837.85 240353130.1 110477225.3 111276723.34 
110408160.45 115401733.12 109160760.68 109067108.71 110016950.36 108793440.05 113534050.93 114701256.18 103195667.98 
99205483.69 111045467.43 141710422.05 138589779.93 134291681.39 137338731.08 67878499.081 70419727.769 65366169.228 
108029852.01 107318961.41 106678983.23 107220818.46 108119979.29 107537527.75 108028464.2 190416078.22 186474592.07 
182395599.5 190320008.5 182650286.04 182694571.32 134324472.37 98938915.151 95925710.008 239575816.99 240201782.86 
240357217.25 239998060.37 239998439.53 239939784 67116817.65 70172018.797 65071110.383 119048920.22 117881834.51 
56949738.522 68714848.659 70042956.566 58328362.663 124248470.2 123823306.34 121311361.84 121447725.56 239922978.43 
239908884.95 240098336.38 239680148.99 213396822.56 209427005.89 209369630.18 130717938.33 108691216.52 121707962.65 
121204875.44 121477651.22 121620480.06 121792162.75 137480767.98 140486135.78 239694362.34 234490202.32 176367068.06 
182092409.02 177427244.05 186683330.65 116840556.65 119284175.06 116632074.32 121174050.59 121095470.27 218495446.57 
207519555.38 70662828.194 76682803.541 85463670.346 69776164.02 62630337.19 51297681.702 61318841.306 67949418.407 
239869430.36 239971621.42 239927117.56 239976342.28 240041671.72 239760215.45 239669376.63 240002724.27 240217528.46 
178810919.04 178975916.84 185923559.93 192578744.08 186743445.45 102098791.8 102377530.01 101008454.18 102326853.03 
103182229.97 239759160.59 240138952.04 241170846.72 239413630.03 233186411.08 144536308.56 147300255.88 141715476.68 
198465595.61 189682526 194109694.3 114135251.81 114725369.37 122467181.78 121970263.75 120262906.47 130607999.41 
94166276.777 116396844.7 121174638.28 120998549.83 121247381.54 59779520.362 83941106.999 102837248.79 74567455.693 
44043457.712 46142684.79 141890857.96 142707544.64 147452898.89 106752029.08 107412898.59 105656085.76 105564684.39 
105586018.4 105516482.28 105570221.63 105212722.35 105091686.29 105144382.89 124576418.16 122121812.41 49134946.133 
46014263.543 43261098.921 62995443.475 71059068.875 65408938.077 73958123.723 121095461.1 188097436.11 183608111.85 
105774412.94 101106211.89 98487471.842 102919491.94 193026717.03 200733101.59 239994528.44 192632261.84 105597854.48 
105647909.77 105025591.07 131823393.7 124960586.03 129272084.15 135830253.97 55707831.931 98720503.627 96341470.776 
98575575.558 95963258.753 96327642.549 152313796.71 147091791.87 56400770.332 48732885.243 47917774.668 55310917.023 
122059273.23 119201844.93 116866244.94 119011998.53 239995574.79 240078727.17 239788353.49 114994513.87 87832715.193 
179002531.97 175380126.07 239950502.92 144661699.04 142006156.76 141291458.96 138715218.12 111776526.99 114891971.74 
110352589.87 107516298.39 194542827.91 103061849.26 103766762.87 99863200.192 100525041.55 99836051.751 82182055.832 
240014101.58 239997321.68 239980788.15 123234427.47 160898986.47 168628030.34 159773744.73 26938732.792 27574300.192 
33360197.721 39269769.306 33908084.935 56913732.213 81384321.066 79197384.134 83508428.631 50446256.952 152283901.58 
151931066.74 200642098.29 159100581.4 158870737.69 155643602.74 100208536.38 120767674.42 120924305.55 116272810.41 
118205714.04 116857131.3 119926113.65 240000086.44 105571140.95 105448068.97 56435043.865 61686244.834 145969777.33 
141025179.41 164015273.05 156872283.77 73202577.552 92942330.636 116716444.71 87701863.249 42758840.283 59139379.633 
61754358.764 89766344.143 114625278.53 103087365.46 115697506.87 121640693.48 239868511.26 239912251.36 90658367.886 
91471227.665 119056274.25 123768319.47 126424385.22 116499088.41 239720382.12 239925552.78 239814872.23 239733352.87 
178372880.02 176938240.05 184284613.41 171522205.16 164100039.65 168079390.29 171337104.89 128093166.49 240044158.98 
239912493.22 239839155.16 104857461.73 100551909.58 79098390.38 83954457.182 83382944.439 119846068.3 119627185.01 
61847368.739 111411779.65 109108227.92 110000914.14 128024025.42 127803388.06 125460213.28 125966286.92 125407609.77 
191308206.6 181820353.51 121104419.56 101024623.82 101041082.45 120906012.11 118698186.99 122076334.88 111155295.24 
114838570.99 239710255.88 239864599.22 141612518.01 134427735.38 132146265.61 139720510.19 173936440.12 187651359.54 
193822648.06 105079380.87 104518455.25 239844153.65 240024525.54 105529394.43 169252329.57 137900098.38 117215476.07 
124757148.29 147303955 148007224.34 113851442.03 109088989.64 100589415.64 239758320.96 118863524.22 107553282.84 
64533765.802 239762550.12 239915644.69 239038385.26 240024649.91 240095151.96 104644753.82 104575192.27 239789206.48 
239555477.22 196767834.15 187964150.7 61589533.558 68455758.904 165329544.35 164674128.17 172976579.47 204769071.5 
198746863.52 100053321.25 94724766.499 172034899.82 201541838.02 203268101.01 189998031.37 147145194.83 149942878.58 
148014865.3 145241501.07 149044858.84 143850506 129380065.3 128052299.33 238599216.45 239291424.95 94828807.808 
77790471.353 89491324.001 83974422.472 95588901.476 84090886.554 126962682.54 117436872.76 119220706 172051962.11 
171115903.36 97763555.606 120847296.02 113143808.53 112523291.29 110537984.42 181572292.2 180639982.22 143255924.2 
104845996.65 176907164.12 148650980.7 191967629.53 204799767.18 194040968.81 109162863.95 174978772.02 114611047.64 
113582724.47 110515346.43 111657640.29 125321535.52 148112810.32 144745012.85 108443668.36 109747114.18 108710017.13 
99933515.719 98728581.237 75227999.905 72242541.245 150937114.38 149435607 123377905.48 122837563.54 120839314.21 
135118062.48 137631124.54 137495840.32 123971583.82 93230914.992 98741543.841 214064932.74 216472815.98 235354681.51 
236875571.49 105549360.71 103721286.12 157625943.39 158660463.42 156427247.75 239493575.65 238765590.27 238950624.6 
76444068.643 71805538.547 239998853.17 141806741.27 134969639.93 118136482.9 107463402.07 106571593.05 80408993.278 
115610267.32 118259130.75 119057110.58 106021532.54 105824705.43 145337107.23 128632547.59 133522629.36 137930477.16 
140307115.81 118771619.02 145191995.2 144733471.83 109143036.84 102802969.02 98083545.861 98123011.261 205016750.46 
196555658.08 189215935.42 152751787.96 153057195.91 239976413.67 239828391.49 240059704.17 118235824.86 121089499.27 
68972368.319 59919843.852 125401734.36 196830616.27 118815044.36 129186298.16 108119502.58 143896112.08 146334481.58 
104243749.67 120602949.31 118543552.57 120564030.7 121036836.53 108212963.06 109623190.33 106506933.57 105699507.65 
107617978.53 240166037.39 120708964.99 118207553.77 112680600.35 114977029.58 136706417.75 101211373.58 95719480.757 
118331528.17 210081166.68 205242650.56 212273221.45 217135486.79 103977604.76 103160896.93 104851306.83 211970419.05 
202706361.62 104115605.86 104974272.25 75227729.627 183758230.65 175479324.06 133404013.74 132313507.11 132174587.83 
134661641.14 133417176.79 134812347.67 239969829.43 239905621.96 239971184.04 164758537.23 148170353.18 154107694.88 
106680643.88 106642567.35 123268892.89 169603367.67 171299870.69 197197226.27 193503514.11 239980588.52 240069963.39 
239876868.36 121360365.38 121148799.32 121140586.33 115119927.31 113262367.75 139309481.74 122587938.07 123689931.56 
193469665.89 200872207.37 152667731.42 153446247.68 239779901.7 108779495.35 109869395.45 110570979.51 105006623.95 
99128269.469 93554217.706 99789649.034 116613642.46 146296248.31 240541238.22 116220723.47 106361873.31 105894379.85 
110998277.52 130544320.43 130616278.78 129464098.37 129570453.08 132826618.82 105357045.94 105241946.95 105299470.29 
239767525.78 240215518.71 240252729.65 239741930.8 128421852.2 239787142.88 104506560.92 143536692.76 150550825.51 
152043376.72 144988557.14 97695299.28 104910612.46 97686316.975 239736631.31 241411361.37 162660128.05 115530818.19 
152951249.91 158042384.31 157922972.05 91993822.635 131487112.42 125532671.15 127413722.31 195260581.98 175136227.06 
146606449.5 136462862.25 135401391.45 183167125.73 115659780.41 101778433.85 102165265.94 198262215.09 206154577.73 
157869608.58 213759327.94 233384472.34 93350553.802 93413662.994 107161853.31 119035542.18 91354312.694 130968384.73 
123862718.35 120602538 114002315.18 120426194.88 111458467.81 156007323.08 154978137.75 148195091.98 120798861.4 
163275574.11 114127776.11 145424713.53 126916080.6 33958949.281 45479550.213 218020019.32 86788234.563 88684056.546 
90434400.373 140888297.83 258600311.36 166250225.59 188631629.88 119032410.08 152240668.18 135515624.28 127181319.49 
131552362.14 124637963.69 239683417.66 240062481.87 239759531.2 150532013.48 78095775.26 187839798.6 103247206.36 
119868818.5 120295289.45 121949176.36 121429162.87 89490326.852 93473667.12 107547015.86 111153400.98 147886973.2 
161705707.26 147815567.25 239957442.1 120614315.99 160694978.34 187515312.09 166399366.53 123879712.8 151759991.1 
122703462.13 85621525.696 141921358.06 131382189.77 174076184.44 138313970.33 76238211.846 205225355.23 197910512.19 
187884425.77 195526018.51 175171405.34 112804931.35 130851417.39 135170874.07 130707573.36 240340166.56 107184982 
117236286.11 107183201.6 199209829.52 118716619.17 25487942.3 24689310.948 23755590.839 224597909.82 230078278.54 
222575627.34 99420553.853 96759841.881 70623441.198 83510619.13 157344150.84 141053785.14 182873543.51 88772045.28 
137825310.41 149510412.89 144805809.3 133487522.08 158602828.19 145759887.48 81084623.327 125848085.61 125316039.85 
117648739.33 113986612.86 234973453.36 212337406.36 93323903.187 90516682.158 95765231.773 93075951.009 93098860.731 
92033382.959 46649133.106 37018339.724 135984514.02 129746699.35 142084162.38 233562746.16 216019912.83 238285778.57 
110759101.24 139614030.31 107408881.34 94337966.125 123604774.48 200920726.35 107225094.03 102026704.66 107143202.74 
201257619.68 178014729.09 170194451.81 240638427.31 145755728.81 185128915.04 109944295.97 150692852.54 164084427.65 
159641008.7 163454864.62 158428929.39 152035645.47 114482951.07 112483753.36 112043352.11 108414636.08 96250927.972 
239527891.88 189461645.74 75240197.133 92106054.72 86940224.611 99398773.256 104297129 105213155.56 82301493.065 
81340915.757 86498292.05 36590806.185 108053995.92 137450453.35 142492963.44 138256229.05 138366663.76 133506949.35 
239643195.06 239807942.59 240717207.59 228037104.67 231629154.82 86805443.5 102579621.4 98770242.461 128080444.73 
104544255.38 106072975.45 133693224.3 132319231.04 132192560.2 207085696.77 103872435.97 188739752.56 87246401.558 
123570076.64 140899844.82 136139480.83 239934874.48 123433626.97 193254055.29 254421554.28 246461851.44 155165388.35 
144905521.38 163489304.98 106761734.72 106223700.16 106324157.02 133850964.22 39973157.105 216075774.42 85736761.891 
87364617.972 123842685.98 90503908.63 86821710.267 240413531.99 240209140.99 239982151.28 240283519.15 240246785.15 
161523888.82 113998850.69 167320850.32 98497837.702 98540354.26 96160255.356 239779073.5 239694389.87 239750883.88 
239946707.39 239949982.7 239969198.14 240350894.37 239499482.53 238240316.35 179864256.63 102156654.67 116183954.85 
176777842.94 136277427.6 132283686.21 135417158.49 132466457.5 240014861.07 239894278.59 240129164.49 203371426.08 
88441399.284 91626667.705 44253645.512 218529814.47 220212972.27 222075297.46 227195858.28 224071260.29 137700246.56 
73282895.804 59417530.944 156788755.69 105011710.84 105560522.75 218862449.36 217022967.01 154897360.28 41882058.25 
154931783.31 181775778.63 214281453.41 139328433.05 139204518.98 119679630.46 119806270.9 31083758.814 101964133.26 
94871504.059 93282090.479 240114016.26 209173716.11 180743946.94 235039879.49 58473259.132 56955429.639 66764168.172 
119618794.25 169335996.81 165700604.47 175875353.57 128808497.88 128870458.97 129161372.91 161380768.89 240184490.36 
239863524.51 239850007.81 239879395.08 36882018.685 88414138.951 58990891.669 37485373.415 111446129.22 102014838.03 
99032581.428 124479037.04 113525162.69 116865254.35 240016610.22 239753745.3 233915531.3 80018998.124 77819926.377 
76951451.18 214440732.36 211480826.6 114738799.51 197519111.69 248220769.81 230759013.46 127183228.85 99111544.432 
99142871.998 92388675.975 174411227.25 165168450.43 167175588.56 239835909.2 105073072.2 106051183.81 173396380.52 
83095173.277 107697896.38 121048414.52 181841230.24 106027026.44 33631469.638 249870789.72 238545420.36 240617610.5 
240327078.56 32765641.447 23859786.26 232567343.4 239188937.12 184673674.17 213580272.42 248547420.11 250275368.02 
224545965.59 94617846.705 94659106.512 240086281.12 239876942.73 239896154.17 240140268.03 239878911.62 240230320.93 
240901230.96 93299793.23 125791321.02 239877930.53 239993147.05 239962739.59 30216770.19 239951814.8 240175216.11 
126843988.14 111513899.37 239115095.81 126336679.77 129648689.81 123770449.26 123755137.69 121601564.62 158110698.33 
144979621.3 128110661 128938719.23 226887529.55 126428151.13 238369456.96 237229854.14 239574349.83 121099627.63 
229093459.31 75577829.581 63827554.046 59730523.144 104525214.63 103720754.37 239951705.29 239739208.32 96698262.23 
96727149.642 239105679.66 67995668.218 243945128.9 131193684.86 137614381.29 178405317.98 89926791.912 156072122.37 
240152686.53 240112131.33 77927589.151 106044531.13 225479694.71 240175928 135220956.23 170381886.34 86141887.055 
226696323.1 226804032.29 215053888.64 222633867.7 240728511.47 238572191.85 231703936.56 86100023.512 86742041.82 
91601052.18 69709713.701 240391754.09 239921759.21 85201631.388 120321288.52 24791596.312 82363614.595 239318322.64 
124972014.29 167524210.59 238303465.26 236757234.79 239607306.3 82384846.184 79575822.401 102072224.66 219919677.82 
89962203.18 239700047.26 239674761.08 91567741.095 121430419.12 240018057.26 174098914.91 172256175.72 224421462.6 
138323729.26 26851991.37 163601773.38 170505688.76 239669744.2 43787347.171 117536797.88 164948784.11 129738700.99 
89929473.891 135904745.52 136051309.75 122737581.13 86221773.287 227372036.79 134141034.52 134267341.68 102834434.23 
119310345.39 118626830.26 226139048.46 239937848.24 196689063.18 129817042.71 235773244.76 231866174.94 231662871.03 
130651651.88 130807992.33 81979304.322 105300513.23 120910474.05 129463212.57 129546455.57 229665888.96 119023842.36 
127196255.39 98601908.559 117304173.65 114681009.97 136703452.23 145143434.12 87635847.267 104390260.3 
