# vtk DataFile Version 4.1
vtk output
ASCII
DATASET UNSTRUCTURED_GRID
POINTS 1886 float
0 0 10 0 0 0 0 10 10 
0 10 0 10 0 10 10 0 0 
10 10 10 10 10 0 30 0 10 
30 0 0 30 10 10 30 10 0 
10 0 20 10 10 20 30 0 20 
30 10 20 0 0 3.33333 0 0 6.66667 
0 0 1.66667 0 0 5 0 0 8.33333 
0 3.33333 10 0 6.66667 10 0 1.66667 10 
0 5 10 0 8.33333 10 0 10 3.33333 
0 10 6.66667 0 10 1.66667 0 10 5 
0 10 8.33333 0 3.33333 0 0 6.66667 0 
0 1.66667 0 0 5 0 0 8.33333 0 
10 0 3.33333 10 0 6.66667 10 0 1.66667 
10 0 5 10 0 8.33333 10 3.33333 10 
10 6.66667 10 10 1.66667 10 10 5 10 
10 8.33333 10 10 10 3.33333 10 10 6.66667 
10 10 1.66667 10 10 5 10 10 8.33333 
10 3.33333 0 10 6.66667 0 10 1.66667 0 
10 5 0 10 8.33333 0 3.33333 0 0 
6.66667 0 0 1.66667 0 0 5 0 0 
8.33333 0 0 3.33333 0 10 6.66667 0 10 
1.66667 0 10 5 0 10 8.33333 0 10 
3.33333 10 0 6.66667 10 0 1.66667 10 0 
5 10 0 8.33333 10 0 3.33333 10 10 
6.66667 10 10 1.66667 10 10 5 10 10 
8.33333 10 10 30 0 3.33333 30 0 6.66667 
30 0 1.66667 30 0 5 30 0 8.33333 
30 3.33333 10 30 6.66667 10 30 1.66667 10 
30 5 10 30 8.33333 10 30 10 3.33333 
30 10 6.66667 30 10 1.66667 30 10 5 
30 10 8.33333 30 3.33333 0 30 6.66667 0 
30 1.66667 0 30 5 0 30 8.33333 0 
13.3333 0 0 16.6667 0 0 20 0 0 
23.3333 0 0 26.6667 0 0 11.6667 0 0 
15 0 0 18.3333 0 0 21.6667 0 0 
25 0 0 28.3333 0 0 13.3333 0 10 
16.6667 0 10 20 0 10 23.3333 0 10 
26.6667 0 10 11.6667 0 10 15 0 10 
18.3333 0 10 21.6667 0 10 25 0 10 
28.3333 0 10 13.3333 10 0 16.6667 10 0 
20 10 0 23.3333 10 0 26.6667 10 0 
11.6667 10 0 15 10 0 18.3333 10 0 
21.6667 10 0 25 10 0 28.3333 10 0 
13.3333 10 10 16.6667 10 10 20 10 10 
23.3333 10 10 26.6667 10 10 11.6667 10 10 
15 10 10 18.3333 10 10 21.6667 10 10 
25 10 10 28.3333 10 10 10 0 13.3333 
10 0 16.6667 10 0 11.6667 10 0 15 
10 0 18.3333 10 3.33333 20 10 6.66667 20 
10 1.66667 20 10 5 20 10 8.33333 20 
10 10 13.3333 10 10 16.6667 10 10 11.6667 
10 10 15 10 10 18.3333 30 0 13.3333 
30 0 16.6667 30 0 11.6667 30 0 15 
30 0 18.3333 30 3.33333 20 30 6.66667 20 
30 1.66667 20 30 5 20 30 8.33333 20 
30 10 13.3333 30 10 16.6667 30 10 11.6667 
30 10 15 30 10 18.3333 13.3333 0 20 
16.6667 0 20 20 0 20 23.3333 0 20 
26.6667 0 20 11.6667 0 20 15 0 20 
18.3333 0 20 21.6667 0 20 25 0 20 
28.3333 0 20 13.3333 10 20 16.6667 10 20 
20 10 20 23.3333 10 20 26.6667 10 20 
11.6667 10 20 15 10 20 18.3333 10 20 
21.6667 10 20 25 10 20 28.3333 10 20 
0 5 5 0 2.81079 2.81079 0 2.70914 7.29086 
0 7.18921 7.18921 0 7.29086 2.70914 0 5 8.27381 
0 8.27381 5 0 5 1.72619 0 1.72619 5 
0 3.02124 8.64543 0 1.35457 8.64543 0 1.35457 6.97876 
0 1.40539 3.07206 0 1.40539 1.40539 0 3.07206 1.40539 
0 8.59461 8.59461 0 6.92794 8.59461 0 8.59461 6.92794 
0 6.97876 1.35457 0 8.64543 1.35457 0 8.64543 3.02124 
0 5.83333 9.1369 0 4.16667 9.1369 0 3.85457 7.78233 
0 6.09461 7.73151 0 0.863095 5.83333 0 0.863095 4.16667 
0 2.26849 3.90539 0 2.21767 6.14543 0 4.16667 0.863095 
0 5.83333 0.863095 0 3.90539 2.26849 0 6.14543 2.21767 
0 9.1369 4.16667 0 9.1369 5.83333 0 7.78233 3.85457 
0 7.73151 6.09461 0 3.90539 3.90539 0 5 3.3631 
0 3.3631 5 0 3.85457 6.14543 0 5 6.6369 
0 6.09461 6.09461 0 6.6369 5 0 6.14543 3.85457 
10 5 5 10 2.81079 2.81079 10 7.18921 7.18921 
10 2.70914 7.29086 10 7.29086 2.70914 10 5 8.27381 
10 8.27381 5 10 5 1.72619 10 1.72619 5 
10 1.35457 6.97876 10 1.35457 8.64543 10 3.02124 8.64543 
10 1.40539 1.40539 10 1.40539 3.07206 10 3.07206 1.40539 
10 8.59461 8.59461 10 8.59461 6.92794 10 6.92794 8.59461 
10 8.64543 3.02124 10 8.64543 1.35457 10 6.97876 1.35457 
10 9.1369 5.83333 10 9.1369 4.16667 10 7.78233 3.85457 
10 7.73151 6.09461 10 0.863095 4.16667 10 0.863095 5.83333 
10 2.26849 3.90539 10 2.21767 6.14543 10 4.16667 9.1369 
10 5.83333 9.1369 10 3.85457 7.78233 10 6.09461 7.73151 
10 5.83333 0.863095 10 4.16667 0.863095 10 3.90539 2.26849 
10 6.14543 2.21767 10 5 3.3631 10 3.90539 3.90539 
10 3.3631 5 10 5 6.6369 10 6.09461 6.09461 
10 6.6369 5 10 3.85457 6.14543 10 6.14543 3.85457 
5 0 5 2.81079 0 2.81079 7.18921 0 7.18921 
7.29086 0 2.70914 2.70914 0 7.29086 8.27381 0 5 
5 0 8.27381 1.72619 0 5 5 0 1.72619 
1.35457 0 8.64543 3.02124 0 8.64543 1.35457 0 6.97876 
1.40539 0 1.40539 1.40539 0 3.07206 3.07206 0 1.40539 
6.92794 0 8.59461 8.59461 0 8.59461 8.59461 0 6.92794 
8.64543 0 3.02124 8.64543 0 1.35457 6.97876 0 1.35457 
4.16667 0 9.1369 5.83333 0 9.1369 3.85457 0 7.78233 
6.09461 0 7.73151 0.863095 0 4.16667 0.863095 0 5.83333 
2.26849 0 3.90539 2.21767 0 6.14543 9.1369 0 5.83333 
9.1369 0 4.16667 7.78233 0 3.85457 7.73151 0 6.09461 
5.83333 0 0.863095 4.16667 0 0.863095 3.90539 0 2.26849 
6.14543 0 2.21767 3.90539 0 3.90539 3.3631 0 5 
5 0 3.3631 6.09461 0 6.09461 6.6369 0 5 
5 0 6.6369 6.14543 0 3.85457 3.85457 0 6.14543 
5 10 5 2.81079 10 2.81079 7.29086 10 2.70914 
7.18921 10 7.18921 2.70914 10 7.29086 8.27381 10 5 
5 10 8.27381 1.72619 10 5 5 10 1.72619 
3.02124 10 8.64543 1.35457 10 8.64543 1.35457 10 6.97876 
1.40539 10 1.40539 3.07206 10 1.40539 1.40539 10 3.07206 
8.59461 10 6.92794 8.59461 10 8.59461 6.92794 10 8.59461 
8.64543 10 1.35457 8.64543 10 3.02124 6.97876 10 1.35457 
9.1369 10 4.16667 9.1369 10 5.83333 7.78233 10 3.85457 
7.73151 10 6.09461 5.83333 10 9.1369 4.16667 10 9.1369 
3.85457 10 7.78233 6.09461 10 7.73151 4.16667 10 0.863095 
5.83333 10 0.863095 3.90539 10 2.26849 6.14543 10 2.21767 
0.863095 10 5.83333 0.863095 10 4.16667 2.26849 10 3.90539 
2.21767 10 6.14543 3.3631 10 5 3.90539 10 3.90539 
5 10 3.3631 6.6369 10 5 6.14543 10 3.85457 
6.09461 10 6.09461 5 10 6.6369 3.85457 10 6.14543 
5 5 0 2.81079 2.81079 0 2.70914 7.29086 0 
7.18921 7.18921 0 7.29086 2.70914 0 5 8.27381 0 
8.27381 5 0 5 1.72619 0 1.72619 5 0 
1.40539 3.07206 0 1.40539 1.40539 0 3.07206 1.40539 0 
1.35457 8.64543 0 1.35457 6.97876 0 3.02124 8.64543 0 
8.64543 1.35457 0 8.64543 3.02124 0 6.97876 1.35457 0 
8.59461 8.59461 0 6.92794 8.59461 0 8.59461 6.92794 0 
0.863095 5.83333 0 0.863095 4.16667 0 2.26849 3.90539 0 
2.21767 6.14543 0 5.83333 9.1369 0 4.16667 9.1369 0 
3.85457 7.78233 0 6.09461 7.73151 0 9.1369 4.16667 0 
9.1369 5.83333 0 7.78233 3.85457 0 7.73151 6.09461 0 
4.16667 0.863095 0 5.83333 0.863095 0 3.90539 2.26849 0 
6.14543 2.21767 0 3.90539 3.90539 0 5 3.3631 0 
3.3631 5 0 3.85457 6.14543 0 5 6.6369 0 
6.09461 6.09461 0 6.6369 5 0 6.14543 3.85457 0 
5 5 10 2.81079 2.81079 10 2.70914 7.29086 10 
7.18921 7.18921 10 7.29086 2.70914 10 5 8.27381 10 
8.27381 5 10 5 1.72619 10 1.72619 5 10 
3.07206 1.40539 10 1.40539 1.40539 10 1.40539 3.07206 10 
1.35457 6.97876 10 1.35457 8.64543 10 3.02124 8.64543 10 
8.64543 1.35457 10 6.97876 1.35457 10 8.64543 3.02124 10 
8.59461 8.59461 10 8.59461 6.92794 10 6.92794 8.59461 10 
5.83333 0.863095 10 4.16667 0.863095 10 3.90539 2.26849 10 
6.14543 2.21767 10 0.863095 4.16667 10 0.863095 5.83333 10 
2.26849 3.90539 10 2.21767 6.14543 10 9.1369 5.83333 10 
9.1369 4.16667 10 7.78233 3.85457 10 7.73151 6.09461 10 
4.16667 9.1369 10 5.83333 9.1369 10 3.85457 7.78233 10 
6.09461 7.73151 10 5 3.3631 10 3.90539 3.90539 10 
3.3631 5 10 5 6.6369 10 3.85457 6.14543 10 
6.09461 6.09461 10 6.6369 5 10 6.14543 3.85457 10 
30 5 5 30 2.81079 2.81079 30 2.70914 7.29086 
30 7.18921 7.18921 30 7.29086 2.70914 30 5 8.27381 
30 8.27381 5 30 5 1.72619 30 1.72619 5 
30 1.35457 6.97876 30 1.35457 8.64543 30 3.02124 8.64543 
30 1.40539 1.40539 30 1.40539 3.07206 30 3.07206 1.40539 
30 6.92794 8.59461 30 8.59461 8.59461 30 8.59461 6.92794 
30 8.64543 3.02124 30 8.64543 1.35457 30 6.97876 1.35457 
30 0.863095 4.16667 30 0.863095 5.83333 30 2.26849 3.90539 
30 2.21767 6.14543 30 4.16667 9.1369 30 5.83333 9.1369 
30 3.85457 7.78233 30 6.09461 7.73151 30 9.1369 5.83333 
30 9.1369 4.16667 30 7.78233 3.85457 30 7.73151 6.09461 
30 5.83333 0.863095 30 4.16667 0.863095 30 3.90539 2.26849 
30 6.14543 2.21767 30 5 3.3631 30 3.90539 3.90539 
30 3.3631 5 30 5 6.6369 30 3.85457 6.14543 
30 6.09461 6.09461 30 6.6369 5 30 6.14543 3.85457 
14.8976 0 5 25.1024 0 5 20 0 5 
22.5 0 3.05556 17.6358 0 3.06188 17.6041 0 6.94025 
22.5 0 6.94444 27.0833 0 7.08333 27.0833 0 2.91667 
12.9167 0 7.08333 12.9167 0 2.91667 20.0419 0 2.69954 
20.026 0 7.22117 15.1621 0 2.11516 24.8517 0 7.88549 
24.8517 0 2.11451 15.1589 0 7.88506 28.0595 0 5 
11.8355 0 5 11.4583 0 6.875 11.4583 0 8.54167 
13.125 0 8.54167 11.4583 0 1.45833 11.4583 0 3.125 
13.125 0 1.45833 28.5417 0 8.54167 28.5417 0 6.875 
26.875 0 8.54167 28.5417 0 3.125 28.5417 0 1.45833 
26.875 0 1.45833 10.9178 0 4.16667 10.9178 0 5.83333 
12.3761 0 3.95833 12.3761 0 6.04167 29.0298 0 5.83333 
29.0298 0 4.16667 27.5714 0 3.95833 27.5714 0 6.04167 
15.9144 0 1.05758 14.2477 0 1.05758 14.0394 0 2.51591 
18.8179 0 1.53094 17.1512 0 1.53094 16.399 0 2.58852 
22.9167 0 1.52778 21.25 0 1.52778 21.2709 0 2.87755 
20.0209 0 1.34977 18.8389 0 2.88071 25.7592 0 1.05726 
24.0925 0 1.05726 23.6759 0 2.58503 25.9675 0 2.51559 
14.2461 0 8.94253 15.9128 0 8.94253 14.0378 0 7.4842 
17.1354 0 8.47013 18.802 0 8.47013 16.3815 0 7.41266 
21.25 0 8.47222 22.9167 0 8.47222 18.815 0 7.08071 
20.013 0 8.61059 21.263 0 7.08281 24.0925 0 8.94274 
25.7592 0 8.94274 23.6759 0 7.41497 25.9675 0 7.48441 
16.2667 0 4.03094 17.6199 0 5.00107 16.2509 0 5.97013 
15.0299 0 3.55758 15.0283 0 6.44253 13.9072 0 6.04167 
13.3666 0 5 13.9072 0 3.95833 23.8012 0 4.02778 
23.8012 0 5.97222 22.5 0 5 24.977 0 3.55726 
24.977 0 6.44274 26.0928 0 6.04167 26.5809 0 5 
26.0928 0 3.95833 21.25 0 4.02778 21.25 0 5.97222 
20.0209 0 3.84977 18.8179 0 4.03094 18.802 0 5.97013 
20.013 0 6.11059 21.1317 10 4.96528 15 10 5 
26.5436 10 5 18.3333 10 6.66667 18.2687 10 3.05659 
24.3 10 3.14663 24.3666 10 6.87233 12.9167 10 7.08333 
12.9167 10 2.91667 27.399 10 2.54842 27.4025 10 7.45257 
21.3328 10 7.66697 21.3558 10 2.27216 15.5208 10 7.60417 
15.2371 10 2.19465 12.1667 10 5 11.4583 10 8.54167 
11.4583 10 6.875 13.125 10 8.54167 11.4583 10 3.125 
11.4583 10 1.45833 13.125 10 1.45833 28.7012 10 7.05962 
28.7012 10 8.72628 27.0346 10 8.72628 28.6995 10 1.27421 
28.6995 10 2.94088 27.0328 10 1.27421 11.0833 10 5.83333 
11.0833 10 4.16667 12.5417 10 3.95833 12.5417 10 6.04167 
28.2718 10 4.16667 28.2718 10 5.83333 26.9713 10 3.77421 
26.973 10 6.22628 14.2852 10 1.09733 15.9519 10 1.09733 
14.0769 10 2.55566 17.4677 10 1.52829 19.1343 10 1.52829 
16.7529 10 2.62562 20.6779 10 1.13608 22.3445 10 1.13608 
19.8122 10 2.66438 23.8166 10 1.57332 25.4833 10 1.57332 
22.8279 10 2.7094 25.8495 10 2.84753 16.0938 10 8.80208 
14.4271 10 8.80208 14.2188 10 7.34375 19.1667 10 8.33333 
17.5 10 8.33333 16.9271 10 7.13542 22.333 10 8.83349 
20.6664 10 8.83349 19.833 10 7.16682 25.5166 10 8.43617 
23.85 10 8.43617 22.8497 10 7.26965 25.8845 10 7.16245 
19.7002 10 4.01093 18.301 10 4.86163 19.7325 10 5.81597 
21.2322 10 6.31612 21.2437 10 3.61872 22.7491 10 5.91881 
24.3333 10 5.00948 22.7158 10 4.05595 16.6343 10 4.02829 
16.6667 10 5.83333 15.2604 10 6.30208 15.1185 10 3.59733 
13.9583 10 6.04167 13.5833 10 5 13.9583 10 3.95833 
25.4551 10 5.93617 25.4218 10 4.07332 25.1024 5 0 
14.8976 5 0 20 5 0 17.6358 3.06188 0 
17.5 6.94444 0 22.5 3.05556 0 22.3642 6.93812 0 
27.0833 2.91667 0 12.9167 7.08333 0 27.0833 7.08333 0 
12.9167 2.91667 0 20.0419 2.69954 0 19.9581 7.30046 0 
15.1621 2.11516 0 15.1483 7.88549 0 24.8379 7.88484 0 
24.8517 2.11451 0 27.9738 5 0 11.8793 5 0 
11.4583 3.125 0 11.4583 1.45833 0 13.125 1.45833 0 
11.4583 8.54167 0 11.4583 6.875 0 13.125 8.54167 0 
28.5417 1.45833 0 28.5417 3.125 0 26.875 1.45833 0 
28.5417 6.875 0 28.5417 8.54167 0 26.875 8.54167 0 
10.9396 5.83333 0 10.9396 4.16667 0 12.398 3.95833 0 
12.398 6.04167 0 28.9869 4.16667 0 28.9869 5.83333 0 
27.5286 3.95833 0 27.5286 6.04167 0 14.2477 1.05758 0 
15.9144 1.05758 0 14.0394 2.51591 0 17.1512 1.53094 0 
18.8179 1.53094 0 16.399 2.58852 0 21.25 1.52778 0 
22.9167 1.52778 0 18.8389 2.88071 0 20.0209 1.34977 0 
21.2709 2.87755 0 24.0925 1.05726 0 25.7592 1.05726 0 
23.6759 2.58503 0 25.9675 2.51559 0 15.9075 8.94274 0 
14.2408 8.94274 0 14.0325 7.48441 0 18.75 8.47222 0 
17.0833 8.47222 0 16.3241 7.41497 0 22.8488 8.46906 0 
21.1821 8.46906 0 19.9791 8.65023 0 18.7291 7.12245 0 
21.1611 7.11929 0 25.7523 8.94242 0 24.0856 8.94242 0 
23.601 7.41148 0 25.9606 7.48409 0 23.8012 4.02778 0 
22.4321 4.99684 0 23.7333 5.96906 0 24.977 3.55726 0 
24.9701 6.44242 0 26.0928 3.95833 0 26.5381 5 0 
26.0928 6.04167 0 16.2667 4.03094 0 16.1988 5.97222 0 
17.5679 5.00316 0 15.0299 3.55758 0 15.023 6.44274 0 
13.9072 6.04167 0 13.3885 5 0 13.9072 3.95833 0 
18.8179 4.03094 0 18.75 5.97222 0 20.0209 3.84977 0 
19.9791 6.15023 0 21.25 4.02778 0 21.1821 5.96906 0 
21.1317 4.96528 10 15 5 10 26.5436 5 10 
18.3333 6.66667 10 18.2687 3.05659 10 24.3 3.14663 10 
24.3666 6.87233 10 12.9167 7.08333 10 12.9167 2.91667 10 
27.399 2.54842 10 27.4025 7.45257 10 21.3558 2.27216 10 
21.3328 7.66697 10 15.5208 7.60417 10 15.2371 2.19465 10 
12.1667 5 10 11.4583 1.45833 10 11.4583 3.125 10 
13.125 1.45833 10 11.4583 6.875 10 11.4583 8.54167 10 
13.125 8.54167 10 28.6995 2.94088 10 28.6995 1.27421 10 
27.0328 1.27421 10 28.7012 8.72628 10 28.7012 7.05962 10 
27.0346 8.72628 10 11.0833 4.16667 10 11.0833 5.83333 10 
12.5417 3.95833 10 12.5417 6.04167 10 28.2718 5.83333 10 
28.2718 4.16667 10 26.9713 3.77421 10 26.973 6.22628 10 
15.9519 1.09733 10 14.2852 1.09733 10 14.0769 2.55566 10 
19.1343 1.52829 10 17.4677 1.52829 10 16.7529 2.62562 10 
22.3445 1.13608 10 20.6779 1.13608 10 19.8122 2.66438 10 
25.4833 1.57332 10 23.8166 1.57332 10 22.8279 2.7094 10 
25.8495 2.84753 10 14.4271 8.80208 10 16.0938 8.80208 10 
14.2188 7.34375 10 17.5 8.33333 10 19.1667 8.33333 10 
16.9271 7.13542 10 20.6664 8.83349 10 22.333 8.83349 10 
19.833 7.16682 10 23.85 8.43617 10 25.5166 8.43617 10 
22.8497 7.26965 10 25.8845 7.16245 10 18.301 4.86163 10 
19.7002 4.01093 10 19.7325 5.81597 10 21.2322 6.31612 10 
21.2437 3.61872 10 24.3333 5.00948 10 22.7491 5.91881 10 
22.7158 4.05595 10 16.6343 4.02829 10 16.6667 5.83333 10 
15.2604 6.30208 10 15.1185 3.59733 10 13.9583 6.04167 10 
13.5833 5 10 13.9583 3.95833 10 25.4551 5.93617 10 
25.4218 4.07332 10 10 5 15 10 7.23156 17.2316 
10 2.91667 17.0833 10 7.23156 12.7684 10 2.76844 12.7684 
10 1.72619 15 10 8.17458 15 10 5 18.2738 
10 5 11.8651 10 1.45833 18.5417 10 1.45833 16.875 
10 3.125 18.5417 10 1.38422 13.0509 10 1.38422 11.3842 
10 3.05088 11.3842 10 8.61578 18.6158 10 6.94912 18.6158 
10 8.61578 16.9491 10 8.61578 11.3842 10 8.61578 13.0509 
10 6.94912 11.3842 10 0.863095 15.8333 10 0.863095 14.1667 
10 2.24731 13.8842 10 2.32143 16.0417 10 5.83333 19.1369 
10 4.16667 19.1369 10 3.95833 17.6786 10 6.11578 17.7527 
10 9.08729 14.1667 10 9.08729 15.8333 10 7.70307 13.8842 
10 7.70307 16.1158 10 4.16667 10.9326 10 5.83333 10.9326 
10 3.88422 12.3168 10 6.11578 12.3168 10 6.11578 16.1158 
10 6.58729 15 10 5 16.6369 10 3.95833 16.0417 
10 3.3631 15 10 6.11578 13.8842 10 5 13.4326 
10 3.88422 13.8842 30 5 15 30 7.23156 17.2316 
30 2.91667 17.0833 30 7.23156 12.7684 30 2.76844 12.7684 
30 1.72619 15 30 8.17458 15 30 5 18.2738 
30 5 11.8651 30 1.45833 16.875 30 1.45833 18.5417 
30 3.125 18.5417 30 1.38422 11.3842 30 1.38422 13.0509 
30 3.05088 11.3842 30 6.94912 18.6158 30 8.61578 18.6158 
30 8.61578 16.9491 30 8.61578 13.0509 30 8.61578 11.3842 
30 6.94912 11.3842 30 0.863095 14.1667 30 0.863095 15.8333 
30 2.24731 13.8842 30 2.32143 16.0417 30 4.16667 19.1369 
30 5.83333 19.1369 30 3.95833 17.6786 30 6.11578 17.7527 
30 9.08729 15.8333 30 9.08729 14.1667 30 7.70307 13.8842 
30 7.70307 16.1158 30 5.83333 10.9326 30 4.16667 10.9326 
30 3.88422 12.3168 30 6.11578 12.3168 30 6.58729 15 
30 6.11578 16.1158 30 5 16.6369 30 3.3631 15 
30 3.95833 16.0417 30 6.11578 13.8842 30 5 13.4326 
30 3.88422 13.8842 15 0 15 21.1317 0 15.0347 
26.5436 0 15 18.3333 0 13.3333 18.2687 0 16.9434 
24.3 0 13.1566 24.2142 0 16.9328 12.9167 0 17.0833 
12.9167 0 12.9167 27.399 0 12.5489 27.3945 0 17.4557 
21.4197 0 12.3049 21.3106 0 17.7085 15.5208 0 12.3958 
15.2371 0 17.8053 11.8408 0 15 11.4583 0 16.875 
11.4583 0 18.5417 13.125 0 18.5417 11.4583 0 11.4583 
11.4583 0 13.125 13.125 0 11.4583 28.6973 0 18.7279 
28.6973 0 17.0612 27.0306 0 18.7279 28.6995 0 12.9411 
28.6995 0 11.2745 27.0328 0 11.2745 10.9204 0 14.1667 
10.9204 0 15.8333 12.3788 0 13.9583 12.3788 0 16.0417 
28.2718 0 15.8333 28.2718 0 14.1667 26.9713 0 13.7745 
26.969 0 16.2279 16.0938 0 11.1979 14.4271 0 11.1979 
14.2188 0 12.6562 19.1667 0 11.6667 17.5 0 11.6667 
16.9271 0 12.8646 22.3765 0 11.1525 20.7098 0 11.1525 
19.8765 0 12.8191 25.4833 0 11.5783 23.8166 0 11.5783 
22.8598 0 12.7307 25.8495 0 12.8527 14.2852 0 18.9027 
15.9519 0 18.9027 14.0769 0 17.4443 17.4677 0 18.4717 
19.1343 0 18.4717 16.7529 0 17.3744 20.6553 0 18.8542 
22.322 0 18.8542 19.7897 0 17.3259 23.7738 0 18.4664 
25.4405 0 18.4664 22.7624 0 17.3206 25.8044 0 17.1942 
16.6667 0 14.1667 18.301 0 15.1384 16.6343 0 15.9717 
15.2604 0 13.6979 15.1185 0 16.4027 13.9583 0 16.0417 
13.4204 0 15 13.9583 0 13.9583 19.7325 0 14.184 
19.7002 0 15.9891 21.2757 0 13.6698 21.2211 0 16.3716 
22.7158 0 14.0956 24.2571 0 15.0447 22.673 0 15.9838 
25.4218 0 14.0783 25.3789 0 15.9664 15 10 15 
21.1317 10 15.0347 26.5436 10 15 18.3333 10 13.3333 
18.2687 10 16.9434 24.3 10 13.1566 24.2142 10 16.9328 
12.9167 10 17.0833 12.9167 10 12.9167 27.399 10 12.5489 
27.3945 10 17.4557 21.3106 10 17.7085 21.4197 10 12.3049 
15.5208 10 12.3958 15.2371 10 17.8053 11.8408 10 15 
11.4583 10 18.5417 11.4583 10 16.875 13.125 10 18.5417 
11.4583 10 13.125 11.4583 10 11.4583 13.125 10 11.4583 
28.6973 10 17.0612 28.6973 10 18.7279 27.0306 10 18.7279 
28.6995 10 11.2745 28.6995 10 12.9411 27.0328 10 11.2745 
10.9204 10 15.8333 10.9204 10 14.1667 12.3788 10 13.9583 
12.3788 10 16.0417 28.2718 10 14.1667 28.2718 10 15.8333 
26.9713 10 13.7745 26.969 10 16.2279 14.4271 10 11.1979 
16.0938 10 11.1979 14.2188 10 12.6562 17.5 10 11.6667 
19.1667 10 11.6667 16.9271 10 12.8646 20.7098 10 11.1525 
22.3765 10 11.1525 19.8765 10 12.8191 23.8166 10 11.5783 
25.4833 10 11.5783 22.8598 10 12.7307 25.8495 10 12.8527 
15.9519 10 18.9027 14.2852 10 18.9027 14.0769 10 17.4443 
19.1343 10 18.4717 17.4677 10 18.4717 16.7529 10 17.3744 
22.322 10 18.8542 20.6553 10 18.8542 19.7897 10 17.3259 
25.4405 10 18.4664 23.7738 10 18.4664 22.7624 10 17.3206 
25.8044 10 17.1942 16.6343 10 15.9717 18.301 10 15.1384 
16.6667 10 14.1667 15.2604 10 13.6979 15.1185 10 16.4027 
13.9583 10 16.0417 13.4204 10 15 13.9583 10 13.9583 
19.7002 10 15.9891 19.7325 10 14.184 21.2757 10 13.6698 
21.2211 10 16.3716 22.673 10 15.9838 24.2571 10 15.0447 
22.7158 10 14.0956 25.3789 10 15.9664 25.4218 10 14.0783 
21.1317 5.03472 10 18.3333 3.33333 10 18.2687 6.94341 10 
24.3 3.15655 10 24.2142 6.93278 10 27.399 2.54894 10 
27.3945 7.45571 10 21.4197 2.30492 10 21.3106 7.70846 10 
15.5208 2.39583 10 15.2371 7.80535 10 11.8408 5 10 
27.0328 1.27447 10 28.6995 1.27447 10 28.6995 2.94114 10 
28.6973 8.72786 10 27.0306 8.72786 10 28.6973 7.06119 10 
10.9204 5.83333 10 10.9204 4.16667 10 12.3788 3.95833 10 
12.3788 6.04167 10 14.4271 1.19792 10 16.0938 1.19792 10 
14.2188 2.65625 10 17.5 1.66667 10 19.1667 1.66667 10 
16.9271 2.86458 10 20.7098 1.15246 10 22.3765 1.15246 10 
19.8765 2.81913 10 23.8166 1.57828 10 25.4833 1.57828 10 
22.8598 2.73074 10 25.8495 2.85274 10 15.9519 8.90267 10 
14.2852 8.90267 10 14.0769 7.44434 10 19.1343 8.47171 10 
17.4677 8.47171 10 16.7529 7.37438 10 22.322 8.85423 10 
20.6553 8.85423 10 19.7897 7.32594 10 25.4405 8.46639 10 
23.7738 8.46639 10 22.7624 7.32062 10 25.8044 7.19425 10 
26.9713 3.77447 10 26.969 6.22786 10 19.7325 4.18403 10 
18.301 5.13837 10 19.7002 5.98907 10 21.2757 3.66982 10 
21.2211 6.37159 10 22.7158 4.09564 10 22.673 5.98375 10 
24.2571 5.04467 10 16.6667 4.16667 10 16.6343 5.97171 10 
15.2604 3.69792 10 15.1185 6.40267 10 13.4204 5 10 
25.4218 4.07828 10 25.3789 5.96639 10 21.1317 4.96528 20 
15 5 20 26.5436 5 20 18.3333 6.66667 20 
18.2687 3.05659 20 24.3 3.14663 20 24.3666 6.87233 20 
12.9167 7.08333 20 12.9167 2.91667 20 27.399 2.54842 20 
27.4025 7.45257 20 21.3558 2.27216 20 21.3328 7.66697 20 
15.5208 7.60417 20 15.2371 2.19465 20 12.1667 5 20 
11.4583 1.45833 20 11.4583 3.125 20 13.125 1.45833 20 
11.4583 6.875 20 11.4583 8.54167 20 13.125 8.54167 20 
28.6995 2.94088 20 28.6995 1.27421 20 27.0328 1.27421 20 
28.7012 8.72628 20 28.7012 7.05962 20 27.0346 8.72628 20 
11.0833 4.16667 20 11.0833 5.83333 20 12.5417 3.95833 20 
12.5417 6.04167 20 28.2718 5.83333 20 28.2718 4.16667 20 
26.9713 3.77421 20 26.973 6.22628 20 15.9519 1.09733 20 
14.2852 1.09733 20 14.0769 2.55566 20 19.1343 1.52829 20 
17.4677 1.52829 20 16.7529 2.62562 20 22.3445 1.13608 20 
20.6779 1.13608 20 19.8122 2.66438 20 25.4833 1.57332 20 
23.8166 1.57332 20 22.8279 2.7094 20 25.8495 2.84753 20 
14.4271 8.80208 20 16.0938 8.80208 20 14.2188 7.34375 20 
17.5 8.33333 20 19.1667 8.33333 20 16.9271 7.13542 20 
20.6664 8.83349 20 22.333 8.83349 20 19.833 7.16682 20 
23.85 8.43617 20 25.5166 8.43617 20 22.8497 7.26965 20 
25.8845 7.16245 20 18.301 4.86163 20 19.7002 4.01093 20 
19.7325 5.81597 20 21.2322 6.31612 20 21.2437 3.61872 20 
24.3333 5.00948 20 22.7491 5.91881 20 22.7158 4.05595 20 
16.6343 4.02829 20 16.6667 5.83333 20 15.2604 6.30208 20 
15.1185 3.59733 20 13.9583 6.04167 20 13.5833 5 20 
13.9583 3.95833 20 25.4551 5.93617 20 25.4218 4.07332 20 
5 5 5 9.1369 5 9.1369 9.1369 3.85457 8.64543 
6.6369 5 7.5 7.5 3.85457 6.14543 7.5 5 6.6369 
8.64543 9.1369 3.85457 9.1369 9.1369 5 6.6369 7.5 5 
7.5 6.6369 5 6.14543 7.5 3.85457 3.85457 9.1369 8.64543 
5 9.1369 9.1369 5 6.6369 7.5 5 7.5 6.6369 
3.85457 7.5 6.14543 0.863095 0.863095 5 1.35457 0.863095 6.14543 
3.85457 2.5 6.14543 2.5 3.3631 5 3.3631 2.5 5 
0.863095 6.14543 1.35457 0.863095 5 0.863095 3.3631 5 2.5 
2.5 5 3.3631 2.5 6.14543 3.85457 5 0.863095 0.863095 
6.14543 1.35457 0.863095 6.14543 3.85457 2.5 5 2.5 3.3631 
5 3.3631 2.5 9.1369 8.59461 6.09461 7.5 6.09461 6.09461 
6.09461 9.1369 8.59461 6.09461 7.5 6.09461 9.1369 6.09461 8.59461 
0.863095 6.09461 8.59461 0.863095 5 9.1369 2.5 5 6.6369 
3.3631 5 7.5 2.5 6.09461 6.09461 6.09461 0.863095 8.59461 
5 0.863095 9.1369 5 3.3631 7.5 5 2.5 6.6369 
6.09461 2.5 6.09461 0.863095 9.1369 5 1.40539 9.1369 3.90539 
3.90539 7.5 3.90539 2.5 6.6369 5 3.3631 7.5 5 
6.09461 8.59461 0.863095 5 9.1369 0.863095 5 6.6369 2.5 
5 7.5 3.3631 6.09461 6.09461 2.5 1.40539 3.90539 9.1369 
3.90539 3.90539 7.5 3.90539 1.40539 9.1369 3.90539 9.1369 1.40539 
0.863095 3.90539 1.40539 2.5 3.90539 3.90539 3.90539 1.40539 0.863095 
3.90539 3.90539 2.5 1.40539 0.863095 3.90539 3.90539 2.5 3.90539 
9.1369 1.40539 3.90539 9.1369 0.863095 5 7.5 3.3631 5 
6.6369 2.5 5 7.5 3.90539 3.90539 6.14543 2.5 3.85457 
5 2.5 5 5 5 2.5 6.6369 5 2.5 
2.5 5 5 5 7.5 5 2.5 3.85457 6.14543 
7.5 5 5 3.85457 6.14543 2.5 7.5 6.14543 3.85457 
3.85457 6.14543 7.5 5 5 7.5 6.14543 3.85457 7.5 
7.5 5 3.3631 8.64543 8.64543 2.70914 1.35457 1.35457 7.29086 
8.64543 2.70914 8.64543 2.70914 8.64543 8.64543 7.29086 1.35457 1.35457 
1.35457 7.29086 1.35457 7.24003 8.59461 1.35457 7.24003 1.35457 8.59461 
1.40539 8.64543 2.75997 1.35457 7.24003 8.59461 2.75997 8.64543 1.40539 
1.40539 2.75997 8.64543 8.64543 1.40539 2.75997 2.75997 1.40539 8.64543 
6.09461 6.09461 7.5 8.59461 8.59461 7.18921 7.18921 8.59461 8.59461 
8.59461 7.18921 8.59461 2.81079 1.40539 1.40539 1.40539 2.81079 1.40539 
1.40539 1.40539 2.81079 8.59461 1.35457 7.24003 8.59461 7.24003 1.35457 
1.35457 8.59461 7.24003 8.64543 2.75997 1.40539 9.1369 5 0.863095 
8.64543 3.85457 0.863095 9.1369 6.14543 1.35457 9.1369 1.35457 6.14543 
1.35457 9.1369 6.14543 18.056 4.96038 4.96038 24.8568 5.13925 5.13925 
14.0187 4.03775 4.03775 21.1823 3.48948 3.48948 21.3876 6.35631 6.35631 
15.1155 6.51602 6.51602 15.8231 6.78526 3.15053 15.8223 3.15309 6.78622 
20.0944 7.08154 3.34585 20.0899 3.35091 7.08716 12.0094 6.15578 4.51888 
13.0927 7.01888 4.51888 11.0833 9.1369 5 12.5577 7.39491 5.75801 
13.6411 8.25801 5.75801 14.5671 5.27689 5.27689 13.0927 4.51888 7.01888 
12.0094 4.51888 6.15578 11.0833 5 9.1369 13.6411 5.75801 8.25801 
12.5577 5.75801 7.39491 13.9949 8.39263 4.07526 14.9209 5.41151 3.59414 
15.4693 6.65064 4.83327 14.9205 3.59542 5.41199 13.9945 4.07654 8.39311 
15.4689 4.83455 6.65112 24.8517 1.05726 1.05726 25.9675 1.45833 1.05726 
25.9701 4.02796 2.56962 24.8542 2.56962 3.62688 24.8542 3.62688 2.56962 
23.017 1.74474 2.802 23.017 2.802 1.74474 23.0195 4.31436 4.31436 
11.0833 8.64543 3.85457 12.0094 5.66431 3.37345 11.0833 3.85457 8.64543 
12.0094 3.37345 5.66431 28.9869 6.14543 1.35457 28.9869 5 0.863095 
27.4284 5.06962 3.43272 26.4153 5.06962 2.56962 27.4284 6.21505 3.92419 
29.0298 0.863095 5 29.0298 1.35457 6.14543 27.4284 3.92419 6.21505 
26.4581 2.56962 5.06962 27.4284 3.43272 5.06962 12.9115 7.03806 2.92983 
12.9111 2.93111 7.03854 28.9869 3.90539 1.40539 27.4284 3.97502 3.97502 
12.0094 4.51888 4.51888 12.5577 5.75801 5.75801 15.1621 1.05758 1.05758 
16.399 1.53094 1.05758 14.5904 3.07646 2.01888 15.8273 3.54982 2.01888 
14.5904 2.01888 3.07646 26.1184 8.94242 1.27421 24.5689 8.94242 1.57332 
24.8473 6.51204 2.56962 24.5784 7.56962 4.14294 26.1279 7.56962 3.84383 
26.1254 1.27421 8.94274 24.5758 1.57332 8.94274 24.5784 4.14294 7.56962 
24.8542 2.56962 6.51237 26.1279 3.84383 7.56962 24.9796 2.56962 5.06962 
23.1423 1.74474 4.24474 24.9796 5.06962 2.56962 23.1423 4.24474 1.74474 
27.4284 5.06962 5.06962 27.2412 8.54167 1.27421 25.9701 6.11129 2.56962 
27.2412 1.27421 8.54167 25.9701 2.56962 6.11129 28.5417 7.1871 1.35457 
25.9701 2.56962 4.02796 28.5417 1.35457 7.1871 28.5417 2.86373 1.40539 
27.4284 6.70653 5.06962 27.4284 5.06962 6.70653 23.6105 6.03868 2.56962 
11.4583 8.64543 2.8129 14.3699 8.39263 3.0336 11.4583 2.8129 8.64543 
14.3695 3.03488 8.39311 23.6784 2.56962 6.04184 21.8412 1.74474 3.27252 
23.3321 8.46906 1.57332 27.0833 1.45833 1.45833 21.8412 3.27252 1.74474 
28.2718 9.1369 5 28.2718 8.64543 3.85457 25.7002 7.56962 5.06962 
28.2718 5 9.1369 28.2718 3.85457 8.64543 25.7002 5.06962 7.56962 
21.2293 7.00983 1.67293 22.1972 8.54077 3.24624 22.4756 6.11039 4.24255 
23.4 1.57332 8.47222 27.4284 6.16423 6.16423 22.1949 3.24877 8.54358 
21.295 1.67545 7.0158 22.4734 4.24508 6.1132 28.7012 7.32089 8.59461 
27.4025 8.72628 8.72628 28.7012 8.59461 7.32089 26.1296 7.56962 6.29591 
26.1296 6.29591 7.56962 28.6995 8.64543 2.62878 28.6995 2.62878 8.64543 
25.8845 8.72628 8.43617 24.6117 7.56962 6.00579 23.1222 5.74778 5.74778 
22.8438 8.17815 4.75147 20.741 6.71892 4.85108 22.8438 4.75147 8.17815 
20.7388 4.85361 6.72174 17.6358 1.53094 1.53094 15.8273 2.01888 3.54982 
18.8389 1.53094 1.34977 20.0419 1.34977 1.34977 20.6121 3.09451 1.74474 
20.6121 1.74474 3.09451 19.4091 3.27568 1.74474 28.2718 8.59461 6.09461 
28.2718 6.09461 8.59461 21.7733 5.2138 1.74474 20.6384 5.28551 3.41767 
24.3666 8.43617 8.43617 24.6117 6.00579 7.56962 21.8412 1.74474 5.21696 
20.6361 3.4202 5.28832 12.5577 6.85262 6.85262 28.5417 1.40539 2.86373 
23.6759 1.05726 1.52778 17.8459 2.48019 4.01113 17.8459 4.01113 2.48019 
16.0373 4.49907 4.49907 15.0577 8.25801 5.75801 15.4115 8.39263 4.07526 
15.0577 5.75801 8.25801 15.4111 4.07654 8.39311 21.3328 8.83349 8.83349 
19.833 8.83349 8.33333 21.3602 8.17815 7.01164 19.8605 8.17815 6.51149 
21.3602 7.01164 8.17815 18.1947 7.48019 5.81352 18.1947 5.81352 7.48019 
18.3333 8.33333 8.33333 16.7244 8.25801 6.59134 16.7244 6.59134 8.25801 
16.5857 5.7382 5.7382 14.4582 2.01888 4.51888 15.36 1.57654 5.89311 
16.729 1.57654 4.92405 14.4582 4.51888 2.01888 16.7294 4.92357 1.57526 
15.3604 5.89263 1.57526 16.9391 4.05673 5.8733 16.9395 5.87282 4.05545 
19.8605 6.51149 8.17815 19.7218 5.65834 5.65834 16.9271 8.80208 8.33333 
15.5208 8.80208 8.80208 15.3182 8.25801 7.06009 15.3182 7.06009 8.25801 
21.2597 8.17815 5.66079 20.613 8.54077 4.15557 17.0782 8.39263 4.9086 
19.0752 6.02096 4.15312 19.2139 8.54077 5.00626 17.9587 6.9334 3.24819 
13.4677 5.56054 2.01888 11.4583 7.1871 1.35457 14.3699 6.9343 1.57526 
13.4677 2.01888 5.56054 11.4583 1.35457 7.1871 14.3695 1.57654 6.93477 
21.2597 5.66079 8.17815 20.6108 4.15809 8.54358 17.0778 4.90988 8.39311 
19.2116 5.00879 8.54358 19.073 4.15564 6.02377 17.9561 3.252 6.93669 
17.0459 8.39263 3.10356 19.1816 8.54077 3.20122 17.0455 3.10484 8.39311 
19.1793 3.20375 8.54358 22.8771 8.17815 6.61432 22.8771 6.61432 8.17815 
21.86 8.46906 1.13608 20.7251 8.54077 2.80901 17.778 5.95241 2.48019 
19.028 4.98019 2.48019 18.7972 7.01299 1.67293 20.0472 6.04077 1.67293 
19.028 2.48019 4.98019 17.83 2.48019 5.95032 18.847 1.67545 7.01371 
20.045 1.67545 6.04358 22.8497 8.83349 8.43617 21.9279 1.13608 8.47222 
20.7229 2.81154 8.54358 19.4091 1.74474 3.27568 21.285 4.9229 4.9229 
28.6995 3.77421 9.1369 28.6995 9.1369 3.77421 22.5 1.52778 1.52778 
12.0094 4.51888 2.88197 12.0094 2.88197 4.51888 20.5912 1.74474 4.24474 
19.6191 4.22493 4.22493 20.5912 4.24474 1.74474 16.7132 1.57654 6.86324 
16.6615 6.86485 1.57526 14.0394 1.05758 1.45833 13.4677 2.01888 3.47721 
12.9167 8.54167 1.45833 12.9167 1.45833 8.54167 28.7012 9.1369 6.22628 
28.7012 6.22628 9.1369 12.949 4.51888 2.01888 12.9271 2.01888 4.51888 
21.2709 1.52778 1.34977 10.9396 5 0.863095 10.9396 3.90539 1.40539 
12.0094 3.42427 3.42427 10.9178 0.863095 5 10.9178 1.40539 3.90539 
15.198 1.09733 8.94253 14.0378 1.45833 8.94253 15.4906 1.57654 7.33564 
15.5297 2.67387 8.39311 14.0325 8.94274 1.45833 15.1927 8.94274 1.09733 
15.5301 8.39263 2.67259 15.4857 7.33537 1.57526 14.2188 8.80208 8.54167 
14.0161 8.25801 6.79968 20.0263 7.191 1.67293 20.6569 8.65023 1.13608 
19.1134 8.65023 1.52829 12.9167 1.45833 1.45833 13.4677 3.47721 2.01888 
16.4206 1.09733 8.47013 11.4583 2.86373 1.40539 11.4583 1.40539 2.86373 
20.058 1.67545 7.15417 11.4583 8.59461 7.13627 12.9167 8.54167 8.54167 
11.4583 7.13627 8.59461 14.0161 6.79968 8.25801 17.8843 8.47222 1.52829 
16.3685 8.47222 1.09733 17.9364 1.52829 8.47013 19.1474 1.52829 8.61059 
20.6909 1.13608 8.61059 20.045 1.67545 8.54358 10.9396 6.14543 1.35457 
10.9178 1.35457 6.14543 28.5417 0.863095 3.95833 11.4583 6.04167 9.1369 
11.4583 9.1369 6.04167 23.2519 5 15 17.0833 5 15 
13.5417 5.68167 16.4347 20.1676 6.56832 16.5592 20.0557 3.35679 13.3568 
19.9246 3.10645 16.9283 19.9745 6.94812 13.1133 14.3498 3.3114 13.3114 
26.626 5.8693 16.3623 26.3317 3.4793 13.4793 16.1602 6.40267 12.5 
16.3021 7.5 13.6979 15.379 8.90267 11.1979 14.7934 5.55838 11.6557 
14.9353 6.6557 12.8536 15.7166 4.1557 14.1557 15.3125 5.34083 15.7174 
14.5312 7.84083 14.4153 13.9457 4.49654 14.8731 15.2371 1.09733 18.9027 
16.1602 3.59733 17.5 16.1602 2.5 16.4027 14.3894 2.84083 17.12 
14.3894 3.93816 18.2174 25.8472 8.72786 11.5783 27.3968 8.72786 11.2745 
26.8654 6.73965 13.0141 26.8631 5.46751 11.7396 25.3158 6.73965 13.3179 
16.0417 7.5 15 14.2708 7.84083 15.7174 16.7529 1.09733 18.4717 
17.676 2.5 15.9717 27.0125 7.93465 14.4556 25.463 7.93465 14.7594 
26.4788 4.6743 14.9208 24.2571 8.46639 11.5783 25.273 5.20604 11.7396 
14.0769 8.90267 11.4583 12.9167 8.54167 11.4583 13.6332 5.19737 11.6557 
13.6332 6.6557 13.114 16.8948 8.47171 11.1979 17.676 5.97171 12.5 
16.8948 8.80208 18.4717 15.379 8.80208 18.9027 17.676 7.5 15.9717 
16.1602 7.5 16.4027 16.3021 6.30208 17.5 13.2292 7.84083 14.6757 
14.5312 6.64292 18.2174 14.3894 7.84083 17.12 16.0417 2.5 15 
14.2708 2.84083 15.7174 24.9389 5.43465 15.6811 23.7759 7.5 14.0783 
24.7918 4.23965 14.2396 23.7331 5.96639 12.5 18.2687 1.52829 18.4717 
17.676 4.02829 17.5 16.0417 5 12.5 14.6749 4.1557 11.6557 
17.7477 8.47406 12.7546 19.1216 6.94577 11.5566 18.5289 5.97406 14.0566 
17.7083 7.5 14.1667 19.1539 8.47406 13.2233 14.0769 1.09733 18.5417 
13.2292 2.84083 16.759 21.4197 1.15246 11.1525 22.8598 1.57828 11.1525 
20.7377 2.83086 11.6784 22.1778 3.25667 11.6784 20.7377 1.67839 12.8309 
18.301 8.33333 18.4717 17.7083 5.83333 17.5 22.785 1.13608 18.4664 
21.3332 1.13608 18.8542 20.6402 2.68931 18.4641 20.6176 1.55322 17.3184 
22.0694 1.55322 16.9305 26.5848 7.93465 15.6811 27.3968 1.27421 18.7279 
25.8472 1.57332 18.7279 27.0125 4.20886 18.1811 25.463 4.50796 18.1811 
27.0103 2.93465 16.909 18.301 8.47171 11.6667 26.4376 4.23965 11.7396 
21.3217 8.83349 18.8542 22.7735 8.83349 18.4664 20.7502 7.11765 18.2796 
22.1909 8.28416 16.746 20.7391 8.28416 17.1338 19.0966 3.08152 18.4641 
18.5039 4.05322 15.9641 19.0966 1.55322 16.9358 16.0417 5 17.5 
14.2708 5.34083 18.2174 24.2571 1.57332 18.4664 25.4201 2.93465 16.6475 
22.817 8.46639 11.1525 21.3651 8.85423 11.1525 20.6426 7.32829 11.5566 
20.6971 8.47406 12.7091 22.0944 6.94045 11.5566 12.1749 5.27148 13.0399 
12.1749 4.1557 12.5883 12.1749 4.1557 14.1557 14.6749 1.6557 14.1557 
10.9204 1.45833 16.0417 10.9204 0.863095 15 12.1749 2.5188 14.1557 
13.0953 1.6557 14.1557 12.1749 3.11404 15.1974 23.7331 2.5 15.9664 
25.273 1.73965 15.206 15.5208 1.19792 11.1979 16.9271 1.66667 11.1979 
14.9353 2.85362 11.6557 16.3416 3.32237 11.6557 14.9353 1.6557 12.8536 
23.7759 4.07332 17.5 19.2505 6.61749 18.2796 19.2182 8.28416 16.7513 
18.6255 5.78416 15.7796 22.1123 3.12654 18.4641 24.3 1.57828 11.5783 
22.1778 1.67839 13.2567 11.7708 6.45662 14.6016 11.7708 5.34083 15.7174 
24.2904 8.43617 18.4664 22.2671 6.72033 18.2796 22.1372 8.47406 13.1349 
21.5882 4.05322 15.9641 21.6132 5.97406 14.0566 23.7759 2.5 14.0783 
23.7759 4.07828 12.5 21.6538 4.17839 14.1784 23.7331 7.5 15.9664 
23.8093 5.93617 17.5 21.7098 5.78416 15.7796 12.9167 1.45833 18.5417 
13.2292 4.29917 18.2174 18.3333 1.66667 11.6667 16.3416 1.6557 13.3224 
19.1945 1.67839 13.3451 19.1945 3.34506 11.6784 17.2027 3.3341 13.3341 
28.6973 1.45833 17.2695 28.313 4.39298 16.7228 28.1659 3.19798 15.2813 
26.8631 1.73965 15.4675 19.2505 8.28416 14.9463 20.0711 6.75822 14.8362 
13.6332 1.6557 15.1974 11.4583 1.45833 17.0833 20.5281 1.55322 15.9815 
28.6995 2.73254 18.5417 28.2718 5 10.9326 28.2718 6.11578 11.3842 
28.1659 5.35543 13.1239 28.1659 4.23965 12.6722 17.7083 4.16667 12.5 
18.5695 4.17839 14.1784 19.1539 5.14073 11.5566 20.0151 5.15245 13.235 
20.5281 4.03586 18.4641 28.2718 8.61578 13.8842 28.2718 9.08729 15 
28.313 7.02194 15.6811 28.313 6.55043 14.5654 22.1918 2.5 15.0174 
17.7083 2.5 14.1667 19.1289 1.55322 15.1308 19.9901 3.23162 15.1425 
20.5531 8.47406 14.074 22.1918 5.01736 12.5 20.5531 5.99142 11.5566 
22.1918 7.5 15.0174 22.1918 4.98264 17.5 20.6497 5.7668 18.2796 
19.1289 4.88656 18.4641 20.5937 1.67839 14.1958 20.5937 4.19576 11.6784 
20.0461 4.83739 16.7437 28.6995 8.61578 12.6587 28.6973 7.34364 11.3842 
28.6973 6.22786 10.9326 25.3158 1.73965 13.3179 25.3158 3.31792 11.7396 
20.6497 8.28416 15.797 25.4201 7.93465 16.6475 28.6995 9.08729 13.7745 
25.4963 6.37082 18.1811 28.1659 4.23965 14.2396 11.7708 6.92813 15.7174 
28.313 5.43465 15.6811 11.7708 4.29917 16.759 28.2718 1.45833 16.0417 
26.4376 1.73965 14.2396 12.6913 7.84083 15.7174 28.2718 0.863095 15 
28.1659 2.60274 14.2396 26.5848 5.43465 18.1811 28.6973 0.863095 16.2279 
12.1749 3.03992 13.0399 20.0838 8.28416 18.2796 11.0833 3.95833 18.5417 
11.0833 5 19.1369 12.8542 5.34083 18.2174 11.7708 5.34083 17.3543 
11.4583 2.91667 18.5417 25.8806 8.43617 18.7279 27.3985 8.72628 18.7279 
27.0142 6.66093 18.1811 27.0103 7.93465 16.909 14.0769 8.54167 18.9027 
13.2292 6.3825 18.2174 28.2718 5 19.1369 28.6995 3.77421 19.1369 
28.313 5.43465 17.318 13.0953 4.1557 11.6557 11.4583 9.08729 16.0417 
10.9204 9.08729 15 13.2292 7.84083 16.759 10.9204 1.38422 13.8842 
27.399 1.27447 11.2745 25.8495 1.27447 11.5783 26.8654 1.73965 13.0141 
26.8654 3.01412 11.7396 20.0278 1.67839 11.6784 28.6973 9.08729 16.2279 
12.9167 8.54167 18.5417 11.4583 8.61578 17.1574 11.7708 6.45662 16.8331 
20.1116 4.96256 14.958 14.2188 1.19792 11.4583 28.6973 8.61578 17.3436 
28.313 6.55043 16.7969 11.4583 1.38422 12.8426 13.6332 1.6557 13.114 
28.6995 3.77447 10.9326 19.9623 1.55322 18.4641 28.1659 3.12387 13.1239 
28.6995 0.863095 13.7745 28.6995 2.65869 11.3842 19.9873 8.47406 11.5566 
28.6995 1.38422 12.6587 28.7012 7.34206 18.6158 28.7012 6.22628 19.1369 
12.9167 1.45833 11.4583 11.4583 7.15745 18.6158 10.9204 3.88422 11.3842 
10.9204 5 10.9326 10.9204 6.11578 11.3842 10.9204 8.61578 13.8842 
11.4583 6.04167 19.1369 13.6332 3.11404 11.6557 11.4583 8.61578 12.8426 
11.4583 7.15745 11.3842 11.4583 2.84255 11.3842 
CELLS 940 10340
10 423 240 242 1239 1241 268 1240 1242 1243 1244 
10 332 243 329 1239 1246 1245 350 1247 1248 1249 
10 422 333 331 1239 1251 354 1250 1252 1253 1254 
10 286 200 289 1239 1256 1255 310 1257 1258 1259 
10 380 199 196 1239 1261 224 1260 1262 1263 1264 
10 376 290 379 1239 1266 1265 408 1267 1268 1269 
10 239 243 332 1239 261 1246 1270 1271 1248 1247 
10 422 330 333 1239 1272 355 1251 1252 1273 1253 
10 423 242 239 1239 1240 269 1274 1242 1244 1271 
10 197 425 195 1239 1276 1275 216 1277 1278 1279 
10 424 288 284 1239 1281 306 1280 1282 1283 1284 
10 328 198 334 1239 1286 1285 362 1287 1288 1289 
10 377 335 375 1239 1291 1290 400 1292 1293 1294 
10 425 197 418 1239 1276 1295 444 1278 1277 1296 
10 288 424 418 1239 1281 440 1297 1283 1282 1296 
10 377 328 335 1239 1298 358 1291 1292 1287 1293 
10 199 380 193 1239 1261 1299 223 1263 1262 1300 
10 373 379 290 1239 407 1265 1301 1302 1269 1268 
10 283 289 200 1239 309 1255 1303 1304 1259 1258 
10 245 287 238 1239 1306 1305 264 1307 1308 1309 
10 285 287 282 1239 313 323 325 1310 1308 1311 
10 372 378 376 1239 415 403 416 1312 1313 1267 
10 192 198 196 1239 235 227 236 1314 1288 1264 
10 332 329 327 1239 350 368 367 1247 1249 1315 
10 194 197 192 1239 215 233 232 1316 1277 1314 
10 242 240 237 1239 268 280 277 1244 1243 1317 
10 377 372 374 1239 413 412 399 1292 1312 1318 
10 237 241 243 1239 281 260 279 1317 1319 1248 
10 422 419 417 1239 452 458 457 1252 1320 1321 
10 417 421 423 1239 461 448 460 1321 1322 1242 
10 290 285 282 1239 318 325 321 1268 1310 1311 
10 286 282 288 1239 326 324 305 1257 1311 1283 
10 424 421 417 1239 441 461 454 1282 1322 1321 
10 199 192 196 1239 230 236 224 1263 1314 1264 
10 380 374 372 1239 396 412 411 1262 1318 1312 
10 331 333 327 1239 354 370 371 1254 1253 1315 
10 194 192 200 1239 232 231 220 1316 1314 1258 
10 241 237 244 1239 281 274 273 1319 1317 1323 
10 240 245 237 1239 265 276 280 1243 1307 1317 
10 329 335 327 1239 359 366 368 1249 1293 1315 
10 419 425 417 1239 445 456 458 1320 1278 1321 
10 376 379 372 1239 408 410 416 1267 1269 1312 
10 286 289 282 1239 310 320 326 1257 1259 1311 
10 331 327 334 1239 371 364 363 1254 1315 1289 
10 241 329 243 1239 1324 1245 260 1319 1249 1248 
10 194 200 286 1239 220 1256 1325 1316 1258 1257 
10 240 423 421 1239 1241 448 1326 1243 1242 1322 
10 331 419 422 1239 1327 452 1250 1254 1320 1252 
10 290 376 285 1239 1266 1328 318 1268 1267 1310 
10 380 196 374 1239 1260 1329 396 1262 1264 1318 
10 329 375 335 1239 1330 1290 359 1249 1294 1293 
10 424 284 421 1239 1280 1331 441 1282 1284 1322 
10 328 196 198 1239 1332 227 1286 1287 1264 1288 
10 195 425 419 1239 1275 445 1333 1279 1278 1320 
10 377 374 328 1239 399 1334 1298 1292 1318 1287 
10 194 418 197 1239 1335 1295 215 1316 1296 1277 
10 285 238 287 1239 1336 1305 313 1310 1309 1308 
10 286 288 418 1239 305 1297 1337 1257 1283 1296 
10 420 417 423 1239 459 460 449 1338 1321 1242 
10 239 237 243 1239 278 279 261 1271 1317 1248 
10 284 282 287 1239 322 323 314 1284 1311 1308 
10 330 332 327 1239 351 367 369 1273 1247 1315 
10 195 198 192 1239 228 235 234 1279 1288 1314 
10 372 375 378 1239 414 404 415 1312 1294 1313 
10 372 377 375 1239 413 400 414 1312 1292 1294 
10 420 422 417 1239 453 457 459 1338 1252 1321 
10 288 282 284 1239 324 322 306 1283 1311 1284 
10 197 195 192 1239 216 234 233 1277 1279 1314 
10 242 237 239 1239 277 278 269 1244 1317 1271 
10 333 330 327 1239 355 369 370 1253 1273 1315 
10 418 424 417 1239 440 454 455 1296 1282 1321 
10 244 237 238 1239 274 275 272 1323 1317 1309 
10 193 200 192 1239 219 231 229 1300 1258 1314 
10 373 380 372 1239 395 411 409 1302 1262 1312 
10 282 283 290 1239 319 317 321 1311 1304 1268 
10 417 425 418 1239 456 444 455 1321 1278 1296 
10 199 193 192 1239 223 229 230 1263 1300 1314 
10 372 379 373 1239 410 407 409 1312 1269 1302 
10 335 328 327 1239 358 365 366 1293 1287 1315 
10 283 282 289 1239 319 320 309 1304 1311 1259 
10 328 334 327 1239 362 364 365 1287 1289 1315 
10 245 238 237 1239 264 275 276 1307 1309 1317 
10 332 330 239 1239 351 1339 1270 1247 1273 1271 
10 420 330 422 1239 1340 1272 453 1338 1273 1252 
10 420 423 239 1239 449 1274 1341 1338 1242 1271 
10 283 373 290 1239 1342 1301 317 1304 1302 1268 
10 193 380 373 1239 1299 395 1343 1300 1262 1302 
10 193 283 200 1239 1344 1303 219 1300 1304 1258 
10 421 284 240 1239 1331 1345 1326 1322 1284 1243 
10 329 241 375 1239 1324 1346 1330 1249 1319 1294 
10 195 419 331 1239 1333 1327 1347 1279 1320 1254 
10 376 238 285 1239 1348 1336 1328 1267 1309 1310 
10 194 286 418 1239 1325 1337 1335 1316 1257 1296 
10 374 196 328 1239 1329 1332 1334 1318 1264 1287 
10 330 420 239 1239 1340 1341 1339 1273 1338 1271 
10 193 373 283 1239 1343 1342 1344 1300 1302 1304 
10 6 330 420 239 343 1340 435 252 1339 1341 
10 373 283 1 193 1342 294 382 1343 1344 205 
10 46 329 332 243 346 350 348 259 1245 1246 
10 331 422 71 333 1250 450 336 354 1251 353 
10 244 51 378 376 271 401 1349 1350 388 403 
10 240 41 423 242 248 447 1241 268 266 1240 
10 52 241 244 378 257 273 270 402 1351 1349 
10 245 240 37 287 265 246 263 1306 1352 311 
10 380 32 196 199 393 210 1260 1261 222 224 
10 200 289 17 286 1255 308 217 1256 310 293 
10 27 331 334 198 338 363 360 226 1353 1285 
10 290 376 379 57 1266 408 1265 315 389 406 
10 199 31 193 380 221 206 223 1261 394 1299 
10 56 373 379 290 383 407 405 316 1301 1265 
10 200 283 16 289 1303 295 218 1255 309 307 
10 332 239 47 243 1270 253 349 1246 261 258 
10 42 423 242 239 446 1240 267 254 1274 269 
10 72 333 422 330 352 1251 451 344 355 1272 
10 2 331 195 419 337 1347 207 430 1327 1333 
10 7 329 241 375 345 1324 256 390 1330 1346 
10 286 0 194 418 291 202 1325 1337 427 1335 
10 3 328 374 196 339 1334 384 211 1332 1329 
10 284 4 421 240 298 432 1331 1345 247 1326 
10 5 376 238 285 387 1348 249 301 1328 1336 
10 193 1 373 31 205 382 1343 206 33 381 
10 1 56 283 373 58 296 294 382 383 1342 
10 1 283 16 193 294 295 18 205 1344 204 
10 420 42 6 239 436 45 435 1341 254 252 
10 330 6 47 239 343 50 342 1339 252 253 
10 72 420 6 330 437 435 75 344 1340 343 
10 7 375 241 52 390 1346 256 55 392 257 
10 2 419 195 22 430 1333 207 25 429 208 
10 421 62 4 284 433 65 432 1331 297 298 
10 331 2 195 27 337 207 1347 338 30 209 
10 67 329 7 375 347 345 70 391 1330 390 
10 3 66 374 328 68 386 384 339 340 1334 
10 4 240 284 37 247 1345 298 40 246 299 
10 328 3 26 196 339 28 341 1332 211 212 
10 0 286 61 418 291 292 63 427 1337 426 
10 238 5 51 376 249 53 251 1348 387 388 
10 285 238 5 36 1336 249 301 300 250 38 
10 194 0 21 418 202 23 201 1335 427 428 
10 194 17 0 286 203 20 202 1325 293 291 
10 374 32 3 196 385 35 384 1329 210 211 
10 57 376 5 285 389 387 60 302 1328 301 
10 240 4 421 41 247 432 1326 248 43 434 
10 329 7 241 46 345 256 1324 346 48 255 
10 71 331 2 419 336 337 73 431 1327 430 
10 422 331 71 419 1250 336 450 452 1327 431 
10 423 41 240 421 447 248 1241 448 434 1326 
10 196 32 380 374 210 393 1260 1329 385 396 
10 376 57 290 285 389 315 1266 1328 302 318 
10 46 241 329 243 255 1324 346 259 260 1245 
10 17 194 200 286 203 220 217 293 1325 1256 
10 238 51 244 376 251 271 272 1348 388 1350 
10 284 37 240 287 299 246 1345 314 311 1352 
10 52 375 241 378 392 1346 257 402 404 1351 
10 27 195 331 198 209 1347 338 226 228 1353 
10 193 31 373 380 206 381 1343 1299 394 395 
10 373 56 283 290 383 296 1342 1301 316 317 
10 283 200 16 193 1303 218 295 1344 219 204 
10 420 423 42 239 449 446 436 1341 1274 254 
10 420 72 422 330 437 451 453 1340 344 1272 
10 332 330 47 239 351 342 349 1270 1339 253 
10 71 333 422 72 353 1251 450 74 352 451 
10 41 242 42 423 266 267 44 447 1240 446 
10 378 244 52 51 1349 270 402 401 271 54 
10 287 37 245 36 311 263 1306 312 39 262 
10 335 67 66 377 357 69 356 1291 397 398 
10 47 46 332 243 49 348 349 258 259 1246 
10 22 425 197 21 443 1276 213 24 442 214 
10 62 424 61 288 438 439 64 304 1281 303 
10 31 199 32 380 221 222 34 394 1261 393 
10 27 334 26 198 360 361 29 226 1285 225 
10 56 290 379 57 316 1265 405 59 315 406 
10 16 17 200 289 19 217 218 307 308 1255 
10 288 61 418 424 303 426 1297 1281 439 440 
10 288 418 61 286 1297 426 303 305 1337 292 
10 418 21 197 425 428 214 1295 444 442 1276 
10 418 197 21 194 1295 214 428 1335 215 201 
10 238 36 287 245 250 312 1305 264 262 1306 
10 36 238 287 285 250 1305 312 300 1336 313 
10 328 66 377 335 340 398 1298 358 356 1291 
10 66 328 377 374 340 1298 398 386 1334 399 
10 328 26 198 196 341 225 1286 1332 212 227 
10 26 328 198 334 341 1286 225 361 362 1285 
10 375 67 335 377 391 357 1290 400 397 1291 
10 375 335 67 329 1290 357 391 1330 359 347 
10 287 1239 240 284 1308 1243 1352 314 1284 1345 
10 287 240 1239 245 1352 1243 1308 1306 265 1307 
10 198 1239 331 334 1288 1254 1353 1285 1289 363 
10 198 331 1239 195 1353 1254 1288 228 1347 1279 
10 244 1239 376 378 1323 1267 1350 1349 1313 403 
10 1239 244 376 238 1323 1350 1267 1309 272 1348 
10 425 22 195 419 443 208 1275 445 429 1333 
10 425 195 22 197 1275 208 443 1276 216 213 
10 424 62 284 288 438 297 1280 1281 304 306 
10 62 424 284 421 438 1280 297 433 441 1331 
10 378 1239 241 244 1313 1319 1351 1349 1323 273 
10 378 241 1239 375 1351 1319 1313 404 1346 1294 
10 243 613 1356 1359 1366 1365 1364 1367 1368 1369 
10 783 242 1356 1359 1372 1371 1370 1373 1374 1369 
10 613 1356 1359 1360 1365 1369 1368 1375 1376 1377 
10 1356 783 1359 1361 1370 1373 1369 1378 1379 1380 
10 684 522 693 1355 1382 1381 730 1383 1384 1385 
10 522 693 1355 1357 1381 1385 1384 1386 1387 1388 
10 241 243 613 1356 260 1366 1389 1390 1364 1365 
10 783 242 240 1356 1372 268 1391 1370 1371 1392 
10 469 694 466 1355 1394 1393 498 1395 1396 1397 
10 464 524 470 1355 1399 1398 486 1400 1401 1402 
10 613 241 1356 1360 1389 1390 1365 1375 1403 1376 
10 783 1356 240 1361 1370 1392 1391 1379 1378 1404 
10 694 469 463 1355 1394 497 1405 1396 1395 1406 
10 243 1356 237 1359 1364 1407 279 1367 1369 1408 
10 242 237 1356 1359 277 1407 1371 1374 1408 1369 
10 690 680 520 1356 721 1410 1409 1411 1412 1413 
10 692 603 607 1355 1415 646 1414 1416 1417 1418 
10 773 521 777 1355 1420 1419 816 1421 1422 1423 
10 508 522 1355 1357 587 1384 1424 1425 1386 1388 
10 677 1355 693 1357 1426 1385 749 1427 1388 1387 
10 464 470 462 1355 486 501 503 1400 1402 1428 
10 469 466 462 1355 498 506 499 1395 1397 1428 
10 692 607 686 1355 1414 1429 745 1416 1418 1430 
10 521 514 777 1355 575 1431 1419 1422 1432 1423 
10 469 462 463 1355 499 500 497 1395 1428 1406 
10 470 463 462 1355 485 500 501 1402 1406 1428 
10 686 466 694 1355 1433 1393 715 1430 1397 1396 
10 515 524 508 1355 544 590 591 1434 1401 1424 
10 522 515 508 1355 560 591 587 1384 1434 1424 
10 464 514 524 1355 1435 545 1399 1400 1432 1401 
10 684 694 463 1355 714 1405 1436 1383 1396 1406 
10 462 466 468 1355 506 493 505 1428 1397 1437 
10 467 464 462 1355 489 503 502 1438 1400 1428 
10 677 694 684 1355 752 714 751 1426 1396 1383 
10 683 692 677 1355 744 750 748 1439 1416 1426 
10 606 241 613 1360 1440 1389 628 1441 1403 1375 
10 783 240 776 1361 1391 1442 798 1379 1404 1443 
10 524 514 508 1355 545 589 590 1401 1432 1424 
10 693 677 684 1355 749 751 730 1385 1426 1383 
10 521 513 508 1355 574 585 588 1422 1444 1424 
10 510 522 508 1357 559 587 584 1445 1386 1425 
10 686 694 677 1355 715 752 753 1430 1396 1426 
10 237 240 242 1356 280 268 277 1407 1392 1371 
10 237 243 241 1356 279 260 281 1407 1364 1390 
10 683 603 692 1355 1446 1415 744 1439 1417 1416 
10 522 684 515 1355 1382 1447 560 1384 1383 1434 
10 677 693 682 1357 749 729 746 1427 1387 1448 
10 466 600 468 1355 1450 1449 493 1397 1451 1437 
10 770 464 467 1355 1453 489 1452 1454 1400 1438 
10 521 508 514 1355 588 589 575 1422 1424 1432 
10 683 603 1355 1362 1446 1417 1439 1455 1456 1457 
10 773 513 521 1355 1458 574 1420 1421 1444 1422 
10 467 462 465 1355 502 504 490 1438 1428 1459 
10 465 462 468 1355 504 505 494 1459 1428 1437 
10 692 686 677 1355 745 753 750 1416 1430 1426 
10 773 513 1355 1363 1458 1444 1421 1460 1461 1462 
10 465 608 778 1355 1465 1464 1463 1459 1466 1467 
10 607 600 466 1355 632 1450 1468 1418 1451 1397 
10 464 770 777 1355 1453 802 1469 1400 1454 1423 
10 604 778 608 1355 1470 1464 659 1471 1467 1466 
10 607 466 686 1355 1468 1433 1429 1418 1397 1430 
10 464 777 514 1355 1469 1431 1435 1400 1423 1432 
10 1355 603 1358 1362 1417 1473 1472 1457 1456 1474 
10 773 1355 1358 1363 1421 1472 1475 1460 1462 1476 
10 680 511 520 1356 1477 551 1410 1412 1478 1413 
10 688 518 680 1357 1480 1479 724 1481 1482 1483 
10 600 465 468 1355 1484 494 1449 1451 1459 1437 
10 467 465 770 1355 490 1485 1452 1438 1459 1454 
10 683 1355 1357 1362 1439 1388 1486 1455 1457 1487 
10 778 604 774 1355 1470 1488 829 1467 1471 1489 
10 1355 513 1357 1363 1444 1490 1388 1462 1461 1491 
10 243 237 239 1359 279 278 261 1367 1408 1492 
10 239 237 242 1359 278 277 269 1492 1408 1374 
10 683 1355 677 1357 1439 1426 748 1486 1388 1427 
10 513 508 1355 1357 585 1424 1444 1490 1425 1388 
10 770 465 778 1355 1485 1463 803 1454 1459 1467 
10 465 600 608 1355 1484 633 1465 1459 1451 1466 
10 684 463 515 1355 1436 1493 1447 1383 1406 1434 
10 510 693 522 1357 1494 1381 559 1445 1387 1386 
10 680 1354 511 1356 1496 1495 1477 1412 1497 1478 
10 599 613 1359 1360 673 1368 1498 1499 1375 1377 
10 769 1359 783 1361 1500 1373 843 1501 1380 1379 
10 777 770 773 1355 802 846 816 1423 1454 1421 
10 607 603 600 1355 646 676 632 1418 1417 1451 
10 609 601 780 1358 655 1503 1502 1504 1505 1506 
10 601 771 1354 1359 1509 1508 1507 1510 1511 1512 
10 507 1356 511 1361 1513 1478 576 1514 1378 1515 
10 680 1356 678 1360 1412 1516 754 1517 1376 1518 
10 520 511 507 1356 551 576 579 1413 1478 1513 
10 1354 511 1356 1361 1495 1478 1497 1519 1515 1378 
10 690 678 680 1356 757 754 721 1411 1516 1412 
10 680 1354 1356 1360 1496 1497 1412 1517 1520 1376 
10 771 601 1354 1358 1509 1507 1508 1521 1505 1522 
10 601 611 781 1359 652 1524 1523 1510 1525 1526 
10 603 598 1358 1362 667 1527 1473 1456 1528 1474 
10 1354 601 1360 1362 1507 1529 1520 1530 1531 1532 
10 241 685 1356 1360 1534 1533 1390 1403 1535 1376 
10 516 240 1356 1361 1537 1392 1536 1538 1404 1378 
10 768 773 1358 1363 837 1475 1539 1540 1460 1476 
10 771 1354 1361 1363 1508 1519 1541 1542 1543 1544 
10 778 774 770 1355 829 845 803 1467 1489 1454 
10 604 608 600 1355 659 633 675 1471 1466 1451 
10 602 1360 601 1362 1545 1529 661 1546 1532 1531 
10 771 1361 772 1363 1541 1547 830 1542 1544 1548 
10 604 1355 603 1358 1471 1417 666 1549 1472 1473 
10 773 1355 774 1358 1421 1489 835 1475 1472 1550 
10 610 603 683 1362 645 1446 1551 1552 1456 1455 
10 1354 601 1359 1360 1507 1510 1512 1520 1529 1377 
10 771 1354 1359 1361 1508 1512 1511 1541 1519 1380 
10 681 679 1354 1362 763 1554 1553 1555 1556 1530 
10 512 1354 509 1363 1558 1557 596 1559 1543 1560 
10 780 604 609 1358 1561 658 1502 1506 1549 1504 
10 773 779 513 1363 815 1562 1458 1460 1563 1461 
10 604 774 1355 1358 1488 1489 1471 1549 1550 1472 
10 780 601 771 1358 1503 1509 825 1506 1505 1521 
10 511 680 518 1357 1477 1479 556 1564 1483 1482 
10 512 511 509 1354 577 595 596 1558 1495 1557 
10 1357 1355 1358 1362 1388 1472 1565 1487 1457 1474 
10 681 679 680 1354 763 762 756 1553 1554 1496 
10 1355 1357 1358 1363 1388 1565 1472 1462 1491 1476 
10 601 781 771 1359 1523 822 1509 1510 1526 1511 
10 464 467 777 770 489 1566 1469 1453 1452 802 
10 466 468 600 607 493 1449 1450 1468 1567 632 
10 510 682 693 1357 1568 729 1494 1445 1448 1387 
10 241 244 237 1356 273 274 281 1390 1569 1407 
10 237 245 240 1356 276 265 280 1407 1570 1392 
10 511 518 509 1357 556 594 595 1564 1482 1571 
10 511 1354 680 1357 1495 1496 1477 1564 1572 1483 
10 688 680 679 1357 724 762 764 1481 1483 1573 
10 601 1354 1358 1362 1507 1522 1505 1531 1530 1474 
10 1354 771 1358 1363 1508 1521 1522 1543 1542 1476 
10 599 606 613 1360 674 628 673 1499 1441 1375 
10 769 783 776 1361 843 798 844 1501 1379 1443 
10 512 511 1354 1361 577 1495 1558 1574 1515 1519 
10 511 509 1354 1357 595 1557 1495 1564 1571 1572 
10 131 601 780 609 650 1503 823 654 655 1502 
10 679 680 1354 1357 762 1496 1554 1573 1483 1572 
10 681 1354 680 1360 1553 1496 756 1575 1520 1517 
10 601 599 1359 1360 669 1498 1510 1529 1499 1377 
10 771 1359 769 1361 1511 1500 839 1541 1380 1501 
10 604 603 598 1358 666 667 665 1549 1473 1527 
10 773 774 768 1358 835 836 837 1475 1550 1539 
10 517 690 520 1356 1576 1409 548 1577 1411 1413 
10 681 1354 1360 1362 1553 1520 1575 1555 1530 1532 
10 132 609 780 604 653 1502 824 657 658 1561 
10 510 508 513 1357 584 585 586 1445 1425 1490 
10 679 1357 1354 1362 1573 1572 1554 1556 1487 1530 
10 512 1361 1354 1363 1574 1519 1558 1559 1544 1543 
10 683 677 682 1357 748 746 747 1486 1427 1448 
10 509 1354 1357 1363 1557 1572 1571 1560 1543 1491 
10 241 606 685 1360 1440 1578 1534 1403 1441 1535 
10 516 776 240 1361 1579 1442 1537 1538 1443 1404 
10 600 465 608 468 1484 1465 633 1449 494 1580 
10 770 467 778 465 1452 1581 803 1485 490 1463 
10 610 598 603 1362 664 667 645 1552 1528 1456 
10 780 774 604 1358 828 1488 1561 1506 1550 1549 
10 768 779 773 1363 834 815 837 1540 1563 1460 
10 678 695 685 1356 760 711 759 1516 1582 1533 
10 516 525 507 1356 541 582 581 1536 1583 1513 
10 601 611 130 781 652 647 651 1523 1524 818 
10 688 682 518 1357 726 1584 1480 1481 1448 1482 
10 695 238 244 1356 1586 272 1585 1582 1587 1569 
10 245 238 525 1356 264 1589 1588 1570 1587 1583 
10 774 773 770 1355 835 846 845 1489 1421 1454 
10 600 603 604 1355 676 666 675 1451 1417 1471 
10 780 771 601 131 825 1509 1503 823 821 650 
10 602 599 601 1360 668 669 661 1545 1499 1529 
10 771 769 772 1361 839 838 830 1541 1501 1547 
10 507 516 1356 1361 581 1536 1513 1514 1538 1378 
10 685 678 1356 1360 759 1516 1533 1535 1518 1376 
10 513 509 1357 1363 593 1571 1490 1461 1560 1491 
10 774 132 780 604 826 824 828 1488 657 1561 
10 679 683 1357 1362 767 1486 1573 1556 1455 1487 
10 98 688 682 518 725 726 722 555 1480 1584 
10 507 511 512 1361 576 577 578 1514 1515 1574 
10 98 680 688 518 720 724 725 555 1479 1480 
10 690 97 520 680 717 546 1409 721 719 1410 
10 776 523 782 1361 1591 1590 806 1443 1592 1593 
10 612 691 606 1360 1595 1594 636 1596 1597 1441 
10 681 680 678 1360 756 754 755 1575 1517 1518 
10 601 781 130 771 1523 818 651 1509 822 820 
10 601 1358 598 1362 1505 1527 662 1531 1474 1528 
10 768 1358 771 1363 1539 1521 832 1540 1476 1542 
10 99 693 522 510 727 1381 558 552 1494 559 
10 611 605 781 1359 649 1598 1524 1525 1599 1526 
10 689 679 681 1362 765 763 740 1600 1556 1555 
10 689 602 610 1362 1602 642 1601 1600 1546 1552 
10 690 517 687 1356 1576 1603 718 1411 1577 1604 
10 244 238 237 1356 272 275 274 1569 1587 1407 
10 237 238 245 1356 275 264 276 1407 1587 1570 
10 523 512 782 1361 566 1605 1590 1592 1574 1593 
10 238 695 687 1356 1586 710 1606 1587 1582 1604 
10 238 517 525 1356 1607 540 1589 1587 1577 1583 
10 599 611 601 1359 670 652 669 1498 1525 1510 
10 769 771 781 1359 839 822 840 1500 1511 1526 
10 512 509 519 1363 596 597 569 1559 1560 1608 
10 239 775 605 1359 1611 1610 1609 1492 1612 1599 
10 512 108 523 782 564 562 566 1605 804 1590 
10 513 509 510 1357 593 592 586 1490 1571 1445 
10 683 682 679 1357 747 766 767 1486 1448 1573 
10 689 681 602 1362 740 1613 1602 1600 1555 1546 
10 525 517 507 1356 540 583 582 1583 1577 1513 
10 692 121 603 683 743 643 1415 744 737 1446 
10 681 691 612 1360 736 1595 1614 1575 1597 1596 
10 678 687 695 1356 761 710 760 1516 1604 1582 
10 687 678 690 1356 761 757 718 1604 1516 1411 
10 517 520 507 1356 548 579 583 1577 1413 1513 
10 513 519 509 1363 571 597 593 1461 1608 1560 
10 512 519 772 1363 569 1616 1615 1559 1608 1548 
10 608 133 778 604 622 795 1464 659 656 1470 
10 609 604 598 1358 658 665 663 1504 1549 1527 
10 780 768 774 1358 833 836 828 1506 1539 1550 
10 512 772 1361 1363 1615 1547 1574 1559 1548 1544 
10 602 681 1360 1362 1613 1575 1545 1546 1555 1532 
10 769 775 783 1359 842 799 843 1500 1612 1373 
10 613 605 599 1359 629 672 673 1368 1599 1498 
10 779 109 519 1363 811 570 1617 1563 1618 1608 
10 609 598 601 1358 663 662 655 1504 1527 1505 
10 780 771 768 1358 825 832 833 1506 1521 1539 
10 691 685 606 1360 733 1578 1594 1597 1535 1441 
10 612 691 681 119 1595 736 1614 635 731 735 
10 516 523 776 1361 563 1591 1579 1538 1592 1443 
10 518 682 510 1357 1584 1568 554 1482 1448 1445 
10 782 512 772 1361 1605 1615 809 1593 1574 1547 
10 679 689 683 1362 765 741 767 1556 1600 1455 
10 610 603 121 683 645 643 641 1551 1446 737 
10 610 683 689 1362 1551 741 1601 1552 1455 1600 
10 521 773 110 513 1420 814 572 574 1458 568 
10 519 513 779 1363 571 1562 1617 1608 1461 1563 
10 778 133 774 604 795 827 829 1470 656 1488 
10 781 129 605 611 817 616 1598 1524 648 649 
10 782 512 108 772 1605 564 804 809 1615 808 
10 681 612 602 1360 1614 639 1613 1575 1596 1545 
10 511 520 97 680 551 546 550 1477 1410 719 
10 610 602 689 120 642 1602 1601 640 638 739 
10 110 773 779 513 814 815 810 568 1458 1562 
10 96 520 517 690 547 548 531 716 1409 1576 
10 522 684 693 100 1382 730 1381 557 704 728 
10 119 681 612 602 735 1614 635 637 1613 639 
10 98 511 680 518 549 1477 720 555 556 1479 
10 687 517 238 1356 1603 1607 1606 1604 1577 1587 
10 518 682 98 510 1584 722 555 554 1568 553 
10 772 519 109 1363 1616 570 807 1548 1608 1618 
10 781 605 775 1359 1598 1610 819 1526 1599 1612 
10 601 598 602 1362 662 660 661 1531 1528 1546 
10 768 771 772 1363 832 830 831 1540 1542 1548 
10 693 99 682 510 727 723 729 1494 552 1568 
10 601 771 130 131 1509 820 651 650 821 136 
10 1356 1354 1359 1360 1497 1512 1369 1376 1520 1377 
10 1354 1356 1359 1361 1497 1369 1512 1519 1378 1380 
10 776 523 107 782 1591 561 786 806 1590 805 
10 691 118 612 606 732 634 1595 1594 619 636 
10 689 602 681 120 1602 1613 740 739 638 734 
10 109 772 512 519 807 1615 565 570 1616 569 
10 523 516 507 1361 563 581 580 1592 1538 1514 
10 685 691 678 1360 733 758 759 1535 1597 1518 
10 772 109 779 1363 807 811 812 1548 1618 1563 
10 1354 1357 1358 1362 1572 1565 1522 1530 1487 1474 
10 599 602 612 1360 668 639 671 1499 1545 1596 
10 782 772 769 1361 809 838 841 1593 1547 1501 
10 1357 1354 1358 1363 1572 1522 1565 1491 1543 1476 
10 524 464 470 77 1399 486 1398 542 471 484 
10 605 129 781 775 616 817 1598 1610 789 819 
10 774 133 132 604 827 138 826 1488 656 657 
10 52 695 244 241 708 1585 270 257 1619 273 
10 238 244 51 695 272 271 251 1586 1585 709 
10 245 525 37 240 1588 539 263 265 1620 246 
10 98 682 99 510 722 723 104 553 1568 552 
10 688 679 682 1357 764 766 726 1481 1573 1448 
10 518 510 509 1357 554 592 594 1482 1445 1571 
10 238 36 245 525 250 262 264 1589 538 1588 
10 470 515 524 76 1621 544 1398 483 535 543 
10 511 680 97 98 1477 719 550 549 720 103 
10 783 775 42 242 799 787 797 1372 1622 267 
10 47 613 243 605 626 1366 258 615 629 1623 
10 684 515 9 100 1447 536 702 704 537 106 
10 517 5 96 687 529 101 531 1603 697 698 
10 7 118 685 606 123 701 699 618 619 1578 
10 129 605 6 775 616 614 134 789 1610 788 
10 4 107 776 516 112 786 784 527 528 1579 
10 612 606 599 1360 636 674 671 1596 1441 1499 
10 769 776 782 1361 844 806 841 1501 1443 1593 
10 523 507 512 1361 580 578 566 1592 1514 1574 
10 239 42 6 775 254 45 252 1611 787 788 
10 238 51 5 687 251 53 249 1606 696 697 
10 47 239 6 605 253 252 50 615 1609 614 
10 91 9 684 463 93 702 703 476 474 1436 
10 517 36 5 238 530 38 529 1607 250 249 
10 9 515 463 76 536 1493 474 78 535 475 
10 463 9 684 515 474 702 1436 1493 536 1447 
10 6 605 239 775 614 1609 252 788 1610 1611 
10 238 5 517 687 249 529 1607 1606 697 1603 
10 602 119 681 120 637 735 1613 638 125 734 
10 7 606 685 241 618 1578 699 256 1440 1534 
10 516 776 4 240 1579 784 527 1537 1442 247 
10 772 512 108 109 1615 564 808 807 565 114 
10 96 690 517 687 716 1576 531 698 718 1603 
10 776 516 107 523 1579 528 786 1591 563 561 
10 118 691 685 606 732 733 701 619 1594 1578 
10 515 684 522 100 1447 1382 560 537 704 557 
10 122 603 607 692 644 646 625 742 1415 1414 
10 521 111 773 777 573 813 1420 1419 792 816 
10 519 109 779 513 570 811 1617 571 567 1562 
10 10 608 778 465 621 1464 793 478 1465 1463 
10 120 689 610 683 739 1601 640 738 741 1551 
10 11 607 466 686 623 1468 481 706 1429 1433 
10 8 514 464 777 532 1435 472 791 1431 1469 
10 516 4 37 240 527 40 526 1537 247 246 
10 7 685 52 241 699 700 55 256 1534 257 
10 8 77 464 514 80 471 472 532 533 1435 
10 11 686 466 92 706 1433 481 95 705 482 
10 4 776 41 240 784 785 43 247 1442 248 
10 606 7 46 241 618 48 617 1440 256 255 
10 678 691 681 1360 758 736 755 1518 1597 1575 
10 464 77 524 514 471 542 1399 1435 533 545 
10 121 603 122 692 643 644 127 743 1415 742 
10 773 521 110 111 1420 572 814 813 573 116 
10 692 607 122 686 1414 625 742 745 1429 707 
10 769 781 775 1359 840 819 842 1500 1526 1612 
10 611 599 605 1359 670 672 649 1525 1498 1599 
10 111 521 514 777 573 575 534 792 1419 1431 
10 685 695 52 241 711 708 700 1534 1619 257 
10 51 687 238 695 696 1606 251 709 710 1586 
10 525 516 37 240 541 526 539 1620 1537 246 
10 779 109 110 513 811 115 810 1562 567 568 
10 238 517 36 525 1607 530 250 1589 540 538 
10 121 120 610 683 126 640 641 737 738 1551 
10 42 775 239 242 787 1611 254 267 1622 269 
10 243 239 47 605 261 253 258 1623 1609 615 
10 515 470 463 76 1621 485 1493 535 483 475 
10 602 598 610 1362 660 664 642 1546 1528 1552 
10 772 779 768 1363 812 834 831 1548 1563 1540 
10 468 87 600 86 491 631 1449 492 89 630 
10 82 81 467 770 84 487 488 800 801 1452 
10 86 468 466 607 492 493 480 624 1567 1468 
10 777 464 81 467 1469 473 790 1566 489 487 
10 778 82 10 465 794 85 793 1463 477 478 
10 87 608 10 465 620 621 90 479 1465 478 
10 111 514 8 777 534 532 117 792 1431 791 
10 122 607 11 686 625 623 128 707 1429 706 
10 608 465 87 468 1465 479 620 1580 494 491 
10 778 467 82 465 1581 488 794 1463 490 477 
10 467 778 82 770 1581 794 488 1452 803 800 
10 87 600 608 468 631 633 620 491 1449 1580 
10 467 81 777 770 487 790 1566 1452 801 802 
10 86 600 468 607 630 1449 492 624 632 1567 
10 611 129 130 781 648 135 647 1524 817 818 
10 520 96 97 690 547 102 546 1409 716 717 
10 693 99 522 100 727 558 1381 728 105 557 
10 86 466 11 607 480 481 88 624 1468 623 
10 464 81 8 777 473 83 472 1469 790 791 
10 609 780 131 132 1502 823 654 653 824 137 
10 108 107 523 782 113 561 562 804 805 1590 
10 691 119 612 118 731 635 1595 732 124 634 
10 133 778 10 608 795 793 139 622 1464 621 
10 783 42 41 242 797 44 796 1372 267 266 
10 46 243 47 613 259 258 49 627 1366 626 
10 694 469 92 91 1394 495 713 712 496 94 
10 77 470 524 76 484 1398 542 79 483 543 
10 244 52 51 695 270 54 271 1585 708 709 
10 245 36 37 525 262 39 263 1588 538 539 
10 695 1356 241 685 1582 1390 1619 711 1533 1534 
10 1356 695 241 244 1582 1619 1390 1569 1585 273 
10 240 1356 525 516 1392 1583 1620 1537 1536 541 
10 240 525 1356 245 1620 1583 1392 265 1588 1570 
10 613 46 241 606 627 255 1389 628 617 1440 
10 613 241 46 243 1389 255 627 1366 260 259 
10 240 41 783 776 248 796 1391 1442 785 798 
10 240 783 41 242 1391 796 248 268 1372 266 
10 775 1359 242 783 1612 1374 1622 799 1373 1372 
10 1359 775 242 239 1612 1622 1374 1492 1611 269 
10 243 1359 605 613 1367 1599 1623 1366 1368 629 
10 1359 243 605 239 1367 1623 1599 1492 261 1609 
10 694 92 466 686 713 482 1393 715 705 1433 
10 694 466 92 469 1393 482 713 1394 498 495 
10 694 91 463 469 712 476 1405 1394 496 497 
10 91 694 463 684 712 1405 476 703 714 1436 
10 515 1355 470 524 1434 1402 1621 544 1401 1398 
10 515 470 1355 463 1621 1402 1434 1493 485 1406 
10 1105 1029 1625 1631 1636 1635 1634 1637 1638 1639 
10 1625 1029 1626 1631 1635 1641 1640 1639 1638 1642 
10 951 1625 1174 1626 1645 1644 1643 1646 1640 1647 
10 1025 1101 1021 1633 1649 1648 1064 1650 1651 1652 
10 1029 1016 1625 1626 1081 1653 1635 1641 1654 1640 
10 951 941 1174 1625 991 1655 1643 1645 1656 1644 
10 1025 1021 1632 1633 1064 1658 1657 1650 1652 1659 
10 1099 1021 1101 1633 1660 1648 1142 1661 1652 1651 
10 775 1024 1105 1631 1663 1662 1132 1664 1665 1637 
10 1105 1029 1097 1625 1636 1666 1135 1634 1635 1667 
10 1020 1030 1173 1625 1070 1669 1668 1670 1671 1672 
10 1029 1024 1016 1626 1054 1085 1081 1641 1673 1654 
10 1173 1625 1030 1626 1672 1671 1669 1674 1640 1675 
10 951 937 1625 1626 1003 1676 1645 1646 1677 1640 
10 1021 1624 1632 1633 1679 1678 1658 1652 1680 1659 
10 1099 1624 1021 1633 1681 1679 1660 1661 1680 1652 
10 1174 941 1164 1625 1655 1682 1201 1644 1656 1683 
10 1105 1625 769 1631 1634 1684 1156 1637 1639 1685 
10 1029 1097 1625 1630 1666 1667 1635 1686 1687 1688 
10 1029 1625 1019 1630 1635 1689 1057 1686 1688 1690 
10 951 1174 944 1626 1643 1691 988 1646 1647 1692 
10 1102 1098 948 1628 1128 1694 1693 1695 1696 1697 
10 1020 1173 1163 1625 1668 1214 1698 1670 1672 1699 
10 1171 949 943 1629 1701 997 1700 1702 1703 1704 
10 1025 1021 1018 1632 1064 1094 1050 1657 1658 1705 
10 1169 1165 947 1632 1208 1707 1706 1708 1709 1710 
10 1029 1019 1097 1630 1057 1711 1666 1686 1690 1687 
10 770 1099 1101 1633 1159 1142 1144 1712 1661 1651 
10 1172 1022 1027 1627 1714 1076 1713 1715 1716 1717 
10 1105 769 775 1631 1156 842 1132 1637 1685 1664 
10 1164 1625 941 1629 1683 1656 1682 1718 1719 1720 
10 1161 1174 1625 1626 1233 1644 1721 1722 1647 1640 
10 943 947 1165 1632 998 1707 1723 1724 1710 1709 
10 1103 1028 1099 1630 1726 1725 1141 1727 1728 1729 
10 850 855 847 1631 883 890 889 1730 1731 1732 
10 937 1625 1626 1631 1676 1640 1677 1733 1639 1642 
10 951 944 937 1626 988 1004 1003 1646 1692 1677 
10 1030 1625 1016 1626 1671 1653 1082 1675 1640 1654 
10 1105 1097 769 1625 1135 1154 1156 1634 1667 1684 
10 951 937 941 1625 1003 1001 991 1645 1676 1656 
10 1174 1164 1161 1625 1201 1230 1233 1644 1683 1721 
10 1016 1030 1020 1625 1082 1070 1078 1653 1671 1670 
10 852 952 849 1631 1735 1734 871 1736 1737 1738 
10 943 1632 1624 1633 1724 1678 1739 1740 1659 1680 
10 1104 1096 950 1631 1122 1742 1741 1743 1744 1745 
10 943 1165 1624 1632 1723 1746 1739 1724 1709 1678 
10 1163 1020 1625 1627 1698 1670 1699 1747 1748 1749 
10 1171 943 1165 1629 1700 1723 1207 1702 1704 1750 
10 948 1098 942 1628 1694 1751 984 1697 1696 1752 
10 850 847 1626 1631 889 1754 1753 1730 1732 1642 
10 1172 1166 1022 1627 1220 1755 1714 1715 1756 1716 
10 1028 1021 1099 1630 1063 1660 1725 1728 1757 1729 
10 1019 1029 1016 1625 1057 1081 1080 1689 1635 1653 
10 1161 1163 1173 1625 1231 1214 1232 1721 1699 1672 
10 1165 943 1624 1629 1723 1739 1746 1750 1704 1758 
10 1099 1021 1624 1630 1660 1679 1681 1729 1757 1759 
10 942 1098 1624 1628 1751 1761 1760 1752 1696 1762 
10 1022 1166 1624 1627 1755 1764 1763 1716 1756 1765 
10 1161 1625 1173 1626 1721 1672 1232 1722 1640 1674 
10 1168 944 1174 1626 1766 1691 1198 1767 1692 1647 
10 1096 940 950 1631 1768 978 1742 1744 1769 1745 
10 1096 1628 940 1631 1771 1770 1768 1744 1772 1769 
10 894 1632 947 1633 1774 1710 1773 1775 1659 1776 
10 1019 1625 1627 1630 1689 1749 1777 1690 1688 1778 
10 944 937 1626 1631 1004 1677 1692 1779 1733 1642 
10 849 952 944 1631 1734 968 1780 1738 1737 1779 
10 949 938 943 1629 1010 1013 997 1703 1781 1704 
10 894 1169 947 1632 1782 1706 1773 1774 1708 1710 
10 770 895 900 1633 1784 928 1783 1712 1785 1786 
10 1096 1628 1625 1630 1771 1788 1787 1789 1790 1688 
10 1171 1165 1160 1629 1207 1229 1226 1702 1750 1791 
10 1018 898 895 1632 1793 923 1792 1705 1794 1795 
10 943 938 1624 1629 1013 1796 1739 1704 1781 1758 
10 937 940 941 1625 999 1000 1001 1676 1797 1656 
10 1096 769 1097 1625 1153 1154 1146 1787 1684 1667 
10 1020 1019 1016 1625 1079 1080 1078 1670 1689 1653 
10 1163 1161 1164 1625 1231 1230 1222 1699 1721 1683 
10 940 1625 1628 1629 1797 1788 1770 1798 1719 1799 
10 1028 1017 1021 1630 1088 1092 1063 1728 1800 1757 
10 1095 1099 1624 1630 1151 1681 1801 1802 1729 1759 
10 1021 1017 1624 1630 1092 1803 1679 1757 1800 1759 
10 1095 1103 1099 1630 1149 1141 1151 1802 1727 1729 
10 1096 1625 1097 1630 1787 1667 1146 1789 1688 1687 
10 1160 1165 1624 1629 1229 1746 1804 1791 1750 1758 
10 1019 1625 1020 1627 1689 1670 1079 1777 1749 1748 
10 940 941 1625 1629 1000 1656 1797 1798 1720 1719 
10 1172 1160 1166 1627 1225 1228 1220 1715 1805 1756 
10 1164 1163 1625 1629 1222 1699 1683 1718 1806 1719 
10 1625 940 1628 1631 1797 1770 1788 1639 1769 1772 
10 1096 1625 1628 1631 1787 1788 1771 1744 1639 1772 
10 948 942 938 1628 984 1011 1009 1697 1752 1807 
10 1102 1095 1098 1628 1148 1150 1128 1695 1808 1696 
10 1625 1163 1627 1629 1699 1747 1749 1719 1806 1809 
10 1166 1160 1624 1627 1228 1804 1764 1756 1805 1765 
10 1098 1095 1624 1628 1150 1801 1761 1696 1808 1762 
10 938 942 1624 1628 1011 1760 1796 1807 1752 1762 
10 895 1025 1018 1632 1810 1050 1792 1795 1657 1705 
10 895 1101 770 900 1811 1144 1784 928 1812 1783 
10 942 1624 1098 1633 1760 1761 1751 1813 1680 1814 
10 895 770 1101 1633 1784 1144 1811 1785 1712 1651 
10 1017 1022 1624 1627 1090 1763 1803 1815 1716 1765 
10 1022 1018 1021 1632 1093 1094 1091 1816 1705 1658 
10 895 898 1018 1025 923 1793 1792 1810 1817 1050 
10 1022 1021 1624 1632 1091 1679 1763 1816 1658 1678 
10 1166 1022 1624 1632 1755 1763 1764 1818 1816 1678 
10 1166 1160 1165 1624 1228 1229 1227 1764 1804 1746 
10 895 892 900 1633 934 935 928 1785 1819 1786 
10 1095 1099 1098 1624 1151 1152 1150 1801 1681 1761 
10 943 938 942 1624 1013 1011 1012 1739 1796 1760 
10 1017 1022 1021 1624 1090 1091 1092 1803 1763 1679 
10 853 850 847 1626 878 889 885 1820 1753 1754 
10 895 1632 892 1633 1795 1821 934 1785 1659 1819 
10 1027 1022 1017 1627 1076 1090 1089 1717 1716 1815 
10 849 944 1626 1631 1780 1692 1822 1738 1779 1642 
10 894 947 939 1633 1773 972 1823 1775 1776 1824 
10 1024 1031 1016 1626 1046 1084 1085 1673 1825 1654 
10 1096 769 1625 1631 1153 1684 1787 1744 1685 1639 
10 937 940 1625 1631 999 1797 1676 1733 1769 1639 
10 897 894 939 1633 916 1823 1826 1827 1775 1824 
10 942 943 1624 1633 1012 1739 1760 1813 1740 1680 
10 1099 1098 1624 1633 1152 1761 1681 1661 1814 1680 
10 1166 1624 1165 1632 1764 1746 1227 1818 1678 1709 
10 1169 1162 1165 1632 1194 1238 1208 1708 1828 1709 
10 1624 1017 1627 1630 1803 1815 1765 1759 1800 1778 
10 941 171 951 1174 989 987 991 1655 1196 1643 
10 1624 938 1628 1629 1796 1807 1762 1758 1781 1799 
10 1095 1624 1628 1630 1801 1762 1808 1802 1759 1790 
10 1160 1624 1627 1629 1804 1765 1805 1791 1758 1809 
10 1104 108 950 1096 1118 973 1741 1122 1120 1742 
10 894 947 897 939 1773 1829 916 1823 972 1826 
10 1172 184 1027 1022 1216 1071 1713 1714 1075 1076 
10 1098 110 1102 948 1126 1124 1128 1694 979 1693 
10 950 940 937 1631 978 999 1002 1745 1769 1733 
10 1104 769 1096 1631 1155 1153 1122 1743 1685 1744 
10 851 852 847 1631 870 888 891 1830 1736 1732 
10 855 851 847 1631 882 891 890 1731 1830 1732 
10 1171 949 173 943 1701 993 1202 1700 997 995 
10 183 1172 1027 1627 1215 1713 1072 1831 1715 1717 
10 1161 1168 1174 1626 1236 1198 1233 1722 1767 1647 
10 892 895 898 1632 934 923 929 1821 1795 1794 
10 1175 854 849 1626 1833 874 1832 1834 1835 1822 
10 849 944 1168 1626 1780 1766 1836 1822 1692 1767 
10 897 892 894 1633 932 933 916 1827 1819 1775 
10 1166 1170 1026 1632 1221 1838 1837 1818 1839 1840 
10 132 1103 1028 1099 1136 1726 1059 1140 1141 1725 
10 940 950 108 1096 978 973 977 1768 1742 1120 
10 942 939 943 1633 1014 1015 1012 1813 1824 1740 
10 1099 770 1098 1633 1159 1158 1152 1661 1712 1814 
10 1173 1030 1167 1626 1669 1841 1211 1674 1675 1842 
10 1174 941 171 1164 1655 989 1196 1201 1682 1200 
10 1162 1169 899 1632 1194 1844 1843 1828 1708 1845 
10 775 769 1106 1631 842 1157 1116 1664 1685 1846 
10 944 952 937 1631 968 1005 1004 1779 1737 1733 
10 894 892 1632 1633 933 1821 1774 1775 1819 1659 
10 1166 1026 1022 1632 1837 1077 1755 1818 1840 1816 
10 1031 853 1023 1626 1848 1847 1047 1825 1820 1849 
10 183 1163 1172 1627 1213 1217 1215 1831 1747 1715 
10 1169 894 899 1632 1782 919 1844 1708 1774 1845 
10 184 1172 1166 1022 1216 1220 1218 1075 1714 1755 
10 1166 1165 1162 1632 1227 1238 1237 1818 1709 1828 
10 1017 1019 1627 1630 1087 1777 1815 1800 1690 1778 
10 1020 183 1027 1627 1068 1072 1073 1748 1831 1717 
10 851 952 852 1631 1850 1735 870 1830 1737 1736 
10 948 1098 110 942 1694 1126 979 984 1751 983 
10 1096 1095 1628 1630 1145 1808 1771 1789 1802 1790 
10 1020 1030 182 1173 1070 1065 1069 1668 1669 1210 
10 1029 1105 1097 130 1636 1135 1666 1053 1130 1134 
10 173 1165 1171 943 1206 1207 1202 995 1723 1700 
10 946 942 1100 1633 985 1852 1851 1853 1813 1854 
10 940 1628 938 1629 1770 1807 1007 1798 1799 1781 
10 109 1102 948 1628 1123 1693 980 1855 1695 1697 
10 1016 1031 1023 1626 1084 1047 1083 1654 1825 1849 
10 1175 849 1168 1626 1832 1836 1190 1834 1822 1767 
10 1019 1020 1017 1627 1079 1086 1087 1777 1748 1815 
10 1028 1021 132 1099 1063 1061 1059 1725 1660 1140 
10 1163 1160 1627 1629 1224 1805 1747 1806 1791 1809 
10 1096 1097 1095 1630 1146 1147 1145 1789 1687 1802 
10 946 1100 942 111 1851 1852 985 964 1107 982 
10 130 1097 1029 1019 1134 1666 1053 1055 1711 1057 
10 1173 182 1020 1163 1210 1069 1668 1214 1212 1698 
10 133 1021 1025 1101 1062 1064 1043 1111 1648 1649 
10 174 1165 947 1169 1205 1707 961 1184 1208 1706 
10 1020 1163 183 1627 1698 1213 1068 1748 1747 1831 
10 1018 1026 898 1632 1051 1856 1793 1705 1840 1794 
10 109 948 940 1628 980 981 976 1855 1697 1770 
10 1102 109 1096 1628 1123 1121 1125 1695 1855 1771 
10 940 1096 109 1628 1768 1121 976 1770 1771 1855 
10 942 1098 1100 1633 1751 1129 1852 1813 1814 1854 
10 940 938 941 1629 1007 1008 1000 1798 1781 1720 
10 1030 1016 1023 1626 1082 1083 1067 1675 1654 1849 
10 185 1166 1170 1026 1219 1221 1187 1040 1837 1838 
10 1030 1023 1167 1626 1067 1857 1841 1675 1849 1842 
10 848 1023 853 1626 1858 1847 879 1859 1849 1820 
10 1627 1624 1628 1629 1765 1762 1860 1809 1758 1799 
10 1624 1627 1628 1630 1765 1860 1762 1759 1778 1790 
10 1164 1160 1163 1629 1223 1224 1222 1718 1791 1806 
10 1099 1021 133 1101 1660 1062 1139 1142 1648 1111 
10 1098 942 1100 111 1751 1852 1129 1127 982 1107 
10 947 943 1165 174 998 1723 1707 961 996 1205 
10 107 950 945 1104 974 975 958 1117 1741 1861 
10 898 1026 893 1632 1856 1862 924 1794 1840 1863 
10 1166 1026 185 1022 1837 1040 1219 1755 1077 1074 
10 1627 1625 1628 1630 1749 1788 1860 1778 1688 1790 
10 1625 1627 1628 1629 1749 1860 1788 1719 1809 1799 
10 952 851 945 1631 1850 1864 967 1737 1830 1865 
10 848 853 847 1626 879 885 884 1859 1820 1754 
10 770 900 1100 1633 1783 1866 1143 1712 1786 1854 
10 172 949 1171 1629 992 1701 1203 1867 1703 1702 
10 897 896 892 1633 915 936 932 1827 1868 1819 
10 900 892 896 1633 935 936 927 1786 1819 1868 
10 940 1096 108 109 1768 1120 977 976 1121 114 
10 946 897 939 1633 1869 1826 971 1853 1827 1824 
10 951 170 944 1174 986 955 988 1643 1197 1691 
10 1026 1018 1022 1632 1051 1093 1077 1840 1705 1816 
10 945 1104 950 1631 1861 1741 975 1865 1743 1745 
10 1100 900 896 1633 1866 927 1870 1854 1786 1868 
10 1097 1019 131 1630 1711 1056 1133 1687 1690 1871 
10 172 941 949 1629 990 994 992 1867 1720 1703 
10 946 896 897 1633 1872 915 1869 1853 1868 1827 
10 131 1028 1103 1630 1058 1726 1137 1871 1728 1727 
10 172 1171 1164 1629 1203 1204 1199 1867 1702 1718 
10 847 849 854 1626 887 874 886 1754 1822 1835 
10 1164 941 172 1629 1682 990 1199 1718 1720 1867 
10 131 1019 1028 1630 1056 1060 1058 1871 1690 1728 
10 1026 1170 893 1632 1838 1873 1862 1840 1839 1863 
10 1161 1175 1168 1626 1235 1190 1236 1722 1834 1767 
10 1170 1162 899 1632 1195 1843 1874 1839 1828 1845 
10 1097 131 1103 1630 1133 1137 1138 1687 1871 1727 
10 942 1098 110 111 1751 1126 983 982 1127 116 
10 1170 899 893 1632 1874 920 1873 1839 1845 1863 
10 107 1104 945 776 1117 1861 958 786 1119 1875 
10 1105 129 1029 1024 1131 1052 1636 1662 1037 1054 
10 181 1173 1030 1167 1209 1669 1066 1181 1211 1841 
10 1023 848 1167 1626 1858 1876 1857 1849 1859 1842 
10 899 894 892 1632 919 933 931 1845 1774 1821 
10 132 1021 133 1099 1061 1062 138 1140 1660 1139 
10 1165 943 173 174 1723 995 1206 1205 996 179 
10 185 184 1166 1022 190 1218 1219 1074 1075 1755 
10 130 131 1097 1019 136 1133 1134 1055 1056 1711 
10 183 1020 182 1163 1068 1069 188 1213 1698 1212 
10 893 892 898 1632 930 929 924 1863 1821 1794 
10 41 851 855 1106 861 882 880 1114 1877 1878 
10 855 42 1106 850 881 1113 1878 883 867 1879 
10 1031 150 853 850 1045 876 1848 1880 866 878 
10 848 847 854 1626 884 886 875 1859 1754 1835 
10 1027 1017 1020 1627 1089 1086 1073 1717 1815 1748 
10 171 941 172 1164 989 990 177 1200 1682 1199 
10 851 952 140 852 1850 965 859 870 1735 869 
10 146 1175 1167 854 1189 1191 1179 872 1833 1881 
10 945 4 107 776 956 112 958 1875 784 786 
10 944 12 141 849 954 144 953 1780 856 857 
10 181 1023 13 1167 1034 1032 186 1181 1857 1180 
10 12 170 1168 944 175 1178 1176 954 955 1766 
10 129 775 6 1024 789 788 134 1037 1663 1036 
10 12 1168 145 849 1176 1177 147 856 1836 858 
10 946 1100 896 1633 1851 1870 1872 1853 1854 1868 
10 1172 1163 1160 1627 1217 1224 1225 1715 1747 1805 
10 12 944 1168 849 954 1766 1176 856 1780 1836 
10 1104 945 776 1631 1861 1875 1119 1743 1865 1882 
10 1024 775 6 850 1663 788 1036 1883 1884 865 
10 851 4 945 776 860 956 1864 1885 784 1875 
10 13 1023 848 1167 1032 1858 862 1180 1857 1876 
10 952 945 937 1631 967 1006 1005 1737 1865 1733 
10 776 1106 769 1631 1115 1157 844 1882 1846 1685 
10 1161 1173 1167 1626 1232 1211 1234 1722 1674 1842 
10 1096 1095 1102 1628 1145 1148 1125 1771 1808 1695 
10 938 940 948 1628 1007 981 1009 1807 1770 1697 
10 775 42 6 850 787 45 788 1884 867 865 
10 848 146 13 1167 863 149 862 1876 1179 1180 
10 151 848 13 1023 864 862 154 1033 1858 1032 
10 945 140 4 851 957 142 956 1864 859 860 
10 41 4 851 776 43 860 861 785 784 1885 
10 150 1024 6 850 1035 1036 152 866 1883 865 
10 776 945 851 1631 1875 1864 1885 1882 1865 1830 
10 1025 895 10 1101 1810 911 1041 1649 1811 1110 
10 896 8 1100 946 904 1108 1870 1872 963 1851 
10 15 1026 1170 893 1039 1838 1185 908 1862 1873 
10 1168 944 170 1174 1766 955 1178 1198 1691 1197 
10 1030 1023 181 1167 1067 1034 1066 1841 1857 1181 
10 129 1105 775 1024 1131 1132 789 1037 1662 1663 
10 14 947 894 1169 959 1773 902 1183 1706 1782 
10 893 899 892 1632 920 931 930 1863 1845 1821 
10 1166 1162 1170 1632 1237 1195 1221 1818 1828 1839 
10 1103 1095 1097 1630 1149 1147 1138 1727 1802 1687 
10 941 938 949 1629 1008 1010 994 1720 1781 1703 
10 1167 1175 1161 1626 1191 1235 1234 1842 1834 1722 
10 1164 1171 1160 1629 1204 1226 1223 1718 1702 1791 
10 1028 1019 1017 1630 1060 1087 1088 1728 1690 1800 
10 775 1106 42 850 1116 1113 787 1884 1879 867 
10 1031 1024 150 850 1046 1035 1045 1880 1883 866 
10 952 140 945 851 965 957 967 1850 859 1864 
10 776 851 41 1106 1885 861 785 1115 1877 1114 
10 81 770 82 900 801 800 84 926 1783 925 
10 82 770 1101 900 800 1144 1112 925 1783 1812 
10 770 81 1100 900 801 1109 1143 1783 926 1866 
10 82 1101 895 900 1112 1811 912 925 1812 928 
10 166 1018 898 165 1049 1793 921 168 1048 922 
10 1167 848 146 854 1876 863 1179 1881 875 872 
10 1100 900 81 896 1866 926 1109 1870 927 906 
10 1026 898 166 1018 1856 921 1038 1051 1793 1049 
10 898 1026 166 893 1856 1038 921 924 1862 909 
10 1025 898 1018 165 1817 1793 1050 1042 922 1048 
10 156 894 14 947 901 902 159 960 1773 959 
10 894 160 14 1169 903 162 902 1782 1182 1183 
10 898 1025 895 165 1817 1810 923 922 1042 910 
10 160 161 1162 899 163 1192 1193 917 918 1843 
10 156 155 897 939 158 913 914 969 970 1826 
10 166 1026 15 893 1038 1039 169 909 1862 908 
10 1101 895 10 82 1811 911 1110 1112 912 85 
10 896 155 8 946 905 157 904 1872 962 963 
10 1025 10 895 165 1041 911 1810 1042 167 910 
10 81 8 1100 896 83 1108 1109 906 904 1870 
10 1170 161 15 893 1186 164 1185 1873 907 908 
10 896 897 155 946 915 913 905 1872 1869 962 
10 161 1170 899 893 1186 1874 918 907 1873 920 
10 897 947 156 939 1829 960 914 1826 972 969 
10 1162 899 161 1170 1843 918 1192 1195 1874 1186 
10 160 1162 1169 899 1193 1194 1182 917 1843 1844 
10 946 897 155 939 1869 913 962 971 1826 970 
10 946 939 942 1633 971 1014 985 1853 1824 1813 
10 1100 1098 770 1633 1129 1158 1143 1854 1814 1712 
10 894 156 897 947 901 914 916 1773 960 1829 
10 1169 894 160 899 1782 903 1182 1844 919 917 
10 950 107 108 1104 974 113 973 1741 1117 1118 
10 172 173 1171 949 178 1202 1203 992 993 1701 
10 183 1027 1172 184 1072 1713 1215 189 1071 1216 
10 185 1170 15 1026 1187 1185 191 1040 1838 1039 
10 1100 946 8 111 1851 963 1108 1107 964 117 
10 10 133 1025 1101 139 1043 1041 1110 1111 1649 
10 1105 130 1029 129 1130 1053 1636 1131 135 1052 
10 1030 181 182 1173 1066 187 1065 1669 1209 1210 
10 1028 132 131 1103 1059 137 1058 1726 1136 1137 
10 171 170 951 1174 176 986 987 1196 1197 1643 
10 174 947 14 1169 961 959 180 1184 1706 1183 
10 109 1102 110 948 1123 1124 115 980 1693 979 
10 769 1104 776 1631 1155 1119 844 1685 1743 1882 
10 945 950 937 1631 975 1002 1006 1865 1745 1733 
10 145 1175 146 854 1188 1189 148 873 1833 872 
10 1106 855 41 42 1878 880 1114 1113 881 44 
10 150 853 151 1031 876 877 153 1045 1848 1044 
10 140 952 141 852 965 966 143 869 1735 868 
10 1029 1024 1631 1105 1054 1665 1638 1636 1662 1637 
10 1024 1029 1631 1626 1054 1638 1665 1673 1641 1642 
10 1633 895 1025 1101 1785 1810 1650 1651 1811 1649 
10 1633 1025 895 1632 1650 1810 1785 1659 1657 1795 
10 1024 850 1631 775 1883 1730 1665 1663 1884 1664 
10 850 1024 1631 1626 1883 1665 1730 1753 1673 1642 
10 1633 943 947 939 1740 998 1776 1824 1015 972 
10 1633 947 943 1632 1776 998 1740 1659 1710 1724 
10 1631 847 849 852 1732 887 1738 1736 888 871 
10 1631 849 847 1626 1738 887 1732 1642 1822 1754 
10 1167 1626 854 1175 1842 1835 1881 1191 1834 1833 
10 1626 1167 854 848 1842 1881 1835 1859 1876 875 
10 853 151 1023 848 877 1033 1847 879 864 1858 
10 151 853 1023 1031 877 1847 1033 1044 1848 1047 
10 850 1626 1031 1024 1753 1825 1880 1883 1673 1046 
10 850 1031 1626 853 1880 1825 1753 878 1848 1820 
10 849 145 1175 1168 858 1188 1832 1836 1177 1190 
10 849 1175 145 854 1832 1188 858 874 1833 873 
10 851 1631 1106 776 1830 1846 1877 1885 1882 1115 
10 1631 851 1106 855 1830 1877 1846 1731 882 1878 
10 850 1631 1106 855 1730 1846 1879 883 1731 1878 
10 850 1106 1631 775 1879 1846 1730 1884 1116 1664 
10 849 141 952 852 857 966 1734 871 868 1735 
10 849 952 141 944 1734 966 857 1780 968 953 

CELL_TYPES 940
24
24
24
24
24
24
24
24
24
24
24
24
24
24
24
24
24
24
24
24
24
24
24
24
24
24
24
24
24
24
24
24
24
24
24
24
24
24
24
24
24
24
24
24
24
24
24
24
24
24
24
24
24
24
24
24
24
24
24
24
24
24
24
24
24
24
24
24
24
24
24
24
24
24
24
24
24
24
24
24
24
24
24
24
24
24
24
24
24
24
24
24
24
24
24
24
24
24
24
24
24
24
24
24
24
24
24
24
24
24
24
24
24
24
24
24
24
24
24
24
24
24
24
24
24
24
24
24
24
24
24
24
24
24
24
24
24
24
24
24
24
24
24
24
24
24
24
24
24
24
24
24
24
24
24
24
24
24
24
24
24
24
24
24
24
24
24
24
24
24
24
24
24
24
24
24
24
24
24
24
24
24
24
24
24
24
24
24
24
24
24
24
24
24
24
24
24
24
24
24
24
24
24
24
24
24
24
24
24
24
24
24
24
24
24
24
24
24
24
24
24
24
24
24
24
24
24
24
24
24
24
24
24
24
24
24
24
24
24
24
24
24
24
24
24
24
24
24
24
24
24
24
24
24
24
24
24
24
24
24
24
24
24
24
24
24
24
24
24
24
24
24
24
24
24
24
24
24
24
24
24
24
24
24
24
24
24
24
24
24
24
24
24
24
24
24
24
24
24
24
24
24
24
24
24
24
24
24
24
24
24
24
24
24
24
24
24
24
24
24
24
24
24
24
24
24
24
24
24
24
24
24
24
24
24
24
24
24
24
24
24
24
24
24
24
24
24
24
24
24
24
24
24
24
24
24
24
24
24
24
24
24
24
24
24
24
24
24
24
24
24
24
24
24
24
24
24
24
24
24
24
24
24
24
24
24
24
24
24
24
24
24
24
24
24
24
24
24
24
24
24
24
24
24
24
24
24
24
24
24
24
24
24
24
24
24
24
24
24
24
24
24
24
24
24
24
24
24
24
24
24
24
24
24
24
24
24
24
24
24
24
24
24
24
24
24
24
24
24
24
24
24
24
24
24
24
24
24
24
24
24
24
24
24
24
24
24
24
24
24
24
24
24
24
24
24
24
24
24
24
24
24
24
24
24
24
24
24
24
24
24
24
24
24
24
24
24
24
24
24
24
24
24
24
24
24
24
24
24
24
24
24
24
24
24
24
24
24
24
24
24
24
24
24
24
24
24
24
24
24
24
24
24
24
24
24
24
24
24
24
24
24
24
24
24
24
24
24
24
24
24
24
24
24
24
24
24
24
24
24
24
24
24
24
24
24
24
24
24
24
24
24
24
24
24
24
24
24
24
24
24
24
24
24
24
24
24
24
24
24
24
24
24
24
24
24
24
24
24
24
24
24
24
24
24
24
24
24
24
24
24
24
24
24
24
24
24
24
24
24
24
24
24
24
24
24
24
24
24
24
24
24
24
24
24
24
24
24
24
24
24
24
24
24
24
24
24
24
24
24
24
24
24
24
24
24
24
24
24
24
24
24
24
24
24
24
24
24
24
24
24
24
24
24
24
24
24
24
24
24
24
24
24
24
24
24
24
24
24
24
24
24
24
24
24
24
24
24
24
24
24
24
24
24
24
24
24
24
24
24
24
24
24
24
24
24
24
24
24
24
24
24
24
24
24
24
24
24
24
24
24
24
24
24
24
24
24
24
24
24
24
24
24
24
24
24
24
24
24
24
24
24
24
24
24
24
24
24
24
24
24
24
24
24
24
24
24
24
24
24
24
24
24
24
24
24
24
24
24
24
24
24
24
24
24
24
24
24
24
24
24
24
24
24
24
24
24
24
24
24
24
24
24
24
24
24
24
24
24
24
24
24
24
24
24
24
24
24
24
24
24
24
24
24
24
24
24
24
24
24
24
24
24
24
24
24
24
24
24
24
24
24
24
24
24
24
24
24
24
24
24
24
24
24
24
24
24
24
24
24
24
24
24
24
24
24
24
24
24
24
24
24
24
24
24
24
24
24
24
24
24
24
24
24
24
24
24
24
24
24
24
24
24
24
24
24
24
24
24
24
24
24
24
24
24
24
24
24
24
24
24
24
24
24
24
24
24
24
24
24
24
24
24
24
24
24
24
24
24
24
24
24
24
24
24
24
24
24
24
24

POINT_DATA 1886
FIELD FieldData 8
Displacement 3 1886 double
0 0 0 0 0 0 0 0 0 
0 0 0 0.00031709792813 0 3.8009765075e-05 0 0 0 
0.00031709792813 0 2.4993561301e-05 0 0 0 0 0 0 
0 0 0 0 0 0 0 0 0 
0.00031709792813 0 0.00034151205635 0.00031709792813 0 0.00034116419806 0 0 0 
0 0 0 0 0 0 0 0 0 
0 0 0 0 0 0 0 0 0 
0 0 0 0 0 0 0 0 0 
0 0 0 0 0 0 0 0 0 
0 0 0 0 0 0 0 0 0 
0 0 0 0 0 0 0 0 0 
0 0 0 0 0 0 0 0 0 
-4.5426136096e-08 0 -1.8141767237e-07 3.0804889035e-06 0 1.6515602475e-06 3.0750305472e-08 0 -4.8683390869e-08 
-3.9525840523e-07 0 -9.6021741682e-08 4.21328273e-05 0 1.3798397875e-05 0.00031709792813 1.1575004789e-05 0.00010880904012 
0.00031709792813 -2.7447794805e-05 8.9250299691e-05 0.00031709792813 5.6508857694e-07 8.7415733157e-05 0.00031709792813 1.3135769895e-06 4.0195557813e-05 
0.00031709792813 -6.6603244332e-06 8.0573548029e-05 -9.0006759039e-08 0 -4.2052107137e-07 2.1390866873e-06 0 4.6651713726e-06 
-3.345301001e-08 0 -1.1963711263e-07 -7.9256315647e-07 0 6.9873715225e-07 4.477760329e-05 0 1.3536617848e-05 
0 0 0 0 0 0 0 0 0 
0 0 0 0 0 0 0 0 0 
0 0 0 0 0 0 0 0 0 
0 0 0 -8.1238467432e-08 0 -1.7175449791e-07 2.5644326427e-05 0 -4.6374849321e-05 
-1.970717139e-08 0 -3.4658378585e-08 6.6912136931e-06 0 -9.7167134786e-06 0.00021195199367 0 -0.00017768140102 
0 0 0 0 0 0 0 0 0 
0 0 0 0 0 0 7.6097730296e-07 0 -8.0944692009e-07 
2.6279837977e-05 0 -5.4054709641e-05 1.449122391e-07 0 -7.6671432742e-08 5.4811444255e-06 0 -1.0432440344e-05 
0.00020874290428 0 -0.00018272159291 0 0 0 0 0 0 
0 0 0 0 0 0 0 0 0 
0 0 0 0 0 0 0 0 0 
0 0 0 0 0 0 0 0 0 
0 0 0 0 0 0 0 0 0 
0 0 0 0 0 0 0 0 0 
0 0 0 0 0 0 0 0 0 
0 0 0 0 0 0 0 0 0 
0 0 0 0 0 0 0 0 0 
0 0 0 0 0 0 0 0 0 
0 0 0 0 0 0 0.00011701368287 0 4.532445195e-05 
6.6325756564e-06 0 5.4383605422e-06 -4.277362228e-07 0 8.6775557498e-07 -5.0545053733e-08 0 4.3892221802e-08 
7.6779129028e-08 0 8.9121813718e-08 0.00021791884935 0 7.123268462e-05 4.3937796253e-05 0 2.0690859136e-05 
1.2049599631e-06 0 1.9026703609e-06 -2.7888740787e-07 0 4.103279607e-07 1.1709828289e-07 0 2.6855157983e-08 
2.621431798e-08 0 3.0727401196e-08 0 0 0 0 0 0 
0 0 0 0 0 0 0 0 0 
0 0 0 0 0 0 0 0 0 
0 0 0 0 0 0 0 0 0 
9.1528454181e-05 0 6.6623771181e-05 7.5269878149e-06 0 1.0559702723e-05 -3.0974425308e-07 0 9.7976127317e-07 
1.3070321459e-07 0 1.6143067965e-07 1.035480297e-07 0 1.0608946792e-07 0.00020203111539 0 7.716714007e-05 
4.5303870655e-05 0 3.8073784675e-05 1.4673807985e-06 0 2.5120087354e-06 -4.4648592923e-08 0 4.1886433176e-07 
1.7082755421e-07 0 1.1391935664e-07 2.9179241717e-08 0 3.0370232688e-08 0.00031709792813 0 0.00026841446843 
0.00031709792813 0 0.00033321969004 0.00031709792813 0 0.00017923355519 0.00031709792813 0 0.00031777252111 
0.00031709792813 0 0.00034224093484 0.00031709792813 -4.1756138585e-09 0.00034178430143 0.00031709792813 2.8127033936e-07 0.00034202469073 
0.00031709792813 7.8892999258e-08 0.00034208864718 0.00031709792813 -1.4008267089e-07 0.00034185993033 0.00031709792813 4.5214200656e-07 0.00034143428739 
0.00031709792813 0 0.00027610714603 0.00031709792813 0 0.00033200175085 0.00031709792813 0 0.00018515361006 
0.00031709792813 0 0.00031201642064 0.00031709792813 0 0.00034158521987 0 0 0 
0 0 0 0 0 0 0 0 0 
0 0 0 0 0 0 0 0 0 
0 0 0 0 0 0 0 0 0 
0 0 0 0 0 0 0 0 0 
0 0 0 0 0 0 0.00032018561407 0 0.00033069228955 
0.00029097227953 0 0.00028473654479 0.00018029888493 0 0.00018945854137 6.9227788279e-05 0 6.8091163377e-05 
1.2901912223e-05 0 1.3158108973e-05 0.00031931307528 0 0.00033997447779 0.00031243317443 0 0.00032057019985 
0.00024282638203 0 0.00023720560583 0.00011507928332 0 0.00011866718147 3.3704709665e-05 0 3.1717756096e-05 
3.1040695512e-06 0 5.1807357851e-06 0.00031895687755 0 0.00032996813704 0.00028371688263 0 0.00028562065932 
0.00017624458411 0 0.00018694439828 7.1962095503e-05 0 7.0283521924e-05 1.370580851e-05 0 1.343907937e-05 
0.00031972345785 0 0.00033980373588 0.00030993907231 0 0.00031297286232 0.00023959148706 0 0.00023268423542 
0.0001171150755 0 0.00011951654308 3.6245375319e-05 0 3.4615894586e-05 3.1684831261e-06 0 4.8199279256e-06 
0 0 0 0 0 0 0 0 0 
0 0 0 0 0 0 0 0 0 
0 0 0 0 0 0 0 0 0 
0 0 0 0 0 0 0 0 0 
0 0 0 0 0 0 0 0 0 
0 0 0 0 0 0 0 0 0 
0 0 0 0 0 0 0 0 0 
0 0 0 0 0 0 0 0 0 
0 0 0 0 0 0 0 0 0 
0 0 0 0 0 0 0 0 0 
0 0 0 0 0 0 0 0 0 
0 0 0 0 0 0 0 0 0 
0 0 0 0 0 0 0 0 0 
0 0 0 0 0 0 0 0 0 
0 0 0 0 0 0 0 0 0 
-1.5376679165e-07 -1.2672686612e-07 1.8394238346e-08 3.2669665414e-08 5.4833173507e-10 -4.897160025e-08 -5.2635310905e-07 -9.3789548822e-07 1.4998178958e-07 
-8.2791781779e-07 1.9955187753e-06 4.2407143585e-07 -6.3362716455e-08 -6.2685323091e-08 -8.4200360435e-08 6.3732973382e-06 -7.7584531441e-07 -1.7859607286e-06 
-3.0246605359e-07 -2.8757049844e-07 -1.1201067062e-07 3.5543878536e-09 -3.0706049496e-08 -3.1382944816e-08 -2.295894124e-07 1.8928289446e-07 7.1361270101e-08 
1.252091129e-06 -5.9401756711e-09 -1.9254172599e-06 7.9451315155e-05 -9.0033411508e-06 2.2746793464e-06 7.4218225096e-05 1.782494019e-07 2.4728857841e-05 
4.32024076e-08 2.1763210489e-10 -1.4595465694e-08 3.3652212984e-08 3.5045097721e-08 -6.4199726312e-08 3.5601815097e-08 -1.1170616654e-08 -1.6520509636e-08 
8.4914466312e-05 4.4789080485e-06 -1.6443825151e-06 -3.5561362668e-07 2.3196980935e-06 -2.0445224353e-06 8.6403347172e-05 -4.4892785908e-06 1.426970486e-05 
-6.9428777872e-08 -1.0004747153e-07 -1.8241740677e-07 -1.6060065535e-08 -2.5269543922e-08 -4.2355237958e-08 -9.1124473487e-09 -3.3354747407e-08 -2.5692922567e-08 
-6.4499639166e-08 2.867821445e-07 -1.4709289336e-06 -2.6993591214e-07 -6.8230541987e-08 -4.5919473932e-07 -2.0255612544e-07 -4.6556863757e-08 -1.3071008157e-07 
-5.7856574513e-07 -3.7386728092e-07 1.1439504009e-08 -9.4906064358e-08 2.1656436171e-07 -2.3138299927e-07 1.6138763564e-07 -3.663956276e-07 -7.9747674657e-07 
-1.4135573308e-07 -7.3456370944e-09 -2.7240015909e-08 -5.898297721e-07 4.5489477889e-07 2.4822007332e-07 0.00011882779605 1.0317324086e-06 5.0495249121e-06 
8.2944157378e-05 -2.9470221665e-05 3.1976006715e-05 1.1278598718e-05 -1.9023783974e-07 3.5289742393e-07 1.512722081e-06 -6.2873627794e-08 7.2419985111e-07 
1.7280024722e-09 -2.0771559293e-08 -1.4409217166e-08 1.6026443047e-08 -1.5140375709e-08 -1.003572181e-08 2.3418968117e-08 -1.2463082439e-08 -4.4395136229e-08 
-2.6428748694e-08 -5.5115955249e-08 -5.57182947e-08 -7.6917898712e-09 -4.8657663948e-08 -3.3387513776e-08 -4.6457431601e-09 -4.4290599678e-08 -1.0117212039e-07 
-3.3614475668e-07 5.5099999171e-08 -6.127616735e-08 1.4043813638e-07 -4.662540509e-08 -4.8355112694e-07 -3.8155949089e-07 -1.7654010855e-07 3.1060148294e-08 
-2.5534583332e-07 -1.5887838735e-07 -1.1183502631e-07 -9.6946850952e-08 1.7065987864e-07 9.8242357678e-08 -9.8600211999e-08 -7.7054390626e-08 -8.1257776363e-08 
-1.6128912693e-07 0 1.3523494494e-08 -5.4359675963e-08 0 2.1102163499e-08 -1.2572414361e-07 0 1.9278144662e-07 
-2.4779165556e-08 0 -4.2053441887e-08 3.4344796984e-08 0 1.5765216286e-07 6.2063688114e-08 0 7.8205189111e-08 
1.703108186e-07 0 -7.6310318346e-08 -3.5957621408e-08 0 5.9231452e-08 -5.7673235505e-08 0 -1.7626243643e-08 
1.259015518e-08 0 5.790523179e-08 6.5734326255e-08 0 -1.7769859624e-08 1.0507125153e-08 0 8.4652432475e-08 
-1.5345407375e-08 0 3.5226275947e-09 -1.7156268198e-08 0 2.3407196931e-08 -3.5757780763e-08 0 1.1548964986e-09 
3.2677034397e-06 0 -1.0183285487e-05 7.4293771302e-05 0 1.2434456566e-05 -6.9677803306e-07 0 3.5097010343e-07 
-4.5522295333e-08 0 -4.979562461e-08 2.3326508398e-08 0 -1.5247783976e-08 -7.3555304482e-09 0 -1.3761046712e-08 
-6.7305803003e-08 0 4.5687183349e-07 -4.1570055032e-07 0 -7.3290930493e-06 7.8674117944e-08 0 1.8386455271e-07 
-8.094125657e-08 0 1.5662642802e-07 -1.0486127323e-08 0 2.6476152176e-08 -9.6686183499e-09 0 4.7878446439e-08 
-4.6693078612e-08 0 4.54310645e-08 -4.0777026011e-08 0 1.0525204887e-07 8.0856733916e-07 0 1.6828132328e-06 
-2.7801906017e-07 0 -8.8805164789e-08 -7.1946366323e-08 0 1.1396130042e-08 -2.5125451396e-07 0 -1.1168617971e-07 
-1.6639653999e-08 0 -9.8637342455e-09 -2.7846622672e-08 0 -5.8160893029e-09 -6.7146604439e-08 0 -5.1902751884e-10 
-4.8480889671e-08 0 -4.345588508e-08 -9.6408991568e-08 0 2.8087429153e-08 -8.5345914175e-08 0 7.5192181517e-08 
-1.0738443851e-07 0 -1.5395353423e-08 -1.6420820903e-07 0 5.0557681099e-09 -1.5679427574e-07 0 -1.1248428114e-07 
-1.4984719518e-07 0 -2.7564884819e-08 -1.265013036e-07 0 -8.7582462701e-08 -1.2444617175e-07 0 1.2148385382e-07 
-9.9908528587e-08 0 6.764324543e-08 -4.8753760893e-08 0 4.7895605111e-08 -1.4424220756e-07 0 -5.7231181914e-08 
-1.3165422188e-07 0 2.5360432023e-07 1.1489919778e-07 0 1.3700382692e-07 9.2541534986e-08 0 2.5425666652e-07 
3.3787589619e-07 0 4.9825307098e-08 -5.4693355463e-09 0 8.3132963617e-08 -7.6879736257e-08 0 -7.4552203874e-09 
4.5916050919e-08 0 -2.2803620629e-07 1.2993532232e-08 0 3.5307315334e-08 4.1504616411e-08 0 6.6353709656e-08 
-1.2887246684e-08 0 1.0336624248e-08 -3.8901997373e-08 0 1.1402065991e-08 -1.3176532133e-08 0 4.0122154429e-08 
-2.165592439e-06 0 1.5413001948e-06 7.4380574218e-05 0 9.9362466145e-06 4.0581383524e-06 0 -1.2046690516e-05 
-4.5099909484e-08 0 -3.2139106434e-08 -1.6721075141e-07 0 -1.1832987196e-07 -6.3876120629e-08 0 -1.9103046905e-08 
-5.908490706e-07 0 -1.951470552e-07 9.4102249747e-07 0 2.1906503342e-06 -1.5769011535e-07 0 5.4921711287e-08 
-2.8772862278e-07 0 -4.9269405433e-08 -8.5685758981e-07 0 -7.2841053312e-06 1.8585911942e-07 0 1.1353249226e-06 
3.2659242781e-07 0 1.1386071617e-08 -2.3005597691e-08 0 1.5403420092e-07 -3.7758412857e-08 0 4.9330163827e-10 
-3.9749779881e-08 0 -8.2406728428e-09 -7.1252737959e-08 0 2.3330458219e-08 -1.1110123764e-07 0 -2.9670840842e-08 
1.6251893055e-09 0 4.6953825088e-08 -4.4302880902e-09 0 4.055240601e-08 -3.0042778315e-08 0 7.5462173936e-08 
9.0685369155e-09 0 1.1749215111e-07 -3.9548314111e-08 0 9.0066898166e-08 -7.4120426549e-08 0 6.621078967e-08 
-1.1996260498e-07 0 2.7567296841e-08 -7.7061323153e-08 0 -4.2172046489e-08 -1.5143827829e-07 0 -2.7861586234e-08 
-8.1493765718e-08 0 3.8082416333e-08 2.2537449824e-08 0 1.1405389147e-08 -3.6531523254e-08 0 1.1177571116e-07 
0 0 0 0 0 0 0 0 0 
0 0 0 0 0 0 0 0 0 
0 0 0 0 0 0 0 0 0 
0 0 0 0 0 0 0 0 0 
0 0 0 0 0 0 0 0 0 
0 0 0 0 0 0 0 0 0 
0 0 0 0 0 0 0 0 0 
0 0 0 0 0 0 0 0 0 
0 0 0 0 0 0 0 0 0 
0 0 0 0 0 0 0 0 0 
0 0 0 0 0 0 0 0 0 
0 0 0 0 0 0 0 0 0 
0 0 0 0 0 0 0 0 0 
0 0 0 0 0 0 0 0 0 
0 0 0 0 0 0 0 0 0 
9.9545264086e-07 -1.6578113312e-07 -1.6093337893e-07 1.4592712179e-07 6.8370764731e-08 -4.996654083e-08 1.3799613962e-07 4.7653828013e-08 6.4877134729e-08 
8.7282293271e-07 -3.1347067155e-08 -6.4696326314e-07 1.8404565912e-06 9.3534826988e-07 -1.129714628e-06 3.803265062e-07 6.3331740562e-07 -5.6573159242e-07 
1.3640871637e-06 -7.0408019094e-07 -3.9575591357e-06 8.4778641898e-07 -4.5145975831e-07 4.4289558803e-07 1.4214718367e-07 2.3603983954e-08 4.1449034974e-08 
1.203309803e-07 8.0230608573e-08 2.1486622644e-07 6.7358890412e-08 3.0562851925e-08 -3.067109354e-08 5.0744137229e-08 2.5628705406e-08 -3.410052755e-08 
3.6188341018e-08 2.6811759759e-08 -1.1658722888e-08 1.1482616915e-07 3.6933209012e-08 -1.6170378023e-08 5.0551708478e-07 1.4819339553e-07 -3.32865736e-07 
0.0002873116032 0.00011655696239 -7.2559578197e-05 0.00011910840058 -4.5370266471e-05 -0.00011063250028 0.00029890287511 6.0725985963e-05 -0.00016419281132 
0.00029100017146 -0.00011949815707 -8.4562707203e-05 0.00030211716683 -6.9129181632e-05 -0.00016662277038 0.00012188340268 4.0946456066e-05 -0.00011147261465 
2.5042638724e-05 7.9899818541e-06 -1.2946410051e-05 3.9748897759e-06 -9.6126558781e-07 -1.9835483803e-06 4.5085132874e-07 3.3634815917e-07 -2.770709973e-07 
1.2351752607e-06 5.4575773454e-07 -3.6169884925e-07 4.232826881e-08 1.6405158573e-08 -1.9363251604e-08 4.2732142536e-08 2.9270449598e-09 -1.3225459439e-08 
1.8013254632e-07 3.385728302e-08 2.994212179e-08 1.4814871408e-07 4.6423864235e-08 4.5584341924e-08 0.00023516164501 -4.1745832991e-05 -0.0001129917782 
0.00027543275267 2.2318227581e-05 -0.00016047788855 3.1692680508e-06 -3.2690730669e-07 -2.4319794012e-06 1.6880034422e-06 3.6353433787e-07 -1.2084776509e-06 
1.1477680293e-06 -2.9550074534e-07 -1.0261531055e-06 2.6527040906e-05 -9.9994076919e-06 -1.489187036e-05 2.8419995904e-07 1.1085216944e-08 -1.5479798594e-07 
4.9612090366e-07 -7.5993968403e-08 -3.1573829314e-07 9.1228954971e-07 -9.3487819271e-08 -2.9460016461e-07 5.0811323888e-07 5.8783679669e-08 -1.5242192942e-09 
4.1631552187e-07 1.2858938695e-08 -2.2227279359e-09 5.2012719853e-07 1.3207169543e-07 -2.3206825823e-07 4.3257617772e-07 -4.9527334143e-08 9.6837022595e-09 
8.8761552091e-07 -1.1234892942e-07 -3.4362643889e-07 1.6052379831e-06 2.312764551e-08 -1.0570087685e-06 1.5273816342e-06 2.9453619597e-07 -6.2504654345e-07 
0 0 0 0 0 0 0 0 0 
0 0 0 0 0 0 0 0 0 
0 0 0 0 0 0 0 0 0 
0 0 0 0 0 0 0 0 0 
0 0 0 0 0 0 0 0 0 
0 0 0 0 0 0 0 0 0 
0 0 0 0 0 0 0 0 0 
0 0 0 0 0 0 0 0 0 
0 0 0 0 0 0 0 0 0 
0 0 0 0 0 0 0 0 0 
0 0 0 0 0 0 0 0 0 
0 0 0 0 0 0 0 0 0 
0 0 0 0 0 0 0 0 0 
0 0 0 0 0 0 0 0 0 
0 0 0 0 0 0 0 0 0 
-3.0378485303e-07 0 -1.190956549e-07 1.4386174425e-08 0 2.2319611675e-08 1.5644792046e-07 0 4.4302827096e-08 
2.7105296123e-08 0 1.8142195621e-08 9.7599109314e-08 0 -1.1975470784e-08 6.6573121629e-07 0 3.7896762824e-07 
6.8410303402e-08 0 1.4176085379e-07 2.073589645e-08 0 1.6435194659e-08 1.9914820018e-09 0 -1.9339633658e-09 
-3.4294833108e-07 0 1.0776904049e-06 9.2194577232e-08 0 2.0784423508e-08 5.1948292755e-08 0 1.2804663703e-08 
2.2443765239e-07 0 4.5100759696e-07 -1.975335149e-08 0 1.9544411474e-08 4.0253906932e-08 0 6.3061189493e-08 
1.110294869e-09 0 1.3499573565e-09 -1.5253603777e-06 0 3.4026206727e-06 4.4802338692e-09 0 -1.7904880198e-09 
7.5600458619e-07 0 1.9947199928e-07 -2.9760934957e-06 0 -2.1527985878e-06 6.2932374058e-05 0 -9.1663599097e-07 
2.0494393327e-05 0 3.8077161588e-06 6.6774546761e-08 0 -7.3394962049e-09 4.2847120444e-08 0 -1.0125688675e-07 
4.4912842533e-08 0 2.331621333e-09 8.5107198547e-09 0 1.2931918441e-08 7.6084634184e-09 0 3.6050331522e-09 
3.1910728002e-08 0 4.0623811924e-08 1.1977901791e-09 0 -2.4386484214e-09 2.4188242759e-10 0 -1.294446953e-09 
-5.1583742606e-10 0 -6.9747606628e-10 -2.9713587389e-08 0 -2.0043910892e-07 9.1622396092e-07 0 -3.2246963566e-06 
7.0673529877e-08 0 -1.8699101881e-08 -1.828013301e-07 0 1.3128584823e-06 2.639796235e-09 0 -1.3560872822e-09 
1.5248417994e-09 0 -2.0489317955e-09 3.5136246893e-09 0 -2.0853066685e-09 1.047561002e-08 0 4.6938068444e-09 
-5.7953534073e-09 0 2.4224654908e-09 1.1435801569e-08 0 1.7113466535e-08 9.0955541725e-09 0 5.6303394014e-08 
2.9373884161e-08 0 -1.6639223617e-09 2.5598625973e-08 0 -2.5705510373e-09 3.1189744312e-08 0 -3.8919236741e-08 
7.1460941974e-09 0 5.8703108095e-09 1.617797191e-08 0 5.5782754399e-09 4.0159605573e-08 0 1.6923382563e-08 
1.937998099e-08 0 3.0101410982e-09 7.3935620715e-08 0 6.5470041958e-09 -6.2298773722e-10 0 3.4088725754e-10 
-2.1440219842e-10 0 1.0797100956e-09 1.1617102194e-08 0 9.3279351074e-09 1.6468397458e-09 0 2.1989202781e-10 
9.6386547944e-06 0 5.2554438189e-06 -8.5889439389e-07 0 -6.3283060269e-07 -3.3343940029e-08 0 -4.1304189803e-07 
-2.2535390139e-07 0 3.4913381354e-07 -2.1956679362e-07 0 6.9245360252e-07 -4.2545118707e-07 0 -1.2458288291e-06 
-1.7889478116e-07 0 3.8798363289e-07 -5.2127242706e-08 0 1.2218941003e-07 4.5198591484e-07 0 3.5377712687e-07 
-2.4221821478e-07 0 6.6315033021e-07 1.1820197297e-07 0 2.4597225922e-07 1.4729140021e-08 0 8.1503600563e-08 
6.3960984419e-08 0 4.8409237953e-08 5.0208639894e-08 0 9.756202951e-08 3.0070531008e-08 0 3.3311086247e-08 
1.560077112e-09 0 -1.2204207696e-07 2.6898024335e-07 0 1.1588697605e-07 3.0864558805e-07 0 -6.7445791374e-07 
-6.8413567737e-08 0 -2.5291453578e-08 5.9296695376e-07 0 7.5956533106e-07 -2.7351276263e-07 0 5.9397891963e-08 
-2.1519569162e-07 0 3.2164687519e-07 -1.4035393644e-07 0 1.3464071638e-07 2.3290385865e-08 0 2.460744228e-08 
3.1609808308e-08 0 6.4614396571e-08 5.5576252497e-08 0 6.3069517343e-08 8.592525441e-09 0 8.8425639751e-09 
2.606754891e-08 0 3.871432666e-08 1.74691537e-08 0 1.9265482304e-08 8.5239727748e-09 0 7.1019887842e-09 
5.6099602842e-09 0 5.198142304e-09 7.688341511e-08 0 3.3515267272e-08 1.1516936484e-07 0 1.0755565426e-07 
8.749946814e-08 0 2.8725357331e-08 1.1463768913e-07 0 2.6535047391e-08 3.239067179e-07 0 1.2825784359e-07 
1.9702567843e-07 0 1.8853311182e-07 9.9788577586e-08 0 8.803108366e-08 2.6591564887e-07 0 1.1567308296e-07 
8.2884685571e-09 0 9.7620752786e-09 6.1850221749e-07 0 3.4428559073e-07 6.7136844642e-08 0 9.6649653039e-08 
3.9468357423e-09 0 1.3916624199e-08 3.9023804386e-08 0 7.3870643654e-08 -5.9889119133e-08 0 -1.03349602e-07 
5.4580004855e-08 0 -1.05205203e-08 -6.6803485332e-10 0 -9.7044201947e-10 1.6225837582e-08 0 1.9618265538e-08 
5.1388187153e-08 0 2.8847592784e-07 2.0019915177e-08 0 2.5266089805e-08 1.0545958839e-06 0 3.00229197e-06 
9.9013989341e-08 0 2.6312690399e-08 1.4449944717e-07 0 -6.2370403485e-08 6.7951890199e-05 0 -1.5226955566e-06 
-1.310853123e-06 0 -1.8222792442e-06 1.8984811394e-05 0 1.1776514953e-05 2.7529118124e-08 0 -2.3041990639e-07 
3.0744414478e-08 0 -4.4384344988e-08 6.3283519675e-08 0 5.4727862239e-09 5.7186185155e-09 0 3.775481447e-09 
8.5652954204e-09 0 1.0900778206e-08 2.9976797274e-08 0 4.4066916711e-08 -3.4964394002e-10 0 -1.0376646854e-09 
1.9880047461e-10 0 -2.280075015e-09 -2.4627542457e-09 0 -3.366611786e-10 -3.3385212964e-07 0 -1.8257400283e-06 
-2.2338508117e-07 0 -4.8787722311e-07 1.6425162435e-08 0 -4.2433054285e-08 1.3743453151e-07 0 -6.1517318998e-08 
1.7789990486e-09 0 -1.5657312496e-09 4.4808304109e-09 0 1.4932491938e-09 2.8590885887e-09 0 2.3860300105e-09 
1.2566983293e-08 0 1.3974426923e-08 5.9456569601e-08 0 1.2230157517e-09 4.6747590246e-08 0 1.1548289079e-08 
9.6952306213e-08 0 -2.0129498296e-08 4.5910221524e-08 0 3.2497866064e-08 2.1026036194e-08 0 3.1311116686e-08 
8.3371815318e-08 0 5.4976475575e-08 8.966234709e-09 0 9.0140044032e-09 1.6431820852e-09 0 6.3867655198e-09 
4.3459154276e-08 0 3.9550810059e-08 -1.251123761e-09 0 5.0878323335e-09 -3.4140921339e-09 0 2.4621996551e-09 
1.1209939566e-08 0 1.8796737466e-08 -1.9318000971e-10 0 4.0111271864e-09 3.1573613599e-06 0 -4.6063420866e-06 
1.3017124651e-05 0 5.4036504853e-06 4.0622926629e-07 0 -1.1765269391e-06 -2.8289931833e-07 0 4.9293297585e-07 
-4.7020730185e-07 0 -2.8242108619e-08 2.3561904243e-07 0 -3.5561563089e-08 9.7150058421e-09 0 2.258359994e-07 
-2.3885456833e-07 0 5.099011979e-07 2.6328457787e-07 0 3.6691764279e-07 5.863959164e-08 0 6.91067868e-08 
4.401578329e-08 0 1.2247998396e-07 4.2389910064e-08 0 1.4193458346e-07 2.8181556734e-08 0 4.1008040309e-08 
6.8165348262e-08 0 7.4721924899e-08 1.6604529105e-07 0 2.1387478456e-07 2.7998165926e-07 0 1.5668327926e-07 
1.2090670424e-07 0 1.8284992489e-07 4.0610311816e-08 0 5.6568444049e-08 5.217817106e-08 0 9.0534096874e-08 
2.279812146e-08 0 4.0700776436e-08 3.6038870316e-08 0 4.1713720792e-08 1.2924669563e-07 0 9.4512557951e-08 
2.8153042328e-07 0 1.7999376615e-07 5.9824060828e-07 0 1.0964219474e-06 1.3682743101e-07 0 6.7834529599e-08 
5.0807068008e-08 0 -6.4416780443e-07 1.2098843376e-07 0 -3.0772814094e-07 1.5804521539e-07 0 -8.7224397632e-08 
2.0800701577e-08 0 3.4337375574e-08 7.21125233e-09 0 1.378815517e-08 0 0 0 
0 0 0 0 0 0 0 0 0 
0 0 0 0 0 0 0 0 0 
0 0 0 0 0 0 0 0 0 
0 0 0 0 0 0 0 0 0 
0 0 0 0 0 0 0 0 0 
0 0 0 0 0 0 0 0 0 
0 0 0 0 0 0 0 0 0 
0 0 0 0 0 0 0 0 0 
0 0 0 0 0 0 0 0 0 
0 0 0 0 0 0 0 0 0 
0 0 0 0 0 0 0 0 0 
0 0 0 0 0 0 0 0 0 
0 0 0 0 0 0 0 0 0 
0 0 0 0 0 0 0 0 0 
0 0 0 0 0 0 0 0 0 
0 0 0 0 0 0 0 0 0 
0 0 0 0 0 0 0 0 0 
0 0 0 0 0 0 0 0 0 
0 0 0 0 0 0 0 0 0 
0 0 0 0 0 0 0 0 0 
0 0 0 0 0 0 0 0 0 
0 0 0 0 0 0 0 0 0 
0 0 0 0 0 0 0 0 0 
0 0 0 0 0 0 0 0 0 
0 0 0 0 0 0 0 0 0 
0 0 0 0 0 0 0 0 0 
0 0 0 0 0 0 0 0 0 
0 0 0 0 0 0 0 0 0 
0 0 0 0 0 0 0 0 0 
0 0 0 0 0 0 0 0 0 
3.7111457549e-07 -2.9674793911e-08 1.1120287587e-07 1.1428247307e-05 -4.3714277458e-06 1.0720376422e-05 1.0939918578e-07 8.3582641864e-10 9.6386696805e-08 
6.0415192924e-07 -2.5591882475e-07 4.9592217093e-07 8.3683029102e-07 -6.7162407573e-08 1.4467867975e-08 1.2577628268e-07 -2.9002139068e-08 5.7739003963e-08 
1.2071949694e-07 1.5509981726e-09 6.6696090236e-08 8.5102775278e-05 -1.2421583172e-05 1.8305538329e-05 6.8809977834e-05 2.9711275229e-06 5.1741080783e-06 
4.9603977331e-08 -5.5355501402e-09 4.8620782962e-08 5.327514993e-08 3.9693426549e-09 4.7532234741e-08 2.3936870052e-07 -1.3978530312e-07 1.0319403914e-07 
2.1503785671e-07 7.3387781777e-08 7.9712952815e-08 2.03053342e-05 8.7169247915e-06 9.0103220231e-06 1.2783698084e-05 -3.9765971139e-06 5.7214975191e-06 
2.9229956187e-05 -6.1746265391e-06 2.0088232439e-05 0.00019968027884 -1.3198771498e-05 5.6348021322e-05 0.00018605826682 -8.8125218961e-06 8.3294452014e-05 
0.00011891557779 1.0504718682e-05 4.0897231353e-05 0.00018978520294 -8.1445076792e-06 6.9233904425e-05 0.0002026221534 2.5535853067e-06 6.0375794531e-05 
0.0001054455743 -9.3438548132e-06 5.116795725e-05 1.9809268828e-08 -4.9784392956e-09 2.4671759261e-08 1.6881874324e-08 -2.0460038959e-09 2.6179074555e-08 
3.632675239e-08 -3.6647838702e-09 6.0092786213e-08 2.0787971295e-08 1.2474501958e-09 2.6757745844e-08 2.0446008269e-08 2.9435286283e-09 2.5672996408e-08 
5.6600890023e-08 2.2615705156e-09 6.6255263879e-08 0.00018530086098 7.2271486613e-06 0.00011691604154 0.00024922779818 -9.1824585947e-07 8.2045564551e-05 
3.9934188613e-05 -4.5334517508e-06 9.5970437306e-06 6.5765268227e-05 -1.253111111e-06 1.1460664175e-05 3.5590150478e-08 -2.3208186957e-09 3.5947779657e-08 
3.8560294022e-08 -5.2961116004e-09 4.1541060769e-08 7.5559546407e-08 -1.5229601327e-09 6.8353703336e-08 7.7412614129e-08 2.3840574094e-09 6.5676975025e-08 
7.3066908095e-06 -4.5105152806e-06 5.2253844611e-06 5.7882307398e-05 5.9211587759e-06 4.5696953963e-05 2.7480178241e-05 -4.5218745079e-06 2.9165972227e-05 
1.7892412192e-07 -6.4425463366e-08 1.1732746647e-07 2.2316081106e-06 7.6323592671e-09 1.7992397346e-06 4.0754627265e-06 -5.681315534e-07 2.2943382856e-06 
1.3128019136e-08 -1.0172605169e-07 1.5613634004e-07 -5.2884888521e-08 -9.997016529e-08 3.8279911771e-07 4.6139635111e-07 -1.3353754294e-07 2.0242684785e-07 
6.6987807159e-08 6.1925669509e-09 5.6726801235e-08 7.0366812676e-08 -4.8353884021e-08 8.6386167484e-08 1.94642171e-07 -5.3747055512e-08 8.8150390597e-08 
8.5742418648e-08 -3.9427709795e-09 4.5189287679e-08 4.5779115576e-05 2.0120959276e-05 1.234078754e-05 1.2280694471e-05 9.0192514188e-06 9.4078543418e-06 
4.7870690193e-05 1.5466340336e-06 2.9600792465e-05 5.7376986712e-06 8.7828929569e-07 5.681306142e-06 9.0069425931e-07 9.3468358682e-08 6.5793951407e-07 
8.2123906867e-06 3.9602941999e-06 3.252797107e-06 1.9150619367e-07 2.1709939623e-07 2.8988043061e-07 1.3779645274e-07 4.9945089359e-08 1.503119044e-07 
3.0449128389e-07 -5.31171581e-09 2.1371317253e-07 1.2353105013e-07 2.749340148e-08 1.0811089856e-07 8.7627006873e-08 -6.6038157387e-09 7.4086181686e-08 
1.7615296749e-07 2.9050140063e-08 8.9590439219e-08 8.3512195617e-08 -4.7976051442e-09 4.9914321294e-08 8.5042118625e-07 -1.0979885185e-07 2.5568526823e-07 
6.3183377284e-07 -7.6559791936e-08 2.4360457726e-07 5.379731225e-07 -9.3114158882e-08 2.478395002e-07 2.8788736618e-07 4.3819380258e-08 1.1989247641e-07 
3.2963066296e-07 -1.0080878693e-07 9.8642462718e-08 1.2583321952e-07 -2.8496126255e-09 6.3009552476e-08 1.8400106195e-07 4.0591252189e-09 8.7363668278e-08 
2.2296824828e-07 -3.4769369747e-08 7.8514248436e-08 3.4628781146e-06 -6.8167788773e-07 3.0268514886e-06 2.679643424e-06 -5.0784062194e-07 2.208985669e-06 
2.9151035004e-05 4.2170267175e-06 1.985917204e-05 1.2825743804e-05 -3.6266484386e-06 1.2511361061e-05 5.4377824397e-05 -8.9664854384e-06 2.6736353331e-05 
2.0839163344e-05 -2.9165176211e-07 1.1451429016e-05 3.0448031343e-05 5.0016341865e-06 1.5011024082e-05 1.1034360987e-07 -8.3771617398e-09 6.7871046459e-08 
1.0643864873e-07 -1.9033450194e-10 6.2319115988e-08 0.00031709792813 3.85436171e-06 0.00031819587883 0.00031709792813 -8.4180737565e-07 0.00033763592229 
0.00031709792813 3.3644619053e-07 0.00033641011401 0.00031709792813 1.2451508474e-06 0.00025706687923 0.00031709792813 3.7999676994e-06 0.00026635754869 
0.00031709792813 2.4442924367e-06 0.00031466404211 0.00031709792813 -1.8952722347e-06 0.000315222285 0.00031709792813 2.6153617516e-07 0.0003391006427 
0.00031709792813 -1.4111744903e-05 0.00022712284892 0.00031709792813 -1.1585614745e-07 0.00034166120935 0.00031709792813 1.4285363242e-07 0.00033701873374 
0.00031709792813 -1.6024750811e-07 0.00034085736086 0.00031709792813 -2.0834831681e-06 0.0002632059767 0.00031709792813 -1.1124509724e-05 0.00017643698015 
0.00031709792813 -6.0662342572e-06 0.00020571784732 0.00031709792813 -9.1676456047e-08 0.00034079978957 0.00031709792813 -4.6612707857e-07 0.00034113162027 
0.00031709792813 -8.280093936e-07 0.00033623695665 0.00031709792813 1.591132122e-05 0.00016990820887 0.00031709792813 3.9773465157e-07 0.00026727821231 
0.00031709792813 -6.3331193449e-06 0.00018651853298 0.00031709792813 4.2709674534e-06 0.00032746273974 0.00031709792813 1.6967517461e-07 0.00029842621104 
0.00031709792813 4.5200218521e-07 0.00029469076263 0.00031709792813 -7.6861033435e-08 0.00033039413876 0.00031709792813 -3.2413947182e-08 0.00034137211167 
0.00031709792813 1.8154420935e-07 0.00034098957116 0.00031709792813 -2.1364418518e-07 0.00033845919471 0.00031709792813 -7.1299524736e-07 0.00033791927741 
0.00031709792813 -4.6998944274e-07 0.000296610968 0.00031709792813 -2.9630825249e-06 0.0003256383578 0.00031709792813 1.3833528452e-06 0.00029055931097 
0.00031709792813 -2.7058785934e-06 0.0003309987165 0.00031709792813 6.1522323092e-06 0.00015249652601 0.00031709792813 -2.6517342301e-05 0.00015531218961 
0.00031709792813 -4.8120589608e-06 0.00024397119117 0.00031709792813 -9.1584896444e-06 0.0002432138733 0.00031709792813 4.074731156e-07 0.00033426276504 
0.00031709792813 -1.9185064418e-06 0.00031615846811 0.00031709792813 -8.7316395053e-07 0.00033634195839 0.00031709792813 -6.9576403089e-08 0.000334594791 
0.00031709792813 3.9054240254e-06 0.00031972246873 0.00031709792813 6.9444481951e-06 0.00028979391162 0.00031709792813 -2.7442452611e-08 0.00028540806105 
0.00031709792813 7.6956108448e-07 0.00029582263769 0 0 0 0 0 0 
0 0 0 0 0 0 0 0 0 
0 0 0 0 0 0 0 0 0 
0 0 0 0 0 0 0 0 0 
0 0 0 0 0 0 0 0 0 
0 0 0 0 0 0 0 0 0 
0 0 0 0 0 0 0 0 0 
0 0 0 0 0 0 0 0 0 
0 0 0 0 0 0 0 0 0 
0 0 0 0 0 0 0 0 0 
0 0 0 0 0 0 0 0 0 
0 0 0 0 0 0 0 0 0 
0 0 0 0 0 0 0 0 0 
0 0 0 0 0 0 0 0 0 
0 0 0 0 0 0 0 0 0 
0 0 0 0.0001944482342 0 0.00018983646121 1.3486727852e-05 0 1.4372286016e-05 
1.6421842185e-07 0 4.9802435591e-07 2.707273166e-05 0 2.611968931e-05 0.00013502974808 0 0.00012886156859 
9.4611735401e-08 0 2.2409048471e-07 6.2465781216e-06 0 8.6746087675e-06 0.00029904402627 0 0.0003206931844 
0.00020299895503 0 0.00020539817345 4.2837284188e-08 0 1.6532421271e-07 8.5132275054e-07 0 9.2140993649e-07 
1.3832056576e-06 0 1.6499986063e-06 6.1896606498e-05 0 5.8808050052e-05 7.712247674e-05 0 7.3426348708e-05 
0.00027049121575 0 0.00027540377299 0.00028278408221 0 0.00030065843535 0.00030639918515 0 0.00033262356142 
0.00031515972291 0 0.0003387070586 0.00030837713859 0 0.00032908945136 0.00022817664996 0 0.00016354115872 
0.00026414280951 0 0.00025453739525 0.00013800480663 0 0.00012402996046 1.8493026717e-07 0 5.9637498012e-07 
2.9660565018e-07 0 1.7751398356e-07 3.9755809678e-06 0 4.2480696267e-06 1.3242775475e-08 0 4.803579825e-08 
1.1312571944e-08 0 5.4507435902e-08 4.5261256721e-08 0 1.2067025726e-07 0.00029078061524 0 0.00029611945876 
0.00030525314858 0 0.00032281043546 0.00024997228117 0 0.0002617103598 0.00028567127498 0 0.00031604797911 
6.7063352661e-08 0 9.2198426462e-08 5.9065277663e-09 0 8.0086836723e-08 1.4041613831e-08 0 2.9351967722e-07 
3.6434663638e-07 0 5.9329189636e-07 3.1102835244e-05 0 2.8341019338e-05 7.5117020132e-05 0 7.4352592574e-05 
0.00012857165751 0 0.00013785530937 6.3917720363e-06 0 6.709167658e-06 1.7275467708e-05 0 1.4279996304e-05 
4.8646965631e-05 0 4.7742609329e-05 1.3730891709e-07 0 3.5889392594e-07 3.9522659884e-07 0 7.0957279826e-07 
9.9485252774e-06 0 8.7059783003e-06 6.4306850842e-08 0 2.1170605814e-07 2.0312652243e-07 0 -9.0281325508e-08 
7.9544233722e-07 0 3.4752340097e-07 1.161422907e-07 0 2.6656098759e-07 0.00030442250771 0 0.00031662582469 
0.00027544322186 0 0.00028337074997 0.0002866762477 0 0.00030124542164 0.00021982455821 0 0.00021651267576 
0.00016025866551 0 0.00015620749541 0.00020900682918 0 0.00020770495277 0.00011471355045 0 0.00011423116386 
6.5333267862e-05 0 6.5611104936e-05 9.5816128084e-05 0 9.0302448593e-05 2.7303042715e-05 0 2.6776301783e-05 
1.0800610336e-05 0 9.7121202516e-06 2.3192512348e-05 0 2.39623754e-05 2.5670346947e-06 0 2.9685166255e-06 
9.0091809652e-05 0 8.9254534827e-05 7.0509178952e-05 0 6.7190527929e-05 0.0001616177878 0 0.00016049523452 
0.00012469144362 0 0.00012460831435 0.00023412713639 0 0.00023742971084 0.00025731130155 0 0.00027082084543 
0.00024393489216 0 0.00026618050959 0.00019212276994 0 0.00021005433697 2.006678147e-05 0 1.9777346327e-05 
5.6648739158e-05 0 5.5621470196e-05 7.9416141202e-06 0 6.1713957062e-06 3.3382207539e-05 0 3.1534704886e-05 
3.9065056789e-06 0 3.654054161e-06 2.3146644478e-06 0 2.7943561136e-06 1.0209638599e-05 0 1.037637216e-05 
1.522773457e-07 0 2.7476294392e-07 1.3567854842e-06 0 1.9816869685e-06 0.00018020933236 0 0.00018907848707 
1.3234148157e-05 0 1.2961011898e-05 3.1564309278e-07 0 6.1702108863e-07 2.9490102397e-05 0 2.8051817642e-05 
0.00013410345268 0 0.00013541401617 4.5049320549e-07 0 3.0366120146e-07 6.9851414414e-06 0 8.0830458986e-06 
0.00029065903684 0 0.00031729988425 0.00019034677029 0 0.00020293276084 1.72822404e-07 0 2.7949892326e-07 
5.7943369053e-07 0 5.1324020406e-07 6.4246621988e-05 0 6.6897190527e-05 9.105261969e-07 0 1.6389066173e-06 
8.4855574486e-05 0 7.9510631626e-05 0.00026166660545 0 0.00026965476813 0.00028427357516 0 0.00029990620731 
0.00031300259409 0 0.00033871101224 0.0003034598806 0 0.00032861213133 0.00030481155068 0 0.00032647897681 
0.00026087577559 0 0.00025614084909 0.00021665466889 0 0.00016278121091 0.00012868502146 0 0.00014429596255 
2.3254643799e-07 0 1.1554402252e-07 8.4182358498e-08 0 3.2168390212e-07 4.0250065288e-06 0 3.896968997e-06 
3.9126213247e-08 0 6.1925386157e-08 6.6789270621e-08 0 7.4688290849e-08 1.28640128e-07 0 1.8828603469e-07 
0.00030317274639 0 0.00032205454738 0.0002968981289 0 0.00029660543535 0.00024430187101 0 0.00025898451775 
0.00028251945911 0 0.00031030842496 7.602032388e-08 0 1.2613620415e-07 5.1763113708e-08 0 1.7920339025e-07 
1.6714404536e-07 0 4.0409529524e-07 1.2871830292e-07 0 5.7797363252e-07 7.3615531023e-05 0 8.4707420004e-05 
3.3229324787e-05 0 3.4416433312e-05 0.00013511501721 0 0.00014139921921 1.8016928854e-05 0 1.5916025533e-05 
5.7742500177e-06 0 6.2337515917e-06 5.4252579022e-05 0 5.2726830527e-05 5.3141846334e-07 0 7.3349715918e-07 
2.4304788002e-07 0 5.2424952351e-07 9.6276078875e-06 0 8.3884062691e-06 3.5459800509e-07 0 1.4273091538e-07 
2.0951734058e-07 0 2.2945645604e-07 7.3649413119e-07 0 3.3436613052e-07 3.2565859104e-07 0 3.0603428672e-07 
0.00027024680216 0 0.00027616399048 0.00029894820882 0 0.00031186249003 0.0002787769174 0 0.00029684560479 
0.00016029894025 0 0.00015324637562 0.00021319120998 0 0.00021764128925 0.0002034655574 0 0.00020361282247 
6.8737454295e-05 0 6.8867565859e-05 0.00011428818062 0 0.00011901190385 9.9767449635e-05 0 9.3141998131e-05 
1.1274411048e-05 0 1.0200715087e-05 3.0417350952e-05 0 2.8932043365e-05 2.6533351105e-05 0 2.7524496109e-05 
2.1414662764e-06 0 2.7475150275e-06 0.00015876593301 0 0.0001578738783 8.6474845132e-05 0 8.0513374005e-05 
0.00010632601127 0 0.00010038376617 0.00013516146865 0 0.00013408121139 0.00022163568083 0 0.00023155275315 
0.00024518808885 0 0.0002680368422 0.00023947854323 0 0.00025632680436 0.0001879639315 0 0.00019783638024 
6.9073232237e-05 0 6.3465016066e-05 2.0195670907e-05 0 2.0664250169e-05 6.7061503405e-06 0 5.2769883845e-06 
4.2715446561e-05 0 3.6776590241e-05 1.0321297253e-05 0 1.0026180693e-05 1.3184466597e-06 0 1.798511844e-06 
2.6886643012e-06 0 2.8580179487e-06 9.9172302878e-07 0 1.1083084187e-06 3.3872046266e-07 0 3.5643669809e-07 
-6.0534321785e-07 4.7815955181e-08 1.4811723057e-06 -2.1676162152e-06 1.3575708079e-07 8.0003313974e-06 -1.709973399e-06 -1.6860029208e-06 7.6693918306e-06 
6.1369607816e-07 -2.3876748646e-07 2.7334269376e-07 5.2796672e-07 2.7409623979e-07 2.482287334e-07 1.7087504604e-07 -2.4429718522e-08 1.3632858419e-07 
9.2438181993e-08 9.2877473474e-09 5.6004722811e-08 -2.2491200464e-07 2.7572357029e-07 1.0278040282e-06 4.8998499659e-08 -1.656626309e-07 9.0881280453e-07 
1.9030447996e-05 1.324081909e-05 2.9140733979e-05 9.4409721959e-06 -7.2098429679e-06 2.7574331877e-05 0.00014500545036 -1.0339970295e-05 5.0829595373e-05 
8.6384857679e-08 -2.9531654908e-08 4.5102242732e-08 3.3878003838e-08 -2.2891176267e-08 3.507424749e-08 4.8875212508e-08 -1.3165076694e-08 3.6832433575e-08 
2.7165974786e-08 4.8158782407e-09 1.4325094508e-08 9.8454328682e-08 2.9874469375e-08 8.5710768003e-08 2.6744710944e-08 3.7848798691e-10 1.7619117504e-08 
0.00022735839912 -2.370316687e-05 6.4447677268e-05 0.00022949687725 4.4625516361e-06 7.4158539993e-05 0.00010821047096 -3.8093624551e-06 3.1861879268e-05 
0.00010189558188 -9.8600877698e-06 4.8340185598e-05 6.2280639857e-05 3.8100651566e-06 4.467798073e-05 1.4857729087e-05 6.5448512998e-06 1.3493597737e-05 
3.4164908906e-05 1.4620223876e-05 4.4838514546e-05 1.5915995259e-06 -1.3798100521e-06 8.2940545151e-06 4.7664850412e-07 3.3652377071e-07 3.2853982941e-06 
-2.0689596716e-07 3.3521101228e-06 1.2977138178e-05 -9.7369884608e-08 3.2413258671e-07 1.1483467473e-06 -2.260864522e-07 -2.8750477308e-08 5.1308711068e-08 
-2.1334083866e-07 5.1424111943e-07 2.5417150151e-06 2.1604496868e-07 -1.1456708699e-07 -1.2720946722e-07 2.769216651e-07 -1.1880534711e-07 -3.0255561973e-08 
-3.2280044884e-08 -6.057322707e-08 -7.4786234059e-08 4.1047538653e-07 -6.4555941216e-08 1.4453474358e-07 1.4313895438e-05 -1.1143158084e-05 1.8148616303e-05 
4.385172349e-05 4.5932577989e-06 7.1279845733e-05 3.8604877496e-05 -1.8655002416e-05 4.8111266436e-05 -3.4213195864e-08 -1.2420944145e-06 4.2195194027e-06 
-1.6350098928e-07 -9.8839504921e-08 9.0206598651e-06 -6.7755326699e-06 -3.6326471313e-06 1.5482972891e-05 3.9854607334e-08 1.0010674561e-07 2.4228762677e-07 
2.2403838867e-07 -1.8488261638e-07 1.0218994413e-06 -4.8196521361e-07 -6.4434230275e-07 3.0147160339e-06 2.615065782e-07 9.3197946327e-08 1.1113983511e-07 
3.1084492392e-07 1.3751057732e-07 1.0342637373e-07 1.2647855263e-07 1.7865225233e-07 -2.5995788509e-08 3.3770134914e-07 8.1922723868e-08 1.1784194853e-07 
1.7600350919e-07 6.248139824e-09 1.3903741123e-07 9.5326407451e-08 -1.0819197076e-08 7.3129966585e-08 -1.1481002631e-06 2.7482531997e-07 3.7301901117e-06 
-2.063705259e-06 -3.7268092238e-07 8.847369383e-06 -1.0052606568e-06 -2.4167365978e-07 3.6897461527e-06 -4.1861668731e-07 2.4914907405e-07 9.8860047288e-07 
-3.4946142471e-07 -9.8249829193e-08 1.0179827118e-06 -1.0186777944e-07 6.3686018616e-08 -1.0045888405e-07 -4.03657678e-08 3.8356810005e-08 -7.72190082e-08 
6.290531245e-07 -9.4084551025e-09 -6.184050872e-08 -5.1316048804e-06 1.5418803237e-06 1.3805292855e-05 -5.3797543961e-06 -2.5223125522e-06 1.5623881918e-05 
5.4431909116e-06 9.9181721021e-06 2.9683380191e-05 1.0886601788e-05 -9.8411600439e-06 2.7312998135e-05 6.8450873298e-05 -3.2454341961e-06 3.784896713e-05 
3.8987333579e-07 -8.2932752676e-08 1.3615378403e-07 2.8092838062e-07 6.8857889064e-08 2.1251695583e-07 0.00013604063511 -1.2590973259e-06 0.0001474385431 
0.00031639857327 1.6488896345e-06 0.00031705375752 1.7995144664e-05 -6.9826992312e-07 1.3375444552e-05 0.00023608482854 -7.7164957669e-07 0.00024178809962 
0.00023681745728 1.2478974672e-06 0.00024113876841 3.9994635339e-05 4.9208175518e-07 3.691771408e-05 4.2065319292e-05 -1.2145055225e-06 3.9343930749e-05 
0.00031906788511 9.938246818e-07 0.00033517145001 0.00031916555868 -4.6140885181e-07 0.00033534017643 9.4409800249e-06 1.0396459647e-06 6.2695941379e-06 
9.1762946451e-06 -1.0076334859e-06 6.5429805216e-06 0.00012968222868 -2.2394375786e-06 0.00013545269019 0.0001315873959 2.0127081453e-06 0.00013703654257 
0.00030955745965 -6.2843351663e-07 0.00030664124655 0.00031281402847 1.344846816e-06 0.00031891065954 0.00031817748886 -1.4391560562e-07 0.00033976060217 
0.00031846665303 4.941852272e-08 0.00034028183289 0.00031806344631 -1.8732834036e-07 0.00034031459266 0.00032032080854 -1.7598712482e-07 0.00033327517358 
0.00031773465471 4.0614038825e-07 0.00034059054906 0.000318572062 -6.1628557481e-08 0.00033986081878 0.00031943679939 3.7938959269e-07 0.00033193534213 
2.6426976023e-06 2.7126080885e-07 4.3205817646e-06 2.3496565959e-06 -9.6594673407e-07 3.1108212064e-06 1.1005683083e-05 3.713867666e-07 1.0128593427e-05 
2.1308022742e-06 9.3354098653e-07 2.6967060132e-06 2.6276135466e-06 -3.8688632132e-08 4.2182550961e-06 1.1510610448e-05 -3.8406000735e-07 1.0447341405e-05 
0.00031730349174 -1.0992877873e-07 0.00034101520365 0.00031730956595 1.6364706375e-07 0.00034168185945 0.00031862598959 -2.9378342754e-07 0.00033783028927 
0.00031843422897 4.5147672165e-07 0.00033843195137 4.6560071281e-06 5.4273107922e-08 6.7188194348e-06 4.7732754272e-06 -1.5261086074e-08 7.0251234407e-06 
1.4468778222e-05 -5.3768281099e-08 1.0349752178e-05 1.3593869156e-05 -6.0381360732e-07 1.0332696874e-05 0.00030062464516 7.0527207995e-08 0.00030442933666 
0.00031883744998 -4.6134554901e-07 0.0003250435024 0.00031884737733 -9.8665905431e-08 0.00032943899538 0.00021014874252 1.7595997683e-06 0.00021199079291 
0.00026164940772 1.2169853669e-06 0.00026414563158 0.00028062201866 1.4231128102e-06 0.00028014273198 9.7723704519e-05 -5.6597559611e-07 9.9099941312e-05 
0.00015518366841 -1.4761947356e-06 0.00015859750089 0.00018464385663 1.1990420223e-06 0.00018483267776 2.4116039693e-05 4.24107881e-07 2.3880475994e-05 
5.6417914761e-05 -6.5847942844e-07 5.4796695082e-05 7.823867988e-05 -1.0992487438e-06 8.317603683e-05 2.0563966266e-05 1.1917896753e-06 2.2117011974e-05 
0.00031556017134 -6.7763115858e-07 0.00032205125809 0.00029591390582 9.4278845859e-07 0.00029642068923 0.00031890576231 4.6172165558e-07 0.00032530348099 
0.00025951784402 9.1056545474e-07 0.00026146413563 0.00020912842259 -2.0509165538e-06 0.0002110645685 0.0002791598043 4.3913519539e-09 0.00027066705601 
0.00015511990538 6.7685126509e-07 0.00015739426879 0.00010046539114 1.4458147166e-07 0.0001011110184 0.00018286213935 -2.1184182693e-06 0.00018252986603 
5.9047366261e-05 3.9374149196e-07 5.6842014689e-05 2.5443955928e-05 -6.0119943654e-07 2.5421490255e-05 8.1052552728e-05 1.3019272641e-06 8.5748553508e-05 
2.1374336871e-05 -1.1193634565e-06 2.3098808838e-05 0.00023652761599 7.1893434385e-07 0.00024050169369 0.00018877592966 7.2773259409e-07 0.0001870805374 
0.00018749661056 -6.7541622108e-07 0.00018716108424 0.00013386023327 4.5753227125e-08 0.00013977724676 0.00013426402284 -1.0478712676e-06 0.0001396258625 
4.2773642458e-05 -2.8875232938e-08 3.967789102e-05 8.0274883535e-05 5.2189336613e-07 8.6619512156e-05 7.9131371455e-05 -1.5215102211e-06 8.5298118334e-05 
0.00028211730652 2.6336830067e-06 0.00028003174223 0.00028311267493 1.1799812997e-06 0.00027839755121 0.00031404618166 1.0592240533e-06 0.00031162738697 
0.00031560562705 8.7094359052e-07 0.0003176541664 0.00031919787263 1.2870652077e-06 0.00032751571678 0.00031987044483 7.9500563599e-07 0.00033223556148 
0.00032024404377 8.3296737556e-07 0.00032945497426 2.8052126434e-05 -9.5643355132e-07 2.8491302621e-05 2.6909965933e-05 -1.8290212811e-07 2.7751826273e-05 
-8.855376637e-08 5.5839601266e-08 -1.2653570644e-07 5.044466252e-06 2.6877446897e-07 -6.4418613563e-06 2.407966536e-06 3.8314239014e-06 -4.2826400217e-06 
-5.5578000525e-07 -2.35531418e-07 -6.4635346218e-07 -5.9556895426e-07 -5.7449246497e-08 -8.6390808423e-08 -4.6698516046e-07 -1.4870993099e-07 -1.1346498598e-06 
-2.523126756e-07 -4.6770318575e-09 -6.6977330156e-08 -4.62257824e-07 -8.3406527683e-08 -7.7313895729e-08 -1.232577999e-07 1.7639593237e-08 7.5729941446e-08 
-1.1945308026e-07 6.0025829234e-08 -1.5668470064e-07 -1.3045246051e-07 1.9611749571e-08 -2.2225983818e-08 1.6761954964e-07 -1.630940514e-09 -5.2583474909e-07 
5.1393738283e-07 1.0656218817e-06 9.9872036153e-07 7.1208075757e-08 1.575856529e-07 1.424714976e-07 1.1205974791e-07 -1.2135902755e-07 2.1558088136e-07 
9.4700394436e-08 -1.2578102504e-08 1.2075997676e-07 -1.0712635536e-08 6.3556125132e-09 3.7361790959e-08 -3.0836722943e-09 -1.9967018623e-09 8.8397912021e-08 
-5.3700554666e-08 2.1514959073e-08 6.8307737109e-08 -3.0381855397e-08 1.8559766481e-08 6.2228021685e-08 -6.4220676957e-08 1.3140264223e-08 5.6799771666e-08 
-6.5823084829e-09 3.3754175006e-09 6.0798920466e-09 -3.3818029648e-09 1.8983947656e-09 4.4333824069e-09 -5.9453273995e-08 1.26723769e-08 -2.2682366869e-08 
-4.0807789339e-08 1.1125196672e-08 1.6139668718e-08 -4.311938525e-08 1.9379531809e-08 3.4209103996e-08 -2.6316259885e-08 -1.8793029794e-09 -7.6811326136e-09 
-2.2119077157e-08 -5.3997166107e-09 -1.060417781e-08 -4.8946677598e-08 -8.1383321552e-09 -4.7631168443e-08 -9.6468164862e-08 -9.4226727062e-12 -3.0874295038e-08 
-6.0709508199e-08 -4.7990450946e-09 -3.004888145e-08 1.7689282967e-08 1.852965699e-08 2.2852060106e-07 -4.0861584653e-07 5.1693621515e-08 -3.03802746e-07 
6.5686982906e-07 -1.9703924851e-08 -3.9149222236e-07 -2.0819277936e-09 1.8769655513e-07 2.7546218251e-07 1.0523238556e-06 -1.5498918884e-06 1.4945680157e-06 
3.3450939678e-08 -1.4063314472e-08 4.2446768587e-08 4.2767890907e-08 4.0427526587e-09 3.6898031193e-08 1.3932400008e-08 -1.760197259e-08 6.8793953469e-08 
1.5341024889e-08 -1.0880891333e-08 7.5852077007e-08 9.0052716945e-09 -1.196427897e-08 5.8119152616e-08 2.3763405552e-07 2.8854116905e-07 -2.2406587667e-07 
2.7898480035e-07 -8.8166313336e-09 2.5619266873e-07 1.3865576036e-07 -1.1454844616e-07 2.6846776683e-07 -2.7412308913e-08 8.4153662701e-08 2.4731232933e-10 
-1.4559286513e-07 -2.8363518656e-07 -4.0512871993e-08 6.9048042999e-09 -4.2001997592e-10 4.4843625238e-08 -1.1601336785e-08 1.582212149e-10 5.3086221653e-08 
-6.9884981768e-08 3.0387400404e-08 4.8849130883e-08 -1.8733504897e-08 1.3969318076e-08 6.7122091878e-08 -2.4223773054e-08 8.6530655608e-09 9.1193913877e-08 
-4.8321693155e-08 -1.6885449947e-09 -8.8366583393e-09 -4.1065173911e-08 -3.75792322e-10 -3.5274340878e-09 -7.2737595948e-08 2.5841750266e-08 -2.765786707e-08 
-1.0441329021e-07 3.152049674e-08 1.5662310378e-08 -6.6657504222e-08 6.6208680302e-09 -4.3352844333e-08 4.9830483573e-08 2.2822043071e-08 3.7215961732e-08 
8.4361804082e-08 -8.9333191657e-09 7.2254405377e-08 2.9797829631e-07 -7.2866198326e-08 4.0240457033e-08 -5.2142769634e-08 2.2647835646e-09 9.5100656886e-09 
-6.5316254953e-09 1.9239129048e-09 5.6418598401e-09 -3.7979018552e-08 4.9664588634e-09 2.789073689e-08 -2.4526983281e-08 -1.1236864045e-09 -1.8376857621e-09 
-6.0788481392e-08 2.3995250043e-09 -2.5275922018e-08 -2.0986559753e-08 5.5482514198e-09 3.463751308e-08 -8.1237474211e-08 4.9969920651e-09 1.6364480282e-08 
-8.8687967968e-08 2.2584873818e-08 -4.5327246354e-08 -1.6172866067e-07 -3.4711779804e-08 1.2199402655e-07 -7.076985731e-08 -1.3127902069e-07 -4.3734694304e-08 
-3.5770563229e-08 -1.0044439836e-07 -1.0881227739e-07 -8.1346164089e-08 -4.508324872e-08 -4.6489963823e-08 -9.8247095769e-08 -2.6823756166e-08 -7.6720946912e-08 
-1.2137223865e-07 1.9856533325e-08 -1.3459267712e-08 -6.1456778923e-08 9.8096765839e-09 -4.6112224475e-08 -4.6684955432e-08 -7.7744393095e-09 -4.7563517744e-08 
-2.3373283921e-08 6.9033477154e-09 4.2718079121e-08 -5.2994447335e-08 -1.6819151042e-08 1.0780278454e-07 1.7144107418e-08 3.641156461e-09 9.019940757e-08 
-6.2689071142e-08 -1.0333533979e-07 -9.5089454914e-08 -6.7595605057e-08 2.5774163197e-08 -2.1309431482e-08 -8.6238596433e-08 -3.8290569199e-08 -6.6052639065e-08 
4.2952613722e-08 1.5373427844e-08 5.5056716384e-08 -1.2313215518e-07 4.0145617166e-08 2.49002319e-07 8.4723995796e-09 3.626386753e-07 -3.8849057814e-07 
-5.8975370391e-08 -3.9541159075e-08 -6.2135293596e-08 -1.3047791536e-07 -1.6135163642e-08 -1.0261085024e-07 4.7862428164e-08 -6.7549960166e-09 1.0101151243e-07 
3.5776691872e-07 1.3689458591e-06 -1.3137252562e-06 4.0820156183e-08 -7.5402192081e-08 -6.9171649552e-10 -1.1041811034e-08 -3.2060740263e-09 -2.2469093568e-08 
-1.1632037005e-08 4.1975149136e-09 7.7922992245e-09 -6.7390649042e-08 -1.2249170523e-08 -2.7193185631e-08 4.9439816543e-07 3.3769877733e-07 2.7529239516e-07 
-1.338904581e-08 2.0019411826e-09 2.9251467688e-08 5.9659463224e-09 -2.2036861564e-08 4.7531571204e-08 -2.9933802264e-08 4.0714444446e-09 1.3529965692e-08 
3.3821187002e-08 3.633619303e-09 2.077540653e-08 -1.0353840845e-08 -6.2560831574e-09 -7.1689200327e-08 1.6507062918e-07 -4.7260422623e-09 1.6750700064e-07 
-4.5325864716e-08 -4.9577030987e-08 -8.4548142231e-08 -1.2395225735e-07 -7.6198224112e-07 1.6800196023e-07 8.4851972692e-07 -4.3912077656e-07 1.8884469011e-07 
1.2010211751e-06 -9.1713468408e-07 9.6851129676e-08 -3.0911738389e-08 -7.3057865804e-10 3.3189434133e-09 -1.4018719968e-08 3.6897372465e-09 3.421203423e-09 
-1.7676013383e-08 4.8850024604e-09 2.0124220922e-08 -8.88466018e-09 3.2359781175e-07 1.3908257206e-07 -3.5786136936e-08 -1.9924250766e-08 -2.0660178879e-08 
1.6067683899e-08 3.9483384807e-09 2.258869671e-08 1.1897892548e-08 -1.0784560249e-09 -1.4325800209e-08 -5.1205792061e-09 -1.8526659089e-08 -1.2589655425e-08 
-3.918588786e-09 -1.3608880543e-08 -8.7955628088e-09 -2.1777392018e-08 -2.8688210404e-08 -2.6264630593e-08 5.0879301764e-08 8.6490300423e-08 4.0795153287e-07 
2.7299401176e-08 -1.3659501678e-09 6.8254971345e-08 1.2534539004e-07 -4.3109034931e-08 1.2023384594e-07 3.151312323e-08 -1.4109210891e-09 1.8640463293e-08 
2.7194898413e-07 9.8967507889e-08 2.9756370349e-07 2.626176152e-08 -1.6860944435e-08 2.8748573179e-08 1.20090639e-07 6.4904106417e-09 7.7141036138e-08 
1.2611004053e-08 7.8205876395e-08 -1.4928811777e-07 1.2101449955e-07 -2.1920244332e-08 4.8473661587e-08 5.5756689405e-07 -1.0983938734e-07 6.6277807614e-08 
8.0567219764e-08 2.7923817645e-09 2.2598130559e-08 1.2295933101e-07 -1.0737911168e-07 8.4360777173e-08 -1.0911243707e-07 6.8125016255e-08 -2.2196692325e-07 
4.5453865546e-08 5.7856250198e-08 -1.3810167435e-07 5.9804054825e-08 -3.3083366027e-07 -1.7703901157e-07 -3.038177865e-07 2.4558440526e-07 -3.85913002e-07 
3.8475793221e-08 1.1183789653e-07 -1.0975435353e-07 9.9669249029e-08 -2.8510709959e-07 1.6777150774e-07 4.9554531647e-06 -1.5286760804e-06 3.7434609497e-06 
-1.2651912086e-06 5.6168324666e-08 5.4770008116e-07 4.7185551027e-05 3.1249152945e-07 -1.9881905844e-05 6.8328690847e-06 8.2830852523e-07 6.7112622717e-06 
1.9976184335e-06 1.4456151054e-06 -1.2868177914e-06 1.0037992879e-07 -7.592628409e-08 -9.0322552684e-08 1.2165605021e-07 4.381427726e-08 1.4568104408e-07 
1.1289818077e-08 -7.8034112873e-08 -9.1924390625e-09 2.6076831091e-07 9.8577964389e-08 1.9295684159e-07 7.510396439e-06 -1.8985604007e-06 4.0260199682e-06 
3.7533793609e-08 1.4112636729e-07 2.5283421106e-08 -1.4732422768e-09 -5.9084892079e-11 -9.3742418205e-12 -1.1435299395e-09 -2.1144229328e-11 -5.1464553745e-10 
3.1779603199e-09 1.0462795168e-09 1.9616515396e-09 1.4456762532e-08 -2.9591048926e-09 7.9381033203e-09 8.1722075096e-09 -2.1584936734e-10 3.9429582514e-09 
1.2366975063e-08 -1.8266201037e-09 1.6127199425e-08 5.173549076e-09 -1.3599191289e-09 6.6311828119e-09 3.7423336812e-08 -1.3503308721e-08 1.4936304472e-08 
-1.0165885846e-07 7.5407454002e-08 -1.2450148059e-07 4.5110690338e-08 -3.7185731307e-08 -9.4652225524e-08 1.483205335e-05 -2.3600072454e-06 8.5408592059e-06 
-8.6292391884e-07 5.504447549e-07 -1.4850836209e-07 -2.3004102934e-10 5.3105740117e-10 -1.0025981569e-09 -8.7238197622e-12 2.6807962231e-10 -8.3614815686e-10 
5.0909005099e-09 1.0669859588e-09 -2.1701343975e-09 2.6411507061e-09 1.607478565e-09 1.6384094197e-09 5.5288342639e-09 2.0559749686e-09 -1.3293439491e-09 
1.6783217807e-09 -4.6015306322e-11 -1.7246675305e-09 2.2858863783e-09 -7.4035576139e-10 4.4584275791e-10 1.2377183169e-08 -2.3647549263e-09 5.6605478574e-09 
1.3040539915e-08 -1.9921799765e-09 8.1966953514e-09 8.7966111853e-09 -1.9191720273e-09 2.1983402396e-09 4.1652798767e-08 -1.7313241963e-08 -8.6424290661e-08 
5.8264803027e-07 -3.0541863249e-07 9.2209319437e-08 -1.6544718867e-10 5.0403186701e-10 -1.2081984631e-09 6.6947120971e-09 -6.4906839489e-10 -1.2642778111e-09 
4.4908777411e-08 1.0851925584e-07 2.1760884902e-08 -3.9179182969e-07 2.8507373545e-07 -2.585969234e-07 -3.7773292265e-09 4.6038119637e-09 1.2182618815e-08 
4.6808152832e-10 -1.1223331356e-08 3.7393078694e-09 4.3877436427e-08 2.083960753e-08 8.9403619584e-08 4.3958626279e-08 3.3636006382e-09 1.5322999206e-08 
1.8314523159e-08 4.2312716094e-08 9.164750455e-08 -2.4069191712e-09 1.1427275505e-09 7.0873522006e-10 -2.1170021997e-09 1.2030297591e-09 3.4265153879e-09 
5.5936274001e-09 4.6092557872e-09 7.7159121998e-09 1.6817498295e-08 7.8208957501e-09 1.9193967545e-08 5.9225328769e-09 2.372476935e-09 6.2105548351e-09 
3.6927031204e-08 -1.1479185731e-09 4.1749857024e-08 3.6097970451e-08 -1.966483366e-08 5.4577918162e-08 7.8743559298e-08 -1.1195502215e-08 3.8989157547e-08 
3.1451862573e-08 -1.4238388124e-08 3.5453955095e-08 4.2555236235e-08 -3.9375242892e-09 2.7882780822e-08 2.6292790965e-08 -7.5352944319e-09 1.7174076653e-08 
2.8979384861e-08 -6.0678343559e-09 2.6847149016e-08 6.641963982e-09 2.7404080034e-09 5.3113384828e-09 5.7869992768e-09 -2.1466813324e-09 6.0387043883e-09 
1.040265565e-08 -6.5977010041e-11 9.8040363282e-10 -1.7700464758e-09 9.0762321957e-10 -4.6773583675e-10 1.8829343601e-09 2.4021861437e-09 3.1220931052e-09 
2.3942752242e-08 -4.4548451265e-09 3.1556706973e-08 1.8430916375e-08 -5.2489971594e-09 1.7848995022e-08 -7.8970248228e-10 5.3857396127e-10 -9.4689727216e-10 
1.1052032906e-08 -1.6704801702e-09 5.6066866477e-09 7.0140653337e-09 -2.2473455086e-09 5.359589541e-09 -2.0224551873e-10 4.4120394034e-10 -9.9914558844e-10 
8.6058415023e-09 2.0102388802e-09 2.0131679083e-09 1.4845709483e-08 -7.0150742919e-10 7.2990165226e-09 1.4052971211e-08 1.7913201543e-09 6.9360562224e-09 
2.2438498801e-08 -3.6591547871e-08 -9.422088033e-08 9.2930871801e-08 -1.2093351403e-08 -3.2084331285e-08 1.3521952376e-05 -1.6053764697e-07 2.4712856701e-06 
1.3821506101e-05 -1.7620958849e-07 1.2576976486e-06 4.7815835309e-08 -1.106281135e-08 3.6628420889e-08 2.5093244369e-08 -5.4213790747e-09 2.8438522987e-08 
1.0356852785e-09 1.6433036779e-09 6.7326560011e-09 -3.4935878071e-10 3.6653688517e-10 -1.3727497878e-09 1.0480219157e-08 -3.3351482251e-09 8.2516137685e-09 
3.0585930715e-09 7.6403011388e-10 8.472013515e-11 1.2495359626e-09 1.0180389543e-09 -2.2923699526e-09 1.691724102e-08 2.7528882882e-09 1.4172627019e-08 
3.1991464184e-08 -1.6311146648e-09 2.6595425533e-08 1.8226228769e-08 -2.7811701166e-09 1.6084513284e-08 5.9959242891e-08 4.2163415849e-10 4.4611487731e-08 
1.9067638001e-08 2.8404925101e-09 3.4967213193e-09 2.952839956e-08 8.6924723105e-09 3.1332838427e-08 5.6604973913e-08 -2.9577894682e-09 1.9711014671e-08 
2.8138851045e-08 -6.9358395097e-08 1.0705879717e-07 1.1728436019e-08 1.0225498028e-09 4.9285102564e-09 1.4120465346e-07 -5.5506362899e-08 5.6132285452e-08 
6.4057882552e-08 -7.9177430689e-08 1.4032599989e-07 8.3093606253e-08 -2.650453604e-08 3.5732214294e-08 9.5971863237e-09 1.5785240392e-09 6.7471540359e-09 
2.7118626612e-08 3.4126171485e-09 3.2221150534e-08 6.1314350962e-09 1.8711206308e-09 5.1020865305e-09 2.1469076624e-08 3.8876945793e-09 1.8847845093e-08 
4.0183984273e-08 2.7934818072e-09 2.9809738182e-08 -3.8622303802e-10 6.2684230022e-10 -2.4426344767e-09 7.9728159019e-09 -3.8231630169e-09 8.1709927709e-09 
4.2775211556e-08 2.8714706705e-09 4.9068692877e-08 3.4905160194e-08 9.0412040943e-09 3.4930822496e-08 6.7261191286e-08 7.5104666578e-10 3.5221943011e-08 
4.6944189255e-08 6.2862635587e-09 5.3820030348e-08 1.1934128096e-07 4.100708097e-09 4.4231735975e-08 1.4123520943e-07 -9.4271836853e-09 5.15188351e-08 
1.8118845672e-07 -3.0358819519e-08 5.2282894611e-08 3.2059146597e-08 2.0178389247e-09 9.3925306253e-09 8.0143924999e-08 1.1318660906e-08 -1.745395085e-08 
1.9784774082e-08 3.4158569575e-09 8.396079242e-09 1.634363411e-08 -1.4188406463e-09 7.3190052448e-09 1.9499222672e-08 -5.0719960594e-09 7.8170231853e-09 
3.819290168e-08 -6.4625770728e-09 2.9517052708e-08 3.2974411591e-08 -5.2361084971e-09 1.474129846e-08 5.5981713721e-09 1.450084229e-09 2.8606154965e-09 
1.8085684503e-08 2.8549504528e-11 1.4760605857e-08 1.3682977216e-08 -2.9538486086e-09 6.1239520035e-09 5.671348015e-08 -1.0029196428e-08 1.9510618936e-08 
5.4935386747e-08 2.7680990762e-08 7.324814291e-08 6.9706486412e-08 6.9946249077e-09 4.2311751975e-08 6.0178970404e-08 -1.2422705792e-08 7.2664462758e-08 
9.1373202173e-08 -3.3401311854e-08 5.6446075255e-08 -4.4927557532e-07 9.5418697403e-07 -4.0698409766e-07 6.7199872718e-10 1.3434434814e-10 -2.4314664343e-09 
2.9670278563e-09 1.1260685191e-09 4.3149801783e-09 1.0277522671e-07 -1.7330845934e-08 5.4143302549e-08 7.0530062037e-08 -3.4509484148e-09 -1.2502829891e-10 
2.577165591e-07 4.2944473816e-09 -1.1314056711e-08 1.3605673383e-07 3.9212226438e-08 -1.6502317638e-07 1.6091243586e-07 -4.2003063005e-08 1.619643089e-08 
3.218862507e-06 -9.296819428e-07 2.6276844194e-06 2.8884445516e-06 -1.3084586061e-06 1.8866868863e-06 1.3072023344e-08 5.7116269742e-08 2.4287436817e-07 
5.2002455079e-08 2.8736328746e-08 3.5480301175e-07 8.7464948888e-08 2.3047020298e-08 1.5319822423e-07 2.3980556704e-07 -7.7619711973e-09 2.18995023e-07 
1.0875451013e-07 4.7925946615e-08 9.4799335568e-08 3.8166063551e-07 -8.4663913441e-08 -5.1103072088e-08 4.5771867253e-07 -1.3293013011e-07 1.4554013158e-07 
-3.8332524685e-08 6.8883715502e-08 2.0377619772e-07 4.152519124e-07 -3.9934735224e-07 -1.6193356204e-07 7.3804882575e-07 -4.8183497e-08 1.7762988967e-07 
1.1106657412e-07 -6.7470015817e-08 1.0873805395e-07 9.8740521461e-08 -6.175614377e-09 4.2621186772e-08 3.1562487149e-07 -6.4660257909e-08 -2.5286407423e-07 
2.3470039767e-07 -2.8497045491e-08 -9.4814446948e-08 8.121364587e-08 -6.6836562086e-09 7.7864185649e-08 4.3236366214e-08 -2.6968782327e-09 -5.3851355015e-09 
4.7074684778e-08 -2.6647008541e-08 2.2208719699e-08 1.654704578e-07 -1.0652146554e-08 9.8328639488e-08 1.0834337671e-07 -1.8540085755e-08 7.4197431158e-08 
1.5536864385e-07 6.8689869859e-08 1.9601454837e-07 1.7636668295e-07 -3.5174965911e-08 6.7687159513e-08 2.8248848494e-06 2.3804164041e-07 1.2713605582e-06 
7.4101800521e-06 -3.0778910786e-06 2.1370344594e-06 -4.027598308e-08 7.0857104905e-07 3.0328342731e-08 1.9485131151e-06 9.6567334001e-08 5.6555002593e-07 
9.3256961091e-08 -1.4526377747e-09 9.8044571648e-08 7.7364331463e-08 6.751961347e-10 6.0301689938e-08 1.8461868817e-07 3.0758636431e-08 1.2230820735e-07 
1.185248819e-07 -2.7749788138e-08 1.4967368026e-08 1.872518001e-07 1.8025313129e-08 7.1739003547e-08 8.9199134595e-08 -2.5578220454e-09 1.7329376129e-08 
8.731509377e-08 -3.4039677385e-08 2.4037422736e-08 2.1126345832e-08 -1.3143982706e-08 -2.4866648675e-08 6.932104186e-08 -3.8578195293e-08 -1.2849195368e-08 
1.4890851605e-07 9.074123078e-08 8.4208717699e-08 1.672597791e-07 1.5542572636e-06 9.1370424913e-08 4.1235134808e-07 -3.8294616364e-07 -1.2474955419e-07 
1.6927953647e-07 3.1860648911e-08 3.7836202214e-08 2.8690784463e-07 -6.9469792944e-08 7.0092040307e-08 7.3122726394e-07 -1.7063494087e-07 1.8589600886e-07 
4.6360538789e-07 -1.3156820335e-07 1.3397330402e-07 1.5053788235e-07 -1.0594235174e-07 8.0611929379e-08 2.5158303279e-07 -1.5052632382e-07 2.1257996447e-07 
1.0277587945e-07 1.017746952e-08 5.4435514638e-08 6.6440223134e-08 1.8058022091e-08 4.9677431087e-08 3.1047769764e-07 -2.507556771e-07 2.9205594711e-07 
3.5015987015e-07 -1.8615048535e-07 8.5299468424e-08 6.221737557e-08 2.0542500221e-08 9.7328691426e-08 1.0546719535e-07 2.6672161329e-08 7.2568794904e-08 
4.5672266454e-09 3.0381249382e-09 7.4496127428e-09 3.6540164738e-08 5.5419954006e-09 3.3022870235e-08 5.3088824703e-08 -5.5207128891e-09 3.8645406426e-08 
4.0678709368e-08 -1.7138995896e-09 2.6482493774e-08 3.0335671598e-08 1.021804622e-08 1.7903818111e-08 2.3851301111e-08 4.0819289456e-09 6.1777385101e-09 
7.2745396413e-08 -2.3771177531e-08 9.0538712832e-08 1.1599774855e-07 -5.6113925885e-08 1.4585790647e-07 1.9686340897e-07 -8.8038747252e-08 2.1219244113e-07 
9.6819741568e-08 -4.812877854e-08 1.0181570383e-07 4.8114433248e-08 3.9597340795e-08 1.2565526898e-07 -2.9984472948e-08 -7.6139235615e-08 1.7328005238e-07 
1.7611371311e-07 -1.2137281757e-07 8.3108504013e-08 6.1911184339e-08 -4.2050677704e-10 3.8395041297e-08 8.267953944e-08 -1.5393442858e-08 2.4185089089e-08 
1.608728363e-08 -3.3491043034e-09 1.6183249767e-08 8.2567804942e-10 4.5677631204e-10 -2.3039867519e-09 7.3773104482e-09 1.0168977181e-09 6.8514275911e-09 
1.1100407282e-07 -2.8225627448e-08 2.027066574e-08 -6.6548688337e-08 7.4504452743e-08 -1.4910626999e-07 6.2391211331e-08 -6.537187058e-09 5.2958314417e-08 
6.3549107038e-08 -1.3957585369e-08 6.7081614149e-08 1.7271926605e-08 -4.3913989855e-09 8.5337543382e-09 4.0586884266e-07 -1.5120210083e-08 2.9334696044e-07 
4.9811893031e-08 -5.4727253963e-09 1.8325311568e-08 2.4018218003e-08 1.4725740498e-08 2.6504309969e-08 7.1657391847e-08 6.4572788871e-08 1.8618987041e-07 
5.2141030002e-08 4.7545201254e-09 -1.9316692667e-08 1.1398450759e-05 3.8557362555e-06 5.8427516135e-07 3.8177917177e-09 8.8520711949e-10 1.4119912248e-09 
1.6898625927e-08 1.1370682396e-09 1.4478771533e-08 1.2318889739e-07 -2.8551917748e-08 8.1376820708e-08 1.6735341221e-07 -2.7007762842e-08 1.6155455084e-07 
1.1565439184e-08 -8.9254156259e-11 5.9253818901e-09 2.4977268568e-08 -1.999811727e-08 -1.5823382816e-08 4.662767934e-08 -2.2151161618e-08 -1.5508299907e-08 
1.2915550173e-07 4.8171792041e-08 -1.5310913868e-08 2.9670007544e-07 5.1078998121e-07 -7.9961780541e-08 5.4954751253e-08 -7.8624823994e-08 1.6398079669e-08 
6.1263632993e-06 -2.3629115769e-06 1.5050428009e-06 1.743834398e-05 -1.9865605013e-07 1.5330209212e-06 -9.9019857546e-07 -9.5201599467e-07 4.9996970826e-07 
1.1447282614e-06 -5.1224746496e-07 -1.6315158426e-07 6.6853558362e-08 -4.5963356496e-09 2.4026976536e-10 5.4415009701e-08 -3.8497368191e-09 6.8415266075e-09 
1.0745306017e-07 -1.0163451643e-08 1.6328287198e-08 6.6412222826e-08 -1.9635609683e-08 1.7531841025e-08 6.7064960414e-06 -3.6492244903e-07 1.005794236e-06 
-2.9535563741e-08 -2.125610961e-07 9.3718075846e-08 2.246448465e-08 6.0007809178e-09 1.1072539442e-08 1.1750004567e-08 1.840737172e-09 9.3307302683e-09 
2.5173551901e-08 8.8274760269e-09 1.9383757391e-08 5.6485658043e-08 6.929021359e-09 3.1290721365e-08 1.0741190471e-07 7.810076668e-09 1.1279488089e-07 
1.043179668e-06 -4.0639204299e-07 5.4578478865e-07 6.1840721949e-08 -2.2637553268e-08 6.1118016044e-10 9.1587554805e-08 2.2011310647e-08 2.5502272916e-08 
1.0086083919e-07 -1.4053484919e-07 1.552293964e-07 -8.5461042161e-07 -5.394315093e-07 -1.7157803437e-08 1.9356028413e-05 -2.5890776037e-06 3.1078367856e-06 
3.5347833035e-05 1.6878243903e-07 3.5719843287e-06 1.6248791175e-05 -2.6741135428e-06 6.0739766527e-06 3.9074775631e-08 8.7931006357e-09 1.888829399e-08 
4.5039727933e-08 -2.4246506666e-09 9.3694625288e-09 -2.6241310398e-07 -4.0750874976e-07 2.5666492943e-07 -1.2569100558e-07 -1.3837397553e-07 2.5472611068e-07 
-5.4422135121e-08 -9.353479661e-08 3.0056515066e-07 1.9637372034e-09 -1.5039919377e-07 1.7999652978e-07 1.74013272e-08 -3.5602144717e-08 -3.7613674629e-08 
4.501274384e-07 1.1211158328e-06 -4.8894505376e-08 1.8601581206e-09 -5.7571358252e-11 -2.2221528587e-09 3.2119968429e-05 -5.4712660619e-07 -3.6608257306e-06 
1.2533750897e-07 4.859655329e-08 -9.1033014741e-08 2.3231628398e-06 -3.9997151679e-08 4.4084049419e-06 0.00010955428698 -2.7832726738e-06 0.00011225487271 
0.00027338561213 -5.9595672395e-07 0.00029034974607 6.7861887469e-05 -1.9705168768e-07 5.8023981273e-05 7.5600826253e-06 -1.0458085372e-06 7.6274844763e-06 
8.0120274805e-05 1.0107640511e-07 7.2416665533e-05 6.5493228964e-06 1.3252818569e-07 6.4557974904e-06 0.00014889986432 1.2560972925e-07 0.00015315101224 
4.006782889e-07 4.1374499294e-08 7.8771923277e-07 -2.9974818609e-08 4.5839889135e-09 4.3615642461e-07 5.6502325135e-05 2.0865636549e-06 6.2497753059e-05 
9.7251758628e-05 -2.2295126769e-07 9.7146557392e-05 4.5543487001e-05 -1.8542134133e-06 5.293185801e-05 6.8722008482e-05 -4.4985654676e-06 8.05723079e-05 
0.00011118584457 -1.0843265206e-06 0.00011963249387 0.00012792865253 4.4833872222e-07 0.0001333265827 0.00019760731225 3.0272140055e-07 0.00020570326821 
0.00018065631304 2.9712724014e-06 0.00018332799871 0.00021887932487 1.7936554061e-06 0.00022985358759 0.0002922181869 -8.9092768127e-08 0.00030003210856 
0.0002244196898 5.0095257674e-08 0.00023041500079 0.0001920517609 2.0680330362e-06 0.00019635938285 0.00026471857785 -3.7813827696e-06 0.00028318134745 
0.00028801371729 -8.7954519704e-07 0.00030801861411 1.9625614569e-07 1.7789380462e-08 2.4233280284e-07 7.3843203585e-08 1.2697855899e-09 1.2677265641e-07 
-2.0193585843e-08 -4.1876688477e-09 1.9609589139e-07 1.1231120923e-07 -2.0428967471e-08 2.4376458141e-07 -7.7413702083e-08 -1.6498479492e-07 3.134873767e-07 
0.00014482555894 4.3815237667e-06 0.00015380014713 0.00022703808274 -2.3759255177e-06 0.00023604216996 0.00023879419515 1.26701534e-06 0.00024348125828 
0.00012166957778 -1.0454610375e-06 0.00012123796077 4.4238172642e-08 -9.3900133758e-08 4.1101666842e-07 3.4096099383e-07 5.5762710977e-08 3.2618436178e-07 
1.3774887744e-07 1.1114106197e-08 2.6570311055e-07 3.6780653282e-07 -3.1518763196e-08 2.4141489399e-07 1.5541092756e-07 -6.9412305022e-09 3.5678426342e-07 
9.0302696181e-05 -7.4011666363e-06 0.0001078037749 0.00013375192653 -1.0294895728e-05 0.00012168615361 0.00010930801021 4.0093362273e-06 9.4267377919e-05 
0.0001728157642 -2.0031644152e-07 0.00017106545893 1.9050449916e-05 -3.4728261925e-06 1.8932689389e-05 2.5451063868e-05 -1.0526288475e-06 2.7362982255e-05 
0.00023199850299 2.756038607e-07 0.00023555503449 0.0002833330725 -3.6919559729e-07 0.00029242937215 0.00012361591309 2.4957844292e-07 0.00012626861575 
0.00019278489843 1.3940210239e-06 0.00019458315332 0.00021782252824 -4.5737298931e-08 0.00022222701314 0.00022736185472 1.5658053707e-07 0.00024670599312 
0.00028332626345 1.4621991192e-06 0.00030086627217 0.00026739800298 2.7186340357e-06 0.00027370011924 0.00014551698679 5.21995182e-07 0.00015153164836 
0.00023189414965 -5.2457972133e-06 0.00024553039051 1.5537490721e-06 -1.2833565069e-07 1.4395740367e-06 7.5416180989e-07 7.4923291759e-08 1.7125253845e-06 
-6.6983773591e-08 4.266447791e-08 8.1330621949e-07 3.9067715124e-07 -5.2683509033e-08 2.1201574635e-07 0.00019036225337 -1.5096450271e-06 0.00018923460881 
0.00017875908931 -1.4280965998e-06 0.00017741869203 5.9032645283e-05 1.1250411199e-06 6.4661729218e-05 7.7368531009e-05 2.2099852436e-07 7.9683459893e-05 
3.1080829419e-05 -5.5661245449e-07 3.1944035114e-05 3.7269679072e-06 4.074085436e-07 5.5356949211e-06 3.8897422349e-05 -1.8842394277e-06 4.1519754043e-05 
6.1515123192e-05 -3.391351925e-06 6.884602212e-05 1.4437623138e-05 -4.9806595025e-07 1.491894679e-05 0.00030302807573 7.4323517081e-07 0.00031842267029 
0.00028326153705 -1.3066191122e-06 0.00030437706095 5.1484902785e-07 -5.2032151647e-08 9.9085437486e-07 2.6662516024e-07 4.6707824462e-08 -2.9572717283e-07 
1.9820071707e-06 -3.5078964956e-08 3.0414266584e-06 9.1440845118e-07 1.0695985453e-07 3.7979688783e-07 4.6078454175e-06 -3.8888782649e-07 4.0213861628e-06 
0.00018992623579 1.6434504632e-06 0.00019003748734 0.00017566286235 7.3323064416e-07 0.00017369410518 4.5199793801e-05 -1.0632931678e-06 4.5619221577e-05 
9.3807349903e-05 -1.2732005436e-06 9.347614488e-05 0.00010384676761 -2.1622033182e-06 0.00010335519116 7.1691015345e-05 1.0564437659e-06 6.5867177037e-05 
3.1227391186e-05 -2.9034112027e-08 2.8710257989e-05 2.2307563599e-07 5.8581141855e-10 6.4191501113e-07 2.9526303932e-06 5.6695508516e-07 2.7440709914e-06 
1.0981456696e-05 2.8949664292e-09 1.0279615735e-05 2.6715749553e-06 -5.747898122e-08 2.4924830439e-06 1.0088128718e-05 7.2579199606e-08 1.0458935857e-05 
8.3704032405e-07 5.0619569415e-08 9.3561055703e-07 8.2712510126e-06 2.9471508495e-08 9.3981755157e-06 1.3938640665e-07 1.9527979657e-08 2.9273749628e-07 
9.6725045187e-05 9.7808578053e-07 9.5997722367e-05 4.8966036563e-05 6.8913043735e-07 4.8341931443e-05 9.800753743e-05 8.0924850063e-07 9.6532873679e-05 
2.8856262636e-05 4.5029358997e-07 2.5195984024e-05 6.790652634e-05 -1.2729732334e-06 6.1433937095e-05 0.00016098891147 -4.8470495468e-07 0.00015661508763 
9.5275442513e-05 -1.0974090468e-06 9.2944598953e-05 0.00010568253537 4.5310471269e-07 0.00010201538861 0.00022901579053 -1.8307709586e-07 0.00023177986721 
0.00029016877247 2.2688603342e-07 0.00031118640636 2.0917463102e-05 -1.0743519207e-08 1.9316341469e-05 2.6936524395e-06 2.3889725894e-08 3.2085232827e-06 
3.4651001059e-07 5.6635618047e-08 6.797638531e-08 6.0691457857e-07 1.0995339457e-07 1.0423430869e-06 2.0280105752e-06 -1.0784329333e-07 2.5485624644e-06 
3.3518387175e-06 9.5028223382e-09 3.40425096e-06 8.99029391e-07 -1.8214501339e-07 3.493982472e-07 0.00023634318184 -3.7523676312e-06 0.00022426705895 
0.00022914501775 -5.1836645654e-06 0.00020810343232 0.00025430184412 2.1136777559e-06 0.00027099013626 0.00016855756062 3.0133722871e-06 0.00017207673476 
0.00030735397481 -1.0184338642e-06 0.00032780314785 0.00030222821687 6.560297954e-07 0.00030922276743 0.00025564932664 -1.5742594058e-06 0.00026896987903 
0.00022875238917 -3.1014064214e-06 0.00024123814282 0.00027655526631 -1.7903122144e-06 0.00029489001809 4.9691069295e-06 3.6625660562e-07 6.1221259592e-06 
5.5969407914e-07 -1.8349478601e-08 1.3249471751e-06 4.5483122812e-05 5.3318392548e-07 4.6671371937e-05 1.9458301087e-05 6.3949453667e-07 2.0199504964e-05 
6.5056465622e-05 3.9782226274e-06 7.656935367e-05 3.4748672422e-05 -1.209548784e-07 3.9530559783e-05 0.00010760317428 1.4567049746e-06 0.00010990754724 
1.7091331575e-05 2.5640735989e-07 1.4555537372e-05 0.00014833084632 -1.4793090773e-06 0.00014249218194 9.9484123751e-05 -2.2039179627e-06 9.5026892326e-05 
8.7972350698e-05 -1.3265890432e-06 8.3328242137e-05 5.7406444858e-05 -1.9531196553e-06 6.0180822666e-05 1.0004499281e-07 1.088306424e-08 -4.4547391952e-08 
2.9971875214e-06 -2.4433952448e-07 2.063153608e-06 0.00028107582582 -2.7066573912e-06 0.00029222149883 0.00029169553247 -1.1780188095e-06 0.0003144687212 
2.2716755878e-05 -4.2155833886e-07 2.0176059654e-05 5.4051224115e-05 1.8142912882e-06 5.4993288909e-05 2.1338819504e-06 1.7826831833e-07 1.5931043477e-06 
2.4723405606e-05 2.7283728699e-07 2.3043458459e-05 5.1570883347e-06 9.9817332572e-08 4.3946884633e-06 1.4237687137e-06 1.7606023248e-08 1.9274642531e-06 
2.8796713683e-07 -3.1544277756e-08 1.2534910331e-07 5.4014757585e-06 -4.5164508971e-07 4.9000661634e-06 4.7649771999e-06 -4.8527345621e-07 5.5072436216e-06 
1.7532802205e-05 1.3924471561e-07 1.4866436492e-05 2.0595957591e-05 1.2221895944e-07 1.8950390964e-05 0.0003112115499 -1.5725167088e-07 0.00033215564496 
0.00030559132813 2.5568291037e-07 0.00032743019802 9.6428938654e-06 -3.4591710745e-07 9.9879277455e-06 7.6338520844e-05 2.0013778545e-06 7.8553017779e-05 
1.5542829751e-05 -3.4736755887e-08 1.6511317841e-05 4.0408105249e-06 4.2478775486e-08 4.9614228207e-06 5.3980670629e-05 1.2658012919e-06 5.7656545352e-05 
8.4376075816e-08 -1.1620402039e-07 8.8141812671e-08 -3.4623495744e-09 1.1885255438e-07 1.2105786348e-07 5.4563322726e-08 -1.241226954e-08 2.152352753e-07 
-9.6685474456e-08 4.7362065362e-09 2.4450091705e-07 4.4684667733e-05 -6.3243192215e-07 4.1724360197e-05 2.7255082677e-05 -5.2833253233e-07 2.3025553167e-05 
0.00023663938778 -1.5268711686e-06 0.00025839542105 0.00031016549331 5.83540799e-07 0.00033463035024 3.9409099611e-05 -1.3795860145e-07 3.6442418598e-05 
1.5284374314e-06 8.4420197558e-08 6.8626577836e-07 3.6085040251e-08 -5.4573488493e-09 6.3187158122e-08 3.7929789198e-08 -1.0652607242e-08 6.7925604132e-08 
1.3182900411e-08 -8.0727508024e-09 1.1996341276e-07 -5.6654195246e-10 -2.1202992612e-08 1.4893103167e-07 2.6240217365e-05 -1.0354553206e-07 2.6933012842e-05 
4.2544188797e-05 -8.2489817187e-07 4.4247145435e-05 3.4383810979e-06 3.8652384504e-07 6.0066291983e-06 7.467895778e-06 -1.5449972757e-07 7.2495114462e-06 
0.00010917772047 4.6957760682e-07 0.00010551339908 8.4973829462e-09 -5.186935225e-08 9.4841119784e-08 8.029299813e-08 -1.9010102614e-08 1.1643886775e-07 
1.1474519685e-07 5.2947029395e-09 1.4219787717e-07 -5.5311269368e-08 6.0597234542e-10 1.3364248314e-07 7.4268701478e-06 -1.4869541781e-07 7.453016046e-06 
6.1737791894e-05 -9.4775410254e-07 6.4541349402e-05 5.1028644851e-05 -6.4818973736e-07 4.8060927732e-05 3.6455950562e-05 -1.7155675734e-09 3.0300366205e-05 
1.0356946097e-05 -3.4979856079e-07 9.0669940414e-06 1.8218310451e-06 -8.5500620925e-08 1.0597475622e-06 1.8647662531e-06 -7.6056759424e-08 2.7758486313e-06 
6.5871782826e-06 1.5115115387e-07 6.870934347e-06 4.2380134646e-05 2.6610870178e-07 4.1128272132e-05 0.00010302582692 -9.0927711153e-07 9.8041567763e-05 
0.00015807554141 7.9644610647e-07 0.00015432764342 1.2476869878e-05 -5.3853843044e-07 1.0386042545e-05 2.0075548966e-06 -2.0599248977e-07 3.1274638624e-06 
7.4616320055e-05 2.7292649475e-07 6.5733911569e-05 9.0688514168e-09 -2.1335501137e-08 7.5019636066e-08 2.0653146597e-08 4.2986301614e-09 4.0949660033e-08 
2.3592331435e-08 -2.5153712404e-09 4.0379515554e-08 6.8141576552e-08 -1.3629472472e-08 -6.076218502e-08 2.7661164215e-07 2.8620882941e-08 3.5271213314e-07 
3.5300070464e-05 -1.459118512e-06 3.0303701263e-05 1.8330227255e-06 3.3264174749e-07 2.3711942119e-06 2.1337751614e-08 -2.9957130932e-08 6.4645432112e-08 
9.8171245005e-06 -5.1383525145e-07 9.9917670691e-06 3.0043789007e-08 -4.3867567781e-08 1.173178956e-07 0.00028843149554 -1.2766679425e-06 0.00031337626971 
7.3660364154e-08 1.7002080738e-08 7.0782321233e-08 0.00030883716793 -4.4011703665e-08 0.00032886177519 -4.0999056928e-08 -4.6725780143e-08 7.1712447541e-08 
-2.8147474863e-08 3.1852704414e-08 3.6455822398e-07 0.0002732104426 -2.1378351486e-06 0.00029728790974 -2.0783884379e-08 -5.4003682953e-09 6.1838494083e-08 
-2.5124510957e-08 -8.2853283525e-09 1.6366529755e-07 4.5125182254e-06 1.5891264619e-07 3.5048569239e-06 2.5443706149e-08 -2.5973186553e-08 3.8366744864e-08 
0.0002427296466 6.7484578645e-07 0.0002314111264 0.00012016424728 4.9517401193e-07 0.00011687821418 0.00031557127226 -1.802020289e-07 0.00034036423074 
0.00031605844923 -2.0085992829e-07 0.00034129689831 0.00030635070514 3.7708860405e-07 0.00032954585217 0.00030933245284 -4.9736776914e-07 0.00033301025283 
0.00031460200702 1.4811251013e-07 0.00033933690679 1.116542448e-05 -3.6296211672e-08 1.0382330327e-05 2.621211809e-06 -6.6149099399e-07 2.2631979097e-06 
2.3436245436e-06 2.3967246371e-07 2.1564458115e-06 4.403288659e-07 -4.3649309707e-08 5.3817070385e-07 0.00030392174915 -1.0028191262e-06 0.00031677610902 
0.00030338682658 -1.0256914748e-07 0.00032515735343 3.2067257337e-06 1.3825874383e-07 2.778307405e-06 2.04174243e-06 4.9274780161e-07 1.6586806216e-06 
1.5027370176e-07 -6.5673082061e-08 2.4204307812e-07 0.00014931136044 -4.6697249838e-06 0.00011620982686 0.00029883720227 -2.9582816983e-07 0.00032087357633 
0.00030094798205 -1.3343401182e-06 0.00030766296374 0.00028479282293 -1.1178656061e-07 0.00030351478242 0.00029025422429 3.4250044481e-07 0.00028257429296 
2.9741523251e-08 -2.4241225186e-08 1.0532216459e-07 6.6139201815e-08 -5.740440292e-08 8.2915993557e-08 -1.5950007136e-08 5.8732536397e-09 2.5164052399e-07 
1.1616674151e-07 -1.0321807307e-08 2.8186580288e-07 2.8479360854e-06 -9.1323836926e-08 3.4202897613e-06 7.6970208319e-08 5.6878327525e-09 6.8661245292e-08 
0.00030974579989 -2.4734341475e-07 0.0003293835079 0.00030863100648 -6.9533071503e-07 0.00033266532776 0.00030769396597 -2.9108815582e-07 0.00032980656142 
3.139765113e-05 -2.7699956367e-07 2.4936476453e-05 9.0604522537e-05 6.1684610802e-06 8.6220492931e-05 7.8404182879e-08 8.5072101351e-08 1.7345413644e-07 
1.2384695252e-07 -1.3176281358e-07 2.1542859484e-07 0.00025617789878 -1.7996948823e-07 0.00023896496122 0.00017092295427 -9.4904705957e-07 0.00017640214026 
3.682368543e-08 -4.8018079495e-09 6.6643814673e-08 0.00012882964979 -2.9507778311e-06 0.00012651181195 -1.8670141267e-08 -2.9242897311e-08 1.5666672468e-07 
-1.7131213581e-08 4.8051280026e-09 4.9141234576e-08 4.3228458466e-08 -1.3767929733e-08 8.97912127e-08 2.4242131678e-06 5.462616792e-07 2.4811260049e-06 
-3.8280013949e-09 -4.4632007517e-09 6.9311578531e-08 1.3835548484e-06 -1.7342103138e-07 7.7439324531e-07 1.9655272447e-06 -2.1782365739e-07 1.6092585533e-06 
0.00013466221103 -1.297715442e-07 0.00011565051558 0.0003146719097 2.7662922189e-07 0.00033997411105 0.00026096473143 -5.2491653868e-06 0.0001786037349 
0.00024537147359 -1.4760294678e-05 0.00015195322908 0.00024791344538 -1.5088767097e-05 0.0001754634514 0.00029351318888 -4.1712522519e-06 0.00028188697382 
0.00031580352556 4.0784870983e-07 0.00034140771904 0.00010770343822 -1.676536132e-06 8.9593216575e-05 0.0002528129596 -5.9031266709e-06 0.00022879420047 
0.00021539513028 -1.1721796579e-05 0.0001545653728 0.00022858556029 -3.7154610637e-06 0.00017362016754 
Displacement%20Magnitude 1 1886 double
0 0 0 0 0.00031936787294 0 0.00031808139545 0 0 
0 0 0 0.00046602744625 0.0004657725905 0 0 0 0 
0 0 0 0 0 0 0 0 0 
0 0 0 0 0 0 0 0 0 
1.8701846349e-07 3.4952915667e-06 5.7581714399e-08 4.0675469485e-07 4.4334759729e-05 0.00033544669319 0.00033056027205 0.00032892693072 0.00031963808342 
0.00032724234534 4.3004556519e-07 5.1322037948e-06 1.2422617517e-07 1.0565935666e-06 4.677898865e-05 0 0 0 
0 0 0 0 0 0 0 1.8999814773e-07 5.299300074e-05 
3.9869484702e-08 1.1797748154e-05 0.00027657607975 0 0 0 0 0 1.110986396e-06 
6.0104421788e-05 1.6394531295e-07 1.1784683099e-05 0.00027741806106 0 0 0 0 0 
0 0 0 0 0 0 0 0 0 
0 0 0 0 0 0 0 0 0 
0 0 0 0 0 0 0 0 0.00012548509044 
8.5771105405e-06 9.6744923081e-07 6.6942733673e-08 1.176338911e-07 0.00022926561073 4.8565847994e-05 2.252128552e-06 4.961322622e-07 1.2013828435e-07 
4.0390142998e-08 0 0 0 0 0 0 0 0 
0 0 0 0.00011320858983 1.2967762612e-05 1.0275571297e-06 2.0770939949e-07 1.482469887e-07 0.00021626682383 
5.9178152859e-05 2.9091913472e-06 4.2123725532e-07 2.0532820823e-07 4.2116257915e-08 0.00041544845996 0.00045998528004 0.00036424684395 0.00044892145326 
0.00046656184317 0.00046622698844 0.00046640332782 0.00046645015251 0.00046628245475 0.00046597067833 0.0004204595725 0.0004591037558 0.00036719607207 
0.00044486553336 0.00046608106426 0 0 0 0 0 0 0 
0 0 0 0 0 0 0 0 0.00046030013885 
0.00040711149258 0.00026153819377 9.7102488124e-05 1.8428108171e-05 0.00046641557178 0.00044763795809 0.00033945714199 0.00016530318027 4.6281999799e-05 
6.0394760579e-06 0.00045892533292 0.00040258468739 0.00025692481678 0.00010058984364 1.9195260905e-05 0.00046657225423 0.00044047047699 0.00033398508063 
0.00016733243851 5.0119730546e-05 5.7681011199e-06 0 0 0 0 0 0 
0 0 0 0 0 0 0 0 0 
0 0 0 0 0 0 0 0 0 
0 0 0 0 0 0 0 0 0 
0 0 0 0 0 0 0 0 0 
0 0 0 2.0010565413e-07 5.8871260705e-08 1.085905189e-06 2.2016765608e-06 1.2261314883e-07 6.6641211451e-06 
4.3212138975e-07 4.4049794257e-08 3.0599304452e-07 2.2967366209e-06 7.9992160853e-05 7.8229745745e-05 4.5601787301e-08 8.0512329314e-08 4.0806851793e-08 
8.5048405042e-05 3.1124800858e-06 8.7688747862e-05 2.1933071387e-07 5.1869468259e-08 4.3077861382e-08 1.5000120431e-06 5.3701081195e-07 2.4552321874e-07 
6.8894551848e-07 3.3082529554e-07 8.9233451473e-07 1.4414374814e-07 7.851379654e-07 0.00011893951105 9.3651973891e-05 1.1285721779e-05 1.6783166006e-06 
2.5339084579e-08 2.4223822275e-08 5.1717546465e-08 8.2708981645e-08 5.951015013e-08 1.1053975798e-07 3.4609836179e-07 5.0568615851e-07 4.2156706207e-07 
3.208596417e-07 2.1948814758e-07 1.4920525172e-07 1.6185508138e-07 5.8311882795e-08 2.3015483147e-07 4.8810849411e-08 1.6134983587e-07 9.9839636349e-08 
1.8662539918e-07 6.9291525047e-08 6.0306604601e-08 5.9258146074e-08 6.8093829083e-08 8.5302016406e-08 1.5744536598e-08 2.9021275069e-08 3.5776426191e-08 
1.0694727162e-05 7.532715423e-05 7.8017923636e-07 6.7467648563e-08 2.7867919015e-08 1.5603532766e-08 4.6180292696e-07 7.3408726915e-06 1.9998947617e-07 
1.7630463683e-07 2.8477104844e-08 4.8844936424e-08 6.5147718393e-08 1.128749735e-07 1.866987284e-06 2.9185776521e-07 7.2843334678e-08 2.7495933067e-07 
1.9343508949e-08 2.8447518152e-08 6.7148610389e-08 6.5106148798e-08 1.0041711673e-07 1.1374440306e-07 1.0848241581e-07 1.6428602102e-07 1.9296931986e-07 
1.5236142812e-07 1.5386119584e-07 1.7391140389e-07 1.2065373072e-07 6.8344115988e-08 1.5518125732e-07 2.8574111601e-07 1.7880680703e-07 2.7057418238e-07 
3.4152991443e-07 8.3312683734e-08 7.7240366118e-08 2.3261297279e-07 3.7622312475e-08 7.8265241127e-08 1.6520500233e-08 4.0538531158e-08 4.2230418836e-08 
2.6580814326e-06 7.5041314073e-05 1.2711854281e-05 5.5379815799e-08 2.0484480464e-07 6.6671472067e-08 6.2224191226e-07 2.3842131254e-06 1.6698073796e-07 
2.919164858e-07 7.3343299221e-06 1.1504374351e-06 3.2679084523e-07 1.5574271276e-07 3.7761635134e-08 4.0594995868e-08 7.4975082177e-08 1.1499497294e-07 
4.6981942602e-08 4.0793689288e-08 8.1222584446e-08 1.1784160528e-07 9.8367247061e-08 9.9386650515e-08 1.2308932711e-07 8.7846053019e-08 1.5397993414e-07 
8.9952789199e-08 2.5259048797e-08 1.1759405511e-07 0 0 0 0 0 0 
0 0 0 0 0 0 0 0 0 
0 0 0 0 0 0 0 0 0 
0 0 0 0 0 0 0 0 0 
0 0 0 0 0 0 0 0 0 
0 0 0 1.0219143295e-06 1.6871852758e-07 1.5975876966e-07 1.0869056879e-06 2.3533830948e-06 9.3047913584e-07 
4.2448482915e-06 1.0576928796e-06 1.4993662789e-07 2.5900577337e-07 8.0075114825e-08 6.6292111017e-08 4.6523029849e-08 1.2169877639e-07 6.2314396706e-07 
0.00031843111532 0.00016877447167 0.00034639551586 0.00032574800196 0.00035187607741 0.00017017144276 2.9301588652e-05 4.5451341496e-06 6.2702898046e-07 
1.3979754959e-06 4.9353288451e-08 4.4827629597e-08 1.8571639807e-07 1.6180589879e-07 0.00026421744037 0.00031955352797 4.0081981205e-06 2.107588923e-06 
1.5676996956e-06 3.202248985e-05 3.2381308683e-07 5.929601201e-07 9.632245075e-07 5.1150455302e-07 4.1651999541e-07 5.8466307551e-07 4.3550990856e-07 
9.5841678012e-07 1.9221319953e-06 1.6764037129e-06 0 0 0 0 0 0 
0 0 0 0 0 0 0 0 0 
0 0 0 0 0 0 0 0 0 
0 0 0 0 0 0 0 0 0 
0 0 0 0 0 0 0 0 0 
0 0 0 3.262958963e-07 2.655422904e-08 1.6259979183e-07 3.2616504102e-08 9.8331063451e-08 7.6603819461e-07 
1.5740428609e-07 2.6459271061e-08 2.7760069999e-09 1.1309421588e-06 9.4508371753e-08 5.3503126382e-08 5.0376593009e-07 2.7788107438e-08 7.4813706255e-08 
1.7478957522e-09 3.7288807602e-06 4.8247635042e-09 7.8187723642e-07 3.673101449e-06 6.2939049295e-05 2.084511598e-05 6.7176694618e-08 1.0994922848e-07 
4.497332412e-08 1.548117783e-08 8.4193218027e-09 5.1658384187e-08 2.7169297813e-09 1.3168523162e-09 8.6750280297e-10 2.0262954785e-07 3.3523324625e-06 
7.3105432332e-08 1.3255239421e-06 2.9677427246e-09 2.5540681306e-09 4.0858368003e-09 1.1479121395e-08 6.2812785458e-09 2.0582718342e-08 5.7033334842e-08 
2.9420973953e-08 2.5727366448e-08 4.9874914925e-08 9.2480923048e-09 1.7112683367e-08 4.3579752146e-08 1.961235867e-08 7.4224923539e-08 7.1015339405e-10 
1.1007916212e-09 1.4898571634e-08 1.6614552814e-09 1.0978312984e-05 1.0668524507e-06 4.1438560286e-07 4.1554638806e-07 7.2643070455e-07 1.3164718698e-06 
4.2724073088e-07 1.3284389846e-07 5.7397693569e-07 7.0600143344e-07 2.728993564e-07 8.2823815841e-08 8.0215097376e-08 1.0972354862e-07 4.4876110594e-08 
1.2205204787e-07 2.9288250636e-07 7.417247309e-07 7.2938836532e-08 9.6361262985e-07 2.7988808637e-07 3.8699599224e-07 1.944925448e-07 3.3881680733e-08 
7.1931913818e-08 8.4062380763e-08 1.2329737674e-08 4.6672435065e-08 2.6006348059e-08 1.1094879745e-08 7.6480283605e-09 8.3870928571e-08 1.5758236374e-07 
9.2093990458e-08 1.1766863859e-07 3.4837571148e-07 2.7269736378e-07 1.3306852335e-07 2.8998516244e-07 1.2806124502e-08 7.0786832181e-07 1.1767969808e-07 
1.4465474119e-08 8.3544774239e-08 1.1944809259e-07 5.5584694632e-08 1.1781461193e-09 2.5458871694e-08 2.9301724645e-07 3.223619546e-08 3.1821265769e-06 
1.0245061133e-07 1.5738537881e-07 6.796894867e-05 2.2447800681e-06 2.2340755764e-05 2.3205858227e-07 5.3992491159e-08 6.3519723326e-08 6.8525074158e-09 
1.3863305924e-08 5.3296355628e-08 1.0949880749e-09 2.2887253445e-09 2.4856587103e-09 1.8560129028e-06 5.3658650683e-07 4.5501099514e-08 1.5057433709e-07 
2.3698843771e-09 4.7230958413e-09 3.7239128305e-09 1.8793979805e-08 5.9469146927e-08 4.8152883345e-08 9.9019929215e-08 5.6248197653e-08 3.7715782189e-08 
9.9866272866e-08 1.2713993874e-08 6.5947570971e-09 5.8761932122e-08 5.2394034507e-09 4.2093291913e-09 2.1885613641e-08 4.015776366e-09 5.5845606967e-06 
1.4094146755e-05 1.2446838374e-06 5.6834403577e-07 4.7105469259e-07 2.3828755302e-07 2.2604486273e-07 5.630725854e-07 4.5160527625e-07 9.0633049653e-08 
1.3014889799e-07 1.4812943819e-07 4.9758009505e-08 1.0114287303e-07 2.7076458806e-07 3.208416736e-07 2.1920886424e-07 6.9636099029e-08 1.0449394352e-07 
4.6650911509e-08 5.5125626309e-08 1.6011661982e-07 3.3415136554e-07 1.249012775e-06 1.5271957727e-07 6.4616833598e-07 3.3065814648e-07 1.8051699546e-07 
4.0146289335e-08 1.5560057299e-08 0 0 0 0 0 0 0 
0 0 0 0 0 0 0 0 0 
0 0 0 0 0 0 0 0 0 
0 0 0 0 0 0 0 0 0 
0 0 0 0 0 0 0 0 0 
0 0 0 0 0 0 0 0 0 
0 0 0 0 0 0 0 0 0 
0 0 0 0 0 0 0 0 0 
0 0 0 0 0 0 0 0 0 
0 0 0 0 0 0 0 0 0 
0 0 0 3.8855205717e-07 1.6267780662e-05 1.4580560955e-07 8.2245534717e-07 8.3964578493e-07 1.4140222748e-07 
1.3792741203e-07 8.7931057209e-05 6.9068169533e-05 6.9679103168e-08 7.1507416543e-08 2.9578085717e-07 2.4079285949e-07 2.3863723049e-05 1.4559251189e-05 
3.6000742133e-05 0.00020789786154 0.00020404240963 0.00012618972734 0.00020218330738 0.00021144146805 0.00011757651386 3.2029481644e-08 3.1217427139e-08 
7.031505198e-08 3.3906825939e-08 3.2951575979e-08 8.7169578663e-08 0.00021922135281 0.00026238676267 4.1320634715e-05 6.676816319e-05 5.0638798098e-08 
5.6926310288e-08 1.0190089902e-07 1.0154733677e-07 1.0051722312e-05 7.3984006599e-05 4.0326932455e-05 2.2345070177e-07 2.8666001875e-06 4.7112798756e-06 
1.8681298445e-07 3.9915662327e-07 5.2124418167e-07 8.7997978225e-08 1.2145845528e-07 2.2032887253e-07 9.7001956267e-08 5.1506072091e-05 1.7907263224e-05 
5.6304546628e-05 8.1221805943e-06 1.1193171521e-06 9.6802882168e-06 4.0967967256e-07 2.0994295163e-07 3.7204364852e-07 1.6644450684e-07 1.1493852719e-07 
1.9975040774e-07 9.741018069e-08 8.9478876741e-07 6.8148258107e-07 5.9959131496e-07 3.1491821096e-07 3.5853747494e-07 1.4075625432e-07 2.0372844139e-07 
2.3893144628e-07 4.649520353e-06 3.5097020761e-06 3.5523975992e-05 1.8280766905e-05 6.1255026216e-05 2.3780055007e-05 3.4313696991e-05 1.2981667083e-07 
1.2334056262e-07 0.00044923776492 0.00046319522956 0.00046230182135 0.00040821076275 0.00041413992746 0.00044673317538 0.00044712389451 0.00046426329847 
0.00039030119891 0.0004661367733 0.00046274479286 0.00046554791607 0.00041210778092 0.0003630493888 0.00037803138485 0.00046550574754 0.00046574896204 
0.00046217645185 0.00036010146571 0.00041471544099 0.00036794071203 0.00045585215049 0.00043544153253 0.00043289022385 0.00045794256065 0.0004659249035 
0.0004656447322 0.00046379496348 0.00046340159951 0.00043419970434 0.00045453296465 0.00043009036595 0.00045838691967 0.00035191495625 0.00035408493572 
0.0004001202245 0.00039973486478 0.00046074163926 0.00044778449465 0.00046225293013 0.00046098240208 0.00045032078053 0.00042962755102 0.00042662496187 
0.00043366198959 0 0 0 0 0 0 0 0 
0 0 0 0 0 0 0 0 0 
0 0 0 0 0 0 0 0 0 
0 0 0 0 0 0 0 0 0 
0 0 0 0 0 0 0 0 0 
0 0.00027174988093 1.970924741e-05 5.2440056174e-07 3.7618758209e-05 0.00018665030599 2.4324458024e-07 1.0689648053e-05 0.00043848768303 
0.00028878536217 1.7078386406e-07 1.2544906124e-06 2.1530799549e-06 8.5379017603e-05 0.0001064861733 0.00038602167811 0.00041274972065 0.00045223765243 
0.00046265335024 0.00045099481882 0.00028073171211 0.00036682517553 0.0001855498794 6.2438955839e-07 3.4566765264e-07 5.8181904046e-06 4.9827793608e-08 
5.5668975674e-08 1.288793713e-07 0.00041501819244 0.00044428151206 0.00036190945522 0.00042602159857 1.1400896067e-07 8.0304349113e-08 2.9385535189e-07 
6.9623540971e-07 4.2078494951e-05 0.00010569235893 0.00018850665091 9.266481556e-06 2.2413390617e-05 6.8160721905e-05 3.8426369695e-07 8.122177174e-07 
1.3219955119e-05 2.2125737529e-07 2.222860811e-07 8.6804436871e-07 2.907641515e-07 0.00043923225754 0.00039518090846 0.00041585102507 0.00030854590446 
0.00022379370297 0.00029466116482 0.00016188871935 9.2591862387e-05 0.00013166344452 3.8241685091e-05 1.4525097708e-05 3.3347984404e-05 3.9245073678e-06 
0.00012681839832 9.7396670168e-05 0.00022776968551 0.00017628155921 0.0003334492219 0.00037356798073 0.00036104888214 0.00028466468557 2.8174796295e-05 
7.9390349508e-05 1.005760209e-05 4.5921774709e-05 5.3491025818e-06 3.6285117604e-06 1.4556985249e-05 3.1413860852e-07 2.4016556978e-06 0.00026120122079 
1.8523782196e-05 6.9306968324e-07 4.0700990312e-05 0.00019057988298 5.4328100782e-07 1.0683062855e-05 0.0004303044181 0.00027823299297 3.2861410716e-07 
7.7405355679e-07 9.2751617438e-05 1.8748527557e-06 0.00011628589365 0.00037574340497 0.00041322536069 0.00046118952039 0.00044729613456 0.00044665266564 
0.00036560129221 0.00027099256111 0.00019334207912 2.5966953414e-07 3.3251646931e-07 5.6024142046e-06 7.3250351628e-08 1.0019554611e-07 2.2803489512e-07 
0.00044230401948 0.00041967044597 0.00035602862892 0.00041965290822 1.4727332291e-07 1.8652955535e-07 4.3729868458e-07 5.9213336453e-07 0.00011222563616 
4.7840139085e-05 0.00019557557892 2.4040166266e-05 8.4971537691e-06 7.565355899e-05 9.0577241386e-07 5.7784931849e-07 1.2769345847e-05 3.822458102e-07 
3.1072138842e-07 8.0884134075e-07 4.4688981032e-07 0.00038639343125 0.0004320049123 0.00040722706535 0.00022176609724 0.0003046608324 0.00028784790172 
9.7301486373e-05 0.00016500188328 0.00013648800615 1.5204174847e-05 4.1979499428e-05 3.8231094764e-05 3.483492018e-06 0.0002238990463 0.0001181537229 
0.00014622626708 0.00019038485722 0.00032052933174 0.00036326429454 0.00035078968528 0.00027289132066 9.3802556873e-05 2.8894227078e-05 8.5334083928e-06 
5.6366008947e-05 1.4389352879e-05 2.2300104142e-06 3.923924352e-06 1.4872330405e-06 4.9170994658e-07 1.6008117242e-06 8.289890983e-06 8.0365531122e-06 
7.1298598666e-07 6.4458910182e-07 2.1995584869e-07 1.084786095e-07 1.0876534455e-06 9.250868467e-07 3.7237878805e-05 3.0024283007e-05 0.00015400371225 
1.0182668892e-07 5.3869545495e-08 6.2599790775e-08 3.1086833257e-08 1.3391069602e-07 3.2028988718e-08 0.00023750196815 0.00024122234575 0.00011286804959 
0.00011321088499 7.6743186405e-05 2.1110764364e-05 5.823645193e-05 8.5573597056e-06 3.3368074556e-06 1.3404684387e-05 1.1971813063e-06 2.3361133887e-07 
2.6019749154e-06 2.756506747e-07 3.0284603041e-07 1.0150910275e-07 4.3994068304e-07 2.5659887926e-05 8.3814605397e-05 6.4444081494e-05 4.3986717389e-06 
9.0226828728e-06 1.7286596475e-05 2.6516606934e-07 1.0623809343e-06 3.1202532326e-06 2.9903780796e-07 3.5528965702e-07 2.2042965445e-07 3.6693358899e-07 
2.2438287863e-07 1.2063237955e-07 3.9125415576e-06 9.0925087553e-06 3.8318640134e-06 1.1021098343e-06 1.0807706129e-06 1.5660440875e-07 9.5201971152e-08 
6.3215551962e-07 1.4808675647e-05 1.671554678e-05 3.1766358379e-05 3.100590906e-05 7.8285370352e-05 4.212088702e-07 3.5892286141e-07 0.00020061596077 
0.00044792171321 2.2432461509e-05 0.00033793213347 0.00033798220508 5.4430971085e-05 5.7609990433e-05 0.00046275825643 0.00046294697393 1.1380719583e-05 
1.1315047625e-05 0.00018753646791 0.00018999554667 0.00043572361635 0.00044671963667 0.00046548276221 0.00046606087299 0.00046580941698 0.00046225295313 
0.00046578685884 0.00046582565261 0.00046067459676 5.0719680429e-06 4.0163600175e-06 1.4961664114e-05 3.5614660502e-06 4.9698617502e-06 1.5549552965e-05 
0.00046580348547 0.00046629591516 0.00046438336738 0.00046468994794 8.174587607e-06 8.4933356557e-06 1.7789485783e-05 1.7085739498e-05 0.00042784623789 
0.00045531396948 0.00045846887728 0.00029850575614 0.00037179941944 0.00039652325643 0.00013917988763 0.00022189483406 0.00026126214854 3.3941720223e-05 
7.8651716402e-05 0.00011419611412 3.0223489042e-05 0.00045088323739 0.00041884502326 0.00045554742142 0.00036839358669 0.00029713154574 0.0003888326781 
0.00022098778025 0.00014253685055 0.00025837995607 8.1961949273e-05 3.5972329655e-05 0.0001180001091 3.1490795813e-05 0.00033732313093 0.00026577435672 
0.00026492396383 0.00019353615387 0.00019370933726 5.8343126062e-05 0.00011809855708 0.00011636089521 0.00039751086473 0.00039706344025 0.00044242259716 
0.00044778548413 0.00045733519783 0.00046119215282 0.00045945350305 3.9994885769e-05 3.8656740436e-05 1.6422885134e-07 8.1863579947e-06 6.2304989773e-06 
8.843863755e-07 6.0453797811e-07 1.2359692909e-06 2.6109294063e-07 4.7604241742e-07 1.457349118e-07 2.059665846e-07 1.337776496e-07 5.5190683701e-07 
1.5482648316e-06 2.2405792929e-07 2.715888751e-07 1.5397839249e-07 3.9383471079e-08 8.8474214903e-08 8.9513071584e-08 7.1692738489e-08 8.6736243601e-08 
9.575244935e-09 5.8902778835e-09 6.4882745718e-08 4.5271785673e-08 5.8353324102e-08 2.7478666493e-08 2.5116908663e-08 6.8780359881e-08 1.012883459e-07 
6.7908839601e-08 2.2995200375e-07 5.1179610101e-07 7.6493945979e-07 3.3333728448e-07 2.3965149522e-06 5.5843265867e-08 5.6629506863e-08 7.2364005161e-08 
7.8149078223e-08 6.0017287429e-08 4.3581127528e-07 3.788732444e-07 3.2314347932e-07 8.8506128541e-08 3.2138371805e-07 4.5374039535e-08 5.4339331782e-08 
9.0518188051e-08 7.1073632743e-08 9.4752291016e-08 4.9152047202e-08 4.121810912e-08 8.1997021482e-08 1.101861373e-07 7.9790524966e-08 6.6249155095e-08 
1.1143346569e-07 3.0938623485e-07 5.3051286687e-08 8.8427458932e-09 4.738105917e-08 2.4621386414e-08 6.5877685327e-08 4.0877574493e-08 8.3019837152e-08 
1.0212830876e-07 2.0553250315e-07 1.5541968171e-07 1.5234409101e-07 1.0397602831e-07 1.2750729162e-07 1.2372006352e-07 7.7456456647e-08 6.7098548348e-08 
4.9181306355e-08 1.2129606607e-07 9.1886405771e-08 1.5378594385e-07 7.5415947793e-08 1.1517905336e-07 7.1501827446e-08 2.8066947302e-07 5.3151060167e-07 
9.4352489548e-08 1.6677474775e-07 1.1198110396e-07 1.9307728975e-06 8.5745286711e-08 2.5240060763e-08 1.4616543488e-08 7.3695394032e-08 6.5898096561e-07 
3.2232323498e-08 5.2730124637e-08 3.3100893485e-08 3.9858416877e-08 7.2702696237e-08 2.3522168981e-07 1.0798474137e-07 7.9006693168e-07 9.7389686331e-07 
1.5142549433e-06 3.1097985478e-08 1.4894405102e-08 2.7226622373e-08 3.5233285798e-07 4.5874463012e-08 2.8000161816e-08 1.8653457216e-08 2.2977311682e-08 
1.6670899581e-08 4.4576889073e-08 4.2011156683e-07 7.3524582541e-08 1.7895818899e-07 3.6640612792e-08 4.1508429894e-07 4.2431733705e-08 1.4287976225e-07 
1.690033687e-07 1.3219191383e-07 5.7213484436e-07 8.372305418e-08 1.8375530314e-07 2.5654601299e-07 1.5647834367e-07 3.7996084977e-07 5.4913185358e-07 
1.6135092154e-07 3.4549572536e-07 6.3958475989e-06 1.3797967437e-06 5.1204141011e-05 9.6132843618e-06 2.7813993721e-06 1.549164105e-07 1.9478925034e-07 
7.938062547e-08 3.3904287303e-07 8.7303735917e-06 1.482048872e-07 1.4744564107e-09 1.2541801426e-09 3.8784287263e-09 1.6756126312e-08 9.0762594885e-09 
2.0405028167e-08 8.5198342451e-09 4.2496337205e-08 1.7754274497e-07 1.1125105299e-07 1.7277317985e-05 1.034254249e-06 1.1576458451e-09 8.7811532793e-10 
5.6360633727e-09 3.4991498704e-09 6.0466682333e-09 2.4069398619e-09 2.4438041969e-09 1.3814070041e-08 1.5530945786e-08 9.2680251092e-09 9.7487753121e-08 
6.642754149e-07 1.3195318949e-09 6.843892038e-09 1.1944355691e-07 5.4921784498e-07 1.3560217619e-08 1.1839116959e-08 1.0174736293e-07 4.667407137e-08 
1.0259167994e-07 2.7570621617e-09 4.2035683197e-09 1.0586274485e-08 2.6690879516e-08 8.9037089937e-09 5.5749205484e-08 6.8326556363e-08 8.8577885541e-08 
4.9486708191e-08 5.102844006e-08 3.2296136422e-08 3.996739635e-08 8.9350902649e-09 8.6350189381e-09 1.0448961136e-08 2.0434336907e-09 4.3661659876e-09 
3.9861344496e-08 2.6188495049e-08 1.34547626e-09 1.2504913855e-08 9.1089447462e-09 1.1107907425e-09 9.0639071788e-09 1.6557863537e-08 1.5773512724e-08 
1.0353744199e-07 9.9054532435e-08 1.3746862233e-05 1.3879729251e-05 6.1240355307e-08 3.8312032753e-08 7.0072639313e-09 1.4631619274e-09 1.3749448609e-08 
3.1537138572e-09 2.8022675522e-09 2.2240386558e-08 4.1634492611e-08 2.4467159417e-08 7.4736024921e-08 1.9592607703e-08 4.3923026072e-08 6.0011629619e-08 
1.306291237e-07 1.2762916316e-08 1.6177312493e-07 1.733893425e-07 9.4254066062e-08 1.1837305904e-08 4.2252436697e-08 8.1930992743e-09 2.8831869257e-08 
5.0111641593e-08 2.551188486e-09 1.2039414094e-08 6.5159041491e-08 5.0202349944e-08 7.5929027347e-08 7.1692884452e-08 1.2734050266e-07 1.5063348414e-07 
1.9100894178e-07 3.3467599048e-08 8.2799765696e-08 2.1762341576e-08 1.7963722401e-08 2.1611355356e-08 4.8700298169e-08 3.6497048268e-08 6.4517740197e-09 
2.3344555774e-08 1.5279132018e-08 6.0808452233e-08 9.5652623625e-08 8.1842552383e-08 9.5162788137e-08 1.1247608244e-07 1.1304677703e-06 2.5261947103e-09 
5.3563362991e-09 1.1745042638e-07 7.0614547566e-08 2.5800053293e-07 2.1744351511e-07 1.6709097429e-07 4.2579466603e-06 3.6898188653e-06 2.4984215973e-07 
3.5974325438e-07 1.7790721833e-07 3.2484731533e-07 1.5202418839e-07 3.9426430591e-07 4.9835602994e-07 2.1849276296e-07 5.9844376261e-07 7.6065110023e-07 
1.6944601293e-07 1.0772369448e-07 4.0956104366e-07 2.547275753e-07 1.1270829137e-07 4.3653822283e-08 5.8474919767e-08 1.9277567786e-07 1.3261704584e-07 
2.5938276135e-07 1.9215628183e-07 3.1069270838e-06 8.3036797974e-06 7.1036250938e-07 2.0312251085e-06 1.3532076329e-07 9.8091740131e-08 2.2358320895e-07 
1.2264673039e-07 2.0133214643e-07 9.0902889631e-08 9.6749278697e-08 3.5177222544e-08 8.0366571522e-08 1.936461341e-07 1.5658991122e-06 5.7640597653e-07 
1.7635827345e-07 3.0340576388e-07 7.735418028e-07 5.001889583e-07 2.0095700802e-07 3.6213593835e-07 1.1674625277e-07 8.4901369667e-08 4.9454169346e-07 
4.0563522674e-07 1.1732804572e-07 1.3077065221e-07 9.2512967949e-09 4.9562156034e-08 6.5896654065e-08 4.8569716121e-08 3.6677079257e-08 2.4974209931e-08 
1.18550496e-07 1.9462471381e-07 3.0254198863e-07 1.485155858e-07 1.4025760124e-07 1.916304474e-07 2.2946551861e-07 7.2851566685e-08 8.7508758758e-08 
2.3063277461e-08 2.4897276544e-09 1.0119330534e-08 1.1631633642e-07 1.794779127e-07 8.2097388094e-08 9.3451838674e-08 1.975927116e-08 5.0100955819e-07 
5.3357215582e-08 3.8680753304e-08 2.0969285804e-07 5.5807052304e-08 1.2047105845e-05 4.1656745508e-09 2.22820849e-08 1.5037587371e-07 2.3417185298e-07 
1.2995287622e-08 3.5695491077e-08 5.3901037166e-08 1.3869422936e-07 5.9609665828e-07 9.7317956464e-08 6.7365296873e-06 1.7506726083e-05 1.4617788417e-06 
1.2646812631e-06 6.7011807144e-08 5.4978361567e-08 1.0916074776e-07 7.1438826684e-08 6.7913091221e-06 2.3417439408e-07 2.5753904013e-08 1.5116661271e-08 
3.2975173979e-08 6.4944207941e-08 1.5595191479e-07 1.2454956234e-06 6.585671758e-08 9.7586597007e-08 2.3242013301e-07 1.0107619483e-06 1.9774170229e-05 
3.5528254387e-05 1.755184578e-05 4.4282325585e-08 4.6067807102e-08 5.4845319242e-07 3.1596040488e-07 3.1945255791e-07 2.3456880544e-07 5.4636136538e-08 
1.2090930874e-06 2.8985282511e-09 3.2332543426e-05 1.6235185838e-07 4.9832438717e-06 0.00015687907716 0.00039880198486 8.9286376357e-05 1.0790138286e-05 
0.00010799741709 9.197201496e-06 0.00021360341271 8.8473528813e-07 4.3720925131e-07 8.4278322426e-05 0.00013746056844 6.9852909088e-05 0.00010599456751 
0.0001633260585 0.00018477531978 0.00028524125937 0.00025739985822 0.00031740202864 0.00041882065716 0.00032164463663 0.00027467282876 0.00038766209495 
0.00042169674126 3.1234295912e-07 1.4671652083e-07 1.9717737218e-07 2.6916968919e-07 3.6261163684e-07 0.00021130103059 0.00032751769729 0.00034103870176 
0.00017176502053 4.2392092749e-07 4.7514220726e-07 2.9949360519e-07 4.4108528548e-07 3.8922454665e-07 0.00014082261213 0.00018111621327 0.00014439755681 
0.00024316397702 2.7081855388e-05 3.7384455023e-05 0.00033061995648 0.00040717650224 0.00017670517701 0.00027391707489 0.00031117760406 0.00033549558051 
0.00041327523918 0.00038264975923 0.00021008880593 0.0003377685416 2.1220225318e-06 1.872729753e-06 8.1717445522e-07 4.4761017116e-07 0.00026842094499 
0.00025186155672 8.7562881132e-05 0.00011106481086 4.4572964386e-05 6.6858200516e-06 5.6924948831e-05 9.2387155011e-05 2.076699316e-05 0.00043956747381 
0.00041579345938 1.1178413387e-06 4.0090542237e-07 3.6304075635e-06 9.9590607091e-07 6.1282150585e-06 0.00026867996309 0.00024703769148 6.4228228446e-05 
0.00013243575649 0.00014653027607 9.7361197432e-05 4.2419685489e-05 6.7957189764e-07 4.070551549e-06 1.5042037734e-05 3.6541877756e-06 1.4531515683e-05 
1.2564099487e-06 1.2519591244e-05 3.2481556933e-07 0.0001362800562 6.8811990039e-05 0.00013756717623 3.8310889687e-05 9.1580813533e-05 0.00022460175918 
0.00013310639627 0.00014688819933 0.00032583764772 0.00042548201784 2.8472116637e-05 4.1893860934e-06 3.5762769695e-07 1.2111623201e-06 3.2587770258e-06 
4.7774300299e-06 9.8158534368e-07 0.00032583415044 0.0003095825384 0.00037163093185 0.00024089652198 0.00044935777147 0.00043238992281 0.00037108469698 
0.00033246520995 0.00040428473049 7.893452593e-06 1.4384294152e-06 6.517066598e-05 2.8054490465e-05 0.00010055364686 5.2632214679e-05 0.00015381883514 
2.2450902608e-05 0.00020568969406 0.00013759381671 0.00012117957857 8.3192824236e-05 1.1005413125e-07 3.6468394058e-06 0.00040546806315 0.00042892685624 
3.0385886398e-05 7.7130333244e-05 2.6689348501e-06 3.3798257391e-05 6.7763419542e-06 2.396360943e-06 3.1564618016e-07 7.3068852503e-06 7.2986457888e-06 
2.2987593963e-05 2.7987956771e-05 0.00045517032636 0.00044788018462 1.3887539789e-05 0.00010955433301 2.2676075061e-05 6.3988804138e-06 7.899235581e-05 
1.6849829574e-07 1.6968477792e-07 2.2239029735e-07 2.6296617855e-07 6.1139526776e-05 3.5683256096e-05 0.00035038368228 0.00045626795314 5.3676307977e-05 
1.6775602731e-06 7.2969375343e-08 7.8524102328e-08 1.2095527508e-07 1.5043383948e-07 3.760248542e-05 6.138809605e-05 6.931916011e-06 1.0409070743e-05 
0.00015183238302 1.0843188286e-07 1.4271075458e-07 1.8279696483e-07 1.446375367e-07 1.0522735324e-05 8.9319868834e-05 7.0101323237e-05 4.7404098204e-05 
1.37694979e-05 2.1093704295e-06 3.3449175525e-06 9.5196377662e-06 5.9056594848e-05 0.00014222270144 0.00022091974253 1.6242911849e-05 3.7220612273e-06 
9.9441524715e-05 7.8520019551e-08 4.6064143783e-08 4.6834073828e-08 9.2309696692e-08 4.4915365342e-07 4.654608804e-05 3.0154908116e-06 7.4375810789e-08 
1.4016967193e-05 1.2880404259e-07 0.00042590966638 1.0356185106e-07 0.00045114350867 9.4904669702e-08 3.6702802862e-07 0.00040376802445 6.5460928637e-08 
1.6578967802e-07 5.7159510163e-06 5.2858260601e-08 0.0003353643484 0.00016763116797 0.00046414768115 0.0004651629354 0.00044994595833 0.00045451363263 
0.00046273532507 1.5246665349e-05 3.5256753199e-06 3.1937873175e-06 6.9672266998e-07 0.00043899491853 0.000444714382 4.2451380953e-06 2.676328446e-06 
2.9236961335e-07 0.00018926281343 0.00043847874858 0.00043038118874 0.00041620690484 0.00040508747582 1.1209350364e-07 1.2060149866e-07 2.522138996e-07 
3.0504029631e-07 4.4516808108e-06 1.0330116657e-07 0.00045214601293 0.0004537838714 0.00045105213599 4.0096347503e-05 0.00012522460947 2.0849656057e-07 
2.8126319732e-07 0.00035033041675 0.000245628321 7.6291802983e-08 0.0001805852273 1.6046240631e-07 5.2263071757e-08 1.0060177627e-07 3.5115804927e-06 
6.9560539633e-08 1.5949870755e-06 2.5495994954e-06 0.00017750766089 0.00046325034642 0.0003162743096 0.00028898929077 0.00030409894783 0.00040697377974 
0.00046507124585 0.0001401063376 0.00034102203098 0.00026537316581 0.00028706989672 
Stress%20xx%20component 1 1886 double
10549.490584 1764.9531739 11085.191776 1755.6466496 -7915.1146336 1329.1910382 -9430.6437141 888.07244133 -14521.508365 
-1840.2398566 -14498.929698 -1826.4544083 -18524.993694 -17151.155374 -31975.990214 -31096.367073 4266.5672632 5761.4011755 
3263.7012924 4755.4342808 8490.3663541 10299.56159 10567.641073 13841.816757 12233.98678 14908.248287 4157.9886188 
6569.5057752 3237.1302894 4897.0296084 8388.1584644 -2.7105054312e-13 2.7105054312e-13 2.7105054312e-14 -9.7578195524e-13 4.3368086899e-13 
1081.6117535 -5610.1604752 1394.9229746 14283.524751 40129.489648 -19938.259271 -12731.555768 -4405.0881617 117298.27153 
-9841.5969321 1150.649915 -10480.370238 2140.7188316 19513.562477 54221.112357 1352.0566261 1040.7844547 1462.2067317 
1112.2281996 915.04424246 3129.393195 2783.7703276 2874.875019 3032.17706 2379.9017854 17723.297417 4067.354501 
6705.4823591 -26914.802734 726.03971733 3044.1640911 2494.0548766 2824.6897203 2840.6397503 1915.3681616 10896.557854 
4401.5116466 8026.6265498 -39891.252115 1360.7541153 -3965.2344159 -5865.1214224 -3165.3062906 -4685.2867486 -9123.1782008 
-17755.9948 -16214.681214 -14809.897897 -17686.143887 -13823.578942 -3860.8433523 -5992.3845069 -3188.8914815 -4333.4642543 
-9311.6238098 2.3310346708e-12 3.5914196964e-12 7.5894152074e-13 -8.4025668368e-13 3.2526065175e-13 -354.30842067 -1618.5690266 -2071.0117281 
-2649.0182971 -3019.5537849 31.312401833 -877.35695489 -1883.1301027 -2435.1656356 -2853.2486476 -2801.5372848 -20688.4259 
-8930.052265 -7246.5528875 -13998.635469 -16783.333468 -68168.959954 -82375.52709 -12874.065762 -15643.906524 -17868.177984 
-20464.249984 -324.58356418 -1389.7204512 -1974.4415451 -2681.0700257 -2954.0114866 -128.08836907 -1130.2625546 -1804.2309951 
-2518.818583 -3079.8491495 -2726.2453286 -14823.954217 -11656.395961 -8975.8125836 -14069.200119 -16570.075274 -71800.467824 
-68428.420293 -15390.8838 -17064.305945 -17306.23507 -20782.202004 -30102.634215 -21346.359637 -21469.061691 -1120.3476104 
-16112.55921 -23320.712418 -21673.094166 -21156.314303 -26451.653749 -13544.764182 -24958.480472 -22922.108202 -23380.856908 
-13435.683341 -17467.880929 -17168.861067 -24462.12439 -16415.351034 -19137.566325 -28806.499728 -53689.821683 -56137.261797 
-46656.754878 -51485.331471 -45472.605597 -17788.702455 -24315.097759 -16431.082582 -17806.185158 -28177.664526 -19767.485281 
-23061.355848 -22126.210906 -23460.38339 -21553.038527 -29634.051066 -33396.542769 -21076.449401 -20924.043471 -23723.428347 
-23142.255472 -23143.695558 -22271.910625 -23223.332536 -23733.299502 -21865.735368 -24497.260467 -17304.41734 -17692.459444 
-22518.347238 -24637.321448 -25571.742603 4855.8079442 3916.9395278 7769.1285278 6692.3869204 3852.7920944 8249.9793405 
5326.3892918 3265.1103901 4904.9950344 8193.5359615 9651.7725615 7824.2810628 4054.3581803 2797.4160307 2269.8267332 
9252.9282389 7876.7251405 6682.7175047 2134.8261718 2786.3488455 4161.2504495 9142.2353311 9733.3352732 8225.0254344 
7706.4559118 4613.6852809 5078.0313036 4693.5371692 7151.5980607 2070.7215191 2070.7215191 3498.465558 3413.7570264 
5406.5368623 5314.3949418 4877.5201362 6520.8415307 4075.458216 3396.3150631 5143.7659583 7817.2840699 8546.5846164 
7862.60242 5458.5575034 3929.7294598 1495.1436689 1249.557392 -6090.9276575 -461.09159094 1043.8581364 20417.412812 
1196.8735843 1041.3969583 2684.3234217 -9597.4448595 -1318.9206248 -59632.480151 1615.0822295 -228.72664303 1636.7181074 
-2180.2174885 -6746.6437444 -64902.433287 -2380.407325 1283.7349499 1158.2523457 -34286.338763 -907.49414549 3302.4064389 
8679.463083 1708.2855667 -1138.2480229 2676.3165834 7249.7837941 35442.498637 21886.50729 22923.059051 1490.4229522 
1147.776231 1218.0991637 1233.7127294 887.8186967 1719.4886986 1650.6634339 3285.8195622 -5435.0373846 -855.24629107 
-4.5392528913 16675.613136 1694.3770955 4660.5377654 3673.4420979 7300.2076841 2479.238763 7467.7445317 4018.7224521 
4357.5045969 5202.7628985 3002.5692154 8199.8241611 2934.6754527 7030.0271199 2983.3390706 4134.5512147 3244.9315489 
34781.98827 812.80682877 -10503.642515 4132.0079716 2073.1879151 2630.3376719 2852.853091 -50884.4992 10527.953297 
24701.474012 4683.253253 5284.0486243 4324.6315445 6536.585273 40141.227525 410.99458624 1465.4579314 -11566.478921 
2768.1471011 3039.0084668 3398.7967441 3022.3076749 4024.1516388 5436.5019445 4018.1996858 6782.8305617 3607.922949 
4288.2950644 2531.2344739 5418.1921811 4335.249443 3504.6833588 1978.3018466 7549.071143 12081.575593 5728.4698867 
-263.39526298 5304.1228854 2744.2764867 24755.218832 7344.0716135 8209.002581 2905.652389 3044.9957242 4051.3574522 
-18794.069838 7444.9687051 40018.592468 1522.3840195 3176.8896714 2380.518936 360.39345606 45478.266515 -3165.9837808 
-13054.869964 -48639.231635 -36203.523545 18433.398202 29069.097793 2846.9046661 2408.6274607 3330.281491 2668.1451352 
5586.6052247 4468.8472149 4146.2006677 7520.5926825 4896.3786414 3950.7297982 3572.64932 4005.0625348 2300.2984922 
4125.2233203 3295.5506507 6040.8005382 2461.909019 3268.7692045 3501.1914704 2828.8839811 2994.8085343 3167.0052647 
2818.9811802 3203.4052366 2996.6742868 2382.0045084 2768.1656722 3069.1862865 2772.9658854 2549.8441414 3293.6853212 
2603.840266 2754.3422994 2695.0582608 2228.2848435 2526.4281969 2612.5857348 1713.6320508 1704.7958875 3345.0783202 
3432.5848756 2866.5146644 3125.963296 3574.4334614 3205.7576139 2044.2583135 2154.5976287 3133.5181668 3141.3438949 
3150.8243481 2957.0812578 3206.6634039 3288.305608 3304.1652751 3004.7124436 3247.3488599 3335.0892189 2969.9613983 
3063.8516914 3440.7442682 3334.1080263 14664.887823 8587.3251639 8789.2528669 24340.966108 30065.680776 12954.608138 
28196.472638 13274.424968 7328.206949 22664.110762 8802.9795746 7015.6690204 7368.1043957 10620.467029 24905.575012 
61115.600886 44622.967898 35055.653212 53538.556364 -10155.224462 42007.334461 33843.87703 50847.09304 -16018.141651 
-17255.200109 7493.8424181 8827.5778307 7757.0412694 7997.3126277 -102235.7729 -93406.958983 80855.416552 69718.261255 
42358.188813 35444.651812 -2525.9596174 -16110.67654 15985.194022 5329.4690159 10147.68013 11357.840479 8665.6540588 
22445.791276 20451.154319 28735.984525 -5090.4023677 -3488.0993629 -4368.6110721 -4184.2649165 -3368.5454105 -7056.7185633 
-4231.340463 -3187.6108566 -4250.6517787 -5255.0124954 -6798.5859292 -2960.2150095 -2563.4475401 -3527.2878631 -1926.4255918 
-2929.5160137 -6530.2208801 -4370.8961855 -3336.8235542 -2506.5946238 -1907.8477949 -4129.9190972 -4675.188411 -3619.8755569 
-4430.9400111 -11492.279056 -10812.030745 -5642.8467792 -5005.2904922 -5111.4266505 -4087.5135254 -3415.1663171 -4583.8272005 
-1829.3003155 -1829.3003155 -3333.9940702 -3290.6148243 -3387.7453957 -3738.4641105 -4604.5472715 -3669.2075769 -5154.4935668 
-5048.8502439 -4726.2634007 -3658.4026467 2847.5162852 -4638.2449625 -4286.1227504 -3420.5443276 -2168.0033544 -4556.3964444 
-6039.5759068 -5743.6783467 -3456.297367 994.72477795 72.963460121 -2837.2755188 -5490.2732772 -251.45505585 -7189.118978 
-3218.6384197 -3505.330779 -4390.2566139 -2409.2031747 863.18258506 3566.4349923 18997.606063 758.64785511 -1977.4777712 
-599.12443188 -7792.9736345 -6345.2292415 -9787.5931442 -3824.2442369 -2963.7587945 -3082.7729915 567.71172748 -62490.835802 
49.031753057 27787.422394 -5290.3135045 -4319.4774116 -3866.4215441 -5117.8148532 -1007.1613709 89.803426757 -321.7235005 
-2023.1633373 -1477.2593775 -1039.7377377 -3024.8979503 -2722.175496 -3254.36579 -2468.5013058 -2786.4726227 -3064.8117854 
-2920.243468 -3454.322869 -3485.9482071 17242.416978 25420.784675 -54649.029484 31216.069687 3747.1942652 -63804.153131 
-6571.0124879 -8866.2660266 -12860.815778 -1635.0113357 -8971.3767481 -11221.793352 -11841.41591 -6271.0890381 -6454.504983 
-445.94643206 -258.50096786 -23631.687068 -226.95876679 14336.243402 11910.777979 -3793.0281523 3484.4981928 -4040.2542713 
-5408.086135 -5052.7692077 -4004.8545221 -6485.9026519 -5507.899181 -4467.2325457 -3972.2394573 -4212.0914888 -6174.9213081 
-3605.408715 -2884.482579 -6556.0210612 -6005.6374799 -4530.8432205 662.17066218 -4461.7373114 -4326.7600079 -2350.6257049 
-3654.7441468 -6102.5348984 -2100.7740142 759.08283549 -3427.3661651 -5883.9206729 -5590.3132293 -3099.0427469 -14143.82082 
-526.04270468 2344.0666971 -8840.8785435 -23137.657838 -10364.739317 -1917.1082803 425.76481662 648.25968766 -6294.190522 
-8329.3876599 -10549.720233 -2876.3085829 -3787.3038639 -2973.5154163 -34454.2624 919.20438599 3163.5090376 20090.743562 
-4324.2993683 -6026.5698152 -4116.1020686 -4822.6689898 -428.36469164 -677.56501939 -199.4180255 -1514.7065482 -1744.8488032 
-1420.5324673 -2546.809272 -2804.1564335 -3115.0600997 -3095.5486741 -3196.4477021 -3491.9536785 -3556.3126811 28046.957297 
50446.054511 -65031.702991 3276.194775 15384.851204 -47008.970394 -7008.7245356 -1980.2300892 -9022.0990986 -9666.4706056 
-8308.5061027 -6811.5780695 -6406.6405307 -2843.8346808 -2434.2988757 -6493.1974252 -5055.4977219 -3658.0755469 -5632.2253402 
-4949.2219846 -4152.9904066 -1091.1005747 -5791.6561976 19523.125524 1422.8354629 -1927.4675761 -5515.4234379 2691.7319242 
-5068.4872575 -4155.4354923 -2831.5151894 -1260.2524773 -2111.093143 -1786.7415282 -2000.7351228 -2422.9833935 -2434.1004691 
-3260.0719065 -653.52562682 -3410.0086255 288.09829513 -2134.0771686 -2171.5762226 -771.67874666 -1357.5998599 -2868.5390903 
-2740.0988153 -3436.2729439 -20.211782882 638.3146539 592.93261271 47.572870576 -240.25003073 185.46780529 -660.55789063 
-2686.8246162 -2360.0296763 -2925.2773463 -2455.0948079 -2695.1024418 -3172.0170682 178.89796834 401.08480209 324.0846274 
-582.99641809 -2150.9393511 -2152.5835545 -3522.783762 -3529.7411465 -159.02154152 -1400.6431115 -86.790749867 -1713.1766133 
-1803.5730711 -1769.5000116 -2217.4969859 -2533.7103742 -1962.0990005 -2164.0914541 -2339.0273552 -2681.3568272 -3064.66679 
-2771.6737182 -3361.8150863 -1534.0872945 -1044.4646235 -1258.070363 -2507.2368117 -1973.0939468 -1532.4466625 -2453.4664614 
-2424.5923866 -2142.6585146 -2552.029732 -2553.1010309 -2833.0847379 -2841.4862232 -2780.1248858 -3129.5960074 -2731.7916238 
-2600.4522238 -2730.5155281 -2763.2174915 -3048.3427856 -3351.4879615 -3374.5808915 -3284.3752228 -1859.5437461 -1474.1156398 
-2579.2340548 -1348.0057964 -1151.7440551 -725.6619279 -254.93785486 -86.014817542 -2568.6400274 -2545.5190411 -2329.2066317 
-2187.2282777 -2465.623412 -2419.9323584 -5835.7511303 -15510.386506 -16472.20255 -12266.766493 -12573.934637 -3763.3521606 
-3519.153924 -29015.786274 -24507.197391 -4538.6663015 -4560.1174727 -6431.799522 -6162.1678852 -14640.325851 -22314.467937 
-22006.693975 -59192.266434 -65884.086043 -14330.112213 -39409.805673 -60887.659645 -63165.29671 -7029.5950953 -8503.5756618 
-8504.6561178 -8009.2256809 -7234.5717002 -8525.5684894 33409.351066 128059.23045 -61518.584387 -62247.995976 -22306.890538 
-24017.638827 -10249.155992 -9627.9014924 -21032.556663 -69326.085375 -49220.574432 -2328.144833 -22771.924003 -30703.74113 
-8512.6141683 -10757.209907 -9559.0915359 -7050.1250999 -6492.0779896 -6140.3966765 -3232.977476 -4722.0888516 -29727.454643 
-43545.973834 -25995.972724 -21357.917615 -20491.754017 -8175.2447264 -8632.9551294 -7313.7428272 -6744.2488921 -7118.7095154 
-5011.4103581 -4513.7356193 -12781.257919 -9582.4636187 -9936.0723148 -5545.4587253 -4662.2972061 -4427.7590688 -4345.9925379 
-4983.7061332 -27350.81252 -5111.3129777 -25956.843583 -30403.417454 -50649.617766 1301.6375537 -19056.09505 -1126.2527698 
-1872.2309794 -17605.009001 -23327.775269 -23929.833287 -28761.917705 -28304.086854 -19730.246971 -20421.524338 -21200.785167 
-8934.1281923 -17445.322929 -33405.280251 -21880.797046 -33866.649525 -2487.2143847 -58933.59293 -17281.980241 -18394.728807 
-23227.60436 -5254.2138892 -33926.559014 -63338.843199 1864.8204483 -20038.391149 -22896.26974 -24802.284067 -19031.230721 
-17142.325725 -24489.573906 -21146.473446 -8184.9459402 -18884.012848 -31827.52229 -23481.926823 -3075.2053963 -10722.476635 
-14136.180975 -16374.056378 -13052.292889 -13306.655729 3351.7942437 -20240.618543 -8091.0635834 -19399.085748 -40028.264298 
-11810.529201 -20307.175975 -13616.845468 -16337.237101 -16247.048275 -15370.933703 -18022.785085 -18171.026493 -19748.388506 
-14011.616145 -24444.117138 -17529.202893 -6430.9172604 -15395.048199 -15749.924792 -14810.434071 -4753.5147635 -15499.949804 
-23724.537609 -16772.103696 -17245.725729 -16553.297684 -17208.34539 -18623.30389 -17519.573518 -20550.24482 -26323.639127 
-28792.838531 -11474.229787 -13514.919344 -18986.223416 -18091.904724 -15943.205268 -18620.918318 -18271.385402 -17704.160713 
-14737.081857 -18808.948903 -18559.351919 -22943.663704 -26051.558286 -20759.848158 -22901.612773 -16821.153424 -18403.285385 
-20014.989272 -21258.995359 -21235.49019 -23067.279332 -22905.088973 -22788.349221 -24324.707175 -22248.467845 -22689.81048 
-25598.789282 -18955.334792 -25972.109567 -17410.003726 -23187.780821 -23935.971539 -24844.683112 -23517.846264 -34378.502212 
-19617.89266 -17276.365239 -25256.985631 -32612.823051 -9111.6922193 -28353.887438 -29137.577211 -22262.062562 -18895.044865 
-16928.15915 -17771.331624 -38026.125808 -26108.861254 -10688.732936 -17692.393373 -23702.781469 -20515.376018 -21354.298339 
-22838.20952 -9878.435531 22733.962769 -41599.459543 -8663.5337336 -564.98382307 -34759.310727 -13105.651022 -5792.7140224 
-20355.375054 -18374.062246 -17998.957382 -30128.405748 -21136.659954 -16490.172478 -21545.563354 -30452.275663 -19969.603267 
-24871.847915 -29716.778143 -24291.050782 -25562.468305 -20409.047368 -22303.01189 -24010.91768 -22197.580722 -29494.777327 
-20585.563108 -19702.747111 -20976.161169 -4808.4536698 -21321.034222 -15759.655406 -40883.850069 -41936.574335 -27441.108028 
-22685.246822 -11747.425195 -24067.915854 -22562.351124 -16985.43257 -25611.994434 -25085.482612 -23600.391332 -22839.915281 
-21123.061359 -22557.194723 -23463.596962 -23669.153682 -23467.721602 -22074.187703 -24744.665639 -25521.031132 -19132.212788 
-25630.580691 -24250.628743 -17876.018206 -29297.333261 -23574.691397 -25321.538353 -24054.269375 -29151.891141 -15078.178876 
-38438.975897 -13578.611084 1941.6109564 -30024.037988 -28454.495924 -22109.998144 -16935.677439 -19314.397895 -17268.733672 
-26478.948706 -25056.66668 -27477.490472 -24578.93528 -21837.913785 -22386.865191 -20354.10706 -19062.652382 15858.778872 
-7509.6483359 -26676.025963 4177.7002344 -6502.2694369 -33995.717554 -10162.259126 -15007.79919 -20948.162818 -18052.590806 
-19537.348518 -28717.852342 -21740.189985 -19329.533538 -25069.032332 -34216.729834 -23251.037628 -25425.052018 -18073.942905 
-26670.644389 -25789.942504 -16682.602447 -23593.947378 -22262.990305 -24419.759326 -29636.353615 -19505.311562 -25818.626878 
-34015.57931 -23328.029365 -30159.623705 -30710.037276 -28661.101103 -9993.7293311 -34495.451134 -26453.093493 -13646.83791 
-28519.974468 -20511.683197 -18390.384562 -23656.016362 -25366.395025 -24969.498899 -18989.702365 -20074.635936 -13824.410412 
-12983.886598 -14304.36527 -10332.958801 -10443.901532 -19849.365201 -18806.521207 -21986.791468 -19731.784366 -14673.22898 
-12513.688442 -13813.81623 -15402.714014 -13735.711557 -13253.572664 -12332.605899 -36949.78786 -38088.032239 -21114.627169 
-47281.826985 -33347.185988 -27742.043149 13808.372853 -22102.073823 -29722.984672 -3481.6492292 -19744.355014 -18765.271184 
-23748.34367 -9675.6242794 -13622.402738 -14450.193364 -12590.46908 -34105.992419 -17777.906521 56328.342205 -18118.286809 
-16654.296301 18060.548037 -17102.712445 -20893.793384 -17249.865536 -14338.994224 -11836.053507 -15966.342662 -13074.721041 
-13801.062181 -15572.304613 -27141.940579 -20649.735443 -21334.522125 -20703.78144 -17663.380259 -17753.634598 -17685.308908 
-14120.554247 -471.15052768 -9843.0073863 -20902.314089 -55207.515557 29396.207587 -16982.080185 -18597.018583 -23065.957548 
-21980.780284 -20436.68045 -21939.387962 -23320.427545 -23745.667777 -23804.27827 -18427.241073 -20864.526518 -24823.689601 
-23731.154515 -23259.600155 -22915.893636 -22490.788951 -22164.455172 -17446.078852 -20868.067125 -16789.072452 -23865.057836 
-16766.796342 -17826.817224 -21780.258405 -47220.456829 -33817.327302 -17995.025459 -33023.854653 -49273.354572 -19298.954845 
-18641.382386 -18984.453358 -19287.27405 -17298.234702 -39861.171013 -38752.437131 -12973.512301 -14563.698248 -23063.000574 
-18216.001131 -16253.939749 -19776.200982 -25014.347878 -21013.038583 -22318.559387 -19477.437656 -20524.327 -24048.989475 
-23375.270426 -24501.016532 -39853.208464 -27174.315452 -25806.884354 -17353.052029 -23774.494675 -20488.514152 -17879.034607 
-21416.564369 -21764.931597 -20059.570024 -22735.687374 -23005.378033 -25337.565654 -40252.390997 -23857.10124 -25637.830929 
-11841.494465 -23625.170627 -26040.672473 -24480.547263 -21040.193933 -20458.810054 -22112.951377 -21976.03762 -24080.488594 
-21409.283729 -18796.89118 -14896.259979 -26708.011698 -28944.672278 -26965.191594 4051.2397646 60694.019755 46112.574872 
4047.1170133 16327.81394 -10782.010154 4846.7756368 -4128.0597449 1233.1969071 3707.1953134 2921.5378294 -2932.1575222 
23990.806991 8053.3443813 10817.793956 6612.6149838 4873.8992565 6133.1274052 7061.150946 5165.1750339 5466.6600472 
3310.8892757 3299.0799092 3548.4729875 4339.0374929 4651.2616031 2963.4584691 2653.8635081 3041.0498897 3472.9183002 
3201.4967707 11094.015422 2386.793776 7680.1738238 6887.5316064 51406.34337 6562.3004016 6920.5074409 6788.7449957 
7195.3474945 6632.435283 10119.143662 14974.237319 10917.968835 5582.550361 7218.6024761 5181.7333155 4692.0872159 
4250.4803652 5425.2587352 5680.4294156 2436.9146247 2789.9293884 3058.5104554 3365.5151377 2733.8056896 7484.6933821 
6785.7826001 19202.18212 3127.7159178 3348.1884467 4699.5159995 2918.3630151 3457.1988299 4577.9562329 4455.4996835 
-1995.1617459 -2339.0895358 5298.2079663 3411.475205 3446.9332391 3003.2247963 5202.3900446 2369.8004617 2645.4459469 
4716.7059165 4914.0577078 6648.8137877 5383.9021927 3414.1428303 3947.8310078 6890.1217874 4481.1466914 -127.30331596 
3466.6011561 1837.1728571 7985.4301638 -24524.987784 10961.079744 2363.6232703 3653.0259346 2164.2629369 17137.370235 
3891.1018673 6197.718936 3084.7277441 5873.4435752 2559.2460022 9525.1128385 5504.0715784 -6319.1122682 19248.167157 
-621.86385944 3192.5732587 3672.8781281 3821.1665367 -2647.7142178 2032.2811918 7587.3888334 2227.7791177 1603.1053482 
1873.3497778 1766.8847451 10317.791564 6867.8317179 -2907.1356571 -4405.6660989 24.154721969 -3364.9159766 -5072.7427143 
-3276.0425246 -739.59052211 -4125.024487 -3312.7653897 -5041.4505993 1550.4865554 1481.3139442 5332.6042044 77.933454727 
3786.9647846 684.80660714 -14597.283716 1199.436862 -53568.526209 -8946.4611189 6179.2362696 -751.11034913 -2063.6845201 
603.0270782 -1605.5918546 -26461.474985 -9389.9489599 -2862.6564672 -2954.225049 -3308.649858 -3770.7430493 -3550.7240895 
-3356.1933151 -2885.9381048 -4214.7805275 3104.034578 1709.6469358 -14834.761371 -2269.8215978 -3521.2498708 -3601.8696295 
-3794.0884633 -3153.3769114 -3935.9972728 -4294.1191767 -4471.0658962 -4207.3874037 -4438.5722935 -4552.8078551 245.75386571 
-12792.039769 -3546.4779214 -3992.4886854 3198.9336052 -8037.2763262 -399.14817448 -1156.8195442 45.755468415 -1339.1597272 
230.8346963 -3020.0919195 -3161.7865172 -3425.7451086 -3987.7132815 -3707.5998095 -5651.3380575 -4848.0845123 -5961.7682347 
-5158.300765 -5325.1342599 -4224.6515651 -3973.5740409 -3263.8978758 -2815.4518281 -5428.4842256 -3090.0239538 -3262.6160961 
-5007.7316751 -5210.452561 -3641.6848667 -3793.433184 -6126.2566884 -3649.813071 -4748.984066 -6416.2368172 -3467.9475113 
598.2788886 269.69607397 31355.488035 -4514.5517572 -4838.0941599 -3338.6515851 -2909.174374 -3000.3145692 -2836.3593883 
-4357.8013024 -4044.7395759 -4379.3162998 -13471.423719 -8318.7090398 -6027.1109174 -2758.1248765 -3678.7196166 -4379.3045214 
-5143.0649591 -4127.0564631 -5452.7502429 -4851.4647701 -5444.0956719 -5951.0956422 -4631.5608856 -6101.7418654 -5556.6494879 
-5321.5623138 -3528.7074248 -5810.990314 -5222.543072 -5341.0701246 -4880.4158618 -4439.3062447 -4110.6927903 -5515.469603 
-5241.9393552 -1504.1036471 -2818.6020359 -2028.4496586 -2292.4058202 -2789.4125918 -3240.3001806 -2646.6156917 -4440.3393385 
-8006.7091763 -2731.2675787 -3826.0875463 -4783.7771338 -6020.7581271 -4316.2591016 -4522.6275298 -10901.92836 -3483.9758047 
-2904.4438796 -3257.7229173 -2848.6342559 -6107.5512271 -4716.4039917 -244.3790179 -17856.328579 -4909.1689652 -5810.4907947 
-5594.7970296 -5700.4861957 -6816.316643 -5163.7904017 -5679.9408641 -7287.8072362 -3171.5751982 -7261.5339606 -13980.022271 
-2015.5166706 -1170.5246845 -1003.7934281 -3749.2025971 -962.83629811 -612.77821356 -352.32211245 -1861.7456335 -2067.2635127 
-5382.1452062 -4983.0636976 4618.9721502 -9155.094622 -11526.249968 -8173.0982175 -4841.833026 -3783.5532456 -979.09737828 
-3138.25663 -4417.8943973 -3092.1672119 90.345279128 662.56072206 -83.420586931 5339.4636464 -4348.7961235 -19109.80511 
-5637.1045794 -5693.6131868 -4876.7997874 -8207.983396 -2702.6342039 -5707.5433273 -2479.7081086 -3056.3444254 -7236.7606637 
-8161.556316 -5524.1395898 -5431.5121056 -2691.2242754 -3185.8231905 -1723.520887 -2220.8905882 -2305.83609 -2601.6442264 
-3070.2980069 -3152.39025 -7823.561542 -4826.0833969 -6235.0440671 -5704.3829406 -3919.580161 -3122.1881085 -4892.1782287 
-3023.1379443 -3818.1024489 -2811.7430088 2258.8711231 -2373.7661218 -3429.701903 -3139.7723706 -2475.3688814 -7137.25917 
-964.07247143 -733.18009546 3067.8271793 107.94041625 -9510.7505363 -4885.4874433 -3121.5777266 1651.1838977 2570.8330801 
-2549.7680892 566.30279202 706.27492255 3163.4850423 4980.6554358 7142.1112791 5755.105266 -20088.192079 13622.445197 
2419.3569823 -238.25474375 -1010.1254928 -968.05696294 -493.8145012 -13901.928649 452.86851965 -2432.3473225 -2545.8784054 
-2263.4300883 265.77342027 1204.1465018 11300.400665 671.43127004 -144.95512391 -4427.3140802 -13601.488356 -1643.9098134 
30547.337134 8981.8279784 -2369.0898566 -1354.2539423 1475.3979472 -1038.9582035 -5630.5974889 -6743.1650297 603.35421293 
8847.0079168 -4063.3484136 -779.85022215 32680.496639 -23989.906015 -22330.240319 -24055.95371 -22680.05725 -21039.427869 
-23352.241639 -20896.322683 -23750.679759 -24715.676657 -20219.55408 -18948.998895 -24100.142439 -46026.624368 -34858.884402 
-7613.4461381 -24294.891699 -23871.970874 -9692.3331951 -20450.398243 -25612.585879 -21618.226584 -17717.142633 -23220.514802 
-26111.687723 -15771.345417 -14105.965959 -21616.596819 -17193.242051 -18548.870278 -26691.347559 -9309.234944 -22277.026931 
-22519.410333 -21632.520179 -27851.261425 -23623.943017 -17230.878234 -18212.472742 -6376.6291697 -51276.249852 -5575.3410911 
-16796.467537 -40028.412662 -19414.46397 -23347.123463 -21430.107506 -21791.933295 -20944.245134 -21622.296531 -34525.089685 
-26190.010168 -23886.876049 -20458.747963 -26284.806694 -32991.694488 -20585.969654 -18872.534827 -20866.820557 -23055.189366 
-25646.92281 -13909.281651 -16759.387213 -25693.449382 -17311.026605 -22186.149853 -20602.006275 -28933.510213 -25353.025294 
-21054.321573 -16058.11859 -17023.090905 -16847.14573 -18994.840326 -22675.775569 -25153.203064 -29400.683596 -22913.798213 
-23412.991151 -24600.508495 -21312.674846 -22838.044633 -23715.162106 -17299.258662 -22529.790144 -16010.451438 -17617.03051 
-24896.638695 -13119.58456 -21293.878495 -22351.510016 -23107.36093 -24442.671096 -23407.347452 -21181.369926 -23620.221437 
-20938.376351 -23113.70824 -20734.222117 -24759.111024 -18741.313752 -29014.226771 -16110.220772 -16743.650625 -18580.31837 
-20613.703417 -19795.493974 -29692.16451 -42873.96383 -33329.660042 -18267.252987 -16832.137979 -29993.743177 -29016.300814 
-28413.05255 -24271.221655 -19705.608906 -22722.414215 -30308.219131 -38264.670465 -31863.3104 -20990.894754 -18546.498881 
-19857.584948 -24411.763185 -23123.353733 -22100.491026 -27905.707565 -17524.426809 -27964.057727 -26696.465243 -25850.560635 
-19331.152879 -28103.551669 -26106.54675 -23089.46213 -26530.406942 -20515.259518 -19707.011853 -26557.436358 -18559.114358 
-18468.528499 -22663.768425 -18249.00567 -26783.002421 -23837.306628 -27429.222944 -24679.647861 -16318.5582 -21616.946921 
-27662.932234 -28521.082826 -21670.515752 -19753.810207 -19972.688188 -18314.285324 -23171.835603 -28261.788717 -19919.024445 
-17376.128901 -14311.859352 -17969.039933 -17434.790308 -18706.198856 -20442.777401 -24744.132522 -16352.096626 -20694.701413 
-24276.631692 -18408.956631 -21769.580296 -24733.87832 -20002.098761 -24897.116356 -19507.337356 -21859.353229 -22025.212727 
-16412.432438 -19300.664715 -19219.511353 -24910.925476 -30055.542257 -25233.451432 -23157.697412 -19135.296743 -16480.967203 
-22050.208265 -17439.223225 -16359.08674 -8306.9055652 -25331.838362 -17777.088348 -18353.796858 -26184.668106 -18566.519284 
-16571.378947 -22122.364609 -28466.066386 -23206.886303 -18992.852777 -23187.622811 -19919.420702 -29142.797251 -22106.14589 
-18991.419436 -17750.413089 -23253.88452 -28620.787925 -25552.313951 -19332.746621 -21350.580272 -20870.683569 -27383.559199 
-19191.39614 -23447.973849 -17522.58986 -14171.326788 -22599.806025 -14768.01304 -24021.225246 -17399.272742 -24111.075847 
-28662.618708 -21006.427967 -23465.328345 -24102.54327 -17020.549693 -7304.2093569 -14192.440872 -14998.19187 -20087.964097 
-17584.385744 -14035.527356 -22499.010307 -18041.079209 -24831.977 -25582.20191 -19866.677719 -25673.258772 -28879.617377 
-32074.058628 -33204.774076 -24135.687463 -11607.84131 -25877.652215 -18579.965365 -17737.846004 -13602.31482 -15291.456277 
-17494.341248 -15548.708939 -20901.053936 -13638.974497 -24387.528216 -20639.316704 -7953.8656301 -27872.003309 -14889.915936 
-24711.678814 742.56174773 -26229.815157 -19068.610597 -36993.832463 
Stress%20xy%20component 1 1886 double
-74.21571587 -24.847097383 -170.00750061 24.084300802 -1369.8382236 8.2683906316 826.74834149 -33.999365894 81.384998219 
-27.359824007 -103.0838626 29.256717308 318.23814838 199.00767868 2203.3950882 -2170.0191804 12.952690293 5.3835793492 
1.6940658945e-15 0 7.4538899358e-14 -54.263044904 383.77350132 -167.12575013 224.359692 253.04524361 -22.3470386 
-10.871680721 1.5246593051e-14 -3.3034284943e-14 -2.151463686e-13 2.5374592471e-14 2.0222911616e-14 6.5645053412e-15 2.4484546132e-16 1.863472484e-14 
1365.3352961 -1538.1927914 32.029502014 -731.75774201 4625.5121743 -1099.2153685 1446.4062121 -1949.2657401 150.53386701 
1749.7681107 -1556.3281943 1670.3949541 -1.6839843619 -568.42684179 -4471.0337408 1.3323781565 7.0657017933 1.8846483076e-14 
-8.6820877094e-15 1.9693516024e-14 -1.66114261 2.2791825103 7.6232965253e-15 -1.9521462456e-14 -4.9974943888e-14 2249.8905407 4809.8862756 
-657.36060874 6875.5086933 4350.6885916 -6.7891569679 -1.5143542003 3.5998900258e-15 -1.2917252446e-14 2.1069944563e-14 -3097.3553358 
-4850.2200526 36.283892139 -4987.6395509 -4547.1611145 4.8936395102 1.5177629743 4.4172768199e-13 -2.305200166e-12 7.3183646643e-13 
406.58645402 -404.39140203 175.47463017 -144.20767564 -149.23494342 -16.567355563 11.808135691 5.8021756887e-13 -8.11034047e-13 
-2.1412992907e-12 -2.5485103801e-13 6.2548089199e-14 -1.9989977555e-13 -1.4542496913e-13 8.0626948667e-14 -17.099246322 -6.3442532572 -2.3051592378 
0.022193678165 -1.2463692951 -1.3213713977e-13 -1.1085543697e-13 -2.6003911481e-13 -1.4272505161e-13 6.9880218148e-15 -1.2917252446e-14 -45.782916111 
-1000.2803566 2518.7023127 249.92624727 87.396993472 -78.742422072 -1885.0818653 -189.61313597 1507.3735324 -98.172391785 
342.60920792 2.1865595148 5.1964557032 -0.070947727103 -2.4293212301 -20.502123727 -1.2536087619e-13 -1.9809983054e-13 2.0604076442e-13 
1.2271389823e-13 2.0900537973e-13 4.4469229731e-15 2349.7065639 447.63336145 -3617.4469224 -225.16355121 -127.02892909 -325.01032895 
3057.8916085 -29.48586624 -1100.8831044 141.57911514 -410.86051637 -228.85153009 -1126.2335299 -4.654026658 -17.440134697 
1196.1607055 -1064.4577746 853.25334393 1126.2842591 917.01034087 -1779.7953374 -75.038782763 -247.55348383 34.97092145 
3.1989348916 -1241.5895092 58.967350904 51.743546465 -3.4931638745e-12 -2.21583819e-12 0.16593558447 -420.13325253 -197.3301926 
2339.6431888 -379.15568864 -2794.5609493 -26.453449999 -170.58069907 3.7430385939e-12 -5.0889739471e-12 1.863472484e-12 758.99368297 
-1398.6504458 -61.015433984 328.73252143 -6.1870110184 1512.0659348 -91.152305905 -991.2806807 848.3625033 -55.560884247 
386.92444896 -1161.4165101 463.89235525 -283.58935652 -352.05629776 3.8690295949 848.48092344 539.5196256 483.01237543 
-854.57281205 72.025922459 -360.51500737 -0.25352075823 -29.94813021 -91.172008121 -5.0569459336 40.915045845 47.632137884 
93.738174258 -4.211655022 -33.003005208 -174.44868225 -84.775345617 -48.865795186 -19.668212602 -36.874352945 -40.05107447 
5.1099373368 186.78350415 86.127165485 39.26928011 43.87363591 26.172427727 324.49309419 35.005672616 16.491661587 
17.177886822 -66.532240135 -3.1841009261 -12.574056631 -2.6588134862 -0.88350631265 -0.88350631265 -29.836491322 23.049837324 
25.904380653 95.938254141 33.512032077 8.6981100257 20.269267702 -2.4246082245 10.608073102 -7.7591259124 6.2454294078 
10.132109319 14.527818895 -19.036228183 238.04812589 63.473105495 568.66632218 2991.6525689 11.76552989 -5116.0976014 
-716.58263182 -77.156125415 1808.4505265 -479.12056705 -2258.2053746 -1048.5625627 -24.932037655 -222.39211214 -68.621106964 
1532.6447934 -82.413443398 3005.4396864 206.91138888 3.3248063429 9.7626788806 1466.3162642 -2178.2431544 -228.84504337 
-707.75536199 3036.6511529 -1550.944056 595.3740986 1360.1129947 -1781.2082341 903.92303022 5.5328056446 130.77052238 
-5.2088313758 -57.535908059 -10.516243103 -109.41555576 -5.9637008437 405.65585403 205.47244829 -3084.1340083 387.88478063 
170.36865902 3879.7628461 28.549623697 75.873379874 -27.754311337 1936.0465181 -35.476761662 112.29642673 -28.882248371 
2847.7910415 -55.764487706 -50.190445135 86.111745529 -491.90621716 143.26992187 -42.118894929 -3.2287746114 -21.951458459 
4359.6241464 97.478516149 5416.6849554 -39.175050817 2.924418619 -31.452401278 3675.80493 10556.591745 41.495657113 
4719.092355 2.6703579028 28.00919818 -68.453438719 83.115808225 -2561.6697219 1230.3947897 27.498095646 2605.7440196 
5.0137737424 -19.77003472 -44.485500809 -67.750461708 29.745716213 -24.835735873 9.3933168237 12.033164583 -10.372551985 
200.81816661 -5.2516358838 79.919711826 -142.33551266 -0.022253152192 11.153125281 -2838.7737964 -174.87357173 1282.2995106 
-4757.5627297 -55.17253074 6.1811817887 -1553.6451916 -313.58751354 -48.038115818 27.643929022 26.401134896 -25.623816683 
-4671.3292319 -683.79815326 -4405.8039243 -14.261718249 -420.72906974 16.284516989 -1386.0700071 2122.5184365 658.60243675 
-2178.8880006 -11030.134091 -6555.8394841 151.87545666 -4775.818266 -12.386995338 -25.007501843 37.742498051 10.566250557 
-103.64961925 -59.315141072 -9.8467802083 -219.62056297 -58.169676395 -83.494232255 -64.726634229 229.25994349 -70.468843986 
-112.12212575 -101.9385934 -245.85804 1.1620233245e-14 -31.366969657 19.40012919 -39.727947144 46.938478103 11.470865765 
-19.169503275 -19.235098865 -5.8976409048 2.9646153154e-15 -4.7995167379 0.037771664631 -2.3107240083 -1.5352472169e-14 -4.5528020915e-15 
-5.4654434157 9.6423908135 -0.010174879672 5.6010604136 -4.6071759805 -7.0839747659e-15 -9.7680684348 9.1110484227 -25.957168067 
16.017296316 9.2114833014e-15 -22.750712878 47.816076572 -8.2342918053 -1.863472484e-14 -3.1834735379 31.531752823 -34.51502054 
-5.6397174164e-15 -1.3163752268e-14 -34.139849248 7.0412925032 -2.9752032272e-14 -5.5586537164e-15 -1.3340768919e-14 4.9127910941e-14 2.7105054312e-14 
0 2.6258021365e-14 1.5405411728e-14 58.615656376 397.61244523 73.290551268 1056.4191666 -480.91677509 5112.9308165 
-123.68312208 -4556.0641684 43.190515617 -145.17065885 -301.27432113 115.06224462 358.36461298 526.408198 -463.99135145 
-770.26463049 443.46464951 -66.039966448 592.15608474 737.69595045 -574.15589394 -2695.5804118 -1804.5616904 -2714.4554752 
-1569.7043418 71.511726895 124.88408679 379.09723239 -43.688531465 1987.4949782 -1421.9469099 1026.4087109 -681.83342322 
3177.4466984 2168.2832666 3347.1092353 2230.4478878 316.7361959 1155.2936151 -161.81284155 -1020.2058702 -1132.6043775 
-207.08625902 -1716.0602558 861.83730635 5.0045358931 20.389625064 204.43929968 -272.56869662 -6.5283826587 -77.700521996 
13.682347386 -1.3830629552 22.804160655 -52.815726213 -3.4917530133 621.78368733 5.106844049 22.867588801 10.947779361 
-690.93752876 -51.922832726 12.336761772 -4.5944197967 5.8342198005 -5.4737032827 15.375938929 -18.992058337 26.632482553 
-6.3903194019 333.91353678 -418.02848643 209.65370269 -319.50097091 40.33476052 -16.138893411 28.772760049 -21.103483722 
3.095173191 3.095173191 -16.709162282 11.970615857 -1.7762358513 13.192077822 21.455542801 -8.8872585669 8.8847682876 
-7.6271278655 -9.438114973 -14.732093229 997.19107812 -54.930017225 -316.51145819 -4.8514866695 29.426264453 -1766.9259175 
169.20729675 -100.60117632 -46.451944698 195.89076329 -55.148864099 -23.008803445 -1664.7505606 -205.71727234 -84.407944634 
-17.827866926 4427.399634 -31.79581008 -1441.0205203 6988.3463899 -220.35466921 -51.559786003 65.228723119 -17.078683933 
66.401206106 -121.1343877 -107.57409938 -800.76591764 -30.422290791 -53.148183769 -26.188872821 464.00576634 -2042.7099078 
-174.00385826 915.23862633 -48.710524615 -41.429010784 -31.870557807 -94.056950498 -37.461320626 -36.899407716 -147.32365916 
6.2111234818 21.63850871 -138.63974452 20.208368635 19.39156894 0.20273415377 -7.4645605813 -34.263315839 -32.024525482 
-1.9755687828 -4.398724944 -11.595831517 5225.8374521 6741.6645405 -470.56470765 -283.99673185 -1731.4141202 1097.7379192 
-923.38208238 -1258.108496 -2239.1142046 -1880.8806462 -536.98629385 -1625.9503061 -1174.6159029 -30.047718031 -74.125551162 
940.76610921 -865.53043643 -22.674766721 385.47048384 -2953.7677544 488.87348844 403.46464529 458.87271717 -37.933505349 
-76.880359107 -69.97705796 -37.850382757 -145.71603399 -140.43853863 -24.571832974 -22.466841052 -104.58850242 -306.90481657 
-82.796241586 -92.944200582 -1156.8329513 -1187.3534779 124.91800274 669.45957757 64.096405503 333.0018118 -59.753521598 
-31.678584819 -222.63857751 -1548.6010273 104.72615155 33.928381604 85.643612172 -371.97544671 -7.153420632 -2194.8825213 
33.320873379 -431.91875806 254.78223558 -1196.7648579 173.7631539 217.93384649 4.1121965135 22.64722995 75.366260198 
132.26574101 696.81166882 48.301765661 23.45196242 1.0312012369 2034.7061071 -1539.41819 -164.52621556 -2364.8659613 
42.999642664 12.023183585 37.740165076 80.368957866 17.677006638 18.880308496 77.885219389 -14.339955649 -7.9995754157 
-55.268570207 -13.103609156 -3.2504116576 -20.797101552 -2.2039505309 13.070241325 -26.246687806 17.573585161 -1850.4908442 
-2649.6643755 -3075.0796433 -778.55484792 -3294.6376776 1321.872807 1441.5300115 1254.8411001 -595.62048166 682.70597548 
1403.1491437 -66.376026777 -43.950536022 14.690560402 103.37374563 248.70162272 268.03864882 42.271414714 104.95783811 
40.581872485 27.512556887 -79.551463765 376.60173038 2774.3001987 -36.997560554 251.11209095 157.80751084 419.83563697 
82.111348561 21.76091225 4.4598741742 38.356846556 -30.452311798 77.886110228 16.1457997 8.882350076 -0.22187861665 
-11.495788695 48.555632053 9.1486705991 -31.669731814 30.193257011 5.1191396338 -107.81391629 3.8014985899 -12.328928414 
6.1206948939 -1.9049761053 -18.801116553 4.0392883672e-14 17.503809399 -1.0196159103e-13 3.3084673187 -3.5575383785e-14 -6.4745080906e-14 
-9.6442765408 -3.4421301394e-13 -0.56796028114 1.8131799027e-14 7.9049612076 -1.0852609637e-15 5.1565093605 -1.1134285108 -15.416030183 
-7.6106978724 15.471458076 -15.042578709 -23.307000177 20.150135746 -27.708839028 -1.4537202957e-13 -88.086229465 26.979552451 
17.998162752 -72.712670561 -8.4937087842 -6.2045163386e-14 43.421907555 1.2049043675e-13 22.567473408 -10.579953409 -1.6093625998e-14 
7.9847526188 8.2168321559 -6.7180300629e-14 -0.23766177744 -9.870233152 -2.2856654686e-14 9.402555563 11.904482464 -5.0523063536 
2.5728625773e-14 -6.4906823033 -12.784219939 18.654411441 -14.646049566 1.9836452834e-13 -17.231912318 7.0007248889 6.9456701675e-14 
-3.4728350837e-14 24.614736311 -12.571633949 4.1928130889e-13 2.9487334476e-14 -2.326693627e-14 1.1715524452e-13 102.12788401 2.1599340155e-14 
18.208734785 -1.7957098482e-13 -1.2578439267e-13 75.695143119 -1.3552527156e-14 1.1858461262e-13 -47.435446456 14.256994087 9.372948957e-14 
2.2276966513e-13 -3.8116482626e-14 -18.712441765 39.156966118 1698.7279152 -84.78414947 266.38793977 1182.4532112 -26.988585431 
-25.74987074 1186.1827126 -1932.1875182 -402.96668458 564.84090909 -981.67908511 591.4562228 -690.79022655 -79.424630658 
4172.7177315 -1247.9588219 -928.28215972 -2358.9832074 1274.3636174 835.40487624 1403.3115488 631.54262582 -508.49929096 
-1305.7254597 631.74342911 -349.35746299 1198.6276746 -733.191489 970.94249737 -5522.5214421 5489.9956139 -407.04607337 
456.36794751 1098.5751982 -717.39056585 -257.70022742 -3951.1227569 -1869.355585 -538.38375951 491.28613094 1158.6280137 
-2150.4481297 -1837.8785151 -450.2650956 -1055.8721697 -1478.395373 -524.60199299 -560.70618864 2726.2692568 -1634.2714384 
123.44432097 -2091.9646184 2750.5877415 -591.50327451 2426.2969126 2010.7183421 611.14318653 1507.7564667 833.49217603 
330.81072584 469.84247111 -342.52869572 84.620730438 -1.5855691774 318.48856298 -382.98614503 25.083932667 93.303003987 
-42.171468356 34.618456359 3502.976275 2770.9045045 -1195.9798294 2444.2299437 3192.8199786 -1772.8346842 -571.83118878 
299.8072787 -381.81155903 -200.51366555 1231.5726939 -1417.5738077 776.94366114 -1393.2130059 963.83054902 -1146.9676376 
-134.35229092 442.42996698 -898.27789101 101.38260951 285.67965015 93.438040922 -389.17723176 -276.73663246 404.06876397 
1.1363807514 -721.09975918 -907.88608977 64.380494841 -1876.6606809 -624.00598722 -3.1176760127 -1426.9280331 370.34676374 
-1282.089176 752.34917402 -92.254979325 146.44360164 282.74165329 -819.94095577 423.36462715 -1052.6770081 157.35292985 
-75.979768228 -302.26763547 -439.94669557 239.87241378 -592.74211861 -545.99419336 -674.71056453 -441.16938955 44.57189435 
-40.549841449 41.784562324 213.7070557 205.42931076 -354.25950365 390.78724764 87.599439165 -25.230925472 -335.13882416 
375.48845005 317.0464404 1471.4567389 309.88303478 200.09022497 -1.589147565 717.14124063 -447.91109764 -1287.0245946 
-332.44754139 79.685861159 -168.6059587 -527.57909133 67.889441804 -203.35832501 149.15849354 437.76918788 -1263.1272788 
243.96624581 65.10930209 -101.76030636 97.796490669 49.192041949 18.095546572 -98.095122445 -221.40349054 472.93984279 
565.17139156 -277.04668051 -96.539070533 496.09050259 192.46754206 156.09635489 -170.15231979 -311.01157073 260.64079342 
303.97904904 -569.60961114 389.77523158 -630.84876212 -292.87561205 11.608149088 343.25219726 669.27925994 537.12164382 
-6.2444022896 -272.86991291 -437.10273912 2182.210404 101.38146125 1252.0251748 -352.50329227 219.8008856 1278.0285028 
1717.6088465 1766.9502512 -242.13112532 -339.5515549 859.8960799 241.38639659 52.230793436 168.37421191 15.065088991 
13.670532151 879.52393251 624.7443894 131.07927594 -547.38363576 -145.76508106 -92.494624525 -270.75657888 -364.01793878 
-598.19883984 1373.8469166 958.09925031 662.58449352 2571.4783841 -691.04697105 564.93559794 3145.1419809 5239.7045665 
-1270.2491829 942.20400244 1310.89582 1191.7638044 -143.46713647 177.31362809 -411.51653974 -534.57275063 -892.15530769 
-155.41027139 -341.89331981 319.36735837 325.60010469 138.0351448 574.17390014 486.48951268 747.13734142 312.21920438 
-20.967278732 237.92397351 -90.667492955 -79.520288299 -522.81716913 -1132.1757889 -643.40204682 -351.74267011 166.69194102 
250.76463698 -70.731590956 253.45368744 484.31304369 30.524742908 390.87594056 -466.72585457 -461.22458636 504.33451969 
1019.6514385 -52.045216683 1549.1702601 -318.58353263 -126.61686922 -235.7207165 -2323.2034487 344.40162583 281.12339438 
293.72133287 -189.62113972 -1635.3685597 -555.41644963 53.80816369 346.07158361 -1675.9437831 -1636.2552672 -2838.7590183 
107.08347254 -254.48432024 72.788705839 -253.62548678 -20.909503821 -178.59113712 -87.15498987 -32.132694269 -928.32834181 
-295.06753453 -202.85031436 1030.7725538 -674.57617599 -21.768200297 -102.28951992 234.20154002 -460.19179632 588.84093135 
-228.30455781 188.607304 2431.1311391 -1865.9915335 -272.34758393 -5287.4426285 -3099.4462925 2036.4843958 -1589.6793663 
-1102.9289477 -900.82183709 404.71072331 309.82221966 -310.07627599 -723.71749698 -211.6339798 115.52557659 -65.997833384 
-425.09496472 -489.01170278 15.4498881 -354.32133058 -415.80349374 -387.25839141 -316.24886264 118.64032481 938.81696506 
1045.0611345 246.87585431 120.49552845 -260.08220951 525.17162343 876.38421649 969.64188708 1163.6084362 886.21304408 
1101.71773 400.85840067 179.03637427 -22.487887496 275.55937452 -360.48257363 -473.3955264 -2991.0084167 3851.2225475 
505.14325159 -410.26564763 -464.75555802 532.16475351 837.7332044 -710.71320686 -5276.3822361 2335.1019534 -478.1929551 
1254.412623 -144.51129928 -196.45007148 147.49161119 -710.71714638 -100.59640751 410.75467351 -1092.2875604 491.10793132 
454.67427874 -2271.916313 -1611.6777418 -3474.4148023 -2509.4418652 2957.5177318 -6090.5407698 5297.9246206 2899.9044728 
-1329.9979607 2663.1255407 1790.1266976 897.90501299 312.50446699 1978.0765675 2127.5494457 1292.0868298 -2890.1215251 
5566.2172516 4934.3730288 -2694.0058461 -4948.4832887 1683.5081414 -1444.2918534 -2667.4017252 -753.77042337 354.19720055 
-1403.7415522 602.75080837 -796.9083593 -152.10857796 147.75534762 -529.37153115 -651.715911 576.74549486 -867.95534465 
14.675347717 -2272.5165243 877.7749081 -2578.3277471 1488.249528 845.26377209 -1149.4627924 152.13826927 66.465674637 
-165.47632079 152.7140654 -213.66189106 -51.182640469 300.55246369 -24.783155904 1681.4672641 -1043.9803598 570.19944497 
-265.19637139 -255.86639614 463.42289389 -744.94159397 252.70222942 25.214842381 -1988.0345005 -1692.7889602 -561.52613386 
3159.5469968 2198.2636277 -1778.8089332 -359.69393899 1513.4023412 141.20075351 -1519.4614172 336.89606537 11.999007029 
-1206.1389997 780.81797984 -30.251896736 1773.5239312 269.18899994 -127.06770733 1674.6498924 -1014.8213936 -341.90956264 
547.87976359 536.44924297 -355.07176084 -592.00378837 -32.653577045 -12.862762777 41.294921371 -204.71630669 -67.456153093 
-592.68447337 -507.71744959 799.84805327 -1063.6269752 -301.09669604 -633.20077584 -87.308670078 -56.330144122 -120.16099147 
-52.103885626 63.407891751 356.28877295 397.66264072 240.73388185 474.62408246 -412.96863405 -72.504678601 -138.49750158 
-201.8494496 434.54957484 -347.32600024 245.78051855 139.37627891 348.45011837 -50.226050586 343.9674934 -306.099289 
362.13686123 999.92855431 -233.81071213 -235.76159522 -241.28407813 565.2245526 -10.970837407 -2918.4738945 3920.1895667 
418.80040926 1603.2220451 -5068.3837625 -504.32604722 -39.028720004 727.12136982 -635.41042207 -83.032918929 4765.7216255 
18.810536107 793.60551424 592.73703114 20.215346382 -51.726851829 43.852611957 143.347939 58.549216006 62.23050698 
18.510940539 -5.4280468068 -21.542659084 5.4151261262 -42.893165822 -32.10400481 3.6504346656 18.11911337 42.244000177 
23.497161475 2788.6139854 789.37114129 92.876325043 -263.08329959 -556.56035365 -26.222959932 45.756425593 -11.486105951 
199.76438788 121.10504643 -1089.5767172 -1253.5091363 -227.51757587 -612.28875057 -685.34437703 42.904069415 23.707135457 
-134.70373627 37.923518034 -141.06220302 -38.689301503 -2.8588736036 -120.76496789 -146.34253061 -208.75586561 242.50936102 
364.66382077 -445.40827057 23.288839353 -28.145345428 71.446379442 -64.812570876 23.057167921 -23.344356015 94.256099952 
-279.06741148 960.53645512 180.20969581 -638.66256285 -66.712357199 43.34534133 38.55295756 -60.43213682 -101.26191064 
33.253016972 -102.86237676 -24.923158041 -362.29366929 -69.250915868 -166.09053475 290.52925841 298.51969933 -221.09252383 
-164.45325873 -77.542686875 -8.5569440029 1147.0963098 -259.37556342 -3.9909087211 30.224710882 -9.1934327422 -2230.7439772 
18.929629572 166.20684673 16.50157084 -198.89485158 37.208593425 -405.23855527 943.41643236 -753.46607541 1564.8562968 
36.628754275 -33.894440732 -32.457072251 -24.190952499 884.06702091 -57.55142357 76.771870018 31.809279101 -28.363867447 
-6.6431719542 -56.831699636 -1073.9909388 26.519747641 349.80293981 39.429636791 -26.68624914 53.804147436 -5.7885115425 
-1098.5080808 115.72900807 526.80718783 -29.636930205 793.0039485 -317.45568135 -238.38593163 -768.28358095 615.2793465 
280.57937583 -324.18223185 2287.2569608 -3998.5043613 -947.15417649 2439.2609967 -3766.4189234 -0.58072754334 -668.57701183 
75.951222976 -1291.6742029 1586.1653906 -1251.9566674 -3.0850819626 -18.865943702 -12.247235516 -14.607260472 8.1563105984 
27.61305883 45.236029236 63.969051115 314.2055484 -475.67553125 5122.9406811 1883.2773317 -13.057878485 -0.24207260795 
5.9593263995 10.610232416 -13.849593671 -16.531938894 -45.180968135 -76.037987678 -34.167870791 53.487728775 55.048853524 
3950.5876956 12.687319438 42.278588295 -188.13373033 -424.79024369 -153.40091232 -99.330377265 304.97467366 129.32425961 
277.00339334 3.4976811034 -1.1169763394 43.382447827 46.242441989 58.992394754 -471.86742071 2.937412505 -100.6861125 
-65.300888524 -659.48752701 -83.339189795 4.7881274404 10.886250307 40.830810118 14.605710894 19.370116715 49.523241138 
-446.0334417 -95.373462546 -12.493526737 -34.780595556 -139.77425848 9.0004184334 -46.90255267 -5.6745507022 41.431005201 
195.46863736 117.20345381 -580.79944055 105.43595912 -47.688916074 18.101137511 -21.520853606 -31.4122788 44.032118398 
34.800377902 20.235089268 77.334028449 102.50039818 887.87615037 31.816627623 13.631974443 -44.3694925 109.48041736 
92.862553671 110.21424318 160.08822241 279.42083916 157.39968765 -36.81166674 444.51508999 67.979572812 152.66492793 
729.2720557 18.779902506 187.26705645 179.52800892 85.586251249 83.953805008 -17.889536945 40.3493342 -73.225703173 
129.45230343 88.970351416 501.97186766 21.192046185 11.86075438 36.672052788 7.153988445 17.336106704 29.329001005 
-701.45573615 54.449883702 144.93133594 -196.79691166 188.64640117 -34.315324849 183.42605983 -520.24367535 -15.405686098 
6.4471742034 199.13926015 -2.7491011503 -60.997859495 23.54029146 384.31416688 1396.3766635 -227.55134063 -96.137213926 
-209.75643991 261.63577071 463.7587245 213.58914312 1048.3055527 55.334524594 -28.729460719 390.23917169 324.51585734 
1016.8407295 1444.5136347 805.3528395 -730.21080153 -73.302344777 114.18756828 73.890724154 -590.72429306 -21.239674052 
-320.70176342 281.40711539 2431.9129539 -1900.3965994 1841.0342555 -1406.867531 124.41625957 -41.969157167 577.20985039 
196.42484267 76.504874017 -27.320856812 -294.2018825 94.952371215 82.112329155 249.9535215 636.43209809 -858.49181059 
-225.55216795 554.1530068 -844.58463171 293.65848673 536.99802469 28.445079064 -18.214437532 -93.350734942 1007.5794045 
1364.739955 49.602648931 141.69770533 4.3122826325 -58.810361304 -6.6186281339 56.694802878 23.679316714 35.325931612 
46.372565115 -670.32088956 -794.44923953 88.223744675 10.203088856 -116.26653341 245.41669708 3.6850176297 112.56100599 
384.11715834 34.935241983 15.123911406 -246.70588777 -43.299558583 -77.970924336 151.1188692 -0.26480103123 -377.91232149 
21.591776838 -120.85540733 547.01293128 6.5007181578 -2160.0250304 75.305755637 -188.0717535 -64.276940928 -723.46994154 
16.827247831 -65.468866271 -68.811652298 557.10457618 191.89453746 -1150.2209105 2608.9351595 510.65798405 604.02069071 
3018.236116 28.486437799 33.888421216 25.854107451 38.433520433 -1633.0643563 512.87147653 -14.410722113 1.0001146345 
-11.354579617 -62.66498135 298.72251704 -245.01891445 -42.008965489 -49.416819268 -284.69346513 -1446.4428911 246.71858311 
2117.6928819 -936.42286786 -27.664353967 46.469346612 354.82264031 621.42430965 -993.35333908 -191.26096112 0.16601218323 
-430.93933456 -10.083123453 1559.6664342 -1080.8058018 -170.23224842 -251.87037464 -285.49227409 63.517555191 -624.56708447 
249.29271203 -164.87150916 344.11641094 -475.38688141 -55.142552815 435.05990393 -264.43513056 452.54216812 603.07105013 
359.12707804 186.15709565 -31.443092681 -35.133217756 111.59179541 -84.590714143 -56.336175877 -298.56313573 -143.47773223 
-55.5271367 260.74235801 520.96549258 263.61190992 244.87673147 397.18385131 -133.62906017 210.9169192 -259.22412314 
101.67522428 5.1183256363 -715.19099079 391.96942461 -156.88328091 -43.431363613 1637.3303998 184.5363025 -865.07857699 
-22.641037363 3143.166212 799.12133636 -227.46245422 -255.13453687 -343.17393788 -245.66591934 -307.38804369 411.65474627 
-106.44481524 480.92074362 -146.26051578 -658.65880318 -219.32313097 26.696901232 -503.42770528 -58.652218002 -23.870217277 
-91.176262817 324.69048289 999.84662559 -145.7698861 1246.6861162 -58.197559324 283.11980134 1400.3651925 118.23259602 
-957.51064999 2278.007019 2161.4562938 171.56645631 138.60952816 121.90051304 -460.38052447 -103.90889409 387.87534344 
-113.92542283 -147.81204345 35.013905617 404.78517797 -658.54351959 217.05634241 438.76740331 354.33580738 36.210314356 
-311.01938252 1833.682622 -570.92971438 -7.421881598 -156.89004529 385.61855169 -49.795375991 87.829181243 55.609778407 
403.88951154 229.30528524 -187.72346795 -549.19874045 485.83568015 124.63584858 -1818.6156471 -1760.9353197 -1531.1774308 
-656.70557042 -805.44597998 -396.18819066 -342.94786212 -180.5172315 157.66018906 32.090641511 -343.01870411 -882.5253261 
-83.665932451 385.28937698 -281.28089456 -52.484055068 -1028.7647223 -1511.9344305 -1893.4586434 -934.97821761 454.19526192 
616.04056341 -28.340096684 -156.74555546 26.192111583 62.080292636 436.98728414 37.280279819 -1036.761769 -549.75294583 
-264.3641091 144.93114638 -250.23156239 241.95268418 121.98809382 -150.82917836 -112.4346371 -430.66299574 56.716555446 
-517.1752212 -175.66380215 -185.52658347 -437.38709857 -1371.6825653 332.27962487 -1109.4898839 -1428.934838 289.6156794 
-588.47571732 126.07120032 427.17615553 48.597328775 528.88657976 -119.99008516 93.665942626 1014.8784544 510.60397845 
-241.50445314 86.3400548 -151.90156499 -378.6922835 64.776545113 -1652.8984447 133.73620723 -329.8357875 -115.20097524 
97.680382111 165.71520106 90.86223324 -446.84700717 -139.74204984 -200.46370612 161.70694938 418.00947261 272.29830607 
996.14920792 329.98393099 -975.58604092 369.05434647 205.05688468 133.87797958 -66.576157576 -620.4742904 29.454124038 
413.36154205 131.71663513 -106.85543452 118.33086031 -210.31523318 -339.76212828 367.88108795 -373.52335226 22.458324248 
42.092980561 113.2142895 -8.7295743375 -179.86035615 113.45480214 90.71939237 -489.41783805 4.1475732513 -135.916973 
197.3720248 -145.77506452 -225.21834536 280.09376157 7.4522684212 1678.934111 -790.90305649 -748.88390106 -928.49680676 
411.78071715 -184.61861842 -184.46194927 -554.76390806 -26.995079006 -456.3795223 1207.2995264 -180.3409882 -940.90561223 
-444.95391862 -290.92714191 -256.28627544 358.98261723 -431.48974696 706.91384278 -299.77187143 146.29710748 -122.37725616 
-377.61712702 3108.5959805 45.905995305 -1434.6919015 -1717.2437275 77.774946038 -73.565363611 -2075.5336106 959.45439627 
-442.66609264 186.35189057 343.9868801 -170.70205552 64.421676252 209.11534268 -9.6592322922 -96.00240904 -4403.2490463 
-42.034045368 332.81425957 925.81502913 -346.79879334 1435.2018078 11.553360882 -313.60582213 -715.46611527 -796.90579464 
396.26374301 1452.8879139 -532.29998019 -109.55315249 891.03282644 
Stress%20xz%20component 1 1886 double
-2904.5810473 179.54117662 -2904.4818071 179.01564942 8438.0343034 -218.29344805 8355.0363265 -303.15454565 2866.5435971 
186.23121251 2973.0122008 183.45795819 1627.8774114 2745.2924196 -10400.656552 -10004.138017 593.62624523 -135.57092835 
434.37795355 310.16281106 -1271.5280534 -3984.3563808 -4345.7154105 -3758.8819635 -4524.8965151 -3971.3459103 677.19352934 
-145.68981299 481.84874734 383.22699999 -1347.6531446 7.7927031147e-14 -1.3552527156e-14 1.0164395367e-14 -3.388131789e-14 2.0328790734e-14 
-1496.1610149 -9967.7455018 85.879186659 -7149.0840821 2807.2024424 8715.9912339 8340.4591213 7539.0594627 8956.644734 
7413.9551251 -2161.4498503 -6006.1967913 129.16066074 -4190.9928865 4720.9212837 -100.28059243 -207.60253075 -140.28630518 
-171.4858487 -217.25210346 335.84969538 92.540872796 278.47839296 214.08259721 -52.531331605 3286.7668294 -3872.8778685 
-568.7428795 1629.4734514 2729.7311583 243.91302055 -49.265198674 221.56487701 90.42817267 -158.14613488 4454.1954832 
-4507.0239233 -112.27441509 1195.8815111 2668.7845296 635.43091171 1263.748656 452.37174261 938.28977057 1445.6582924 
2955.1235598 2727.6802129 2971.5179265 2371.1633529 3017.5230869 679.83031021 1118.2256121 460.57445084 845.05881549 
1391.6691369 -1.5246593051e-13 -2.6935647723e-13 6.776263578e-15 2.2022856629e-13 -1.7957098482e-13 97.374172057 494.78214959 540.05671709 
265.23258164 252.3126957 -106.66850983 294.89564324 527.67041392 425.92625296 248.90283831 244.64065128 2547.3270766 
4832.3720912 3931.3748768 3636.2042864 1890.936991 3423.4769994 3104.9479992 6177.075903 2994.9780312 3141.0541929 
2221.532231 193.08556445 637.81310567 588.23424319 335.71601426 214.09706802 -40.885939219 414.96429494 643.02291221 
461.06624898 243.57923276 237.51576949 1205.7234159 328.5324709 5399.4879559 3960.1116912 1858.6157389 3955.821376 
-1467.4418828 4401.5725293 4535.5364319 2881.3894192 2284.6761072 1180.780063 -506.42358946 1105.4775443 -404.09571728 
2422.7777047 -134.5205442 1660.7108146 1465.8886915 227.68421609 1608.6046353 1529.7244919 -61.641457865 613.46140728 
1596.9524178 1813.0608126 771.61147899 -3190.5603885 2338.4495909 -1048.2340153 -8007.6064297 -12412.165344 -12400.846401 
-12760.413065 -11630.17352 -12653.220522 783.11379154 -3353.7026835 2421.6347905 -1334.6246092 -7584.6814033 4265.2079161 
-130.47800125 -523.71842177 -388.52784624 973.55202242 1188.62321 2211.2249243 577.73553522 -1058.7140286 136.55973553 
-1835.2537623 3062.091866 1008.5015368 -309.19337292 -347.35236566 648.54004788 2209.4672473 2537.109877 392.65210828 
-963.548359 -4.267229305 -1608.3740643 322.50873365 500.11370159 -528.86386374 -632.05637705 547.04946687 -1125.5932023 
443.62384343 464.82162207 379.78954146 -2370.7885602 -1836.1904464 -381.56086029 539.22238486 335.03672673 277.76169363 
-1960.8625832 -2531.93345 -561.22744553 286.28739019 362.35356104 611.79987402 -3030.0691263 -2777.367047 -717.15027299 
-711.88477284 137.18334654 578.00736357 478.62782924 41.235846896 229.89711586 229.89711586 498.72599017 511.92117201 
689.50625873 123.12565207 560.09608221 -50.683610879 420.81610312 434.38267538 331.02764674 160.34516508 -51.580564025 
141.76891535 367.90733156 452.20051018 -145.03456751 115.49339092 5569.8850317 5440.9273529 280.06577669 9727.2405711 
109.16487524 209.94961323 -612.90014853 -2901.3962121 12220.677663 11047.908016 226.37627728 -313.8377114 279.66819217 
12205.759853 -1311.4405951 11216.96061 108.00005546 98.150704366 127.31233276 -2935.0454343 -2063.2220697 381.54226063 
-605.67866714 -1985.6187896 -5566.8851115 -202.66203661 -199.02689455 11786.180613 10931.32389 8392.4182462 9245.8168415 
-10.001576784 52.658740924 366.59360225 258.33445287 130.70263344 -96.707017053 516.79014288 5830.5613112 194.81700199 
-103.42658725 4687.7676851 7.3737179236 879.74671486 360.74876737 5172.1665044 878.8906332 1180.1692302 5523.8493093 
2229.8503749 396.25028918 449.04788992 -826.85777916 2340.879038 253.27339617 263.78213169 438.42767817 356.19492141 
-842.09007337 11393.188714 1858.8757744 161.71637691 329.2768442 493.94981414 3249.4314441 -1013.4237651 1078.8159318 
2028.5657112 567.44153702 186.27236283 459.96482611 671.51473735 6236.5615023 1478.6896652 2095.726506 4107.7008082 
311.32094167 408.45738303 407.0084978 724.7333802 742.60927201 656.10089655 752.15594028 2414.4771697 1863.6905371 
1856.6391844 1045.5274076 1068.061411 1208.1212564 361.24500604 624.87182718 5601.3057315 203.40351289 5679.632333 
1692.0501044 557.17908685 320.53973525 1266.7556628 -1054.1095309 342.37290961 264.19997081 301.07566586 465.38233216 
2342.9940694 11081.257693 -1130.0195248 197.510097 -337.73193562 267.90840059 1206.581527 5555.1906506 2343.5827223 
2854.4300614 -2038.4708679 4460.2776222 879.06794964 3080.4123362 312.72993778 170.54962832 359.91550367 494.9139051 
317.07738556 696.60514194 494.96660542 889.85274213 749.4024707 776.59067281 766.55505259 1976.5799343 987.91300268 
2701.8294901 2556.9016602 1146.3164198 120.84120777 191.61451255 148.91380249 -13.953094852 51.287689978 103.97580343 
-91.987866599 162.79260659 163.49485658 208.96819008 238.50267964 288.06359555 210.16759396 196.46736704 234.92653638 
-125.2296843 -110.1709361 63.089466111 -193.09757565 -64.956684164 -194.98810157 137.87299103 138.31304609 156.41988066 
127.95591791 55.5917905 213.0076555 101.34337837 70.012642551 -186.94400399 -237.94612893 20.762603604 -1.636781191 
264.89215779 161.94816227 138.4647493 152.00412994 64.358502725 111.96961516 53.438006544 31.532651971 75.126185597 
140.03435425 163.17847707 174.1806628 2738.9410494 -71.109520704 812.18370779 5249.0172333 5700.6406966 4145.0909934 
-36.260912065 5202.3718322 -124.86918074 1450.7524305 -1312.9552284 -1638.870956 -1574.4414992 -1083.9344163 1243.229173 
7960.3695241 125.00140311 7930.0881578 7793.3669692 7692.9652627 10.377701923 2856.7787556 7345.9766752 3847.2661225 
3872.1476085 -1848.8393507 -2198.4300063 264.82178196 163.15629102 7264.0411628 7351.943038 3816.0415007 5679.1430783 
7310.4014604 1929.392868 2351.9800927 3555.9916156 2570.4461189 1234.4885684 1873.1229054 2027.4178371 2025.0139619 
4503.7575998 3967.6663743 4985.6727786 1005.109154 609.98772883 808.49631049 758.45950685 604.04074559 2728.7412807 
741.72378671 576.53903279 777.4143321 987.43770458 595.02179941 413.19129466 347.85756294 591.07467304 278.18199489 
417.68667802 546.48658762 894.44368313 600.14216618 335.54932925 273.65935874 675.60258492 969.86370971 740.26166949 
832.52112255 2285.9605714 2149.5030004 1767.6433594 1740.141455 922.45357461 696.79669428 724.54101957 749.78901771 
251.17496222 251.17496222 637.11678052 621.3499566 874.7343416 902.06584931 940.31066858 1157.3912836 1010.8217807 
992.47897773 919.07332739 885.57610883 3461.3293276 270.63686097 2017.4893576 692.66541047 1817.0309194 4011.3340113 
616.54028025 238.7942462 186.18063458 4473.2322278 1212.9485674 1058.797131 1148.0043995 888.81893299 724.30745666 
298.12680752 2079.4223421 332.10554244 7633.4949687 -4336.0014903 12005.67168 8533.6219135 604.4150073 337.42086194 
813.83782073 907.07864112 566.33913227 938.46424015 391.83471508 221.56403218 229.93563095 4107.5621605 -3697.0183585 
3536.0041965 4342.359844 727.59127123 500.05360379 296.88365924 218.2094682 731.62890096 545.67348168 1145.0034756 
1058.0103802 1155.5626125 1378.2151263 505.29215566 677.69625786 869.45518961 814.12258632 1355.8519059 274.87633851 
280.34984539 466.19468359 254.17649729 6351.511985 1614.458275 5791.0847926 6305.8785218 2949.7641601 323.04556499 
942.00449046 1564.6703409 1082.0999749 2789.4540716 612.86730642 1919.0861428 1645.4816031 486.97639976 670.40747945 
2179.4677664 4115.4657869 8461.2142603 1109.5497259 2459.6136338 1383.3187013 1875.2806441 611.6222048 441.25533652 
523.88202471 765.9162107 276.494262 489.38495845 403.41243498 348.60390855 248.97772157 1288.8457444 1351.1779304 
1524.2046459 1832.2779374 3035.7374512 2249.7393887 1520.8685978 5971.8149903 153.2186148 3040.4388672 1580.4543414 
381.95242793 483.38917968 6226.600344 1211.2458172 212.56086143 257.40794604 337.14738085 854.82206784 6384.9039968 
1305.987464 3738.9447769 11782.252277 -2652.2298669 5706.0855376 962.33625309 610.13614821 703.09356216 513.83228673 
958.82618671 1198.1877925 220.35214246 430.65613204 210.26289636 -1989.2956616 2021.1496007 1883.5097721 3918.0387855 
396.15589327 534.06072211 210.69208366 136.23052666 800.74911224 982.12772954 1178.1605956 1154.1125949 1038.8572307 
1512.6019486 750.67424573 590.73333109 1169.1247697 406.23444744 315.49743878 593.48729818 317.04889476 4362.6433368 
6113.1549994 7299.7935793 5257.3783978 3636.5252221 1177.7459547 1876.3096401 2806.809246 301.07326971 1350.5596142 
1600.8507497 579.97168904 557.29940404 1538.2033394 3151.9525034 2326.4119042 1237.7492805 1158.1889937 855.42925964 
348.66705364 796.42275621 2908.993913 5398.578109 8379.181134 2717.7123772 3749.6053268 2820.0331322 2791.2555057 
345.95805772 303.32040822 242.30892094 198.64058303 572.26375028 664.62935197 666.99576064 373.18849905 443.4319429 
184.57720795 -51.079365469 193.72527201 49.504370856 591.03525708 609.02128145 53.304843595 401.35757729 280.9190664 
216.20548166 166.01309681 -65.354013622 0.61902809058 -44.388873846 98.06733482 -127.76986893 -108.38810702 146.52731866 
204.90255738 178.56453495 219.75214259 184.04550063 210.08296248 225.87381797 -141.57543433 -72.727515718 -40.243838595 
-153.4094432 142.23909114 144.82376386 174.02906111 174.86296826 159.921779 367.98327862 -3.7531202957 541.89319041 
586.98933884 236.84298406 457.33730548 318.10525264 702.69347526 534.28228382 477.78416133 213.90383763 217.19259368 
266.1362999 193.06233851 506.50439617 301.59416513 244.86552298 647.92326276 650.99188742 511.32875503 390.95382981 
515.15523276 611.04675066 677.63723991 494.54764174 235.09996237 292.19295037 378.74081253 230.22792574 277.8235523 
410.94875441 361.01525772 242.80568708 287.59375535 187.26430824 161.58523225 190.35279346 341.19682345 472.65030408 
629.68709094 -18.888969942 351.61697202 26.136373384 -51.618502276 -31.916927162 739.44197041 651.56840862 628.36400403 
553.35655653 501.95114499 488.44365288 359.04916065 2642.5227838 1360.4911104 2901.1196182 4437.0529693 211.96430976 
310.85228563 5548.5176674 5866.7111705 -617.16893141 -636.70366511 1613.1181794 1507.4149348 5811.1730078 -568.44761848 
4121.3200675 4016.6212207 3627.6278873 4023.9690061 4462.8383229 3998.7388307 3249.8340778 -273.49221828 3.7233265403 
594.3711123 -35.722008913 -313.49680782 525.6564842 6183.8140314 7521.3319915 7521.5873327 7566.5953575 2027.4752385 
2200.1824415 -511.03732654 -464.93382284 4802.8654746 3470.2114396 -936.7063209 5678.0186273 6216.0252723 4053.9417368 
2423.8735343 2540.2245778 2560.5564727 904.79065536 1391.7140912 1028.3458134 16.602257108 5131.882881 4404.244051 
5788.9297917 1946.6264868 7780.2817761 4435.315388 4855.6520437 2747.5456003 2781.6030422 1463.3965914 980.59478535 
659.43015478 165.20997086 3144.5689284 1771.7719113 1329.2613354 1016.5398477 622.13497215 742.10214155 516.99524437 
418.35257264 -374.67149379 -616.98431083 1170.8220818 -3396.1787971 5570.8065442 5406.204303 6307.680016 -1057.8847476 
-1095.9135847 -1303.8114387 880.42775927 -371.6230161 -1055.9627408 -1023.959811 -1021.7472229 -1305.0747601 4585.8012088 
-186.44817121 1495.3742532 246.57094821 -19.385960779 113.21965617 -93.218202873 -623.84484351 1899.4975157 1603.3778962 
-597.27228609 -498.31283961 -360.71617683 -1060.0931027 -1655.4173887 -275.77459369 -1323.2415311 -209.43764472 2996.352766 
1479.7402809 2346.0530222 3661.7740558 214.71982066 -551.10961992 -1268.6850357 77.52490657 1032.2695827 351.30957287 
-865.30644598 -871.4237272 396.37682682 -1280.3930402 3737.3927848 207.2867797 -290.82343179 -966.85340809 -1568.4413722 
-1126.9649735 -1000.3548207 -6290.3626209 -5312.9038435 1802.0695125 1770.0871651 -1268.0257123 -1390.7277758 -8036.7017181 
1421.9392766 -3781.0412796 -9131.567904 -9875.3629602 3651.4525738 1413.6908467 4021.070871 -9506.9979128 -9152.3800243 
-4624.9447065 1497.302546 3995.833899 4281.0413604 -73.119652802 -2040.258636 292.29035302 -2685.5787764 -10201.553651 
-10133.905839 -7180.0222251 -7294.6537218 -2396.1174499 1.8313644365 323.27420715 -3381.9791398 2683.8513654 2668.8901083 
1651.9788391 1900.2250403 -1161.5291661 -2853.5917161 -4069.574392 -1206.0960856 -2777.4773498 136.61125701 477.90574849 
108.13818622 -1541.6818265 -827.74227104 -2249.5799606 -329.3389228 -148.09723763 394.29555231 -137.76113409 -1846.9952459 
-116.70828367 -304.81335103 -2479.6915 3844.4259256 421.37876143 -1570.4119035 -2222.8946864 -264.78852421 501.73316853 
-708.95747644 -478.35878882 803.12011809 258.87630807 -1151.076969 -7112.034784 -4268.1859648 344.73268263 329.04804266 
1905.0754379 458.75289648 182.97330671 -511.92379051 -546.80729443 451.20633156 -3147.7466353 -1180.2554726 -1213.2466819 
-2326.7771518 -235.25190669 -1823.9431954 -988.40830342 2456.8352552 1905.829817 -1447.6280121 2965.3612261 4012.8629314 
2082.6735321 823.14822917 2405.5295259 1955.6061394 -361.8592035 513.71554089 -1610.9056731 -2712.2057253 -490.5419969 
90.015152559 -1130.6100835 -593.43206591 50.880595333 425.2062142 462.06011307 1215.8888341 623.76668471 -691.44977049 
-39.45981828 288.73198537 -324.78867929 -1638.5667949 -1622.2662045 -2457.9944983 -1793.1450457 -1348.9972497 -667.15339481 
638.01835214 1120.4160169 759.9983953 -670.50228242 -635.1526269 259.44669677 -321.39926945 -2567.5941127 -2006.9884978 
836.87511823 -2412.5783966 -296.00064818 -1092.1580745 -898.81988587 1003.1135872 -246.76170829 517.96124841 -378.34647251 
-2609.8921524 -666.28291949 2761.9538979 -186.48802564 -1943.3481641 -1788.2789887 1479.9914017 398.94938328 634.68862524 
498.9415244 1426.2594844 523.56995011 -4067.2915523 -6804.0452905 217.00244754 2058.3799954 320.55174209 628.85959971 
-1359.147586 -197.54859643 -454.62069616 -998.21592617 -1189.2923315 -3799.5109245 -1283.6126364 -2348.3398004 -985.06489704 
-1293.5792386 -396.78171935 8.7925918951 2431.1766373 -598.35645714 4114.6105936 2540.7463357 1568.629002 2776.6082459 
790.20129804 1088.2212083 -629.72639846 -484.16182271 -279.37443888 -2452.7506927 -234.79711116 -176.87029536 -791.65677675 
-322.49830384 -506.16570848 -786.03376087 1099.8955744 357.21876781 -236.07720633 278.77261235 -1152.341406 -440.21552055 
-257.91511797 -1083.4390714 -931.02907702 -1750.0759044 -2370.5372299 -1609.2971638 -198.41738261 -252.92757321 1114.7746912 
638.1138196 1832.0098639 -1412.2343912 -805.23787927 -652.37580401 -1247.5031024 -1278.5974497 961.59016122 2113.1001749 
120.00908476 757.95939951 628.91554506 1111.1569012 -2522.7184014 -1729.8299361 -1319.3150097 -336.85559215 1901.2870839 
1061.9182741 2884.2407956 3210.7903163 3073.5520301 1119.2967102 3307.3950291 584.40993871 884.06388663 1639.7273948 
1634.0711733 -2676.9045815 -1525.8062795 3232.4976635 3544.7720965 -283.64859949 2600.5015439 -368.04418459 -444.6753732 
-3131.8813219 2123.2562428 251.68765058 -2129.5581757 -726.95470552 -3822.1759358 -2643.1765227 2245.0097982 2258.3575646 
2358.916349 2936.05743 505.49509678 -57.055379903 -1532.8225375 467.18995469 2331.4757231 -1305.2511738 144.38393489 
1765.4579513 2741.520151 -4148.9815696 -1.6047003856 -2271.637599 -1453.1071336 -980.08538557 -1149.7676382 -984.15880655 
493.67751155 5925.6726104 2723.1764802 4061.5409707 1841.9609626 3425.9601371 1969.2875993 2821.5207747 -348.04742219 
1316.9178215 1885.8324528 -535.65288598 -903.05969478 7.9618783663 -136.91434697 -1607.1900148 169.75014766 4100.0458486 
3735.1769783 -5.7912102158 76.425133493 898.26980212 671.24665794 1077.2660914 -26.919948644 1090.5244687 1856.1940399 
351.66403119 -1568.9938596 735.50256957 -3537.8964169 -2243.7407973 403.37972022 -2299.750028 -3871.0094375 320.1583457 
1692.3378988 3542.2727281 219.20119645 -761.06589336 -3392.6766475 -3518.597454 2882.2839742 1927.7210249 -197.16422056 
3166.1426803 3042.1616797 -524.12818151 -222.45005621 -83.171862587 -291.2311239 -483.27749995 -401.0394167 511.00594736 
-810.38609268 -1160.1908574 -112.04850085 2650.8532297 887.71810353 2294.3891537 233.28361397 -547.77826526 969.9024827 
-406.65074163 -180.95252942 -395.63031783 -729.31299044 259.33945209 -1256.9097545 -567.37669241 -638.51207078 -276.81037634 
-311.75714342 -48.277085012 254.66075055 598.83596054 -2091.9289345 -1963.3066572 69.096707969 714.93088506 626.82345847 
509.57170054 2016.923357 2522.3966882 2393.9951804 23.467941146 259.37210219 1473.7528443 3154.3064541 180.501875 
1083.6732766 2230.5276924 5800.7193469 176.42397026 890.95011069 2341.1266718 985.16255581 1098.4775244 3472.6242412 
3353.3306114 893.68796493 3111.3665798 1480.1635694 393.15304729 562.32301762 1449.0700258 585.97851743 773.03705166 
360.43774364 320.37664147 498.49132276 520.78664044 609.03334143 333.985958 281.79250389 1028.334186 844.96308477 
689.21206354 1131.0783273 2312.9763681 3177.7288644 3829.5305354 3050.5739802 -468.99452463 -689.19464588 303.821629 
956.24807096 489.25853356 3678.5653802 5302.0004413 956.6771212 2543.4616187 2959.4576102 545.45675201 509.44476574 
791.82098071 752.46637138 1113.2743627 156.86925182 228.61345836 634.58585188 845.45512762 905.59218924 -448.76033799 
849.50702698 1105.6088873 259.96222337 347.86651854 560.58828319 312.09056929 532.73925173 436.64115621 704.80641409 
1316.4730442 1963.5759955 1953.8068835 2757.3293745 1500.4611049 1409.1297221 1215.8156378 715.14580268 1042.0034848 
503.0945426 1604.0836543 492.37701369 1086.0973849 490.84253004 1332.8865732 1532.5043009 1897.6741924 4000.3193921 
1320.870155 458.71361867 167.06715041 4809.9948701 95.729558013 464.11119693 376.51487334 295.16586151 6273.0224162 
439.21355717 -113.3011359 262.41387851 -297.22069826 500.71746752 680.98584563 3683.0855678 4485.3621109 6371.7441834 
6106.0153362 277.83891378 376.56075199 402.51343813 4367.2865505 123.25243521 28.503229759 240.41883461 -32.846452931 
52.540441583 61.779388613 2137.4328712 689.27740724 2152.2908605 -218.0715567 2399.9131643 949.56918329 1223.9504498 
5525.6058853 1800.5802905 6186.8637648 1421.6327037 1479.2358566 907.87043819 2911.902241 4513.9263686 3136.6018068 
3428.923017 3654.8605201 5256.4975748 4886.6758349 5231.2018177 6250.0947472 10572.243061 1553.2930068 2110.7618043 
3363.1235618 5396.6916738 8440.0539886 6113.4304965 254.555649 247.50157656 144.09422147 273.74383788 295.01649504 
570.52712908 543.21090882 609.82361489 2020.5695646 1580.1733881 5132.1036946 3255.5901753 365.9411115 348.47126012 
182.24824652 56.940871482 199.97843573 536.34809348 533.11204639 -61.072188229 -38.859895292 170.89464859 1064.5362226 
9329.8634075 374.20411397 209.23995698 -514.52553214 3208.55516 503.38116512 699.3472 1300.4848339 1582.3562617 
1710.360905 226.17191874 370.47737342 331.84332144 294.63436391 120.45658914 429.31880488 172.17087844 249.9134238 
184.17824598 -486.45734184 113.41580217 598.1380013 301.85416095 556.68113934 151.70696422 185.10709617 132.0392275 
16.694176753 -115.93207804 371.83438321 39.076978788 456.32622006 380.99146412 139.85441738 223.25616759 439.99645984 
852.51211766 1432.8595283 8372.6696729 9042.4197279 580.85289644 806.51881086 458.24309106 185.31475369 654.51014574 
408.43194516 403.28029976 -33.4015677 1932.4135101 454.01633578 -924.85970285 876.91631288 834.22095478 863.52092736 
259.82401254 -77.722427172 820.19672212 1199.4367074 966.71053474 120.27611714 8.4939899446 413.74138731 20.881895729 
-426.12518512 402.61834184 87.72333906 164.19241719 204.93337314 708.37125837 807.42015987 1449.4046744 763.46449205 
1601.9973727 1227.7788214 1974.8076538 924.3580931 815.71578428 779.13281779 976.9076112 923.00801747 442.46641198 
500.49631703 698.03940292 1234.0725738 199.6245737 222.7641088 937.06147871 1581.6725289 6583.1404364 375.1519509 
436.61352727 1896.404981 1680.3806325 1833.7945472 5395.397628 3197.4908656 3853.2131684 3270.6641073 753.39032985 
495.11451723 1049.4539973 1655.2831953 1092.2652437 2890.8790717 2098.6280111 2924.8388903 4167.2976692 4166.9403634 
3831.4706927 2154.131765 5502.8959537 3997.3282241 1572.692069 1213.1634459 1078.5246908 3217.7496528 2116.7641871 
1755.0848804 1853.2465163 4779.8563176 8480.0875281 3284.9697752 2816.301484 1400.4970427 1458.8001147 3649.6429061 
1786.7531378 2675.390836 1636.0198943 1388.0250223 234.3642777 998.7956067 2227.970982 7508.2078885 4390.8238657 
953.85781826 815.96048664 3606.1818688 2069.208952 2210.394206 2713.8949772 1900.9436483 1433.8234512 4732.7365933 
2338.7139957 938.55521259 695.81199842 646.10710781 1086.7043821 1421.6126935 1231.6438222 1150.4880113 1015.6676714 
1896.4832809 2721.2400624 1393.2628716 1864.0462527 776.17406106 1053.5630306 1268.2717302 1275.5225949 1228.4657932 
939.46276141 463.32673589 550.90953823 1665.6815524 161.86889743 1447.7869616 1420.2524828 771.28747757 4303.7797726 
1271.1204994 729.53305879 1806.4480076 670.44482098 8529.8142708 298.08819366 968.23586069 1595.2392046 3556.6665161 
712.48656231 86.381756088 255.07894136 1498.3139467 5266.8264068 2743.9104605 946.24936776 9381.7438347 2915.3231651 
537.72667396 755.12591347 899.33188877 1616.5611493 1167.6481521 7249.835369 3068.2136944 1004.0749109 767.25147429 
1065.5196826 737.80791253 1608.7351181 6249.1393452 354.18588073 398.14578649 951.10034511 8414.5863235 9719.8113857 
9186.9318418 9431.3051318 1169.7619984 975.78813981 2533.2744089 2840.6721084 967.53726931 3048.7102683 179.04626999 
6918.1368448 457.58241933 7555.7055958 4484.1284054 461.31445283 -482.09596303 -2134.6358763 736.22172213 1142.9589367 
17.420732825 194.19016498 -776.77897669 -2453.7848417 -405.85968415 1132.2330872 -452.11215355 -715.33968868 675.58046868 
461.54456459 -402.88820397 -1215.532865 -1199.7563753 -1599.5999912 -1364.3859052 -653.37630306 -746.70565572 -1793.5899329 
-578.31918339 -174.18456537 180.90258871 -510.52984054 304.78023365 -436.25814453 -749.99382419 -1879.3729314 -790.96460812 
-173.51160526 -1286.5784707 -1031.7386104 -536.50905261 563.00864849 740.04307794 38.795938078 1580.2939082 1709.2652439 
893.75386387 2366.3711995 82.94572884 -197.64378255 -592.32086386 -427.49720667 -453.09046776 -526.22956491 -1735.5266625 
-967.49911116 -1940.4661765 -268.04474939 -1715.064244 359.47864114 -1495.6161578 -1635.4154554 82.11292975 -692.33261999 
-430.49141319 1697.4676536 1871.140298 -1036.2483068 1222.2254714 -1417.5412171 -51.566684179 -1393.8238356 -1124.2852944 
-1243.1906538 -180.57370269 1050.7493606 991.79908548 -116.78805381 2458.9884737 -679.57563707 -251.25928538 266.84568433 
147.44146513 214.85383763 355.9649582 770.46952209 -1869.3283489 158.92696181 873.38325912 416.88683105 676.82647447 
-2507.9047247 3047.8308737 1829.8385435 -177.62752872 269.93088037 285.07112445 1211.0200488 -108.10249039 -1055.2490635 
-373.8174652 79.541547794 -1206.911221 -142.03744971 568.3632985 -653.30072088 711.08806433 -192.76235633 548.04509161 
1909.4155711 -11.392631057 -1161.5362753 -1691.1127253 -1662.194792 -1416.0037717 -247.50529196 -648.95508582 -1889.1239328 
-1104.9864944 -1028.175982 738.06666032 -1907.886876 -1499.9477338 1941.6303977 319.55712607 1533.7279524 -990.46344736 
512.65861189 -907.29018765 -776.25797689 140.57383808 -996.16904481 366.88977838 1215.3545973 -1710.2303709 -1927.5249489 
592.41197633 -898.00596174 159.01965211 1241.022068 702.71325062 2.1573652016 -151.33339107 1213.6589226 1513.7471728 
575.41220568 1767.2623644 -1686.3906088 -1165.5612495 550.62116708 -574.1497708 -363.51465904 23.493548766 -736.60961564 
-5109.7116802 -5503.0971153 -2602.2706415 -371.04039686 488.96769361 1020.8304028 -1544.3969174 -123.50305843 552.94993419 
336.61514262 1528.0308323 2471.9187792 37.5281501 305.17473387 1471.3561168 -307.3367529 60.62735062 1052.4645509 
220.89377607 -619.49112343 -2607.9698188 -2862.1487113 -1241.5046933 210.81942243 -224.16209578 -144.9425837 751.87559031 
597.88434164 -812.67330541 614.30100433 1394.8050002 180.80715443 232.33315546 -1003.4900313 342.78292477 567.53851947 
184.32108505 743.31451989 1798.8772248 1458.6361026 -487.25862771 49.328304593 1812.0727775 -103.06963013 -423.72262332 
823.93774543 -1105.5042401 -844.73629979 -2596.4334859 -1537.4220343 -3537.7287158 -1126.971384 -1641.6390046 -2359.694671 
-1396.9712273 -52.373767616 -2897.7869846 -1647.0197181 -180.05028371 -997.86341648 2240.7425376 -1511.793423 630.73214347 
-366.91394209 679.38895604 250.65535137 225.88864947 -2614.9653692 -1212.9330301 -2242.6942574 -1010.9792611 -1012.8245148 
-5899.9555211 597.93898576 117.76243976 -1785.525203 -1080.4003723 -475.72766644 98.744951952 -104.47421364 -440.15670578 
117.67115215 1863.0011609 -2751.8420154 -2337.3990211 35.036268339 -103.90312001 1437.8863875 -762.40743628 -6197.9745813 
-6243.6973654 -385.62076424 -180.78330894 1206.2053545 -373.91715528 45.625158382 -630.7961039 1338.0206535 1422.7741066 
860.22490864 390.41272294 -848.74347194 765.93813503 -1157.1245881 159.62067392 809.54059547 450.45100458 -1031.4976155 
1016.8717417 2707.4023353 -290.20785355 -859.90924105 -763.42435809 
Stress%20yy%20component 1 1886 double
7517.6729621 1615.8705896 8327.9278659 1611.1408447 -2446.5901997 1385.2206838 -2884.5830478 919.09056916 -11407.240591 
-1676.0809126 -11438.834922 -1652.0968681 -6664.1775436 -7542.6406211 -28603.425765 -27389.032514 3513.2017328 4660.3855252 
2670.3010574 3890.8098661 6946.6633806 8345.8605998 8580.1517285 11325.122801 10009.625547 12197.65769 3428.1046327 
5291.7507613 2648.5611459 4006.6605887 6863.0387436 -2.168404345e-13 5.4210108624e-14 -8.1315162936e-13 -9.2157184661e-13 6.5052130349e-13 
1154.6159774 -9231.0264062 1384.3606721 12070.434351 39230.324756 -10876.757306 -4406.5076022 3831.9154078 122163.46563 
-588.26144388 -89.756110107 -14184.689679 2129.0380257 21019.962069 49615.187806 1333.4607194 1047.7765103 1462.2067317 
1112.2281996 915.04424246 3147.2638462 2803.5547851 2874.875019 3032.17706 2379.9017854 7699.2282369 -5269.7172653 
1298.6961476 -29316.383614 -4771.7086173 3058.2273448 2510.3463711 2824.6897203 2840.6397503 1915.3681616 2961.6323308 
-3256.1912534 227.66103067 -38207.752268 -3569.7663061 -3263.5738273 -4858.5396723 -2589.796056 -3833.4164307 -7464.4185279 
-14356.859822 -13478.773231 -12117.189189 -14470.481362 -11310.200953 -3201.883305 -5055.3668359 -2609.0930303 -3545.5616626 
-7618.6012989 2.087089182e-12 3.645629805e-12 3.2526065175e-13 -2.7105054312e-14 1.0570971182e-12 -393.86155848 -1658.6567139 -2103.2089468 
-2648.9564828 -3037.002955 31.312401833 -877.35695489 -1883.1301027 -2435.1656356 -2853.2486476 -2801.5372848 -6682.268 
-3810.815482 -1702.8239416 -9180.1364103 -9630.807428 -58845.236944 -68994.76482 -5062.4420552 -11356.252715 -11907.604341 
-14917.172551 -329.67847022 -1427.827793 -1983.5861323 -2696.4202751 -3001.4359935 -128.08836907 -1130.2625546 -1804.2309951 
-2518.818583 -3079.8491495 -2726.2453286 -9129.5150926 -4978.3442554 -3841.9042562 -9040.9191122 -9403.4861245 -61576.809987 
-61461.415241 -6108.885889 -12587.44312 -11052.917938 -15351.936802 -20457.199319 -6588.0710229 -13154.045831 14807.893651 
-7705.7046187 -12012.152967 -7648.8382363 -10726.225337 -11994.958736 -4492.5841495 -13564.857461 -6454.1380288 -14627.081902 
1124.7108743 -5841.4054421 -14222.054612 -19916.756658 -13430.741755 -15658.008812 -23359.921643 -45956.979645 -48277.225488 
-39990.949241 -44228.096922 -38395.170834 -14725.421177 -20017.788741 -13443.613021 -14568.696948 -23054.452794 -10627.714266 
-11417.740349 -11110.211055 -12259.747503 -9333.0883215 -13807.430825 -23770.720014 -8803.3061212 -9821.62066 -12287.331155 
-16929.563356 -11423.867798 -12003.400174 -11458.797252 -12286.555842 -9641.0656618 -12169.7477 -6108.6794239 -6011.4964198 
-10914.4065 -13194.15236 -18841.388855 3972.9337726 3222.0733571 6157.4132124 5320.7757873 3191.0580627 6426.0564218 
4307.6120652 2695.8239102 4002.9243495 6703.8021504 7605.4833996 6401.6845059 3317.2021475 2313.1764566 1842.789014 
7385.8084084 6345.9385297 5467.6779584 1736.9247543 2310.30845 3404.6594587 7480.0107255 7925.6545201 6415.7162335 
6071.3745248 3702.1379728 4157.4923019 3869.9855535 5884.1238859 1694.2266974 1694.2266974 2888.7997013 2827.9289372 
4447.9258545 4251.4142217 4005.960053 5343.8442539 3334.4658131 2778.8032335 4208.5357841 6395.9596935 6992.6601407 
6433.0383436 4466.0925028 3215.2331944 1148.6324448 1000.1163999 -6445.7950896 -1244.302685 910.14739683 16300.493937 
-1178.2846011 876.1402495 2713.3569462 -7635.822162 2127.2358213 -55724.910872 1424.2285912 -432.43176565 1415.0983405 
908.74327947 -5861.956625 -61236.268819 -2889.1567311 1092.6340312 1147.7070681 -33322.391302 -2462.7489778 2457.8126873 
9991.5152491 1679.2314107 -2635.5146067 2184.7857479 8875.4158023 35872.567952 22578.009714 16503.729473 -4468.5278509 
1031.9262156 1091.6060655 933.97026954 836.52698242 1402.2509327 990.94321484 2579.5914246 -3068.9654344 -5169.4063099 
-726.96937731 13770.61555 1662.9967717 3631.1735765 3229.2514498 6908.7812237 2911.9703708 3634.4940282 3753.5835456 
2483.3199021 3810.6699252 3030.0304017 4098.0144875 -2854.0260537 4491.0916604 2660.3919585 3452.6623824 3049.0231038 
25526.39742 3379.2151644 -9408.945362 4249.8979999 2349.8495732 2739.2425752 -4098.3044021 -45617.812886 5447.1066176 
23092.750402 3545.3388975 3896.5055615 3457.3193721 4354.4603637 30530.382204 2766.0741308 2184.6308318 -9675.1015265 
2871.0774896 3086.9602604 3178.0268644 3064.4663707 3491.4143063 4409.5761393 3564.4743884 4397.1391271 2506.4590121 
2110.6168798 2310.0584891 3747.9861546 3590.0070014 3224.9656353 2367.3066137 9099.9981287 7531.2378439 5799.0428139 
-6394.3204133 3882.9762804 2959.1670471 17248.28337 3983.8119068 5220.200563 2667.8012984 2971.3834429 3421.7162112 
-19212.520255 10654.291967 31401.094223 1757.4542943 2362.2382551 2580.5194582 2567.498636 35255.476854 -1684.2323608 
-9545.6712687 -44590.954864 -41616.852562 9124.1357411 25238.199627 2961.4171526 2592.0290012 3270.0312523 2984.6794463 
3979.8680534 3262.5576762 3351.2321325 5101.2091465 4070.1568315 3636.4964563 3496.635403 3126.867149 2463.3843754 
2941.3787168 1982.3824217 3860.0315672 2461.909019 3411.0285261 3645.5387697 2941.5701159 3119.0742913 3216.0369727 
3045.9383128 3186.5127106 3229.0911486 2382.0045084 2754.7537839 3104.4266835 2761.9653049 2549.8441414 3293.6853212 
2635.496754 2739.7553098 2747.6203229 2236.4144666 2564.5926568 2612.5857348 1764.5010562 1755.7389056 3489.9614159 
3589.0747617 2866.5146644 3149.5795315 3629.5905119 3209.3593452 2044.2583135 2201.1802415 3290.9110837 3297.0832332 
3150.8243481 2957.0812578 3227.6050012 3264.2555611 3304.1652751 3004.7124436 3247.3488599 3335.0892189 2969.9613983 
3063.8516914 3440.7442682 3334.1080263 5607.7170148 4102.9617692 3745.5108661 10221.357429 18416.059418 7647.3131829 
17167.523191 6420.2521532 2985.6181059 14914.244805 4940.5469046 3519.1103477 3484.6487309 6298.32491 15475.776559 
56737.910599 33590.396555 27246.913252 49263.250477 -17485.900487 31179.147484 21242.10158 41299.97499 -18248.055741 
-21902.888471 4123.8494422 5271.958665 3477.0691314 3822.0022779 -108839.13836 -99218.955501 71417.263533 61792.983426 
34818.21922 22507.320729 -5013.9199265 -22950.178681 12532.08977 -2203.4742081 3805.3807468 9252.7030248 1985.4343811 
10284.810155 18318.913583 15085.363783 -4164.8746645 -2896.2402201 -3866.5686875 -3711.2977591 -2843.924061 -5194.0074296 
-3515.7895763 -2682.3675782 -3560.2324106 -4351.5321168 -5368.5508781 -2421.9940987 -2136.5946176 -2885.9627971 -1556.591758 
-2396.8767384 -5193.6945669 -3576.1877881 -2730.1283625 -2091.6484764 -1542.4856623 -3437.9456673 -3825.1541545 -2986.2805033 
-3657.2324915 -8578.1300959 -8231.0398008 -4687.4270246 -4086.8830467 -4294.9368449 -3368.3966697 -2841.7080363 -3765.4499691 
-1496.7002581 -1496.7002581 -2804.5473022 -2777.3472156 -2771.7916874 -3058.7433631 -3767.3568585 -3002.0789266 -4217.3129183 
-4130.8774723 -3866.9427824 -2993.2385291 -1534.1266896 -3402.4224933 -2768.2139928 -2682.7974138 -2211.854043 -3973.6521751 
-3358.3860314 -3415.3761918 -3288.7906287 -801.94022043 -173.08702989 -2417.7232899 -3113.1300711 -995.33560132 -3684.5246354 
-2963.4046319 -7176.8201108 -3679.9678481 -1339.7408296 -485.22103893 4702.9930934 31357.160274 417.08085522 -2452.3562707 
-737.99525195 -4989.6812415 -5086.9575375 -3799.0149894 -3437.8521865 -2807.1433524 -3010.0090581 -1686.4372005 -58135.408583 
-138.25733769 28696.18626 -4435.0838531 -3651.0892653 -3437.3848038 -3983.2912114 -1404.3708827 -210.04403014 -381.13494025 
-1951.9972836 -1577.7433473 -1838.0081189 -2685.5559944 -2385.3300885 -2604.511271 -2287.8268541 -2345.9704981 -3027.5709521 
-2827.9850267 -2863.9660483 -3251.5557077 24873.262047 16681.00204 -53038.043229 28142.049196 -2409.9004998 -65230.856112 
-1758.0060802 -4172.0463501 -10625.801807 433.76939536 -5693.3039421 -6296.6190052 -6011.1325987 -3388.5789448 -3166.3380303 
-2974.7184167 984.59235538 -24452.810763 -1873.1935115 10916.695279 4023.8845244 -2662.7246865 2086.1501686 -3040.9128685 
-3464.252506 -3315.9286134 -3167.2883482 -4832.8892869 -4101.1678433 -3510.4297416 -3237.542794 -3000.4917842 -3966.7230048 
-2705.1583969 -2187.2799918 -3795.111437 -3323.6123286 -2515.54464 -851.85668275 -3660.7440301 -894.63649767 -2131.9408218 
-2997.5778562 -3052.4202052 -1382.7387004 225.70764811 -3230.3824513 -3721.4482056 -2333.7178496 -2487.9422008 -6154.7405693 
-900.27880831 1589.1944833 -6118.9574492 -24206.444913 -1519.0219612 -1828.5904814 174.7736957 248.5075693 -5134.6977323 
-5706.9819405 -4455.6163872 -2717.8688519 -3333.5436583 -2948.2527842 -27608.02139 -1720.2133136 2506.3456577 17516.901 
-3574.032143 -5046.0639021 -3597.8393117 -3657.8668241 -641.28306875 -887.86742021 -683.1630766 -1428.7758432 -1574.6144654 
-1523.339921 -2264.1942169 -2535.9357669 -2629.4466553 -2786.0389242 -2942.032483 -2842.7073657 -3107.0820075 29863.208603 
50566.490615 -61352.991314 965.49382563 17823.627267 -31027.191645 -3112.8819961 821.86555301 -5043.6365288 -3975.3621652 
-3607.0602714 -3271.6508103 -3384.905873 -1920.9033982 -943.5968023 -3055.3790632 -1982.9303507 -2459.5530806 -3136.9059374 
-3425.8522495 -2837.3571083 -772.01156293 -3664.0286382 18630.625345 1350.1864574 -6659.5408586 -6436.6584606 1556.0294903 
-3691.010667 -3492.4275687 -2865.0295885 -1335.349059 -2193.6035171 -1999.2128801 -2067.3950697 -2446.1389026 -2496.3126808 
-3353.6863556 -660.53666258 -3489.1066609 306.36492353 -2128.9843812 -2204.8534571 -817.40254658 -1316.9364731 -2894.275145 
-2805.9675617 -3591.1192837 63.334942957 638.3146539 568.79736292 47.572870576 -251.18811332 185.46780529 -660.55789063 
-2682.2584779 -2360.0296763 -2962.2833047 -2455.0948079 -2684.002866 -3172.0170682 188.43391187 394.59351495 419.48120804 
-475.22940192 -2184.8455613 -2181.7699886 -3610.2127321 -3620.1968687 -193.54512803 -1400.6431115 -88.700609356 -1777.8132047 
-1849.8940027 -1830.7228953 -2265.3347889 -2533.7103742 -1977.7888656 -2164.0914541 -2324.4042331 -2698.890658 -3064.66679 
-2775.1615015 -3354.50016 -1534.0872945 -1040.3461299 -1189.4874683 -2507.2368117 -2010.5531149 -1511.7059284 -2472.1459669 
-2424.5923866 -2172.6375211 -2549.1541926 -2559.4897816 -2884.7652006 -2841.4862232 -2805.2219253 -3127.031649 -2731.7916238 
-2600.4522238 -2762.3964403 -2833.3859763 -3048.3427856 -3351.4879615 -3374.5808915 -3284.3752228 -1946.7997893 -1474.1156398 
-2704.6005146 -1348.0057964 -1151.7440551 -913.6743163 -254.93785486 -86.014817542 -2619.2788531 -2579.7308269 -2329.2066317 
-2187.2282777 -2465.623412 -2465.2132075 -2350.3373457 -8386.4839691 -10679.628117 -1348.6213477 -3521.8616358 -1986.9377607 
-1924.4548701 -21063.447825 -17713.729223 -4415.7454 -3990.2581078 -3713.3890269 -3016.4345502 -3915.5304664 -6126.1030592 
-6425.3535557 -51682.473563 -54501.790431 -4606.4072452 -28493.366464 -51403.673779 -52481.658485 -4751.4558841 -7326.0430018 
-5758.0376329 -6675.0253349 -5052.8992817 -5265.2008279 43444.413382 135381.84078 -57408.599362 -55150.87566 -18302.12836 
-19931.862032 -7906.4564147 -6826.9407602 -13442.345433 -57551.24074 -39193.618312 4.4757102154 -12805.361502 -10891.634555 
-4088.563664 -6442.7522879 -4713.2760225 -3230.1464958 -3049.5429036 -4084.7944047 -2443.2728036 3899.5580534 -27741.1936 
-29324.094977 -16390.77113 -10969.990644 761.47663156 -3562.8131316 -4298.8682471 -1300.5722566 -3311.4624132 -3275.1189319 
-3032.8644361 -3233.3613586 -5163.9030048 -3654.6000608 -4800.3328694 -2098.7171659 -1857.8727499 -2506.2724629 -2025.7359981 
-2470.6187371 -13825.031948 8549.039217 -10958.207132 -18763.536495 -44160.041378 8558.5465316 -13606.330518 78.391174094 
-893.5584845 -5825.8666731 -11228.505532 -13852.09671 -16665.868796 -16156.500531 -9179.2652861 -9249.4930208 -9848.6318808 
125.4710058 -6024.4478371 -21446.097985 -10560.152224 -21701.042385 8356.7628974 -45153.077904 -5929.5055203 -3787.3107016 
-9764.9601655 6221.988604 -22580.307536 -47788.797058 13958.199326 -9732.9544467 -10769.835676 -14588.700516 -6598.2395829 
-4515.5830896 -16720.467689 -10930.700829 2761.2707592 -5608.1442523 -21587.041615 -12572.344589 6939.5876383 -816.10545836 
-5144.7082515 -4043.8323984 -3762.2565533 -3429.9686436 13465.637955 -9970.3669149 3851.7555635 -8839.9104254 -27628.016166 
-341.07749752 -16593.121273 -8529.020836 -10752.441779 -13578.903025 -12760.035288 -15087.435153 -14949.836257 -11075.707502 
-10598.221137 -19895.215863 -12229.550996 -542.52178179 -12404.350553 -12886.302102 -12117.627876 421.11792999 -10724.681137 
-19410.985316 -13722.630297 -13789.731506 -13543.607196 -14081.554575 -15686.644705 -14467.482092 -16647.3998 -17865.162268 
-20646.093521 -5452.6967981 -7524.7280018 -15625.555743 -14733.403482 -13290.586995 -14671.175904 -14748.821552 -13717.369341 
-11968.077319 -15033.893179 -15184.924297 -18772.088485 -21314.911325 -16985.330311 -18302.631522 -13750.530359 -15057.233497 
-16375.900314 -9616.3147586 -10072.660644 -11321.413045 -11105.846329 -11351.630847 -11901.832624 -10688.206899 -11705.565683 
-14354.479432 -10495.018709 -12281.561743 -7637.5569838 -11433.555678 -12758.655956 -13939.8879 -13311.41767 -21717.347389 
-7951.7367639 -7149.569187 -16299.338845 -22518.198637 3735.2141763 -19816.217113 -19651.510043 -9232.1532668 -13215.933554 
-11097.873849 -9322.8784937 -27600.096709 -13093.802233 -270.07386666 -7496.402246 -15492.79641 -13266.560712 -11236.109184 
-10742.118617 1435.2727698 32455.010909 -30153.524981 2262.6103819 7640.5936892 -22496.750872 -7563.6135542 1159.9737755 
-8645.8923491 -9470.9631322 -9436.3025662 -17604.162057 -11713.357924 -7382.4895137 -10434.996959 -19958.578662 -8489.3816666 
-13749.614947 -17882.580592 -13384.219636 -14423.209131 -8356.9914433 -11406.608301 -12436.090586 -10968.512823 -17083.854101 
-8328.2097395 -8344.4782429 -9299.3318599 7683.1677651 -10445.080436 -5419.4874652 -29739.603957 -29885.641821 -16049.835089 
-11048.266998 -1464.9624685 -12114.142251 -10757.434476 -4548.7764089 -13792.762973 -12477.105717 -11934.691233 -11808.208437 
-8839.9328491 -11537.787494 -11146.144264 -12140.971311 -11771.207735 -10656.068682 -12699.04879 -12323.90567 -10468.485067 
-12087.634167 -12362.406076 -7745.6549343 -17117.412297 -12494.008295 -11787.361313 -11649.083347 -15348.371181 -3228.1041566 
-25561.352901 -2416.8185959 14605.609406 -20960.780416 -19556.441578 -9161.420024 -10742.23211 -13198.357171 -8829.7510125 
-10654.17508 -12059.503745 -14185.221401 -12534.781359 -14203.790824 -14374.712009 -10287.852815 -7638.2967403 23592.976122 
8749.0199231 -14458.035667 13979.747489 3424.1271073 -22102.556043 -4852.8157402 -9435.930103 -7769.5882289 -9782.272398 
-10383.634163 -17417.835782 -11734.319214 -8585.1584967 -12771.115648 -22898.622777 -11483.924173 -14801.48386 -6975.0623983 
-15219.334143 -14308.094209 -3984.63167 -11596.344738 -10928.881329 -13034.286116 -17899.173338 -9267.8382636 -13745.980662 
-23045.794943 -12466.904084 -19587.955783 -18792.086992 -16329.422011 1859.3237136 -21640.431512 -13989.002318 -1506.6784685 
-15946.229092 -8641.7845657 -7013.1748903 -11504.765864 -15959.969232 -15602.655 -7239.6780313 -8969.644727 -8351.6410218 
-6439.0209963 -6403.4356877 -5192.1842068 -6113.5227506 -6321.0218897 -7068.2419744 -8184.3588774 -6197.3725304 -5188.1350782 
-7365.092438 -9382.156828 -9720.0783451 -10072.136483 -8871.8179887 -7568.2293938 -25877.951681 -27000.754772 -10763.14206 
-36989.984322 -17830.223793 -13426.819306 23116.017043 -9126.3899405 -17433.912389 8509.9251072 -8832.5332506 -11307.765918 
-13111.148661 -6283.3599426 -7844.354863 -6161.289545 -6875.9173913 -20597.165914 -5029.1887585 68034.463133 -8351.8139889 
-2959.4382271 23763.665378 -10134.905018 -11506.200055 -9963.4872245 -8449.0531027 -7580.5132123 -8225.535294 -7288.3395069 
-7516.8965497 -7740.7199535 -16539.058119 -18730.917933 -14419.667605 -7701.0688086 -6626.6944886 -8839.4874642 -8374.9212482 
-3569.31649 6913.938102 -6088.4565469 -17304.003873 -44731.04913 37893.52606 -6634.8327966 -6920.8355736 -11639.439562 
-10547.596258 -8929.3261661 -10743.314488 -11720.194483 -12301.229245 -12283.517568 -9268.5872154 -9525.5846801 -12019.045268 
-11071.805864 -11785.007228 -11506.041547 -11429.55212 -10054.152893 -5860.8606508 -10520.558555 -9921.4569488 -14471.228982 
-7702.4017153 -11728.698209 -11542.948116 -35044.706651 -23259.096957 -4715.8031532 -22346.910804 -37207.569629 -6209.3469753 
-9246.8625941 -7203.3864865 -5921.513433 -4971.2744549 -28514.728668 -27415.997684 -4356.6411145 -3991.6124815 -10625.05515 
-6377.3190631 -4081.4202622 -8279.2600197 -13410.340375 -9214.8691549 -11138.428437 -8279.4126038 -8866.0643764 -12111.573762 
-11810.36059 -13060.08868 -28850.542633 -15412.990832 -14330.602147 -7907.0337622 -12520.186979 -8611.7406343 -6272.4371204 
-9980.9709658 -10653.076071 -8714.3096704 -11084.121691 -11036.204023 -13778.793005 -28551.275966 -12625.752963 -14439.924495 
-1021.1318832 -11574.27273 -14385.698221 -13649.729738 -9373.5141064 -8982.2547643 -10265.050687 -10870.137632 -13469.7256 
-10036.083236 -7348.2258417 -2338.1412049 -12122.641882 -17684.295929 -16446.436398 3114.173846 46798.960305 36213.729054 
246.19211894 15036.960013 -10823.56939 4956.2956883 -2073.8802976 315.93513931 2874.8862246 2655.3274431 -5553.8227862 
14880.546518 8711.4037686 6936.6901879 3569.7981645 3683.1660525 4097.1047648 4576.4619648 3787.9409576 3893.3950479 
3122.6456679 3155.7247081 3269.1776843 3272.5109565 3645.8684339 3007.9048972 2748.9792328 2877.5733889 3036.2935635 
2970.2522238 16692.232113 848.2563533 245.44759526 6887.5785227 41094.37771 3516.5399376 3721.4387793 4667.1049552 
4919.6619757 4686.7974436 2145.9967 9559.5160692 10801.26576 3806.7445821 5931.6007823 3864.8748197 3917.0270996 
3443.2733474 3930.1462358 4016.9835721 2651.0239345 2936.3649096 2850.1433677 2974.8489271 2579.1113037 4136.4239886 
4531.3403557 14305.072678 3103.0900383 3131.5206455 3647.1834982 2986.2598551 3211.4395361 3792.2007807 3559.7571017 
-1102.4345288 719.24091122 5230.4426774 1616.5001887 2808.9853493 2743.0819869 3941.773767 2181.9781809 2608.9234098 
3278.5698716 3885.9942769 4718.4647291 6090.6746652 3185.8846555 4137.5025624 3774.2926456 -50.403144839 -5003.9109245 
3091.0319918 2011.8262066 5168.52693 -31324.374229 6212.7525233 2601.4302421 3424.7137749 2451.3813957 11846.388767 
3378.4722353 2915.9205079 3083.7040905 2810.8455926 2777.8280057 5314.530441 -1791.3718354 -835.9886314 12631.055453 
-10536.544549 3086.4768119 3408.8377257 3250.4874206 74.171043776 2262.7279289 4712.738972 2277.6445782 1739.927762 
1968.3800155 2092.2468789 12136.262743 4397.9806733 -2007.8396256 -3416.5072156 -1465.3981682 -2680.9877209 -3126.5845613 
-3610.9596557 -1616.2185497 1201.3818207 -2350.3573643 -2439.6803336 -1491.4574536 842.0289052 2288.3650558 -4117.2717427 
2897.6336734 -1530.9370813 -6250.298058 941.71643066 -49118.063252 2977.6351367 2419.6561588 -1620.1816765 -2761.2456903 
-20.072239291 -667.91730651 -14803.135994 -5153.2084765 -2788.3606128 -2911.7332399 -3012.4670302 -3188.9705691 -3110.4803673 
-2859.5061041 -2664.8778707 -3280.1843381 2204.9193584 424.04297644 -8233.8703438 -5968.2079863 -3302.3402728 -3428.2019146 
-3285.2013835 -2955.7281811 -3396.0493792 -3628.3844088 -3701.9469661 -3414.7252901 -3781.7310879 -3899.9455594 -680.27552057 
-16648.975223 -3320.0682801 -3439.4276491 1719.7956059 -12054.890742 -754.91245082 -1679.7776654 -406.0154395 -1381.2888034 
-445.05237553 -2950.8813144 -2872.055494 -3002.2066205 -3044.7652873 -3160.2719827 -3809.9055481 -2479.185327 -3896.3099747 
-3259.1295899 -4551.2308007 -3230.9041914 -2993.2484883 -2850.8304709 -2566.0955814 -4633.6561274 -3072.5543923 -2983.9590253 
-3886.2278602 -3923.2919566 -3409.8833032 -3356.5656542 -4952.7017569 -3402.5964005 -4071.541397 -5665.7900748 -2964.8839765 
1.0265024233 -544.02650315 33960.492958 1785.2848382 -3048.8126067 -2654.8796969 -2605.5977132 -2992.8237557 -2566.2907895 
-3575.85818 -3464.2188654 -3538.2895905 -9692.709998 -5520.3430919 -3841.3178165 -2357.338335 -2822.2614624 -3106.0900677 
-3094.7970152 -3340.5167564 -2970.8656075 -2550.5775016 -3311.194857 -5494.7574629 -3280.1101234 -4972.8481413 -4051.0697132 
-4246.2289156 -3175.1355149 -5394.7655081 -3435.0459421 -3530.6848377 -3107.8192251 -3059.7619114 -2626.2867134 -3171.2460642 
-2754.3833312 -1709.0735234 -2712.7968531 -1903.9685317 -2132.5567026 -2443.5645741 -2648.470923 -2306.6270402 -3551.4350979 
-5269.4468087 -2465.838141 -2959.5911605 -2618.5619714 -3851.0969656 -2749.2068861 -2855.7240273 -16633.828324 -3127.9262387 
-2571.8960687 -2613.4025688 -2266.887823 -5729.6690785 -5260.7187459 -1257.235367 -10553.508027 3075.3103367 -2730.8774234 
-3533.1295547 -2897.332024 -3955.0468 -3067.5478616 -3164.5855565 -2821.4000042 2722.0452204 -8955.5453491 -9641.364959 
-1644.8564342 -3153.6125201 -32.19753168 -1317.3083073 -1128.5626208 -1136.43999 -889.97438642 -559.53419468 -1759.7514825 
-1002.1680222 -3378.567914 13198.064002 -3934.0646532 -3396.9005024 -3864.8079987 -2824.7611238 -2502.234905 457.48752944 
-2216.7540002 -2001.3389166 -2451.818264 -365.12464094 509.87044149 -660.35553976 3531.3431506 -7286.6962878 -16592.674339 
-2783.412428 -2621.4903707 -414.05712841 -4211.4137337 -1601.5690072 -3033.000371 -2479.9654757 -2456.8228801 -2526.224274 
-3509.4599062 -3169.2091477 -3463.4357263 -2412.7485936 -2357.6582903 -1326.4473755 -1893.1104391 -1840.8167447 -2256.3628974 
-2373.9043081 -1733.703292 -4831.5851897 -2721.5149194 -3326.0131755 -3040.9941941 -1414.9481965 -2496.2600269 -3357.679953 
-666.93336274 -3309.0481851 -2476.8629765 164.71714698 -4476.6632689 -2374.9620701 -2261.663398 -2186.8974392 -6681.8782884 
-1192.3597596 -669.47234528 2072.4084913 -169.95454345 -6225.6518341 -3858.4000087 -812.22927498 579.63115043 2874.9966954 
-2365.324069 403.25089197 471.89674884 1650.7968018 1901.846262 6089.9985807 8308.5077165 -15872.374498 17760.136245 
12133.780087 -544.88455158 -1200.5336614 -1484.2210713 -807.59104401 -4686.3442645 1156.8249134 -2020.5943427 -2280.3749858 
-2144.0871685 129.45647646 476.39307947 24392.855042 389.07183003 -781.93124641 -1922.9001152 -13700.258326 5213.5359143 
35528.47232 11305.920704 -2286.8835383 -1546.2185041 2835.9215393 660.57475978 -3111.438639 -3639.1346799 587.55809578 
10783.18874 -3640.0439678 -912.90437726 27031.82551 -12091.746283 -10435.243342 -12717.723317 -11647.770727 -9271.605985 
-11601.076313 -8357.3975737 -12155.867938 -11399.423846 -10581.428643 -5905.5709415 -12168.172639 -33746.334176 -23664.067665 
4066.6125562 -13164.448684 -11809.2364 979.67902921 -8985.182493 -13579.571307 -10570.825268 -6553.9375106 -11598.157243 
-14676.703503 -8505.9800692 -8090.825108 -13203.453689 -9902.7408062 -9039.3765128 -15004.548296 1667.7697602 -10398.551057 
-11356.185578 -10720.420347 -14794.623553 -11821.156359 -7794.3018469 -8855.7420324 9631.3285953 -39241.814898 4638.3319082 
-5322.1702073 -28974.436535 -11391.353053 -11847.199638 -10065.222444 -9958.8749043 -9115.8272199 -10020.193868 -23465.332189 
-14566.735604 -12893.906194 -9131.1952575 -14769.156692 -20683.213827 -8293.2449869 -8623.8067259 -9298.0317301 -11736.70465 
-13728.68097 -3506.5953075 -8187.9490056 -14192.246823 -8118.4638941 -10565.543267 -8504.1809586 -16781.851073 -13405.068859 
-9586.4051602 -5186.5591917 -9393.1977918 -3510.4468377 -8878.6677052 -11354.942016 -13703.089685 -17615.510615 -11920.676882 
-12237.570074 -12763.722954 -9894.9469575 -11595.552945 -11847.851416 -3902.347956 -10389.931675 -4574.3877916 -6246.1786695 
-11759.474727 -368.36525255 -11006.748869 -11120.179831 -12054.031013 -12839.965001 -12494.582928 -9928.2565947 -11707.509319 
-9282.0526783 -11694.221001 -8942.9733649 -13288.835361 -7290.932894 -16584.765702 -8753.0798812 -6433.9615879 -4767.2812897 
-8539.9964635 -8767.3204738 -18252.66708 -32865.313537 -21142.844989 -6821.1535047 -6261.0411818 -19760.702665 -16605.347518 
-17601.226713 -11773.776679 -8300.8728039 -11830.639539 -17483.768489 -25748.095315 -20054.761447 -8767.1478115 -7027.6348434 
-8233.0818545 -13185.296375 -11691.030539 -10831.538453 -16033.603729 -8085.6292075 -15223.247431 -16657.708634 -14572.044273 
-7764.3824286 -16386.724641 -13957.192829 -11336.554649 -14153.343111 -7958.2696948 -9491.3041101 -14066.623054 -7452.65197 
-7348.397173 -11425.052322 -7777.5120117 -13432.859698 -10866.694915 -15849.739672 -13264.790217 -5838.0993744 -10644.042571 
-17793.719339 -18891.674245 -14261.233651 -9186.1070887 -8384.555591 -7458.7025326 -11873.207634 -16382.227212 -8566.8014506 
-6215.1684996 -8965.4432215 -11403.599902 -10541.254815 -11486.779473 -9364.7046302 -13608.96503 -5217.8406605 -8658.4582363 
-12429.51846 -11852.151149 -13955.719971 -16142.311379 -12193.915491 -13430.189839 -8041.7822541 -10395.342279 -10554.040547 
-5159.4965414 -7251.4433822 -6335.0204297 -13266.427247 -18161.546249 -13542.896265 -11788.313102 -8416.7425731 -4163.2499735 
-10606.128225 -11945.20688 -12330.394106 -3300.1636365 -14036.614705 -9126.1482164 -7009.0087112 -13551.636443 -12293.693057 
-5349.6160679 -14391.467749 -16347.237986 -14772.790197 -10067.004935 -14995.846711 -9919.5146853 -17311.239582 -14819.51299 
-12235.191091 -5469.1594129 -15749.032789 -17466.811065 -14136.356648 -10534.104499 -8593.0373307 -9112.7963344 -16730.511591 
-8621.3039323 -11135.64035 -4083.2208824 -3827.0980904 -9949.2770599 -4162.9195686 -12626.043759 -6639.5876712 -13041.952983 
-17349.97662 -9568.9233977 -12507.709074 -12184.327997 -5571.930933 4494.2342521 -7605.515057 -8145.3113751 -10955.38754 
-9746.0924711 -3470.1358072 -14771.819878 -7827.5468156 -12745.815629 -14171.109074 -8569.6056793 -11727.200832 -18782.699892 
-22317.126131 -21003.926924 -12855.501539 -6540.6799774 -14685.306848 -12079.281745 -12053.500251 -9300.8971529 -6094.7845482 
-12194.171282 -5699.8187898 -10645.466571 -3767.6678737 -13718.206586 -10372.675056 866.70877239 -15548.088176 -2665.7911474 
-12500.452125 10960.446128 -13805.542804 -6175.2315728 -24718.204035 
Stress%20yz%20component 1 1886 double
-123.63558841 -34.99996149 420.65347462 35.587582336 1060.9412438 7.7744408265 -1035.565881 17.323434744 -30.114802718 
34.717246829 90.472586416 -31.909744265 -4131.5186683 5164.7187985 157.99691995 32.572719267 -13.201500699 -31.560066043 
2.7528570786e-15 -6.0986372202e-14 -4.5019801147e-13 -98.947152988 97.400914068 -4.2351647363e-13 -2.087936215e-13 3.1848438817e-13 15.408227838 
49.149848422 1.8422966603e-14 2.1938153334e-13 1.5246593051e-14 2.5027176613e-14 1.3367238699e-14 1.8211208366e-14 1.3234889801e-16 2.4140438997e-14 
382.67467891 -10909.66461 74.987969684 -4927.7377291 -4406.1865849 -1799.3834082 1387.6987186 837.1681488 9.8986785065 
-872.57859725 202.7817 16524.970859 -180.49228588 10184.262462 5512.2684063 -117.3525931 -107.06549422 -34.754882512 
-126.11699242 -60.563443443 -0.017189327243 -0.64136546968 0 -6.3527471044e-15 -5.1669009783e-14 -321.38236194 -35.565783912 
680.36701426 1584.8830611 -601.14338231 2.7626267622 1.0326708855 2.5410988418e-15 -8.1315162936e-14 9.4867690092e-14 2471.9547189 
148.58638441 177.94356479 -2636.1572088 633.84048659 11.382501952 8.420446072 -6.8487907741e-13 4.6688456053e-12 -1.7076184217e-12 
123.84635717 -191.06537177 -1.6279973246e-12 -9.9272261418e-13 -6.2606322714e-12 -25.378416051 89.984846218 -1.0486267887e-12 1.8583902863e-12 
2.8019849895e-12 4.251046604e-13 -9.0936927822e-14 2.9148521297e-13 2.2893712378e-13 -1.0667321179e-13 -21.61019313 0.17073562862 -10.803931665 
-2.0151718164 -0.08946682841 4.2351647363e-14 1.6093625998e-14 6.6915602833e-14 -2.9646153154e-14 -9.9526371302e-15 2.6138907357e-14 1314.7999093 
322.6151009 -854.83580034 -259.5849167 -242.14754893 175.50207503 1424.5643157 -896.56201824 -425.23272766 -380.85492184 
-105.7645152 -15.049749252 -2.4405281719 0.14730603204 0.025365464058 -6.0496810273 -2.5410988418e-14 3.2213721775e-14 -1.6517142471e-14 
2.7952087259e-14 9.9949887776e-14 8.8938459462e-15 -143.4946163 -464.81797125 430.78597795 67.562022644 136.73961884 173.61555053 
126.8682363 -1173.0509066 801.70825437 136.89021244 147.07000846 682.68773121 538.80175297 743.53839906 -188.51827825 
-2253.4695139 -911.53673539 2184.3181641 1264.2988656 23.960624722 181.20624983 21.878844859 -663.03855314 -413.32453722 
-228.643245 2934.0597741 103.14143998 26.422183563 1.8838012747e-12 -1.9685045694e-12 -1.5816036038 101.52923043 -90.039184623 
233.30235571 -74.225072378 -250.55435008 -95.427822643 68.974461058 -1.0062751413e-12 -2.0379612711e-12 5.1126908696e-12 371.09487589 
321.72913679 -174.65906346 316.17411913 516.67808971 -1397.2140264 -1613.6077631 -90.431267698 267.54474357 514.1190195 
-269.23998267 -913.46443911 279.98219119 177.55799383 -382.85212968 -556.75764688 3312.7224432 -1185.0346562 -91.068076702 
-140.92240721 -338.56206817 340.20138984 1.1350241493e-13 32.920500973 37.910994201 -160.82369188 -26.800939057 54.736224696 
56.427076014 0.0068660717126 -50.212472346 1.1807639285e-12 -152.89057416 -2.7962675171e-13 -7.4115382885e-15 -17.721139597 8.9279576292 
115.92530963 21.701699286 3.8497647453e-13 -1.4619773543 20.445445717 -3.2928405825e-14 -8.8665820732e-13 -66.583041258 79.985925328 
-61.320086211 -38.146477315 0.52454194351 -17.290738474 40.560328344 -7.8218198723e-15 -3.7692966153e-14 14.312942977 -16.94425044 
1.7705727643 59.74838066 26.19719363 -75.709836914 -3.388131789e-15 4.6586812099e-14 3.8116482626e-14 1.2620790914e-13 1.1519648083e-13 
2.6427427954e-13 1.2536087619e-13 4.4045713257e-14 152.42218611 -27.300564261 -3136.6637424 3127.6184051 64.209938542 1087.2155659 
-2618.3068346 -78.367429222 2345.8806216 -1461.9471655 181.03034638 -227.32569266 76.954678831 90.054082893 -14.169851965 
-955.43478519 4711.335057 -557.45753 124.58137477 -89.190587705 -97.056246077 4739.1869757 -2203.8906237 -455.89122518 
-4007.1125865 1975.2149063 -3104.432545 641.71941349 6146.6284762 -606.57945442 188.42874856 -219.157395 -433.39219583 
-103.72916747 -85.985073743 -19.733625779 -133.34532171 -37.536472174 142.01535197 -12.81059263 -7.3454142145 -959.81965407 
99.163931539 1859.9132677 -164.61319658 187.29425634 15.389410145 714.77077694 -51.970913129 91.354826801 -3018.186549 
-369.26718935 74.100601991 -22.828849121 106.17365537 1122.8577153 -13.796644319 -20.470466181 -47.908973645 27.887207381 
-312.18049292 1109.8162757 -6085.8558319 -45.454659824 -33.565581075 15.161500799 -1517.9723057 2145.2680537 -431.15491002 
535.00492187 56.118130357 77.173482319 15.054211261 54.261349535 -10982.947691 -1306.0635169 -3.8531428829 -2282.1356466 
1.4671782228 -11.466574334 17.522270366 9.9614647642 115.28773267 108.6517886 87.11815597 503.44881815 422.00259861 
427.48479164 123.57465347 71.013228472 -489.98487493 -44.13240728 45.783368875 -1211.0364259 420.11587024 3777.3034547 
-43.071369324 -121.08227003 -38.204369672 2799.3185907 429.89629821 148.99428044 25.094173219 -30.193428092 45.576498531 
6724.5347671 -917.7474437 181.38681981 43.498478711 274.87757784 -28.933328876 2793.005642 12973.525268 48.435012187 
1650.0608375 -1801.4772031 2325.6814179 358.87791775 -423.87832403 -5.903823471 -18.112764818 -64.256291294 -62.35714112 
-70.016837435 -29.487704254 -63.435470886 -142.54677669 -355.18758028 -301.30058551 -281.78329845 -714.13375129 -295.44808853 
-1135.6022361 -936.75970531 -476.90858893 -30.074742665 -27.341616902 8.4354771779 -95.250064594 1.0731027154 -9.2880517489 
-98.438628134 -7.5395251819 -5.8500285955 -33.518330661 -42.934987789 -25.812690129 32.034879232 34.835523083 11.402480279 
9.64208733 -56.696192244 -6.0643115835 -50.012317053 -41.329623404 -84.208122016 4.6134176821 -5.6795922768 -42.403659226 
25.246592472 -8.3463165206 -2.8911152903 3.9660461045 -59.656609503 -145.64564749 -96.993047126 -75.820023157 -80.975905648 
3.7499026163 3.7499026163 -6.4334599234 1.2556170149 -31.1766269 -37.565456582 -23.519596809 -16.489587963 -18.920181148 
-51.683892857 -65.291316294 -43.055497246 3.541585181 488.11088112 79.516669994 -263.88454454 -492.55103915 -1236.5966554 
1204.6663902 -183.97212034 9.180917685 5.4039140868 -305.30038053 125.96860277 213.26933319 327.64728766 293.11759882 
2227.5345868 -258.41249541 62.365724736 -2312.8534153 -776.53316226 138.16313253 3079.5425031 638.97699167 -176.39548025 
-924.98351766 -19.435080687 -14.157377387 519.5138931 37.931065484 -535.41406946 182.93259012 -1986.4199917 1682.8438941 
-211.98012904 -3181.5253484 -1526.1711476 -2.0046435559 -1092.7341745 1141.6053565 -209.23528712 -612.45797829 -257.36520412 
51.429290891 1070.9372896 -863.73581536 -3.7692966153e-14 -53.510549234 -165.64614861 233.9964863 59.561717963 2.0611705729 
4.2793700498 1.439892055 -9.2270422031 14.182946937 149.07895469 4.1165801237e-12 25.796824731 3.9966720221e-13 -20.794202648 
-4.9454018625e-12 -130.354427 -1.1163894245e-12 -5.1160790014e-13 -24.08078497 15.803624159 21.662798775 1.3353474413e-12 -39.297998982 
-42.126271754 -90.096108083 132.76160663 -123.45136388 108.88578328 73.803410115 -11.984561926 47.613134431 41.145444388 
-4.9910092928e-13 -1.3012543652e-13 -24.258468448 26.985640946 1.525506338e-12 1.1265538198e-13 -1.9989977555e-13 -2.0125502827e-12 -1.2468324984e-12 
-6.3358064455e-13 -1.219727444e-13 3.4813054132e-13 -846.48544254 240.86937072 140.58849205 55.56826871 -11.356560322 695.27079303 
491.68769504 618.1251022 31.538909744 2008.2884652 290.71038004 26.656027063 -1223.3198835 4.9108398001 1412.6907424 
56.739488379 -2208.3741676 168.75470509 3259.8084567 -2616.8653799 1205.3579966 1279.0814061 99.830057561 220.13865939 
38.9404425 1298.590396 363.3227116 3119.3499918 22.427757292 18.09044519 -3.7811088937 2694.5286551 -274.34460307 
153.89577699 1420.4940819 178.35135781 79.33192261 62.347548635 263.48782866 5.8698376308 -10.422721089 103.74836204 
14.254586858 -33.604711435 -86.133252962 7.4658075706 16.757046717 33.060479012 1.5549450905 63.85159672 -3.8709860496 
11.781006596 69.507340327 46.008242775 3494.445976 1965.3850472 1523.0370886 159.98245674 -2244.3576327 633.17571999 
-66.214116678 2275.0204704 -1702.099292 -1944.6306051 -249.39752963 2636.6536409 3373.6724393 849.2904461 1035.7587007 
-377.70866617 8.1981672945 1567.9563174 -165.93773384 -3380.3133458 -1741.6695777 -478.59058191 -133.29006662 135.91259869 
258.07966952 143.82375678 151.98333454 458.04226464 216.63735176 147.60270306 169.07340426 110.57602634 186.07192321 
83.53055748 75.96590219 -239.93240695 -608.01416119 14.049197032 1879.0115146 -172.84904787 -548.54986169 200.66029201 
-72.376343222 -816.55905601 -4741.8085134 -20.21471237 -35.926914271 -715.40968213 -147.46115813 -14.678793038 -590.71240689 
172.77311116 -2626.9751264 -956.27531092 4350.8597394 1297.7964457 -378.79532614 -23.999993892 17.536107357 -298.63086038 
-1377.1310029 -3367.4518219 -28.965913568 -61.845262551 -5.1771546924 4229.9906274 -2762.6248516 -590.67505023 -4842.6745061 
-109.48131465 -77.202046902 -78.037807459 -299.21042456 43.228451662 28.771741921 104.31783601 91.405005779 68.733360732 
212.91129486 0.8276147298 -4.0476904386 73.036189185 -10.786477834 -11.113777183 -24.651508966 -38.928784379 -2028.3944939 
2365.5798466 -3839.7294809 353.25106593 -2355.229949 -3565.9968032 -1845.3878181 912.67895062 90.419835757 -3192.7632318 
-2295.3421104 -384.17617597 -847.7688452 30.813693782 301.55763937 67.06429237 108.73569598 -13.018417283 -180.06145009 
-261.21191106 -36.434388004 505.35444685 583.85586199 5981.5514077 546.65041395 -1675.1623482 185.34971365 709.99838239 
-269.24777198 -115.97908723 -0.42173634866 -94.683976376 -37.529729678 -119.6222969 -46.6181633 8.5730234197 -47.565933477 
-15.524799853 -90.980854564 17.361288554 -74.059348201 -46.684176412 -54.800617596 -62.777052336 -88.715168485 -23.621231561 
9.0250922283 -0.062129781794 -176.83793047 -138.94982389 -37.864084536 12.181749446 -10.229770646 -38.302196261 -0.9073143778 
5.0507143908 -14.4381006 5.2502609178 9.4013092958 0.12770645867 2.2629066591 -122.59794025 -148.71628099 -138.29563252 
-139.39525608 -17.529853273 12.362180082 7.8845823412 -8.8033412652 -10.457786728 -22.715412031 -52.376363887 -61.727177162 
-24.257300121 -180.62992943 -2.510701777 12.940674631 -45.977561951 -21.728477306 -21.650112603 8.3149078432 4.7203987835 
21.505992366 -3.4785838048 -23.919658376 -34.474112082 -102.76160949 -8.3567092957 -21.086725317 -87.650356829 -29.304049901 
-23.673382885 -20.448108425 -47.717194276 -49.891336312 -17.322619899 -19.121811788 -25.595057942 -5.8311315462 13.162798015 
-20.509249376 -23.957619368 10.372697311 -16.311116535 5.3681554771 1.6156406672 -7.3920480396 -82.573788992 -100.9679693 
-50.082174964 -110.69251375 -113.94309184 -161.1496994 -154.67989363 -102.48132737 -91.972259444 -16.02426463 -40.782004348 
-52.71228605 -17.118377852 -62.500611023 -127.17584728 -597.10909254 -92.888778403 1680.6387569 69.564547036 415.86481755 
-266.02105527 764.64772472 -1679.7006781 -857.26047771 689.47651302 -240.7053496 -24.565252761 5824.7884726 -1754.8274019 
-603.01033484 -369.23706103 -358.49238957 -1922.5384209 749.851777 -31.209263484 1468.6232769 -1218.6581454 896.1953426 
2667.0197819 -934.96755984 1180.2879865 -2858.2014666 -1030.8162639 668.15845575 2840.6388224 -1155.1801071 -65.832188601 
-16.062108775 -2839.2405571 2636.274652 -2438.2495956 -357.61535503 -253.18984063 -1307.4876922 -1391.7228735 -2135.7453514 
1555.3186354 -1107.0125441 385.7122337 2495.2088007 1966.5968872 123.28493167 116.29297107 4555.1142114 4308.9491998 
-328.78532403 1301.9256346 2328.8390093 5656.7637039 1617.1103935 -1598.7524402 -118.35360316 -1846.8176759 -2416.5042112 
-269.65996396 -80.461953113 726.99602151 72.701811099 -39.155728748 -232.39661083 134.88996544 -37.924615703 -182.10832633 
29.702773864 -2788.6181597 1235.2129255 1826.8050694 -2047.126482 1300.3101 1746.8209991 -1894.6910652 696.57199944 
-850.75677956 -2183.7327026 584.58294722 482.73548707 -14.490435692 904.47655259 869.23812853 -1396.1725458 1420.994716 
878.35744703 -3513.2176327 -117.76555878 -1320.5055214 1459.9684633 2306.2852736 -1255.5132463 2933.7761134 2467.0897299 
311.50167722 -1291.2015959 -413.10032898 758.63018293 -845.22131782 829.16549974 1022.7276461 659.08461009 2220.0424638 
-1124.5105223 2658.197978 901.90889678 -814.40350102 -837.42318257 -538.82191495 -498.05985625 -2143.7968228 1129.4604807 
388.92696204 806.47811114 -454.46311779 -1437.3033207 -574.62313052 -149.7110834 35.523018747 -577.6017285 653.398959 
-91.102405527 -18.244340696 542.45134773 -133.6900254 -164.06621755 204.83020893 58.974752275 -87.885851469 224.35933592 
-124.66969846 -0.7908018019 -172.52201777 58.059894072 -178.17849569 2.0667603913e-13 -3.0552478407e-12 -36.053222166 336.79010784 
9.7840775737e-12 3.8235067239e-12 253.78447467 -5.0974442766e-12 12.163672793 -222.83766244 134.20053729 144.1967477 -388.5258749 
390.24572663 101.25521069 66.106843354 49.269702117 15.367429241 -152.45567778 95.742257257 -485.43024187 291.69918899 
95.333218518 -169.61481434 -5.0415401021e-12 5.8953493129e-13 2.4441135693e-12 -1.685595565e-12 130.19336513 -30.309552678 8.1653976115e-13 
-3.6761229911e-13 -418.76810548 -566.35639101 -239.54413538 109.84811456 472.16104144 -536.16117082 175.88416874 172.37845262 
-1251.969116 -617.90080777 154.47908049 59.521280536 -33.967506526 565.40383407 -319.2662818 -1428.9589796 2686.3208401 
-1470.137064 1046.069118 -133.93624738 -716.7420708 56.146952237 22.930747221 148.66940512 525.27220011 -258.69213248 
-1341.2647496 -3204.3814965 -1177.001787 -646.6473952 -1849.8179751 -689.89006325 -5.0850261265 -6.1207880882 -214.27539968 
-234.63836667 1093.336805 1487.9060983 -771.24419324 -145.37292495 1060.5620048 711.29831139 -2311.8665617 1644.6403311 
-79.338212972 -3403.7893025 -2317.0610849 -652.74399387 -1090.3923763 -1430.0418101 -306.23702015 90.104950006 334.89150099 
168.3458845 -75.485747157 90.133160822 145.37385101 333.39612676 387.68025528 884.26616923 210.73641351 137.06701376 
455.50097269 602.40651371 379.42752588 -41.958664591 -173.56034851 -973.85471761 -1411.5149918 -1006.3424722 -260.35619987 
220.46997162 -900.07697417 44.703741962 -312.09900981 155.1687061 -53.850714594 -715.24493493 242.97824624 455.33331343 
825.8815479 214.8229051 482.44034264 -352.61731691 -62.53789928 161.74793 -335.03617543 2008.0716807 621.57932803 
-319.87944434 789.52659289 -239.99541585 292.52661408 103.84199956 1649.3715149 2496.5316762 -1348.4307964 -160.91024335 
1502.6747636 878.99405983 38.086737673 -304.07916444 -138.05009521 -534.27329698 1503.7317019 340.60404078 3369.7443282 
1278.5292714 1673.7942855 1538.2145408 446.06555282 98.860341081 350.77795576 402.66949898 196.04576957 -3927.8071261 
301.29137144 826.18082037 -548.82939693 -163.11542126 -243.65494112 -1160.9764222 1909.8299624 623.54780229 1844.7630999 
3146.1651785 370.35659726 625.01112584 -133.02961906 -762.59859376 686.15946325 -320.24667617 -150.11105694 -552.2911531 
267.73556106 334.73587414 -12.284661699 -613.00545122 -186.86996793 571.80140223 63.450458735 -693.02117973 218.10182922 
-413.2883235 267.95971903 421.26296908 1186.9096301 793.23565561 1034.7153831 648.71175491 1087.9458139 909.79351289 
890.05175959 389.47606661 -201.775026 -79.531770614 58.379151135 -227.97796781 -465.72090516 1919.8423068 -470.34143572 
578.41409923 -208.01699301 1117.1443382 -1619.8920675 -830.61707017 591.57748721 -1548.0609624 2786.3889964 121.37029495 
-2668.6649006 -663.37475128 1456.1098772 326.35090185 2108.4643897 -1524.4279449 1156.8533794 -2505.8183507 132.81559446 
-648.39256313 982.35974439 -639.62072222 -2850.1189999 2899.7716304 2669.5352957 -481.02442729 -66.547534 -2199.8786451 
432.05596076 -1353.4533881 -1717.018828 -50.46912278 1024.3358171 3908.7672029 -712.57647843 2475.9861933 -895.88134176 
-1381.9402191 -796.25450827 2077.7733088 1032.0891953 2506.979466 2030.1235579 1507.6858634 447.90802388 -1241.2080349 
2525.0621266 -2014.404882 1131.8842751 1142.2635706 861.8282372 27.041948576 -783.91312253 604.02512984 -795.67146216 
47.108675488 -878.42599141 1264.3312575 -4238.574149 2758.2609063 1127.2196797 1293.377488 -281.07305291 15.647639709 
-415.81366491 -527.28993363 -170.80033972 234.72283752 330.02588746 -110.99715228 -3464.1461127 1622.4389336 514.49987283 
-758.66009414 360.15235847 -452.57203337 426.79149644 -44.001472273 2565.8054912 -1250.4826486 110.4050365 3826.3311759 
-3156.7485219 85.226093307 -1073.0246583 479.89070912 -170.48447983 -890.37802655 97.79908166 -426.80776882 675.14960897 
2212.8406881 3609.0613282 1716.6731423 -2628.8281411 -473.72097996 110.21516587 532.48654626 -1366.2778755 9.3630681089 
389.25384486 1090.8370425 6.8068115863 582.14396079 -508.77474803 391.34516787 135.02108412 166.91217377 359.38606423 
-754.72940038 -389.02361899 776.32646433 -1007.6491271 812.21794235 -277.12259651 -321.99330455 -33.945207503 303.68716605 
-66.480897786 -588.67430223 26.880514718 561.29334439 -313.77596026 362.13136705 -653.73417609 218.99236406 140.36002799 
-131.27548987 -306.98796252 346.24516468 333.98919916 -222.46485461 446.85133972 -5.4617431128 -198.52406333 -71.894908874 
-560.21505525 -774.6713601 -1088.2307957 175.68567842 -249.42843415 71.669495595 223.41296339 1150.9903114 -233.35050508 
2122.735354 1406.7271862 1467.5295644 -503.4626854 687.08842902 917.084817 297.38423922 31.470568368 406.89264673 
284.85083398 973.61490645 187.15512746 308.19872839 13.37215976 -52.255080224 -192.58815688 -82.145400471 -41.231999587 
-32.61644327 -0.89898442459 36.821138261 46.041154992 81.712671533 -11.537093639 2.1297061109 -47.361591981 -46.427933799 
-87.540436937 -451.15512561 -1103.1371818 -1563.0001443 -483.07602211 -597.43787353 -174.73333168 6.0575515028 -43.917394658 
104.67054129 94.839088423 1326.0079338 250.70693336 -1297.9635502 440.94506869 629.43386595 0.84047569097 40.666103966 
66.525393369 187.32528299 136.40258536 -71.267896498 -27.980408507 153.10966891 111.04294519 39.254360303 376.35173484 
514.05173078 -365.68275734 -41.55338958 36.656322657 10.336446362 -23.19349808 -47.835839171 -38.09433046 16.956988536 
-281.41159127 -1048.0947081 -856.64681783 -785.52894437 -97.453269326 112.07998041 -71.861208914 11.388088634 -57.706722918 
17.53396316 57.024723364 -111.8984114 -234.83491922 104.88204792 -66.951873075 155.67175645 369.15492622 -854.86273567 
-185.58982068 97.922162426 -12.345278574 -307.6108142 177.58291507 19.834366566 -11.065310296 -88.466076111 1228.1013056 
-11.572649705 -76.271141398 -36.500647926 104.77435296 51.021632986 -230.49384828 1151.3190503 -2514.5574257 -1491.8024289 
-1636.9376059 16.710486191 11.523364982 13.892914996 2129.5605161 -162.71568355 35.857731901 95.949385952 -83.821380575 
10.305541437 -169.21072219 2807.2488063 124.69003612 -357.36946923 2.7183700756 -3.1275799552 -8.4948130355 -31.514151343 
-1124.9961162 -346.43751103 461.68400359 -14.627712807 -134.87555953 50.717085591 -698.53280566 -4217.970381 2065.3282578 
-388.74469011 451.51439875 -1804.0395044 352.40733362 -796.60377018 -1580.8429343 2963.8638122 -536.00163094 -394.80240384 
-1189.4948371 1042.0757491 3040.0698454 -225.02200964 26.282914043 14.3497967 27.409178995 84.858796231 28.726730169 
26.333532787 -23.180080823 25.845533201 -359.67772251 91.668140834 -424.63320886 1529.9128848 66.655465318 -0.39833309869 
6.1211365068 4.8786641343 65.341765274 91.274372688 101.99627347 -238.65304852 -19.53027626 -83.167268692 -61.756123023 
1444.5442561 -72.89561109 -56.667412155 388.493088 1925.1559108 -30.890743353 -113.54396999 -112.29721542 -94.893094187 
-138.13570631 -14.096110651 -37.774975277 -47.034644214 -66.059476753 -17.355298964 920.18190337 961.33895916 282.46476099 
438.24278211 -344.94783303 107.59278966 113.15942454 -9.6116401261 -17.030981216 19.217396308 13.882525754 -36.045905053 
429.3305762 80.912429506 53.167290889 26.495904806 199.15229003 -61.773160186 107.75055824 46.161582669 -37.530797564 
43.403435261 -193.25900064 -907.42719117 141.69828093 160.6844874 27.744085818 -32.621716903 -14.973897388 -29.297265521 
-98.621853135 6.7334807454 -38.623426944 21.766862545 -1877.4569802 -62.715753849 -45.070163788 -26.561229251 -0.35336762179 
563.32161346 336.45986766 256.43022418 118.77062906 -64.791226046 655.5126593 -608.53790457 -131.34572506 -193.77823263 
204.74687776 5.2195648335 -718.6189575 -715.9671931 -317.12772263 -23.787260672 -156.81648782 -78.680565293 135.1453735 
-67.385291653 -76.431968563 265.09556926 -2.7773516135 -4.2922416427 -52.28786428 18.844275058 -73.71795148 37.604162897 
1737.721167 -60.574823354 -27.28230368 -572.60975654 -311.67336615 96.641580359 -131.50749894 444.65812021 -16.897543309 
33.68851667 38.745809308 -15.948577081 136.27203203 330.3624274 407.13163979 508.12148276 -2022.6176864 -83.35989901 
474.15485345 -32.084490133 521.16456398 -76.972760231 43.104578555 -31.37513197 1425.5702511 -3498.0948373 293.9983121 
-227.36561978 -214.01503202 -469.70887375 161.88305998 -49.281894151 54.294100695 -6.3221153838 -619.10022811 -453.08590664 
66.422660186 -331.92100739 3748.2257868 3333.3515996 -2698.6645558 -1896.9202788 -116.25798073 31.954339988 -155.44551969 
-465.59214744 339.5411915 -160.36905776 -185.93927833 -57.087643453 -111.75012427 -2009.0006493 1726.4060039 1962.6858169 
-23.724693604 -72.626012587 -208.83292596 87.877819103 -241.47735667 -832.24027858 -28.919953102 102.65018195 735.95400619 
161.87161829 -396.77355002 -135.18091873 -28.913664807 -11.303294561 -165.81639709 -122.34401347 -28.305782523 -54.926437758 
7.1801607132 -325.3119556 -1080.4999148 -111.61451461 -531.03406717 189.05368377 127.97818177 55.463105577 2.8597934353 
-1190.1137646 -51.90093169 30.733439613 112.78575507 2.8760041652 90.946382567 -99.146959279 -41.779500502 1664.6804813 
-53.271758206 115.32076258 -205.8225193 36.701370308 1832.6458521 -298.54890711 1158.8764477 -125.5770092 -598.10185588 
7.9459601855 -143.35213141 -87.509946106 -132.49748469 4430.1626814 792.43780869 -1815.1083772 -1307.1082521 -3098.4459067 
1979.7582332 -10.187043798 31.505612386 -56.718579783 -101.39696933 -297.95875802 -4126.4194676 -49.681967968 -32.086702001 
61.696287971 123.67373969 -72.378075106 -478.6573607 -29.769165221 67.032359376 -698.74542588 -3362.3800626 19.433711471 
756.9143043 -285.07471467 77.440541876 25.414678182 -943.35160859 -483.30596892 -694.73906082 -1131.9947532 -101.65954727 
6873.6139838 20.923937496 2028.8299414 -6609.0758209 -19.778967701 30.553415333 -252.71412515 72.685335635 -892.37302407 
-99.328735591 -596.39377225 158.73588658 -76.021667893 75.190073989 489.94381275 314.68167363 1707.3073946 759.37431661 
377.72218113 159.34709232 -343.60729954 -693.8985906 -194.29155135 240.2804353 -376.35062375 -114.78708895 110.98961302 
292.53339889 -196.2918297 -182.4662629 -154.00017478 -986.01300424 151.24370952 129.65042454 164.75965951 -290.06542612 
291.5369407 225.52505336 254.01077932 202.06358657 -41.163058285 -75.68429247 2234.0379022 2090.4787911 -275.92051669 
674.46576677 -560.59965699 -1070.6329574 381.2600673 33.316224372 170.61854853 -121.4489964 404.03311733 -17.239074468 
-926.52157273 -60.141707228 96.213447119 -671.4171446 -356.6029168 -735.27635256 121.71687045 126.34932089 315.41781967 
21.616314606 240.05127365 -354.84593892 -4.9155451731 -29.436100945 -365.80520117 265.90447917 150.58981487 403.87968244 
-357.05545382 452.41513273 -81.466764358 -1371.9927435 -515.94957698 -317.63810584 -265.17576754 32.278460555 356.38500827 
169.250725 -57.574157352 -262.35208687 163.80844724 -69.907904773 123.15869356 929.70067041 173.82409804 298.46192625 
226.98283556 -28.700985947 401.00681078 143.91777938 -360.80575988 -77.958675948 35.583382905 464.03655421 -100.92986759 
30.073056262 56.154465821 -95.394664971 -446.30525365 -116.69049468 -213.61741726 382.38000256 -177.32746907 -563.09073407 
-600.91457804 134.92571011 100.54654232 550.3605643 -957.79254287 -46.471011891 325.8616939 -343.67490257 443.09567503 
-549.02374691 918.22932319 -234.58427386 -63.643903807 -516.42558893 1168.5567922 -868.4192742 524.27096723 462.35817801 
177.39252064 60.026506287 54.157541141 275.24897385 -305.25015908 112.4276513 -206.94676004 378.04966167 -1181.2103983 
105.26858665 283.141598 -344.96042915 183.28297641 21.285745844 405.32703172 173.9913279 -263.44305159 48.652510524 
137.14643962 32.748146527 1341.7202306 608.52761278 1145.665468 611.3613834 -644.49003851 164.89637585 271.31130013 
-384.81068756 62.684655778 -21.168074642 -393.59952552 144.35574637 -201.78730265 -513.9744849 106.53032811 -6.0249547182 
78.609619279 -284.70470585 -1194.5922967 -433.67296515 209.4222704 251.67195777 -245.594252 314.40597052 -489.75030721 
138.11827464 55.987708216 189.67692915 -539.01975081 218.83622262 -35.928802022 103.49318047 231.54824112 195.31308394 
474.32727335 -103.35757673 -765.01407325 -125.9967733 148.68678198 -175.43159196 -7.9639779733 -770.12860353 -656.41287705 
160.05558002 213.26419213 -955.87740684 -1263.5559568 -192.23813073 487.07130763 183.1296984 53.577740729 448.92772416 
-689.06555673 -260.1786228 -133.32477936 77.271643972 685.60756627 -144.99901544 -274.67217666 361.32165027 -66.028637207 
313.05098685 -337.6981083 -88.59476579 -15.950655694 192.57882824 2019.7073493 2616.8740268 -254.96204975 989.06826817 
-213.42658661 -649.13047414 -406.84942366 -372.94954244 -392.87195399 -296.27820019 -843.13454562 -143.5570176 321.32129723 
149.12866739 284.48967845 -862.5556579 477.03506651 594.09868412 -379.3305934 -325.28693498 -814.46371378 119.08515001 
1106.1440254 -392.19862257 -74.76256436 -1451.085315 -410.92560757 127.35375167 46.572198226 -782.0435212 409.42999844 
-31.113775218 460.66925469 -390.9039714 1203.0548891 -297.52583116 366.01465282 -139.7408621 778.84813946 -948.13177549 
-178.62030916 -30.368820776 -34.398507472 -2078.1259992 -1961.2753261 -531.82224406 -15.232813714 92.449572537 1039.4252893 
-3043.633485 -628.43153679 722.97881789 -619.25807978 768.69302135 
Stress%20zz%20component 1 1886 double
6555.8117295 1825.8703585 7857.6209643 1824.6663388 3364.8142249 1682.2263772 1758.9155464 1114.0245166 -11579.679254 
-1884.3843936 -11592.588367 -1844.8719654 -2751.8350463 -2661.2406172 -19225.605017 -18038.176903 3540.5476985 4595.0111027 
2670.3010574 3890.8098661 6946.6633806 8016.9805213 8671.6989321 11325.122801 10009.625547 12197.65769 3460.0216761 
5189.940361 2648.5611459 4006.6605887 6863.0387436 -4.3368086899e-13 5.1499603193e-13 -7.5894152074e-13 -5.4210108624e-13 1.1926223897e-12 
-861.04961003 -1829.4452666 1280.7780846 15011.8916 49543.090369 -4362.0855764 958.48437295 11131.109055 128640.99805 
6282.7468847 -1831.2773358 753.75301707 1255.66883 27238.65001 59356.703839 1660.5133776 1266.9002774 1787.141561 
1359.3900218 1118.3874074 3864.5264632 3446.351417 3513.7361343 3705.9941844 2908.7688488 1616.9826624 -19200.346796 
-911.55865789 -46665.310124 -15580.076345 3751.8966752 3084.4926148 3452.398547 3471.8930281 2341.0055308 -7920.0330194 
-18643.263519 -2410.594507 -60993.068171 -15049.828859 -3287.1518671 -4931.633405 -2589.796056 -3833.4164307 -7464.4185279 
-17165.087954 -15983.221425 -12117.189189 -14470.481362 -11310.200953 -3254.4528811 -5241.7640174 -2609.0930303 -3545.5616626 
-7618.6012989 2.7376104855e-12 3.3745792619e-12 6.5052130349e-13 4.6078592331e-13 -7.3183646643e-13 -520.93948707 -2067.3347821 -2602.7859315 
-3237.5516646 -3729.3416707 38.270713352 -1072.3251671 -2301.6034589 -2976.3135547 -3487.3039027 -3424.1011259 677.77649574 
12351.591285 4504.4616347 -9652.152773 -13233.740219 -48841.209897 -60422.671258 6706.5877934 -9907.7204894 -14027.704629 
-18619.903128 -408.03525853 -1783.2302 -2433.5276379 -3310.9750301 -3715.8462767 -156.55245108 -1381.4320112 -2205.1712162 
-3078.5560459 -3764.2600716 -3332.0776239 7824.4080794 11978.949007 5173.3813409 -8996.293891 -13065.293824 -51743.401369 
-46714.020783 6522.5471094 -9094.6350315 -12807.100458 -19118.221263 -6769.1716584 1194.7581033 1377.5441318 20864.108878 
2537.1347594 -228.76275674 136.66963863 -2731.3280567 -1284.4644039 3913.4368437 -1602.8523462 -19.1716558 -336.93120253 
9471.409516 3263.3298503 -14435.704738 -19811.391687 -13430.741755 -15658.008812 -23160.664599 -42769.576639 -44902.32951 
-38708.31768 -39845.759641 -36712.498032 -14934.455717 -20168.877221 -13443.613021 -14568.696948 -23054.452794 2671.6218638 
50.265293669 879.70928452 -355.45074652 1665.3666941 -7378.9081115 -10976.127948 1944.872453 2024.4171256 -584.90292787 
-1191.9329463 130.3394387 766.76186494 -171.31207494 -630.73184257 1324.809888 -6405.0770625 5291.6065031 5423.0971389 
449.24149133 -1503.3655294 -3387.0998728 3972.9337726 3192.6858861 5865.6336014 5029.7749399 3172.2413877 5968.5964019 
4108.4958683 2725.713831 3895.6616899 6703.8021504 7382.1759465 6401.6845059 3317.2021475 2357.8521478 1855.9680205 
7144.1043499 6414.8457223 5467.6779584 1743.7115841 2356.9747383 3404.6594587 7480.0107255 7674.0321227 6021.312621 
5718.7740091 3640.8489176 4148.4094627 3819.096707 5805.792218 1694.2266974 1694.2266974 2876.7381744 2834.0047753 
4404.4434056 4117.6560014 3959.5805132 5214.9322629 3334.4658131 2778.8032335 4208.5357841 6395.9596935 6992.6601407 
6433.0383436 4466.0925028 3215.2331944 1932.9521261 1124.4486864 -6777.1052658 -3278.8553886 573.17299927 10282.64911 
-3502.3280407 1369.9403856 544.77802112 -12683.107717 1866.278053 -52671.843579 1715.5483249 -875.09335195 1785.0231382 
-377.47857616 -7019.5195348 -60720.948274 -4124.284342 1164.6358434 1145.1167692 -33181.881027 -6793.4539529 2649.2982449 
6367.5693733 -2752.6114105 -6898.4551174 3271.8875216 5614.9669772 39026.655143 27350.297016 15403.722485 -2315.1650008 
1210.8019625 1368.8755123 1353.3699241 975.03256901 2038.9049859 1792.3278189 4701.3503258 -7007.3848313 1676.1450171 
2.5068595985 17041.690793 1598.2327177 2385.0179357 3663.8701575 5159.7795109 3761.5122217 1658.3772616 8227.6567353 
2929.7406411 3282.4933057 3833.2084589 2201.4454111 -5159.7611834 3297.7913564 3081.5931227 3682.6468966 3709.8247718 
13510.46829 -3305.1418152 -4523.455151 4725.3103849 3004.7230167 3533.4261866 -6694.7903014 -60693.866605 4309.0211615 
19805.227462 3345.9305572 3525.5055503 3395.4073924 3218.4949546 39301.193611 5745.1314665 2516.8319073 -7165.1623255 
3580.6872125 3852.1394251 3815.5998372 3797.0715516 3169.9648263 3691.3367176 3514.6914245 4498.0240896 590.71140009 
-722.949719 1949.1291003 2228.3787445 1900.107823 3802.2906513 3140.2139998 6327.5838134 4264.4408671 10008.177351 
4230.3241142 3503.8371038 3695.7878096 11491.656819 2096.2931558 3914.450592 3148.4122379 3653.8359977 3733.4082119 
-10828.692368 2719.1334403 18506.487731 2222.6383794 2392.6397573 3074.8268163 7565.395206 48797.739267 -445.91049349 
-8665.2481627 -56528.095684 -40409.908172 14997.339163 25693.878758 3680.2349665 3230.5242317 3932.4904703 3492.3968144 
3636.4568172 3160.1917663 3405.4962143 4060.6710291 3024.8593675 3212.0209369 3303.9124269 829.19916118 1826.9016335 
3130.5422817 -750.438892 1608.6058735 3008.9999121 4296.1395021 4590.2925273 3729.4333227 3995.0258068 3997.6967261 
3825.4455283 3936.2136712 4014.8436584 2911.3388436 3359.6523359 3825.7024973 3389.9036159 3116.4761728 4025.6153926 
3219.427941 3392.2314088 3402.2127592 2746.4752176 3173.8937185 3193.1603425 2154.1065547 2141.2320852 4384.9294178 
4502.1400945 3503.5179231 3909.6513103 4452.8898645 3937.9425835 2498.5379388 2648.9801925 4174.3982366 4175.0900736 
3851.0075365 3614.2104262 3999.1309535 4047.4842893 4038.4242252 3672.4263199 3968.9819399 4076.2201565 3629.9528202 
3744.7076228 4205.3541056 4075.0209211 -1668.0141336 -2688.6860233 -807.59063911 1089.8691598 9843.9328376 -1152.1463134 
7988.8566634 598.00732279 -1719.6300622 7730.8344482 1566.6553888 -13.035714039 484.97478933 3403.3937555 9593.3302121 
49950.457409 24789.715139 25141.910524 42060.200416 -20181.25044 21873.181937 13716.624978 34554.193867 -29332.974261 
-32892.270009 720.48139257 2482.9206677 -1290.3484503 -936.7047489 -112989.52221 -102342.24632 63483.80595 48583.866488 
26900.879463 14649.50472 -11009.300527 -33324.970129 1440.9128003 -6527.1845962 -1573.0833918 -1450.7045826 -3137.7275834 
4021.0189898 3935.4999686 9862.7950483 -4164.8746645 -3007.4673045 -3761.7074382 -3640.5190616 -2951.7890381 -6380.8438504 
-3520.3692387 -2773.731765 -3537.9358283 -4403.5030264 -4970.355245 -2421.9940987 -2194.1573421 -2885.9627971 -1579.2937814 
-2396.8767384 -4804.7980762 -3576.1877881 -2730.1283625 -2137.0232287 -1564.2694134 -3433.8794812 -3825.1541545 -3030.8364737 
-3577.4142462 -10522.381636 -9997.5959077 -5437.9573482 -4823.7043743 -4474.7499461 -3384.9445388 -2872.5901715 -3687.4084033 
-1496.7002581 -1496.7002581 -2891.1241122 -2859.3165109 -2771.7916874 -3058.7433631 -3767.3568585 -3002.0789266 -4217.3129183 
-4130.8774723 -3866.9427824 -2993.2385291 -2754.7887066 -3661.0585605 -1779.4213079 -2779.6829313 -2064.9422373 -1103.2070048 
-2460.1266827 -4621.9349764 -3778.7585047 -7706.5732682 -780.33598498 -2326.9718883 2224.2894933 -1286.1126789 -5576.5721737 
-3512.574177 3971.0978294 -3950.4781426 -3204.9383662 1580.3130351 8259.7495381 34904.608756 91.68033628 -3769.1217976 
-1087.4428646 -6498.1311052 -5405.4857505 -8618.3537762 -3646.8659453 -3222.513047 -3655.4071655 -6898.9537574 -62319.882192 
1633.0491018 26870.502518 -4733.9931507 -3931.6414244 -3754.5155565 -4018.9593917 -1744.0441813 -410.17972732 -468.13114167 
-2201.8188025 -1916.0473484 -1789.6736433 -3042.8994514 -2661.9534928 -2576.5495535 -2516.2160664 -2266.2087602 -3679.155893 
-3394.5880503 -3200.350217 -3818.3367224 32581.831166 30110.211093 -52561.209783 40956.773252 4686.9346696 -63293.997881 
-438.61985796 -5722.6070178 -4474.7082911 5578.2089672 -2543.5106688 -9536.0232573 -11094.62068 -3611.7898713 -4885.7147955 
-3910.9848935 2980.2292294 -27872.117705 -2105.9534448 22519.520031 2030.220839 2013.3458728 2267.8599293 -3212.7790984 
-2986.6539957 -2793.6210817 -3517.4917347 -4760.3986242 -3991.8567993 -3685.6186725 -3625.5649561 -2638.072996 -2567.0862496 
-2354.2069779 -1742.0871347 -1085.5810816 699.62486509 -1883.4778849 -4190.5576213 -3814.0383205 -1331.6068031 -1960.9696741 
-3309.8742125 -3814.2709091 -5195.3087941 -963.74060471 -3773.4855041 -4703.3125589 -1701.3608552 -2634.6674617 -13381.335989 
-1698.9453704 -2041.975163 -2695.8940854 -22028.593523 9328.964059 -3980.0107377 -343.45943209 -189.66889134 -5278.2792616 
-7165.7549247 -9734.1437825 -3142.8424101 -3643.8164596 -3586.188577 -31707.177321 -6871.3338477 1499.0547936 13990.549383 
-3815.7054352 -5384.6166751 -3927.3643969 -3509.8139106 -1156.6998087 -1423.2337209 -1808.2732026 -1714.2233962 -1819.2870213 
-1847.9547635 -2635.9227716 -2944.4695469 -2654.3742523 -3289.1445208 -3524.7254723 -2990.9218962 -3584.181529 32637.713301 
56851.514909 -70061.459479 7057.0692611 26321.603905 -41092.847292 -4846.0568082 5424.39141 -3606.5390327 -8367.8640683 
-6197.8562942 -3110.7046103 -4864.3065136 -1394.6221545 795.96453087 -1247.2252404 -715.43444289 -2186.4939109 -2632.1830991 
-3356.0187264 -2674.1491391 -1373.4809702 -6873.6103955 28259.04811 358.87335853 -13343.651946 -10527.820908 -841.23305139 
-3457.0817333 -3767.6651495 -3526.442002 -1691.5053233 -2716.9873521 -2719.6996018 -2639.0406167 -2995.5556711 -3109.7060196 
-4184.8236187 -1002.0651305 -4352.2326157 573.11495839 -2612.8392124 -2726.9850218 -936.29372378 -1666.533244 -3546.7703804 
-3521.6391242 -4507.2032195 95.985607609 780.16235476 766.34725983 58.144619593 -310.98392717 226.68287313 -807.34853299 
-3250.0303331 -2884.4807155 -3655.7020399 -3000.6714319 -3261.7594798 -3876.9097501 206.14862605 483.93534513 586.66100981 
-561.6356435 -2688.0258577 -2687.2618676 -4510.6766017 -4517.0472137 -311.83937907 -1711.8971363 74.863086263 -2168.5325267 
-2307.6614015 -2283.1309577 -2781.5967565 -3096.757124 -2424.7583701 -2645.0006662 -2851.835411 -3329.2600368 -3745.7038545 
-3403.4133482 -4096.647081 -1874.9955822 -1272.2882312 -1601.1866057 -3064.4005476 -2501.8272046 -1910.9686395 -3044.0774988 
-2963.3906947 -2686.0505095 -3133.5197682 -3132.2270619 -3552.9665386 -3472.9276061 -3420.2364418 -3840.9762419 -3338.8564291 
-3178.3304957 -3414.507294 -3538.4872252 -3725.7522935 -4096.2630641 -4124.4877563 -4014.2363835 -2589.726849 -1801.6968931 
-3434.5953037 -1647.5626401 -1407.6871785 -1260.6603988 -311.5907115 -105.12922144 -3304.271093 -3163.0550798 -2846.8081054 
-2673.279006 -3013.5397258 -3030.1820163 661.06438117 5132.6533601 -12164.666234 1187.40682 -1207.2379756 2532.0147186 
2298.5007472 -11278.819466 -8439.6778871 1998.859637 1951.0694738 629.57761512 -292.43230747 4342.0343562 1623.2463521 
-745.23682154 -40874.999361 -46219.010776 4635.7477202 -20774.168081 -41502.588571 -42157.628823 -3714.6629696 -4032.4320343 
-3304.0459937 -3514.9539218 -3907.99736 -3470.6057464 52233.671249 142877.56524 -51485.620284 -47873.078285 -20981.448101 
-22430.827267 -7637.4333636 -6641.4695559 -587.01863688 -47623.658115 -31030.31014 3057.1487036 -957.43596887 -5684.3928639 
-2439.4665483 -2281.9774837 -814.81483799 -1374.2042983 -811.17941873 258.43924061 3745.2559996 13293.093001 -9295.0814296 
-25578.982991 366.67681011 -3890.6938059 3325.0938415 2066.1286343 -3558.1082223 -397.31322644 -1370.1255752 -1986.9759874 
1037.5001402 2065.5106867 -1749.0794974 -867.85068494 -1566.4624232 616.42481796 1628.4991923 453.12958696 679.66930944 
314.27293459 -2295.1570759 14930.067472 -6479.9390394 -10029.958523 -33531.292678 14193.65272 -1799.0251253 1899.4795558 
1125.0240721 5483.5289836 349.38820817 -889.00285407 -5935.431915 -5473.5425227 3076.8605703 2705.0863541 373.84546835 
13858.816662 1785.0649985 -10134.856812 2258.5950812 -10878.123744 20143.097194 -36472.061267 3578.6476572 5822.077887 
271.4894838 17511.249305 -10820.023796 -40825.198454 23623.107865 3319.6866448 -12.717529962 -2058.013464 4912.4786248 
7480.9416122 -4307.4168215 515.71783557 15106.023995 3939.19383 -8907.1834276 -616.15968942 19136.142947 11876.805365 
8739.364802 6516.7809742 9858.7028959 9436.7923733 23380.177134 2125.91647 14885.115679 3215.7467893 -17321.636901 
11168.483163 -16733.000483 -8241.5951596 -10079.370537 -12733.064326 -12382.972061 -15315.301576 -14740.866693 -3818.929595 
-11623.330096 -19795.587342 -7702.6510797 3575.8565547 -11848.059886 -12886.302102 -12117.627876 4959.1749609 -6681.7700837 
-19410.985316 -13722.630297 -13092.410638 -13543.607196 -14147.776204 -15990.159418 -14166.914712 -17069.86138 -11013.786924 
-13184.013256 -2563.8263273 -4878.4455438 -15725.409208 -14808.895288 -12913.930256 -14941.21777 -17021.932585 -16082.856284 
-12158.890224 -14935.028315 -15184.924297 -18772.088485 -21314.911325 -16985.330311 -18486.260726 -13934.807431 -15057.233497 
-16375.900314 1382.9800104 1790.7240559 -1924.3363734 345.63241511 278.80114743 -3506.285017 859.33002264 77.142798232 
-2154.2733291 -5722.0682821 -1035.0198294 3612.4950941 -82.034279833 -593.67864119 -2064.8605466 -524.58700212 -11180.445243 
44.713626051 5267.1426159 -2101.8073977 -9516.8987064 14420.831278 -8705.4233422 -13078.040893 945.34000147 -10647.191809 
-9094.4424143 -9520.5052139 -15024.137442 -3718.4701153 12184.618532 5046.677562 -10983.704699 -9223.9197097 -3938.3319255 
495.42142812 13596.700335 45762.003821 -18500.931605 13276.306945 22149.851912 -11512.711875 -1102.0817456 11341.170264 
2497.9923213 -7188.0783628 -5829.4540211 -8155.7825877 -6649.6893572 6076.493076 1522.7524766 -7963.796411 3050.4826931 
-1788.5483866 -6776.5259258 -1263.0546976 -2488.1512237 2672.3019788 769.2312421 -1089.2235502 808.5068293 -5705.7162211 
2467.0151459 3344.7256758 2087.1425364 17922.005374 1487.3661782 6593.3478428 -18405.42022 -19090.908902 -4459.4847835 
363.42091422 10585.525209 -1027.7868056 636.24566734 6396.6168744 -2640.68964 -3318.1893327 -1025.2799468 -193.15944044 
1496.9016132 -2550.5274606 -123.73400679 -640.18897134 -3429.0543756 1173.7809222 -1647.9752283 -2741.1650741 -5588.5533035 
-1881.496061 -1165.3814268 2985.8036996 -5052.9909346 -624.31834339 -2760.6752128 -4929.0486572 -6216.7210315 8675.6433217 
-15561.018132 9275.8669389 24505.713612 -15328.665494 -8726.2661297 1064.9226919 -8933.1673196 -10550.6418 -9022.9974328 
-4168.4642538 -2359.0022071 -4757.9052116 -1807.4725858 -9765.7584086 -9596.6318583 -2893.1153816 1988.3399605 38884.984876 
17580.19055 -3388.8229254 28014.859401 14994.880084 -10344.446971 6344.9065539 -2107.5046516 2044.5077885 -5511.4188436 
-8428.2789392 -8242.0713432 -6006.968407 3674.8866651 -2314.9572442 -11639.213344 -190.178394 -2362.0394439 4937.267356 
-3606.6378272 -2764.1881856 6367.5135928 -672.49239335 841.02500391 -1320.4909878 -6405.5603846 3459.5605006 -2941.5715424 
-11141.112111 -356.47330032 -7337.3737706 -8060.4328299 -6186.3589034 12745.836686 -11725.065215 -3887.7652737 8726.4749128 
-5843.3688104 2211.5792585 3759.5600123 -521.37243614 -5549.953137 -8091.7656329 1319.6005847 -3289.6531825 -872.08627148 
-38.56429455 1037.5335825 3589.090437 2068.075759 2594.3019718 2632.9726425 -954.00886655 1347.0435425 8136.9294591 
-3318.9978323 -4339.9548023 -6780.9570516 -5146.604508 -3874.7166672 -5221.8225128 -14220.935111 -15749.074618 1451.0858847 
-24581.688675 -12028.127691 -5143.1514366 32490.701911 -2211.2180994 -11615.445601 16115.865997 -1079.4798742 -5016.0451566 
-8728.9635794 -992.29498132 -2410.3497795 -1381.2670962 1783.3275939 -13180.002791 1168.6048187 76887.826865 -2505.8860769 
-2520.5298038 33147.104585 -2904.100246 -4220.4787861 72.838553921 -2289.414541 -998.78099191 -2383.2832752 2530.6456599 
-2435.6849987 -6896.4889626 -11751.341768 -6064.4864858 -4133.5797028 1840.6078213 2604.4469755 -4366.4981559 -3880.2906515 
1432.2773006 18339.17201 9948.6668919 -2952.6602184 -33340.900904 51269.698632 -1247.8173565 -2989.7894617 -10.618149605 
350.67512469 3386.8706826 999.23254877 -306.63012987 -972.31967233 -930.79577331 917.17510885 205.21955125 293.19543776 
1698.7750198 -149.71235633 174.60105323 390.36260035 541.87990288 -864.60006602 -2532.5914362 1934.5477619 -2649.6297637 
-2117.9760145 -2540.1462652 1169.8940896 -27595.393069 -12912.602052 5038.1947477 -11632.241567 -29432.614896 3733.383268 
-1751.4660097 -5569.2821486 449.56162158 -1006.8451018 -19049.904647 -17927.297237 9588.676309 8199.7480589 2.2787807865 
4261.8184192 6080.678226 3250.4044532 -1981.9593496 2050.6844579 778.82577763 3549.4756342 2519.5577553 -1035.0419412 
-401.30463135 -1538.6675837 -17131.747561 -4725.8067186 -2807.5579351 5287.2363196 -754.13970946 2522.3151819 5113.6650072 
1609.6445608 1318.9211677 2947.6240056 249.80258424 41.296508687 -2397.0521167 -17438.764395 -879.64649229 -2613.0175764 
11186.936972 -563.55222574 -2951.047105 -1842.3475959 1789.522158 2336.7483744 977.5735514 1061.1613383 -1481.3816746 
936.66055211 3477.1592357 7493.8953327 -4630.6258905 -6022.672492 -4133.1055616 3310.0741695 40743.288041 29220.285971 
-757.67918943 12259.088386 -19400.368731 5360.6869626 -1469.720767 1404.3333055 2907.9211897 3492.7667725 -13203.362279 
18751.189542 1815.1857192 11730.596244 1917.6646633 3342.567218 3106.9599001 3518.3470664 3247.8044292 3337.3176913 
3488.8280365 3554.0919045 3671.9807445 3214.1563038 3443.2276625 3786.5254213 3521.010839 3543.3687511 3453.7647425 
3348.4738757 11730.875013 5535.0143537 -7567.3344934 8420.9066573 38720.572508 1050.1492514 920.65651098 3540.5201629 
3213.0151833 3683.4138524 -2593.3868193 9938.7113253 6115.9042738 3937.4366389 6929.8441458 3511.1334362 4023.0001489 
3819.2944343 3405.4917758 3935.0744296 3360.3287821 3699.6099388 3289.415255 3693.8252197 3128.781536 853.43483128 
1800.940786 10551.024531 3839.3117282 3481.5731347 3417.0902917 3777.6840016 3599.4806856 3868.2054418 3576.0385135 
-37.075287318 2997.0160404 6089.5605674 2500.1558476 3897.9403469 3296.4619456 3425.2818114 2424.1830288 3384.0744097 
2597.8379691 3853.3105337 3789.1385123 4793.5130468 3638.6397436 4319.1416885 2684.142674 -1469.3495206 -8582.083045 
4361.6027246 2442.8122917 3898.6575238 -40167.948065 2390.2595736 3400.0084379 3936.3113929 3027.9318576 4845.3292888 
3664.908763 314.46203486 3831.8643223 -524.89139393 3574.6759361 1885.7247965 -5074.2993038 -3545.7254044 5211.8641371 
-15287.442236 3773.9638744 3890.7221153 3449.6681643 -3299.5210815 2757.7851707 3011.8555825 3101.417437 2379.1925988 
2846.6599082 2573.4655017 8678.3822626 3166.3285809 -1176.2289274 -3016.3014836 -3467.9198169 -2208.8954047 -1153.5732209 
-1214.0684512 -2415.7355496 2535.5627808 -2558.9453555 -910.09291925 -1805.0739189 -698.59668185 -2397.3185989 -5092.1757028 
1390.6710512 -876.5595605 -3858.3935465 -5800.8750407 -46228.882632 8386.4151122 -592.52988993 -2740.4842331 -3211.8970334 
-875.21617886 -846.01626904 -12132.715719 -2689.0071717 -3412.2650967 -3550.5544803 -3309.2998292 -3108.2834891 -3263.9221724 
-2826.988109 -2822.7946636 -2641.5176696 1531.804304 -909.27574734 990.98816558 -4819.6148315 -3838.3562774 -3980.6190873 
-3711.6874425 -3415.3023808 -3641.8484063 -3764.6164731 -3745.8939408 -3268.2345435 -3712.1825655 -4037.1381767 -1577.4237436 
-9459.8238304 -3860.1734742 -3738.0677686 1971.2969726 -12496.249614 -960.13574127 -2110.3672262 -799.75733391 -2415.0127108 
-1302.6878374 -3554.664473 -3381.3280772 -3142.8555616 -2853.3156893 -3317.2512493 -1047.3486622 -361.08268038 -1685.7672092 
-2658.5148667 -1546.5469119 -2857.8839946 -2694.1922881 -2971.5370257 -2726.4521527 -5028.8375338 -3741.6894086 -3288.8609055 
-1020.9878932 -3692.4737711 -3972.6942341 -3436.8849256 -5230.6032232 -3966.5135709 -4317.2749986 -6298.6571219 -3012.944389 
-663.95546187 -1920.6349253 40810.669229 9310.5262825 -1882.4977454 -2382.3258816 -3028.2778202 -3645.5612393 -2677.1417396 
-3655.5623461 -3600.2098013 -3485.40503 -12267.310007 -7050.9539253 -4566.3047163 -2650.1949342 -2825.299155 -2650.6892925 
-380.20931384 -3157.049466 -601.41023011 -1117.6638935 -1791.6208891 -3218.6805852 -538.28446972 -5123.0789573 -3910.8745775 
-1479.7845109 -3498.5663696 -2984.3581473 -654.56612277 -2990.1625946 -1598.7757081 -2242.0879807 -1755.6158413 -750.36702725 
-907.61865101 -1992.324324 -3206.0911691 -2069.8883584 -2326.1023281 -2541.3156624 -2345.6648014 -2426.0225762 -3482.3107436 
-6799.4617344 -2603.6732236 -2767.3007877 -447.46195241 -1834.9766138 -1651.3631471 -1571.6219346 -10757.624719 -3413.5005562 
-2972.7786817 -2069.2610367 -2199.7981247 -4357.1936144 -9572.992638 -3503.4172308 547.09802103 13501.965318 -1220.5306203 
-1754.5666612 -1194.2720865 -1497.8107064 -565.92887247 -2004.2537536 -1979.8973093 4670.6098858 -10227.443053 -5252.9920674 
-300.27694634 -6217.7845658 -1686.3120791 -258.38419782 -1618.6633095 -1782.2509367 -1350.253695 1122.8456682 -1486.8895169 
790.06719633 -2160.1466506 16723.501757 -5535.6039412 -6956.5804142 5713.1320567 -1580.7852933 -2250.8876742 283.32778477 
-2071.6067466 -1179.9832046 -3256.7635752 -981.05087332 27.369751598 -1276.9598628 -3245.9700727 -11439.585254 -20777.335392 
-478.95818409 -223.70882668 1027.4789842 -1447.1131196 -437.40644237 -1283.2224572 -2864.5718148 -2546.6713224 6.5479088772 
-2372.003875 -2010.7258889 -968.3128099 -2803.2046861 -2405.0046059 -1237.9292883 -1594.1515829 -2317.138803 -2552.0151309 
-1782.3098937 186.64036058 -2108.7053012 -1356.46987 -1638.7504227 -525.34021013 912.22124567 -2167.1038578 -2290.05254 
909.58682769 -3522.4931934 -2769.257847 -236.85863838 -6685.856055 -1628.1340802 -1552.501843 -2281.5308923 -8145.7443433 
-1807.0099781 -824.14740751 949.17104515 -857.22243785 -5734.2066394 -3769.0714303 727.66265384 363.06630605 860.19616193 
-2593.3904088 458.1100538 368.06950502 -271.58753677 -4300.3343646 5446.9608683 17375.738861 -4867.5793579 22526.600575 
15629.169365 -1265.0472493 -1850.8079979 -2460.5134644 -1491.1572105 -1652.6079005 -971.15106218 -2358.9385397 -2628.6024765 
-2411.4350598 74.945410748 362.70885996 28752.888782 383.50492971 -1727.5645181 958.99435108 -18418.586409 10417.092281 
40191.622392 21892.085452 -2626.5351428 -2245.9109758 5570.8894802 2776.6010614 1080.1395282 -960.43981808 217.15467087 
6073.1599201 -3818.8129512 3452.1760104 21566.275081 -103.814912 986.39722724 -1277.022799 369.4705134 2606.9957197 
-290.95853358 3479.2340195 -697.26344256 -585.82431121 -3808.1710118 4059.3731665 -794.05464428 -22996.471487 -11972.957295 
15479.918793 -1089.4253991 -999.57761321 13166.527314 2333.0969339 -2820.2813661 1417.9658329 5286.7138402 -456.22675067 
-3421.7687513 -573.30883049 -1259.216833 -7736.4253391 -4179.1901335 -2081.4454951 -3729.5275484 13322.58419 734.84265093 
561.64093169 -2485.9770249 -5854.5908014 -3221.0144081 1038.4105935 -1556.7860414 15056.69179 -29144.315114 16371.877975 
6054.613236 -22156.298374 2420.8564092 -268.4248868 1563.7161771 1258.4796787 2093.9113182 1446.330473 -11781.510159 
-3540.4611276 -1314.8420992 2635.6428177 -3654.8079736 -9520.8652569 2645.393055 1452.9259214 381.43242316 -4.4417110667 
-2594.0689479 8397.7775853 5029.811555 -2286.4172429 2363.3672184 1435.2365611 2359.1127379 -5455.9834689 -2942.7693766 
1900.2315295 4717.9282284 -2040.4901357 7847.4486461 -615.66626606 587.95786609 -2184.1006339 -6404.5225789 159.16526751 
-302.78198603 -1514.1090783 1763.2008938 195.49982732 -2515.1258783 6380.5591548 513.61651885 7610.8309788 5347.6755219 
-718.61270155 6659.3859965 -8336.23814 724.31774106 -8.4510890905 -1344.0529489 -382.25977606 1902.0219749 -610.50053956 
2123.2065197 -37.872451355 2189.0593581 -2243.3153178 4084.5103203 -5784.6842016 -884.28606364 4005.1607389 5581.3241559 
2672.2771256 -541.58322118 -6806.1997927 -20107.506657 -10605.539728 4465.4319231 6298.267125 -7079.1585579 -6408.1789026 
-5521.0153961 -1372.5477198 3282.3055515 -2771.6261196 -7888.7889654 -16630.588775 -8807.1160281 1732.8205943 4582.1642511 
2868.304351 -1400.0736933 -57.500668416 1005.5496187 -5009.2310492 261.80814451 -4506.2454566 -3994.4085038 -2673.3360934 
3518.7188289 -5147.6008831 -2747.6592809 -80.341332792 -3005.2046638 3269.4113485 342.71466445 -3240.4299424 4192.2266302 
4322.3798667 222.46906209 4247.4569699 -3886.7012593 -1401.0337721 -4372.4845806 -1651.6479421 3009.3446246 1482.2091702 
-12002.681662 -13092.52041 -10594.218052 -407.57853399 3014.2281866 4576.6504268 -340.09021201 -5212.1039102 3111.6760752 
1022.441342 -9629.5435437 -11392.132242 -7454.0405899 -9127.7412672 1872.5385914 -1628.4986959 3308.2866323 2386.6759302 
-1201.4549473 -6825.8060182 -9028.1223877 -11244.819501 -7083.741989 -1893.5775521 3563.0934651 1183.1007257 867.148031 
6306.095347 2911.3284213 4417.2984705 -2064.395559 -7014.7566095 -2158.0213457 -144.52548451 3501.9160028 6931.6718998 
992.05422756 -8901.1852249 -8251.1867911 -238.42182837 -6179.351499 -2126.6681531 4391.3155562 -2569.5995714 -9161.3627555 
6440.6385902 -10802.21698 -5547.3895099 -8592.5334518 3181.4036038 -9989.0788725 -1393.820744 -6402.7442491 -10406.143144 
-7393.5989548 5047.3490884 -10050.547789 -5888.9212865 -2470.1673807 997.86767132 -2592.6914918 2100.4064564 -6223.0328935 
3295.7756768 -351.18454016 6419.0522221 9485.7428392 476.15651844 7999.4172712 -1457.7790417 5291.3425468 -2252.4972647 
-9153.3433752 1701.1594514 -471.9471576 -1284.764589 5728.4210359 15621.941148 -858.43501811 -699.35314324 -3707.6419673 
-2373.6693738 7261.5274758 -9728.5284617 4700.8181872 -1577.7093367 -2933.191458 2901.5119783 -3391.8290533 -14172.305863 
-17943.285863 -10262.007972 -844.41583243 -3217.9872552 -2840.9135014 -7681.3411852 -8955.086812 -4541.2649496 4227.1808091 
-9291.1813394 1898.1428705 1347.8444707 8390.5333891 -3209.6236702 2385.7039801 14974.179079 -4866.2298892 7850.6976215 
-5318.4477693 22038.741647 -3407.0750803 3785.56587 -14112.803282 
